sxx,syy,szz,sxy,sxz,syz,smises
1.532838159426477276e-01,4.131289326180761501e-01,3.667911802506407803e-01,3.688447813702204481e-02,-7.222459141934092774e-02,1.301254500406734751e-02,2.790422439575195312e-01
1.330109382219990810e-01,3.838182314814933549e-01,4.115175111105239814e-01,6.186611542411430721e-03,-4.354438613824605092e-02,-2.799159736610688960e-03,2.764876186847686768e-01
2.016568469415183362e-01,3.851983469615278266e-01,3.829494496751426613e-01,1.887324348755379730e-03,-4.408446240935229299e-02,-1.267605586573450176e-03,1.978019177913665771e-01
1.480121575660537092e-01,4.574390386334563630e-01,4.108094456294721919e-01,3.327801932452418426e-02,-6.098574995318803427e-02,-2.975490826711734565e-02,3.172175884246826172e-01
2.039345338808971064e-01,3.835768257673833337e-01,3.355787715499393142e-01,1.479793882790933664e-02,-1.238411372525109744e-01,2.167048157641438683e-02,2.720814943313598633e-01
1.970850181507163013e-01,4.672133903055192272e-01,3.468792293798956816e-01,1.175356674716715455e-03,-1.221908921775727436e-01,4.549021282667641691e-02,3.254966139793395996e-01
3.493150838232114141e-01,3.020234340001146656e-01,3.270695200418546333e-01,-2.174030364053228942e-02,-1.605383750216893626e-02,-2.781862576981892349e-02,7.868966460227966309e-02
3.412409728277813192e-01,2.958666267761153601e-01,3.205972522115324574e-01,-1.588210436809445875e-02,-9.102327178612479308e-03,-3.350116526891871310e-02,7.694520056247711182e-02
3.511100913936617829e-01,2.937348826753607423e-01,3.281063906829577714e-01,-4.665972378869823536e-03,-3.931567278872678817e-03,-1.372073867815663470e-02,5.637113004922866821e-02
3.556737121610810126e-01,2.966769154130142749e-01,3.041824637692427946e-01,-7.489495935183748676e-03,-2.746109356692988130e-03,-2.479159765963184076e-02,7.161650061607360840e-02
3.453757628837585969e-01,2.963855972307920528e-01,3.063142813475749349e-01,-5.822897480356145107e-03,-4.128311404343274968e-03,-2.344982158254588916e-02,6.176355481147766113e-02
3.399325379956821269e-01,3.084329745988316218e-01,3.067925767159548345e-01,-9.206731914658533925e-03,-3.967032088483035679e-03,-1.273506771728239242e-02,4.283263906836509705e-02
3.388724797745016337e-01,2.914868528807436077e-01,3.097321759354005333e-01,-3.446072699911825223e-03,-6.011402923204773804e-03,-1.072104536730919370e-02,4.693168401718139648e-02
3.151205048625997929e-01,2.944851222814268699e-01,3.307089263454990324e-01,1.869405546246494937e-02,1.213859333688419376e-02,-1.368720019004977112e-02,5.516292899847030640e-02
3.156950538304640896e-01,3.475995670816298677e-01,3.052477622099415422e-01,2.323902980497549123e-03,-1.058263042408180872e-02,6.345863019778608203e-04,4.258809238672256470e-02
3.103089642747662857e-01,3.067064265394583433e-01,3.092754406769142594e-01,3.090774747477074980e-02,2.670580575308250867e-02,-3.142993745548991469e-02,8.932700008153915405e-02
3.225290964152516260e-01,2.888688497792316623e-01,3.220135661314226794e-01,2.505465270942895673e-02,1.912687788994263394e-02,-2.470649321338821980e-02,7.699270546436309814e-02
3.061916819234164477e-01,3.175915150470592363e-01,3.184239695284080129e-01,2.950117792201485678e-02,2.849036560265848575e-02,-2.106921977939749807e-02,8.073373883962631226e-02
3.132490281181257719e-01,2.960048910751245099e-01,3.291382303606367188e-01,1.911042223584745459e-02,1.389466186147779794e-02,-1.473751442309867779e-02,5.612677708268165588e-02
3.362670689496747300e-01,2.874242546498251283e-01,3.394647212048485518e-01,4.256619189057653241e-02,2.811232219817014211e-02,-3.656677943426104443e-02,1.198747903108596802e-01
3.129670118876412555e-01,3.160825355304901496e-01,3.240573711029020587e-01,1.449137008574246212e-03,1.536186764758331463e-03,-2.144398956405169088e-03,1.119487453252077103e-02
3.120725364484350228e-01,3.123513652640294569e-01,3.313752006396781802e-01,2.908003264217766740e-02,2.303239358388770031e-02,-2.196733320101078996e-02,7.709343731403350830e-02
2.784966151054126260e-01,3.154346510435889206e-01,3.275232112457206468e-01,3.495826967556801834e-02,5.377870920773749480e-02,-3.992944356357636115e-02,1.381406933069229126e-01
3.208899558895708659e-01,3.044172950398656430e-01,3.315261525080600014e-01,1.304834603094105240e-02,1.053375149480129287e-02,-1.025145795236677426e-02,4.145622625946998596e-02
3.347755575898385128e-01,3.124708634327839074e-01,3.104127733723170413e-01,1.984249016308722510e-02,1.615797197009619449e-02,-3.318079021606566703e-02,7.625580579042434692e-02
3.204464727437241756e-01,2.942699064448932589e-01,3.271149737206117680e-01,2.359542202404101355e-02,1.663922649059935976e-02,-1.962791353480596718e-02,6.753390282392501831e-02
3.203590230804232997e-01,3.039032881493963223e-01,3.135488731404297291e-01,1.262797011125668840e-02,1.274024364197524038e-02,-1.388686564139044767e-02,4.182076826691627502e-02
3.340123079086547153e-01,2.967263554339937826e-01,3.073507619284508441e-01,1.775033720694616651e-02,1.627582807720520663e-02,-2.433981595063343037e-02,6.800139695405960083e-02
3.370255952180334913e-01,2.967142545915707474e-01,3.288845700983955567e-01,1.764489137695709337e-02,2.247049583496957617e-02,-2.294616960532668698e-02,7.342670857906341553e-02
3.101877812860044381e-01,3.499015092310733266e-01,2.956673727433701826e-01,-5.205428673390897522e-03,4.232896701160894504e-02,-8.351584535013951982e-04,8.844935148954391479e-02
2.871947693209193631e-01,3.586185841047254130e-01,2.706667421386741434e-01,-1.063907367888203628e-02,6.788840503310948626e-02,9.629682277507742999e-03,1.449113488197326660e-01
2.813970708812386645e-01,3.579676814714812805e-01,3.171324001284454575e-01,-1.733926136911316919e-03,4.337925895698726414e-02,7.827123924274800859e-03,1.012022122740745544e-01
2.822450832964815137e-01,3.262891248477747808e-01,3.488409993173525736e-01,4.967030647990447641e-03,-1.598546128761160756e-03,3.085232051567322279e-03,5.959846079349517822e-02
2.739559514249466643e-01,3.553698621143652758e-01,3.409323973841775213e-01,5.567953634824979094e-04,1.501345005956490966e-02,2.789929878186331834e-03,7.976055890321731567e-02
2.737213671178021501e-01,3.576643082131206741e-01,3.228522723734306710e-01,-5.277159518066172443e-03,6.075094422252740045e-02,7.944352857931297196e-03,1.291548907756805420e-01
3.073564462232821759e-01,3.671701602630644268e-01,2.682216073977130022e-01,1.092617344682335345e-02,6.532004342100472538e-02,-9.752330051018857568e-03,1.445462107658386230e-01
2.516806429620369046e-01,3.780111312131648194e-01,3.271178515137550535e-01,-1.901989117360449247e-03,4.089208547772904545e-02,-1.025426676456738830e-02,1.321474015712738037e-01
2.962526625190248231e-01,3.678967910713547562e-01,2.932027994690076245e-01,1.169995728963985765e-02,9.132870934645920258e-02,-1.481600606565004405e-02,1.773490756750106812e-01
3.426292129331690028e-01,3.030626749368397488e-01,2.999246228148719773e-01,2.345411500072662903e-03,-1.787944720965357588e-03,1.286624984572529856e-02,4.714057967066764832e-02
3.407804097641823349e-01,3.095725755584834427e-01,3.037129388534428598e-01,1.539908730811405521e-03,-6.955192050484041658e-04,3.277715614838535609e-03,3.509880602359771729e-02
3.404876003094384207e-01,3.144364351742063857e-01,2.919908960271232479e-01,3.001012791199643513e-03,-2.157086536746486132e-03,8.674628931677023924e-03,4.509903118014335632e-02
2.605281121736283123e-01,3.342944967877877205e-01,3.716644617568350406e-01,-5.179082923428948715e-02,-2.255725193859274211e-02,2.643080638564376198e-03,1.385242193937301636e-01
3.540238815234330594e-01,3.616847286651033722e-01,2.098857720620123102e-01,-6.170166813532032037e-03,2.227711818015606221e-02,1.417295036631439041e-02,1.553844958543777466e-01
2.887653915923331649e-01,3.239193422744475748e-01,4.013323352963623081e-01,-7.588372263869744283e-02,-3.258243256871382748e-03,-8.560130275332237040e-03,1.657607853412628174e-01
3.100402215877183232e-01,3.277030563781067052e-01,3.121473747857320680e-01,9.107073753507981522e-04,8.417241838567986753e-04,-2.201795906042856941e-03,1.727295294404029846e-02
1.893808843179529133e-01,3.378879753950270737e-01,4.466548265130183548e-01,-1.014658886098491059e-01,-5.241509320541565264e-02,-4.257525036489894291e-04,2.986063957214355469e-01
2.311645390515607024e-01,3.027397235620566951e-01,3.819317177122054652e-01,-1.077007534232362895e-01,-4.033030520438893318e-02,-3.328765137116518336e-02,2.450810521841049194e-01
3.744367150972709446e-01,2.565442159907282971e-01,3.376399859171189677e-01,-1.180000317827712905e-02,8.659043160211073523e-03,-5.152599957236193851e-02,1.397212445735931396e-01
3.494311014078920197e-01,2.831210998411288204e-01,3.102928840042753489e-01,2.552617182784372787e-03,1.759691775525932178e-03,-3.332887662241994925e-02,8.182200044393539429e-02
3.591414871373772022e-01,2.954443854364167121e-01,3.156873699412569012e-01,1.109278068514295279e-02,7.504178852818925091e-03,-4.623626430904845958e-02,1.006436496973037720e-01
3.541636800837396626e-01,2.623051402834336576e-01,3.317745464397697241e-01,3.460589521459871143e-02,1.891457734164229618e-02,-3.717336631246112577e-02,1.252764761447906494e-01
3.591630183128857734e-01,2.789388155654576318e-01,3.388318819490336309e-01,1.874427054460926431e-02,1.056568465739396966e-02,-2.761557475089140498e-02,9.431347995996475220e-02
3.571203075969295870e-01,2.808076648399549513e-01,3.265254004006079014e-01,1.626468903964904678e-02,4.093585308236539003e-03,-2.791572245006681413e-02,8.721607923507690430e-02
3.612022553056803420e-01,2.856838032503122293e-01,3.113410365433114668e-01,-2.620247560525555686e-03,3.694964553651349827e-03,-3.440445983129850061e-02,8.964536339044570923e-02
3.285043991684881148e-01,3.217315596136990363e-01,2.836473812815569207e-01,1.317991630458850531e-02,2.176258718751471199e-02,-2.333903455816945666e-02,7.300894707441329956e-02
3.516747385541639237e-01,3.145678571489556319e-01,2.876118774858357763e-01,8.861660475698069847e-03,1.987422283048951091e-02,-2.721434087060320417e-02,8.213525265455245972e-02
3.524295717534068895e-01,3.280306059280448938e-01,2.959778294168429191e-01,1.039350836232431734e-02,1.960869242194792153e-02,-3.826425431479676259e-02,9.096582978963851929e-02
3.551729838181136301e-01,3.149455633485069295e-01,2.373700690047297890e-01,1.876897082340786907e-02,2.381755285968044714e-02,-7.158726150465473392e-02,1.699697673320770264e-01
3.465447410292594177e-01,2.478556900909731353e-01,3.506385774659752652e-01,2.140453489728978004e-02,-4.909954660737999264e-03,1.579231515934733168e-02,1.111543178558349609e-01
3.293428071064832263e-01,3.375531698217262844e-01,2.909681491378304230e-01,1.439628466585114036e-02,2.150169051496811368e-02,-3.356675252309127694e-02,8.511169999837875366e-02
3.291138462559879407e-01,3.443642632515723223e-01,2.501456411870888186e-01,2.236119637269126312e-02,4.321161142571679908e-02,-3.958798894226606829e-02,1.395574361085891724e-01
3.064222293686333920e-01,3.384252173050531498e-01,3.223629210011475510e-01,-1.598026456446272753e-02,2.871779933608268470e-02,1.209023747071652499e-02,6.668516248464584351e-02
3.404692025063720262e-01,2.772522549077300891e-01,3.341649490807337974e-01,1.020522159107648506e-02,-8.846517184739624562e-03,2.482439836217226192e-02,7.767602801322937012e-02
3.193354884395746551e-01,3.387652677546836300e-01,3.084559140789480125e-01,-1.190751915377877106e-02,2.444136512420856666e-02,1.446081378712987982e-02,5.959968641400337219e-02
3.002449758781726707e-01,3.452176629418303166e-01,2.832235197553420458e-01,-2.876592452732234378e-02,4.750330214175330773e-02,3.232171008929868306e-02,1.243542432785034180e-01
3.355077844615145244e-01,3.050934348779804073e-01,3.184285320782274664e-01,1.512145753129972431e-02,-1.615559131860926784e-02,1.215000796009338413e-02,5.107966437935829163e-02
3.137576308339594111e-01,3.275001455890744206e-01,3.214803357513119075e-01,-2.821081612883005046e-02,2.485972847417377424e-02,2.746917349818631462e-02,8.153282850980758667e-02
3.188872656367690572e-01,3.240186051366157893e-01,3.106501727974013694e-01,-1.573094451027292132e-02,2.325079326246660624e-02,1.782189566118072208e-02,5.876643210649490356e-02
3.071632974939332850e-01,3.282809166775798038e-01,2.984912369617072625e-01,-3.624527713228872794e-02,3.744648426450835482e-02,4.275910468639700784e-02,1.197380200028419495e-01
2.569888141950654736e-01,3.075758495699512096e-01,3.986226325783251423e-01,6.217684569052683852e-02,-3.903128788709221697e-03,1.626796931700906154e-02,1.670086085796356201e-01
2.933562514481401484e-01,3.082386344587121352e-01,3.636531374330086441e-01,6.660635592424252183e-02,-3.074507024504620489e-02,1.323795304185221462e-02,1.441793292760848999e-01
3.284665128135252354e-01,3.130139626704200317e-01,3.122402433022621326e-01,-8.483693086015826239e-04,8.458135458439881198e-04,-1.731038576123780583e-04,1.599159650504589081e-02
3.188441928942630788e-01,2.994949770766158759e-01,3.625749263268030487e-01,3.926386753655364964e-02,1.849160714269034844e-04,3.183421150742534855e-03,8.825182169675827026e-02
3.116795353822474635e-01,3.008721156171156874e-01,3.498807328057264576e-01,3.930038156595055954e-02,-8.999463013688750734e-03,8.081912357180306939e-04,8.287025243043899536e-02
2.814493443717164256e-01,3.030441992568562171e-01,3.484931649697363687e-01,3.099599469576894140e-02,-3.802674218474861277e-03,4.090735883964978330e-03,8.055587112903594971e-02
2.812040217799111064e-01,3.034098980978603421e-01,3.488603824401225184e-01,3.027747948386709520e-02,-4.829068011630145360e-03,4.453871548803064497e-03,8.029796183109283447e-02
2.803639462212000333e-01,3.292286324061011182e-01,3.499274235273397982e-01,3.792659203314713290e-02,-4.130907067520116736e-03,4.777065774580038608e-03,9.089868515729904175e-02
2.843241151240123998e-01,3.094017627014958305e-01,3.595248381572511143e-01,2.672202324752100469e-02,-9.406900380173976658e-03,1.339131289474602277e-02,8.569615334272384644e-02
3.466433656678163944e-01,3.291026775736203835e-01,2.808567558970512801e-01,-9.269791562795946446e-03,1.798531008034550543e-02,2.900230155351957509e-02,8.504829555749893188e-02
3.356244750930457710e-01,3.077491397672906248e-01,2.914053054305965063e-01,-8.759197354000294172e-03,1.220380319006268872e-02,2.020314457764737365e-02,5.831993743777275085e-02
3.359244780664327745e-01,3.086398190581207679e-01,2.930691931701679409e-01,-9.150556756422182497e-03,9.767722610065825498e-03,2.344840341953870200e-02,5.998868495225906372e-02
3.578104180224832009e-01,2.887318794946911460e-01,2.947229355456175703e-01,-1.965696012334032863e-02,2.243959559989936944e-02,5.375070341095608550e-02,1.254236549139022827e-01
3.439228004926041526e-01,3.133127489198883620e-01,2.960264765579122548e-01,-1.480512683184765504e-02,1.652104220330297829e-02,1.964195529034315837e-02,6.632309406995773315e-02
3.463143491786674910e-01,3.097320213838822833e-01,3.175684787571416146e-01,-8.726487429692007455e-03,7.397259116613865912e-03,2.445940628417157814e-02,5.744912102818489075e-02
3.103360931444873461e-01,3.352961817478620765e-01,3.097665614259728084e-01,1.138304848859442728e-03,1.532395319383651018e-03,-1.973673972572450967e-03,2.569365687668323517e-02
3.493108551788015603e-01,3.032822023107866194e-01,3.117017991805182131e-01,-1.170871609688043692e-02,7.338633476465350469e-03,3.132523385395956372e-02,7.292903214693069458e-02
3.413519430644060271e-01,3.810501152043578310e-01,2.512307653093059367e-01,2.127412683269795744e-03,-4.060051380830643347e-02,1.011388276996856442e-03,1.350454390048980713e-01
3.427614727782149484e-01,3.730835708006082219e-01,2.346677168249809153e-01,9.301228864799343174e-03,-3.826544260891048127e-02,3.173549622214220239e-02,1.534764319658279419e-01
3.501680809005252581e-01,3.517910698483046050e-01,2.625612826528349597e-01,1.737443027622610769e-02,-4.644802058650951415e-02,3.198234224766174222e-02,1.351526826620101929e-01
3.214843630877918801e-01,3.164335160645237455e-01,3.179383881216712449e-01,-9.448588659018673785e-04,1.576566224110481206e-03,-1.704069244507526101e-04,5.513337440788745880e-03
3.265797363705645884e-01,3.484198164045898549e-01,2.599440197517293161e-01,9.926691987898507430e-03,-4.277709353332792563e-02,3.347756218294772879e-02,1.245798394083976746e-01
3.262610263248172937e-01,3.436925840101082708e-01,2.673024280966051491e-01,8.709321027533094631e-03,-3.050379335132152869e-02,1.982862917348867868e-02,9.490121155977249146e-02
3.415349729538658674e-01,3.574503374020993052e-01,2.276718945464550892e-01,5.998979128563141673e-03,-4.042295156878632917e-02,2.301308681875028489e-02,1.470683068037033081e-01
3.117465379273588466e-01,3.539524807246258176e-01,2.465564921112130548e-01,1.794765407991330899e-02,6.184792177040031314e-02,-2.236041320314165193e-02,1.507458388805389404e-01
2.843622747889616442e-01,3.583231721165668349e-01,2.744907126889138960e-01,7.849146456282426326e-03,6.600307713650119257e-02,-7.812247466120178507e-03,1.404809951782226562e-01
3.079928087435006567e-01,3.549802994532987310e-01,3.172395687448543722e-01,1.979845701242217287e-02,3.356796727741893221e-02,-1.893949272390546210e-02,8.655241131782531738e-02
3.319099861871950274e-01,3.581774391064184715e-01,2.876977745867799197e-01,1.238391785946159687e-02,3.525120610041600211e-02,-1.383785215586619960e-02,9.256633371114730835e-02
3.105448331305630805e-01,3.569582848023297172e-01,3.104787014135930723e-01,6.159718813892945885e-03,3.760781878019667235e-02,-4.130090491379519863e-03,8.102669566869735718e-02
3.221471680524634063e-01,3.248396099392732439e-01,3.094730416715367194e-01,-1.549623236542316609e-02,8.345841629289646110e-03,1.313978921312463494e-02,4.061192274093627930e-02
3.130557695581777655e-01,3.234393689822410711e-01,3.143341566755232241e-01,-9.721660083499106958e-03,9.302521450253904700e-03,1.630516995367182337e-02,3.790643066167831421e-02
3.130317879135247061e-01,3.226872819294804295e-01,3.109474034222327599e-01,-9.165972734970672525e-03,8.217803826423378602e-03,8.678927950886997089e-03,2.825442329049110413e-02
3.088841039557084778e-01,3.330907065428392877e-01,3.077955316714068856e-01,-7.936297481325132672e-03,1.234161691434702314e-02,4.900616629569064416e-03,3.648896142840385437e-02
3.433288530050053744e-01,2.648714181548628144e-01,3.230736514330534992e-01,3.045924156370779373e-02,-2.475870931746864193e-02,5.645861981068098223e-02,1.384257078170776367e-01
3.116323322283064412e-01,3.371956890101802662e-01,2.983494215144860129e-01,-1.357863821584579835e-02,3.025350493293441773e-02,1.511202817679111257e-02,7.178828865289688110e-02
3.465121548264206708e-01,3.315599876192089068e-01,2.742672000857996339e-01,2.121597679965541924e-02,2.495350210424046589e-02,-2.257204141422051655e-02,9.544400870800018311e-02
3.317527270157824004e-01,3.181663220427323746e-01,2.923692401350400094e-01,1.773359299841216485e-02,1.732413136171052567e-02,-2.320394748977954238e-02,6.826167553663253784e-02
3.517873337191819161e-01,3.131899857480032190e-01,2.934594062563737338e-01,7.391907761204322309e-03,2.012610876982612318e-02,-2.830187474825873045e-02,8.014167845249176025e-02
3.437232760953913280e-01,3.349027767786527665e-01,2.899123456550971589e-01,7.785761117238205672e-03,1.001207204879109650e-02,-1.855491797247599967e-02,6.335780769586563110e-02
3.364300832084565207e-01,3.398647247093376511e-01,2.836811583477161225e-01,-2.327964401594397048e-02,-6.043429052433521576e-02,-2.839363469019817732e-02,1.340773999691009521e-01
3.316961376751463852e-01,3.302420797079558823e-01,2.977634784839813253e-01,7.196453295108489953e-03,1.536822469063580179e-02,-1.292307051701828760e-02,4.969034716486930847e-02
3.369430593039851041e-01,3.369573087878351414e-01,2.905079297579775677e-01,2.681408573922965718e-03,1.151935121872616971e-02,-1.291992740010526088e-02,5.547353252768516541e-02
3.314668753138174107e-01,3.379744863421157430e-01,2.938641521944665436e-01,1.675168165783539817e-02,1.899150321535285693e-02,-2.901479004344427112e-02,7.842499762773513794e-02
3.097066387174406965e-01,3.131886636621609155e-01,3.360775782707444148e-01,-9.116545648411387287e-04,9.497594739969242826e-04,2.571297366703752165e-03,2.531325444579124451e-02
2.798656759103324565e-01,2.835867324074597962e-01,3.609055919965546977e-01,6.099820357499072254e-02,-8.671529639168801956e-03,6.329122148244254939e-03,1.333711445331573486e-01
2.998921403070948788e-01,2.845343367656535394e-01,3.477241254075201793e-01,3.047580735467979307e-02,3.499717673212815634e-03,-1.582829865126247990e-03,7.803165912628173828e-02
3.057912224306197913e-01,3.002075809488753966e-01,3.479537840865208342e-01,1.460077236586400026e-02,5.091350222492675021e-03,-7.856967608375800115e-05,5.255103111267089844e-02
3.090070125078895336e-01,2.863589016502465223e-01,3.469179914945521581e-01,2.633040423900875893e-02,-8.659019281276533753e-03,3.718804313533641791e-03,7.179892808198928833e-02
3.027385802317833496e-01,2.840911384503761461e-01,3.474621360327684871e-01,3.130177757778142972e-02,1.573121738353430287e-03,-9.922345142780791480e-04,7.830507308244705200e-02
2.993642895759756062e-01,3.016206184578850147e-01,3.443027546524906057e-01,1.540417851450035305e-02,-4.052205729032638641e-03,2.140922446252573486e-03,5.194264650344848633e-02
3.453680911480160876e-01,3.490214393354968969e-01,2.671903146726823386e-01,-6.338688054951482909e-03,-1.553215298217024490e-02,-2.289500835534205928e-02,9.395502507686614990e-02
3.411821443711184343e-01,2.769610291829320836e-01,3.412746841785654350e-01,-3.593689147606072935e-03,3.956478268337421111e-03,2.925292787466166403e-03,6.512818485498428345e-02
3.553539038389686988e-01,3.248938001291865607e-01,2.550544199902362585e-01,9.592143500892717084e-03,-1.740117440729591763e-02,5.609484970253542785e-02,1.362240761518478394e-01
3.362041368905162031e-01,3.049148919693223658e-01,2.889089795718188802e-01,8.258352223944963322e-03,-8.490536385843933109e-03,2.744219765472335343e-02,6.645382195711135864e-02
3.448609983701061976e-01,3.187418517468042500e-01,3.161739320581309354e-01,1.663545050903613223e-02,-1.330144739908665011e-02,2.360598659468973043e-02,6.155163422226905823e-02
3.492448004282494578e-01,3.054880040050246826e-01,2.838793382639780427e-01,2.523328604845739929e-03,-1.729772787621372933e-03,2.670958447955438381e-02,7.413097470998764038e-02
3.434619422408143330e-01,3.183934853543078369e-01,2.902588303547038451e-01,1.732591311061127196e-02,-1.014158183522172185e-02,2.427214713648546615e-02,7.142693549394607544e-02
3.412744000606640626e-01,3.081766760196072985e-01,2.936147903089800781e-01,2.326940837054427419e-02,-2.246978637732532230e-02,3.635989679498419225e-02,9.431155771017074585e-02
3.257273966488511419e-01,3.743557477451568971e-01,2.040859675583529542e-01,-3.675224735408014198e-02,-1.005853459512522641e-01,-5.652480202283793193e-02,2.589713335037231445e-01
3.462169468869864541e-01,3.006479967879936988e-01,2.912208361283841751e-01,1.344088190791268081e-02,-1.020100720018462213e-02,4.155203239840784407e-02,9.289162606000900269e-02
3.028190162479949543e-01,3.447763991753149404e-01,3.189813446237115824e-01,-6.851932758915564754e-03,-1.450738759337549463e-02,-4.477853944187095217e-03,4.664662107825279236e-02
3.008759137424804053e-01,3.363280753103305432e-01,3.211498769678998166e-01,-8.830953479231899717e-03,-1.385012309621150121e-02,-1.272443945274767500e-02,4.737406969070434570e-02
3.621813495139535877e-01,2.095030565600613515e-01,4.455450017565673049e-01,-1.124990824166719056e-01,7.070727959988155897e-02,5.763000251446195182e-02,3.254509568214416504e-01
3.194052097765912590e-01,3.169230192905858612e-01,3.228670936364787525e-01,4.685254744300650434e-03,4.176794282022513148e-03,-4.711926326223523850e-03,1.454432494938373566e-02
3.152406659463470873e-01,3.173854094025769235e-01,3.226079498017098701e-01,2.922256925666949154e-03,4.541394305941376212e-03,-3.133816148442013227e-03,1.265028957277536392e-02
3.161006492395342926e-01,3.184706252792565695e-01,3.154929969626345532e-01,5.807829423163923636e-03,3.742785305938345179e-03,-6.293087532395819431e-03,1.641502231359481812e-02
4.154391980894924230e-01,2.237725717632145228e-01,2.392763329454344334e-01,2.013997956271987994e-02,3.501481461657281191e-02,-1.490852302468489154e-01,3.249293565750122070e-01
3.236390416765464462e-01,3.206514695667481152e-01,3.099714548721882457e-01,7.789825999342258472e-03,6.763973454646300155e-03,-8.127027121878410351e-03,2.592951059341430664e-02
3.213441841591535009e-01,3.138361831318533524e-01,3.088758907882065974e-01,6.141639823363859683e-03,7.989324745876026646e-03,-6.479539075699122623e-03,2.342684194445610046e-02
3.107277875633099873e-01,3.351051195770644586e-01,3.104411133453445215e-01,3.695049613117158227e-04,1.842053736765994856e-04,-1.630606512930754884e-03,2.469438873231410980e-02
3.232911639012858163e-01,3.208124322571345721e-01,3.231791846091210396e-01,8.585384906033390398e-03,8.592850321046773335e-03,-9.604980185689985031e-03,2.693109214305877686e-02
3.259625337515278387e-01,3.098866198780043102e-01,3.180104089772059495e-01,6.386257530988853799e-03,8.406086249996390022e-03,-7.642626371855981357e-03,2.652173675596714020e-02
3.248110639190623927e-01,3.232173537946166908e-01,3.184413429581789412e-01,8.126471568003938717e-03,9.131129083080519876e-03,-9.377272698079270469e-03,2.729492075741291046e-02
3.182029942022015501e-01,3.216185158327655724e-01,3.120546139534759456e-01,6.597580482248573998e-03,6.134192610821142047e-03,-5.511882006900919138e-03,2.012659981846809387e-02
3.201128811474980296e-01,3.241844430097919894e-01,3.159106721918549798e-01,4.790260789453370041e-03,3.781859062654515519e-03,-2.769183160407371995e-03,1.364177465438842773e-02
3.218116427524976286e-01,3.137415983910027406e-01,3.168051314483422143e-01,1.736313535669520205e-03,3.475719123056027551e-03,-2.481119429117286355e-03,1.065561268478631973e-02
3.190748518725816107e-01,3.180518520912935521e-01,3.167370876672141455e-01,2.413655558371959140e-03,3.056568078313090780e-03,-3.168469336326981602e-03,8.929880335927009583e-03
3.189561127517689942e-01,3.181621282123229255e-01,3.200516183829965056e-01,4.007035075847261568e-03,3.749701463232610506e-03,-2.721225570300420029e-03,1.073616929352283478e-02
3.645576473235518367e-01,3.141764718739791240e-01,3.097357678815252924e-01,-5.283460418376286112e-03,-1.603216342817520004e-03,-3.402888269383901043e-02,7.966844737529754639e-02
3.250023875876705826e-01,2.798391713726544605e-01,3.472963710942135740e-01,4.783885455996071678e-02,-4.488170490961396891e-02,3.089940965636948922e-02,1.389845162630081177e-01
3.163303688347985920e-01,2.958541185574078969e-01,3.336985207734106118e-01,2.407588011106797515e-02,-2.381622542658762276e-02,1.478906425973846445e-02,7.192562520503997803e-02
3.097057672995041089e-01,3.216377181635759475e-01,3.267401654972942326e-01,2.642268303322162226e-02,-1.952349771196843289e-02,1.772994404442105459e-02,6.641021370887756348e-02
3.043593889126370300e-01,3.151820711496259864e-01,3.593213779171836597e-01,3.555640309324422516e-02,-1.194875458967245736e-02,1.234281777455850659e-02,8.497788757085800171e-02
2.986989649328823382e-01,2.782799163227972494e-01,3.491362849574309313e-01,5.094086310146127283e-02,-2.588331500265962648e-02,2.670677653374569499e-02,1.261952966451644897e-01
3.186834733733576175e-01,3.261094265428534089e-01,3.373892974211006868e-01,-2.021314061508997298e-02,2.125735193043949353e-02,2.164088688798193258e-02,6.521093845367431641e-02
3.173899292618959644e-01,2.976062574701002217e-01,3.362708698580533784e-01,-2.736544803793843419e-02,1.705706992883485734e-02,1.423579696349020277e-02,6.963351368904113770e-02
3.214972479755798807e-01,3.045344545802752267e-01,3.384007385974585613e-01,-3.282189425451938897e-02,1.458804550186353077e-02,1.892436651819248347e-02,7.618958503007888794e-02
2.506463656799226003e-01,3.180048816545751333e-01,3.578104119481060330e-01,-5.824916945567138599e-02,2.807875494900493804e-02,1.764772104439412889e-02,1.492694318294525146e-01
3.221341126163513868e-01,3.011671381228014921e-01,3.538242589676514060e-01,-3.328273254590560087e-02,1.470206521338138575e-02,1.682902432827343420e-02,8.324450254440307617e-02
2.775134073174079785e-01,3.278855540949187630e-01,3.589603145041309062e-01,-7.340376209979432298e-02,1.524373374433162474e-02,2.178510967506189916e-02,1.528185904026031494e-01
2.948740508729179588e-01,3.296394895605938569e-01,3.442757483452043576e-01,-3.784723068235918558e-02,2.286645853305266721e-02,1.134439779181523229e-02,9.046348184347152710e-02
3.468693491191623401e-01,2.469127640581998684e-01,3.239539074395310081e-01,8.373744376813560542e-02,6.224418155667997554e-02,-9.316234288086396031e-02,2.586937248706817627e-01
2.720057888441527738e-01,2.820923200928396879e-01,3.591798194170193748e-01,-6.356143968416484713e-02,1.683906362578363458e-02,1.316539955144350321e-02,1.425222158432006836e-01
3.788391865676646875e-01,3.306320607949662649e-01,2.734541646799449888e-01,-4.160411110666801388e-03,-1.253753665070286329e-02,-4.937196944664473675e-02,1.272237896919250488e-01
3.889431125353032259e-01,3.397641037723138080e-01,2.711969884320239998e-01,-1.341652582995743817e-02,-6.231958786854663139e-03,-5.251703296256916148e-02,1.393654346466064453e-01
3.591517255554778631e-01,3.325907219825709471e-01,2.823651698632887452e-01,-1.166438475294524768e-03,5.910700648775968563e-04,-2.509501345487751695e-02,8.035261929035186768e-02
3.578218513946985202e-01,3.189033922676939303e-01,2.615900046127093148e-01,-1.079206647455576004e-05,2.028298654784021268e-03,-4.023693140893812303e-02,1.090843454003334045e-01
3.676728851644346374e-01,3.286067710640654949e-01,2.630616767081643825e-01,-9.390906886085599939e-03,8.469805763448464125e-04,-3.861658831988361296e-02,1.145572140812873840e-01
3.593209358681161980e-01,3.290191842795194832e-01,2.688962291903080337e-01,2.831927240200145940e-03,-4.481559803368872705e-03,-5.504990281167224803e-02,1.246217638254165649e-01
3.732213656775986155e-01,3.234004376454378549e-01,2.628692889387891363e-01,1.087762196802931694e-02,3.993621021262485846e-03,-3.985669528808417905e-02,1.197094246745109558e-01
3.726297222348138316e-01,3.458392314847624216e-01,2.661616425122891871e-01,1.135808578030824897e-02,9.964817468845039994e-03,-6.334416758671582159e-02,1.480648964643478394e-01
3.397798796690236767e-01,3.159949975644338327e-01,3.187908394202318973e-01,-1.081539047822224764e-02,1.615574984334070680e-02,2.321796667208521694e-02,5.708067491650581360e-02
3.275744158385077709e-01,2.991772352769616061e-01,3.215400467898697490e-01,-2.421753006638881212e-02,1.691681895445723213e-02,2.604166423503287767e-02,7.296548038721084595e-02
3.291122124212575439e-01,3.185595305905123964e-01,3.097217459730618461e-01,-1.208806257572914850e-02,1.118911102809523953e-02,1.174873760669849394e-02,3.886873647570610046e-02
3.202363947723231297e-01,3.161482303333177368e-01,3.259128480647510706e-01,8.747896158013430262e-03,-6.286147899410332411e-03,4.863933499216373073e-03,2.216391265392303467e-02
3.291535600447620946e-01,3.125838729629126234e-01,3.174463173846066022e-01,-1.119237278460139678e-02,1.212940738626709300e-02,1.077721796401787460e-02,3.719205781817436218e-02
3.120715996658677271e-01,3.246019787134250545e-01,3.178791455318769610e-01,-2.881583248307305681e-02,1.894937392343823412e-02,3.040588047039679415e-02,8.037295937538146973e-02
3.069027081187699624e-01,3.351376349837040802e-01,3.100165930721885954e-01,1.520956509353904281e-03,4.615253154189835096e-03,-2.723919219853648301e-03,2.849715575575828552e-02
3.107598221344344269e-01,3.322328731422797277e-01,3.121556027516328435e-01,9.304404068016904669e-04,-5.386339030551307331e-04,2.183959531143925357e-03,2.123311161994934082e-02
3.382409618574303001e-01,3.174949859304636024e-01,3.158575582965000850e-01,-2.722673032151006617e-02,2.684021898809724541e-02,2.578613545849117381e-02,8.274598419666290283e-02
3.236404500828876651e-01,3.407286633942529508e-01,3.275053734843159092e-01,2.749142585571529018e-02,-3.315961051266794191e-02,2.840510577301437120e-02,9.070537239313125610e-02
3.059316351344699147e-01,3.349677456031234235e-01,2.933794345986633356e-01,1.891825617220555325e-02,-3.430280357664718810e-02,2.292754313810753744e-02,8.686705678701400757e-02
3.239677220280176018e-01,3.356302605133423822e-01,2.953717507453151869e-01,1.821276854574624751e-02,-3.791554291178485941e-02,2.298678355183658359e-02,9.044502675533294678e-02
3.258795512169818664e-01,3.389640477356637427e-01,2.987396810667883873e-01,1.015693226465853687e-02,-2.116038464013182338e-02,1.400300768153179415e-02,5.919388681650161743e-02
3.241200888542167813e-01,3.278804828163972562e-01,3.073253677327410505e-01,1.434969737826536501e-02,-1.839734516754895285e-02,9.189234778218254712e-03,4.739000275731086731e-02
2.838117947028351851e-01,3.616754667772470455e-01,3.265205376300767126e-01,-1.191229064610742870e-02,-3.880265402254425705e-02,-9.843090580880082402e-03,9.896784275770187378e-02
2.778413995891436672e-01,3.618083321344700010e-01,3.339247596273600682e-01,-5.733466739398996453e-03,-2.570247050252434315e-02,-8.119804261423595876e-03,8.811869472265243530e-02
3.053986043265928263e-01,3.822748382815449042e-01,2.739029543777988240e-01,-2.450460500639388417e-02,-5.922987304913935463e-02,-4.244856997941905130e-02,1.644834429025650024e-01
2.503265208034377576e-01,3.838429432072266723e-01,3.071758680395799135e-01,-3.598210074017488963e-02,-6.993646953099352803e-02,-1.076398791342650374e-02,1.799255907535552979e-01
2.631625817391465283e-01,3.614896679968020998e-01,3.213646304138297327e-01,-1.138429981558692836e-02,-4.804042484375510569e-02,-9.033314493440493947e-03,1.220250502228736877e-01
3.185465407782959169e-01,3.612502006898918872e-01,3.058050751185847349e-01,-1.002727840463665809e-02,-3.715142086340831457e-02,-6.122273261222862042e-03,8.417139947414398193e-02
3.054748332160399649e-01,3.701554923194473323e-01,2.815556283694603534e-01,-2.209181549491319105e-02,-7.427129027539854100e-02,2.954503749911857255e-05,1.559347510337829590e-01
3.160921429538098848e-01,3.612295429891128062e-01,3.028091283120376009e-01,-9.324658646240744503e-03,-3.450176327965810003e-02,-7.635790954828917260e-03,8.258488029241561890e-02
3.598209001669511187e-01,3.563322706446097055e-01,2.173171601325994684e-01,6.366747934786367094e-03,1.860965104535764955e-02,-3.492276878321589478e-02,1.569767743349075317e-01
3.328898587569529277e-01,3.032875866573189749e-01,3.216531764537418070e-01,-1.971108329564782297e-02,-1.229238118692009378e-02,-2.266768345090553957e-02,6.188930571079254150e-02
3.356391237686403017e-01,3.154443167914727231e-01,3.038257616495577684e-01,-1.160100957059061362e-02,-1.983036363657736736e-02,-2.404403249840992435e-02,6.399439275264739990e-02
3.259170951049179532e-01,3.251593776787495838e-01,2.961958652598915553e-01,-1.392756906269675306e-02,-1.592456837951093662e-02,-1.825154842769454930e-02,5.659919977188110352e-02
3.289852748325817200e-01,3.323915888683394715e-01,3.033225482774309367e-01,-1.873647607068891149e-02,-2.302331715770462167e-02,-3.001982056992467951e-02,7.813160866498947144e-02
3.255408177688498550e-01,3.202568733782473198e-01,2.949253606576395237e-01,-1.324191725257809274e-02,-1.620004149726645554e-02,-1.603369722805007141e-02,5.374070629477500916e-02
3.701338344187497520e-01,2.472642490132575532e-01,3.420989221425111970e-01,4.131196833928126033e-02,1.936869725107553258e-02,-7.429595886764245316e-02,1.877322494983673096e-01
3.652350101094797852e-01,3.006974735440429702e-01,3.064898204336996557e-01,-2.827933827739980322e-04,-9.170924154322734282e-04,-4.277729034505411976e-02,9.652602672576904297e-02
3.293897063640419676e-01,2.676397439868355432e-01,3.549601792404503131e-01,-2.782778311705403490e-02,-1.089254747515429550e-03,5.661661862595338164e-03,9.202587604522705078e-02
3.511205512438221321e-01,3.021245297960944987e-01,3.155981214848793681e-01,2.373986407461992337e-03,3.367029187719206181e-03,-1.698409351522988525e-02,5.327562242746353149e-02
3.454717369826944551e-01,2.666074885740871703e-01,3.195198902964182519e-01,-1.472683050007188299e-02,-9.011052432538114998e-03,-2.682805059720991953e-02,8.888117969036102295e-02
3.420294311186982128e-01,2.669312069205957427e-01,3.192162657929307756e-01,-9.900345848178691843e-03,-8.325793293307393733e-03,-2.770001266485868849e-02,8.515183627605438232e-02
3.392757100060213027e-01,2.951292163549725789e-01,3.040769405039213669e-01,-1.410241732182993847e-02,-1.327702980646014268e-02,-2.723424671256003890e-02,7.060134410858154297e-02
3.590788878945196383e-01,2.828950154531638117e-01,2.801168069201535604e-01,-1.105073530085483140e-02,-7.848793110018596406e-03,-6.640739285350728827e-02,1.407279223203659058e-01
3.610895818104646326e-01,2.987462970574291665e-01,3.073843496798469577e-01,-6.229803581729379848e-03,-4.588101135540737299e-03,-3.927603520874733273e-02,9.072034060955047607e-02
3.344316809518227407e-01,2.950076516655363301e-01,3.075586142614201712e-01,-1.690750188799452353e-02,-9.974038234617845292e-03,-2.223390607111139922e-02,6.209706887602806091e-02
3.360883742874070101e-01,2.834221314929730173e-01,3.550435304372459577e-01,-2.045774114450675876e-02,3.891116225625121036e-03,-4.506409011793405944e-03,7.411633431911468506e-02
3.577090184628791691e-01,2.719167731103103169e-01,3.236839530565131517e-01,-1.496131205939876417e-03,-1.752629864497186676e-02,-3.045402480596159922e-02,9.648574888706207275e-02
3.592900200322252657e-01,3.015726076102770437e-01,3.063875929168757839e-01,1.999603197668256734e-03,-2.417980850838782805e-03,-4.110687516818342657e-02,9.041811525821685791e-02
3.621275823418963480e-01,3.122929210082120433e-01,3.063840498174399962e-01,1.570881623885775607e-03,-4.823322051679676710e-03,-2.799694691970212868e-02,7.239860296249389648e-02
3.616132164362151902e-01,2.865718904392729471e-01,3.294943729763221696e-01,7.882452875558165761e-03,3.341035701265798481e-03,-7.537271033751576088e-02,1.466819792985916138e-01
3.673979882285307585e-01,2.822303860709454715e-01,2.735820417059695586e-01,9.270751390696210445e-03,5.588347966997658615e-03,-6.751829062874845078e-02,1.486356705427169800e-01
3.886318442878482493e-01,2.869956399756394272e-01,3.365472072172381868e-01,-8.958863362398835836e-03,-8.466087602318862065e-03,-7.547079867656629470e-02,1.590357720851898193e-01
3.753362547787956194e-01,2.864360875217910052e-01,3.118973617153867339e-01,-8.228031076469358857e-03,-2.857066262873007162e-02,-6.967575943440593167e-02,1.533104330301284790e-01
3.260172039980955838e-01,3.189972193153168267e-01,3.050743353880985831e-01,-2.104385300386288696e-02,2.911757748904290205e-02,2.199462598053899057e-02,7.526079565286636353e-02
3.106978509389520804e-01,3.470673082984533919e-01,3.071439399338777854e-01,-1.393210420178696111e-02,3.064196946868141813e-02,2.365151008528309715e-02,8.088204264640808105e-02
3.008539141654353322e-01,3.000697839567619263e-01,3.408114618454454181e-01,-1.355386865770595584e-02,-3.007867241042263846e-03,-3.860805972497014481e-03,4.745033010840415955e-02
3.284025051974460152e-01,3.075327514787604133e-01,3.208217212340355173e-01,-1.972688488900096668e-02,1.061829428195604566e-02,1.833028333637376842e-02,5.337132513523101807e-02
3.174697649383723119e-01,3.226425557111072262e-01,3.201321005148365928e-01,-6.361292987879071242e-03,7.693693497335011428e-03,5.318476176055468747e-03,2.009750157594680786e-02
3.182548438999160401e-01,3.225890008476512971e-01,3.152787351406191041e-01,-6.143839672396934903e-03,3.509081440242290371e-03,4.262607253764345329e-03,1.565987803041934967e-02
3.452688992831487447e-01,2.400264835461811130e-01,3.617956495313596754e-01,-6.725478466483135465e-02,-7.599576979710401595e-03,-9.794311433625673552e-03,1.646787077188491821e-01
3.224702167026107791e-01,3.229522013249466750e-01,3.071447327602797595e-01,-9.455253351777302001e-03,9.841972715771619973e-03,9.034137863219745060e-03,3.234400972723960876e-02
3.107451424054693545e-01,3.377559577983807459e-01,3.080609816593985473e-01,1.203218437031058734e-03,1.402829814414494796e-03,-5.224461446164112722e-04,2.864185906946659088e-02
3.380457888059492100e-01,3.267567446225855821e-01,2.867708998573434975e-01,-2.992166606972079812e-02,5.533585528604351850e-02,4.691557217174543298e-02,1.437115669250488281e-01
3.350691298135122786e-01,3.098192889701567587e-01,2.906400244031211444e-01,-1.247673204375425622e-02,1.202027261232374925e-02,2.340411176577889690e-02,6.350903213024139404e-02
3.319381202503590145e-01,3.313977905044480088e-01,2.790423472638865476e-01,-1.766662191159695111e-02,2.692486641536141756e-02,2.643765727867882984e-02,8.931795507669448853e-02
3.557085721806710343e-01,3.114673019104999829e-01,2.858970239264518876e-01,-1.078135993721516563e-02,5.294343059350407367e-03,2.510845415282504309e-02,7.788772135972976685e-02
3.400138428681422909e-01,3.332401511501137392e-01,2.662507920876722167e-01,-1.227153773802991746e-02,1.785762976488280279e-02,2.648033366090888491e-02,9.219166636466979980e-02
3.515093666554466867e-01,3.295397028228689296e-01,2.684084299476867663e-01,-7.424915078219714373e-03,1.811150017189818232e-02,2.635155433060940022e-02,9.378386288881301880e-02
2.518928016784993673e-01,3.565942478107758662e-01,3.626578698526695677e-01,-1.333512820168678437e-04,-3.577002338250258318e-02,7.063615689335066977e-03,1.249890029430389404e-01
2.401597436815212649e-01,3.571405535198805548e-01,3.473232282745722377e-01,-4.053700330491992639e-03,-1.955754884572000543e-02,-2.353068358874734443e-03,1.176683977246284485e-01
2.214112592083545550e-01,3.587210652580553605e-01,3.668190558853770544e-01,5.659489537082817642e-03,-2.490173274863389727e-02,7.157847433652501229e-03,1.488004624843597412e-01
2.047601353063219776e-01,3.752156023346842062e-01,3.469143557936142930e-01,6.067887943694942610e-03,-7.048224596826488386e-02,9.526270334158476807e-03,2.007931023836135864e-01
1.630149918791916064e-01,3.724362149593150040e-01,3.262421176884576779e-01,-3.171905501539562522e-02,-9.987365099473984043e-02,-2.362231841564713455e-02,2.663337886333465576e-01
2.200929823499138960e-01,3.577394369616281877e-01,3.688629396623074319e-01,-7.097405733541438735e-03,-2.488111877047642292e-02,-7.711920517134459099e-03,1.509574055671691895e-01
3.137512737862779288e-01,3.152221194173687180e-01,3.185892914103483631e-01,-1.094148785056679035e-02,1.142911965423174317e-02,1.064691905797729085e-02,3.330986574292182922e-02
3.162103975994405292e-01,3.326765083453881444e-01,3.394932043696500257e-01,-3.249340374834972650e-02,2.676271606096213701e-02,1.851467578149510254e-02,8.230684697628021240e-02
3.041605190012564575e-01,3.349635741324903937e-01,3.279418767685916003e-01,-2.406534736461685489e-02,3.077754063396061224e-02,1.580304788464571494e-02,7.816805690526962280e-02
3.863790869033899567e-01,3.244863943390660088e-01,2.825190107712708953e-01,2.324627338760835299e-02,3.411123603306390889e-02,-7.187606339110222398e-02,1.697051674127578735e-01
3.701666593635213887e-01,3.315757077360439453e-01,2.924084969118155297e-01,3.695146764052164440e-02,3.037867080192612618e-02,-6.472064283184437994e-02,1.548093706369400024e-01
3.708751189784613711e-01,3.569060335022383179e-01,2.639414670860842915e-01,6.822605207236754482e-03,2.648808061736741479e-02,-3.806482869288057430e-02,1.293347179889678955e-01
3.092548585608876355e-01,3.357204413642628227e-01,3.093365154459292166e-01,-1.800978175073530713e-03,1.173742301941226984e-03,9.651140924691286975e-04,2.673818543553352356e-02
3.957977167623871750e-01,3.236584208104353877e-01,1.708025474582938741e-01,3.912331755268488864e-02,5.672845906552365786e-02,-1.269429610670485542e-01,3.196650147438049316e-01
3.599545188313074129e-01,2.308446878115791023e-01,3.635133815695713588e-01,-2.145179169908229683e-02,-4.161222152666273731e-03,-9.780947222579959577e-03,1.373353004455566406e-01
2.938105227024794264e-01,3.442199358219651395e-01,3.030580979066045955e-01,1.291596232554852348e-02,3.030917963783748975e-02,-1.109639679333809630e-02,7.606745511293411255e-02
3.075207206529181891e-01,3.390058258859324214e-01,3.069899905025713638e-01,5.803700228673553362e-03,1.347825023191562797e-02,-6.603877602868141877e-03,4.225134104490280151e-02
2.915299335909574685e-01,3.410632421425821015e-01,3.140291167753663792e-01,2.121358621777948844e-02,2.367518183972466481e-02,-1.479096710411539201e-02,7.438556849956512451e-02
2.967701603003045085e-01,3.368436444438916988e-01,3.224556019275771623e-01,1.136867094197222504e-02,1.653965919368877158e-02,-8.236179816909168505e-03,5.146111175417900085e-02
3.177152090778045390e-01,3.358253113972007875e-01,3.016338562744275142e-01,1.241490340285623939e-02,2.614999620953836756e-02,-1.625654748787951770e-02,6.468773633241653442e-02
3.233360926973116167e-01,3.151875256618082433e-01,3.213420408926633831e-01,-3.570943526254431125e-03,-4.884906934211041482e-03,-6.135238493532786143e-03,1.664007268846035004e-02
3.020115747410186957e-01,3.337421098893797455e-01,3.170889959534573532e-01,1.404383226470612769e-02,1.508089987904977572e-02,-1.384938004948834192e-02,5.104062333703041077e-02
3.175395355931588393e-01,3.319778271459895014e-01,3.062375447716028098e-01,1.401058875036276241e-02,2.023885886018362765e-02,-8.997781967298999414e-03,5.059629306197166443e-02
3.201317860623735800e-01,3.119684797111604846e-01,3.279474719088349421e-01,-9.028122610379735874e-03,7.001783316190534831e-03,7.188518971933846417e-03,2.716885507106781006e-02
3.062964407468059536e-01,3.090708498684724970e-01,3.401036386206617856e-01,1.112701833832451231e-03,1.461596150751794359e-04,-5.670041267099361305e-04,3.258177265524864197e-02
3.223145279494666893e-01,3.202119270087562253e-01,3.002939607347688833e-01,-1.221845264818266497e-02,1.146906132552200606e-02,1.460277490068087256e-02,4.387754201889038086e-02
3.241016596226632407e-01,3.217180622980203020e-01,3.162567387406375330e-01,-1.138457375107588404e-02,1.498224971747446135e-02,1.754895413849119623e-02,4.510711133480072021e-02
3.123525253632825627e-01,3.083281504465521516e-01,3.227939335028028878e-01,-1.662593506252176348e-02,1.323683860639171886e-02,1.653603931353220952e-02,4.839904233813285828e-02
3.080712764079028831e-01,3.029417695329174598e-01,3.412548934098631470e-01,4.829046114333509707e-03,1.492840368056160038e-03,-7.137729911124871072e-04,3.709249198436737061e-02
3.154009983048977062e-01,3.046342462092971326e-01,3.433149232686609764e-01,1.379563533115890119e-02,4.207063779660587428e-03,-5.669653144300903017e-03,4.377378523349761963e-02
3.125893878110488910e-01,2.874212961450070547e-01,3.430443987323599231e-01,9.238106831780711417e-03,2.131972253948765002e-03,-1.935049528759134451e-03,5.107183381915092468e-02
3.130714225334949030e-01,2.894025875793077573e-01,3.395570262810625461e-01,9.467765112438950026e-03,3.261769916541403837e-03,-2.371024433858478879e-03,4.697108268737792969e-02
3.182612371204500690e-01,3.117887121896112945e-01,3.271275114165585474e-01,2.895930725791801691e-02,-2.147557899794410446e-02,1.750638071794134373e-02,7.068831473588943481e-02
2.969941495288946354e-01,3.239192551525370001e-01,3.474851450194212932e-01,6.239221420735904799e-02,-2.020483049453538141e-02,3.952184229918645486e-02,1.396560966968536377e-01
3.057514360127830400e-01,2.956000785557201249e-01,3.394756328103678000e-01,2.454252890396598982e-02,-1.478535735154800496e-02,1.363050856043348733e-02,6.784480810165405273e-02
3.192184844357988660e-01,3.204851445771100260e-01,3.161883811498870656e-01,1.258815680040579685e-02,-2.113218509810667681e-02,1.983927088895537719e-02,5.486808717250823975e-02
3.225813529327528628e-01,3.078736345575641686e-01,3.004778887030078449e-01,2.679961792212903413e-02,-3.051859852077057345e-02,3.905957599091766652e-02,9.952664375305175781e-02
3.200131788641752961e-01,3.103041037740263963e-01,3.163769198364763113e-01,1.231135397703062018e-02,-1.190819948516960020e-02,1.271455752902323627e-02,3.791157528758049011e-02
3.230046526378808625e-01,3.072778129085593779e-01,3.146503106722949861e-01,2.237771377344330986e-02,-1.520729418626155793e-02,1.556815800484881093e-02,5.575764924287796021e-02
3.208787684530918782e-01,3.108145556897466411e-01,3.211580920267387840e-01,-6.603988351155918451e-03,-6.038066229314470977e-03,-7.257194435752655978e-03,2.241407893598079681e-02
3.163230843431654726e-01,3.230190095969325270e-01,3.217155958714017494e-01,-6.631008756278628131e-03,-5.904763071093324309e-03,-6.420898880155154025e-03,1.994993910193443298e-02
3.234319947129768447e-01,3.223992341631952141e-01,3.077701345503013886e-01,-1.171926323319423362e-02,-8.612118139814552500e-03,-9.485926227940233088e-03,3.368476033210754395e-02
3.008326086941444100e-01,3.018689459261130748e-01,3.435486736887418679e-01,-1.331142865169466713e-02,-1.976651652461860857e-03,-1.359469348075263142e-03,4.827335104346275330e-02
3.161491736196199720e-01,3.153052710552186055e-01,3.236342396316509995e-01,-3.944321193514709230e-03,-4.605917180001866881e-03,-5.332886606512185317e-03,1.608385890722274780e-02
3.201119338070247400e-01,3.104565350550294034e-01,3.255115626494546333e-01,-7.475850454453255439e-03,-6.840036788240745971e-03,-5.569111222987403569e-03,2.399138547480106354e-02
3.167900398697238717e-01,3.235646066116739106e-01,3.169702580826702087e-01,-5.889715835284001048e-03,-4.432525964296669951e-03,-3.904735352085156493e-03,1.592027954757213593e-02
3.523681086856916833e-01,2.645294349789723554e-01,3.629805503046401038e-01,-3.723270041720902479e-02,1.093702417346501324e-02,1.216394260852224352e-02,1.171409487724304199e-01
3.513701911574684256e-01,2.552804563773260482e-01,3.792035803813901262e-01,-4.204565136180778151e-02,6.446189488911290531e-03,5.143458060483606896e-03,1.348702162504196167e-01
3.725827043260537819e-01,2.156112826427524498e-01,3.665630589423622410e-01,-3.689835126114276304e-02,6.375600062512873714e-03,1.873065497634297458e-02,1.702653020620346069e-01
3.562785205982814118e-01,2.486743033314713358e-01,3.648401394351937777e-01,-2.757725281148991694e-02,1.393261333968364747e-02,2.093515154098444034e-02,1.294293105602264404e-01
3.606630904473385746e-01,3.704936072147713144e-01,2.285311976788048927e-01,-1.023446520827191522e-02,5.687736747666066045e-02,1.831325100628925645e-02,1.728579252958297729e-01
3.246843517151778435e-01,3.596549565862788844e-01,2.691496532753570037e-01,-1.329040273712442030e-02,5.981538253203422251e-02,1.182418368742109427e-02,1.339108198881149292e-01
3.329499575807382539e-01,3.875122390363228142e-01,2.532166632979400145e-01,-2.888901651439205326e-02,6.297642125822652814e-02,-7.587304313024395910e-03,1.681052893400192261e-01
3.491252815906311091e-01,3.735308163901811529e-01,2.622633810145467148e-01,4.807652937049439711e-03,3.057834462598735259e-02,1.570976021006692666e-03,1.146402209997177124e-01
3.300970633905406237e-01,3.577338864002289620e-01,2.696377988533082415e-01,-7.315307095039523186e-03,4.177816863442290057e-02,5.437869959734409689e-04,1.071806550025939941e-01
3.264132361091287571e-01,3.522953504405856306e-01,2.148905672707413506e-01,-1.697193077103209546e-02,5.420460892226883903e-02,3.453178009394518994e-02,1.710249185562133789e-01
3.153543346058694241e-01,3.309202346867177180e-01,3.162853497496967980e-01,2.433387221153147234e-02,-5.510521581959781923e-02,4.643104291185828209e-02,1.325985044240951538e-01
3.090576343411627347e-01,3.470016956180580481e-01,2.958636613102105795e-01,1.024051158040276133e-02,-2.273876070092931481e-02,7.878506145561651672e-03,6.454793363809585571e-02
3.085889863455844040e-01,3.401457799973794383e-01,2.891036879883437938e-01,1.320059084813015628e-02,-2.445719208514593457e-02,1.474243061031030311e-02,7.042477279901504517e-02
3.079098506633706767e-01,3.357970973866432618e-01,2.889374001726813246e-01,1.454414150453611776e-02,-2.447551731046746296e-02,1.482298610103673434e-02,6.897574663162231445e-02
3.222102360984459568e-01,3.268090500048252967e-01,2.707737862556233721e-01,2.656152302038570362e-02,-4.711974292812410453e-02,3.730341989662466079e-02,1.259181946516036987e-01
3.129023694809985878e-01,3.363429046123729838e-01,3.106382164665733026e-01,1.888468200228338601e-03,1.159695391098151561e-03,-1.104810806158074664e-03,2.502106130123138428e-02
3.304917291105420873e-01,3.526739279767267532e-01,2.506994592625204077e-01,2.238051875715157610e-02,-5.175169252957348420e-02,2.715973655546101082e-02,1.427555680274963379e-01
3.026823388888119637e-01,3.481079927420163145e-01,3.005723888597398030e-01,-2.177868987885748370e-03,-1.403571372752877335e-02,2.185549576592427405e-04,5.262284725904464722e-02
3.043860734201880303e-01,3.492421207229899349e-01,3.161974480621748684e-01,-1.689760370992645895e-03,-1.711859813160664448e-02,-1.894963929980958504e-03,5.020198971033096313e-02
3.107243763860070840e-01,3.467104044464202062e-01,2.829188282723489878e-01,-4.233620870952762606e-03,-2.631719534316823150e-02,-3.283480069517023293e-03,7.233707606792449951e-02
4.823343201265009039e-01,2.262442909008230973e-01,3.763833310180620395e-01,-4.060407607612409597e-02,1.901291146570150900e-02,1.416846179797569827e-01,3.404832780361175537e-01
3.126950304000976066e-01,3.386565878038558242e-01,2.769081186723187371e-01,-1.017958462866560415e-02,-2.699258836405687978e-02,-9.187422384480387408e-03,7.505789399147033691e-02
3.042870982054737272e-01,3.412016823730427140e-01,3.083189193868075550e-01,-7.898217538909638180e-03,-1.526747654825475961e-02,-1.009950852063828085e-02,4.921932891011238098e-02
3.012521926384669202e-01,3.395584324885278504e-01,3.126389224158865332e-01,-3.844104335437291756e-03,-9.962106028916877659e-03,-3.660234205127573838e-03,3.928226977586746216e-02
3.508820118411229982e-01,3.353558300671445336e-01,2.743926097797020347e-01,1.852845698332056951e-02,1.171524697470650335e-02,-2.406539633597763045e-02,8.990653604269027710e-02
3.564383502260546899e-01,3.403817800272977423e-01,2.603153654629867808e-01,1.160612904443480455e-02,1.499424677524128710e-02,-2.089765059695564142e-02,1.016993671655654907e-01
3.378780763748490124e-01,3.176393729122047316e-01,3.207286436796304430e-01,2.327035265221201119e-02,2.173706424195438053e-02,-2.680000026530451537e-02,7.452096045017242432e-02
3.304207915921770766e-01,3.356453132412162699e-01,3.013623581873405288e-01,7.787086917346494261e-03,1.318796661973609119e-02,-1.136054397149446026e-02,4.598232358694076538e-02
3.336523937875354173e-01,3.313973060397349402e-01,3.013040185143089911e-01,9.650421573106813047e-03,1.276898798513899889e-02,-1.211458174520337917e-02,4.676939919590950012e-02
3.309322421620352062e-01,2.719267750957319874e-01,3.539261616759978302e-01,-2.249507014221045764e-02,1.022741433476039019e-02,1.811561152388294418e-02,9.046293795108795166e-02
3.354763447950467881e-01,3.445827093768454308e-01,2.959678175648686738e-01,2.038958499471025046e-02,2.831648667753222312e-02,-2.760807450212975425e-02,8.912307024002075195e-02
3.417485869069342708e-01,2.576108348341301091e-01,3.505356237525669161e-01,3.458419308150088856e-02,-9.547157934438901816e-03,2.350535246974116629e-02,1.158224642276763916e-01
3.250992507480808258e-01,2.637105956958837871e-01,3.645178758849748069e-01,4.116754342666090194e-02,1.574881210492012039e-03,1.414162654004448745e-03,1.133136898279190063e-01
3.117299661816491096e-01,2.964490865744937032e-01,3.466837986993688281e-01,1.951110292676301594e-02,-1.246415822745165942e-02,1.832854205162496447e-02,6.786252558231353760e-02
3.103226634103671278e-01,2.833573307183610002e-01,3.619614439399821970e-01,8.077953099170459561e-02,-5.526572168029953228e-03,1.138886696714347217e-02,1.576162874698638916e-01
3.292629779275489388e-01,2.853872894005807792e-01,3.624730514648200064e-01,2.417343638756496924e-02,-6.170006048068701378e-03,3.512107833714236092e-03,7.993357628583908081e-02
3.107231254759357242e-01,3.093527276066896370e-01,3.635851599051281857e-01,3.499694143207279090e-02,-5.507059648272507636e-03,3.616559755702697561e-03,8.169022947549819946e-02
3.078176375458943625e-01,2.874867630159292919e-01,3.633061482619202032e-01,2.725554238037210253e-02,-5.978564557981133100e-03,5.967218436322324453e-03,8.404222875833511353e-02
3.574841027532199567e-01,3.102656574234793907e-01,3.139617843288010635e-01,9.726581038077648442e-03,-1.445616549159476835e-02,2.974126228984806664e-02,7.505402714014053345e-02
3.548948527230056937e-01,3.059089914768366447e-01,2.921730575592156876e-01,2.594696964615883852e-02,-3.867050952554153959e-02,5.708187388766731984e-02,1.397932022809982300e-01
3.135510855222521931e-01,2.857555554672446263e-01,3.268001138954357288e-01,6.102178927154615351e-02,-4.428444571438752003e-02,4.157482151788603753e-02,1.534799784421920776e-01
3.535622617065702911e-01,3.023105157948418054e-01,3.007296562508950943e-01,2.844350931258072049e-02,-2.516404707290430601e-02,4.283759758871065471e-02,1.119920909404754639e-01
3.330277054299130013e-01,2.971313425629917848e-01,3.285854746449681230e-01,1.339472368369186428e-02,-1.038958276282675453e-02,1.287063787572038237e-02,5.007862299680709839e-02
3.337209055582578965e-01,2.975760021827723034e-01,3.294769720693692117e-01,1.093269602212824584e-02,-1.328690751544851084e-02,1.339149633698573719e-02,5.096334218978881836e-02
3.486654129944902203e-01,2.825171105530245308e-01,3.288331514251248144e-01,1.962183386394632592e-02,-1.994404031846860534e-02,4.109636310219422217e-02,1.042694672942161560e-01
3.437572037404385550e-01,2.976099667722635900e-01,3.162228432795345934e-01,1.785264574145632027e-02,-9.559504137223381881e-03,2.255275743529291249e-02,6.613060832023620605e-02
3.498009911159513652e-01,2.981534489118149445e-01,3.288838180842367231e-01,1.680370582905063581e-02,-1.861590541967224344e-02,2.610113386977833475e-02,7.717015594244003296e-02
3.110390569667637051e-01,3.018639371985579745e-01,3.487634454131975370e-01,1.750402633592812798e-02,2.499157607249833865e-03,-9.258392988589954093e-04,5.285754427313804626e-02
3.244183462347834945e-01,2.726849863454603451e-01,3.567521966895120800e-01,3.879656461390015160e-02,3.899325648799715702e-03,1.016395660173827556e-02,1.013193428516387939e-01
3.062729824216882113e-01,3.154251511299995814e-01,3.495493862489178483e-01,1.537761657769180432e-02,4.590330482116025158e-03,-3.701458652203875460e-03,4.872643575072288513e-02
3.103018337079289091e-01,3.093037258812725843e-01,3.609865419827805733e-01,3.856220647227126541e-02,8.830695678466024198e-03,-6.083204463786755570e-03,8.617781102657318115e-02
2.867282535567935997e-01,3.395515478109180640e-01,3.769032056615386761e-01,5.273213833018774305e-02,4.825678391991863186e-02,-2.321427320624525059e-02,1.519979536533355713e-01
2.607233386480877213e-01,3.463404052893525042e-01,3.679629283548473961e-01,2.949045812964094099e-02,1.630095729834160970e-02,-7.823334067896418886e-03,1.150604709982872009e-01
2.812800043794214666e-01,3.250212027607487508e-01,3.614288986485500454e-01,7.143945389620097453e-02,1.029817010257701344e-02,-4.387113736299743175e-03,1.432411074638366699e-01
3.174861240320356881e-01,3.477426800355725711e-01,2.928179383639933908e-01,-2.009734092786842011e-03,1.713054757465209965e-02,3.151287378396765322e-03,5.650335177779197693e-02
2.912504787350350677e-01,3.233373004506955306e-01,3.808073699671538082e-01,7.358399344573834933e-02,2.911643226044213772e-02,-1.879080274089413305e-02,1.613158434629440308e-01
2.805643975728386308e-01,3.075908323144517231e-01,3.615204629551615478e-01,3.219717665282269964e-02,3.917358937331968135e-04,-5.097447545895411082e-03,9.102057665586471558e-02
3.449577824525196790e-01,3.105039703805709816e-01,3.051349689883925409e-01,6.667446393587823407e-03,-8.130342758168375775e-03,3.411355453301258972e-02,7.227551192045211792e-02
3.480293647491010667e-01,2.945941226277326574e-01,2.748336331249351394e-01,2.419033024404647694e-02,-2.311899855409940696e-02,5.556985131118950816e-02,1.300950199365615845e-01
3.578463865038721825e-01,3.326040532081480094e-01,2.492651905596503514e-01,9.286905179789542442e-03,-5.116960095458174262e-02,7.286911308350986494e-02,1.836563497781753540e-01
3.165380338784679060e-01,4.011468241272484470e-01,2.543962941231852626e-01,-4.434788104384910709e-03,6.190984359305054530e-02,1.462501155050929119e-02,1.687517166137695312e-01
3.592305566033939801e-01,3.270051374663690003e-01,2.801413881965512664e-01,-3.259198128365638257e-04,-9.705308657339447795e-03,8.217550422468004878e-02,1.590164452791213989e-01
3.647978893214259832e-01,3.113040426678796990e-01,3.041722272472667243e-01,5.279147190588837774e-03,-9.613705616144024857e-03,3.505386318466355983e-02,8.568057417869567871e-02
3.040834050220043161e-01,3.110835039623010001e-01,3.494375787019595170e-01,1.784808046469826479e-02,1.954208701492762996e-03,-1.697374351797678853e-03,5.257642641663551331e-02
3.084571686319372286e-01,3.044237633699580226e-01,3.387940433386243400e-01,-4.282773898167495374e-03,2.381258735937384196e-03,8.804430715110996269e-04,3.366479650139808655e-02
3.017129331197792030e-01,2.795837136840610970e-01,3.476017222498924975e-01,3.222355370513408507e-02,5.486701103725325282e-03,-6.048952245397447823e-03,8.322331309318542480e-02
3.163936614880755172e-01,3.010237921376957559e-01,3.495344155325800228e-01,1.646959225136261987e-02,-2.592069586101642276e-03,4.044927798933365022e-03,5.221967771649360657e-02
3.141670853184881373e-01,3.448156137018257295e-01,3.009310550102351489e-01,3.256975674205900805e-03,2.889187667972925762e-03,-2.278864572864440149e-03,3.990783542394638062e-02
3.077599582027135683e-01,2.810698547784772350e-01,3.482098572425993410e-01,2.984806785839183574e-02,-4.744283691399164664e-03,6.070990381773319622e-03,7.924004644155502319e-02
2.944658195293143876e-01,2.958678470236963953e-01,3.605071456975880162e-01,3.271848161917204068e-02,6.383849064489309326e-03,4.631116871944843810e-03,8.757242560386657715e-02
3.372585859330787805e-01,3.261608272841850509e-01,2.859363239256681455e-01,-1.233790169316487106e-02,-2.617961417093426016e-02,-2.096294289951906864e-02,7.758025079965591431e-02
3.204543961244284977e-01,3.475854063112577275e-01,2.890657395859321244e-01,-1.763841991385997968e-03,8.559098585722100389e-03,5.298848093185767796e-04,5.294238030910491943e-02
3.270372181113629373e-01,3.408119639535284184e-01,2.741019082353241543e-01,-1.998934928517782580e-02,-3.836248408319614667e-02,-2.479478044420334315e-02,1.057315841317176819e-01
3.478751396427141040e-01,3.294040777905483663e-01,2.815499565828888939e-01,-1.360972064803169131e-02,-5.746412222534072987e-03,-2.889469616476083094e-02,8.169798552989959717e-02
3.457706086904058229e-01,3.506554808525319533e-01,2.496105767280842602e-01,-6.166011403903855562e-03,-2.717270790675847120e-02,-2.018021017535933520e-02,1.152874380350112915e-01
3.204381217017913119e-01,3.446035457634986643e-01,2.909387168930130940e-01,-1.926936700069478269e-03,8.910228046533416948e-03,9.299954015120298709e-04,4.918291047215461731e-02
3.479457625554851496e-01,2.865673408322123583e-01,3.258228618219718431e-01,-1.567588478785207195e-03,3.032293738840281631e-03,5.112646272218875250e-03,5.488386377692222595e-02
3.798409997759282786e-01,3.444779808024384660e-01,2.367636122073347726e-01,-1.346482596453058532e-02,-3.304622961319038377e-02,-3.471508242861001681e-02,1.552337259054183960e-01
3.592132041789482533e-01,3.328230946061643825e-01,2.791903979238054001e-01,-7.673732124819431649e-03,-2.284902825264843881e-04,-2.414691268954216249e-02,8.315233886241912842e-02
3.066074299787482915e-01,3.509739051272317001e-01,3.047101261668861416e-01,-2.776177853163199274e-03,-4.025504416618877479e-02,-4.530593270459063425e-03,8.367954939603805542e-02
3.181019840569720425e-01,3.196430147525931020e-01,3.171529202938714875e-01,1.775251804377326508e-03,2.149174038311749829e-03,-1.091456644045802346e-03,5.623457022011280060e-03
2.834998352651402764e-01,3.435736198853857615e-01,3.256911072262829721e-01,2.063339915226885569e-03,-5.347760300471208691e-03,1.028418535877291670e-03,5.437016114592552185e-02
3.124355223107790902e-01,3.638341169456645874e-01,3.080792490999995636e-01,-1.008386842754146855e-02,-3.698117113244307752e-02,-9.481997634981418829e-03,8.696147799491882324e-02
2.737845304983320682e-01,3.623810892147768525e-01,2.774603540420605974e-01,-9.211171073208722707e-03,-6.842042609454696001e-02,-8.250111167519807998e-03,1.484587192535400391e-01
2.884108542226873628e-01,3.489133623615436886e-01,3.426853347835018271e-01,-1.933257660439113498e-02,-2.046156986663078686e-02,-1.055539675553327991e-02,7.767916470766067505e-02
2.956191067749041612e-01,3.364363816519100325e-01,3.245212702342702427e-01,-1.564576728832264840e-02,-1.637975646804636434e-02,-1.753765553826052565e-02,6.151133775711059570e-02
4.609843171632776460e-01,4.157817920284914703e-01,2.063619957955311335e-01,-1.633138514792387835e-02,3.912572295763774854e-02,1.129588231914875063e-01,3.147028982639312744e-01
3.193179029047880091e-01,3.461338765026422681e-01,3.224869559325364010e-01,-1.644785881161328275e-02,-2.574393464355166986e-02,-2.056724818555117490e-02,6.865158677101135254e-02
2.865563372827134025e-01,3.453402252545593187e-01,3.203333592981488231e-01,-2.011140586105478537e-02,-2.236713427859072026e-02,-1.980499946564989039e-02,8.063419908285140991e-02
2.765208777618078373e-01,3.694909621939742594e-01,3.336652445724671012e-01,-8.108018902320181936e-03,-6.980852616932700649e-02,-2.353249745933816764e-02,1.519027501344680786e-01
2.953776289242919795e-01,3.379914388739813647e-01,2.800481952373070071e-01,-2.517940952831435389e-02,-5.397534432654193387e-02,-2.815022988379596233e-02,1.253933906555175781e-01
3.019892381781340007e-01,3.178430017547736464e-01,3.508293697147503165e-01,-1.774965716285604317e-02,1.251902225273355737e-04,1.666705451726844232e-04,5.298756062984466553e-02
3.003574049009212765e-01,3.020945032348585357e-01,3.501675247089239273e-01,-1.442033011459444188e-02,9.937641195576737193e-04,-2.206268788430608505e-03,5.512661486864089966e-02
3.065408670678368974e-01,3.111312025920257573e-01,3.429367466607528003e-01,-3.412188483102503167e-02,-1.045747091217180333e-02,-9.797280993304881280e-03,7.271593809127807617e-02
2.752514876076738726e-01,3.572652801489424879e-01,2.923656534003223895e-01,1.401318390085738545e-02,-5.749410285300430440e-02,1.393601011690604602e-02,1.292440295219421387e-01
3.344392408879917622e-01,3.339028848303570163e-01,2.921056584607743534e-01,1.887313957000364903e-02,-2.802995493090634088e-02,2.258793548598909268e-02,8.201207220554351807e-02
3.188380045922891703e-01,3.351939832038691169e-01,2.921308780412197881e-01,1.971174471423120522e-02,-1.907496255784402878e-02,1.860006111575275567e-02,6.864923983812332153e-02
3.263843677630015594e-01,3.465312437799032419e-01,2.898535470313836626e-01,3.287195611361148906e-03,-3.083983477564684883e-02,1.710797417604228987e-02,7.899449765682220459e-02
2.872825304013514325e-01,3.460123865515588593e-01,3.107584853179122808e-01,6.110103336943479603e-03,-2.470809166262461984e-02,8.250072366748307726e-03,6.905966997146606445e-02
3.127220315623922553e-01,3.453455742698580133e-01,3.014689548238686512e-01,4.366798589473433467e-03,-1.815316286557925804e-02,3.507989213029255246e-03,5.138851329684257507e-02
3.017285609205708763e-01,3.447619525398235574e-01,2.994516113868420093e-01,4.119106683100134600e-03,-1.460871833742552126e-02,3.601802574863510395e-03,5.181800946593284607e-02
3.009275249689072340e-01,3.455218641406904712e-01,3.159322156187337471e-01,4.098306083610697703e-03,-1.443539129762716824e-02,4.070801533700154143e-03,4.764363169670104980e-02
3.618965376331285122e-01,3.251855727878852909e-01,2.919002628582266778e-01,7.285814969402313462e-03,-9.150279534931467923e-03,3.262082524154938379e-02,8.532484620809555054e-02
3.477918780600602333e-01,3.155754653634417761e-01,2.902984171040098871e-01,7.265820044376957929e-04,-2.748396497199095435e-03,9.351182608884924669e-03,5.270427837967872620e-02
3.480847659977017172e-01,3.270888582202413630e-01,2.687935998819369621e-01,6.811553904842936394e-03,-6.557725808154711046e-03,2.419979358316152671e-02,8.419156819581985474e-02
2.927273934874908834e-01,3.395757492708678105e-01,3.160610057582265986e-01,-2.147038773400090483e-03,8.246259050737239638e-03,4.908549823102560834e-03,4.400224611163139343e-02
3.355156205147287740e-01,3.088732147323554056e-01,3.118526964288638736e-01,7.693998291422861173e-04,8.109940194966814989e-04,-1.528885875596655520e-03,2.549658901989459991e-02
3.478733822467396375e-01,3.296018554668709855e-01,2.747344954747565904e-01,2.830080002685275622e-03,-5.985180468308788984e-03,1.462686340447797925e-02,7.155499607324600220e-02
3.404627871383764104e-01,3.278589115990099279e-01,2.742315152531919487e-01,7.821512349934809510e-03,-5.054310133870059361e-03,1.468501510720291933e-02,6.795427948236465454e-02
3.465691645003818877e-01,3.290390505575158664e-01,2.727881340455014514e-01,-6.874750444636885255e-03,-1.522321586483508377e-02,-2.320966870758098613e-02,8.313030004501342773e-02
3.479157224835863205e-01,3.309898911376302211e-01,2.749868451769669764e-01,-2.880948946439265863e-03,-4.393678143551026788e-03,-1.388174943999508255e-02,7.093408703804016113e-02
3.327408492406503937e-01,1.980173534072764419e-01,3.777655945866607023e-01,-9.930531503115573588e-02,-3.272138721940527628e-02,-5.928319300964188243e-02,2.637872993946075439e-01
3.544119276139855446e-01,3.139067163758436640e-01,2.935460620790044106e-01,-5.154163239793131982e-04,-1.442354962996824849e-02,-2.870864810487027199e-02,7.731373608112335205e-02
3.421188191527528288e-01,3.129156996440812244e-01,2.921891409915972071e-01,-6.566499456470876669e-03,-7.636048590546061802e-04,-9.213838289938831860e-03,4.768105596303939819e-02
3.459374352956144927e-01,3.172086479483826604e-01,2.979187490553865114e-01,-2.032296790917674078e-03,-6.216848192527121494e-03,-2.050884596554865963e-02,5.605171993374824524e-02
3.379300690842212962e-01,3.144352501682232681e-01,3.046626196551442400e-01,-4.578036219973925097e-03,1.319001608816184300e-03,3.248028246760475794e-03,3.125476837158203125e-02
3.516259709246648546e-01,2.936046493095171850e-01,3.118981184645096549e-01,5.988148548064985317e-03,1.448081677102016143e-02,-3.790845639374388482e-02,8.767852187156677246e-02
3.470975312446717420e-01,3.110698463920300583e-01,3.062947500700868853e-01,3.888666988744059541e-03,4.598534004275020917e-03,-2.410221989437943621e-02,5.783067643642425537e-02
3.461306833354142465e-01,2.940846573146526644e-01,3.030643022475931758e-01,6.635228891563215575e-03,1.391475693728727982e-03,-1.392153099241030811e-02,5.514873191714286804e-02
3.353620309111326470e-01,3.046484611816399624e-01,3.150185400475027930e-01,1.117347894115290272e-02,1.287123985774466656e-02,-1.542792319336304049e-02,4.814528673887252808e-02
3.342915145314501735e-01,3.164669766956334507e-01,3.017408118675538597e-01,6.424559426580183329e-03,8.959592033756350743e-03,-1.135572130319384594e-02,3.935182467103004456e-02
3.415655214383476745e-01,3.341351761512985630e-01,2.886312736736716955e-01,6.870107998842506399e-03,9.660935856228814247e-03,-1.429385411654525428e-02,5.914781242609024048e-02
3.137781698550859422e-01,3.058354491754078919e-01,3.480446601732047895e-01,-3.182206971715409449e-02,9.329941195807836540e-03,6.823276120464628371e-03,7.034341245889663696e-02
2.451295959986551365e-01,3.270502242250097336e-01,3.654036284205283702e-01,-6.375309273962065371e-02,-6.261159801206194787e-03,-9.426003406383122972e-04,1.537450850009918213e-01
2.340999533536681221e-01,3.434155127214317260e-01,4.035868889017291683e-01,-8.959008896294891333e-02,4.606698949445711504e-03,1.018534506900548552e-02,2.158754169940948486e-01
3.044273773472943034e-01,3.404711580873044929e-01,3.108304996134990117e-01,-5.915812985248932680e-04,4.384810789230428676e-03,2.904828462497348069e-03,3.454569354653358459e-02
2.790622804024298631e-01,3.046896826455414153e-01,3.478588277883927771e-01,-3.345223967762125938e-02,5.211667579152220661e-03,3.904294430397751287e-03,8.432688564062118530e-02
2.588867536086648102e-01,3.384112831179838521e-01,3.548294823251672558e-01,-4.152306137622634175e-02,7.163969432560752908e-03,1.663705306852715895e-03,1.150396540760993958e-01
2.623036388037612854e-01,3.422083811016763955e-01,3.766199170268619278e-01,-3.927799098897537255e-02,1.511982673059758531e-02,9.681108423259532358e-03,1.261501014232635498e-01
3.374593012701416761e-01,3.024257455171318609e-01,3.184750874694419753e-01,-8.907801712086094864e-03,-5.706910336210738871e-03,-1.214182923513458176e-02,4.123943671584129333e-02
3.862198082352374384e-01,2.793878604147958522e-01,4.642629694586138944e-01,-1.467786663957205417e-01,5.397389919280478482e-02,8.723866100655700007e-02,3.493487238883972168e-01
3.368784416872085408e-01,3.000131778280819006e-01,3.155384458911814072e-01,-5.964134374463191633e-03,-6.705786291491565299e-03,-6.612913684704911470e-03,3.742386773228645325e-02
3.386683634384348163e-01,3.000637652639329134e-01,3.326243119005701798e-01,-2.150891739338854636e-02,-1.476926607973370539e-02,-9.644523533540651228e-03,6.012372300028800964e-02
3.340346433306907170e-01,3.146766648852850623e-01,3.106418381235658277e-01,-3.388975430768250297e-03,-6.440440022864540523e-03,-7.316846192203114649e-03,2.808236517012119293e-02
2.964890489245420313e-01,3.441704341299242076e-01,3.133144711144372208e-01,-1.310288987138555523e-04,1.936508529920743984e-03,1.069874170804134030e-03,4.206049814820289612e-02
3.453876786581076552e-01,2.845143731399208398e-01,3.053211488263761209e-01,-5.360555595427109882e-03,-8.342714034121250302e-03,-2.893787645427180893e-02,7.535990327596664429e-02
3.362090113123905044e-01,2.870992380425187451e-01,3.106183581875299748e-01,-1.341270248518539217e-02,-1.051894357047836355e-02,-2.290939603722044055e-02,6.523854285478591919e-02
3.398368152573996714e-01,2.646520425170377777e-01,3.251010242657650373e-01,-3.880383482477735985e-02,1.961421158120404268e-02,4.534417214649784367e-02,1.288473308086395264e-01
3.147086444769404689e-01,3.212948232744206600e-01,3.061477442265181925e-01,-2.053543503070897128e-02,2.383305774036336561e-02,2.793932898662332062e-02,7.405420392751693726e-02
3.522463893902298970e-01,2.863135317876371877e-01,3.080664339874091828e-01,-1.255993117109634530e-02,1.430057949210464946e-02,2.779822601820312183e-02,8.240812271833419800e-02
3.343638547461240118e-01,2.916452702670255803e-01,3.079397408175227890e-01,-1.305371037378535645e-02,1.345928421017781804e-02,2.352959728741501819e-02,6.410843133926391602e-02
3.153712882034566123e-01,2.979725961079798258e-01,3.411126577150110917e-01,3.084263749490300834e-03,-4.573421307955578829e-04,2.816763660165863613e-04,3.798160329461097717e-02
3.713864076265975256e-01,2.943046568658708173e-01,3.198617123409829288e-01,-2.473492104252332166e-02,3.253510416346714479e-02,6.994355808817116771e-02,1.559234708547592163e-01
3.700735935673484800e-01,2.834787780661348622e-01,2.986853986773752578e-01,-2.684278726027637674e-02,3.257722817248297903e-02,4.758076017893084902e-02,1.361995190382003784e-01
3.268012515414631669e-01,3.013249540495583911e-01,3.166306672780541120e-01,-3.662498282313363107e-02,2.837596360036069923e-02,4.802005823801692302e-02,1.176898702979087830e-01
3.482189288642144609e-01,3.444017870337414688e-01,2.503806185849048460e-01,2.090408989907202239e-02,3.952431537500684239e-02,-4.034116800290298011e-02,1.417502313852310181e-01
3.647793345076950078e-01,3.542133852342765343e-01,2.404841335856147677e-01,3.635269042091147929e-02,3.464315935594337176e-02,-5.370736899215711180e-02,1.745453625917434692e-01
3.404155993930393365e-01,3.613217476735803846e-01,2.313172936940443014e-01,2.513095138889027795e-03,5.390960037385093828e-02,-1.606716327262649319e-02,1.553463041782379150e-01
3.234278688224809239e-01,3.409566715177574925e-01,3.022157173365927485e-01,-7.133526986112111515e-03,1.173709220179408770e-02,7.239156941222568697e-03,4.303712025284767151e-02
3.280888928544000160e-01,3.466759584476371558e-01,2.654881489232423508e-01,9.207822407247568189e-03,1.798215842534333503e-02,-1.336324501487922214e-02,8.478237688541412354e-02
3.194342489566281418e-01,3.538938245150404782e-01,2.390134965190432448e-01,1.451583150619174811e-02,5.538912583440507020e-02,-1.888573783257519595e-02,1.460555791854858398e-01
3.281467990073467789e-01,3.342704550984689771e-01,2.808837173945723520e-01,1.043638380111761021e-02,1.786829589397627774e-02,-2.293557209922782170e-02,7.364390045404434204e-02
3.447854485613505160e-01,3.639397505616272510e-01,2.634546659829002935e-01,3.861338956800668826e-03,2.466272331327110101e-02,-1.400756827303722106e-02,1.048691272735595703e-01
3.585127289278292606e-01,3.550981821378562664e-01,2.562930741360777143e-01,6.802214431215864235e-03,1.714541226822482653e-02,-2.470862393308899743e-02,1.138584092259407043e-01
3.344219303436906099e-01,3.310238519886777309e-01,2.773705322539737339e-01,1.056461734356869964e-02,1.759802410334822959e-02,-1.914312856798090073e-02,7.372806221246719360e-02
3.327965458459711812e-01,3.401376191269595561e-01,2.892412677396452581e-01,2.425277223261479778e-02,-4.856516764563548888e-02,3.616115430790493163e-02,1.226128116250038147e-01
3.391178605292816117e-01,2.766960371892242532e-01,3.393988245002275694e-01,-4.023392844209075676e-03,5.731346366786104971e-03,3.311488754559449663e-03,6.398521363735198975e-02
3.404407482119832795e-01,2.773048230763749955e-01,3.393579416545013938e-01,3.952941626529886746e-03,-4.777950212995749936e-03,4.411747173985105554e-03,6.397427618503570557e-02
3.180647743144009443e-01,3.396719139979917923e-01,3.030158974688120788e-01,2.758609656408248650e-02,-2.405168882237066277e-02,2.885755975777774818e-02,8.680556714534759521e-02
3.030848213696870075e-01,3.427697448244522715e-01,3.260300477675537878e-01,2.407777536946439229e-02,-2.918151990132734561e-02,2.789183568360795173e-02,8.842263370752334595e-02
3.422345617830207520e-01,3.248888198121858140e-01,3.006855379020195174e-01,3.827528419802181392e-02,-7.099836171100773474e-02,5.515565878711638920e-02,1.730613559484481812e-01
3.252684035686688180e-01,3.189075731486154530e-01,3.267469295085930203e-01,1.374217616936415816e-02,-9.060867685294935608e-03,1.429094227497777585e-02,3.843935579061508179e-02
3.146494184411323114e-01,3.135866299245949618e-01,3.077739115833951766e-01,2.257671099572522780e-02,-2.213751958787504512e-02,2.418637850752001009e-02,6.924861669540405273e-02
3.495180208131877242e-01,3.027920679801534010e-01,3.194634092837811967e-01,3.689957457154340037e-02,-4.266347421131400086e-02,8.501952932956764741e-02,1.814179569482803345e-01
3.297031921425225831e-01,3.214906139054775625e-01,3.186798432839249018e-01,6.956868275949074087e-02,-3.454903643043478328e-02,6.373692750439738375e-02,1.743156015872955322e-01
3.002806813948002418e-01,3.000132670426974291e-01,3.434564239655459872e-01,-1.490757389219639351e-02,1.171187731950332342e-03,1.262491104755243893e-03,5.051104724407196045e-02
3.072812421106506653e-01,2.817406749385450992e-01,3.497089618837832536e-01,-3.063725102143904921e-02,-8.413756549530713785e-04,1.239922942529754892e-04,7.971294224262237549e-02
3.107277666521426895e-01,2.922628390632201478e-01,3.637268867245463944e-01,-4.276039969069492935e-02,-4.330934224788029162e-03,-6.682214758911212207e-03,9.901548922061920166e-02
3.015678196468670746e-01,3.151706076685032998e-01,3.472419794541106719e-01,-1.794840852899179731e-02,4.381225031099451883e-03,4.817937425866843093e-03,5.237869545817375183e-02
3.422925961012647234e-01,3.043947018358015844e-01,3.121154712188032310e-01,-5.269589834284479045e-03,-8.847785318996112883e-04,-1.150143580573639336e-02,4.105804488062858582e-02
3.320909898749492273e-01,3.182121789465181538e-01,3.026130380828102595e-01,-5.502225012101325495e-03,-6.025447447808317952e-03,-2.098212075379909253e-03,2.941770106554031372e-02
3.411026716975529838e-01,3.255145793903691520e-01,2.859462124635936409e-01,-7.543271312069254816e-03,-6.963580121593824016e-03,-4.643242950064198869e-03,5.297448486089706421e-02
3.372913197101456984e-01,3.347103948570154253e-01,3.009625846307511510e-01,-1.396012868231842792e-02,-2.175470628813660351e-02,-3.158947267105421952e-02,7.893553376197814941e-02
3.434568182150556925e-01,3.254757591842012410e-01,2.756538001315104180e-01,-1.009755190460268418e-02,-5.205728262238182302e-03,-1.105657946305292627e-02,6.674820184707641602e-02
3.317916795954926612e-01,3.258677049137695403e-01,2.845834719229605736e-01,-8.066163962404036131e-03,-7.860434413981910728e-03,-9.659346815828325980e-03,5.142475292086601257e-02
3.368227030446935277e-01,3.036982175061221367e-01,3.178929559478882449e-01,1.947069054396131753e-03,-5.198820567152439426e-03,2.444607182105852216e-03,3.064169548451900482e-02
3.154718350332768595e-01,3.488081146538493105e-01,3.014963843860093973e-01,-1.312263801948919525e-03,-1.628519712906559627e-02,-2.560475978127635694e-05,5.072771757841110229e-02
3.440241804547852777e-01,3.459418097016128124e-01,2.769390057397391747e-01,-1.212520025993181309e-02,-2.957199227530288993e-02,-2.401228024726785593e-02,9.709315747022628784e-02
3.298191379900539677e-01,3.309792765360884403e-01,2.856709829203026296e-01,-1.670449265412290996e-02,-1.891101875101152893e-02,-2.198390802627528395e-02,7.322226464748382568e-02
3.153221063196809948e-01,3.453505516240733542e-01,2.928789364578121557e-01,5.653883406548859203e-04,1.839369786025472908e-02,2.681031073052984621e-03,5.582870170474052429e-02
3.142303749041541194e-01,3.308898252383961069e-01,2.950944005790269720e-01,-1.393623960123819248e-02,-2.444417226582966049e-02,-1.254686470969281625e-02,6.172518059611320496e-02
3.165383496002665553e-01,3.418736380273676989e-01,3.089922747114079993e-01,-9.597671691085945742e-03,-1.501059526311179781e-02,-9.957420509164790004e-03,4.625745862722396851e-02
3.275870956014813595e-01,3.279033718806027009e-01,2.878626601067038604e-01,-1.991666715314141176e-02,-2.029509710576230322e-02,-2.155820188609157764e-02,7.355716824531555176e-02
3.154439394415206599e-01,3.336464481842446594e-01,3.122406977185080423e-01,-1.438023759963969438e-02,-2.290946367346419904e-02,-1.795422113711771239e-02,5.968136712908744812e-02
2.850981656167045908e-01,3.657886307363101830e-01,3.267492049249190456e-01,4.692621357851826415e-03,6.588245725254882057e-02,-2.699152304199387703e-02,1.419792324304580688e-01
2.850171667638863315e-01,3.357843257343650079e-01,3.127869164337926944e-01,1.602952757718511395e-02,2.587158568392411775e-02,-1.300717232339128858e-02,7.228475809097290039e-02
2.846929558546212324e-01,3.438322357190308765e-01,3.354439340403582714e-01,1.712609975113085423e-02,2.256898466424541588e-02,-1.017033786853837295e-02,7.609227299690246582e-02
2.525685965741820693e-01,3.405592370253215373e-01,3.360699306821472998e-01,2.471490203628251905e-02,3.261840527543998641e-02,-1.783746294954759518e-02,1.155265122652053833e-01
2.953713926108886834e-01,3.425113779714465956e-01,3.396152949051050030e-01,2.116032391994295686e-02,1.594917814774193462e-02,-1.466355917398342798e-02,6.960970163345336914e-02
2.772181677035619463e-01,3.784915581755906588e-01,3.416979783240937096e-01,3.480450757178970428e-02,5.250795794511179532e-02,-2.275922472795136042e-02,1.460928469896316528e-01
2.531285671371350521e-01,3.542127383872535895e-01,3.098525174241358315e-01,1.497908410794886874e-02,5.028747001372113612e-02,-8.891267635219701065e-03,1.272733062505722046e-01
2.853497030215773611e-01,3.435414218295733679e-01,3.493650363671414460e-01,-3.418921143921117844e-02,-2.573551186765322268e-02,-1.532835059320152710e-02,9.978781640529632568e-02
3.063985607124088406e-01,3.113738075840319364e-01,3.649928334052878753e-01,-3.536512833067289446e-02,-1.260516481829995067e-02,-1.480641797116336034e-02,8.973827958106994629e-02
2.728242791752199525e-01,2.989194781955892277e-01,3.842272603596801339e-01,-7.629033967342994937e-02,-2.079226262197654551e-02,-2.668639103415388660e-03,1.701865643262863159e-01
2.332233344984530610e-01,3.419920309318536522e-01,3.458327872424465377e-01,-5.652172726274759529e-02,-3.493874483492575428e-02,-2.171044083496233984e-02,1.640836000442504883e-01
2.952202560419092681e-01,3.919328709682241563e-01,1.693994913124287627e-01,4.403084729777972939e-02,-1.355826974922808570e-01,5.975957767607434357e-02,3.301975429058074951e-01
3.975125760598626767e-01,3.788218666208909013e-01,9.939095248889012746e-02,9.793362524826544971e-04,-5.950110229733825834e-02,8.226104655088830112e-03,3.073772490024566650e-01
3.449833167519805732e-01,3.801507700926953781e-01,2.247594759940311770e-01,2.097466998538581769e-03,-2.858244061202690547e-02,1.674665121720730378e-03,1.496361196041107178e-01
3.464643433140781603e-01,3.692689524681856406e-01,2.587260524131032025e-01,9.219774044362138987e-03,-2.277649741220064486e-02,1.373709506926313641e-02,1.122334077954292297e-01
3.517047890581189717e-01,3.739740242933821679e-01,2.456592973928364565e-01,9.884609447321900805e-03,-5.074768614258983596e-02,3.031960604933346681e-02,1.577341258525848389e-01
3.524709910680700053e-01,3.947671387073963256e-01,2.459694985852912685e-01,3.073767055074393822e-02,-7.115624157438933672e-02,4.002420607364145372e-02,2.011616080999374390e-01
3.588008937031679779e-01,2.720275451362912933e-01,3.381201146824965864e-01,3.307744244347074741e-03,3.997246398233291267e-03,-2.795186367363267088e-02,9.266847372055053711e-02
3.408451930631168914e-01,2.728021660014945393e-01,3.257105417115122581e-01,4.023455071585521625e-02,2.690147266050472302e-02,-7.404319113384709439e-02,1.652386486530303955e-01
3.524210007461870964e-01,2.709477274782745582e-01,3.302789795926044936e-01,1.362660895795748256e-03,-2.457705843602289286e-03,-3.064957214055831491e-02,9.036625921726226807e-02
3.072785909301666285e-01,3.075241868461249251e-01,3.380455759420909478e-01,-8.071906903829650232e-03,-5.029577301311729393e-03,-5.141749616356984694e-03,3.591352328658103943e-02
3.547301131632688564e-01,2.545898615168411538e-01,3.245808378542466288e-01,1.563640608331876708e-02,1.117066941983949936e-02,-4.371906367852444047e-02,1.214899420738220215e-01
3.487273809632861488e-01,3.024483973760204170e-01,3.133896943996582474e-01,2.162705777368973195e-02,9.098949252652702852e-03,-3.180941871379405067e-02,8.026321232318878174e-02
3.989836493734064682e-01,2.868873184158376444e-01,2.772106786497879338e-01,1.832542825060726535e-02,3.540728580739353065e-02,-6.144509753219719317e-02,1.727394908666610718e-01
2.196436253136243577e-01,3.956520550769804245e-01,3.926932400216172070e-01,-1.501788694731008914e-02,1.180423273233840477e-02,1.490864151164272887e-03,1.776745468378067017e-01
2.539570925079905339e-01,3.597900678722925627e-01,3.588908024501952787e-01,1.768348732954623959e-03,6.970837187095109931e-03,1.732290427925041801e-03,1.061622202396392822e-01
2.076522897046657046e-01,3.559148429910869993e-01,3.602117082638031098e-01,-1.050008717720119812e-02,-3.525186929829355904e-03,-2.914995139492549542e-03,1.517591476440429688e-01
2.221854427586498204e-01,3.576198319431143080e-01,3.885198687988226651e-01,-1.600426768676828718e-02,1.395249488105391664e-02,-9.551316356257378432e-03,1.584560573101043701e-01
3.240590159685738381e-01,3.197897046805008303e-01,2.678446474591366644e-01,3.335347006235504785e-02,5.217154392511479111e-02,-5.196620621197029638e-02,1.501423269510269165e-01
3.236792891550004936e-01,3.462444059773013838e-01,3.034126658947023936e-01,2.305443505919999719e-02,2.904316135348461100e-02,-1.357648338549106992e-02,7.781541347503662109e-02
3.335498896928492663e-01,3.308293416246665397e-01,2.854438031010929078e-01,1.262225736184277754e-02,1.518223968077074895e-02,-2.515023777244599149e-02,7.251062244176864624e-02
3.488016739912612185e-01,3.814283475573444493e-01,2.301047882971756220e-01,2.601364693668685446e-02,5.305264737761442029e-02,-4.231835534814928912e-02,1.867419183254241943e-01
3.191421314314487057e-01,3.772055769263731317e-01,2.615292849930746510e-01,2.916886642560003601e-02,6.905724327637854931e-02,-5.069135385760160581e-03,1.642317622900009155e-01
3.030903579710085838e-01,3.556718896293233900e-01,3.133488111945583743e-01,1.350421605836661480e-02,3.875468415497090868e-02,-9.961963157514401590e-03,8.764267712831497192e-02
3.093188274780855340e-01,3.478377248110677278e-01,2.864887371327623500e-01,4.323330896210289369e-03,2.916569549226975810e-02,-5.814581079946501765e-03,7.479120045900344849e-02
3.912614248584205812e-01,2.164191961822858057e-01,3.557662456306302512e-01,-4.793937767768851471e-02,5.972155189959754695e-02,1.459621702926658104e-01,3.273118734359741211e-01
3.890228819583174680e-01,2.217510226645684202e-01,2.529302308024180546e-01,-2.581496746222918665e-02,2.402114766243693134e-02,1.416627985223031516e-01,2.960944771766662598e-01
3.909781020423895859e-01,2.196362885497545325e-01,3.306750249405844277e-01,3.038973212132568130e-02,-2.168249955614497126e-02,9.477745350860070084e-02,2.319296002388000488e-01
4.111710348844542229e-01,1.893034592122233017e-01,2.938793738516567999e-01,3.921430642183665327e-02,-2.142565793783645072e-03,1.445724134102727709e-01,3.229395449161529541e-01
3.686733217733825785e-01,2.448270640441482238e-01,3.299142301248170206e-01,-1.143516591914122207e-02,-8.878158416352316049e-03,7.001189340166431851e-02,1.654501259326934814e-01
3.927791216629671345e-01,2.875121957902517789e-01,3.338112671819154498e-01,1.869582871350969691e-02,-1.046358340510137111e-02,6.590347888409610333e-02,1.508570015430450439e-01
3.950468858824930929e-01,2.893476067842707389e-01,3.229021368781386792e-01,-9.173368381797603402e-03,7.743779672532100436e-03,7.698973439425510490e-02,1.642137765884399414e-01
3.138350835647255033e-01,3.031502604263890399e-01,3.284350001261362451e-01,-1.624960937713874551e-02,-1.444302693407449947e-02,-1.375724031884122817e-02,4.968961700797080994e-02
3.159484510823263315e-01,3.204637860494012336e-01,3.173142395020758788e-01,-1.800805185810119835e-02,-1.337154555014293325e-02,-2.076590186146393471e-02,5.309443548321723938e-02
3.196578634092223092e-01,3.119966526962930087e-01,3.316880652337498292e-01,-9.804758599353924353e-03,-7.513618544188284398e-03,-6.560146953774246420e-03,2.970615588128566742e-02
3.210086086463594390e-01,3.188502685468543318e-01,3.295486663066279354e-01,-2.694849154324057902e-02,-1.381215741713728330e-02,-1.380334444267670643e-02,5.846888944506645203e-02
3.133731833887539175e-01,3.098466229665615135e-01,3.310622208907350594e-01,-6.460124671245928013e-03,-8.554216033805439254e-03,-5.938428107415458408e-03,2.895234711468219757e-02
3.105823621564748338e-01,3.370542296983405905e-01,3.154002919352038026e-01,1.588717648639237368e-02,-3.080185832035728377e-02,1.149368222223280667e-02,6.779541075229644775e-02
3.243835182938841211e-01,3.247504759709288202e-01,3.190557701559406101e-01,1.676867640039491139e-02,-1.792120754478631478e-02,2.272574421875876369e-02,5.819731578230857849e-02
3.151799732252805186e-01,3.446872929881564795e-01,3.232427004752168043e-01,2.082579697866783486e-02,-2.538680651174705233e-02,1.813416998657627413e-02,7.013512402772903442e-02
3.308483822730129420e-01,3.229412566820274999e-01,3.155498011009986725e-01,1.281723876504805432e-02,-1.549167047280752829e-02,2.561926532931676354e-02,5.794361233711242676e-02
3.298117003059152230e-01,2.945997630339541873e-01,3.071230735464346440e-01,2.947301606091452808e-02,-3.056485574714123965e-02,4.420056631138889747e-02,1.105686277151107788e-01
3.340666836314549193e-01,3.481647625139186464e-01,2.820454658533883552e-01,4.161738711511579758e-02,-3.184168470648630900e-02,5.193329962671086597e-02,1.413055658340454102e-01
3.465203632198669559e-01,3.099535747670650321e-01,3.020124417930102334e-01,4.697751741631386174e-02,-3.283116283591046985e-02,3.441714475708321230e-02,1.228759959340095520e-01
2.618105798946355200e-01,3.200460947175523541e-01,3.441975011735097234e-01,-5.413560378714942639e-02,3.101294216258444064e-02,1.708222988132524281e-02,1.339176595211029053e-01
2.633912870244189408e-01,3.523607424091392826e-01,3.734947633560390945e-01,-2.501433934842845278e-02,4.631343812397554181e-03,6.312828243154781395e-03,1.109213605523109436e-01
2.460778458371677413e-01,3.495246185135783556e-01,3.745951305672704512e-01,-2.721937223581436319e-02,1.065343261290887904e-02,3.489193647477601724e-03,1.285415142774581909e-01
2.540750940430664961e-01,3.265899737095352973e-01,3.858696623637145606e-01,-5.547186291460241142e-02,3.243307300671353227e-02,3.111828081248339123e-02,1.684140264987945557e-01
2.363914293192352911e-01,3.246156283336776305e-01,3.644209980154334838e-01,-5.657549401165537506e-02,6.697482162132156920e-03,3.870160227812653383e-03,1.505378186702728271e-01
3.156131637234850240e-01,3.019390233368094978e-01,3.398374816274398746e-01,-1.563879162946505211e-02,-4.430776146569856064e-03,-2.957600957086766943e-03,4.386227577924728394e-02
2.647645194088669718e-01,3.257733401020526109e-01,3.639829451416609629e-01,-3.376357621634336337e-02,2.336102497256040220e-03,6.604010442605208996e-03,1.052631065249443054e-01
2.764188001885899970e-01,3.090236955477241865e-01,3.478371794969080666e-01,2.935398847144379819e-02,-3.103577655116473814e-03,2.555997288714614672e-03,8.042724430561065674e-02
2.356051353591896436e-01,4.638497654164023265e-01,3.799946892592448999e-01,-2.895032955044326423e-02,-1.442221967502817503e-01,-2.770514878242803097e-02,3.274217844009399414e-01
2.994066646986751623e-01,3.269251571578024596e-01,3.270684033980602035e-01,3.193347493699932524e-03,-2.864561649612697679e-03,6.702658625030421743e-03,3.084179572761058807e-02
2.960496985680824422e-01,3.169100669075870513e-01,3.493222779951276058e-01,1.766504951317259681e-02,-5.625265907772940971e-04,1.238033004479568988e-03,5.570948123931884766e-02
3.052585915159427565e-01,3.156214588394105625e-01,3.444928442180367201e-01,3.080774596026662066e-02,7.439199412543616094e-03,-1.065474038412049865e-02,6.777966767549514771e-02
3.092808600584761036e-01,3.088059499210954462e-01,3.439406039776413682e-01,6.551531788851456574e-03,8.931664948643631714e-04,-7.863790297464262700e-04,3.675594925880432129e-02
3.045167531983122289e-01,3.024123975873100889e-01,3.431791672868849674e-01,1.143493354371587396e-02,2.029149673165469171e-03,-2.128348006991393100e-03,4.470777511596679688e-02
3.139534650401187843e-01,3.005012266525174391e-01,3.440757813015100641e-01,2.528921599613888870e-03,3.806464735422639958e-04,3.377188372282082917e-04,3.890363126993179321e-02
3.039017148871618890e-01,3.039971701883877331e-01,3.427280880232109750e-01,1.156096965735557529e-02,4.149912083554863074e-03,-5.758001526575544024e-03,4.534189403057098389e-02
3.059930739914819009e-01,3.146155484574328365e-01,3.433254417397255676e-01,1.547808107532729072e-02,3.935730669835721743e-03,-6.026178869178383003e-03,4.494755715131759644e-02
3.077420878196229226e-01,3.301936596573476490e-01,3.111319029895225907e-01,3.282527644391036118e-03,3.482041805878266418e-03,-4.389311295573337414e-03,2.378979139029979706e-02
3.386820119128928219e-01,4.050409931120354523e-01,2.488250927351979835e-01,-1.413679448863711108e-03,-6.864044350334649880e-02,-7.837092884654643307e-03,1.810121089220046997e-01
3.673054410722972341e-01,3.260001741990336543e-01,2.482845148952778080e-01,-2.879782951064268140e-03,5.906247691994464220e-03,4.567681292278451960e-02,1.316987425088882446e-01
3.619232196948280467e-01,3.324873604371501590e-01,2.718869659174958375e-01,1.785404795110818316e-02,-1.447479922151020601e-02,3.916402744530296520e-02,1.118437573313713074e-01
3.504813929262047822e-01,3.309789642790874620e-01,2.844194602171143949e-01,5.283204189119880025e-03,1.993469303658568659e-03,3.329532546477419197e-02,8.293099701404571533e-02
3.490609537300130572e-01,3.457854756717500533e-01,2.536735752517534359e-01,6.624061387316719160e-03,-1.518961680961462488e-02,2.639099466268646221e-02,1.082141548395156860e-01
3.667354598006860589e-01,3.478897989983614214e-01,2.387719732840399289e-01,-1.778075599719235265e-03,-2.311273855131229168e-02,3.666369356456873618e-02,1.412905454635620117e-01
2.237490251260557117e-01,4.083716048945156274e-01,3.742284764208955172e-01,8.428378518010232190e-03,5.333608689148601478e-02,-2.035894664649341712e-02,1.973282694816589355e-01
2.552525658149253918e-01,3.575806275673951706e-01,3.491994653818685790e-01,1.327275265928111632e-02,1.840162537654526850e-02,-1.057070596203407882e-02,1.075324341654777527e-01
2.541834510056334429e-01,3.674965477717332951e-01,3.553620892570619749e-01,-4.171155028129117266e-03,3.963747266751267706e-02,1.391524933733342614e-02,1.302251666784286499e-01
2.516301222468002585e-01,3.734215842958072407e-01,3.329341499897072176e-01,-1.125994955143548061e-02,2.491142004923523404e-02,-2.001411213727414921e-03,1.174541711807250977e-01
2.402176929886083723e-01,3.557522993043228388e-01,3.506141112249048231e-01,2.095403040088793852e-03,2.221287618633821861e-02,2.957161104153305372e-04,1.194766834378242493e-01
3.124530552481877832e-01,3.288804239790665274e-01,3.101841600444583680e-01,9.044289236716427337e-04,1.245827116453981790e-03,-8.083672973314987714e-04,1.792620681226253510e-02
2.510443364602629734e-01,3.769821610755798580e-01,3.620909373582549828e-01,1.600264858543908042e-02,4.007415843941936756e-02,-1.341639780177501275e-02,1.425930708646774292e-01
3.173809654794849666e-01,3.179335497811324740e-01,3.198811251313731230e-01,-1.327776453326174960e-04,-3.653210118929896798e-04,-1.174516518456650022e-03,3.125113435089588165e-03
3.583110708478636774e-01,2.402579830040985076e-01,3.945873195719229454e-01,6.353492390973050630e-02,9.115167122515047127e-03,-2.505502238749587537e-02,1.837868392467498779e-01
3.254045284589964782e-01,2.905068307934811633e-01,3.608969615886123417e-01,3.738217803258034322e-02,7.106215923743136598e-03,-6.394146364702825956e-03,9.045771509408950806e-02
3.521507794398625046e-01,2.338641010010968357e-01,3.636094250472440281e-01,3.813960109925562669e-02,4.363421270483626956e-03,-1.660952584837643419e-03,1.410947442054748535e-01
3.327306600060754294e-01,2.739932528895174246e-01,3.569131015018126019e-01,2.600580538828538638e-02,9.691957912177893292e-03,-2.172178430222422921e-02,9.582015872001647949e-02
3.027348338536993699e-01,3.179865195387974186e-01,3.374862812680816671e-01,-1.104521379447726513e-02,1.019936099094024412e-02,8.764499283377764211e-03,4.264714941382408142e-02
3.099189178841965098e-01,3.213152178616745513e-01,3.207654195062897839e-01,-1.938611514718916948e-02,1.773275195114618064e-02,1.251038990991991222e-02,5.161644890904426575e-02
3.140388627666704235e-01,3.194136458973241277e-01,3.207420978260535627e-01,-1.066806743286398580e-02,1.387343879301433658e-02,5.962068955188025085e-03,3.260784968733787537e-02
3.072269311338595710e-01,3.201874919887141568e-01,3.203835187636014381e-01,-1.343699871975165445e-02,1.521854328451700822e-02,1.291152377871659929e-02,4.367091134190559387e-02
2.949427075088713601e-01,3.207566756501407101e-01,3.390777754459636251e-01,-1.639441378611713324e-02,1.200795158705359258e-02,1.384688145437366555e-02,5.735046043992042542e-02
2.959580578684091190e-01,3.195378631551584192e-01,3.279379789507406717e-01,-1.605795877636494867e-02,1.328589000998332131e-02,1.126276393090945224e-02,5.008303746581077576e-02
3.187417338392296018e-01,3.377789519490605463e-01,3.034865297325529676e-01,-8.314223789726257405e-03,1.250115281398190767e-02,6.844519965406811214e-03,4.125907644629478455e-02
3.111321335262060006e-01,3.259086969496952091e-01,3.138959985439240818e-01,-8.862015287826905535e-03,8.025366555183925665e-03,8.943921737862929253e-03,2.922245673835277557e-02
3.206048698531525631e-01,3.274143052144258270e-01,3.069776425057560432e-01,-2.649504985252308306e-02,2.486867753665722783e-02,2.620507611949686108e-02,7.966365665197372437e-02
3.608148820230750453e-01,3.791245037293452524e-01,1.547480815560045297e-01,2.721210487043168331e-03,-1.076807926247766306e-01,7.493188714227846589e-03,2.855659127235412598e-01
3.161065939779191258e-01,3.341515052716897971e-01,2.970325662204458816e-01,-1.047591813787482340e-02,1.613360776961636489e-02,1.065964199701084809e-02,4.984601214528083801e-02
3.114196699489800713e-01,3.482390885581744255e-01,3.017092733514714631e-01,-1.111461823899043654e-02,3.265554091961538757e-02,1.833917447490438293e-02,7.991386204957962036e-02
2.964955883917785862e-01,3.445990958196207821e-01,3.143849593986798863e-01,-2.330166979631259627e-02,3.894142190283877980e-02,1.330278759165327146e-02,9.210067242383956909e-02
3.364700854032991462e-01,2.767854257899817205e-01,3.576975107676184096e-01,2.726896440298423943e-02,-2.442477373962621909e-03,3.033312798629401574e-03,8.692584931850433350e-02
3.638721681086979909e-01,3.589376191458406029e-01,2.456583568485381508e-01,5.125071168038465336e-05,-7.033418529758134544e-03,-3.446449999558464077e-03,1.166172027587890625e-01
2.862483127361156177e-01,2.683940217549705132e-01,3.768851192391868832e-01,7.038298614971369438e-02,-2.321458471013301827e-02,3.032526400564299063e-02,1.714321225881576538e-01
3.142822126447700204e-01,3.530976054941430409e-01,2.892768910693961359e-01,6.745340660995150818e-03,2.731867203693259458e-02,-1.582329661523237951e-02,7.892433553934097290e-02
3.478266600507601281e-01,3.554685151417606992e-01,2.584741892883136716e-01,2.712401365723922202e-03,2.929330643820624025e-02,-6.593006321052250970e-03,1.070133075118064880e-01
3.108256098657521393e-01,3.491965570784302253e-01,2.953233115460207614e-01,2.292057402840903552e-03,3.917220435507883652e-02,-1.101723997991940936e-02,8.538602292537689209e-02
3.111184642846885895e-01,3.707360930162074686e-01,2.990519850382464817e-01,5.182661218762906093e-03,4.188874866184739282e-02,-2.002721953483479946e-03,9.887290000915527344e-02
3.299482346193688964e-01,3.604532295526516328e-01,2.550174646445183546e-01,-9.411531803917048272e-03,4.202511708555557030e-02,9.898938367283617937e-03,1.211980506777763367e-01
3.604122441209172689e-01,3.733325935092798864e-01,2.262077412291486067e-01,-4.848660580589854267e-03,3.766670492110072571e-02,1.356166811196173050e-02,1.574496179819107056e-01
3.053266005096894609e-01,3.963101549334751006e-01,2.690648868687458006e-01,1.262678591481150754e-02,6.121644310944836243e-02,1.122453539131618508e-03,1.568967252969741821e-01
2.853549762128440026e-01,3.333654533200499648e-01,3.559507118002429582e-01,-2.628998674619846543e-02,-8.773551735222675368e-03,-5.561415405760272712e-03,7.935132086277008057e-02
3.114211478906296904e-01,3.057072722971416190e-01,3.558365330809933336e-01,-3.356403712689014218e-02,-1.245295436755547783e-02,-1.482968989444563568e-02,8.224220573902130127e-02
3.034945640268078559e-01,2.956382385144645797e-01,3.508319562724634411e-01,-7.723651598460919143e-02,-1.297226594443888145e-02,-2.483475617296640112e-02,1.514134109020233154e-01
3.089636496235086960e-01,3.157895616024445351e-01,3.561110153963266689e-01,-3.387941099776174692e-02,-1.206784672154184550e-02,-7.835787800242731763e-03,7.753827422857284546e-02
3.012083044499122009e-01,3.090479946021307267e-01,3.309970952641835273e-01,-2.997124518877720967e-02,-2.433591035981072168e-02,-1.829062968981646359e-02,7.867957651615142822e-02
3.025547450742266942e-01,3.079229471516040095e-01,3.329873677332697013e-01,-3.258637782210852679e-02,-2.056710138119000400e-02,-1.820348004994813695e-02,7.899574190378189087e-02
3.097647915493367266e-01,2.787099735939261302e-01,3.620863170823952482e-01,2.751012922615029763e-02,-1.115481273720325467e-03,3.451979661268889891e-04,8.718538284301757812e-02
2.995284225466751105e-01,3.182733629605540293e-01,3.499534550297426216e-01,1.609735647737618389e-02,-2.732930305026665986e-03,3.146661731068071347e-03,5.270985141396522522e-02
3.002162542640953724e-01,3.011573457711487212e-01,3.502613878635701949e-01,1.328953673780498140e-02,1.287500203139677621e-03,2.861531144315112001e-03,5.493339151144027710e-02
3.180930682130013731e-01,3.186240400577964316e-01,3.188349336938569034e-01,-1.571809668557753829e-04,9.693430235773283551e-05,3.303450519704789821e-04,9.317058138549327850e-04
2.994345037059105707e-01,3.017088433634361189e-01,3.409621461317393076e-01,1.524000965010506581e-02,-3.002796493921383245e-03,3.819448390641742505e-03,4.901896044611930847e-02
3.380025070106471019e-01,3.270217433163153942e-01,2.925869875060743142e-01,-5.227467312242361705e-03,-2.456820229135700182e-03,-4.099343749741103486e-03,4.283632338047027588e-02
3.198962015623716959e-01,2.953922841702387725e-01,3.565400956949232314e-01,-4.531101157763794268e-02,-3.633295318497795773e-02,-4.910866748008960170e-02,1.421113461256027222e-01
2.751438472245915645e-01,3.521034637807599066e-01,3.428945434418738669e-01,-4.880313865758618974e-02,-3.309981273672728264e-02,-1.269912614041552798e-02,1.273369789123535156e-01
2.866422038854095633e-01,3.019213500102518322e-01,3.456727006130661528e-01,-5.359143452163950272e-02,-2.839659700964652228e-02,-2.298887520146384797e-02,1.242449507117271423e-01
3.183696728094482786e-01,2.805517345964044784e-01,3.650585361334647283e-01,-6.324809549668648778e-02,-3.719046618702843282e-02,-2.231796115434410421e-02,1.517246067523956299e-01
3.162409900350244829e-01,3.496854401559603143e-01,2.954158940744864847e-01,-8.670693348688346359e-04,-1.787136666997201154e-02,8.069634940899371011e-04,5.666626989841461182e-02
2.992565044944975328e-01,3.312304397647056198e-01,3.331303764083169971e-01,-3.546820931803266325e-02,-2.512920772689297352e-02,-2.616436969533879678e-02,9.385535120964050293e-02
2.941989027752874297e-01,3.107066703954105558e-01,3.388089648906475460e-01,-2.656886386964699143e-02,-1.682301388436528364e-02,-1.359821285564639243e-02,7.104674726724624634e-02
3.156568594267246120e-01,3.322682248914515246e-01,3.285438857889548814e-01,-3.134993959615951092e-02,-3.058462664754036525e-02,-2.968626192285934995e-02,9.287884086370468140e-02
3.102900637077831703e-01,3.290321786302888851e-01,3.152851432677333809e-01,1.463786158241143186e-03,2.300548120286234448e-03,-2.069131911686776515e-04,1.746520400047302246e-02
3.242081011929020540e-01,3.236073290681517056e-01,3.189185685055712094e-01,-1.145116558967612143e-02,-1.075159795161891377e-02,-1.339590745359815933e-02,3.610666841268539429e-02
3.313316013642228497e-01,3.060495337871118049e-01,3.182120081766995345e-01,-1.132979510570269847e-02,-1.485340913350662387e-02,-1.573265103389527575e-02,4.763537645339965820e-02
3.131317966534778452e-01,3.216161054481356252e-01,3.162708637208304085e-01,-8.259783466960910620e-03,-1.500691567752160741e-02,-1.041441193978372322e-02,3.550885617733001709e-02
3.275207264410668340e-01,3.046762691301727610e-01,3.104007861693308112e-01,-9.809525448741312700e-03,-9.625207864992555221e-03,-1.049134167198255939e-02,3.634122759103775024e-02
3.279308667507101482e-01,3.228353984784363417e-01,3.074247452103994194e-01,-7.109182673412976772e-03,-1.093336378149504899e-02,-7.409944991971497905e-03,3.188942000269889832e-02
2.406813220577201373e-01,4.277651908101052780e-01,3.881659179486299793e-01,1.030907354624347044e-01,1.174166725477510664e-01,-6.011860802241919544e-02,3.365203738212585449e-01
3.106156518002688993e-01,3.276754489410613758e-01,3.146558509555089644e-01,-2.438437847204643488e-02,-3.570732784208685562e-02,-2.086467237616125570e-02,8.457701653242111206e-02
3.134598010613698360e-01,3.603636775507516044e-01,2.770504158637960845e-01,-1.031029837015723892e-02,-2.618004197771755387e-02,-8.475989583022080012e-03,8.845324069261550903e-02
3.332226738534812549e-01,3.478615117859808481e-01,2.748457331747324872e-01,-5.308180826827910842e-03,-2.072183793542111546e-02,-1.217053127524303849e-02,7.933355122804641724e-02
3.465548114943647340e-01,3.509161731064416312e-01,2.793458499031863385e-01,-1.525969449594677743e-02,-2.596242317409074019e-02,-2.808165377129507104e-02,9.957732260227203369e-02
3.536086177344360815e-01,3.073545903997346174e-01,3.128348071004882214e-01,-7.982290536083838303e-03,1.256454542222438728e-02,3.568677438475546804e-02,8.000861108303070068e-02
3.499624412886822022e-01,2.813607533755378975e-01,3.100685155958836647e-01,-2.484757588941885909e-03,2.106646726486220787e-03,2.736288624923228011e-02,7.641299068927764893e-02
3.495176857272340176e-01,3.026561643639916199e-01,2.761678514317371658e-01,-1.944748567032558977e-03,1.900346965538074646e-03,3.338870961590703623e-02,8.663436770439147949e-02
3.563155923615508591e-01,3.574753414353730174e-01,2.563805583235472252e-01,-2.447313593869401144e-03,-9.469564069397837930e-03,-1.834704259324312177e-03,1.019869595766067505e-01
3.229958820922716467e-01,3.136549006695511510e-01,3.165773551804169639e-01,-4.163616838259756939e-03,-2.851341272979772325e-03,-3.459555695174352553e-03,1.344615966081619263e-02
3.438554449694914972e-01,2.960147831520296702e-01,3.193996132025992973e-01,-1.538550903656887153e-02,-2.194164218643781389e-02,-2.153579490210605699e-02,7.254415005445480347e-02
3.440951437010545400e-01,2.665705190615498821e-01,3.038548655196057768e-01,-3.144821695168381614e-02,-2.405396262918118797e-02,-5.931701498204491885e-02,1.405987590551376343e-01
3.424160703177592247e-01,3.571895244629306188e-01,2.655697984905591169e-01,-1.670808170838350166e-03,-7.743651936302558755e-03,-1.688841376678885736e-03,8.634646981954574585e-02
3.515696039536537199e-01,3.054569824984957882e-01,3.011107622211100510e-01,-5.218235298938827572e-03,-8.886824254251570951e-03,-1.376807490983411250e-02,5.685926228761672974e-02
3.677116808870561360e-01,2.454830886259062317e-01,3.652648125584617156e-01,-1.631849609675242035e-02,1.108623785197249134e-02,1.480195009489834561e-02,1.283418387174606323e-01
3.575074968747712356e-01,2.536621794993706436e-01,3.497887313477784366e-01,-2.374109121239399711e-02,8.668053793433839679e-03,1.907722842561690446e-02,1.142366752028465271e-01
3.467495328460629134e-01,2.205383544883319502e-01,3.693480643109067763e-01,-5.536338726325160803e-02,1.108090437574124794e-02,3.246178039449434949e-02,1.789332777261734009e-01
3.493737676549553139e-01,2.419755315290877951e-01,3.779977874404068516e-01,-4.760210767535232729e-02,2.268488790321447277e-02,5.115897334199549784e-02,1.778237968683242798e-01
3.372083902106279840e-01,2.668696397902461936e-01,3.460398009165892019e-01,-3.233969484252048610e-02,1.028042794525744694e-02,1.361917214491446988e-02,9.827409684658050537e-02
2.992452122528208580e-01,3.497146797598620904e-01,3.180650797053409251e-01,1.074096188898921106e-03,1.657252948208629353e-02,-3.250690081102505877e-03,5.301541462540626526e-02
3.171187693138630137e-01,3.407063437430742359e-01,2.986305192358947869e-01,5.736121536404390799e-03,1.966099084083427345e-02,-4.847075992188041964e-03,5.160559341311454773e-02
3.121485267104975869e-01,3.565357413893711080e-01,3.035904347704966311e-01,4.868446534563036429e-03,3.645433899059655897e-02,-6.063120323841464029e-03,8.118794113397598267e-02
3.446158191562563311e-01,3.536715628001126932e-01,2.550179390459937911e-01,5.832304716107976697e-03,-1.270386170481929700e-02,6.756376213814660123e-03,9.820549935102462769e-02
3.680465839509555748e-01,3.479501166901719511e-01,2.471121276758137808e-01,1.028803032780881491e-02,1.966715663806529318e-02,-2.299676299209088212e-02,1.251524239778518677e-01
3.787168109416179651e-01,3.765899537152701537e-01,2.146818067375365346e-01,1.614537865899301830e-02,3.508070549581289443e-02,-1.861270774933530825e-02,1.790988892316818237e-01
3.690820147839063425e-01,3.712451195563878925e-01,2.421128010792729102e-01,7.020198275162914218e-03,2.421707933492458359e-02,-3.844649702866422686e-02,1.508050262928009033e-01
3.260615872348363031e-01,2.901226874478701201e-01,3.272614056467129662e-01,1.511456269644330733e-02,1.575113633505450042e-02,-1.933623657027892448e-02,6.234965473413467407e-02
3.184654522836688484e-01,3.237493124364793640e-01,3.232669389578321506e-01,6.291080643745347936e-03,1.124572190207462352e-02,-8.903702379867232605e-03,2.759642526507377625e-02
3.176936536124601029e-01,3.069642218350411844e-01,3.313000052209034152e-01,1.151059063325857862e-02,7.432868785852312504e-03,-8.665456476715901329e-03,3.513881191611289978e-02
3.269645839871336834e-01,3.108126625854564784e-01,3.179464121733875381e-01,7.289826090940206005e-03,8.884448429456895044e-03,-7.340232696957330744e-03,2.746658399701118469e-02
3.252987270386143992e-01,3.105661191573089730e-01,3.180911618217460157e-01,7.853043641796265961e-03,3.144747995966747697e-03,-6.322154027053187783e-03,2.230248041450977325e-02
3.293821219273755374e-01,2.978775163545037130e-01,3.165826704455300122e-01,-4.479847599936328389e-03,-6.877895686059830663e-03,-6.012836018635222407e-03,3.261457383632659912e-02
3.154331408355006139e-01,3.184981415933621496e-01,3.214755963830986385e-01,1.093986974432601582e-03,-1.122233352068256317e-03,2.784975718147677907e-03,7.617236115038394928e-03
3.265170519648679104e-01,3.192124338792749483e-01,3.161692634813068614e-01,1.695520398931120443e-02,2.255286762843426024e-02,-1.993786071581643213e-02,6.054531037807464600e-02
3.195903395372781119e-01,3.173497627828802403e-01,3.253790167231691011e-01,1.297112729182531114e-02,1.100944315151581622e-02,-1.560081876993648156e-02,4.062055423855781555e-02
3.568887431654338971e-01,2.445513219773749192e-01,3.445510137697495034e-01,3.317934029045416927e-02,2.867281491232436669e-02,-6.252585228409056339e-02,1.699510812759399414e-01
3.443087126445828483e-01,2.808775732461251673e-01,3.332415578503434284e-01,7.571409902078562321e-03,1.887402550481001237e-02,-2.276639125471392050e-02,7.899101078510284424e-02
3.140434168959490013e-01,3.278072952210493440e-01,2.995952333096545961e-01,-1.316254465728290517e-02,-1.669583663071853505e-02,-1.388521043109502973e-02,5.031367018818855286e-02
3.264855141381755033e-01,3.315739218891183282e-01,2.929154680746154371e-01,-2.820610238480794965e-02,3.878264486242431752e-02,3.875218838590890891e-02,1.128179430961608887e-01
3.287767477626978296e-01,3.336390637081194099e-01,2.932763773420173359e-01,-1.022046907781390748e-02,1.848094847747555614e-02,1.289645789252402350e-02,5.738900974392890930e-02
3.312574769118623030e-01,3.438234494165796074e-01,2.596427041357244891e-01,-6.797757294997482796e-03,2.368473154769235034e-02,1.294386660675245736e-02,9.225317090749740601e-02
3.073962343215417836e-01,3.389752549304105300e-01,3.039358613769426176e-01,-1.324465571127670868e-02,1.856770132747630545e-02,8.151016110608208867e-03,5.365018546581268311e-02
3.197191393531598758e-01,3.582734444109104133e-01,2.914722381065224521e-01,-6.286433163440864266e-03,1.761309137239771075e-02,-3.315612089908819113e-05,6.650251895189285278e-02
3.270690072884819277e-01,3.410436222209504153e-01,2.816562889337201891e-01,-1.259212795667999721e-02,2.281616278264942538e-02,2.427415140860434903e-02,8.183734118938446045e-02
3.315463918723993708e-01,3.425229379602283131e-01,2.965313748542812156e-01,-1.565821082074077275e-02,3.300276807272804064e-02,2.117150052543124994e-02,8.413479477167129517e-02
3.132917559567009458e-01,3.363304452236884345e-01,2.849343406439244220e-01,-1.305450665313438209e-02,2.423071017212344649e-02,1.723927029698625948e-02,7.178065180778503418e-02
3.407830080254606320e-01,3.507398257914606243e-01,2.615481780743422191e-01,-1.420172444125253342e-02,1.893945662313580372e-02,1.754899329282874273e-02,9.884989261627197266e-02
3.661317442508600917e-01,2.822695900886525444e-01,3.066550453440727853e-01,-1.070662482678074161e-03,-7.600047235419433696e-04,2.743818853929195015e-02,8.857893943786621094e-02
3.485433838305802556e-01,3.027119008449943305e-01,2.760769201258284067e-01,-2.184520688359755606e-03,2.083623955546741718e-03,3.346128851300019663e-02,8.612190186977386475e-02
3.410854586781287279e-01,3.112274564392227827e-01,3.080067220470483202e-01,2.905366096811865320e-03,-2.804630756073202974e-03,5.266828410288442418e-03,3.361811861395835876e-02
3.486699475444811069e-01,3.148483329553782850e-01,2.890009916848572114e-01,2.120628853265048297e-03,3.251716402127168459e-04,8.316885586199652611e-03,5.392128974199295044e-02
3.179516899188759571e-01,3.184941674081895879e-01,3.179378852955751511e-01,3.382031933585205748e-04,5.944205207619599396e-05,-1.847318015172988112e-04,8.706795633770525455e-04
3.520748324566316256e-01,3.130882104248535747e-01,2.910347731062904453e-01,1.450460277452120597e-02,-5.787860325690159444e-03,2.688197788192566232e-02,7.593201100826263428e-02
3.482730487647817119e-01,2.843743385622832243e-01,3.050842924920757482e-01,3.797456726616779167e-03,-4.092231976786759977e-03,2.865022135036274231e-02,7.579323649406433105e-02
3.440088903430358336e-01,3.027457427301580850e-01,3.148025618196362285e-01,1.618814177636824191e-03,1.239459972841270262e-03,1.488171296231384846e-02,4.502642154693603516e-02
3.492005484672225935e-01,3.169717208959092480e-01,3.017841082892871452e-01,2.007328401032755245e-03,-2.624213316813346630e-03,1.563889922035554755e-02,5.025249347090721130e-02
3.409819630548801550e-01,3.160083302799032157e-01,3.047496635959425770e-01,2.784640964338779522e-03,-5.399778403445343149e-03,1.338867201451441301e-02,4.098920524120330811e-02
3.814535792853589458e-01,3.532047104226029854e-01,2.161464078067764638e-01,5.094696917879741951e-03,-6.600818877466227766e-03,1.887443300966074392e-02,1.572642028331756592e-01
3.576150549395170630e-01,3.574067777915828636e-01,2.237144177519345412e-01,9.655992579462575973e-04,-9.581993388958882918e-03,5.052803605486730007e-03,1.351161301136016846e-01
3.534468603432019407e-01,3.629985887368548658e-01,2.084076319705532587e-01,-2.077024522909646804e-03,2.096533511433671185e-02,1.657272879996737891e-02,1.570621877908706665e-01
3.556293343185765177e-01,3.599252480399490750e-01,2.528240097801353614e-01,9.485445929073475172e-04,2.363428003967264768e-03,1.154157247795828747e-02,1.069958508014678955e-01
3.199414756694449191e-01,3.223225541263412541e-01,3.148862424860835452e-01,1.105035726358855053e-02,-1.341667672819668068e-02,1.467556648442689543e-02,3.994660824537277222e-02
3.093578494120920452e-01,3.087383733928117935e-01,3.354676121892279372e-01,-5.640974517527562460e-04,5.316637725839478074e-04,1.133731733709439143e-03,2.653180249035358429e-02
3.155653240301652951e-01,3.098091010691495506e-01,3.260538783319090750e-01,1.423728035520914308e-02,-1.226008252972257510e-02,1.211652502832152346e-02,4.126715660095214844e-02
3.306243097458024804e-01,3.042032449660224680e-01,3.126898911522283386e-01,8.675826388303345404e-03,-8.851232078477240875e-03,9.660427561912677055e-03,3.587037697434425354e-02
3.306055426112179951e-01,3.055461811456522958e-01,3.148498583116626226e-01,8.830957673195468510e-03,-1.050644828036112824e-02,1.571732456671959960e-02,4.228004813194274902e-02
3.361995020424868308e-01,3.174637795151621922e-01,3.113051087863703548e-01,1.885283992114608273e-02,-2.230483166070073436e-02,3.033547979956661977e-02,7.631430029869079590e-02
3.300356883101200900e-01,3.164649476053937316e-01,3.024036274005416081e-01,1.349379557781572696e-02,-1.362389933713051976e-02,1.673620300678874129e-02,5.016063526272773743e-02
3.227616290890298889e-01,3.144532154745100505e-01,3.149139876859376463e-01,5.177658750559045384e-03,-5.303833345168948096e-03,4.104478163493094876e-03,1.675620488822460175e-02
3.224558768977522361e-01,3.203220411985193694e-01,3.155080344702207995e-01,5.705318797420060560e-03,-5.868480488492812744e-03,6.778693067672796752e-03,1.941188983619213104e-02
3.361355263904170498e-01,3.201429937110867319e-01,2.927507419495739560e-01,-1.768632077765553215e-02,1.699531524931463186e-02,1.787428908212420481e-02,6.486584991216659546e-02
3.032280890654762140e-01,3.398910823230071321e-01,3.062610501020087694e-01,1.951649793118688959e-03,-9.927100979430593386e-03,1.770309179873603284e-03,3.947970643639564514e-02
3.651583571484354751e-01,2.791764759465491519e-01,3.324240478874100901e-01,5.007207418486627577e-04,-1.554792895709944302e-03,2.715676453119311717e-02,8.871491253376007080e-02
3.368164968196847853e-01,3.180571406855458028e-01,3.062061935630532861e-01,-8.245332587600207389e-03,8.296912476597672823e-03,1.133709898735874716e-02,3.886819630861282349e-02
3.361465678186070782e-01,3.044754307651622582e-01,3.066881702620026795e-01,-7.656612705470126901e-03,8.242096452905854284e-03,1.030101875412992030e-02,4.044598713517189026e-02
3.365088256084275420e-01,3.059064172719797581e-01,3.164054636771038154e-01,-7.777576610070696672e-03,8.251720255622764857e-03,1.317586478667889804e-02,4.039797186851501465e-02
3.417068854427983138e-01,3.062618355884891841e-01,3.151624530368954957e-01,-4.374351868439788245e-03,2.903812115820394914e-03,1.505728282437923324e-02,4.222506657242774963e-02
3.134550331569809223e-01,3.164226970486276325e-01,3.280027302416544943e-01,-3.448973857956548234e-05,1.040325551113155909e-03,2.344517506758763813e-03,1.403604354709386826e-02
3.481022302598101859e-01,3.026426643312971065e-01,3.024435929309791105e-01,-2.728810109160656559e-03,3.495774904207773429e-03,1.267852361074782962e-02,5.115561559796333313e-02
3.490025828876350822e-01,3.016216304838493234e-01,2.948945621413133766e-01,-2.310873506574401964e-02,2.196284389671567319e-02,4.323289173794056528e-02,1.061382666230201721e-01
3.469814362361989812e-01,3.028085284786646292e-01,2.834020526898939352e-01,-2.694767472844687706e-03,2.008682128394538406e-03,2.877877830465290152e-02,7.552246004343032837e-02
2.994265406301059862e-01,2.846161806911873815e-01,3.806174613066821699e-01,5.501826293025504494e-02,-2.626507128610215333e-02,1.225933581156208284e-02,1.400544345378875732e-01
2.758776733239311496e-01,3.120498829179690348e-01,3.594850139017750634e-01,3.277937248637108336e-02,-3.634356232133654357e-03,-7.339033504669136357e-03,9.326856583356857300e-02
2.462678614589761950e-01,3.273252897699697184e-01,4.017660751611981662e-01,5.565921583755661928e-02,-1.385405480381487163e-02,-2.439825231983078213e-03,1.674312502145767212e-01
2.648525018153424782e-01,3.310263838718467411e-01,3.532739638359441159e-01,2.702593240649946160e-02,6.415982819074152882e-03,-5.101290401419805894e-03,9.348215162754058838e-02
2.741998617131648497e-01,3.343829334292668931e-01,3.642330597531691083e-01,2.271455742619399656e-02,-5.886979832195248993e-03,2.138460362494384783e-03,8.930311352014541626e-02
2.423552324415415848e-01,3.204377563790877237e-01,3.567478735221180641e-01,5.770423486219845854e-02,-1.720497076911317244e-02,1.171313468963630644e-02,1.467632502317428589e-01
2.882035226597907673e-01,3.325688110481251347e-01,3.603503756353542142e-01,2.250649204633172959e-02,-1.068170262503086859e-02,5.243678786901708605e-03,7.692231237888336182e-02
3.001080501567227610e-01,3.166474201356845874e-01,3.465857486738608828e-01,1.552215513575560396e-02,-3.855999139659069611e-03,6.735276260731102617e-03,5.068061873316764832e-02
3.128808929187507082e-01,3.071790546926446708e-01,3.501677558818350189e-01,3.308750025795936800e-02,-6.170671404248606780e-03,1.003587454727196925e-02,7.304903119802474976e-02
2.863533267837285456e-01,3.041480509902325657e-01,3.487929656437144810e-01,2.756329174869482854e-02,-7.959736770049546939e-03,9.708635506739449195e-03,7.652655988931655884e-02
2.918443105597612330e-01,3.524372390014984258e-01,3.116783764300508075e-01,-4.584491834460781984e-02,4.302211119588675303e-02,3.378917564913160726e-02,1.347077935934066772e-01
3.480699182675024428e-01,2.731544474192293959e-01,3.413864892257455486e-01,-3.995063794142385619e-03,4.270277853866229949e-04,3.753714791762289421e-03,7.243620604276657104e-02
2.751859455191186243e-01,3.447479386117343614e-01,3.412400705830619385e-01,-3.595986140238602302e-02,5.709970287941559114e-02,1.598205286561833402e-02,1.379634141921997070e-01
2.961443793746271202e-01,3.147725180010326751e-01,3.093480778351471172e-01,-5.267478669311967399e-02,4.368553865366917033e-02,3.867744989086401020e-02,1.371583044528961182e-01
2.621383737271508751e-01,3.369233869285774841e-01,3.748365831181056929e-01,1.046528503156408246e-01,-7.334857060152445707e-02,6.972575790649272742e-02,2.710115909576416016e-01
3.217603488644770193e-01,3.189716960059842954e-01,3.108260397506558692e-01,-4.728038561258679669e-03,-7.991374154525152746e-04,-2.066000943430916850e-03,1.336516719311475754e-02
2.170187751634407025e-01,3.708115561276755234e-01,3.450903205113113881e-01,6.540585625533680558e-02,-1.090312318591989404e-01,4.397190018367921893e-02,2.732322216033935547e-01
1.305862266219839085e-01,3.850724161737584805e-01,3.553630818086669918e-01,5.669133863563739079e-02,-9.416166593442888699e-02,1.788233095492773941e-02,3.086836040019989014e-01
3.280865750536136050e-01,3.139423511586397764e-01,3.155193008203795446e-01,-9.370438191759449930e-04,-9.675360904715139213e-04,-1.298290311593837659e-03,1.381087675690650940e-02
2.196981463404165114e-01,4.487881495980793334e-01,3.463466012798088189e-01,7.134948159402801360e-02,-1.240913614354574313e-01,-4.768022534417656194e-03,3.178751468658447266e-01
2.377598786768250205e-01,3.918044273831362001e-01,3.733311082811567871e-01,4.283346724918477011e-02,-1.481023867343026212e-01,4.352217158802135222e-02,3.133925199508666992e-01
2.339200686473772994e-01,3.527896807512957422e-01,3.710947268168071633e-01,1.083389536407397824e-01,-7.493646616101916347e-02,3.424644721981160572e-02,2.687337696552276611e-01
3.347264582253863807e-01,3.227013042581255986e-01,3.071912310185249684e-01,-1.815582512300321222e-02,2.405313865459917863e-02,2.787577333707384752e-02,7.501610368490219116e-02
3.306755761506122715e-01,3.308361829325702774e-01,2.878807209400136569e-01,-2.061205233239834025e-02,3.036708794111342424e-02,4.138865910137817794e-02,1.049686223268508911e-01
3.305500828119418699e-01,3.483966254648038774e-01,2.873297524779833689e-01,-1.046397760481801616e-02,2.438353816704724383e-02,1.460734022076772345e-02,7.556525617837905884e-02
3.397012380221970385e-01,3.300161398745836694e-01,2.922348393278227374e-01,-1.197972286628879411e-02,1.764743919932941496e-02,1.763903649445879018e-02,6.469457596540451050e-02
3.093063462109897355e-01,3.472787959103975641e-01,2.859720726753610109e-01,-1.158728932426334943e-02,2.592364973102062597e-02,1.477980719995320227e-02,7.711475342512130737e-02
3.133308179333060273e-01,3.524563385217073241e-01,3.148252222424653968e-01,-1.284918177971060109e-02,3.571323480336607153e-02,1.186553323300037523e-02,7.885780185461044312e-02
3.419338180514689962e-01,3.332428380745813823e-01,3.006062402050629356e-01,-4.557052293794156689e-02,4.061017162374237072e-02,4.137275141005841705e-02,1.331803798675537109e-01
3.484072865712394274e-01,2.508880697850118247e-01,3.351609986736673319e-01,3.184398350406617700e-02,-1.674035654874510629e-02,5.479401269608855096e-02,1.458892822265625000e-01
3.733351511371064690e-01,2.534448551682495498e-01,3.405467532006098974e-01,3.452022782814866131e-02,-7.138005103161597538e-03,5.555136676494917825e-02,1.565356403589248657e-01
3.396263158256800918e-01,2.789874089741509189e-01,3.148775151706947883e-01,9.998722266622850352e-03,-7.977369800154064314e-03,2.536004972445623368e-02,7.217392325401306152e-02
3.843932585704029625e-01,2.433948870893719307e-01,3.412245396841282474e-01,7.338966616217635665e-03,-6.286008630598067734e-03,7.052790488625509946e-02,1.756702512502670288e-01
3.724826348413596833e-01,2.839013259034283143e-01,2.820580002227751626e-01,-7.493636644438259400e-03,1.058177016873227197e-03,6.115798207899159067e-02,1.393055915832519531e-01
3.478979524023647629e-01,2.863220410073223365e-01,3.166645222626373601e-01,9.280559675957446991e-03,-2.936383095556936804e-03,4.047708116435240477e-02,8.968460559844970703e-02
3.337918020289658561e-01,3.413600179601714024e-01,2.849602072922980400e-01,4.999937186685255580e-02,5.804196672471607227e-02,-3.920930006255331224e-02,1.582084000110626221e-01
3.562835993226202147e-01,3.238156762776671638e-01,2.815598848656787889e-01,1.496302054960962913e-02,1.369967236211998632e-02,-3.627974909056502772e-02,9.692808985710144043e-02
2.983283685297605792e-01,3.772406494565592738e-01,2.885711812561118639e-01,1.163816669311797634e-02,7.195061728129371892e-02,-3.687420765193926558e-02,1.646464318037033081e-01
3.083651254897605831e-01,3.533784349294537552e-01,2.665041754535438234e-01,1.080525951374456707e-02,6.630571025907067151e-02,-1.380730791946124976e-02,1.406213492155075073e-01
3.374497294418732363e-01,3.372571375784281233e-01,2.910464469909511132e-01,1.692252197011849882e-02,2.677705435383722840e-02,-1.753515812383313333e-02,7.795484364032745361e-02
3.306462798691653382e-01,3.308660044564691316e-01,2.775603914152469098e-01,1.037722760521095876e-02,2.055798062977096802e-02,-1.873710244093264310e-02,7.398657500743865967e-02
3.256014106290960886e-01,3.148877594553016745e-01,3.154316868686802278e-01,-2.517437823904773481e-04,-1.898841971845934094e-03,-3.683000754527083250e-04,1.098474394530057907e-02
3.566100095185474328e-01,2.496806792140020270e-01,3.491105105240465689e-01,-1.542400053269485046e-04,-2.817554464199656036e-03,-9.850985520442721508e-03,1.048962399363517761e-01
3.587619637612405876e-01,2.657978097295113362e-01,3.294001535482219967e-01,-5.724663490813068634e-03,-3.093887452242710754e-03,-2.148854065560400553e-02,9.103383123874664307e-02
3.478414462292022113e-01,2.710936048342603155e-01,3.319360201561015744e-01,-1.304263507924240378e-03,-3.088445530900951665e-03,-9.826603182684521751e-03,7.242866605520248413e-02
3.310379913124528728e-01,3.108473210609786208e-01,3.119011693907741689e-01,2.650255520413405418e-04,-2.134351031555710779e-03,-5.490538815399744572e-04,2.005685120820999146e-02
3.216289720165669275e-01,3.141508967119973628e-01,3.181906264201739831e-01,-6.983014159780754661e-03,-1.009189034113252073e-02,-3.417196555853495125e-03,2.299759909510612488e-02
3.218116590453323766e-01,3.108652727832333373e-01,3.136255284010774358e-01,-6.139570596801500156e-03,-7.353924423744197247e-03,-7.831338562658888419e-03,2.359111607074737549e-02
3.259128164390921456e-01,3.165489382894268178e-01,3.137926262862132942e-01,-2.017400059086719381e-03,-2.851286330812548547e-03,-2.868504051326009434e-03,1.350456941872835159e-02
3.236032345753493411e-01,3.209047898238737151e-01,3.109151260909557291e-01,-7.031936708865252003e-03,-6.813249872866110508e-03,-9.354766525928948431e-03,2.615668252110481262e-02
3.712506920438886082e-01,3.064861025412563000e-01,2.483301418407147521e-01,2.478340883113419515e-03,-7.805551455693834212e-03,-8.964206965434813601e-02,1.888155788183212280e-01
3.396768035192744839e-01,3.251619790512743080e-01,2.864215138453929943e-01,-6.994807984971263860e-03,-5.033221667269509661e-03,-5.956417439887299638e-03,5.101993307471275330e-02
3.509350440222387957e-01,2.900970785493953152e-01,3.083710480667137266e-01,7.014065531596894859e-03,1.016735429474057567e-02,-2.556551432132509946e-02,7.308863103389739990e-02
3.227888546410149773e-01,3.057927207579600459e-01,3.204943780401346975e-01,-2.419340860429327906e-03,-4.977118206375931962e-03,-3.701213006318699109e-03,1.970044709742069244e-02
3.599144262024012719e-01,2.674328910821455185e-01,2.891752672629991916e-01,2.116082628684324771e-02,2.351478588151882307e-02,-7.348417645714426516e-02,1.619158685207366943e-01
3.776534339793745643e-01,3.321977035587144189e-01,2.907789826014758883e-01,1.114398629827978437e-02,5.948444494573784484e-03,-5.319959705578258119e-02,1.209700852632522583e-01
3.673639981365792728e-01,3.227199828180135066e-01,2.846932336988321488e-01,-1.643272950673363908e-03,-2.087271688892165019e-03,-5.963172263119316530e-02,1.258005797863006592e-01
3.761919390172826505e-01,2.943338197637092590e-01,2.878758251494955567e-01,1.425568161455882665e-02,4.607414636115241859e-03,-4.698130089215386829e-02,1.206904426217079163e-01
3.257973027075794503e-01,3.399752416706080527e-01,2.832248218610944890e-01,5.822706008422886929e-03,5.202684025889144949e-03,-5.173791211148527115e-03,5.366786569356918335e-02
3.126878665623052944e-01,3.237129218219075844e-01,3.229960043345864729e-01,5.179841609630364552e-03,1.099397888259196106e-02,-8.793575086504341540e-03,2.809337340295314789e-02
3.138176478984661677e-01,3.402151101429201630e-01,3.080979532751328409e-01,1.136921214769357619e-02,3.502629426317877687e-02,-2.659600012387432905e-02,8.408845961093902588e-02
3.160351181120009678e-01,3.381229784784393622e-01,2.984322789266375398e-01,1.359245649739794330e-02,1.690400326876384876e-02,-1.115332769742846501e-02,5.450902134180068970e-02
2.842577230611654793e-01,3.364655242977027116e-01,3.105495522318163504e-01,1.218754858289283066e-02,2.666925125679427133e-02,-1.237549697822570849e-02,7.129579782485961914e-02
3.069638659229634858e-01,3.373397686772773851e-01,3.173594419232709796e-01,8.094778490000722679e-03,1.481349663536440930e-02,-8.812543809736393327e-03,4.246017709374427795e-02
3.050164935180021408e-01,3.373041275006644080e-01,3.072996549954180034e-01,7.715579580689449837e-03,1.032022601067801928e-02,-8.163983820060043833e-03,4.089070484042167664e-02
3.008590065573807926e-01,3.850937577625507813e-01,3.132232747767015324e-01,2.082656411834114471e-02,6.863700510384092290e-02,-2.339187285302546729e-02,1.525868922472000122e-01
2.600850670956833532e-01,3.346321792422320418e-01,3.786831320665260403e-01,3.896795982624762233e-02,-2.150517087778490086e-02,9.882360109469502663e-03,1.304512768983840942e-01
2.488834007774884116e-01,3.058027290463065651e-01,3.579953212674513718e-01,6.297083305040226953e-02,-1.864878028048233549e-02,1.452878772707602746e-02,1.500240266323089600e-01
2.554998448874026828e-01,3.479243260899682055e-01,3.652519768857083182e-01,6.361455405946060682e-02,9.307264703893744495e-03,6.839806323319609291e-03,1.516070216894149780e-01
3.181007568811026753e-01,3.317384371183618730e-01,3.105576254934460101e-01,5.163883142052664958e-03,-9.485287889439735637e-03,6.113263771533875707e-03,2.842148952186107635e-02
3.224926549015516009e-01,3.227246499561169935e-01,3.099626910378429079e-01,6.301109959956881397e-03,-7.758071808194436786e-03,6.149392657977247392e-03,2.393910661339759827e-02
3.294470925119866167e-01,3.540229441682127831e-01,2.665879559880320326e-01,1.419669250872915896e-03,1.097745598122513294e-02,-4.169899306019408079e-03,8.074518293142318726e-02
3.397307865510900693e-01,3.490248170723209142e-01,2.775024282741387904e-01,2.350276421291297088e-03,1.308980696610787670e-02,-1.561689155157298036e-03,7.123915106058120728e-02
3.606526733218031744e-01,3.552905801208788850e-01,2.473931945896843954e-01,6.511266874077951440e-03,1.482853419017073765e-02,-2.904517027141405566e-03,1.142860800027847290e-01
3.586470766567215751e-01,3.616433671473415767e-01,2.492797353925848558e-01,1.609894310885834606e-03,1.774872448072413803e-02,-5.901040956239267214e-03,1.155646294355392456e-01
3.430546640602979425e-01,3.486541659117547987e-01,2.523556459766048699e-01,7.907460572094229465e-03,1.382736082443770768e-02,-5.973516751441073323e-03,9.815169870853424072e-02
3.419498047553201636e-01,3.468426718352483062e-01,2.566743388358224132e-01,5.298081996932642833e-03,1.457808364160269148e-02,-8.615762846984894446e-03,9.304596483707427979e-02
3.401663887342301629e-01,3.484301332055666500e-01,2.655397713953787098e-01,5.016318191236187989e-03,4.435314654970132046e-03,-5.584289540368314424e-03,8.051196485757827759e-02
3.379280845775238795e-01,3.550336405990257571e-01,2.498338897626601329e-01,4.629816477265930909e-03,2.035053064314434890e-02,-3.557504400272122700e-03,1.044260188937187195e-01
3.294254346181763604e-01,2.535501057026883220e-01,3.585445052165550650e-01,-4.168460813052626140e-02,-3.387124579489302935e-03,-1.320457243912053977e-02,1.207672357559204102e-01
2.830947497456844375e-01,2.786812481335750880e-01,3.541908387446220385e-01,-6.095687216164039079e-02,-1.716177337984928566e-02,-2.233315906183422350e-02,1.375319063663482666e-01
2.843215625372701449e-01,2.879736379298258875e-01,4.002216372589534887e-01,-5.847612152204879205e-02,-1.057369038714478342e-02,-2.328309834635541430e-03,1.537300646305084229e-01
3.319010517621805989e-01,2.737306407683288700e-01,3.619320454420987265e-01,-6.796329638949298591e-02,3.456156614491992171e-03,-1.986653051587379190e-02,1.452910006046295166e-01
3.251408425663110946e-01,2.999333571483068228e-01,4.018468325712589717e-01,-7.624534490031140144e-02,-2.564606408973053430e-03,-4.678229680217808190e-03,1.611776649951934814e-01
2.929072717527281267e-01,3.433663521001388830e-01,3.166670919317699506e-01,3.886946247973739263e-03,9.696710698816246934e-03,-4.332535930123382166e-03,4.791101440787315369e-02
2.846416644334645030e-01,3.919093185876030838e-01,2.922012009113966746e-01,3.980107959659874572e-02,7.360676212595607115e-02,-2.004006747641317795e-02,1.815589666366577148e-01
2.948866338814902233e-01,3.583810384351850398e-01,3.097167978755558937e-01,8.023379546931318565e-03,4.182260951277284866e-02,-1.466576957248898541e-02,9.693095833063125610e-02
2.767681554212271244e-01,3.368107634327304201e-01,3.359862282242805920e-01,1.289215229882084701e-02,2.140283193106750151e-02,-8.931422031488611690e-03,7.528920471668243408e-02
2.491704112771548352e-01,3.591808889880135913e-01,3.372918848790358859e-01,1.622841380470200004e-02,6.895684674752469712e-02,-9.852751354392339997e-03,1.597493886947631836e-01
2.405698261605176969e-01,3.857964545383789634e-01,3.316162133523485323e-01,4.108559627419991478e-02,4.328278038528796112e-02,-1.690235954940767088e-02,1.664307713508605957e-01
2.241008781649098669e-01,3.731300647168242501e-01,3.873438456577858457e-01,5.523505590712079333e-02,5.111462763663522819e-03,2.029492820792580879e-02,1.870742291212081909e-01
2.407920372572464052e-01,3.135046726228919445e-01,3.531088474921872389e-01,6.024210958480409606e-02,-1.433334137649114153e-02,5.046661596342179659e-03,1.459980010986328125e-01
3.309640305239482938e-01,3.156465208231986619e-01,2.976884637269101574e-01,-1.289878730489518559e-02,-1.171899488388228674e-02,-1.816901517358686727e-02,5.228451639413833618e-02
3.164055073227380332e-01,3.169518924091556666e-01,3.139553568224523472e-01,-1.843721185925674064e-02,-2.066344609084070499e-02,-2.052503611695296812e-02,5.976786836981773376e-02
3.177696778356524088e-01,3.391061681034600039e-01,3.150177050846053040e-01,-1.728334711528231940e-02,-2.062878643932812214e-02,-2.149120123601038629e-02,6.387436389923095703e-02
3.437512624748345624e-01,3.055766695693999391e-01,2.619749217593275170e-01,-2.538758897769063938e-02,-3.282549659478061627e-02,-5.739187410001131417e-02,1.416703909635543823e-01
3.384822775642207238e-01,3.231230062433977368e-01,2.777895170359694910e-01,-1.383375435548328536e-02,-2.482234014113096979e-02,-2.824417835241636171e-02,8.833508193492889404e-02
3.447990739835661844e-01,3.280335987275401211e-01,2.782951773090688863e-01,-1.882998775282240453e-02,-2.608016687526157340e-02,-2.717080068874058035e-02,9.438150376081466675e-02
3.296204606368078327e-01,3.410772429738224143e-01,2.775873768936970021e-01,8.612606108809173558e-03,9.785608410698309889e-03,-4.997738231738495414e-03,6.340006738901138306e-02
3.078021810989899909e-01,3.293250773570856604e-01,3.123477718822647020e-01,-6.359869015897376063e-03,1.027445631803872682e-02,7.865930373567883369e-03,3.177607432007789612e-02
3.094895904671586817e-01,3.240012158069081050e-01,3.200334205120270448e-01,-3.745653892014665087e-03,1.822200209212700497e-03,5.447572977153049799e-03,1.760200783610343933e-02
2.902698199880525132e-01,3.310134170732222381e-01,3.288501456067084439e-01,-5.410339129418805654e-03,5.109766237802854626e-03,8.629298277243093590e-03,4.434094950556755066e-02
3.013992397388804978e-01,3.343166668022932719e-01,3.207071540408550359e-01,-6.361681772708197881e-03,1.644282231132314018e-02,9.775317070725726004e-03,4.516600817441940308e-02
2.986487508492076115e-01,3.213531226111687178e-01,3.296915901287689188e-01,-4.063137717393674499e-03,4.148745330199908772e-03,7.080435567268261385e-03,3.202966600656509399e-02
3.016908203176886794e-01,3.497451386493267700e-01,2.828935199981191806e-01,2.904910710040133071e-02,-7.493547660594924997e-02,3.231264319040367400e-02,1.614797115325927734e-01
3.324715892714590337e-01,3.444016458871229647e-01,2.730826716526199016e-01,5.495299586405601525e-03,1.934932530991999647e-02,-1.253911530982319486e-02,7.786755263805389404e-02
2.891695204124639096e-01,3.471353986692949367e-01,3.168680776438869140e-01,8.058092068434375560e-03,-4.123672192918525353e-02,6.274441593939254075e-03,8.908416330814361572e-02
3.037284344186866880e-01,3.582354514993940087e-01,3.221389453734956887e-01,1.941807341248289603e-02,-3.145871714013893233e-02,1.633726156840999144e-02,8.489590883255004883e-02
2.550779025044533355e-01,3.645225509286020849e-01,2.999490023913753411e-01,1.319429487288711900e-02,-7.159299092256971031e-02,4.207410326973360683e-03,1.582172214984893799e-01
3.218531326447294783e-01,3.174021416055691769e-01,3.180950252895252683e-01,-3.709787311748724364e-04,-6.564223275547631910e-04,3.029965728244585319e-04,4.380451515316963196e-03
2.912007601533594947e-01,3.661217577907909804e-01,3.106487632858245806e-01,1.263707680064918293e-02,-4.260529587703574400e-02,2.238525305615015823e-03,1.023429110646247864e-01
3.288143697544484434e-01,3.312338812281606648e-01,2.860122103086157330e-01,7.475192549633469241e-03,8.411474169968633299e-03,-7.827255370900098805e-03,5.005128681659698486e-02
3.213142869267170965e-01,3.125594257046058200e-01,3.099664462736250181e-01,7.443388041081739140e-03,-8.402271573631997156e-03,6.822652766329847032e-03,2.497448027133941650e-02
3.147188284797533542e-01,3.219625675281915234e-01,3.149444333410713059e-01,4.651279491590001695e-03,-4.760763763407786092e-03,4.668263421558262009e-03,1.578493975102901459e-02
3.171710048009988014e-01,3.198016414759847770e-01,3.177105368308663635e-01,1.622965177791409284e-03,-2.166288524683602709e-03,2.452219254167317675e-03,6.768503226339817047e-03
3.156244494061293260e-01,3.139404087597770232e-01,3.145136611105863733e-01,4.475982658509565330e-03,-4.720112931169655537e-03,5.258595898696359107e-03,1.456363219767808914e-02
3.220514108657178687e-01,3.207660964158066119e-01,3.116255409772821783e-01,8.842786238895030543e-03,-7.836296686326335581e-03,9.707835372766916021e-03,2.825745381414890289e-02
3.191848569309453376e-01,3.177105535162305650e-01,3.171997545041558841e-01,1.643802136661593914e-03,-2.128129324316465915e-03,1.457512760064392284e-03,5.590496119111776352e-03
3.250772601373929094e-01,2.740809221508239135e-01,3.134813600599871131e-01,5.140787111700729356e-02,-3.870048824664349546e-02,5.417232000257293095e-02,1.528697311878204346e-01
3.346856749168670153e-01,3.212871285728521320e-01,3.046452035897612709e-01,1.248013648380592172e-02,-2.915650750787000117e-02,2.710004801650604811e-02,7.681313157081604004e-02
2.968545292946262459e-01,3.046888081001059012e-01,3.482430919811364545e-01,4.782935213308377176e-02,-2.308722180970317756e-02,3.031390496067260659e-02,1.162685081362724304e-01
3.173253905616107429e-01,3.055113383215061762e-01,3.191124744348403097e-01,1.416220477529583389e-02,-1.541701663329477986e-02,1.374681340619992101e-02,4.522787034511566162e-02
3.188386592790890539e-01,3.038626944311078604e-01,3.246336036777940914e-01,2.104787496009165315e-02,-1.285322427224165620e-02,2.923830687127983163e-02,6.880360841751098633e-02
3.212052166593540314e-01,3.051169071906549846e-01,3.362401703036029810e-01,2.577388603128072733e-02,-1.915591152068085723e-02,1.028076498888746276e-02,6.432402133941650391e-02
2.901918338607923920e-01,3.247813448484236920e-01,3.488496259702140723e-01,1.241583511202335594e-02,9.818468298286294003e-04,-3.001096651487711407e-03,5.568300560116767883e-02
3.095181269929233592e-01,3.278246679561633847e-01,3.150302181726479800e-01,1.442447699894860514e-03,7.803637200053515190e-04,-3.244073616734375037e-03,1.744265481829643250e-02
3.099456129418092787e-01,2.828543391241071236e-01,3.409885595494303590e-01,2.392690249509659903e-02,-7.967712540389073825e-03,9.099617523316253995e-03,6.851968169212341309e-02
3.178965340615015900e-01,3.118451446620293943e-01,3.157972754779369562e-01,6.692395296770183022e-02,5.899738516435229507e-02,-3.162691264479834674e-02,1.640354543924331665e-01
3.446692097679043276e-01,2.956059453343277688e-01,3.194859907209654515e-01,1.385180031930391409e-02,2.148144741251614004e-02,-2.745805091610895032e-02,7.763785123825073242e-02
3.506025885473980641e-01,3.200605154984750289e-01,2.604484998781143590e-01,1.226890673079241399e-02,1.221525468726788327e-02,-3.835227566757508366e-02,1.077914312481880188e-01
3.370320768616240636e-01,3.353728711073328261e-01,3.111406826091015487e-01,2.216359290805907517e-02,3.062515125368475005e-02,-3.128004119389858617e-02,8.861633390188217163e-02
3.411101492858066297e-01,3.387771510455414581e-01,3.053713642375729398e-01,1.821458470332260743e-02,2.955022321584229589e-02,-2.833596005164242676e-02,8.498861640691757202e-02
3.343695327019702290e-01,3.168617000001682782e-01,3.130632260228429220e-01,6.715969882403909942e-03,5.751560869891481076e-03,-1.144525539108370848e-02,3.185892850160598755e-02
3.480938880063809693e-01,3.116696011457485427e-01,3.011302468399133514e-01,5.513521638791010759e-02,3.252352629799873385e-02,-5.438000480341113885e-02,1.516122221946716309e-01
3.449424265038755211e-01,3.262837584144221981e-01,2.904015429442010077e-01,2.369528901150878830e-02,2.599814395074994886e-02,-6.581314735684588857e-02,1.378818899393081665e-01
3.456903183545109726e-01,2.820139380285522357e-01,2.868057635735179467e-01,2.895232793379775432e-02,2.605658218961609540e-02,-5.979296245205614757e-02,1.380205005407333374e-01
3.267469260508251705e-01,3.324158436645489045e-01,2.733538130723809356e-01,1.277958287237377678e-02,2.711240734729442048e-02,-2.006988190037462330e-02,8.419764786958694458e-02
2.685345252964136398e-01,3.580209155583644609e-01,3.251750189358622589e-01,2.163905852688537655e-03,1.356543761543825728e-02,-5.387448103673050590e-03,8.246569335460662842e-02
2.407872805462550891e-01,3.733793358028436593e-01,3.453007625155261051e-01,2.088059665804246554e-02,2.881774980777200568e-02,-7.484831886827395322e-03,1.364313662052154541e-01
2.654210736916791658e-01,3.484349494000017478e-01,3.489878674880389497e-01,1.040396638888643407e-02,1.276839444303375266e-02,-3.196393568376228525e-03,8.821555227041244507e-02
2.413465081447647709e-01,3.607632218840886584e-01,3.542811474705482855e-01,5.317563597231635651e-03,1.911601694229338178e-02,-3.592922369399319422e-03,1.214418560266494751e-01
2.473827348667932968e-01,3.557999215566843287e-01,3.627471435802643862e-01,-3.577036258084099248e-03,-3.161364391255001328e-03,4.339829936718770168e-03,1.126082539558410645e-01
2.691058211646649712e-01,3.575624721666521566e-01,3.461945143803513147e-01,-7.142704342397538590e-05,1.081340446344616728e-02,-1.077519440040714893e-03,8.545481413602828979e-02
3.468227861330538953e-01,3.665001179743315185e-01,2.573080985081768746e-01,-1.422082714853179983e-02,8.230054972533608348e-02,6.494263837260327160e-03,1.766772568225860596e-01
3.186706078304324952e-01,3.979910485193971503e-01,1.798546253195397182e-01,5.696769904509342390e-03,1.181344074364368280e-01,-1.361908994655323252e-02,2.812357842922210693e-01
2.885603071652045881e-01,3.578896295703472008e-01,2.616799901471623668e-01,7.184593753037251881e-03,6.511557247719004793e-02,-9.418956953540971039e-03,1.432962566614151001e-01
1.694818368058415292e-01,4.815028642617882326e-01,4.115498818538274595e-01,2.695010059838003416e-02,-1.329857566217904075e-01,8.216538597436044006e-03,3.685930371284484863e-01
3.377188293071183844e-01,3.073934752378342794e-01,3.272323210666463478e-01,-2.488361049741565426e-02,1.620887482910260066e-02,3.557354571348588651e-02,8.458004146814346313e-02
3.458381703999269252e-01,3.027174160600622499e-01,3.288286485548758686e-01,-2.493896710005887377e-02,1.952593520809152439e-02,3.620794526631283122e-02,9.142181277275085449e-02
3.353426966657309660e-01,3.021950346383322494e-01,3.011346734089509480e-01,-3.180227057831651327e-02,3.509410041266577962e-02,4.994574584233351516e-02,1.238858923316001892e-01
3.292334882295559484e-01,3.044389634123621513e-01,2.916567500007800628e-01,-4.646962194563941662e-02,6.605160761437427197e-02,5.598403503388573593e-02,1.733909994363784790e-01
3.075716354918110462e-01,3.086569998857515151e-01,3.533365847065519927e-01,-7.728090522943771579e-02,4.594659527951647920e-02,5.503292601535538647e-02,1.881012767553329468e-01
3.203113264499536927e-01,3.052300875214821740e-01,3.369624401553183435e-01,-2.876481268403120739e-02,2.340461759924451074e-02,2.837778171285732301e-02,8.542417734861373901e-02
3.288443922300887112e-01,2.590912153905626791e-01,3.145943726708944621e-01,-4.910177933958386615e-02,3.296426411282254304e-02,6.003994769301178314e-02,1.593168377876281738e-01
2.485446740639558061e-01,3.468112783635247665e-01,3.649433254611173516e-01,-1.348726251066331358e-02,2.091828126949486517e-03,2.431332758307907377e-03,1.111010834574699402e-01
3.371646484062890137e-01,3.002124359674258613e-01,3.205044287218232757e-01,-2.151322502695740546e-02,2.840859469293810849e-02,3.149880322437078467e-02,8.839412778615951538e-02
3.243662492849489487e-01,3.234688716906511385e-01,3.061909976603450767e-01,-1.687617456193353516e-02,2.080068818316522378e-02,1.781887968371218336e-02,5.847900733351707458e-02
2.746608373263833558e-01,3.241399810175685792e-01,3.487744180940639538e-01,-2.983097783287880916e-02,6.575935729274492991e-03,-6.006722346950506232e-04,8.410948514938354492e-02
3.381933877258463950e-01,2.933304696224414143e-01,3.174412301711861950e-01,-1.418999098726080564e-02,1.605138378329048349e-02,2.025604906244720879e-02,6.418927013874053955e-02
3.252268313874512318e-01,3.086060937839555374e-01,3.116842737559120113e-01,-6.399521028141703406e-03,6.770106781630074594e-03,7.559268439853508714e-03,2.581384778022766113e-02
2.234768057369583283e-01,3.509917375884901158e-01,4.011644313190918520e-01,-3.908511736289795729e-02,-9.141710251725795530e-03,-9.679178239522183425e-03,1.740397512912750244e-01
3.365226162207227700e-01,3.095309107947591398e-01,3.090700165843537350e-01,-7.703475809783798603e-03,2.727808700139461567e-03,9.360017793259190963e-03,3.470429405570030212e-02
2.858479100614356172e-01,3.322114249847246681e-01,3.608787154161747779e-01,3.453467803621754206e-02,-1.216748161174525597e-02,9.276657612426512933e-03,9.263233095407485962e-02
2.919778716976495492e-01,3.163951778139069693e-01,3.586292711034655412e-01,4.136150852952406171e-02,1.074103546969401926e-02,-8.223336882271031767e-03,9.535443782806396484e-02
3.195981135132706652e-01,3.180781258366792708e-01,3.174991799984556717e-01,5.150767258459517566e-04,-2.952481491636809352e-04,3.139818304060988251e-04,2.208780497312545776e-03
3.029512478412975662e-01,3.021472894645035323e-01,3.482723656506159782e-01,1.362996226909162639e-02,6.917184193489218187e-04,-4.037424554560705911e-03,5.194951221346855164e-02
3.028403855627763153e-01,3.007413694537721116e-01,3.432776920425565925e-01,1.413266635902281354e-02,3.505814579494796442e-04,9.405430222073586297e-04,4.823566600680351257e-02
3.001892520971459755e-01,3.154424465603081207e-01,3.483495137093400307e-01,1.664595628489159637e-02,4.755180505048121724e-03,-2.978827757583281128e-03,5.237549170851707458e-02
3.108645471714485686e-01,2.774199279348129599e-01,3.463735314086040518e-01,2.851569509669692193e-02,-3.883073861012393234e-03,2.879017736733182915e-03,7.795223593711853027e-02
3.031648520135145075e-01,3.107384376734669829e-01,3.438153494428872747e-01,1.832612991106879335e-02,2.829401574625833079e-04,-1.464815885178802173e-04,4.908969253301620483e-02
2.971497155905276077e-01,2.897359613485367413e-01,3.483622257332303906e-01,3.178990457127963548e-02,4.121240004896573571e-03,-3.189387390810881611e-03,7.855333387851715088e-02
3.319014760374576212e-01,3.280844246963710020e-01,2.851583526884859943e-01,1.187740773689282062e-02,-1.404375054242234210e-02,1.630502744832648329e-02,6.191550195217132568e-02
3.341671677898405135e-01,3.053133824501846894e-01,3.037700164974061479e-01,4.893788900749875340e-03,-4.678791883191453851e-03,1.122040238796140517e-02,3.734525293111801147e-02
2.551126138290478740e-01,3.582332716914112813e-01,3.521719972115380792e-01,4.291738440186329898e-03,6.024780335356571918e-03,6.333327280834776364e-04,1.010491028428077698e-01
2.784187098412445049e-01,3.513667272523106067e-01,3.365035848730353329e-01,1.574123621064507997e-02,2.191968565666944230e-02,-5.529646235137795560e-03,8.206459879875183105e-02
2.632129490858015064e-01,3.458514773012882904e-01,3.283713873228596980e-01,4.403251767848444069e-03,2.297775682226686073e-02,-3.905720021676892598e-03,8.589535951614379883e-02
2.550212594692730650e-01,3.475737615078393072e-01,3.433036334656887623e-01,1.231744475432278163e-02,1.324433620063855503e-02,-8.221656986873757123e-03,9.681513905525207520e-02
3.370490796955037949e-01,2.969073573690062529e-01,3.151416692415592857e-01,1.347731118764809721e-02,-1.346830432993072896e-02,1.762997617829687239e-02,5.686333402991294861e-02
3.359781118639396102e-01,3.070695583202856516e-01,3.056450405755675170e-01,7.817227158765793424e-03,-5.028589594473780074e-03,1.140654452760180362e-02,3.909513354301452637e-02
3.236882305670877313e-01,3.114178071230752076e-01,3.213991478198081064e-01,6.543579685112287103e-03,-8.401418243026887583e-03,7.908947032359883375e-03,2.560422383248806000e-02
3.140495788305348035e-01,2.977853768026019754e-01,3.276142163981357047e-01,1.920998251803890389e-02,-1.339904203607334560e-02,1.261207397332689446e-02,5.283945798873901367e-02
3.306486546810321614e-01,3.090176204514089586e-01,3.219286609297765667e-01,5.554846988917885517e-03,-6.285006102865919875e-03,8.652554958371406341e-03,2.812455222010612488e-02
2.857945929984901934e-01,3.334716596191818483e-01,3.362616467926100583e-01,4.214727606666915372e-02,4.482926070159671400e-02,-1.230306858806696178e-02,1.192734986543655396e-01
2.994099149735255927e-01,3.261475250821511129e-01,3.240467037023604391e-01,4.389869412432144402e-02,3.415756742630274984e-02,-2.569510718296412824e-02,1.092033088207244873e-01
2.686560718428979699e-01,3.352376210178511506e-01,3.560489108195342700e-01,3.205496155385922225e-02,2.292030976175882945e-02,-1.936660814447247608e-02,1.097070649266242981e-01
2.604380009756789294e-01,3.416351653164829694e-01,3.634084917318217145e-01,3.184457391394287379e-02,-2.453106270578277268e-03,2.036378925659316705e-03,1.091224700212478638e-01
2.442751355818734149e-01,3.445452811494562617e-01,3.744752940435583932e-01,-2.919544458186602159e-02,-3.960544336810218474e-03,-2.742877914441750522e-03,1.287545859813690186e-01
3.153226161307591813e-01,3.136180146528155799e-01,3.313961305509743882e-01,2.411539846209872703e-02,1.573057549086790546e-02,-9.801411219061495830e-03,5.535228922963142395e-02
3.318954972650269841e-01,2.779222329899325716e-01,3.349494649094647003e-01,2.066394346193378695e-02,1.129165524888961665e-02,-2.327594943788464932e-02,7.985037565231323242e-02
2.869365950613269045e-01,3.095039308810220713e-01,3.532963337433621676e-01,2.786815650734029634e-02,1.638584192096118400e-02,-8.935551060758569961e-03,8.240302652120590210e-02
3.172897215518810654e-01,3.212726812000458176e-01,3.182399593543300820e-01,-7.576585431900433217e-04,1.806125849676995759e-04,1.586027297865262239e-03,4.727431572973728180e-03
2.972837805405796341e-01,3.110125447343075611e-01,3.299192319738100121e-01,1.720285517039626608e-02,1.122114627614351906e-02,-1.065559610245028245e-02,4.910895600914955139e-02
3.360871560837176975e-01,3.004482796887242846e-01,3.131955726486244096e-01,1.584519693164344531e-02,1.457152698508794655e-02,-2.695111436746794320e-02,6.743597239255905151e-02
3.382121984356025179e-01,3.163486329282700904e-01,2.967980566399361919e-01,5.403199306036713355e-03,4.941215021376896450e-03,-7.530870099525095035e-03,4.023255407810211182e-02
1.589731684261884992e-01,3.504261643276072036e-01,3.906662737409600794e-01,-7.647364461517962286e-02,5.781355693469590606e-02,2.941313860820297249e-02,2.759436070919036865e-01
3.185505114573352614e-01,3.347027021353997100e-01,3.184187409000486246e-01,1.457729149182412920e-02,1.860268072629210970e-02,-1.362887343075457232e-02,4.995947331190109253e-02
3.138356300923743070e-01,3.395499807117142721e-01,3.022266980005316461e-01,1.266831844134406332e-02,3.599684158326819927e-02,-2.656066092605951015e-02,8.706143498420715332e-02
3.558068990057706160e-01,3.547177177786881019e-01,2.812137074881189136e-01,4.314219514255027144e-02,7.477657919659519425e-02,-5.413607544222914097e-02,1.914016306400299072e-01
3.328276432924744954e-01,3.037954886960440026e-01,3.202461703651877656e-01,1.173580440166884127e-02,1.559353372750699185e-02,-1.494479637018251289e-02,4.948328062891960144e-02
3.204682403004510682e-01,3.205804335315589060e-01,3.187993759143675776e-01,1.370626668939645826e-02,1.691383782746768913e-02,-1.159465639683626877e-02,4.275642707943916321e-02
3.210573496239391700e-01,3.634641701751876730e-01,2.665680558943383516e-01,4.507160808425913351e-02,-8.035352531408515575e-02,3.191951190035046543e-02,1.886772960424423218e-01
2.867893539383836732e-01,3.541404050964655492e-01,3.142522439694195868e-01,2.652384070946947614e-02,-6.298153522529904846e-02,4.633153260372726429e-02,1.545675098896026611e-01
2.913481725606377748e-01,3.295994310731727994e-01,3.171454314385709905e-01,4.225607510107531883e-02,-4.899108008827426919e-02,3.797830863242773053e-02,1.342610865831375122e-01
1.999729384294730017e-01,4.304113498434274931e-01,3.813265605365310229e-01,-7.502547976724944015e-03,1.257463753540062901e-01,-2.042577903933639680e-02,3.050526380538940430e-01
2.378704623228666826e-01,3.544356047697851397e-01,3.777087601746318968e-01,6.338135504895130168e-02,5.779167085943470727e-02,-3.402847829824715009e-02,2.058808952569961548e-01
2.054639337200644678e-01,4.031585518801032442e-01,4.658058927449662545e-01,1.368166845062114001e-01,6.930973163392965819e-02,-3.813050851515473877e-02,3.610022664070129395e-01
1.984181378028434528e-01,4.016076686157992737e-01,3.648180010194520539e-01,1.354220894653071772e-01,9.145429486462143542e-02,-4.061860422418504812e-02,3.467317223548889160e-01
2.240020975621114241e-01,4.248592865472365365e-01,2.615389623191703983e-01,3.781546786411103811e-02,1.304406946335710249e-01,-3.749328741256106878e-02,3.062101602554321289e-01
2.263923079201320410e-01,3.513769938321777420e-01,3.313659188306396497e-01,6.715661486877969044e-02,7.690263993186989555e-02,-4.088236017692053331e-02,2.231741845607757568e-01
2.033024839811846673e-01,3.820273257255989430e-01,3.367992557598824543e-01,6.374505861304842480e-02,1.087940991459739604e-01,-1.966074883626954192e-02,2.734285295009613037e-01
2.324916977832628961e-01,3.538714929097506179e-01,3.569386162214042701e-01,1.062353615792988593e-01,1.190039150706962007e-01,-1.072529582881182747e-01,3.549197018146514893e-01
3.127765201109332649e-01,3.030814938079464671e-01,3.174425782949512609e-01,-2.725762509166354194e-02,2.115892506969791267e-02,2.615280383248127019e-02,7.605882734060287476e-02
3.318790402497417968e-01,3.085221137609077680e-01,3.075102813998599194e-01,-5.915384371502119959e-03,5.331815961314778814e-03,8.516827728451834695e-03,3.127414733171463013e-02
3.325622073311528260e-01,3.009183770348766718e-01,2.921618093901177104e-01,-2.895291879831974821e-02,2.915570208681286454e-02,5.293623970744826268e-02,1.217654198408126831e-01
3.432373913795204179e-01,3.260196592558763373e-01,2.912035194336677901e-01,-1.341800498107825756e-02,1.401258777659514926e-02,1.956020115988826857e-02,6.621978431940078735e-02
3.416645911585825535e-01,3.011687350014623510e-01,3.003840184716695116e-01,-2.092350249721840628e-03,3.003976534924113467e-03,1.347151525693749199e-02,4.750745743513107300e-02
3.424038149913923856e-01,3.152359707490467455e-01,3.017880229216930443e-01,-4.328353205722853744e-03,2.386617373354390104e-03,1.613686970129701165e-02,4.624692723155021667e-02
3.182191144444511122e-01,3.165029431807493410e-01,3.194239031218586988e-01,8.999601969245736490e-04,1.802312842918668383e-03,-9.629417939082383394e-04,4.628275521099567413e-03
3.327720517382396492e-01,2.928865106405652008e-01,3.122892395358112250e-01,-1.747567793745270423e-02,1.086193749609261523e-02,1.834669672881154845e-02,5.893539637327194214e-02
3.345018691091085627e-01,2.967704360095257399e-01,3.176957140195428853e-01,-1.445162126379961453e-03,7.427923747523861725e-03,8.207178301441138413e-03,3.802431374788284302e-02
3.461657021436149728e-01,3.010789253751189332e-01,3.136233564309862665e-01,-8.050162495037919974e-03,7.356490801160422977e-03,1.711181120873305969e-02,5.347713083028793335e-02
3.330143014896800868e-01,3.113499995391223463e-01,3.103415447524627835e-01,-4.984648666116686493e-03,3.998804673966926439e-03,5.726781301109412810e-03,2.670404501259326935e-02
2.775763493070176890e-01,3.892413008537974894e-01,3.392765335797949255e-01,-1.281979388050697062e-02,-7.458210865542862222e-02,-4.187953020452574865e-03,1.631543934345245361e-01
2.880317206539114161e-01,3.003149394939913508e-01,3.459059518270829470e-01,2.828034893461358126e-02,-7.389470713890760722e-04,1.674339737473041134e-03,7.210274040699005127e-02
2.886865396233413428e-01,3.336559866108486094e-01,3.545463462560005663e-01,2.356937081886722671e-02,-8.250879861436848095e-03,9.823976164030853025e-03,7.455464452505111694e-02
2.816530382203829008e-01,2.908470596880138315e-01,3.526357096409868386e-01,5.855358664827904625e-02,1.755838189118404807e-02,-1.111023700544300045e-02,1.266934275627136230e-01
3.134823468866696494e-01,3.292406048901566629e-01,3.170706263728228502e-01,3.650327711393869246e-03,3.231588645795105842e-03,-1.833202449218139605e-03,1.691270247101783752e-02
2.963916564175895774e-01,3.286699855065092768e-01,3.393814122052371540e-01,2.847824618581283260e-02,-2.570913384738363755e-02,2.254372054073601125e-02,8.627247810363769531e-02
2.779569857981417091e-01,3.091370516528565981e-01,3.484523560511461615e-01,2.947122140433954679e-02,-1.139735486035016281e-03,2.582636303601236732e-03,7.983300834894180298e-02
3.205493152367140941e-01,3.091689569472174659e-01,3.480769870020572476e-01,2.926612689782268073e-02,-1.417278948642181242e-02,1.634168636599981836e-02,7.192937284708023071e-02
3.221717867657383216e-01,3.184805065688584569e-01,3.082431910113588303e-01,1.262761357530160430e-02,-1.542979305627966563e-02,1.263120304658900753e-02,4.274884983897209167e-02
2.642452605236667584e-01,3.166469809246741374e-01,3.765388516459956536e-01,5.547071458921511850e-02,-3.512543237018860703e-02,9.054818472688175995e-03,1.504984050989151001e-01
3.165027825133583939e-01,3.220125472331645256e-01,3.179347870321335701e-01,6.826729993329097709e-04,6.880106162971612207e-05,1.650339182154450177e-03,5.839633755385875702e-03
3.169572398913778066e-01,3.401442394460210683e-01,3.122695738380618646e-01,2.039376408402142002e-02,2.786865199570895055e-02,-1.222522302576390697e-02,6.851550191640853882e-02
2.824381625602532253e-01,3.351807735382000830e-01,3.515423332655683297e-01,3.530559883209090366e-02,7.014340783729208773e-02,-4.539139999923656743e-02,1.690956056118011475e-01
2.866005981353715315e-01,3.579340289844231693e-01,3.119718612292129434e-01,9.155874566340337084e-03,2.550045690638467338e-02,-1.164061743117393750e-02,8.081560581922531128e-02
2.774895908377439380e-01,3.356822423579779446e-01,2.855571168616664046e-01,3.703572730936476737e-02,6.358005468051280973e-02,-3.734868844748117506e-02,1.529999226331710815e-01
2.778766041359000960e-01,3.662114545547174305e-01,2.841920803053368250e-01,2.590683629642746497e-02,6.573725231798324686e-02,-3.244566769759433394e-02,1.594392359256744385e-01
3.145616247183016800e-01,3.438771882525030188e-01,2.804750613654600211e-01,4.586535839200275334e-03,2.803013260235565421e-02,-6.947211787509751865e-03,7.473639398813247681e-02
3.475950310013929956e-01,3.790821643181496170e-01,2.915348416293065958e-01,2.498560417433215095e-02,7.213301256384350990e-02,-3.783339357151394022e-02,1.663604825735092163e-01
2.785781821600738506e-01,3.688776182209365095e-01,2.808584148291388694e-01,9.469935832635402104e-03,7.662969980632602929e-02,-1.403132850651139796e-02,1.625708788633346558e-01
3.520451310109694587e-01,1.961672319804473319e-01,3.408732916034004079e-01,6.494674317355533799e-02,-4.665268409650431825e-02,8.712613096321643325e-02,2.542397081851959229e-01
3.650893644106068536e-01,2.272209695150515518e-01,3.880702057072494271e-01,6.507601745489176477e-03,-4.598184955310446586e-05,2.718202045869119732e-02,1.582649201154708862e-01
3.656151737574964145e-01,2.341614921361742097e-01,3.892776463708959578e-01,2.001854454588402818e-02,-8.351698886320884155e-03,2.451477853354011235e-02,1.554506421089172363e-01
3.488026254401694892e-01,2.709452093628730851e-01,3.481402999168078938e-01,2.217323362465215691e-02,-7.424215770279267088e-03,2.303321428410585667e-02,9.613817930221557617e-02
3.633250566348007471e-01,2.407942668502243144e-01,3.885343388974903944e-01,3.585046050016862246e-02,6.372208977870061700e-04,2.318923373493070317e-02,1.555905640125274658e-01
3.619252294762272393e-01,2.225309699449891654e-01,3.620799001231848058e-01,2.822853933348861213e-02,1.085978437755037978e-03,8.374471869285898123e-03,1.485154181718826294e-01
3.809199807424799022e-01,2.385450571018409294e-01,3.572906673411295753e-01,3.166427693454815229e-02,-1.122428286855038128e-02,3.182756223970460707e-02,1.545624583959579468e-01
3.508186490739340080e-01,2.466617509602509473e-01,3.471477025988494169e-01,1.236985068483800396e-02,-6.786094268595893250e-03,1.850386585788240529e-02,1.100188717246055603e-01
3.545400189527561086e-01,2.317058272579418099e-01,3.327769706881602563e-01,4.136126084504193612e-02,-1.767931975669043143e-02,3.787706186015692145e-02,1.525207310914993286e-01
3.488733741254510523e-01,3.100319257176091248e-01,3.074869286548996827e-01,-1.237080498345289117e-02,-6.212752160669068532e-03,-3.590174557974158687e-02,7.781836390495300293e-02
2.916193837481671491e-01,3.175238058393560214e-01,3.417793290315356280e-01,6.154519220877240765e-03,-2.507374158009096840e-03,5.629697340557407274e-03,4.599206894636154175e-02
2.985379265827034501e-01,3.203910896848439216e-01,3.421597728577053243e-01,1.446941456298713249e-02,-4.668575931800847748e-03,5.450263571644282587e-03,4.700793325901031494e-02
2.897906804631774080e-01,3.292455484379244179e-01,3.437019900962990371e-01,1.707549376787993040e-02,-1.333783935793554816e-02,1.277760485870356628e-02,6.507123261690139771e-02
2.788685200200987646e-01,3.306741737896305433e-01,3.418693437861707873e-01,7.943114892168146035e-03,-4.369230832888366771e-03,7.067094927103098612e-03,6.152651458978652954e-02
2.866628307471054682e-01,3.306767573381462766e-01,3.334183863422450766e-01,7.290482311743664776e-03,-6.852405496939836284e-03,7.805826306249765215e-03,5.048291385173797607e-02
3.233776136545868929e-01,2.937507522040446184e-01,3.390647391974864755e-01,2.925800129790051551e-02,1.400350046105191051e-02,-3.339618859620861746e-02,8.994942903518676758e-02
3.376281796115083722e-01,3.057060420702113479e-01,3.386167955842097066e-01,-2.971983884382310009e-02,1.929726358617937440e-02,2.900833770465575251e-02,8.569113165140151978e-02
3.109751406411521701e-01,2.894542197758971369e-01,3.471362975538218598e-01,-2.319906671920347885e-02,9.434838730360953218e-03,7.181757146915100296e-03,6.771537661552429199e-02
3.172930901585391261e-01,3.028538223408939745e-01,3.547554440532251774e-01,-4.832053957332748534e-02,6.675809312003712359e-03,4.485996142257974405e-03,9.670338779687881470e-02
3.217016294590921976e-01,3.210105523973534880e-01,3.380701364159166000e-01,-2.031635778442530266e-02,1.508427550073159623e-02,2.072173090219909738e-02,5.906570330262184143e-02
3.197544229553461181e-01,2.925051432467675183e-01,3.355709254796072627e-01,-1.725164203818816896e-02,1.560519846421104528e-02,1.436392997364349666e-02,6.054803729057312012e-02
3.093502064087028658e-01,2.563505835909439257e-01,3.695374121199286321e-01,-6.778427583178242566e-02,1.951060571366517241e-02,1.863739052865858586e-02,1.599672883749008179e-01
3.215885801599438487e-01,3.502276868297153900e-01,2.492785527290864445e-01,-2.000443285333309423e-02,5.202702171564441147e-02,3.407480156467221355e-02,1.446515619754791260e-01
3.494999080683877102e-01,3.504540679741218190e-01,2.374933976269740510e-01,-1.793620364903625655e-02,3.316028865927733715e-02,2.904443945404409574e-02,1.394557803869247437e-01
3.679253605366978319e-01,3.537203106137170594e-01,2.526684373251689708e-01,-1.219263837539321174e-02,5.501111600902050536e-02,3.405648212702865052e-02,1.576479971408843994e-01
3.364984053420562171e-01,3.514053921065411479e-01,2.888858124959782780e-01,-1.564770170048981890e-02,2.744369809401006610e-02,2.048577134006540970e-02,8.632472902536392212e-02
3.552673219839250218e-01,3.613031315400299648e-01,2.632337050783905563e-01,-3.943406895092087250e-03,2.140795160726048987e-02,7.895833005339004951e-03,1.032990813255310059e-01
3.176252682036350694e-01,3.189893237284239236e-01,3.221105532979957609e-01,1.565509030582913283e-02,1.228948643098739732e-02,-1.940026588720007369e-02,4.830436035990715027e-02
2.743698005373759741e-01,3.641983217350553415e-01,3.207724942759386799e-01,-4.444468976297982765e-02,4.885598494275977116e-02,3.863519097840794475e-02,1.536841988563537598e-01
3.189973871866810251e-01,3.673974716508910943e-01,2.522247218193642282e-01,-8.495302335769521276e-03,4.147088790831729432e-02,5.980926525925567977e-03,1.245643943548202515e-01
3.140603229528599050e-01,3.693192607217976597e-01,2.583337052953351698e-01,-1.009994841635273102e-02,5.786164067680698436e-02,-4.269093153877862555e-04,1.399602890014648438e-01
3.532645164278426786e-01,3.440052392299721706e-01,2.102085650559140373e-01,-1.652177507694753758e-02,-3.996116998487087013e-02,-4.942594256174669826e-02,1.793446689844131470e-01
3.601889410755554910e-01,3.495422146534795660e-01,2.637765995884938097e-01,-1.269470502252430417e-02,-1.933511339491227748e-02,-3.329378773705134881e-02,1.153804659843444824e-01
3.037625842026956957e-01,3.403457547598113808e-01,2.717767949708653763e-01,-2.590918526698843954e-02,-5.767636446463985517e-02,-3.085262416232865262e-02,1.355756670236587524e-01
2.783091581731038655e-01,3.539380064428822026e-01,2.906717743283945277e-01,1.575665924468783868e-02,-5.703305450810654265e-02,1.156493958312579916e-02,1.258648335933685303e-01
3.122231640629777316e-01,3.237155691852092732e-01,3.223258769992874417e-01,6.377638718173895931e-03,-9.062069644986531919e-03,7.035336354855385201e-03,2.519741468131542206e-02
3.105767118763666512e-01,3.236288164523932753e-01,3.155580554441895225e-01,6.320441724080559827e-03,-6.324915148761229428e-03,7.104464649989011837e-03,2.283488772809505463e-02
3.058748992404051181e-01,3.260724373026200329e-01,3.209003143055719764e-01,2.007619392183733822e-02,-1.704625197485584720e-02,9.843735828338353797e-03,5.197893455624580383e-02
2.760632533329480665e-01,3.312457246431930180e-01,3.502753751712904817e-01,1.870672588360052999e-02,-1.579279203255043451e-02,5.540826342201108159e-03,7.967119663953781128e-02
2.681798293881934581e-01,3.582941099912607119e-01,3.842065635140471391e-01,5.184932484909643424e-02,-3.572713736758992981e-02,2.327522406516482553e-02,1.569925844669342041e-01
2.558094192627382024e-01,3.927512434598623980e-01,3.679775186963581968e-01,-2.511567303985163049e-02,-4.471603427199075803e-02,-2.532716639148307591e-03,1.545459479093551636e-01
2.467276945957589673e-01,3.885116669004923806e-01,3.721571640191775332e-01,4.094096402452644320e-03,-5.548629484457449912e-02,4.429015085682858933e-03,1.655194163322448730e-01
3.150755027427075694e-01,3.632733245634507946e-01,3.056131308707445982e-01,-1.128722602797463739e-02,-3.456759453044806751e-02,-1.281420433192632935e-02,8.560492843389511108e-02
3.090649011182335926e-01,3.748017832380360903e-01,3.071913639740693758e-01,1.368657372587375569e-03,-3.923598062872669934e-02,-2.438730814426425886e-04,9.524805843830108643e-02
2.758946032579379648e-01,3.628897191654066878e-01,3.274622524332688744e-01,2.785433760495229644e-03,-3.025406153116688701e-02,3.166057677031267753e-03,9.241488575935363770e-02
2.895877899049686954e-01,3.800124383925397309e-01,3.015441138591114512e-01,3.584772372138059909e-02,-6.737777907319299209e-02,4.372834079354580988e-03,1.573857069015502930e-01
2.471469047257732199e-01,3.378085941788144808e-01,3.581153512615036782e-01,-3.903309138482925073e-02,-5.143797396052172954e-02,-2.327920967246116524e-02,1.568663716316223145e-01
2.838662056257950095e-01,3.458674533817635011e-01,2.982014741100702526e-01,-2.966270395542906085e-02,5.617440061158468501e-02,2.702894416418848492e-02,1.321319788694381714e-01
2.860047361953430567e-01,3.936023438097837612e-01,2.922338065566964516e-01,-2.384547405115346533e-02,5.347340341853935863e-02,4.132977354527805208e-02,1.623400747776031494e-01
3.358016811637882237e-01,3.551639624938098816e-01,2.846777404059838701e-01,-1.472448099960690579e-02,3.210459748459599388e-02,2.378925810233862084e-02,9.705031663179397583e-02
3.370985150980515543e-01,3.054939983133836412e-01,3.216048548184518019e-01,-2.598664099470993083e-02,1.805798066656494338e-02,2.866240521447060985e-02,7.885441184043884277e-02
2.810279818019857934e-01,3.599412189716943988e-01,2.752611929656788581e-01,-1.324145281390488524e-02,6.877909079914952539e-02,1.338981859038380733e-02,1.482268273830413818e-01
3.357391717719934721e-01,3.857570408496646119e-01,2.640981122229782430e-01,7.335565471727355583e-03,6.496375474159121755e-02,9.279190293094890032e-03,1.558787077665328979e-01
3.114445458490041063e-01,3.219399035441571355e-01,3.260730582419307244e-01,8.512922195146935961e-03,-7.313862442251371776e-03,7.972266205920180634e-03,2.718773297965526581e-02
3.069026569595301179e-01,3.081200367703412213e-01,3.342874255252438753e-01,8.592664908751788955e-03,-5.179562724836778674e-03,5.966053366719758534e-03,3.356838598847389221e-02
3.184660976259290344e-01,3.092983315546585232e-01,3.213431917556467954e-01,2.083270531469921458e-02,-1.197961939801504665e-02,2.103404929603996942e-02,5.637849494814872742e-02
3.200082641720315424e-01,3.109754988750063620e-01,3.261739750418706230e-01,1.102342324263519587e-02,-9.103934161787199247e-03,7.667036443969455287e-03,3.106192313134670258e-02
2.954988291158709424e-01,3.174044560027316497e-01,3.326117769615748454e-01,1.847059692610887247e-02,-1.217756956563343686e-02,1.022924671900000450e-02,5.316508188843727112e-02
3.554485075011872275e-01,3.325780577301649110e-01,2.922041440256833988e-01,7.417777875601608978e-03,-5.746615529636620208e-03,2.565739638451557461e-02,7.290766388177871704e-02
3.621901623386379332e-01,3.432175769330043646e-01,2.801491259617003848e-01,3.266898702211246119e-02,-3.896776527286226893e-02,4.723005969727631093e-02,1.413628160953521729e-01
3.375545756057827806e-01,3.387764760103013084e-01,2.690201670172271409e-01,1.473973839448407264e-02,-3.207297008634142632e-02,2.784035718903993956e-02,1.041405946016311646e-01
3.438424321535354933e-01,3.359887807117692415e-01,2.582436258401453189e-01,1.199794742931099313e-02,-2.349069838561030840e-02,3.313688717204216205e-02,1.099910140037536621e-01
3.568440945363077210e-01,3.668068132398418779e-01,2.416604781156372894e-01,-8.241159628255674552e-03,-7.376439551268575145e-02,9.131055552909286832e-03,1.768940389156341553e-01
3.291248549042528060e-01,3.581785604782531385e-01,2.883104639416204651e-01,1.358952571452283833e-02,-3.678218589640346037e-02,4.173344590670513207e-03,9.143743664026260376e-02
3.074952073807331043e-01,3.308136823282454841e-01,2.908392692969876125e-01,1.584016637182809883e-02,-3.269014978803710253e-02,2.603170715587418277e-02,8.485978096723556519e-02
3.258788757750791798e-01,3.667469273850563760e-01,2.822172666621693415e-01,1.339220036544859320e-02,-4.751749621309715038e-02,1.491415497415208083e-02,1.154988557100296021e-01
3.319577252765740227e-01,3.321234954683558449e-01,2.745827435949182993e-01,4.368769840182363390e-02,-5.076934551709544330e-02,5.376997757918336451e-02,1.594787836074829102e-01
3.501997310003104324e-01,3.356841842610807092e-01,2.793188294100280022e-01,1.686975392518755279e-02,-4.558888952977058900e-02,3.328745543684392960e-02,1.209086403250694275e-01
3.218651201354301716e-01,3.552528127242162714e-01,3.005084514682170860e-01,2.034579753985612735e-02,-5.231011690174831169e-02,2.353501201455238806e-02,1.157431825995445251e-01
3.201101714117849939e-01,3.120080346038042185e-01,3.199963344568985124e-01,9.642903085082487041e-04,-4.286379423328435558e-03,1.523539970466494461e-03,1.138452906161546707e-02
3.173689395979306105e-01,3.667799806330982459e-01,3.093014673101418532e-01,4.461023532792211116e-02,-6.856172485185638155e-02,4.504493817010943313e-02,1.704835593700408936e-01
3.317077768837916052e-01,3.245515299307647483e-01,2.765183179552614945e-01,3.754349205311413584e-02,-5.151819663943280753e-02,6.393102020655927475e-02,1.647864729166030884e-01
3.129616538527532632e-01,2.543357009831419546e-01,3.546195064715536582e-01,4.750025293055968462e-02,9.747612036705533695e-03,-1.126003203672556671e-02,1.226737350225448608e-01
3.279336253439723570e-01,2.750065055646560008e-01,3.575382012388699238e-01,1.416345817275652640e-02,8.995007830491023567e-04,-7.046384403107603875e-03,7.744538784027099609e-02
3.581646171385681754e-01,2.494439173564829693e-01,3.930149615321204548e-01,5.119627199214064200e-02,9.451996462030889945e-03,-1.650947381863988525e-02,1.605383902788162231e-01
3.420885718853698410e-01,2.709436497353359674e-01,3.567259970197244612e-01,6.915751052053248360e-03,1.994517315233756971e-03,-1.095843929725438468e-02,8.266142755746841431e-02
3.544453488193780033e-01,2.601014603116808543e-01,3.567914270480938566e-01,1.184007034483338695e-02,2.134539630438322174e-03,-1.027734846174865012e-02,9.939172118902206421e-02
3.445868992472673198e-01,2.252045008556077255e-01,3.525120635116066881e-01,3.052757696513638125e-02,7.379593352551507349e-03,-1.901034522273963023e-02,1.389404386281967163e-01
3.613137801390134962e-01,2.318986566869264965e-01,3.898372859845778415e-01,2.939711157530969232e-02,9.426083236572973048e-03,1.893597753544000971e-03,1.553161889314651489e-01
3.469291205945140844e-01,3.140291812628883683e-01,2.885015951088063524e-01,5.612175312365194103e-03,8.880312933510544487e-03,-2.003334774300476531e-02,6.410143524408340454e-02
3.504121860177950021e-01,3.154526673325477870e-01,2.856872515411327251e-01,-1.338687924695707021e-03,-7.385055142031979672e-03,-2.094704610344329254e-02,6.807394325733184814e-02
3.299856404675315935e-01,3.231850308853049802e-01,3.017915081713513636e-01,8.309992576242833384e-03,9.759743082318835319e-03,-1.102436378927168330e-02,3.881952539086341858e-02
3.017423274726163673e-01,3.122080226656264168e-01,3.441534672309412568e-01,1.863774403981859756e-02,8.007150941890498960e-03,-1.075659333644676981e-02,5.518991127610206604e-02
3.315264275720822273e-01,3.004132722489642471e-01,2.976991075242837459e-01,-2.508525106156899581e-02,-1.978799972874464505e-02,-2.526512487585755307e-02,7.770022749900817871e-02
3.436907024773717123e-01,2.999440640573817762e-01,3.124173126163754532e-01,-4.501086593549716817e-03,-3.372413080869134626e-03,-8.656764737402063842e-03,4.293489456176757812e-02
3.165822351163067316e-01,3.172148164342712406e-01,3.240873673493310791e-01,3.408636029397301044e-03,3.214113254233181595e-03,-3.914746750639608829e-03,1.279856450855731964e-02
3.461316674201746491e-01,2.826683129239305758e-01,3.059544569982007856e-01,-4.039116737252995346e-03,-5.714585814159970668e-03,-3.026512559224302928e-02,7.737487554550170898e-02
3.579149305886961674e-01,2.827817201545579917e-01,2.775870182997275948e-01,-6.187253666936006619e-03,-1.036031227272171500e-02,-5.661847514925572727e-02,1.269491612911224365e-01
3.416868500702827660e-01,3.044710222499500407e-01,3.037462485693263603e-01,5.216642752044284119e-03,4.082663330040090140e-03,-1.200895600151273730e-02,4.446128383278846741e-02
3.072411904550490513e-01,3.087116964032612931e-01,3.311722118874121379e-01,-8.659249487048950589e-03,-5.887145106912057210e-03,-5.289836672902245227e-03,3.086317889392375946e-02
3.018293147951977007e-01,3.301142241322080895e-01,3.203113449783082656e-01,2.660683863102681831e-03,3.798554630045988464e-03,-6.723087663386468141e-03,2.861788682639598846e-02
2.990335058846990135e-01,3.149509489247050986e-01,3.286194758201766986e-01,-1.961796049543912748e-02,-1.503054131574050808e-02,-1.314435232082898468e-02,5.484914034605026245e-02
3.052116911347396155e-01,2.808669677040188661e-01,3.436309099135444467e-01,-2.916301971366315471e-02,-7.643897102821425177e-03,-8.215653385432427139e-03,7.702746987342834473e-02
3.167874709917264942e-01,3.095904809165175853e-01,3.335695532158139409e-01,-1.226825098049642501e-02,-5.779432471543296743e-03,-5.230695019565406202e-03,3.298532217741012573e-02
3.107417103692537430e-01,2.669404493430517222e-01,3.719197115393618747e-01,-6.901446579023325090e-02,3.758928723090128061e-03,1.079332561398420320e-02,1.517294943332672119e-01
3.042402164199392023e-01,2.415040860592303495e-01,4.109275818540740755e-01,-1.117321394635888282e-01,1.287578802108966906e-02,1.028514619078648926e-02,2.455159723758697510e-01
2.773069872778873846e-01,3.252095377451800218e-01,3.658736069614326736e-01,-2.865706793302589053e-02,8.579861886833326651e-04,-2.439270449157820205e-03,9.154165536165237427e-02
2.996348331187821401e-01,3.067064085362459225e-01,3.420508395697314241e-01,-1.205212343114055694e-02,-6.155285729585702539e-03,-8.346574906993467144e-03,4.803744703531265259e-02
3.165606600211637867e-01,3.023698838544717216e-01,3.198263242805837181e-01,1.445827679909144833e-02,1.285226452968967793e-02,-1.465850863130916878e-02,4.500742256641387939e-02
2.801866015253878794e-01,3.039530153288901304e-01,3.461762349100347969e-01,-3.238599734210782788e-02,6.297145020424833352e-03,6.945090765684337232e-03,8.222749084234237671e-02
2.879291072301665699e-01,3.361691189804760782e-01,3.677525171994507902e-01,-4.044463399813352789e-02,-1.819809144149304829e-03,1.268633646301119957e-03,9.884463250637054443e-02
3.104932046036442683e-01,3.352026507431712377e-01,3.125966331755346550e-01,1.187322019737441269e-03,9.542571111561999348e-04,-7.533064398594365536e-04,2.390962094068527222e-02
3.478326631495808341e-01,3.519865075992895109e-01,2.687383212873558636e-01,3.573401804040448834e-04,-1.725646590163000885e-02,4.920539470975188352e-03,8.699476718902587891e-02
3.048204417180871983e-01,3.295587722474476733e-01,3.160063998753077086e-01,1.101783543903446690e-02,1.365259148581714731e-02,-8.937869412064885014e-03,4.029147699475288391e-02
3.334611051642220048e-01,3.508622963337150735e-01,2.956970829862520245e-01,1.071109609153223820e-02,-1.673719412852037874e-02,2.175834947655156532e-02,7.064646482467651367e-02
3.220027364673088699e-01,3.608244648484227324e-01,2.833393176963075466e-01,5.874556006246739633e-03,-7.375293324086827640e-02,1.155906279197897561e-02,1.460336297750473022e-01
3.360161741725911644e-01,3.607562525459999669e-01,2.298572615769247651e-01,1.543406254215043058e-02,-4.502590237475415091e-02,1.998324184683084037e-02,1.500092744827270508e-01
2.757531804138818043e-01,3.855725248533194982e-01,3.019395683163313415e-01,1.840060971839019288e-02,-5.740726218003894959e-02,3.173911069816872516e-02,1.542559117078781128e-01
3.137241547672988129e-01,3.480706672728290929e-01,3.132981968520234806e-01,1.033701516034035706e-02,-2.999308595911199388e-02,7.448933165247020524e-03,6.618361920118331909e-02
3.185844638613839486e-01,3.528364297117663195e-01,2.915327960972690091e-01,3.301471558556638708e-03,-2.916620888552395527e-02,1.353068445214600929e-02,7.723666727542877197e-02
4.843971850462213125e-01,3.371087937882669694e-01,2.844873619135397380e-01,-1.339932070055292225e-02,-2.583682167963476453e-02,-1.703875655127198574e-01,3.490708172321319580e-01
3.700734329088363750e-01,3.662397474563471311e-01,2.573740495690730601e-01,-3.904960747874646615e-03,5.366251883470084250e-02,-4.889070423512117264e-02,1.677481532096862793e-01
3.681497093117455099e-01,3.276732631641970372e-01,2.815884706338678267e-01,5.794062997846940490e-03,1.653826190115793154e-02,-4.792542368398524516e-02,1.159279718995094299e-01
3.575668860656769921e-01,3.020099810626982184e-01,2.808946070369665593e-01,2.858484473508433182e-02,3.645314052513083658e-02,-5.064833272482384408e-02,1.372554898262023926e-01
3.643385323396969300e-01,3.183736203026542588e-01,2.983113962173081224e-01,1.814662718711184189e-02,4.477294015976197861e-02,-6.927826384692933881e-02,1.575995087623596191e-01
3.651237802212425332e-01,3.248376247506824521e-01,2.517041841867748708e-01,7.606434261065390251e-03,9.873700521462736718e-03,-3.921974998473443108e-02,1.224677488207817078e-01
2.687493405986618455e-01,2.178186087674032767e-01,3.879139650163753728e-01,1.502151138933448260e-01,6.026388739123668013e-04,-6.458698713374204890e-03,3.011366128921508789e-01
2.321206850739202243e-01,2.878386448057456137e-01,4.723093330196400097e-01,1.281503107680340425e-01,3.384776473836172833e-02,-3.501101679616069884e-02,3.221709132194519043e-01
3.539675013811717230e-01,2.861479962696785728e-01,3.770085309053504696e-01,6.040428562520336331e-02,-2.893554293580524739e-02,4.809851081009205997e-02,1.645941585302352905e-01
3.141270445762378016e-01,3.012832285411685684e-01,3.908991789323754129e-01,7.614815980885650260e-02,-8.495037536463980431e-04,-9.883133316136908861e-03,1.572761684656143188e-01
2.814370200662414945e-01,3.232722296896899383e-01,3.528931074625301645e-01,2.957290201045034705e-02,1.871929744639658222e-02,-1.120970574244552730e-02,8.898682892322540283e-02
2.979597552784319925e-01,3.336745111069391867e-01,3.373185290500093636e-01,1.296747210108003395e-02,1.349017409277341976e-02,-1.141090948168069913e-02,5.347910523414611816e-02
2.745256068090888291e-01,2.921659710918173003e-01,3.890857294115914744e-01,5.779618769033433717e-02,2.378353028876303843e-03,-6.768963739965514446e-03,1.469351798295974731e-01
3.291219223792922755e-01,3.457089954575744417e-01,2.865398532813404620e-01,-1.293707450731268818e-02,-1.866585283135976242e-02,-2.211651527927406893e-02,7.621969282627105713e-02
3.520096548473632403e-01,3.603043627468766053e-01,2.418398613517251938e-01,-3.363136747720838881e-04,-2.486997550782331715e-02,-2.842103094330904536e-02,1.319058835506439209e-01
3.490198855167259695e-01,3.545762536245364860e-01,2.232701768460840230e-01,-3.306267436831388656e-03,-1.692683230157330035e-02,-1.528321876509120686e-02,1.346686780452728271e-01
3.445144358413530505e-01,3.162267315821976621e-01,2.988357500264832156e-01,-1.178710115538801617e-02,-9.754400500016427444e-03,-1.796969604318429670e-02,5.714519694447517395e-02
3.149589140742801163e-01,3.325972934692000837e-01,3.168608067729418720e-01,-2.872553025928004100e-02,-3.312058908525018081e-02,-2.403702282140296465e-02,8.820945024490356445e-02
3.349025171618558172e-01,3.136814803893159254e-01,2.764263494673131483e-01,-3.255033810867948019e-02,-4.123424918558305646e-02,-5.111038279363935150e-02,1.369125545024871826e-01
3.616434572569579009e-01,3.737776162284131565e-01,2.430493488551857539e-01,1.246590337422566561e-03,-5.668111020172790504e-02,-2.099124180119137095e-02,1.631430089473724365e-01
1.733195600184345431e-01,4.206471770166859137e-01,4.028008620915917715e-01,-1.082703267706143502e-01,4.328821970891127274e-02,4.722485872452108352e-02,3.233498334884643555e-01
3.563594966239135298e-01,2.506182105079350908e-01,3.688884569281052350e-01,3.375902886196911062e-02,-3.089346850708215436e-02,4.621755501382845271e-02,1.592276543378829956e-01
2.151780329285793436e-01,3.301271172500248596e-01,4.106834599745143866e-01,-1.779066962371916305e-01,3.943872610721928934e-03,1.987955691297102132e-02,3.537614047527313232e-01
2.146476084139664064e-01,3.508211521972945945e-01,3.855337719086781023e-01,-8.168054254907614053e-02,2.811308111051196226e-02,1.261510566171223507e-02,2.175746560096740723e-01
1.603438613385047562e-01,3.374621378998786669e-01,4.123921891354781488e-01,-1.164013838405794227e-01,-2.852427210081781919e-02,-1.491968754340226681e-02,3.066160678863525391e-01
2.330564369387230494e-01,3.576222453399131584e-01,4.091543127775980060e-01,-7.969654026657417567e-02,-1.029384907595619694e-02,-1.190092651918568840e-03,2.096856832504272461e-01
2.351782840042351830e-01,3.576211917836467635e-01,3.754380546132890517e-01,-7.620119045983525519e-02,-1.293151559474683791e-02,-1.163211813810452119e-02,1.892583221197128296e-01
3.522004880110852776e-01,2.229550369207256855e-01,3.617883476059777226e-01,3.624434839061424496e-02,-1.775541263354636331e-03,1.829781617050422332e-02,1.516256779432296753e-01
3.600759680549208697e-01,2.682641457728018319e-01,3.024875920707856269e-01,-2.384970110714730585e-02,-1.843281265135146216e-02,-5.984762401485431427e-02,1.411718130111694336e-01
3.765542556849894584e-01,3.328504577123319041e-01,2.445718981444116591e-01,-4.902081561018862416e-03,-2.739407246776582802e-02,-8.247449181649854633e-02,1.905013322830200195e-01
3.428042417107597939e-01,3.254478808114660837e-01,2.908938550657592659e-01,-1.597655298306350363e-02,-1.750897231893755804e-02,-3.324341730644080062e-02,8.423641324043273926e-02
2.157866039826306925e-01,3.618819827540468159e-01,3.489880613333643522e-01,5.747248852182924861e-03,3.198949458431123855e-02,-1.840062814055996171e-03,1.510152369737625122e-01
2.115557943761943727e-01,3.611721619244236403e-01,3.661527272390001086e-01,-5.532617285872541875e-03,4.172902719038053959e-03,1.067668127782200101e-03,1.526516526937484741e-01
2.040758223501991653e-01,3.661733883835550651e-01,3.666496675358695279e-01,1.186039360715453444e-03,4.496767031869399085e-03,3.283085315708690350e-03,1.626353859901428223e-01
1.917056105691692935e-01,4.194380148908887218e-01,4.103769534998342738e-01,9.086043031981396942e-05,3.425600262098660916e-03,1.402136238924933664e-02,2.247346788644790649e-01
1.898325909870079431e-01,3.821158049261301204e-01,3.597937173094740149e-01,1.258872633883187896e-02,1.519556493620674575e-02,2.197240362022740388e-03,1.853687465190887451e-01
1.838658535849703179e-01,3.779296071393327683e-01,3.661559588704351720e-01,6.948768076647825805e-04,2.812191722426447132e-02,1.923775848425374625e-03,1.946781873703002930e-01
1.924698287954358378e-01,4.044291051946184989e-01,4.129162549593494713e-01,8.949084276513140238e-04,7.733001644098878163e-03,5.892392678204911270e-03,2.169876843690872192e-01
2.878992237465234361e-01,3.955075755715318220e-01,3.551051973387427951e-01,4.048387015410063322e-02,7.036686408101705537e-02,-2.781877689082683583e-02,1.759467124938964844e-01
1.868090092822245474e-01,3.841587252576406653e-01,4.115869199961457170e-01,8.865447040720583413e-03,6.618218657202854134e-03,8.479655439778374312e-03,2.137640416622161865e-01
4.073120230074939174e-01,2.012542040150517297e-01,4.648947824199112233e-01,-6.233202671642144865e-02,1.656793465221346670e-02,-9.297688826212876026e-03,2.652916312217712402e-01
3.702456743623548929e-01,1.839686431599000804e-01,4.034841597640016486e-01,-3.826541790217159733e-02,8.952797494367803390e-04,-1.452769692626695516e-02,2.168496847152709961e-01
3.741188167010769949e-01,2.130527994735298414e-01,3.752312248522305382e-01,-2.621318018732364530e-02,9.029661998507892279e-03,-9.195794740224166874e-03,1.693586558103561401e-01
3.738060475048490261e-01,1.527127355341773574e-01,3.771741260237138627e-01,-4.030106217738952529e-02,-7.719083741236329108e-03,-3.109804068794490284e-02,2.399808317422866821e-01
3.536648308735938495e-01,1.542172775405371565e-01,4.121874993675015975e-01,-6.760349352292288616e-02,-2.377051087675815209e-03,-6.003315404785351805e-02,2.818084657192230225e-01
4.056741087653910616e-01,2.108643498016149476e-01,3.721296495778416147e-01,-1.071634882407623141e-02,-8.754741645234737080e-03,-3.626979134904178420e-02,1.925155520439147949e-01
4.208417453207159431e-01,7.770305635061802718e-02,4.995052279132236039e-01,-2.932797574166902399e-02,1.357019467307245611e-02,-3.692453170134368801e-02,3.976778686046600342e-01
4.718503613706976907e-01,1.182526067477031873e-01,4.255295103814148994e-01,-5.272283310690273339e-02,-1.910441563497639397e-02,-1.691002337139220230e-03,3.467573225498199463e-01
3.653980259432903499e-01,3.199559284395181447e-01,2.532107824437214161e-01,1.925797867269565984e-03,-6.806386401980084842e-03,-4.581355556635696713e-02,1.264898777008056641e-01
3.673031639459780617e-01,3.393321555984376570e-01,2.612942022704156098e-01,-6.201845325379435302e-03,-1.433594844169989654e-02,-4.645389558806027608e-02,1.275183856487274170e-01
3.573707844831267022e-01,3.263640118763455611e-01,2.531847609007115696e-01,4.342108205068117774e-03,-6.376698996772603781e-03,-4.683377881953267041e-02,1.238726451992988586e-01
3.592053469925068354e-01,3.472108234530292825e-01,2.566633410861542397e-01,-1.047770342120031041e-03,1.031716405425761769e-02,-2.531965334984156643e-02,1.080493777990341187e-01
3.665072337520118295e-01,3.474763390674470154e-01,2.336092770602241631e-01,4.849671279909699212e-04,5.364610272205290985e-03,-3.648161702661933958e-02,1.399094015359878540e-01
3.657858808189260458e-01,3.163203464970190670e-01,2.386038525595432780e-01,1.434463851622034408e-02,2.589059967538698617e-02,-7.205455593579754292e-02,1.747421920299530029e-01
3.161903226474119810e-01,3.183490880237097032e-01,3.216521760319588363e-01,-2.676357582780014869e-04,-7.986020776833532755e-04,-1.457053846667663100e-03,5.585557315498590469e-03
3.258090135866569259e-01,2.813402590597324782e-01,3.563150780493887781e-01,-2.517167181228163741e-02,-8.243223239742525355e-03,-9.043518929198223963e-03,8.133082836866378784e-02
2.996910545378382862e-01,3.148090429641958732e-01,3.411122777995134747e-01,-2.451009966306707481e-03,4.931915012282712648e-04,4.693048943930495627e-04,3.657155483961105347e-02
3.013978802177778027e-01,3.011890122612192466e-01,3.485317034870015762e-01,-1.372929594699342885e-02,-2.075686543746409641e-03,-2.936723145004041784e-03,5.325189977884292603e-02
3.270910516564545234e-01,3.040873909137464803e-01,3.263887822697547070e-01,2.507656615021920145e-03,6.688503847699555672e-03,-3.096023255646323819e-03,2.636922709643840790e-02
3.009557210029967789e-01,2.934779874743015382e-01,3.454717349630858636e-01,-2.978854730660658590e-02,7.892686925820447535e-03,9.561589730333559800e-03,7.411949336528778076e-02
3.086966720234002315e-01,3.155267112244289907e-01,3.664490532208831697e-01,-3.457154744817422798e-02,1.152151401102864242e-04,2.741548557591836754e-03,8.121391385793685913e-02
3.045035457003495427e-01,2.826998470975034539e-01,3.469464667116810008e-01,-2.955511438291400644e-02,5.201596593400303024e-03,5.387371585145841676e-03,7.740136235952377319e-02
3.010624972411365952e-01,2.842950711222692051e-01,3.444601733346325800e-01,-2.999239226055925439e-02,8.276636590255561851e-03,6.854178763015777130e-03,7.705355435609817505e-02
3.040358881482395637e-01,3.689882051352598169e-01,3.280026871054307347e-01,-5.537149230295625169e-02,-7.276228793058928113e-02,-5.667266934436778619e-02,1.948151588439941406e-01
2.944807528799715524e-01,3.185077718006631420e-01,3.312237903552089913e-01,-2.478794342395549896e-02,-1.802749408571716755e-02,-1.420994227320753270e-02,6.684750318527221680e-02
3.170103696164105478e-01,2.922007275129862580e-01,3.105277298717853962e-01,-4.559231957918033484e-02,-4.029677078166291754e-02,-4.586925105298427646e-02,1.338512003421783447e-01
2.769794039188039347e-01,3.473053242631718995e-01,2.973868410515720928e-01,-1.015653036831797420e-03,-3.750954674769797076e-02,-1.344490791940972487e-03,9.031302481889724731e-02
3.280871807061815359e-01,3.137638749098671798e-01,3.336653921131407241e-01,-2.805080977569009842e-02,-2.268328718743743352e-02,-2.584034868927966022e-02,7.888904213905334473e-02
3.126993672236167421e-01,2.815660452834057859e-01,3.496820061784605693e-01,-2.844987673754564503e-02,3.636089503100925838e-03,4.221977882222339475e-03,7.752236723899841309e-02
3.480957221798803847e-01,2.419339230072181102e-01,3.697563836216798405e-01,-6.500139398096382859e-02,4.470663372268047814e-04,1.748996935820598805e-03,1.634758859872817993e-01
3.070202525564139640e-01,2.770185374022877678e-01,3.641276806581268399e-01,-2.781530821668586062e-02,-3.845597178789390488e-03,-4.090188111211188180e-06,9.077511727809906006e-02
3.234167238098330510e-01,2.737453056261685003e-01,3.608186989240700360e-01,-3.088495835814635687e-02,7.071289993600633544e-04,-5.649177420114998363e-03,9.318180382251739502e-02
3.065726761264258027e-01,2.812666476094627943e-01,3.513390464733234242e-01,-2.733277472984943501e-02,-3.821441729122096106e-03,-6.361182069389291135e-03,7.863668352365493774e-02
3.383082987337170389e-01,2.550184218218730647e-01,3.626080230634092794e-01,-4.016898670594263449e-02,-5.519540125668799015e-03,-6.089520131363793283e-03,1.208092942833900452e-01
3.324232699966740423e-01,2.495322450135811776e-01,3.434914262545871178e-01,-4.538427409570551518e-02,1.991492708654044042e-02,4.718731347526634173e-02,1.481884419918060303e-01
3.807958139263271091e-01,1.983675281104921306e-01,3.795613174724995487e-01,-6.169075884702567014e-02,2.882402680676450588e-03,3.057862954673153631e-03,2.110133171081542969e-01
3.484885591723694276e-01,2.702240594794392270e-01,3.556424116954864934e-01,-1.591948740767487949e-02,8.271719128603523957e-03,2.071670421249096131e-02,9.481298178434371948e-02
3.905959812184488511e-01,1.930735067350268785e-01,3.857415534549277769e-01,-1.872894742222330766e-02,2.743403524314460933e-03,5.492704811692813993e-02,2.195579111576080322e-01
3.780541965896439538e-01,2.139655028534462877e-01,3.752555402424579967e-01,-5.397877071381040892e-02,-1.290881902344719577e-03,2.997873399851812282e-02,1.947203129529953003e-01
3.927990776621024249e-01,2.633357592955927196e-01,3.348882446069392227e-01,-3.886889462394729766e-02,3.104899186257265714e-02,6.834031551513244929e-02,1.845339387655258179e-01
3.770560047354457600e-01,2.675398613387147684e-01,3.219887892959500397e-01,-3.032311474470632262e-02,1.911444591831148966e-04,6.263698395155695153e-02,1.533759832382202148e-01
3.147858315797992801e-01,3.240737985507008423e-01,3.118165067828381765e-01,3.487546477031181272e-03,2.404438350600372580e-03,-1.718653347753847744e-03,1.361456699669361115e-02
3.859074784059225993e-01,2.017755094174730202e-01,3.594192628015316360e-01,-2.109636481000822655e-02,1.482665180427860524e-02,7.413211698729657573e-02,2.195683270692825317e-01
3.198237422995203749e-01,3.100479744700528340e-01,3.314285489220217262e-01,-8.696585657353490817e-03,-7.597393921303508338e-03,-7.957371306093304758e-03,3.055642917752265930e-02
2.825348447510921401e-01,3.253538353048129883e-01,3.479470836638599573e-01,-4.008195176927043663e-02,-2.656984134419893007e-02,-1.917434458397407684e-02,1.065451353788375854e-01
3.359925208885167214e-01,2.903992128576183274e-01,3.124272828793094869e-01,-2.967532546194355525e-02,-3.274567255562567392e-02,-5.906950203727105719e-02,1.337384879589080811e-01
3.032111336514228261e-01,3.180622775564848070e-01,3.153958127127362010e-01,-1.563997422801338341e-02,-1.813710826645114835e-02,-1.435622210527790626e-02,5.026987567543983459e-02
2.915159229893427018e-01,3.258839321401645339e-01,3.264924484612125033e-01,8.389901180339515846e-03,3.843124392332922939e-03,-8.469766727659597608e-03,4.090397059917449951e-02
2.903014400325704125e-01,3.412556460565149274e-01,3.381992813314163571e-01,1.038801141888229598e-02,1.103318707540431806e-02,-1.156201071741136226e-02,5.949709191918373108e-02
2.889962512703033171e-01,3.387753734090900304e-01,3.281329643858467704e-01,9.505164609715064869e-03,1.322623378177589099e-02,-7.396097381658015002e-03,5.496729165315628052e-02
2.992262505084022917e-01,3.330335705696780280e-01,3.360146863769762349e-01,1.737994781034305630e-02,1.486917868564061398e-02,-7.919478083995864712e-03,5.486551672220230103e-02
2.835558774668499038e-01,3.398535610172014887e-01,3.321670525567825827e-01,1.460667845454662050e-02,2.396119318792818212e-02,-5.303434369579242309e-03,7.240607589483261108e-02
3.577591778759173224e-01,3.593001673952311292e-01,2.236173149157444362e-01,6.168266406440068173e-04,-9.789485061364084501e-03,6.357437992768054033e-03,1.364295482635498047e-01
3.839599148585548516e-01,3.755099271755687473e-01,2.099159230797194575e-01,-6.824899843061898660e-03,-4.602716377034829325e-03,2.966977591343517365e-02,1.781466305255889893e-01
3.618687451793176635e-01,3.571616895439138073e-01,2.534984751794526203e-01,3.998249306209605142e-03,-2.301159515227144364e-04,8.410595254859766848e-03,1.073149517178535461e-01
3.586624527453410871e-01,3.558065892280699583e-01,2.365873120797286067e-01,1.145433448691380934e-04,-2.011095748530728790e-03,1.092289292922294514e-02,1.221964284777641296e-01
3.871847400241318349e-01,3.763057123831221040e-01,1.964657200088505140e-01,6.043915147404124895e-03,-1.011373227230524113e-02,-1.453654612097129246e-03,1.866548955440521240e-01
3.920787524502378218e-01,3.955446991678476243e-01,2.022019665235341990e-01,-2.146051092124558364e-03,-1.881818069509311989e-05,-2.203686827746694291e-02,1.954328417778015137e-01
4.034105193881900586e-01,3.808246047928526279e-01,1.933417915782343621e-01,-2.374851328216515903e-03,-2.270095928961768719e-02,1.937648568681514354e-03,2.036383599042892456e-01
3.643045100524506807e-01,3.727562596996492061e-01,2.274510593346971143e-01,8.908925398656085404e-03,-1.640763126078458728e-02,-3.658849234021910833e-03,1.450615376234054565e-01
3.620417736197170666e-01,3.766463812190312677e-01,2.284372541302118476e-01,2.844995184615944830e-03,-1.096791546117983039e-02,-5.743778810618925014e-03,1.431741714477539062e-01
3.606763945948909811e-01,3.614931315690748104e-01,2.419264073500278223e-01,-1.021944210631790329e-03,-3.964609566769247001e-03,1.322251389875423811e-03,1.193932443857192993e-01
4.223504008857148495e-01,4.265724233673063304e-01,1.165699881869572407e-01,-3.774837105345421606e-02,1.143764679814821550e-01,-1.189873426677581433e-03,3.719348013401031494e-01
3.411179735559962123e-01,3.757088544604628155e-01,2.374819015220158702e-01,2.213053230831496694e-03,5.432838024924279557e-02,-5.509288032199495012e-03,1.564681977033615112e-01
3.427275191764680429e-01,3.582987153439863848e-01,2.536898121121147764e-01,8.847474322609006486e-03,1.666001158597644333e-02,-7.412866909636625298e-03,1.038698777556419373e-01
3.619117488525437354e-01,3.848073438585756789e-01,2.284415646188830695e-01,1.606610984205180184e-02,4.598731576176913471e-02,1.700604385870313484e-02,1.714084446430206299e-01
3.442075553614589167e-01,3.609218820973468800e-01,2.470590375503438629e-01,-1.639076922773993012e-03,1.661213025365523149e-02,1.888684844418421320e-03,1.103975772857666016e-01
3.403670150010120188e-01,3.555992040542078625e-01,2.455228924285064174e-01,3.229655411638185456e-03,1.853498767377022294e-02,-1.544618055923649164e-03,1.083568036556243896e-01
3.321622432038714434e-01,3.224754577904768160e-01,3.110410954942425255e-01,-7.877149547985707115e-03,6.950675980875617617e-03,8.504258641188368675e-03,2.972191199660301208e-02
3.234205776083937667e-01,3.091217253599431447e-01,3.109170282868680135e-01,-5.901321630852890930e-03,6.115114763688074204e-03,7.448045418807645174e-03,2.377162873744964600e-02
3.339467814576060900e-01,3.109997071941890123e-01,3.180277953925835788e-01,-5.566427647676216138e-03,5.701621930363325041e-03,1.021234727346389051e-02,3.029925934970378876e-02
4.157377366131331242e-01,1.878760618196701759e-01,4.112307389306612548e-01,1.180611107855147335e-01,-2.977754653566016402e-02,-5.172530384823108285e-02,3.215838670730590820e-01
3.881080483951968585e-01,2.283894378436782668e-01,4.021685445932658975e-01,4.161728021742158029e-02,-1.584241710338430776e-03,1.076419101283084857e-02,1.830425709486007690e-01
3.419850825817217221e-01,3.267098777868193693e-01,2.948981477053553846e-01,6.077388599613513763e-03,7.581432101485527375e-03,-5.615322211930895424e-03,4.592474922537803650e-02
3.443745522492979161e-01,2.357892440844139847e-01,3.720887523622650184e-01,3.754988007589601245e-02,-5.566574927663771669e-03,4.721381340702371886e-03,1.412728428840637207e-01
3.225215529650133361e-01,2.407083881912093770e-01,3.586311755907073962e-01,5.515476338328584305e-02,1.495567852808764309e-02,-2.435005301933262922e-02,1.500915586948394775e-01
3.484385271209566315e-01,2.493486221137320991e-01,3.606964985058331852e-01,4.103529451736261796e-02,1.119633057539788125e-02,-1.846423527658631533e-02,1.327940225601196289e-01
3.250129785311460240e-01,2.454807303736666613e-01,3.715245802293030697e-01,4.995475361196395625e-02,-9.615907624237016171e-03,1.089530789921515537e-02,1.425055563449859619e-01
3.174691571306260118e-01,1.799618090170946316e-01,3.943951744101538148e-01,1.097261010354443206e-01,2.018530586215965678e-02,-3.937413835284390290e-02,2.782023251056671143e-01
3.435105731198286882e-01,2.598660981806847903e-01,3.993137540438986832e-01,7.954611104435199698e-02,6.254203672433724867e-03,-8.819973737900395350e-03,1.846929639577865601e-01
3.174940370410914703e-01,3.308565913187850871e-01,3.061040204565297906e-01,4.630495135048827253e-03,1.821805480222556724e-03,-1.631087453031432712e-03,2.329705469310283661e-02
2.681898988317268917e-01,3.481496879242643727e-01,3.591110273589143143e-01,2.546911308806309310e-02,7.271333697000636510e-03,-3.551001534822608319e-03,9.763532876968383789e-02
2.615662220861661447e-01,3.374827726708301001e-01,3.677340575373130305e-01,5.864532886765305708e-02,2.152889949582847615e-02,-3.305608009668281611e-02,1.547948718070983887e-01
3.202852275579974872e-01,3.239529195539721518e-01,3.059616475798358493e-01,6.606670876147076148e-03,3.923999417723779241e-03,-2.887161839673827064e-03,2.175536938011646271e-02
2.877612564217044144e-01,3.243710931275338161e-01,3.372578343638338305e-01,-3.086519169493576881e-02,1.622219787376368710e-02,1.691946149962567092e-02,8.052573353052139282e-02
3.257190136778249090e-01,3.169233759370721493e-01,3.134597072011272023e-01,-1.012317992082456368e-02,1.246739940191249167e-02,1.033780964734896946e-02,3.484509885311126709e-02
3.213907327102142331e-01,3.327524262203731542e-01,3.075056386056196356e-01,-5.669927109297223135e-03,9.168825110512956664e-03,5.722272920244563313e-03,3.043881803750991821e-02
3.107357977401104532e-01,3.170963211533605053e-01,3.213932280009591524e-01,-6.182022843477066529e-03,7.431674136492738211e-03,7.326161954423695763e-03,2.296975813806056976e-02
3.151838823880900864e-01,3.256953859820692632e-01,3.177617060818782035e-01,-1.332269874206764432e-02,1.284197911494497531e-02,1.175425921990156698e-02,3.913770616054534912e-02
3.152670768493098796e-01,3.237751492566986466e-01,3.213314108507083211e-01,-5.277783198319399398e-03,4.482896230832025472e-03,4.969889925045235628e-03,1.659882999956607819e-02
3.149249549354106725e-01,3.249248018300059382e-01,3.143129666750043016e-01,-5.487811739480447787e-03,5.250106467837890867e-03,3.542810111771591084e-03,1.780968345701694489e-02
3.137960678095945699e-01,3.607720494576798775e-01,2.485242733972155005e-01,6.601744368405969461e-03,-5.450902907402818687e-02,1.812666323307992678e-03,1.363365948200225830e-01
2.927675351970745465e-01,3.373298510150874452e-01,3.272450668436140964e-01,-2.397488982371144203e-03,-3.687023168243909466e-03,-5.673185529109653520e-03,4.234008491039276123e-02
3.347901872942927737e-01,3.606096849348298106e-01,2.798032976010650374e-01,-6.946347822946624326e-03,-3.112072875760413249e-02,-8.920390412770989527e-03,9.164558351039886475e-02
3.346387183423664702e-01,3.560070807388429626e-01,2.408416331108477748e-01,-1.933153899083113816e-02,-5.578966814818962089e-02,-2.109105828694666368e-02,1.518284380435943604e-01
3.192553133899383444e-01,3.230593200671015852e-01,3.082362725133863113e-01,5.319410407065620038e-03,3.139273773869713253e-03,-3.112264331175642468e-03,1.792535372078418732e-02
3.123396486342955303e-01,3.977470103259784229e-01,2.492084645304002144e-01,1.258438709936202885e-03,-5.668692752914158278e-02,-6.560017775092835852e-03,1.626219749450683594e-01
3.435857308163617341e-01,3.613543422170455433e-01,2.635058443536662520e-01,3.337532271915791791e-03,-2.230501275610148257e-02,1.137564219232656618e-02,1.003274321556091309e-01
3.132453272556909307e-01,3.623218992136510441e-01,2.997331138416851060e-01,3.860966673467014325e-03,-3.764778214393137146e-02,1.656245280159332131e-03,8.694388717412948608e-02
3.256325963835660087e-01,3.136641544664923176e-01,3.177716781303458471e-01,2.981625222172165548e-03,2.581900447001940491e-03,-2.771233537998977082e-03,1.344108581542968750e-02
3.323049446575576660e-01,2.979424716685195040e-01,3.415473808759356134e-01,2.742052187050178849e-02,-1.285581463115639117e-02,1.788739254402237772e-02,7.276772707700729370e-02
2.686358214726888294e-01,3.371737604295787505e-01,3.398338851044945264e-01,3.388551488326083105e-02,-2.143832129753121471e-02,1.815510097789605620e-02,1.034367308020591736e-01
2.646421558084926517e-01,3.308471545985367523e-01,3.560913827273812227e-01,2.493947217686032572e-02,-4.672878677885381610e-03,3.478058268530937196e-04,9.286263585090637207e-02
2.941600058494087122e-01,3.200679172639474546e-01,4.033304088072393601e-01,8.440399141939555760e-02,-1.299223745576428071e-02,9.154372432889662514e-03,1.785802990198135376e-01
3.412700001855074050e-01,2.901196245449592093e-01,3.153618463521395410e-01,-4.638063417505549658e-03,6.351271816763762873e-03,7.550751006594802472e-03,4.815572500228881836e-02
2.852467768577094942e-01,3.285490289626359361e-01,3.420026559496434637e-01,1.968257013321928275e-02,-8.626073906212219575e-03,7.577080908671240608e-03,6.477910280227661133e-02
2.758340908975328021e-01,3.358955462621689425e-01,3.461466203678428277e-01,5.507682916434283177e-02,-3.357911550301136139e-02,1.324566267700300580e-02,1.316720992326736450e-01
2.789037326178052667e-01,3.131456661907963124e-01,3.407848864154801594e-01,4.707913067550351105e-02,-3.204241238658442348e-02,2.359871011664994161e-02,1.195116564631462097e-01
3.072328707363283784e-01,3.032668895740376347e-01,3.413630616798459250e-01,4.282547670438985842e-03,-9.982022393362410470e-04,4.483424904322007212e-04,3.707521408796310425e-02
3.546174918805198861e-01,3.543191234046419447e-01,2.342118158404198347e-01,-2.035154223501424952e-05,3.120796245884673633e-03,-1.445196845644696349e-03,1.204042211174964905e-01
2.186019004768646745e-01,3.867008984040150588e-01,3.928117602401497432e-01,-1.129384739252554991e-03,1.025101425993460956e-02,-5.284399929787812452e-04,1.721678227186203003e-01
1.345836775592031687e-01,4.384876647919955239e-01,4.385831267237694786e-01,-2.804152521428245060e-03,-5.642071896475073234e-02,3.640922179942153447e-02,3.254796862602233887e-01
1.523734303981026383e-01,3.780223963561408773e-01,4.701438755824385307e-01,6.730754033174210504e-02,-4.038932177715323646e-02,2.021200896181875317e-02,3.160717189311981201e-01
7.974464565423824980e-02,3.825552959661228103e-01,3.927809595331476777e-01,6.982785521611849233e-03,1.578468768786080167e-02,-2.116747934209874051e-04,3.094982504844665527e-01
1.219569565896512775e-01,3.727936959575841036e-01,3.877937554485160754e-01,7.619348298957076548e-02,3.209447396769123670e-04,2.569036171832539319e-03,2.904188036918640137e-01
3.331878561133819194e-01,2.977032671751389525e-01,3.163876324111360439e-01,-3.183058009065264059e-03,6.150155288509641556e-03,6.830345573366340337e-03,3.505829721689224243e-02
2.271180668165152794e-01,3.848496730082140993e-01,3.742316631374923985e-01,-2.223229918260833174e-02,3.257426873412803958e-02,1.320039193588228021e-02,1.688372939825057983e-01
1.525891489326456074e-01,3.893403666267511998e-01,3.470183288122228871e-01,-4.905331043682921444e-02,8.640034987268609135e-02,9.843802198924955088e-03,2.787955105304718018e-01
1.696856896574882589e-01,3.993631228053753923e-01,3.471280004803148911e-01,-2.474027487189104767e-03,1.164677410977005556e-01,-1.287001182340618156e-03,2.901732921600341797e-01
2.262336387111446578e-01,3.870201256745348650e-01,3.550024876720833111e-01,8.271906452496105566e-03,8.118860525639484682e-02,7.598801939745795583e-03,2.046526074409484863e-01
1.154196171869438792e-01,3.914759504420991520e-01,3.840228692426722601e-01,2.511449089954926467e-02,5.849403349948004843e-02,2.391732227635638783e-03,2.939034104347229004e-01
1.418085066777721448e-01,4.194558309972958865e-01,4.300078255627866608e-01,-5.018413294495321919e-02,6.087630497673773844e-02,-2.738184840021737343e-02,3.178860247135162354e-01
3.019182216870708313e-01,3.387707320558023261e-01,3.027458972553556671e-01,4.309834899864153045e-03,-1.285304227112689206e-02,4.571729582145319000e-03,4.407174885272979736e-02
2.784611105201694192e-01,3.580277807675513735e-01,3.063961839654709696e-01,4.735139428423634431e-03,-3.425104386634725273e-02,8.911051294171046591e-03,9.334564954042434692e-02
3.030606709532244758e-01,3.415145070184052445e-01,3.022903577563352262e-01,2.709854500857653784e-03,-1.221717470299358427e-02,3.801270536329184012e-03,4.496742412447929382e-02
3.167312434409571553e-01,3.181565819607363732e-01,2.929245043341479615e-01,-3.707039294548124253e-02,-5.112370242524569980e-02,-4.263079727555327963e-02,1.342327147722244263e-01
3.238641474866049697e-01,3.057954899022456430e-01,3.180320922355805990e-01,-9.625529968952000956e-03,-1.047225539605121415e-02,-1.135698566961253382e-02,3.534136340022087097e-02
3.112746919666781187e-01,3.209833354713313991e-01,3.117197934997535391e-01,-8.978405811992532307e-03,-8.635380497606724715e-03,-6.286965383773930431e-03,2.596645988523960114e-02
3.105952704377600848e-01,2.959068026503904880e-01,3.401113416154024072e-01,-2.542953500714810466e-02,-1.145462958622027981e-02,-1.540352279878062086e-02,6.757152080535888672e-02
3.224114703973232077e-01,2.932576652798389305e-01,3.198755203345077236e-01,-2.238126854681576558e-02,-1.673806048937846042e-02,-2.152504113418882842e-02,6.719878315925598145e-02
3.235013710499614059e-01,3.140297016057415624e-01,3.231874439104943653e-01,-2.433448992073900322e-02,-1.665340061875616312e-02,-3.135180652635003590e-02,7.512758672237396240e-02
3.206357198598785430e-01,2.927185639223550684e-01,3.237912850881000115e-01,-2.419620407446415253e-02,-1.586338027780013690e-02,-2.288707993497759996e-02,7.042857259511947632e-02
3.043325550223754394e-01,3.244484095983856675e-01,3.232583839967141937e-01,-1.479003630866425681e-02,-9.148081280606816176e-03,-1.445801714744573280e-02,4.377814382314682007e-02
3.044222915752950454e-01,3.420979394937417317e-01,3.095117167192764085e-01,2.464520239761434656e-03,5.153650041418220487e-03,2.384467599118320010e-06,3.676290437579154968e-02
3.022028497036532979e-01,3.412740419861614027e-01,3.089677448743575194e-01,1.506313491807017294e-05,3.828636518174785043e-03,-3.584317399590704551e-04,3.677459433674812317e-02
3.087464634936571417e-01,3.447465516314095479e-01,3.078504248478631800e-01,-1.434405039484956679e-03,8.952478088335626832e-03,-1.374192904111376089e-04,3.969554603099822998e-02
3.157765792080773903e-01,3.517350525872547373e-01,2.983651882388375087e-01,2.626015222900427489e-03,1.687395627479079674e-02,-2.697662735321726228e-03,5.584770813584327698e-02
2.891579278881138970e-01,3.438978731466518224e-01,3.147749752415623936e-01,7.913654216190689050e-05,8.563979770681880502e-03,1.085872432052221569e-03,4.973932355642318726e-02
2.971381927876153295e-01,3.434648127058214651e-01,2.949355216921076273e-01,-2.377396905759019807e-03,2.109730295902775832e-02,1.891065177501709445e-03,6.013337522745132446e-02
3.523798503241948321e-01,3.843406896359050640e-01,2.393294409481129537e-01,1.445085908115313622e-02,4.904776237075917505e-02,3.640226023569224575e-03,1.590545922517776489e-01
3.464524430920114528e-01,3.631021278041748346e-01,2.118187341118822065e-01,6.289140656864812030e-03,3.970350592073788182e-02,-1.999188805511041903e-02,1.633764058351516724e-01
3.198205168859638015e-01,3.273802084161206438e-01,3.049669828490650381e-01,6.045355378926572064e-03,-3.173869809637605826e-03,2.099871223201104850e-03,2.330562658607959747e-02
3.339440354062945815e-01,2.879172453097290085e-01,3.330842202822021370e-01,6.875975873215933905e-03,-6.886759556423709301e-03,7.191406156418082493e-03,5.018863081932067871e-02
3.772453136602414991e-01,3.912219646191761324e-01,2.326433267882686562e-01,1.060126735434466401e-02,5.366799873478404759e-02,-4.325117499289071743e-02,1.942061930894851685e-01
3.962726689326080409e-01,4.818907504415158582e-01,1.172968458741297793e-01,9.310097710523421166e-03,4.504806901014923870e-02,-2.040059425322502534e-02,3.415258526802062988e-01
3.469324270929294851e-01,3.730176496325280922e-01,2.127465757073511154e-01,7.313323128744197640e-03,3.988449728661395965e-02,-1.834479499910818268e-02,1.677167713642120361e-01
3.662981102068198491e-01,3.614961178738119174e-01,2.428027936627547012e-01,2.506572839436317646e-03,3.448889871066772306e-02,-1.861351877678806693e-02,1.389525830745697021e-01
3.950106841992190865e-01,3.973130362482421574e-01,2.179636604544822887e-01,-5.260427043863107836e-04,3.386693777262934218e-02,-1.734187818977241807e-02,1.900066733360290527e-01
3.625820025072093999e-01,3.914003954139506636e-01,1.951919363302472843e-01,2.238048949638610664e-03,1.101593762789241336e-02,4.194496597891929357e-03,1.846773028373718262e-01
3.639148404648517854e-01,3.949688199891862594e-01,1.994887190778090458e-01,-3.265102187185026789e-03,1.348420576002979689e-02,-1.949183334057084244e-02,1.866109073162078857e-01
2.619526194121421514e-01,3.520408883050832327e-01,3.153410474076809855e-01,-2.138418085536572186e-02,4.423838136979994090e-02,1.519327646507730861e-02,1.187097653746604919e-01
3.133340980188787928e-01,3.549804576006412860e-01,3.040207507268242182e-01,-1.108591753737584763e-02,2.889042226965382945e-02,6.522169395531007656e-03,7.217550277709960938e-02
3.270340158176721634e-01,3.614557487791540402e-01,2.793963007529342013e-01,-2.543228143525720283e-02,6.881059952948691272e-02,1.017461898831974708e-02,1.467979848384857178e-01
3.102894074099445398e-01,3.321138813526880451e-01,3.215586559485970608e-01,-8.685323767649128293e-03,1.474030144443153750e-02,9.358169715529831081e-03,3.870682418346405029e-02
3.447434223023483346e-01,3.146782952917220877e-01,3.132896309334209928e-01,-1.799083812678283281e-02,1.664888391967822220e-02,2.768072219528935549e-02,7.105508446693420410e-02
2.990410245631888175e-01,3.371181867185484848e-01,3.266573223953720961e-01,-1.068094820167691389e-02,1.640454469462131193e-02,1.093363256531337813e-02,5.166418477892875671e-02
3.492010399336532012e-01,3.160953479318321380e-01,3.163120129442732464e-01,1.553981420959073614e-02,-1.387657910592911964e-02,3.029345479696870375e-02,7.172222435474395752e-02
3.167819078479636730e-01,3.245807846133584862e-01,2.998534958962584263e-01,3.067745710222742617e-02,-3.470855960651839101e-02,3.596016345242246393e-02,1.039047017693519592e-01
3.329598654897009680e-01,3.367823525479333724e-01,2.865403186362497356e-01,7.633945035682482630e-03,-1.574829917879505548e-02,1.885089861400048722e-02,6.581603735685348511e-02
3.640793453084461007e-01,3.531245486298506542e-01,2.547146506580981740e-01,2.664243759588614396e-02,-5.532556212560293257e-02,6.262947455022878362e-02,1.842882037162780762e-01
3.491784983358073857e-01,3.602025418667689771e-01,2.555213863051880030e-01,3.764345497581714217e-03,-1.628023008182754097e-02,1.565135509919910600e-02,1.072296947240829468e-01
3.494601454960352682e-01,3.432246253061135288e-01,2.525672564558519850e-01,5.770520283825028920e-03,-1.602786171037100943e-02,2.209272722005185471e-02,1.056303754448890686e-01
3.310857495513588322e-01,3.690757411783585074e-01,2.725558533810337747e-01,2.479089579362777143e-02,-5.128418037084665065e-02,4.649388345554722468e-02,1.526812016963958740e-01
3.380429884453074463e-01,2.954736486423318320e-01,3.258646036799369150e-01,-1.594930645756120063e-02,1.632441942923063688e-02,2.828884501307981497e-02,7.352151721715927124e-02
2.851936791439618202e-01,3.625033276660836745e-01,3.160549379007129289e-01,-1.214931515048401755e-03,3.268010620716492454e-02,1.995586925782078750e-03,8.811168372631072998e-02
2.977097623705450280e-01,3.529230936881707636e-01,3.160081330314975512e-01,-3.694142112766863641e-03,1.768939952174729269e-02,5.863439522220546991e-03,5.878650024533271790e-02
2.978903895903997068e-01,3.489815340378606967e-01,3.174560084059355747e-01,-3.860261861312899723e-03,1.848294140123433321e-02,4.299092045665325705e-03,5.584350973367691040e-02
3.370898474662329392e-01,3.514025339394737935e-01,2.846201169492833527e-01,1.439992137549869072e-02,2.909876067417111259e-02,-5.540943778615085163e-03,8.344639837741851807e-02
3.161933249063951235e-01,3.346287787625781274e-01,3.008711762400239076e-01,1.005915434289669785e-02,1.371669277076146762e-02,-1.124838291341353005e-02,4.587685689330101013e-02
3.115487955389625307e-01,3.239416912377893198e-01,3.186331688717653488e-01,2.369847821772776836e-02,2.860411041937554674e-02,-1.028586607189579429e-02,6.762257218360900879e-02
3.152689189572889794e-01,3.235031359016001251e-01,3.176333885082776032e-01,5.879269265526424967e-03,7.517340132489077828e-03,-9.614080405425712642e-03,2.458543702960014343e-02
3.334901593572896505e-01,3.204797685072216518e-01,3.010239851948005030e-01,9.686565593888326817e-03,1.326171773203356150e-02,-1.337673356831846697e-02,4.633405059576034546e-02
1.677234285209886211e-01,4.176826735327914264e-01,4.965328931537372203e-01,1.178868836857983743e-01,-4.370651025704828940e-02,1.886903932820150828e-02,3.699961900711059570e-01
3.429946267329743170e-01,2.920555657218691925e-01,3.377567971692359561e-01,-9.770267397626555828e-03,1.176989589765413749e-02,2.186725965276278827e-02,6.702171266078948975e-02
3.094184190808206281e-01,2.939311414556898816e-01,3.338148503753510243e-01,2.171906117883121851e-02,1.516803143316478378e-02,-1.228217190803864572e-02,6.140677258372306824e-02
3.133515091522653950e-01,3.194713296279938497e-01,3.229190995471638570e-01,1.060560425754164537e-02,8.847344748106110088e-03,-6.051613963690282913e-03,2.743297629058361053e-02
3.062774059692857098e-01,2.988009712347186597e-01,3.344088304484434948e-01,1.976788533944429452e-02,1.284591001266630408e-02,-1.720123638815105813e-02,6.010494753718376160e-02
3.063294549639138942e-01,3.119801505944315156e-01,3.271621521018407419e-01,2.004907499536916562e-02,1.143275932637012778e-02,-1.401869683484527514e-02,5.035676807165145874e-02
3.150958684904571760e-01,3.545531165246688099e-01,3.111138543186228733e-01,1.375754962937875657e-02,3.554472053508002383e-02,-1.806936408724814022e-02,8.406811207532882690e-02
3.071891361185849489e-01,3.231718888576601834e-01,3.186905752805583303e-01,5.708128249035071891e-03,6.584108140506647958e-03,-8.265815217674754231e-03,2.523246966302394867e-02
3.068530155983542618e-01,3.146865283679911030e-01,3.420730112846064874e-01,2.918261165729179457e-02,1.845697402402477968e-02,-7.314799289365273363e-03,6.901658326387405396e-02
3.069440050310525692e-01,3.158974068746869257e-01,3.221776631259356538e-01,6.410937780754800454e-03,6.177907101786121041e-03,-7.865529814737327527e-03,2.447926253080368042e-02
3.079613858449597452e-01,3.272197884244212873e-01,3.480393110248516386e-01,2.831504721038439337e-02,1.856029185963276387e-02,-1.580618714683146644e-02,7.344028353691101074e-02
3.496704762607967254e-01,2.696032615126765508e-01,3.277807453704331131e-01,2.825734927094540345e-03,4.547170609360730179e-04,-2.598351672151480093e-02,8.477778732776641846e-02
3.220726036227390399e-01,2.611189266203009507e-01,3.257814636944241227e-01,4.394679564067908301e-02,3.058543878417306627e-02,-4.094225931461183826e-02,1.326059997081756592e-01
3.515359448711949941e-01,2.756543060309736837e-01,2.710466102657589915e-01,-2.518254469554679839e-02,-2.679320509242909612e-02,-6.987739362648391628e-02,1.575866490602493286e-01
3.521732289269254856e-01,2.857080725218187345e-01,2.713650948433584120e-01,-3.328800349979280093e-02,-2.885960644090323005e-02,-6.891744004084562891e-02,1.601511538028717041e-01
3.314449889616578049e-01,2.884456734864894734e-01,3.289095604840976961e-01,-8.673851838935833780e-03,1.114852871927455268e-02,8.726493921448809712e-03,5.072848498821258545e-02
3.542852980371812288e-01,2.853937157370562971e-01,3.070487150980044100e-01,1.869352283164842337e-05,-3.374731344213990816e-03,-2.910462947499285399e-02,7.936339080333709717e-02
3.453408924698722071e-01,3.096435220049548187e-01,2.801572739754805696e-01,-7.426816171831853580e-03,-5.842048221825424208e-03,-2.845072512118938454e-02,7.676272094249725342e-02
3.646586863582119142e-01,3.825574077183918065e-01,2.643968736412442011e-01,2.713446454443063649e-02,7.293064929517185935e-02,-4.101033931303896957e-02,1.880913972854614258e-01
3.137890673803444552e-01,3.399188907938112125e-01,3.049193286130385538e-01,-1.114949827085415929e-02,-3.440951972663831848e-02,-1.156074566069212502e-02,7.293240725994110107e-02
3.486242698517366123e-01,3.535167767374674530e-01,2.911267950879098954e-01,-3.444865656805124604e-02,-5.100818340646834370e-02,-3.888972089253345948e-02,1.396927684545516968e-01
3.358406227590539084e-01,3.637484520348408523e-01,2.854862617345886311e-01,-8.483056405192514193e-03,-2.576207964872234343e-02,-1.121195053106890417e-02,8.546200394630432129e-02
3.109854329209496004e-01,3.200027173884809062e-01,3.286258064516880406e-01,-1.530485613581885869e-03,-1.457658671163604425e-03,-3.600387476675598331e-03,1.690312847495079041e-02
3.271517451265936738e-01,3.724826327364273992e-01,2.563597110149258840e-01,-2.877756869070752233e-02,-4.759255725218639044e-02,-2.138291495714722545e-02,1.446608304977416992e-01
3.317458817515840375e-01,3.488718178476370446e-01,2.622659273232683663e-01,-1.302641919911383915e-02,-3.842167457785850004e-02,-1.955954003047374878e-02,1.113379374146461487e-01
2.571960567587995294e-01,3.103562214831181443e-01,3.480653610363692030e-01,-5.715847635752698691e-02,2.843227893364677281e-02,2.192841662878408995e-02,1.411440074443817139e-01
2.737380801912652761e-01,3.157169621108568691e-01,3.728027355261352982e-01,-4.632604566805915286e-02,4.752928682581838982e-02,3.147120432778467009e-02,1.536363363265991211e-01
3.120875977868375895e-01,3.566382973763365660e-01,3.373779621640243809e-01,-4.847991380600221584e-02,6.667110246355013869e-02,4.197848205252548148e-02,1.648340225219726562e-01
2.950107622579196676e-01,3.380402973833641078e-01,3.415236190504315483e-01,-2.681516192033591914e-02,1.342953207996671651e-02,1.087476888062768356e-02,7.117975503206253052e-02
3.130346493246229378e-01,3.077681471985732053e-01,3.443126393219703152e-01,-5.058928092787016301e-02,6.168745798569451322e-02,4.341281872269868447e-02,1.609926968812942505e-01
2.794349947098594411e-01,3.328853411665975148e-01,3.272375597090834143e-01,-1.881803375429181441e-02,2.503323626770407456e-02,1.625199568662353752e-02,7.950903475284576416e-02
2.955220085140235486e-01,3.336895735536892227e-01,3.328375011470033340e-01,-2.632264565237715445e-02,1.556081130290001835e-02,1.861887816330466336e-02,7.259488105773925781e-02
3.177618483126229409e-01,3.220909694713360860e-01,3.188403530513331252e-01,-3.605039978659847592e-03,2.408026177878826862e-03,3.435911634629873652e-03,1.034585200250148773e-02
3.050628136747446373e-01,3.272068481951886376e-01,3.218426232999758163e-01,-2.035359535387813116e-03,3.914292253052442487e-03,6.625364816441397034e-03,2.429870516061782837e-02
3.405774069207669896e-01,3.080884617323074171e-01,3.029024861497899845e-01,-1.451881877256693638e-03,-1.051116590659539668e-03,-4.327464906195026620e-03,3.628680109977722168e-02
3.141265778139600839e-01,3.243909453035224155e-01,3.160486675695822756e-01,-3.753683267743789659e-03,3.934744688309793278e-03,3.238396768480462581e-03,1.447416096925735474e-02
3.065045713493617652e-01,3.214766384787058340e-01,3.216203520102965951e-01,-3.008744272080671623e-03,4.067419798099844094e-03,6.745748246783382987e-03,2.096758969128131866e-02
3.400611881868014219e-01,2.541841428797872449e-01,3.685182380118943724e-01,-4.129836167284064996e-02,-3.455494785741161298e-03,6.191371961454235871e-03,1.260791867971420288e-01
3.490127470844225921e-01,2.587997034408320851e-01,4.033480417443157107e-01,-8.300417905120067996e-02,9.174309842196883696e-03,2.254469800530447057e-02,1.960582733154296875e-01
3.541970916769864863e-01,2.961366432221380629e-01,3.258094225356689688e-01,-1.289328128504192532e-02,1.673399613944086609e-02,2.921968213953924504e-02,8.018001168966293335e-02
3.257474012086573611e-01,2.446306368762655725e-01,3.638210801639962244e-01,-6.228681434800784067e-02,1.738299812947138173e-02,2.689683416299201366e-02,1.607286930084228516e-01
3.495545313777083662e-01,2.462277022662971437e-01,3.601196121727263666e-01,-2.639618325320819414e-02,-7.382252542935989145e-05,1.071188013896305158e-03,1.182093247771263123e-01
3.130000295639835395e-01,3.141212583097225952e-01,3.254155117369739170e-01,4.353716549469884185e-03,-4.922721716290745161e-03,5.153514150353454178e-03,1.872754655778408051e-02
3.617647277106136317e-01,3.799183821069129219e-01,2.278408311094521077e-01,-1.631909753694317424e-03,6.557285635605920870e-02,-3.109946398729258876e-02,1.910635828971862793e-01
3.092429628139445330e-01,3.153715548776906408e-01,3.259621614282283142e-01,1.250218692999949949e-02,-1.170210969323584420e-02,1.218455653896518588e-02,3.923963010311126709e-02
3.016128742804911611e-01,3.281645869379962721e-01,3.124878950901249230e-01,3.100832624480506783e-02,-3.631805689808836196e-02,2.926054171452104058e-02,9.972261637449264526e-02
3.157991850020742119e-01,3.057063222249539192e-01,3.312765814549004095e-01,3.265285142941834473e-02,-2.962783743790298879e-02,3.208245634541732894e-02,9.704396873712539673e-02
3.133093207593484197e-01,3.222885539004266553e-01,3.223973290942624970e-01,4.801441479231527767e-03,-5.342888683931838745e-03,4.389621390371332282e-03,1.715291291475296021e-02
3.529227108721605388e-01,2.845641961373928108e-01,3.259864094202380991e-01,-1.314432496118640888e-02,1.240381107586883101e-02,2.526258507962527919e-02,8.032187074422836304e-02
3.785828746874416728e-01,3.290792432423095826e-01,2.538639738225388354e-01,-1.010369398912022015e-02,-1.001102345924649584e-02,6.418804202970987416e-02,1.574757248163223267e-01
3.906171701354191894e-01,3.582566821423764925e-01,2.561492147541956643e-01,6.555824764292484362e-03,-9.038047546326533066e-03,6.436997450197975978e-02,1.660778671503067017e-01
3.488227714435686022e-01,3.036310658095792703e-01,2.816771248580270948e-01,-1.381102130300049984e-03,1.021788341758501310e-03,2.870699933163458825e-02,7.744373381137847900e-02
3.670181968487765678e-01,3.082759177306436116e-01,3.065171866174375981e-01,-1.580224019877912115e-03,-1.490481436123037955e-03,3.800530123154163137e-02,8.890683203935623169e-02
3.821528685805012926e-01,2.816214560591908111e-01,2.838781702210242397e-01,1.331254084640733949e-02,5.266488740864319271e-03,7.621381484153255670e-02,1.671086549758911133e-01
3.575806230908346595e-01,3.070067323916610968e-01,2.728640411278347999e-01,-8.796089324682457994e-03,1.267061502324960502e-02,5.772776687606930718e-02,1.271275132894515991e-01
3.640972393963174403e-01,3.376531638610006936e-01,2.713823287310574983e-01,6.981464154478950190e-03,1.785467711880893080e-02,5.996832153903851326e-02,1.368750333786010742e-01
3.131613238304414293e-01,3.112633918499662089e-01,3.292917496762870488e-01,-2.961310919384510520e-02,2.422420285672179444e-02,2.245734709004216026e-02,7.873149961233139038e-02
3.339918309106899574e-01,3.127766992897802467e-01,3.388251932082061990e-01,-4.507497359232209844e-02,3.925879933336954425e-02,3.352197684355932850e-02,1.211039721965789795e-01
3.214600714494127431e-01,3.252733802172411703e-01,3.234567890420176894e-01,-3.845424013522971002e-02,5.984819226971543893e-02,4.783926105003481061e-02,1.485203802585601807e-01
2.998535462750763214e-01,3.436917391445040160e-01,3.097003949202841167e-01,-2.011831860311738204e-02,2.469031188193954868e-02,1.552061879373825212e-02,7.316298782825469971e-02
3.322164747613858271e-01,3.088500347827063397e-01,3.294285036981277615e-01,-3.131941720145275249e-02,3.695625651622801155e-02,5.721816570447816469e-02,1.317208707332611084e-01
3.115002015718461026e-01,3.221655536608645787e-01,3.212521769099495605e-01,-7.856228634161400298e-03,6.970561309733586987e-03,7.872129202852476415e-03,2.493353001773357391e-02
3.489151238234339258e-01,3.358135712449369370e-01,2.992520020308485629e-01,1.940019582922521829e-02,3.154593171750448566e-02,-3.135025287796860960e-02,9.513394534587860107e-02
3.331875462567155943e-01,3.340338130432964348e-01,2.823577566922852999e-01,2.029016298237757907e-02,-2.060702216651224064e-02,2.294369074422897628e-02,8.194912225008010864e-02
2.779550203651954821e-01,3.231679997582025399e-01,3.443012655082224871e-01,-2.515415492955921928e-02,1.960321583527845773e-02,1.104916720256146276e-02,8.284703642129898071e-02
3.204519176584864626e-01,3.039474917819063315e-01,3.329519016324146152e-01,1.237935350095556962e-02,6.777439485777701604e-03,-7.197715622323003389e-03,3.725477680563926697e-02
2.723110318009283604e-01,3.230244406708031035e-01,3.418783290202580538e-01,-2.488197433354238930e-02,1.615306843420332913e-02,1.156571413391153935e-02,8.321576565504074097e-02
2.984304730707350028e-01,3.112879685254282824e-01,3.599248550158689053e-01,-3.809624493814921936e-02,1.173872642111435313e-02,7.232938701198591766e-03,8.989171683788299561e-02
2.781243022483753657e-01,3.133358349358770223e-01,3.479544822690036066e-01,-2.604375636657684651e-02,3.202622603995200230e-03,3.000353284769622254e-03,7.582800835371017456e-02
3.187287438721614352e-01,3.018387576460794253e-01,3.494319234080815462e-01,-1.426953795062876028e-02,-4.160229577967544147e-03,-2.520554972843434653e-03,4.927853867411613464e-02
3.017061239717911958e-01,3.142673071846665001e-01,3.480290716227868453e-01,-3.463295340984929443e-02,9.586810449965949346e-03,4.048106198982748781e-03,7.513277977705001831e-02
2.943764686360914040e-01,3.286464948303640110e-01,3.413067757674929648e-01,-1.332332407833070748e-02,6.347895373404169664e-03,3.143903221775996848e-03,4.951422289013862610e-02
2.935839042550981159e-01,3.162501640589013285e-01,3.469034137121455585e-01,-1.125368291098735075e-02,6.856317677655552993e-03,-1.953752219025373799e-03,5.177441984415054321e-02
2.809656495948850141e-01,3.358146631615655520e-01,3.119743863527180139e-01,3.530290379005805029e-02,-5.614146501452672161e-02,3.121584007056456972e-02,1.355983763933181763e-01
2.937486619959686074e-01,3.551125921887148817e-01,3.161867041354309849e-01,1.689098743565066495e-03,-2.316075849995154548e-02,4.495886337350240777e-03,6.760600209236145020e-02
3.843339522849791856e-01,3.878137480225090084e-01,1.192616906843499691e-01,7.282703954425095126e-03,6.877828480494102559e-02,-6.844648720858775848e-02,3.155995011329650879e-01
3.054785730749527417e-01,3.444430633043453205e-01,3.116310093244814561e-01,4.627481302845186557e-03,-2.713612702003392538e-02,1.150799283870862326e-02,6.314276158809661865e-02
2.573681200815305381e-01,3.305621948548923550e-01,3.729887302431179052e-01,-4.158272988244639257e-02,5.259432964450506953e-03,-1.462281260717881917e-03,1.246576309204101562e-01
2.761643877708342409e-01,3.278447136102160542e-01,3.591180814167223012e-01,-2.945853120817196885e-02,-2.760991265848017177e-03,4.529380963982801087e-03,8.917918801307678223e-02
3.065404966422520805e-01,3.118615023482854132e-01,3.474208411705310695e-01,-1.788627863943902802e-02,4.103930131126713211e-03,5.385190054831506291e-03,5.078656971454620361e-02
2.903124170371125246e-01,2.945113033589797924e-01,3.339443782896209245e-01,-4.773188182777406141e-02,2.844217803788388899e-02,2.829353442965674634e-02,1.157653480768203735e-01
3.069114443042553764e-01,3.143170449659772325e-01,3.646459892219963694e-01,-3.340635279452567469e-02,1.716763408863668672e-03,1.357920429610956709e-03,7.951658964157104492e-02
2.785408925380689071e-01,3.298854011493732585e-01,3.640799734823812472e-01,-2.410527528071257017e-02,2.878705462906518955e-04,3.061087723471682398e-03,8.563166856765747070e-02
2.904402259067941916e-01,3.412691911938671718e-01,3.182196559548016168e-01,-1.041076337862503753e-03,-9.226967427744783151e-03,5.737316468514340288e-03,4.796554520726203918e-02
2.779278911692151244e-01,3.395366105329635231e-01,3.107325325521272386e-01,1.515701553393082601e-02,-2.294569224264702070e-02,8.677977778229253522e-03,7.311202585697174072e-02
2.967639599667202810e-01,3.436660536853692882e-01,3.167742540484518310e-01,1.766716313627067448e-03,-2.101921069634343081e-02,2.588807845328677110e-03,5.492344498634338379e-02
3.044679554208382100e-01,3.441803543168056589e-01,3.087794706346749796e-01,-4.046054446828071171e-04,-7.893137973350335818e-03,-7.644939609059214422e-04,4.016954824328422546e-02
2.830377781643336199e-01,3.527096498829538906e-01,3.141323954629015591e-01,5.991714679825801103e-03,-1.964010323178298073e-02,2.835130946278437061e-03,7.031103223562240601e-02
3.068811896209919787e-01,3.410139130855115441e-01,3.089975857919122215e-01,1.194804063153406544e-04,-9.077158865564130454e-04,-3.673230983030215590e-04,3.316930681467056274e-02
3.134097558540837047e-01,3.343312653578765503e-01,3.197750609298767865e-01,5.690626554339594037e-03,1.102580332436626370e-02,-6.370390945650242220e-03,3.047384507954120636e-02
3.330089027884617914e-01,3.576473029383303581e-01,2.732845166240695511e-01,9.953337975949621066e-03,2.355918132914994884e-02,-1.495232738185282503e-02,9.098678082227706909e-02
3.151888240927789853e-01,3.449204895408098936e-01,2.931379286875640533e-01,3.755632323452595504e-03,7.493501386722153934e-03,-4.770494406830904158e-03,4.800904914736747742e-02
3.007948880686781568e-01,3.481860946130359014e-01,3.023314569814457009e-01,4.132801251439422417e-03,1.214304722334558218e-02,-2.638322919564651224e-03,5.186473578214645386e-02
3.041561045334827407e-01,3.389628682845698959e-01,3.016795930087728950e-01,4.825078447893611094e-03,1.258149035941671934e-02,-4.272819664162845130e-03,4.362728446722030640e-02
3.024487711732731787e-01,3.483304036789530711e-01,3.154771707243889667e-01,4.148693216040419234e-03,1.528724353618314200e-02,-2.927150752817401190e-03,4.955338686704635620e-02
2.957744049702171196e-01,3.647326247264604526e-01,2.451273073929851054e-01,1.458948978309593074e-02,-7.865715561671493550e-02,1.910296441207460366e-02,1.763719767332077026e-01
3.029547221653512423e-01,3.477822151828856567e-01,2.781805861678979808e-01,-3.746865509519725287e-03,-3.353564863428615955e-02,-2.106498770904864301e-03,8.463552594184875488e-02
3.408223942765480352e-01,3.643089964511249668e-01,2.500153346847699409e-01,5.847019202581911490e-03,-4.486797063766530952e-02,8.989859729472301358e-03,1.315853744745254517e-01
3.458117125210679044e-01,3.735576178452297835e-01,2.502469574840310296e-01,2.149605403069530102e-02,-5.975134700179775271e-02,-8.227266274735143062e-03,1.576513946056365967e-01
3.072719050851093758e-01,3.557698736609998802e-01,2.841433973697375936e-01,5.549531920598825378e-03,-2.900449630379101779e-02,6.166041846216452522e-03,8.209080994129180908e-02
3.297870902855950526e-01,2.651702992515491686e-01,3.238016332798421826e-01,-3.696708194893867649e-02,2.251300585744182153e-02,4.469466067174435175e-02,1.242474690079689026e-01
3.466173331060456997e-01,2.667646766348725773e-01,3.261894894910122855e-01,-3.395447659714362354e-02,2.159414147051956501e-02,4.658083846110264853e-02,1.285670697689056396e-01
3.568306408319880108e-01,2.434389444618877685e-01,3.731725071346711498e-01,-7.623339525281554174e-03,6.526360754144462303e-03,3.158424804359312443e-02,1.351761221885681152e-01
3.647314843509806281e-01,2.489141387414247619e-01,3.470469972687039717e-01,-1.611754231470143017e-02,2.015288550789004745e-03,1.934913261322054531e-02,1.165886148810386658e-01
3.768695593279951517e-01,2.357580499160572551e-01,3.741111398573680469e-01,-2.648885236637195731e-02,1.914370831244281354e-02,3.682549955284356719e-02,1.637180447578430176e-01
3.781380382578355404e-01,2.346007724650701898e-01,3.494273839437231355e-01,-2.403300938305584500e-02,1.716394575111137091e-02,2.728542636754714354e-02,1.488497257232666016e-01
3.498804255646574268e-01,2.961088493432703639e-01,3.169288277935800591e-01,2.829262548980194126e-03,-5.890017351902527730e-04,-1.644859164599564785e-02,5.515482276678085327e-02
3.474189350191273506e-01,3.258030200914242558e-01,2.834120461914924616e-01,1.288753766012720563e-02,7.676694200480170191e-03,-2.858236808874094551e-02,7.941333949565887451e-02
3.612340169193580253e-01,2.698395305175821379e-01,3.216391326361414671e-01,-3.086221720319914496e-03,1.192547262937010779e-04,-5.543122608690090325e-02,1.246933564543724060e-01
3.358504298873104532e-01,3.076844647222654050e-01,3.195558313889043656e-01,1.390972322917631218e-02,1.216911553984104805e-02,-2.674746851321981381e-02,6.140738353133201599e-02
3.579462433102750252e-01,3.140115289940839660e-01,3.120794143818785837e-01,1.742987618797317215e-02,1.904158818102689305e-02,-3.351969630251793592e-02,8.595776557922363281e-02
3.813972221380980687e-01,3.173083688516846745e-01,2.829743982118252954e-01,2.988996136247430713e-02,3.656223936661778806e-02,-8.843124873917775075e-02,1.940038800239562988e-01
3.417519885555159731e-01,3.184421120468582944e-01,3.022402466502981389e-01,3.338292137802578892e-03,3.859649986856105233e-03,-1.298296495301456792e-02,4.203938320279121399e-02
3.096037738659017102e-01,3.413625766215654389e-01,3.069388678347798605e-01,1.460654381584279614e-03,1.184763723717875477e-03,-3.907824026192746711e-04,3.333807364106178284e-02
3.499571187596027255e-01,2.993808979649074664e-01,3.036495113406235125e-01,-1.122114393561412854e-03,4.242565675725291918e-03,-1.490352307266936197e-02,5.553742125630378723e-02
3.417867951088077172e-01,2.707331377524254123e-01,3.803507721604209024e-01,6.388553079470953022e-02,2.933699523727976988e-02,-4.655050034926003916e-02,1.749366223812103271e-01
3.629396692468291330e-01,2.691426558667776026e-01,3.729999011415752741e-01,5.429733488500439881e-02,1.524078128085196507e-02,-4.153309525917083661e-02,1.567135900259017944e-01
3.198152186504010785e-01,3.243984450052590507e-01,3.242020623441235760e-01,1.871420056273174690e-02,1.405138261262897474e-02,-1.657655357262364376e-02,4.987462982535362244e-02
3.332003985418242609e-01,2.906699401157060159e-01,3.480405092809043532e-01,2.712216319523105129e-02,1.791835803177133091e-02,-1.852564770733435701e-02,8.282428234815597534e-02
3.360958455526497080e-01,2.770324494681346561e-01,3.563644845949696105e-01,2.688081038897170011e-02,1.131728005701129920e-02,-8.917504983971629579e-03,8.880866318941116333e-02
3.325799528828430884e-01,2.809526630228707522e-01,3.440823780130504717e-01,2.443358082713653623e-02,5.130116789144980802e-03,-1.106173618185626872e-02,7.502374053001403809e-02
3.318681071931965931e-01,2.556368710922827248e-01,3.601128347105257976e-01,3.608099428998529090e-02,1.260254712827592501e-02,-1.777589147223956542e-02,1.187098547816276550e-01
3.476852626156389792e-01,2.427456455605888075e-01,3.547278716398336029e-01,3.129263020499076231e-02,8.130808646657220612e-03,-2.820605921990711890e-02,1.316196471452713013e-01
3.504908840147220039e-01,2.688902195697088215e-01,3.465998508922830124e-01,1.991442084490951253e-02,1.043428354206374191e-02,-1.978509710648491612e-02,9.511584043502807617e-02
3.198541885207759061e-01,3.239187507898956819e-01,3.117846111862547231e-01,4.853993600882761973e-03,2.091053315340039073e-03,-2.301421085095855384e-03,1.463314518332481384e-02
3.190368477003415748e-01,3.184099847733599664e-01,3.172535553056348712e-01,4.311783401269352403e-03,3.433759927087001989e-03,-2.748554019518410167e-03,1.078264415264129639e-02
3.240304227985956742e-01,3.218381221161570327e-01,3.109251198255819637e-01,8.863546809846379118e-03,6.158562555264826543e-03,-6.649716187835928195e-03,2.509883791208267212e-02
3.215646265236231649e-01,3.134901712494489456e-01,3.199481946217204720e-01,3.645883912682452987e-03,4.509053430695447902e-03,-3.483942231589139214e-03,1.385797746479511261e-02
3.266924880904571449e-01,3.246513286836694157e-01,3.061790217420210514e-01,8.370507506994110877e-03,3.865779239739870060e-03,-6.509907600464335913e-03,2.766338735818862915e-02
3.483783674827019006e-01,3.081479447965695950e-01,3.209517206618031082e-01,2.518826063895966000e-02,1.938563894527602777e-02,-4.734486249952255671e-02,1.049889773130416870e-01
3.119670478792852530e-01,3.261925570685345610e-01,3.210227170104524852e-01,5.054659670792185228e-03,-8.148951361724261419e-03,5.529495518661816343e-03,2.287224680185317993e-02
3.086782615082077075e-01,3.348520169896531673e-01,3.135281509028781666e-01,1.982393909966573709e-03,-3.011843328349333559e-03,4.705451602514948775e-03,2.621209993958473206e-02
2.983065645356142159e-01,3.305142437359909757e-01,3.191885748762615105e-01,5.192909131421053620e-03,-5.831839914299913677e-03,7.337075151584512497e-03,3.384168818593025208e-02
3.134545059399068134e-01,3.247189233628894889e-01,3.133551124476748884e-01,1.902171869755490529e-03,-2.241072398485380313e-03,4.729629344756410871e-03,1.486764103174209595e-02
3.047665400637845634e-01,3.253696281490716657e-01,3.197664157769622428e-01,2.793092552730221025e-03,-4.833476602991617320e-03,6.070044423282847275e-03,2.333383075892925262e-02
3.354302840730831736e-01,3.432272723620047317e-01,2.923506302153739966e-01,-1.153953239664778051e-02,3.084217410420526245e-02,1.803668392184696115e-02,8.050905913114547729e-02
3.447860988077451894e-01,3.531782139832936318e-01,2.530691181030322867e-01,-5.519004012043313492e-03,2.798662178154328814e-02,1.029506165649315096e-02,1.095957458019256592e-01
3.777697358360027624e-01,3.503101925911146775e-01,2.301149541497895523e-01,-2.856842129238701400e-02,3.263248559173621832e-02,4.104109072666577152e-02,1.708731800317764282e-01
3.889248230041835730e-01,3.761621583128548774e-01,2.324485632531142487e-01,-1.327632284798408065e-02,3.363525642432996232e-02,4.272532754606288979e-02,1.790245473384857178e-01
3.588416240118619815e-01,3.382196750224258364e-01,2.378875529296063940e-01,-1.125645130049426033e-02,2.295629036559020120e-02,4.145356530940474959e-02,1.402752101421356201e-01
2.990176138490319713e-01,3.302220170058710047e-01,3.440187898577751202e-01,1.933793675133220133e-02,1.106026566380036331e-02,-6.065746948644842700e-03,5.651390552520751953e-02
3.043333511736037167e-01,3.118907983022921604e-01,3.493999878070305765e-01,-3.759763321512937795e-02,-6.693112784428915246e-03,-3.540441909300544657e-03,7.848739624023437500e-02
3.258525457798125968e-01,1.583620859372825151e-01,3.960619065252993787e-01,-1.168273005262648323e-01,-6.544620414109842896e-03,-5.695574391981773552e-03,2.931100130081176758e-01
1.994283550743479183e-01,2.228776547642170591e-01,3.980665500653856048e-01,-1.692497462224103466e-01,4.338272019678439438e-04,-2.196389965955464901e-03,3.482822775840759277e-01
2.112736675926381036e-01,3.680929464191614042e-01,4.102084344567737961e-01,-1.453720544049493801e-01,4.434000147682342491e-02,-2.765201349924796548e-02,3.233599066734313965e-01
3.581635747854433616e-01,2.076923053718194301e-01,3.992643977481943329e-01,-1.674679252419278841e-01,-2.617264305981925610e-02,4.219543485861460518e-03,3.417021036148071289e-01
3.221113126008481875e-01,2.898860891121281536e-01,3.665593139894700592e-01,-7.810303065868851036e-02,7.624708093939928108e-04,1.216384143008227524e-02,1.522902101278305054e-01
3.481396681813276328e-01,2.722814306668916995e-01,3.851048431272954264e-01,-6.219824431505456552e-02,-1.443007894156607060e-02,-2.346953617097213840e-02,1.542984545230865479e-01
2.716813029104431232e-01,3.511909178541062215e-01,3.494131833933388775e-01,2.016441641050664355e-02,2.195453831074971676e-02,-1.093434939880369959e-02,9.595878422260284424e-02
3.003446550593205089e-01,3.471150301616937606e-01,3.154124836738376736e-01,2.050927753355722555e-03,1.371602993290371719e-02,-3.328904526462065500e-03,4.816670715808868408e-02
2.865313197539033352e-01,3.388384176414231952e-01,3.331038148892151995e-01,7.886706653212109674e-03,1.008355602289725400e-02,-7.089821530867746954e-03,5.577982589602470398e-02
2.848724431928508771e-01,3.468207727480115965e-01,3.282498117158460516e-01,4.069010605844203439e-03,2.667477277092199575e-02,-3.798944918488024632e-03,7.252332568168640137e-02
2.925682437977861206e-01,3.465326554506746870e-01,3.140319229154398539e-01,3.504611922555525821e-03,6.736957881296678878e-03,-2.889808732098109352e-03,4.911855235695838928e-02
3.158129662139024796e-01,3.179810099435154691e-01,3.190493860707495077e-01,1.341733079102574435e-03,7.168717193108188092e-04,-2.168671288869927598e-03,5.404626950621604919e-03
2.983291476434405953e-01,3.394965983886794048e-01,3.158130393581231043e-01,5.762834779714189580e-03,6.077658898801518127e-03,-6.255419682216034442e-03,4.010627791285514832e-02
2.936441598261849140e-01,3.398236140568048902e-01,3.284584946153836782e-01,5.151003495908345990e-03,4.484227463954010978e-03,-6.410372861415377516e-03,4.472219944000244141e-02
3.388707759044793932e-01,3.001622714456532726e-01,3.185391643280687801e-01,4.645571353220367267e-03,3.973098073824005497e-03,-1.552989975393956681e-02,4.427584260702133179e-02
3.437418410278657022e-01,2.796523871544084328e-01,3.241194504873469162e-01,1.113701008638693681e-02,7.568120168307755982e-03,-2.908511621406999550e-02,7.947746664285659790e-02
3.349236127474009561e-01,3.188092843415161748e-01,3.008205592751163615e-01,1.199897155900291230e-02,1.276031888298937225e-02,-1.406201393777315942e-02,4.885453730821609497e-02
3.367409211672192093e-01,3.080444917084639300e-01,3.167249868228321219e-01,6.627985160438502193e-03,1.319527258974093585e-02,-1.592025712587998368e-02,4.543387144804000854e-02
3.428896932574551082e-01,2.796236646667143999e-01,3.109675631293327691e-01,1.165582168595306542e-02,1.116956704504363032e-02,-2.792598460750723294e-02,7.825253903865814209e-02
3.516063218937061086e-01,2.881898197455252109e-01,3.039411101057398201e-01,3.323895724217023912e-03,6.468575689637288961e-03,-2.989046503115903863e-02,7.816556841135025024e-02
3.171078855103621752e-01,3.281686911556808139e-01,3.088251036033294872e-01,3.692736698668211241e-03,1.753616186597703377e-03,-1.284795823854067900e-03,1.837516389787197113e-02
3.487841592407368019e-01,3.172359846589905552e-01,3.036551676100786579e-01,-1.918164162584005961e-02,-2.046243337028366346e-02,-2.551319116916881541e-02,7.694727927446365356e-02
3.433330687538813653e-01,3.042078562999527835e-01,3.073715767554531797e-01,-1.371998954942067403e-03,-6.311018632769625596e-03,-1.264099799026310693e-02,4.496141150593757629e-02
3.349772298238962720e-01,3.168603189100682171e-01,3.050883773464989068e-01,-5.656244915322677404e-03,-6.574045563054500309e-03,-1.206114324068504988e-02,3.663494810461997986e-02
3.417115257356679314e-01,3.056020087383614636e-01,2.659437035078791034e-01,-2.832633101692214744e-02,-3.831913723253042164e-02,-5.646520967326564000e-02,1.438259035348892212e-01
3.482423496863328860e-01,3.155729688707866742e-01,3.238089137049591781e-01,-2.255351815562149989e-02,-1.792962293196492113e-02,-3.092793749214699239e-02,7.890541851520538330e-02
3.340090329075499076e-01,3.478296559354588369e-01,2.693973493511298001e-01,-2.006852911982510285e-02,-4.887626158184250891e-02,-3.769123538765822845e-02,1.337738633155822754e-01
3.209458067411855575e-01,3.441179387840604953e-01,3.148035263974355846e-01,-1.552886499800800596e-02,-2.693219220787746934e-02,-1.713743360927596701e-02,6.706374138593673706e-02
2.601757245188665024e-01,3.444833146994503714e-01,3.597000595032218695e-01,-3.326839530757379204e-02,-2.452982979741478997e-02,-1.116491747701554849e-02,1.188346296548843384e-01
2.864177107764739327e-01,3.487191521564569907e-01,3.354587102499462792e-01,-1.816523740739271753e-02,-4.362590713775003209e-02,-1.256511537395139412e-02,1.020019501447677612e-01
3.004313895785392652e-01,3.102502149480183546e-01,3.078175058285066434e-01,-3.872444504902478046e-02,-3.919473113059819547e-02,-2.916818648782618095e-02,1.083430647850036621e-01
2.874733798686230912e-01,3.363370726376230246e-01,3.150696387607845317e-01,-1.043981184260989702e-02,-2.345439609164830241e-02,-7.435464547287043077e-03,6.280057877302169800e-02
3.029041537421267027e-01,3.474732859343150904e-01,3.144176018356631963e-01,-3.911114007575644536e-02,-3.850034729110690668e-02,-4.096694214014915542e-02,1.252060979604721069e-01
2.818896714165894379e-01,3.506054158302975843e-01,2.614122690501551882e-01,7.752171921661261955e-02,-1.253761458998165490e-01,6.968081408040767422e-02,2.937701940536499023e-01
3.022555039467183513e-01,3.853038401914196109e-01,2.868560705243711761e-01,1.745833341199030941e-02,-8.002538893848579193e-02,4.159482932534914329e-02,1.836573630571365356e-01
3.113265843592102344e-01,3.590246435193589769e-01,2.900270879778050759e-01,2.444793416772472663e-03,-4.109434196796540872e-02,1.466874018074043606e-02,9.733653068542480469e-02
3.035638488545756575e-01,3.487408339829459747e-01,3.221237617898861649e-01,2.018143387839118480e-02,-3.206833371253652726e-02,1.427547984378164762e-02,8.040722459554672241e-02
2.151869633730667253e-01,4.599211204923677188e-01,2.585495328409828653e-01,8.444716186519558854e-02,1.703844657091175829e-01,-7.361671214163284516e-02,4.194134473800659180e-01
3.251464579132493093e-01,3.944020245215761333e-01,2.742032496672695552e-01,3.549388824618484456e-02,-8.613390947576296530e-02,4.652273294720522812e-02,2.084450423717498779e-01
3.244918266129843132e-01,3.148052580756008356e-01,3.224395615098401557e-01,5.386060880016427591e-03,-8.734022556922356462e-03,7.221284974641762819e-03,2.346233651041984558e-02
3.161682903892788499e-01,3.212524876694659581e-01,3.263742652687680601e-01,1.532148497650803742e-02,-1.419852971564079455e-02,1.221915644591030012e-02,4.283787682652473450e-02
3.098712928865282601e-01,3.221777091174389818e-01,3.322744314628504614e-01,9.207956257931059971e-03,-6.029630820080070924e-03,5.989233062001633918e-03,2.913224324584007263e-02
3.068641057730894239e-01,3.188577946910693406e-01,3.301617403917184723e-01,1.302049762555549522e-02,-8.979290682292178499e-03,8.211344798247657839e-03,3.687770664691925049e-02
3.044893949503150177e-01,3.224386747567793976e-01,3.244269351175246840e-01,1.234058309808773631e-02,-9.197972212446009141e-03,1.201201322900397571e-02,3.879898414015769958e-02
3.225220676610172088e-01,3.153678456505059624e-01,3.155159466055942885e-01,8.191967901712188293e-04,4.202059866291328236e-04,3.016754357581402928e-04,7.277449592947959900e-03
2.549460024090213772e-01,3.483514851551134384e-01,3.502576546877428365e-01,1.984180071282099292e-02,-1.354318820090928167e-02,4.359955077212467750e-03,1.034148782491683960e-01
2.973697957685567106e-01,3.438924612699363892e-01,3.374824775521035325e-01,2.670733885933987417e-02,-2.494006908528588126e-02,2.077921102520315783e-02,8.490248024463653564e-02
2.463943469431597311e-01,3.701959595779699130e-01,3.420246751157593468e-01,1.528124649436699532e-02,-4.716898156605479203e-02,2.752085370271052309e-02,1.492658406496047974e-01
2.611000904819388291e-01,3.343319147489653420e-01,3.369528609227380733e-01,3.168631994173486816e-02,-3.853379133780410193e-02,1.906792521676183710e-02,1.188237816095352173e-01
3.315459715230316129e-01,3.277433467265876699e-01,2.844853216610004898e-01,1.399714180624124157e-02,-1.679302316590611591e-02,2.318177160006238899e-02,7.138746976852416992e-02
3.219091842803353809e-01,3.149551217642645451e-01,3.243163432909045851e-01,2.859597641233461648e-02,-3.274806016905135869e-02,1.807322698688471063e-02,8.198361843824386597e-02
3.329729023594745763e-01,3.535689162772670535e-01,2.333977629775076112e-01,5.760948671894271234e-02,-7.062895272255154122e-02,6.977043910193585219e-02,2.278506159782409668e-01
3.377879823191798914e-01,3.346071354983933266e-01,3.049685073666034696e-01,1.877657802086996758e-02,-2.917966742681465941e-02,2.853188165232908857e-02,8.388733863830566406e-02
2.833948366854423528e-01,3.521216875602263263e-01,3.338540452967336258e-01,7.391620084646031291e-03,-2.225130957299084264e-02,2.068000289312175305e-03,7.391691207885742188e-02
3.243456651919923717e-01,3.208407691815101659e-01,3.132977038038800011e-01,5.968112222464720500e-03,5.085260758139457764e-03,-6.118699650018629213e-03,1.980833150446414948e-02
3.139053062592659926e-01,3.210694055526434609e-01,3.231414093155567380e-01,5.579260086861721757e-03,5.570702968831181372e-03,-4.792512277485698122e-03,1.805127970874309540e-02
3.300660707841160391e-01,3.123382388482918159e-01,3.208806350288142539e-01,5.887551669500879631e-03,7.224179339590686144e-03,-9.778527317968615379e-03,2.798616141080856323e-02
3.227458921130649250e-01,3.106882843626844748e-01,3.222617091167563341e-01,8.117096461326684179e-03,8.689355633144822330e-03,-7.904245156890339977e-03,2.741149440407752991e-02
2.779075187242298073e-01,3.282539465717875249e-01,3.397239084157384625e-01,1.617617552344562115e-02,-1.280315757480868059e-02,1.076720159777200259e-02,6.977363675832748413e-02
2.736662869062529424e-01,3.309920047204121252e-01,3.443885658596875787e-01,1.096807500258252001e-02,-9.678918698536133347e-03,9.251021565759328172e-03,7.164047658443450928e-02
2.722421775971631819e-01,3.494712483177314089e-01,3.510753060190460739e-01,1.128990080227972731e-02,-1.271681701079952972e-02,3.347070442463499600e-03,8.361775428056716919e-02
2.559172371419998204e-01,3.432206980051585310e-01,3.531385260215301192e-01,2.390659028802838426e-03,-1.015659896885215407e-02,5.265676069199759154e-03,9.484679996967315674e-02
2.731850783005441707e-01,3.402116329815285667e-01,3.342796615538508043e-01,8.674776386479189291e-03,-1.231016389129258905e-02,1.056713022172290142e-02,7.173225283622741699e-02
2.717355957070712869e-01,3.434679912338532981e-01,3.423546180591052757e-01,3.081846202799552823e-03,-6.170543551610857373e-03,5.628398767754749267e-03,7.283315062522888184e-02
2.564786224599273079e-01,3.476972703289324396e-01,3.521651285933573572e-01,-1.443248050620304403e-02,1.560645424517731819e-02,5.545606867487915502e-03,1.009761840105056763e-01
2.433740175502066561e-01,3.585690710503641188e-01,3.555405711605958974e-01,-1.138672102818302605e-02,1.670827215704307617e-02,5.245493469281829052e-03,1.193282082676887512e-01
2.645433310894766965e-01,3.451532173826875605e-01,3.320786792850317082e-01,-9.769315464594544030e-03,2.118829173650227035e-02,3.767986482483405737e-03,8.538561314344406128e-02
2.767522376232452452e-01,3.465914793292924068e-01,3.338926903819864345e-01,-5.068019555112172371e-03,9.943867759266802539e-03,2.532624025893503734e-03,6.741545349359512329e-02
2.504632338214801135e-01,3.535310997351521767e-01,3.407124607080226353e-01,-7.314726145143354494e-03,2.616951007492243284e-02,3.775133298107124016e-03,1.082770228385925293e-01
2.619712222094597864e-01,3.564870931756656813e-01,3.405793738145971306e-01,1.611933195358983620e-03,4.845945293498947308e-03,5.881281733628676177e-04,8.810252696275711060e-02
2.494325488640220523e-01,3.537236397363016094e-01,3.507035956121741238e-01,-1.007980568542721049e-03,1.168868008101480761e-02,1.143866763272814203e-03,1.048219352960586548e-01
3.171236772365780276e-01,3.319745996546236144e-01,3.052496307321868052e-01,6.018845724811886823e-03,2.916047496346356547e-03,-3.927895409043512427e-03,2.680220082402229309e-02
3.124335229753811838e-01,3.313012296596927198e-01,3.120822183765571967e-01,3.718185807924776279e-03,5.833187706503557141e-03,-4.341927165935971326e-03,2.372450195252895355e-02
3.029147372409866090e-01,3.405568985060172804e-01,2.973624364706835554e-01,6.813734580586415859e-03,1.716909427771503779e-02,-4.900622589685372892e-03,5.246354639530181885e-02
3.144850150127579957e-01,3.418319466711368104e-01,3.071566606961616541e-01,2.487754154672660537e-03,7.198074327869779555e-03,-1.957923570414348436e-03,3.445970639586448669e-02
3.206806446281534884e-01,3.355050447529510094e-01,3.109659691247331215e-01,7.580052158518344602e-03,9.193986007558951207e-03,-4.328216744747094905e-03,3.066450916230678558e-02
3.212589228704137989e-01,3.342401331409599052e-01,2.980998646804101648e-01,9.115375334013988556e-03,7.297462669589034612e-03,-6.359397324086470474e-04,3.762616962194442749e-02
3.058439731185738086e-01,3.107733590363633280e-01,3.357893891041968670e-01,2.762853912142030320e-03,-1.625347475387268472e-03,3.767775952765691980e-03,2.910031005740165710e-02
3.312204228214818413e-01,3.003977345328694981e-01,3.196771450799686942e-01,-1.218614432598898352e-02,1.207331135332791010e-02,1.564596251459527895e-02,4.842189326882362366e-02
3.196699848486868056e-01,3.284162766976858050e-01,3.008318513718284404e-01,-9.348477564699643819e-03,-9.440339533658050758e-03,-6.323952772304839744e-03,3.529385104775428772e-02
3.394663830828013040e-01,3.184763684971602116e-01,2.691617625678017767e-01,-1.681929806158388718e-02,3.127782292474434733e-02,4.697303843424893016e-02,1.196269094944000244e-01
3.284735895007281914e-01,3.332773889703425918e-01,2.811356152860993163e-01,-1.346618742833350334e-02,2.161635400953219530e-02,2.212802190025447285e-02,7.685132324695587158e-02
3.196090742889591829e-01,3.198337405099447861e-01,3.266452691106439543e-01,-1.769509857394977945e-02,1.226581348553494599e-02,1.388476587294291791e-02,4.491144418716430664e-02
3.579744001714050272e-01,2.622975479505632035e-01,3.535504525444785884e-01,-2.395080065791416885e-02,7.563164140098398852e-03,2.693820491136455011e-02,1.132249534130096436e-01
3.099294692926324868e-01,2.928240546671848632e-01,3.338682938938590805e-01,-2.292004707315848169e-02,1.145103705265784234e-02,1.011172976045989283e-02,5.959238111972808838e-02
3.324169347545047892e-01,3.104535597364629362e-01,3.217346940229563468e-01,-7.380462488124040280e-03,7.259873371824937180e-03,1.003300641586919902e-02,3.139102831482887268e-02
3.565171173980965502e-01,2.883013189801970078e-01,2.815744727936299596e-01,-1.087417653179145044e-02,1.231808781279678314e-02,5.922379639213476432e-02,1.284127980470657349e-01
3.565709746608072273e-01,3.174615152302065479e-01,2.720869827777195882e-01,-1.548911498032619002e-02,1.821892370768023184e-02,4.989483597945202492e-02,1.206108629703521729e-01
3.371120570019802143e-01,3.175582191691577183e-01,3.054988920516826800e-01,-6.659700045615545363e-03,7.293628509918909097e-03,1.379864512259259234e-02,4.034153744578361511e-02
3.280894143900560112e-01,3.446202300853377087e-01,3.070320135876871137e-01,-1.578185739225418036e-02,3.008593675533419859e-02,2.545201323887822178e-02,8.044181019067764282e-02
3.431203720966958803e-01,2.769295378548071174e-01,3.470905212477737312e-01,-6.620742687935352033e-02,5.052233106752343494e-02,3.650602244835018245e-02,1.716555655002593994e-01
3.521356588407698607e-01,2.652496853653826259e-01,3.059477596328749605e-01,-2.885476891884936404e-02,2.245744429696398814e-02,6.358849946420797039e-02,1.476844847202301025e-01
3.513950469138638066e-01,3.171830113218214175e-01,3.172776121418925399e-01,-5.983930296540784788e-02,4.431664678261663937e-02,7.104919654242396188e-02,1.815084666013717651e-01
3.053634839598940443e-01,3.162616556166026327e-01,3.413798478660378666e-01,-1.507081820842979050e-02,4.511244051444426167e-03,2.501491965490977749e-03,4.224513098597526550e-02
3.041494414123178669e-01,3.375264412483654497e-01,3.148864656313367649e-01,5.560861099822713522e-04,3.900874329850710469e-03,-4.304235101608210566e-03,3.119448013603687286e-02
3.385351690053896023e-01,2.640939001773113803e-01,3.592806405809041981e-01,-3.654036080389520824e-02,1.710092996006268296e-02,1.183620155847415513e-02,1.132228001952171326e-01
3.350211257781779417e-01,3.127423437498262349e-01,3.093644913194292800e-01,-7.775696542390608031e-04,7.545780313783696271e-04,1.301855922876470539e-03,2.432313561439514160e-02
3.156906879651216746e-01,3.039389743679358769e-01,3.390887413457258637e-01,-1.274352613653452655e-02,3.798575287966306398e-03,4.284648820434899114e-03,3.932039439678192139e-02
3.179669854821624564e-01,3.062278050040443400e-01,3.368558207943248561e-01,1.150721367681821830e-02,7.584939883957492884e-03,-5.993331352184127526e-03,3.733547776937484741e-02
3.041008639084856746e-01,3.182948063762732760e-01,3.393504858579549088e-01,1.282646962875265417e-02,5.698639875956719621e-03,-6.463066382700911709e-03,4.074266552925109863e-02
3.352825756243982269e-01,3.606505699849031910e-01,3.067424296042775556e-01,4.549320733556704022e-02,5.892643914372638902e-02,-6.287351110510443208e-02,1.751205027103424072e-01
3.068194199119905763e-01,2.783623992321967999e-01,3.471682402505797960e-01,2.945444114797819007e-02,4.264834482394765959e-03,-3.773689998685662156e-03,7.928440719842910767e-02
2.730252658273272237e-01,3.138582868338502530e-01,3.471252744062381379e-01,2.921312476166194882e-02,4.389418472387877045e-03,-3.637680681244864246e-03,8.240229636430740356e-02
3.019733592140295686e-01,3.167841994314296028e-01,3.414951414633543569e-01,1.470882971690352578e-02,3.763359025182245153e-03,-3.597637252949136347e-03,4.389018192887306213e-02
3.329437439898115803e-01,3.145268420840876544e-01,3.106955722053921232e-01,3.795481709160806322e-03,-3.551620024675183895e-03,4.490336684068643031e-03,2.379011176526546478e-02
3.306757697154013576e-01,3.149494385941016272e-01,3.149220532823880370e-01,4.075424911683645478e-03,-4.158955661449165175e-03,3.377479540666913655e-03,1.958798058331012726e-02
3.302436177980286325e-01,3.054246778807850338e-01,3.176224972585687256e-01,1.845918204849670858e-03,-5.150965101071774618e-03,2.480050222490805430e-03,2.388097904622554779e-02
3.341749860600886635e-01,3.186873682113921524e-01,3.023658622836310483e-01,7.324616671146986016e-03,-2.825248150238939167e-03,3.415493202153178226e-03,3.128788992762565613e-02
3.453226816342698235e-01,3.159667994031178928e-01,3.027360449720521984e-01,4.324010121093138648e-03,-3.808932956855561915e-03,1.537640789217051621e-02,4.726666957139968872e-02
3.884457707419820549e-01,2.881977921236132945e-01,2.762839913916637635e-01,2.465041819709153786e-02,-1.410229429640752138e-02,5.994695624849556703e-02,1.568004935979843140e-01
3.439624413939502690e-01,3.208405598331952047e-01,3.041084042642390184e-01,6.414386433389218829e-03,-6.946621286714793446e-03,1.229258635156485480e-02,4.385188966989517212e-02
3.335036107648979842e-01,3.106066229164990422e-01,3.102896029126362420e-01,4.480418854120082721e-03,-4.353239237698241365e-03,5.909509491650680527e-03,2.744945883750915527e-02
3.406965290463537244e-01,3.046365545529475249e-01,3.098747746116974344e-01,1.784144526698005833e-03,-3.806319839305741942e-03,3.723568770148772029e-03,3.512092307209968567e-02
3.154493013681474167e-01,3.066602627266717951e-01,2.947206749813096605e-01,4.465998107275662848e-02,4.705691711353406775e-02,-5.157272062155394965e-02,1.446740329265594482e-01
3.053870730500261588e-01,3.300613336483941840e-01,3.178705013054443640e-01,2.151615977015547410e-03,2.548403941328251758e-03,-5.818263319337522305e-03,2.432208321988582611e-02
3.202741069841887334e-01,3.154021207910681635e-01,3.190325380442147196e-01,9.714004762900031818e-04,-2.314531549543332595e-03,1.392344108172873440e-03,6.629232782870531082e-03
3.602845773614209990e-01,3.127475420502035530e-01,2.928268781352854067e-01,1.610926799569236496e-03,-1.035606128388282844e-02,4.146887783944731148e-02,9.535253047943115234e-02
3.770764430261510092e-01,2.976138460247080286e-01,2.976372304454707463e-01,-1.380340895584222100e-02,-1.716826503108134089e-02,8.714294963528634863e-02,1.747855246067047119e-01
3.499565101716859972e-01,3.159876581557000130e-01,2.987629381368612225e-01,-2.375411961148977263e-03,1.497634948036254392e-03,1.469608723363511824e-02,5.203133076429367065e-02
3.405081990519637780e-01,3.179223730505436607e-01,3.013268133248224179e-01,8.204796655884237858e-03,-6.162478983041923784e-03,1.444996123688994070e-02,4.585460945963859558e-02
3.508911754083391399e-01,3.251302422516063606e-01,2.867287270209354921e-01,9.096118312874016884e-03,-6.460680971892438168e-04,3.308970713008017872e-02,8.161995559930801392e-02
3.460495017716845867e-01,3.023210705832893308e-01,3.062374523295121609e-01,1.714234922286269301e-03,-6.734781870132556733e-03,1.399075725863542334e-02,4.988354444503784180e-02
3.434236273921735250e-01,3.163413623509088168e-01,2.991368846237905665e-01,2.580662419808311438e-04,3.622990872066857290e-04,1.391325455722121872e-02,4.557092115283012390e-02
3.427770796503067374e-01,2.998824108482688322e-01,3.002510268016703177e-01,5.121306862537327318e-04,-7.596336700910865779e-04,1.437883637999566415e-02,4.946764186024665833e-02
3.225090626113794046e-01,3.112463299937660577e-01,3.319256004034473184e-01,8.532811878345543388e-03,8.499802516160158763e-03,-8.254739708136589818e-03,3.100266121327877045e-02
3.148193166264213194e-01,3.020839066430665021e-01,3.318483732100910300e-01,8.176326465176922409e-03,4.524724162792028923e-03,-6.276867770735506877e-03,3.239174187183380127e-02
3.076737492490599357e-01,3.131255640346298774e-01,3.392431774439241821e-01,1.326487648979801301e-02,4.854877255304642508e-03,-3.002038401450750089e-03,3.846891596913337708e-02
3.095498398105919202e-01,2.813465884144609741e-01,3.418460821477418143e-01,2.719115614331505532e-02,1.019897688210086133e-02,-1.155193371017850489e-02,7.536448538303375244e-02
3.107408918768636563e-01,3.186152775440942442e-01,3.318608319982322419e-01,7.238239450341673285e-03,7.521215371848468181e-03,-7.034289488954153201e-03,2.858456410467624664e-02
3.220860641853223183e-01,3.108782752414110395e-01,3.248846646288138795e-01,8.525615111357480805e-03,8.237567701121367020e-03,-8.563115151322736943e-03,2.839761599898338318e-02
3.243875860888924545e-01,3.190986888134670352e-01,3.159530503302409032e-01,6.953589864718245396e-03,3.987375949370705781e-03,-6.277679081527734635e-03,1.911771297454833984e-02
3.239899537938656371e-01,3.155453390426354310e-01,3.148402933302045792e-01,4.041792837198525563e-03,4.526371183192059132e-03,-3.445308381781363258e-03,1.496145967394113541e-02
3.210037372911411779e-01,2.822575707144420187e-01,3.457233793067552297e-01,5.108019615480587083e-02,2.222246391163332918e-02,-3.114259014097527783e-02,1.236477792263031006e-01
3.126368441757184646e-01,3.315709829224030014e-01,3.213290998267395726e-01,6.445052345806289579e-03,7.487910450857396955e-03,-6.119619102094635450e-03,2.597399242222309113e-02
3.223463372388917780e-01,3.199908052237172007e-01,3.101370440104099790e-01,8.758073263265659172e-03,7.101751417727215562e-03,-8.668293817656944414e-03,2.706824988126754761e-02
3.028139306660552199e-01,3.197346640947415497e-01,3.177094640326306729e-01,1.345656304183648865e-02,1.369201540044519445e-02,-1.200152529663786431e-02,4.235452413558959961e-02
3.153383670544332440e-01,3.291733383563718585e-01,2.969151615857947846e-01,1.240839882643020656e-02,1.662084984072395230e-02,-1.273384181172085294e-02,5.062430724501609802e-02
3.214317589696081279e-01,3.318021647230642301e-01,3.088327246144395577e-01,7.575979681233730931e-03,8.938185140622478472e-03,-6.901994207581741564e-03,3.084980510175228119e-02
3.212884502256647679e-01,3.375935443780345713e-01,2.894493184330550473e-01,1.866684336530724173e-02,-5.019127212869040067e-02,3.666110007997251674e-02,1.201402470469474792e-01
3.321841576120866391e-01,3.384998776623242556e-01,2.860121140589744759e-01,1.910087821381716705e-02,-4.182419538775696000e-02,3.820324912227289482e-02,1.148222163319587708e-01
3.321870750778063153e-01,3.211177237649549543e-01,3.000663069836644326e-01,9.950517331067833607e-03,-9.176249610820119348e-03,1.353605711479274193e-02,4.356652125716209412e-02
2.984049387413701959e-01,3.284091966801109264e-01,3.155276782693843263e-01,2.220833561362106634e-02,-2.705009937905229755e-02,1.636507444737793360e-02,7.181844860315322876e-02
3.515198561390781573e-01,3.467554978001424759e-01,2.629330883560619947e-01,2.499959266583965181e-02,-4.564724911197858698e-02,5.697285719762004708e-02,1.590972244739532471e-01
2.986641642065995805e-01,3.751420200775850144e-01,2.495783790054017515e-01,2.038183155365016347e-02,-7.548761329760922401e-02,2.516264449784375717e-02,1.795915514230728149e-01
3.292694869396907698e-01,3.335416411728576169e-01,2.875254051554647083e-01,1.472876346409290188e-02,-1.843374702459811554e-02,1.919128504762649887e-02,6.866069883108139038e-02
3.254886612377697608e-01,3.504128717330551868e-01,2.658148590803282030e-01,1.002770739599255501e-02,-3.194127456482548366e-02,1.991377730180388453e-02,1.011018157005310059e-01
3.289768687709311856e-01,3.465114388337761087e-01,2.799679133747217663e-01,9.784894571847011294e-03,-2.522037544922279412e-02,1.629372141899455492e-02,8.099740743637084961e-02
2.924967780707856124e-01,3.144271815051054575e-01,3.404483890307765659e-01,-8.485044148607083850e-03,-3.119677273293097308e-03,-3.692990016716163337e-03,4.488653317093849182e-02
2.995329883433316409e-01,3.163194243325287425e-01,3.484449372547978041e-01,-1.497567769289918568e-02,2.744086832798765460e-03,3.154789031082337949e-03,5.077762156724929810e-02
3.041456786341633078e-01,3.057454309765361700e-01,3.371204525405179786e-01,-1.136852388193080807e-02,-5.199381422136944639e-03,-5.209956157824385467e-03,3.984225168824195862e-02
3.193331478685417224e-01,2.968065962854389284e-01,3.468733340444644098e-01,-2.519249750360417345e-02,-1.919155379485929305e-02,-1.519841047392790287e-02,7.475426793098449707e-02
2.862652151850753612e-01,2.857345027603457877e-01,3.740095178816099653e-01,-6.375638083061095640e-02,-5.181882332022247004e-03,-2.559169888610293014e-02,1.482764333486557007e-01
3.102601116167038042e-01,2.861472318567357953e-01,3.396776331130966220e-01,-2.495413994462111762e-02,-1.099605202453448477e-02,-1.060963458860519557e-02,6.873662024736404419e-02
3.671323831688425576e-01,2.323252505749348606e-01,3.765921584232005404e-01,-1.512225171221616427e-02,-1.405458507574613991e-02,-1.478771237518797591e-02,1.465345174074172974e-01
4.096245172690532454e-01,2.061227632231743545e-01,4.024480225318987081e-01,-9.555908740308659971e-03,3.594114931438128699e-03,-1.642988473551003359e-02,2.027968466281890869e-01
4.097270997979123308e-01,5.878758465380451437e-02,3.933750503953514222e-01,-2.407586248827135039e-02,-2.176108882128850036e-02,-1.422569880588079629e-02,3.485025763511657715e-01
4.090486798134732593e-01,1.557623107132950213e-01,3.739072862297181388e-01,-7.030506969348174207e-02,8.456979414551601265e-03,-6.334734001496082623e-02,2.890842258930206299e-01
3.421903649491765953e-01,2.753598489166620977e-01,3.506536261977542535e-01,3.760414893444537221e-02,-8.899234413022552581e-03,1.562674637857223991e-02,1.015674173831939697e-01
3.686735810570954119e-01,2.339540875629758931e-01,3.478104072412962489e-01,2.633557788793939106e-02,-1.237070292338544701e-02,2.374298418296606067e-02,1.414387375116348267e-01
3.523224047037114559e-01,2.256462117247555466e-01,3.450602585453920179e-01,1.596074883423201016e-02,-7.460743773221171701e-03,2.740751750879710791e-02,1.355153024196624756e-01
3.798231769607040009e-01,2.326382667812436078e-01,3.791687357799070623e-01,4.258932919654784266e-02,-9.324508680484847739e-03,3.776254524707374494e-02,1.776173561811447144e-01
3.696688834770895382e-01,2.636221513346352907e-01,3.393328294630145181e-01,2.863524084498821412e-02,-1.245719542763797615e-02,3.675912146224081384e-02,1.262074559926986694e-01
3.516679763247625989e-01,2.621544732442932513e-01,3.416037932896305307e-01,2.434275608880728456e-02,-1.220799707857727831e-02,3.537487289864004597e-02,1.148565858602523804e-01
3.574576040162770196e-01,3.279148332126676779e-01,2.800142678804063423e-01,7.701180769821068181e-03,-1.577307682622683047e-02,2.338575764946864213e-02,8.454188704490661621e-02
3.666120464179083993e-01,3.313992485502252339e-01,2.845695328156680470e-01,-1.515156732594061728e-03,3.983436620817489351e-03,3.431657253200701141e-02,9.310929477214813232e-02
3.870918319057924384e-01,2.825367422184388300e-01,3.030480718995615663e-01,1.001086120441261121e-02,-9.518047583087012667e-03,9.924866886368814700e-02,1.983210593461990356e-01
3.895237299658378949e-01,2.995468583241928107e-01,2.736974044520838478e-01,2.492688775925642683e-02,-4.305371484672408655e-02,6.714348084746565859e-02,1.789959222078323364e-01
2.853020498077176725e-01,3.575846675747521575e-01,3.123490187438127119e-01,-2.840076514821473185e-03,2.750630434896631990e-02,5.798631879588167330e-03,7.997594028711318970e-02
3.071155809399207515e-01,3.138773968070435183e-01,3.297236899599325644e-01,3.590346412116279806e-03,-2.612903145238273418e-03,5.232583076617570647e-03,2.335102111101150513e-02
2.839522881362356310e-01,3.457564717898237161e-01,3.070545753148657964e-01,3.925876766011426183e-03,2.580255124582514839e-02,-4.990526460778283921e-03,7.102058082818984985e-02
3.017737851724661136e-01,3.495053369293698031e-01,3.013000097751993844e-01,-3.311482419751852341e-03,1.348152254399989820e-02,1.296064138515192138e-03,5.370596796274185181e-02
2.790696916018365892e-01,3.492195029770271963e-01,3.111094852569567526e-01,-5.102120059035510774e-03,3.957127142672058062e-02,-3.001811087334338283e-04,9.206508845090866089e-02
2.896868601498281959e-01,3.697440796541212604e-01,3.095423813992974615e-01,8.851411286277937121e-03,3.947726607192305476e-02,-2.983630100271574600e-03,1.007518470287322998e-01
3.001767134293033545e-01,3.429036566615104031e-01,3.005178731226960109e-01,4.279449504758947478e-04,1.412077481519549184e-02,-1.752608413599834051e-05,4.909043386578559875e-02
3.430570801378247103e-01,2.654040076717877894e-01,3.532545654986823380e-01,2.885974798624386939e-02,-3.156441296191194682e-03,1.275609382907501657e-02,9.971234947443008423e-02
3.287506776814270171e-01,2.757235426867993833e-01,3.323559420063251224e-01,1.982098994304563877e-02,-8.770365467825958980e-03,1.450581409242312526e-02,7.111033797264099121e-02
3.278171987286798150e-01,2.748650345775161541e-01,3.409472882274768302e-01,2.140087046269036411e-02,-8.738097162120797914e-03,1.186438316260565382e-02,7.547809928655624390e-02
3.398149003104526944e-01,3.099822585732086577e-01,3.092258140729717275e-01,-2.456837733834709055e-03,1.824271989555258620e-03,5.199916836317277323e-03,3.197397291660308838e-02
3.966968495514063830e-01,3.888700500527731974e-01,2.010733123512181697e-01,-6.248949192244015148e-03,2.703305239008086790e-03,-2.374308455452471545e-02,1.965426057577133179e-01
3.998115424578856381e-01,3.962720255434556971e-01,2.111667964029751154e-01,-2.375369443006884219e-03,1.503704784911771841e-02,-4.004589779216276811e-03,1.888783574104309082e-01
3.979004244635882537e-01,3.961164919911062121e-01,1.144549201171740915e-01,-6.284341729599065771e-04,-9.811720226507876161e-03,-5.340527988185815589e-02,2.978006899356842041e-01
4.042925932376704168e-01,4.578049123798967335e-01,1.242251258707223749e-01,-2.832069016735363348e-02,-4.696899652389276147e-02,-2.497869834618427279e-02,3.273907005786895752e-01
3.880065942256121780e-01,3.952945123980464714e-01,1.244110817876175612e-01,2.514689666695275883e-03,-2.806417956225139634e-02,-5.090709444234581271e-02,2.856801152229309082e-01
4.008274221133451554e-01,4.079587151943393497e-01,1.028444842404420412e-01,5.085572802304077350e-03,2.212338100524713358e-02,1.383043339471373701e-02,3.051056563854217529e-01
3.193512885501031962e-01,3.214681255534607152e-01,3.162226584965386889e-01,2.704284836087216329e-03,-4.346654952142799561e-05,1.188634256939151207e-03,6.861181929707527161e-03
4.912221946322696819e-01,4.798523735303372173e-01,1.503685044571844709e-01,-2.558188575155882424e-03,3.664201133021231099e-02,-4.570511147777465977e-02,3.503562211990356445e-01
3.322072928233981703e-01,3.069999348943716067e-01,3.492579057321419933e-01,3.353507893185662253e-02,-3.003839577777007996e-02,3.673000896522229247e-02,1.071631312370300293e-01
3.267497640956510963e-01,2.999059890134634365e-01,3.489921339090164554e-01,2.759435810478192558e-02,-1.746824611106755076e-02,1.643391066509239731e-02,7.630442827939987183e-02
3.040909281486871563e-01,3.024366853245611941e-01,3.341081337959218023e-01,2.049546439360887262e-02,-1.008091665246241275e-02,1.222301406448023618e-02,5.446740239858627319e-02
3.081550087302845631e-01,3.122335974089386346e-01,3.619197877735345625e-01,3.373713381380619852e-02,-3.334310513351215755e-03,3.678727584531608572e-03,7.859094440937042236e-02
3.055103012545682395e-01,3.094916777370552707e-01,3.459293852210226783e-01,7.462308951666542234e-02,-2.747906805582127007e-02,3.680482046051950645e-02,1.565998941659927368e-01
2.982756180881636077e-01,3.156783068433458017e-01,3.323258175395823466e-01,1.817692614338312432e-02,-1.393558907728350421e-02,1.312833959377997413e-02,5.441110581159591675e-02
2.866409739164073600e-01,3.174896306600756279e-01,3.390623920822991022e-01,2.099109354905530703e-02,-1.009588169447845143e-02,7.550741101215882600e-03,6.229938939213752747e-02
3.057354778545453566e-01,2.830182121126419981e-01,3.648315752171885640e-01,-2.985589000950592681e-02,1.498799804395565876e-04,2.398513688932517925e-03,8.967927843332290649e-02
3.090848013519655324e-01,2.868827759263036237e-01,3.548090996975624689e-01,-2.538783532475165014e-02,-1.472459730167958655e-02,-1.234566523563326856e-02,8.148697763681411743e-02
2.595571702082287158e-01,3.444891839745688467e-01,3.499881687281281017e-01,-3.135251110223518517e-02,1.297819686998790550e-02,1.899562486520097945e-02,1.106682792305946350e-01
2.718710278201326158e-01,3.080611107522673864e-01,3.524272454533340926e-01,-5.254103827668600568e-02,-2.236179653020780103e-02,-1.576899264951147142e-02,1.241430863738059998e-01
3.015474078892914078e-01,3.176342207584077482e-01,3.492735242289817243e-01,-1.539920547693866132e-02,-2.487791244560749737e-03,-2.043381230441557259e-03,5.011294037103652954e-02
2.288602605179191896e-01,3.912155133642276628e-01,4.089280534120015576e-01,4.857201237450688852e-02,1.026556803049380115e-02,1.138009932411907605e-03,1.922145634889602661e-01
3.133341462929728483e-01,3.196350343619475676e-01,3.277232425038225649e-01,-1.849262464913173885e-03,2.380570292579812114e-05,-5.234516021337918233e-03,1.576530002057552338e-02
3.162668967826265387e-01,3.178491616456817215e-01,3.200016999530301276e-01,2.094772839636438021e-03,-1.983024153941473182e-03,2.500253169581201970e-03,7.366005796939134598e-03
1.149218630119995532e-01,3.822261230635864981e-01,3.726257045696456660e-01,6.338858537663616399e-02,-7.716280335228845044e-02,1.100694271312593724e-02,3.150517344474792480e-01
3.083105073410192798e-01,3.287536406028400693e-01,3.167109950157146470e-01,1.661237159608306910e-03,-1.297002277353273818e-03,4.014090727118812749e-03,1.945307478308677673e-02
2.692872007689418590e-01,3.415233386950367045e-01,3.386422330060381292e-01,5.025458991252972941e-03,4.273724879964472395e-03,-6.603985037071998833e-03,7.266111671924591064e-02
3.137745225413695049e-01,3.238650761186691041e-01,3.102770821253354461e-01,6.590053621124333620e-03,7.321429974369861662e-03,-5.598499567752695388e-03,2.311857417225837708e-02
7.250479406454360398e-02,4.085701392514915486e-01,4.120570895935691258e-01,5.280701050603583968e-02,-8.381135379499197752e-04,1.304289506668612417e-02,3.507165908813476562e-01
4.527305348689319997e-01,1.881211554578486045e-01,3.995052023660672913e-01,-7.716011635376603117e-02,1.701363631841461624e-02,-6.324631862676748095e-02,2.991602718830108643e-01
3.124857978166428185e-01,3.285458951960565366e-01,3.124955049538140073e-01,9.613965339789543648e-04,-7.959692405459418301e-05,-6.942127946456479355e-04,1.618667878210544586e-02
3.037830695381102397e-01,3.273073008599438616e-01,3.177688396470121912e-01,-1.708014752721273869e-03,2.163524958093001639e-03,5.367364814421285088e-03,2.300450019538402557e-02
1.036286991184837969e-01,3.611518975612753035e-01,4.004149322474971351e-01,1.117867816913631906e-01,3.366553304013921583e-02,-1.259534134963117419e-02,3.454501628875732422e-01
3.536387570697309135e-01,3.550615677495191913e-01,2.386914559889851684e-01,1.313162117258887592e-03,1.133593805260394837e-03,-1.540212834073199184e-03,1.157350391149520874e-01
3.148496032689927504e-01,3.254027981499243438e-01,3.172341276943649868e-01,3.963154286908508218e-03,2.270340923605405296e-03,-4.215446945133682552e-03,1.441473606973886490e-02
1.783919254760421291e-01,4.753822211834959899e-01,4.104605182419186482e-01,-2.258782928587638877e-02,1.194892276448005081e-01,-4.547131053638975469e-04,3.427845239639282227e-01
3.478383436173554943e-01,3.016476699770295200e-01,3.185372850022966107e-01,1.816225964131402189e-03,-2.847789143362928609e-03,1.568483711073866138e-02,4.910155758261680603e-02
3.478259361939509686e-01,2.913135769406068332e-01,3.136574375998809616e-01,1.525001520254669340e-02,-1.406030343022244763e-02,2.315849543855535292e-02,7.300619035959243774e-02
3.633931749548357515e-01,3.253664714387256018e-01,2.823014720620150575e-01,1.858826457865023077e-03,-7.121421713542575894e-03,3.520187868117696101e-02,9.390565007925033569e-02
3.482874856846284728e-01,3.074272033932202164e-01,2.899057341981223779e-01,4.198961533128394048e-03,-4.880743545792289723e-03,2.519224372925313316e-02,6.870809942483901978e-02
3.439966556963386934e-01,3.055466198611310191e-01,2.903642591222356240e-01,7.173641379313391159e-03,-6.698605228522412636e-03,2.558236898565454873e-02,6.741692870855331421e-02
3.234028070125106180e-01,3.122366355326818277e-01,3.084066368631440125e-01,7.292822470523986980e-03,-9.112339060982146965e-03,7.712371206278203703e-03,2.773482725024223328e-02
3.310339972999853941e-01,3.117338848456063793e-01,3.116488649445203207e-01,5.224640556085774663e-03,-5.095783256922509739e-03,6.324807864723214906e-03,2.557232230901718140e-02
3.943370132226377556e-01,3.276162911895933449e-01,2.849503904986578906e-01,1.102924696937714229e-02,-2.087243035233515495e-02,7.438995825417807350e-02,1.655060052871704102e-01
3.160023054724721558e-01,3.189476865912307391e-01,3.158306630485184230e-01,1.121811289088320675e-03,-2.157776762955031756e-03,1.849295051544665603e-03,6.100274156779050827e-03
3.658663216965901688e-01,3.267436408516741220e-01,2.238182268865734348e-01,1.048635901325132604e-02,-1.353980094581982833e-04,6.809634684758211765e-02,1.743336617946624756e-01
3.013593856663863146e-01,3.183666904222242078e-01,3.496539203664665862e-01,-1.728785508317024280e-02,2.084658318553494864e-03,9.134949895489173546e-04,5.208071693778038025e-02
3.478918612760424911e-01,3.402662731110581151e-01,2.587232982651966329e-01,-4.475774263467260233e-03,-3.566581491390042463e-04,6.372256075630562330e-03,8.666899800300598145e-02
1.666536905744052943e-01,4.761489895137457906e-01,4.553856912704613014e-01,-1.929827309729998872e-02,7.846012255517502421e-02,5.859555372571483879e-03,3.308784663677215576e-01
3.156517790952469427e-01,3.037423355382246060e-01,3.361876771716399426e-01,-2.651934913605123387e-02,2.669768690403795733e-02,2.718933785799428071e-02,8.528795838356018066e-02
2.801954265521391929e-01,3.333053868531155040e-01,3.417244179850459362e-01,-1.684053278155510022e-02,1.397443480761434778e-02,8.494692890780709479e-03,7.065286487340927124e-02
3.180510934783217225e-01,3.079075036009433775e-01,3.351807863303590818e-01,-1.121101893877425593e-02,7.985223043626466649e-03,7.279826289354921626e-03,3.601964935660362244e-02
3.422395261544435852e-01,3.496368098083078579e-01,2.617340730484585820e-01,-2.667511645512643786e-03,7.057629729059082362e-03,9.907206677159541980e-04,8.546982705593109131e-02
3.084257869454959944e-01,3.281982783302649365e-01,3.192712701955246479e-01,1.661339031643855246e-03,-1.296543860370897184e-03,4.906027496249833197e-03,1.948497444391250610e-02
3.137104953103854177e-01,3.326499030053626793e-01,3.087926901814412872e-01,3.969924772976568712e-03,-2.657187416783127632e-03,2.262647488225537264e-03,2.366110496222972870e-02
3.370981986900637994e-01,2.724344600323545529e-01,3.417347492377607043e-01,-3.728427306539291650e-03,5.487936283233204801e-03,3.829105133093580610e-03,6.840142607688903809e-02
3.095771634303850495e-01,3.325485940659076989e-01,3.381424479428984387e-01,-2.692328765610271790e-02,2.404513269248766127e-02,1.972788746442375590e-02,7.592193782329559326e-02
3.270094646489606904e-01,2.877312562067282364e-01,3.442435751483965967e-01,4.712679262450001835e-03,3.233780083747869651e-03,-9.385386535121214169e-04,5.116013810038566589e-02
2.791413475510347020e-01,3.308260345179714346e-01,3.476933702487257638e-01,-2.060759525069928016e-02,1.670798694843053309e-02,6.522720901110875234e-03,7.788917422294616699e-02
2.329325809496756161e-01,3.679158986825489253e-01,3.802497884424408392e-01,-7.934201602337898063e-02,1.245442474269508604e-01,3.850103455305443900e-02,2.998395562171936035e-01
2.653093548773108323e-01,3.417357805590756081e-01,3.474199926115806858e-01,-5.727693160626471172e-03,6.160992243012618609e-04,2.935021690368919047e-03,8.020681887865066528e-02
2.219176107691644972e-01,3.568956959892876091e-01,3.063666818567852279e-01,-7.376288031334819750e-02,1.052234228193925508e-01,6.242257925626400195e-02,2.741906046867370605e-01
3.412158873613920229e-01,3.070428050154626609e-01,3.093015853309220020e-01,5.283434112758861973e-04,-1.133713107824016377e-03,8.748791291795011450e-04,3.320695459842681885e-02
2.816978540547462884e-01,3.590562323160410574e-01,3.356437193643275751e-01,-4.980308405511636033e-02,6.529436701091502482e-02,4.191913052121098299e-02,1.738506704568862915e-01
3.167343393287786468e-01,3.323433869879765523e-01,3.065749791420833148e-01,4.395511624015161975e-03,-1.729855157659662213e-03,1.398535285151568169e-03,2.404660917818546295e-02
3.132586116142048738e-01,3.253074447451593798e-01,3.163263379961265831e-01,1.210595375591343474e-03,-1.357742687214263900e-03,3.479819286688083744e-03,1.280145533382892609e-02
3.068269195624833134e-01,3.403620327896804687e-01,3.180462600684539898e-01,-6.910460221929519246e-03,-1.209979038244960239e-02,-7.708638071662367308e-03,4.043492302298545837e-02
3.170366400346240066e-01,3.402449427512051483e-01,3.030672438599100182e-01,-7.417402649012194704e-03,-1.360888216475043475e-02,-7.268571107259376440e-03,4.401284083724021912e-02
3.043185773145701267e-01,3.611347745311760393e-01,2.501442855941264365e-01,-1.134132066410293259e-02,-5.692081251507883494e-02,-1.347584115108452912e-02,1.410373002290725708e-01
2.822215213333861827e-01,3.608305513785434182e-01,2.722912526247663334e-01,-1.321179578113892451e-02,-6.470287118008531679e-02,-1.493490212956824145e-02,1.442594528198242188e-01
3.134986556971458560e-01,3.222777646298693455e-01,3.094448545882758639e-01,5.402555266911526592e-03,-7.275785715019911226e-03,6.295403599866377688e-03,2.223432250320911407e-02
3.041003287536053756e-01,3.830909981456436797e-01,3.209136839909848549e-01,-2.704104868759311248e-02,-6.725111633771493902e-02,-3.014199137233052744e-02,1.538880318403244019e-01
2.968735690759740087e-01,3.813652040019260836e-01,2.821843364423596290e-01,-2.954834768895649166e-02,-5.447016315091629535e-02,-2.673744353928057815e-02,1.492002308368682861e-01
2.881060070801313988e-01,3.385452131329189651e-01,3.018537147805844256e-01,-1.023238744053388445e-02,-2.869411101261334571e-02,-1.188957364750168298e-02,7.244264334440231323e-02
3.095797893089173303e-01,3.392826081034946428e-01,2.898827001155428462e-01,-1.095162764494077810e-02,-2.402627213452164512e-02,-9.944298203984659745e-03,6.514260172843933105e-02
2.847109371532589028e-01,3.468338957351004281e-01,3.306853310792300382e-01,-1.444297192346424667e-02,-2.673719990685794953e-02,-4.260706430277279473e-03,7.708264887332916260e-02
3.203709762901378877e-01,3.280690903874550202e-01,3.092778719559193812e-01,5.013440676513094760e-03,1.192212852857457402e-03,-1.300887141330822616e-03,1.877388358116149902e-02
3.139526832189751815e-01,3.251876581481132900e-01,3.139865503292879056e-01,4.071060878217190419e-03,-4.287027769947573258e-03,4.254123263613319821e-03,1.688177883625030518e-02
3.297325896912599585e-01,2.820149691398298186e-01,3.477827545512475194e-01,-2.355331750709679928e-02,-7.994663293888364108e-03,-1.255992257547135574e-02,7.611416280269622803e-02
3.130579633609555379e-01,3.315530920472876120e-01,3.096911338478378628e-01,-3.447735713911995875e-03,-1.960098302435297687e-03,-1.148996428653688935e-03,2.160607464611530304e-02
3.236483036461396123e-01,3.230026546706563084e-01,3.240755343844655134e-01,-2.300126762793102547e-02,-1.998832763824247641e-02,-1.694521171994519890e-02,6.039926037192344666e-02
3.027445606729736727e-01,3.330990824467072731e-01,3.071565057185553504e-01,7.060448471581868592e-03,-1.009873514404943315e-02,6.664326336540577454e-03,3.735883533954620361e-02
3.073397020861783346e-01,3.191415221809974501e-01,3.386356585145179898e-01,-9.223110807891898855e-03,-4.932443676564474480e-03,-5.349286598336913841e-03,3.410864248871803284e-02
3.191109368810112756e-01,3.099564243301325406e-01,3.204038630047607583e-01,1.301199121387871388e-03,4.922831617187779958e-03,-1.466956540814958734e-03,1.347408350557088852e-02
3.063012188374777400e-01,3.177049988547206993e-01,3.292428041669398509e-01,1.800032596857790990e-02,-1.989231348653675013e-02,9.504197838695110576e-03,5.314958840608596802e-02
3.126567392562732972e-01,2.878655798487445017e-01,3.706187582278950288e-01,-8.190550334406493382e-02,1.916069393236664864e-02,2.743199705096955460e-02,1.699871122837066650e-01
2.841280684220227615e-01,2.950709812288794809e-01,3.494428278948918387e-01,-3.615576514039427897e-02,-7.930361954386078984e-04,-3.522711876205195732e-04,8.714934438467025757e-02
3.271000040520351537e-01,2.927097561415116234e-01,3.377072055894897451e-01,4.475066414028163950e-03,5.576242732530902607e-03,-2.053100391567804633e-03,4.273165017366409302e-02
3.156147072004076293e-01,3.078601065410457860e-01,3.430185515992889012e-01,-1.406665145969956954e-02,-7.532699426734373871e-03,-8.080788267225639393e-03,4.453475773334503174e-02
3.016366483820183131e-01,3.161834590874556539e-01,3.428095553707233845e-01,-1.550293092062178871e-02,-6.808797922395916705e-03,-6.281873715231931291e-03,4.781601205468177795e-02
3.157711761710504939e-01,3.016949202086586235e-01,3.473499879958592551e-01,-1.388358780138824675e-02,5.466963683964221228e-03,4.771956668042579529e-03,4.874539747834205627e-02
3.123010910293378961e-01,3.577714880327245717e-01,3.057747523328297468e-01,7.539023702200184016e-03,-3.659331519266335181e-02,5.864182903779752327e-03,8.184005320072174072e-02
3.401928929428087445e-01,2.627301555031690272e-01,3.483358884213412776e-01,-5.806699752018595201e-03,-2.733774988065329654e-03,-1.783446772621941631e-03,8.264791965484619141e-02
2.794906438303873530e-01,3.605074185862782721e-01,3.338110668238811196e-01,3.620103512132552027e-03,-2.900291126996572266e-02,3.405155143938651784e-03,8.781325817108154297e-02
2.683275899278679266e-01,3.379116992626707838e-01,3.016043685352977621e-01,3.357993470541158210e-02,-5.495572055498296887e-02,2.687159689970378823e-02,1.350675225257873535e-01
2.959177448211423589e-01,3.444855097059238425e-01,2.818438371880943594e-01,-2.245750584974280650e-02,5.300765346816409956e-02,2.393492511779438461e-02,1.220718473196029663e-01
3.413770104840986863e-01,3.111422022535447196e-01,2.849636918679432918e-01,1.144686522555102455e-02,-1.291170823148140440e-02,2.478929386243202901e-02,7.160807400941848755e-02
3.101582573067656612e-01,3.360116075543030933e-01,3.067786150043719795e-01,3.120956295678937748e-03,5.394553450386876947e-03,-1.689606091360894074e-03,2.987108565866947174e-02
2.661278981871875171e-01,3.410185898276406058e-01,3.317291479050190062e-01,2.480186428206703972e-02,-3.884242382217584222e-02,1.876499138146896228e-02,1.114773079752922058e-01
3.086804409204461086e-01,3.414234399291845579e-01,3.069698645677445548e-01,3.907316741734068893e-05,-9.541484721872820450e-04,-3.022987335643586150e-04,3.367564827203750610e-02
2.695554773661942849e-01,3.579760300241668358e-01,3.346158798916101240e-01,5.421921125176151247e-03,-3.650859765392097667e-02,7.155019971152075733e-03,1.026585623621940613e-01
3.113817328027919107e-01,3.094728944175560437e-01,3.322491109828684674e-01,3.712383501859508467e-03,3.706349154906495892e-03,-2.818129457999883191e-03,2.419308945536613464e-02
3.373386905807573832e-01,3.182772677040569542e-01,3.041294924109113063e-01,5.943117700468975723e-03,1.973394128114684069e-03,-1.767454995727953332e-03,3.098694235086441040e-02
2.658538929113505311e-01,3.609068165206535395e-01,3.554341066175322195e-01,5.202049970723970213e-03,1.755483538844675173e-02,-2.469980994025349971e-03,9.782031923532485962e-02
2.877742393502711327e-01,3.507639152374170677e-01,3.139638285228748549e-01,5.818303055146860532e-03,-2.436644523005782048e-02,4.613289684772311355e-03,7.035976648330688477e-02
3.103822986185560961e-01,3.062066120212671994e-01,3.362210583219325533e-01,-3.365643569517578690e-03,3.485001780750068921e-03,1.941032745465822839e-03,2.957521937787532806e-02
2.915044434025946263e-01,3.312118427333389792e-01,3.507071195544800846e-01,2.039668913245991713e-02,1.624900465672480740e-02,-1.154877885529438479e-02,7.191062718629837036e-02
2.862514190681054171e-01,3.258812222849810092e-01,3.492052588257264500e-01,4.438889504193756740e-03,-1.785574868579412825e-04,5.400339048738545412e-04,5.566813051700592041e-02
3.104402699814313715e-01,3.129500854456043202e-01,3.538911315523725620e-01,3.492573083502132497e-02,1.230539650923783736e-02,-1.435855614860813076e-02,8.073051273822784424e-02
3.211469172478578216e-01,2.959560893313721297e-01,3.594799089407828552e-01,6.562408563564912922e-02,3.489809719571108915e-02,-1.268374487970700543e-02,1.418642401695251465e-01
2.814374968572006530e-01,3.444831624888131660e-01,3.253568380813837702e-01,-7.381562499229655811e-04,4.367217660178427177e-03,-3.449509016592950880e-03,5.682684481143951416e-02
3.492316018750148410e-01,3.038895682292874767e-01,3.008032235404333732e-01,3.279579539488853245e-03,-1.525656052875084536e-03,-1.781149290287112330e-02,5.653639882802963257e-02
3.408477964717667175e-01,3.114230365693965719e-01,3.105668827257534459e-01,2.850557940647638865e-03,-3.832793932382760546e-03,5.702368878295768773e-03,3.252292424440383911e-02
3.064125062498184726e-01,3.397651698346983440e-01,3.096039764746310596e-01,7.061802761610018269e-05,1.307679204003729450e-03,4.028699858191887406e-04,3.196519240736961365e-02
3.439080437064977458e-01,3.151057630482848593e-01,2.887021838145577557e-01,2.476740473160345818e-03,-3.718510892410424812e-04,7.749486873767428077e-03,4.986165836453437805e-02
4.809097261814976876e-01,4.860511627436046589e-01,1.248088146718706881e-01,1.580267278406393967e-04,2.678863160054721637e-02,-1.893981114607255767e-02,3.631725311279296875e-01
3.132649186502914351e-01,3.129366030020492295e-01,3.281196188585397411e-01,3.872234001950295291e-04,1.003562534425989951e-03,8.453977925801900743e-04,1.520731020718812943e-02
2.874936095230263833e-01,3.385038631565694400e-01,3.393618926394393887e-01,6.275651343120812464e-02,3.891865662781758550e-02,-2.077478261151681493e-02,1.424796432256698608e-01
2.506835540696577547e-01,2.889353714481080471e-01,3.607819196591717792e-01,7.308266744878369470e-02,1.105282353051094055e-02,-7.163834855027796829e-03,1.609878093004226685e-01
2.877599300301181273e-01,3.280160632316249103e-01,3.537965638070832419e-01,2.784852274395117552e-02,2.095527235036402300e-02,-7.761348415437196308e-03,8.454418927431106567e-02
3.479408169187694355e-01,3.290015229487013304e-01,2.795140390594928470e-01,-4.952725366350928596e-03,-4.164347372505088941e-03,-2.352243640829183857e-02,7.436729967594146729e-02
3.282718285927513358e-01,3.107827871930338715e-01,3.146720699644169894e-01,1.415028712967403681e-03,-3.247771935811354614e-03,2.313678038087808950e-03,1.751238293945789337e-02
3.608703158106280062e-01,3.644339838642766116e-01,2.070632773341054278e-01,-4.849995617983913349e-03,-3.899797129578756738e-02,-4.954947407837289458e-02,1.903049349784851074e-01
3.623853778250275548e-01,3.614688217818513016e-01,2.352965839408947546e-01,-5.181539519241342394e-03,-1.192073410196078931e-02,-2.874163892945960294e-02,1.379167139530181885e-01
3.870368157756476357e-01,2.937376986946086954e-01,3.399644898424152295e-01,-2.357701510758937469e-02,1.629908579437142416e-02,6.717919244863383710e-02,1.501081734895706177e-01
3.524703433885922887e-01,2.344722019850862815e-01,3.486061941662165209e-01,-3.001840985942665074e-02,1.426393731856462690e-02,2.825186423957631865e-02,1.385306119918823242e-01
3.792950127316829234e-01,2.605087422804848729e-01,3.672070947920524353e-01,-3.962855402803176080e-02,1.984905330039403795e-02,5.794075824134430064e-02,1.696615219116210938e-01
3.067622813270690085e-01,3.096545154535302324e-01,3.412050134465506313e-01,-9.753254810514276184e-04,3.981550640133937869e-04,1.155777173313308559e-03,3.320221602916717529e-02
3.605201941045717562e-01,2.714750216539753569e-01,3.243949834809959909e-01,-2.824139019560793426e-02,2.053095665847817428e-02,4.062903304970990476e-02,1.209410652518272400e-01
3.170529676052671886e-01,3.193312844328689559e-01,3.179759591597397517e-01,-9.606341631550540609e-04,9.593164165056808444e-04,1.677017408862171597e-03,4.231578204780817032e-03
4.369179583070169626e-01,1.788321812011606227e-01,3.368914878655178691e-01,-5.141422481753847584e-02,4.870327833524578515e-02,8.293109839447995735e-02,2.940699756145477295e-01
3.845699279579901098e-01,1.472108430127780643e-01,3.114064752345001019e-01,-9.235829262150788144e-03,6.621614836911376848e-04,1.083827709582757814e-01,2.825312614440917969e-01
3.434213064319430742e-01,1.475684909450366011e-01,3.894441320336250456e-01,-7.952802744081691189e-02,4.776113096640915989e-03,4.432437910845895418e-02,2.728124558925628662e-01
3.568919620157444683e-01,2.395947717220965334e-01,3.479987315981059037e-01,-6.370335835209903382e-03,4.048685895429485551e-03,2.006704934079086428e-02,1.190527081489562988e-01
3.744038141721403590e-01,2.290724961426688910e-01,3.593091672782381951e-01,-2.587898566301604069e-03,6.151863989548614527e-03,2.374315909714667244e-02,1.448452770709991455e-01
3.686410019931938287e-01,2.105853047453996041e-01,3.717549242827035694e-01,-3.525577098493175971e-04,1.031716146338654792e-02,2.867888756218864993e-02,1.681386679410934448e-01
3.193382497897463979e-01,3.216809469793239784e-01,3.152448101482772103e-01,3.234668313098287753e-03,1.211002680326253101e-03,-1.425718821579288406e-03,8.586093783378601074e-03
3.162615512771007054e-01,3.162626167200372485e-01,3.223426055221183528e-01,2.713188552720694141e-04,5.973588796652273608e-04,6.999601537050497866e-04,6.303485482931137085e-03
3.575721421932952504e-01,3.226578536083977711e-01,2.818091248210772837e-01,1.234172000351706905e-02,1.646749873882041512e-02,-4.837602227043590053e-02,1.122721657156944275e-01
3.379061017474939699e-01,3.185407643714284753e-01,3.313614057746943620e-01,2.327026744897536109e-02,2.163693298217841260e-02,-2.825677182213016253e-02,7.560046762228012085e-02
3.194841725358619766e-01,3.308508731513979395e-01,3.103222945591351811e-01,5.955925703984375937e-03,6.338395523859274676e-03,-5.410645388977139078e-03,2.514065243303775787e-02
3.163605145898752968e-01,3.186866816756588339e-01,3.216986654757844066e-01,2.708372427476005129e-04,5.971665445664110566e-04,1.491853701232575711e-03,5.427360534667968750e-03
3.198626337285818688e-01,3.384680190355086604e-01,3.065234139950980263e-01,1.025414708863031307e-02,1.136431573845463235e-02,-8.186910817788791914e-03,4.094189405441284180e-02
2.999135342380840341e-01,3.377583880304290131e-01,3.186549209022920826e-01,-1.067759881771037419e-03,3.994652491875248443e-03,5.719829897833051020e-03,3.498069196939468384e-02
3.134633420076243793e-01,3.441889017405254658e-01,2.883263638037768528e-01,1.464931781591672288e-03,8.800233575487710624e-03,-4.808646752543651280e-04,5.086982995271682739e-02
3.363002069057866028e-01,3.025505754615018250e-01,3.170574547790227515e-01,-1.244464771994678500e-03,3.809725718404756607e-03,3.109426451548664982e-03,3.061174601316452026e-02
3.433509725235944776e-01,3.205067439826315145e-01,3.027894549610141706e-01,7.367845175421853729e-03,2.406780350723091051e-03,-1.372403784120680183e-02,4.456209018826484680e-02
3.384620873173556088e-01,2.878414025612868188e-01,3.078236669230080547e-01,1.166489898995673458e-02,1.146188114118970765e-02,-2.654254156923793392e-02,6.975730508565902710e-02
3.287603453644069029e-01,3.362415524090900387e-01,2.860515209389702385e-01,8.156497718785789969e-03,5.011552311531104580e-03,-1.364337248104449327e-02,5.507161468267440796e-02
3.339973189343395377e-01,3.065584565628334257e-01,3.019067630435167127e-01,7.383219067183970086e-03,8.964154580937303690e-03,-1.109604680700195141e-02,4.094065725803375244e-02
3.136433272391779270e-01,3.211872706043892300e-01,3.203177998593796927e-01,-9.567819372359657299e-05,8.803277218223289893e-04,3.614099678493860879e-03,9.625245817005634308e-03
3.128830121217630045e-01,3.282494127196629030e-01,3.155423000622853968e-01,-7.077758319261509123e-04,2.368385747133355812e-04,2.217560547289376509e-03,1.479047816246747971e-02
3.669414698088775406e-01,3.316928327949941746e-01,2.614548877500870172e-01,-3.962458673188026456e-03,-1.425983256861701812e-02,-4.037086243108348876e-02,1.191561073064804077e-01
3.179657939864527494e-01,3.223582313119625620e-01,3.165028534565060836e-01,-5.754439868351745842e-04,3.361990714227831856e-04,6.997431056001101029e-04,5.537237040698528290e-03
3.657147084758794464e-01,3.202245722378127546e-01,2.335746972092637708e-01,-7.205599178080689116e-03,-2.538299256186735478e-02,-6.068149637322413359e-02,1.632625162601470947e-01
3.521527172813165296e-01,3.334252207124184242e-01,2.765110895073646935e-01,-3.548274405517870544e-02,-2.780788559366362961e-02,-7.762185270417529259e-02,1.697885841131210327e-01
3.738714822349238354e-01,3.167451845640565922e-01,2.701823124693512046e-01,-2.895496196995153010e-02,-4.067121594854203326e-02,-5.538763153534120159e-02,1.573926955461502075e-01
3.584667182514327255e-01,3.104736091583429336e-01,3.194763028622534806e-01,-1.418803874551107999e-02,-5.107658952533828886e-03,-3.751319771407564396e-02,8.280220627784729004e-02
3.976182686917704712e-01,2.809948115976743654e-01,2.693054103650817099e-01,-1.047883610453752799e-02,-2.985764520817649117e-03,-6.737593685511866770e-02,1.705158203840255737e-01
3.375599777635802101e-01,3.082141834046957518e-01,3.229841855796758421e-01,-2.184553501722975855e-02,-1.428243016734948197e-02,-3.719153514453018422e-02,8.269926160573959351e-02
3.346472394529635963e-01,3.194269038243024439e-01,3.177323017442697517e-01,-1.263909281897439285e-02,-1.280549968512039241e-02,-2.195269271157391025e-02,5.174231529235839844e-02
3.152163250099563330e-01,3.285297551137184580e-01,3.131986541824364201e-01,-8.019851018849055279e-04,1.198561650999843990e-03,7.697531839127701864e-04,1.470364909619092941e-02
1.191068894911104792e-01,3.765595364154727953e-01,3.964910738300186921e-01,-6.240259599336163421e-02,1.053452602601681783e-02,2.558932079323479949e-03,2.895606756210327148e-01
3.587604203129357572e-01,3.533113199485972133e-01,2.559969804901908175e-01,2.965295971179332003e-03,9.333756290817474613e-03,6.188721334159257015e-03,1.021405160427093506e-01
2.817578624574236801e-01,3.473623553814204623e-01,3.274527492467061984e-01,8.955140184271176860e-06,4.878317352500500213e-03,-1.211817727012025466e-03,5.890655145049095154e-02
3.339867428221311441e-01,3.040897042960801766e-01,3.181244169209723194e-01,-8.690472369008014550e-03,-7.827127100859547840e-03,-1.341221197900926455e-02,4.026458412408828735e-02
3.337353495014799276e-01,2.950698397559490815e-01,3.271331895033078307e-01,2.493056636722817271e-02,1.185768127602511261e-02,-1.947934283687065282e-02,6.861546635627746582e-02
3.215516673994592844e-01,2.994806864098736310e-01,2.988589380150699637e-01,3.811765334051258475e-02,4.174556008581672278e-02,-5.062030827908262087e-02,1.333245187997817993e-01
3.390640773716231959e-01,2.844766242236684839e-01,3.261329781822445706e-01,1.234443874235178346e-02,1.156707592045038389e-02,-2.187401525416991094e-02,6.881200522184371948e-02
3.686732090955699981e-01,2.571457836077628567e-01,3.765518136375572977e-01,4.362602687845261451e-02,1.480982300496625978e-02,-3.186208035563623669e-02,1.509714573621749878e-01
3.066158889655280495e-01,3.413239009113706590e-01,3.083108607641684706e-01,-1.999147942775813256e-06,5.878944465040479746e-04,3.041422609612210327e-04,3.391171246767044067e-02
3.468932437430046756e-01,3.526778543606935989e-01,2.548030305262337647e-01,-4.927985266213394389e-03,7.656945861597035108e-03,4.845308191564180744e-03,9.677782654762268066e-02
3.512307604707549102e-01,2.395352684700940149e-01,3.477106347844376444e-01,2.016385037322456636e-02,7.671482828439745924e-03,-2.116079110594234688e-02,1.217978969216346741e-01
3.563052383637964615e-01,2.679438938941330894e-01,3.441094843396215186e-01,3.201797758380703351e-02,9.236982363564405496e-03,-2.397087861294350947e-02,1.092431098222732544e-01
3.284508433737953204e-01,3.542782732588267702e-01,2.679698030552843391e-01,5.329803726373275041e-03,1.386441229622054766e-02,-1.545682279835711073e-03,8.096996694803237915e-02
3.242056959264535410e-01,3.033201078047316201e-01,3.383492791980048930e-01,4.347482305831828348e-02,2.947921035766010167e-02,-6.069835567025090584e-02,1.423438340425491333e-01
3.583874444909029844e-01,2.864415273879558077e-01,3.324634608496750410e-01,2.616309641079394427e-02,1.291984790252384552e-02,-4.362270277129848967e-02,1.106627956032752991e-01
3.088902221431921169e-01,3.278079103296849262e-01,3.179365858382041665e-01,1.096238940875982190e-03,1.846901779399098831e-03,-4.984793653718211891e-03,1.889344304800033569e-02
3.361574439195280650e-01,3.152156669585835513e-01,3.009900873356277651e-01,3.136426627711328546e-03,1.065253477151534810e-03,-2.783540993984214094e-03,3.154352679848670959e-02
3.030118994602292171e-01,3.494672191932316485e-01,2.779263560308268821e-01,-3.450263686500410626e-03,-3.341550789361864837e-02,-2.463796320659323615e-03,8.576975017786026001e-02
3.316009177622244453e-01,3.520241159436089395e-01,2.671158632121392040e-01,-9.139400808383563862e-03,1.539395734930547668e-02,2.310456246647679939e-03,8.288511633872985840e-02
3.089885515828387774e-01,3.448577497963659644e-01,2.894719859320199484e-01,6.338158294560272861e-03,-1.944815868522731250e-02,7.297504883840627218e-03,6.150211021304130554e-02
3.083224798638850017e-01,3.401185246774147686e-01,3.074372843623796037e-01,-5.853676017050809914e-04,8.341575958646053543e-04,1.241566134490364637e-04,3.229673951864242554e-02
3.042723835554885792e-01,3.983380342220486092e-01,3.130348446395512241e-01,2.170722846494232278e-02,-8.330587194274895191e-02,2.393711281078233707e-02,1.790336668491363525e-01
3.269483374649138074e-01,3.446975538252525784e-01,2.863089005931784836e-01,-3.284346089371955203e-03,5.257534545831976311e-03,3.015740390206461262e-04,5.294785276055335999e-02
3.365993085601495793e-01,3.677704872180894147e-01,2.750443476478823812e-01,4.985569074320397517e-03,-2.709503116672215203e-02,-2.787525479950266061e-03,9.476125985383987427e-02
2.815704173602187055e-01,3.497512076455521757e-01,3.012820902503844933e-01,-3.701148085443075816e-03,-3.342380506485541358e-02,-4.449773430732530122e-03,8.452905714511871338e-02
2.925231971279495524e-01,3.167942975699667985e-01,3.399588077547481269e-01,9.368854344410260104e-03,-2.776101502882131339e-03,4.907769087491815202e-03,4.523951932787895203e-02
3.070946519221445792e-01,3.083103294303217723e-01,3.375502243276562453e-01,1.119921115147099605e-02,-5.814216818041494442e-03,7.697311895476592267e-03,3.933730721473693848e-02
3.108162097378913136e-01,3.156524050095279588e-01,3.217680197154613175e-01,5.724006395891299143e-03,-9.071607716701146976e-03,7.049854409908699361e-03,2.417937479913234711e-02
3.206548238334457901e-01,3.083533129393555838e-01,3.383674474747683236e-01,8.905996179925707371e-03,-7.737616664123484617e-03,7.562549699902582079e-03,3.566644340753555298e-02
3.142325632429489035e-01,2.963005991255321936e-01,3.323218053944335670e-01,1.710777219846854047e-02,-1.476878155819602925e-02,1.551374192518006553e-02,5.681160464882850647e-02
3.453031752836568380e-01,3.002526876047435511e-01,2.915843429312988677e-01,2.389734093945620683e-02,-1.630773658837007117e-02,4.636768764056296843e-02,1.070334687829017639e-01
1.340500315965295064e-01,4.146523849866898814e-01,4.194572685793687139e-01,-2.931037877882318801e-02,-9.087619195917426285e-03,-2.588058972037263900e-02,2.914506793022155762e-01
3.177753818092906579e-01,3.177003470148405673e-01,3.177297785282681142e-01,3.714754041513852810e-04,2.219488309817612629e-04,-8.801854261244432568e-04,1.700068474747240543e-03
1.271791801441504721e-01,3.984377788397199804e-01,4.260612007506359711e-01,-7.039090457310745452e-02,-5.427477143994213077e-02,-8.556516097164750326e-03,3.252059519290924072e-01
2.959044982457411654e-01,3.445895241651429353e-01,3.133080155086873653e-01,4.864090521738726825e-04,2.813338122996672172e-03,-1.078595533454154015e-03,4.305540770292282104e-02
3.036923250359174764e-01,3.280646695687121639e-01,3.279321587659783654e-01,1.846907561115112770e-03,2.345041744954350343e-03,-5.827875550095745587e-03,2.682205103337764740e-02
1.680353474593576923e-01,3.993693506338171773e-01,5.102833411961670285e-01,-8.073810216229559966e-02,-7.447516540964782550e-02,-4.197537247530784381e-04,3.573116362094879150e-01
1.245192913174734684e-01,4.525444094795941785e-01,4.506130542196891131e-01,-3.944586532812640461e-02,-4.851336533588707089e-02,1.953482057402177244e-02,3.461850285530090332e-01
3.413702313678869116e-01,3.866081590747428298e-01,2.370912005156877722e-01,-2.191240012813240601e-02,3.806062808845610962e-02,3.498412351099263601e-02,1.646083593368530273e-01
3.387541390297859611e-01,2.434990395469982805e-01,2.812918414904340136e-01,-7.577445289483034085e-02,-8.152991251166144537e-02,-1.154781495718159717e-01,2.899554669857025146e-01
3.392397250984235946e-01,2.528191040676213142e-01,3.710256513465117756e-01,-7.712433938552762380e-02,-4.184428223492370202e-02,-1.339530297507727785e-01,2.969063818454742432e-01
3.548798764755968227e-01,2.514644363478459321e-01,3.175459515940532440e-01,-2.038598247041568945e-02,-1.431665205315078328e-02,-4.866456529281340537e-02,1.311261057853698730e-01
3.238317837007581024e-01,3.138126069171150445e-01,3.154725498303608822e-01,1.382319476436757793e-03,1.414896603223263563e-03,-6.827754935443998419e-04,9.982225485146045685e-03
3.783090505582413776e-01,2.745511515720188700e-01,3.395210761051773440e-01,-3.512360240497043595e-02,-2.172392481360843966e-02,-5.746553442807533080e-02,1.525427848100662231e-01
2.646283486939899898e-01,3.704880292653152662e-01,3.429838499807120189e-01,-1.929465907694356136e-02,4.353108482674782065e-02,-8.408348092724509878e-03,1.267477273941040039e-01
4.294780290492177799e-01,1.794373620438955153e-01,3.329409189922946655e-01,-3.280962005871976978e-02,2.908747117449710790e-02,-1.474401593486778239e-01,3.445068895816802979e-01
2.960865434447466082e-01,3.189197621157469076e-01,3.479281893233903689e-01,1.707963451308112252e-02,2.963599820923679649e-03,-1.560980564713498843e-03,5.416641756892204285e-02
3.412577858650513996e-01,3.471370959209927332e-01,2.669187046303883037e-01,5.852134853687124619e-03,5.307527968913389876e-03,-8.530331440173025137e-03,8.002174645662307739e-02
2.213454325501421627e-01,3.486353922930550131e-01,3.836587564747357404e-01,-5.198671206314661036e-02,2.575383458569365999e-02,8.616275828176124313e-04,1.788500845432281494e-01
3.217412156458130390e-01,3.178611494836717233e-01,3.156108202293702591e-01,1.581427372450879866e-03,4.333756275078424580e-04,2.646751968907052059e-04,6.093164905905723572e-03
2.766530395979558410e-01,2.897218434067900250e-01,3.718893511436753840e-01,-6.124092436642318560e-02,1.073598150717739938e-02,2.394083160201931210e-02,1.459888666868209839e-01
3.134847424734145682e-01,3.280121791685455257e-01,3.094225177972088070e-01,3.443844948492788376e-03,1.659874669804732930e-03,-1.411414633829311460e-03,1.834077015519142151e-02
3.260661144932651134e-01,3.369095874434948623e-01,2.916675441558325699e-01,4.494284591973530391e-03,3.827013475721538320e-03,-3.009346119981635287e-03,4.249170422554016113e-02
2.157042430126687171e-01,3.774579749610220136e-01,3.767643496748332987e-01,-5.957152854625287486e-02,-1.439609322129968734e-02,-3.613932105294213274e-03,1.932867765426635742e-01
2.754554682574152369e-01,3.307538469631952638e-01,3.545643617676303427e-01,-2.904098589436763383e-02,7.194166141412833802e-03,4.960926167186806984e-03,8.775404095649719238e-02
3.282205480530959174e-01,3.116617901814136005e-01,3.170977869331410015e-01,8.560043948206316452e-04,3.958647030234222278e-03,-6.622423121712857352e-04,1.625594496726989746e-02
2.812618792931820266e-01,3.012164983369874927e-01,4.036699209643007102e-01,-6.792047258270332566e-02,1.817742445994346978e-02,1.409074572982586902e-03,1.666616201400756836e-01
2.682723408230324180e-01,3.442918251707577926e-01,3.754171513954187578e-01,-6.290768757597117733e-02,1.503430857256416592e-02,2.251949093747612762e-02,1.522677987813949585e-01
3.262515233962008931e-01,3.479782061631320755e-01,2.838334865745239521e-01,3.508863321115841469e-03,5.173263625297049376e-03,-1.307672185518855877e-03,5.757860839366912842e-02
3.663096468236383130e-01,2.826262837691791430e-01,3.379036315915605049e-01,1.213739120508142144e-02,6.885294502103693828e-03,-2.636077557167067556e-02,9.000854194164276123e-02
3.978732382976424287e-01,3.094265787710736570e-01,1.791661097225751009e-01,-2.373928024006357121e-02,-1.565456274775361284e-02,-1.259030390436037816e-01,2.937555015087127686e-01
3.822424576956056086e-01,1.932381135844372100e-01,3.183452598898585673e-01,-2.838841041957205699e-02,-2.300553514333197186e-02,-1.233335443389380615e-01,2.781503200531005859e-01
4.205905614529491521e-01,3.223999174711297266e-01,2.358230376849915766e-01,5.512492541703458912e-03,-7.732456747016008825e-02,-1.597791149938861677e-01,3.467773497104644775e-01
3.281204063472292765e-01,3.175668228668266369e-01,3.087055432398611021e-01,4.040710809086167296e-03,1.369494263092064807e-03,-2.052974493536571798e-03,1.872622035443782806e-02
3.975320536186159881e-01,2.454996229424203369e-01,3.196799452943527298e-01,-5.915591936644623572e-02,-1.365861179526017301e-02,-1.580322656295953532e-01,3.214331865310668945e-01
3.756417696389180993e-01,3.439591015880449909e-01,2.587691729928345286e-01,1.331053112553995865e-03,-3.787042763258773037e-03,-4.926050383905562075e-02,1.352342069149017334e-01
3.167670527389599422e-01,3.222265086891366592e-01,3.152640598893252655e-01,8.825790839119912684e-04,3.939654326998085735e-04,-1.469023907866714822e-03,7.038943469524383545e-03
3.289359122527039658e-01,3.161492882408343252e-01,3.007541517802402864e-01,-1.261243760458852399e-02,-1.328315429537392511e-02,-1.634712698503438741e-02,4.904684424400329590e-02
3.488839999405315417e-01,3.186299057829889425e-01,3.005355892109924376e-01,-2.210212590119507974e-03,-3.384721492088571104e-03,-1.626890355312146305e-02,5.131468921899795532e-02
3.648826023338712643e-01,2.862172341291202016e-01,3.030826800677249855e-01,-3.472082621704905558e-02,-4.662897664986780100e-02,-6.649657766030644956e-02,1.689696162939071655e-01
3.313405560268570249e-01,3.470830616107327127e-01,2.821153139063866111e-01,-2.491872939772256726e-02,-3.553584777904865433e-02,-5.259512497876735193e-02,1.318932920694351196e-01
4.010266628318511772e-01,3.068164729728378171e-01,2.809011768411383003e-01,-7.772551568071635244e-04,-1.516515194158119320e-02,-8.645379834207916891e-02,1.873584389686584473e-01
3.129296759301080644e-01,3.167003727175454753e-01,3.014135341872928309e-01,-1.573218674838652506e-02,-1.695376691793580928e-02,-1.504847620132264072e-02,4.974363371729850769e-02
3.027429807475067736e-01,2.988445866630449754e-01,3.429966971631471795e-01,1.384816424761311712e-02,3.712671544407406270e-04,-3.249154902512198305e-04,4.866753891110420227e-02
2.810419672842726091e-01,3.016011899169391830e-01,3.352766182877173762e-01,5.193736085431725075e-02,3.551776525685495373e-02,-3.163369143424182850e-02,1.308744847774505615e-01
3.176355839171062234e-01,2.523645967860937422e-01,3.325437532863665391e-01,5.017387480729996324e-02,2.759938799949255422e-02,-3.410228255043296769e-02,1.370472759008407593e-01
3.053341739423122148e-01,2.863534549365452375e-01,3.712307900296922258e-01,5.391023741765645083e-02,2.560442721409687469e-02,-1.663882471878703681e-02,1.321728080511093140e-01
2.859568515656731869e-01,2.626244594101669882e-01,3.948921558527796472e-01,7.366246546266558282e-02,3.396781401132541872e-03,1.752520941317549114e-03,1.768483221530914307e-01
3.158562052206673743e-01,2.933675134350405833e-01,3.418132736594808874e-01,1.921008795893192414e-02,8.608438551868914657e-03,-9.771542976091777966e-03,5.813001468777656555e-02
3.008312128574135991e-01,3.099258587524549302e-01,3.479246576338237973e-01,6.213861750720602040e-02,1.067113682629361460e-02,-4.338533009858289158e-02,1.394428610801696777e-01
3.075008537690447907e-01,2.875621888502014056e-01,3.429791541001953048e-01,4.838082725391123357e-02,2.619380556571990551e-02,-3.127542254354138962e-02,1.199106574058532715e-01
2.908260188190486817e-01,3.120553909836035755e-01,3.486725695871612518e-01,2.224490364828285091e-02,9.363378241307198507e-03,-7.578729468210310127e-03,6.699776649475097656e-02
3.075790462787840185e-01,2.836238880139178575e-01,3.524392027380200410e-01,2.787271427400437804e-02,1.290208554970094686e-02,-1.365535511528464044e-02,8.396652340888977051e-02
2.244431241858940718e-01,3.857578409018730947e-01,3.710946485849834220e-01,-1.594533184153723495e-04,-2.348335585596628139e-02,-3.136723936673281154e-03,1.598626077175140381e-01
2.575763589256142017e-01,3.836170632356105115e-01,3.666804401845331629e-01,8.956287555043787249e-03,-5.270562902982559722e-02,-9.403991342268947558e-04,1.503840237855911255e-01
1.923439452028027352e-01,3.732569816271071317e-01,3.782618627698541847e-01,1.237030211898492403e-02,-5.062663208024791722e-02,5.152775163232394678e-03,2.046653777360916138e-01
2.273673414836494822e-01,4.627685978458615512e-01,2.853378261119366988e-01,-2.671498884732215542e-02,-1.170720687467829563e-01,-1.714213929002380774e-02,2.987779080867767334e-01
3.187242572057436552e-01,3.178231755858554330e-01,3.179434701747281267e-01,3.834155616547308765e-04,-7.625895684042140361e-05,-6.505263669841117042e-05,1.090498990379273891e-03
2.310478477310869971e-01,3.928086200217199564e-01,3.773184702955832415e-01,-4.092252516656857270e-02,-1.493052053917700850e-01,-2.556200875285316587e-02,3.126677572727203369e-01
2.219780854316517060e-01,3.888633117665940553e-01,2.795520961462067966e-01,-4.152615496190514149e-02,-1.196110760685973884e-01,-3.416595985451453127e-02,2.704677879810333252e-01
1.979046530533655757e-01,3.766681763725639454e-01,3.859950072706176960e-01,-6.452360999814012177e-02,2.792116318416582380e-02,1.061091580629188943e-02,2.210817039012908936e-01
2.716639726332217841e-01,3.932085973896256581e-01,3.149263522946654237e-01,-2.345741775493307910e-02,-8.038343729914357305e-02,-1.812769858756184405e-02,1.827771961688995361e-01
2.526339461300242117e-01,3.485335479153169325e-01,3.596726761272956985e-01,-2.073781210782101037e-02,-9.988115987864192025e-03,-1.451317611117046652e-03,1.094752401113510132e-01
2.161063833548274027e-01,3.784838135798639924e-01,3.753305624043636879e-01,-5.455203330145800417e-02,-2.672752185286899826e-02,-4.594432179964551798e-03,1.923500299453735352e-01
2.218853128645926764e-01,3.572854253440951311e-01,3.745227479658655989e-01,-3.828539648757007391e-02,-8.274000648397197150e-03,-9.056100350976866581e-03,1.606641858816146851e-01
3.175450556946803338e-01,3.277947914272879570e-01,3.102146099035736349e-01,-5.271387237370162362e-03,2.388214109552013777e-03,1.471439416544485920e-03,1.846337877213954926e-02
2.570667473326847530e-01,3.425687477429995020e-01,3.739961221460136320e-01,-3.714520673344161306e-02,-2.065832837159070883e-03,-7.047640313607963364e-03,1.236385256052017212e-01
2.746018453865052278e-01,3.493235674148427727e-01,3.450358885045159418e-01,-2.035661490264476653e-02,-2.124301735122043067e-02,-8.511889065604870408e-03,8.997592329978942871e-02
2.718430070927247977e-01,3.399565632952341598e-01,3.312650328897953633e-01,-2.362318926441488512e-02,-2.533368276245935233e-02,-2.028297015268347436e-02,9.464003890752792358e-02
2.773346458920042945e-01,3.327626006119687729e-01,3.326649223448769344e-01,-2.713746957467920093e-02,-1.587002538613077954e-02,-1.451272421134244470e-02,8.163094520568847656e-02
3.501643210262588846e-01,3.520125515091803714e-01,2.596789307378242206e-01,-1.101525907711140527e-02,2.617704645468732841e-02,1.863837854022786650e-02,1.087205037474632263e-01
2.619899314054330297e-01,3.425341741733597400e-01,3.450431235637553273e-01,-4.728658461914184152e-02,-5.807630019611750155e-02,-4.009687455774096909e-02,1.683617085218429565e-01
2.643178545916392008e-01,3.557392211783212410e-01,3.422642093066640689e-01,-4.246759493482733100e-02,-2.235027952184390557e-02,-2.886382479570601123e-02,1.292903423309326172e-01
3.033832405844252289e-01,3.273264543337389143e-01,3.257884495283632220e-01,-2.544200364903784206e-03,2.025598589228857094e-03,5.179132985257883445e-03,2.551502361893653870e-02
2.798857136598922324e-01,3.382552570640834921e-01,3.488403953573515626e-01,-4.139839674428229255e-02,-3.864293823753157248e-02,-2.202516309820916340e-02,1.233431547880172729e-01
3.106807558266972968e-01,3.065227115883891740e-01,3.347143615121407900e-01,-8.749253045375642718e-03,8.374737052896845044e-03,7.163911245261851864e-03,3.590067103505134583e-02
3.074144764531617779e-01,3.281206038531453983e-01,3.185291645354649814e-01,-9.011269746820121072e-04,1.363684279600482297e-03,4.158826248761703960e-03,1.954585313796997070e-02
2.472506992279035198e-01,3.859820696769034054e-01,3.396586113337594082e-01,-3.675023311870695419e-02,-6.707342592732637443e-02,-1.633942532553901358e-02,1.825238168239593506e-01
2.391783292737861277e-01,3.819468286665347878e-01,3.374000565558828990e-01,-4.085371915931990811e-02,5.707149004408468979e-02,1.241778108660298620e-02,1.767725348472595215e-01
3.409858998082625492e-01,3.326878928136320912e-01,2.691177135837024004e-01,-2.046400125482912211e-02,3.200149696993502546e-02,4.535056539534579323e-02,1.230291202664375305e-01
1.878884127231480183e-01,3.596473806526914174e-01,3.263603902009893920e-01,-5.887008251245936380e-02,1.167752381745857937e-01,5.288130398541143751e-02,2.908394038677215576e-01
1.727634010542240528e-01,4.289562599545868604e-01,3.795727953253406062e-01,1.007150229288360233e-02,6.411466025525762447e-02,-5.478197807783949727e-03,2.610521316528320312e-01
2.150762340361470071e-01,3.704792004893172619e-01,3.821640290278939256e-01,-1.439768825579046223e-02,5.169036068726995392e-02,5.667359810199943011e-03,1.866450905799865723e-01
2.191619309067562305e-01,3.820194027707089490e-01,3.538971952383812014e-01,-3.452068058278165430e-02,6.613104365299093956e-02,1.626815957879996014e-02,2.005553245544433594e-01
3.243632944590743583e-01,3.112638704339899531e-01,3.178290824120226787e-01,-3.937128351452318445e-03,7.311703976221580262e-03,2.812759257879467092e-03,1.895566470921039581e-02
3.387926734740171475e-01,2.522554276180747346e-01,3.745933954882795791e-01,-5.371332743143528848e-02,4.097411826676895102e-02,4.016383888148213760e-02,1.743556261062622070e-01
2.197583242449061558e-01,3.882764180152517008e-01,3.309519583450796221e-01,2.032113132724570372e-03,6.712089725782377503e-02,6.750822678995876958e-03,1.889152824878692627e-01
3.033318044292077631e-01,3.408320084321532217e-01,3.101574251755765954e-01,-6.032990373897045714e-04,3.955101845499338874e-03,1.777996183956653299e-03,3.541745990514755249e-02
2.462693897424569345e-01,3.500085313343392346e-01,3.507955189667751883e-01,-2.044146303412559471e-02,2.054531026655499054e-02,1.171724919369870367e-02,1.173705309629440308e-01
3.846170687700601332e-01,2.274889105682851853e-01,3.306114829589148485e-01,7.426016174883325049e-02,-2.818597001636649613e-02,9.967927150627155231e-02,2.604899108409881592e-01
4.407144503377324884e-01,1.910125890023646189e-01,3.722454952999137978e-01,5.466215751496728004e-02,-4.673117559771391288e-02,1.058829441974790536e-01,3.147872984409332275e-01
4.345737227902679578e-01,2.884021650703335604e-01,3.302448683582356326e-01,6.417995984390260922e-02,-1.551294061949382366e-02,1.495513843926625508e-01,3.117318153381347656e-01
4.866495381600868253e-01,2.554645116563302176e-01,3.167594166417405654e-01,2.586889056336774337e-02,-2.496461625158448785e-02,1.253260869577816627e-01,3.066436052322387695e-01
3.858362683879442701e-01,2.370884284675942033e-01,3.251051126956721049e-01,6.040007640027235392e-02,-2.742990843355689809e-02,1.235402399447166899e-01,2.752614021301269531e-01
3.166036088456206654e-01,3.404787284494920629e-01,2.933573935886890083e-01,2.812696267267698370e-03,1.065988899271060227e-02,-5.572569473174071412e-03,4.607828333973884583e-02
3.139922039585228974e-01,3.444344130970170559e-01,2.939036998231915332e-01,-1.320407863567558829e-03,4.773900943540687614e-03,7.415416155881848857e-04,4.491174593567848206e-02
3.719790632640608274e-01,2.457732764373889989e-01,2.769628718977417137e-01,5.476757116907261802e-02,-5.199686740657575440e-02,1.178082904815885151e-01,2.677876949310302734e-01
3.316944890228211706e-01,3.492015444806410018e-01,2.712925819389990223e-01,2.534312988108411869e-03,9.942829150770198660e-03,-1.577467833701335113e-03,7.304560393095016479e-02
3.375297127214241799e-01,3.306705107803843968e-01,3.105840179185876404e-01,-4.151584465499121024e-02,-3.767134351518633406e-02,-5.548799096657437008e-02,1.387556493282318115e-01
3.462517609267527496e-01,3.065904292607861681e-01,2.925258607368418362e-01,-9.972887642001038860e-03,-1.108232577567293785e-02,-2.841202768518815563e-02,7.360171526670455933e-02
3.132291585490009078e-01,3.175578675861343569e-01,3.092776801056144609e-01,-1.544025599109389094e-02,-1.810021217438823743e-02,-1.678991559435969241e-02,5.094328150153160095e-02
3.242897140078806473e-01,3.168870806742030144e-01,3.192033869982324745e-01,-2.857522827311668751e-03,-3.875304854492181428e-03,-2.625410278655176521e-03,1.154322735965251923e-02
3.103400162571541832e-01,3.167551889810615862e-01,3.276823191185948558e-01,2.047768140758402054e-03,1.658521745335520773e-03,-5.579228216130417695e-03,1.857071742415428162e-02
3.313023813761349357e-01,3.107707233616875397e-01,3.102361104746187426e-01,-6.300564545249725396e-03,-6.184550356618100098e-03,-7.006660073808894384e-03,2.852943167090415955e-02
3.665955499712516552e-01,3.056658990522455044e-01,3.108006400097808597e-01,1.484070651869355247e-03,-1.318450620003686720e-03,3.857786637527198248e-02,8.889605104923248291e-02
3.933839162077628071e-01,2.898230755633260936e-01,2.858297293078674861e-01,-1.316047818039419934e-02,4.206035609136603466e-03,5.951909369522256910e-02,1.495144963264465332e-01
3.534742233222077368e-01,3.003064822451544935e-01,3.027153868356036726e-01,-1.936471485443553436e-02,1.288552254021574014e-02,3.743967149343837425e-02,9.237320721149444580e-02
3.540622655817959319e-01,2.795105895093374926e-01,3.306780050535523263e-01,5.025146522268346926e-03,-2.904873546695909987e-03,2.759459964505889956e-02,8.213949948549270630e-02
2.449670185011903201e-01,3.749769297310114879e-01,3.058489495387711199e-01,4.142520735924549308e-02,1.000533917791293220e-01,-3.786803671250452141e-02,2.284208536148071289e-01
3.123471880365011333e-01,3.088485502061083521e-01,3.361334691507341654e-01,5.686931331827741604e-04,2.444400612039779753e-03,-9.707362834646881752e-04,2.613369002938270569e-02
3.581074763143782258e-01,2.709005921191606214e-01,3.314673530053692252e-01,-1.143923327261895002e-02,1.117849199602607806e-02,2.458067351558277866e-02,9.258297830820083618e-02
3.489055766278325033e-01,2.945904892026739996e-01,3.105578781692509005e-01,-1.393500671652001845e-02,7.245771403097484888e-03,2.712909986516586977e-02,7.270376384258270264e-02
3.125994591238157594e-01,3.171886733973228178e-01,3.220226711727618429e-01,1.813417737957020905e-03,2.110801618352363927e-03,-3.253430458454169456e-03,1.102719362825155258e-02
2.454168368270622236e-01,4.377816558933876889e-01,4.132804429724454831e-01,9.591766943613375118e-02,1.098298747642073719e-01,-4.731476807949971941e-02,3.215522170066833496e-01
3.549300370043302899e-01,3.019672992449722315e-01,3.266805064268162861e-01,-1.909563064035868507e-02,1.629197638455141817e-02,3.830025684560085797e-02,9.163983166217803955e-02
3.638556316832056714e-01,2.387497261888419930e-01,3.296831131430479900e-01,-1.171055744787937759e-02,5.903076944333856060e-03,6.034909970652566069e-02,1.548743247985839844e-01
3.995420151210157256e-01,2.227632020098397891e-01,3.554693383114966299e-01,-4.459142565292553012e-02,1.763505224495635210e-02,8.064660686589467109e-02,2.276221215724945068e-01
3.042509773148889263e-01,2.861242679535088151e-01,3.595702722224630721e-01,2.861240263769831982e-02,9.640615773627243812e-03,-4.812516828276842268e-03,8.482848852872848511e-02
3.227914922790102725e-01,2.169437995706469113e-01,4.000234614597305560e-01,5.832433936275593922e-02,2.082842390454823535e-03,5.396517106507655974e-03,1.888091713190078735e-01
3.377753790807354606e-01,3.060971985231696890e-01,3.173259188867058600e-01,1.212730809314898055e-03,5.230263825711246525e-03,-1.573919440216568939e-03,2.945838868618011475e-02
2.976827637730912746e-01,3.114786259395103118e-01,3.422191934011031833e-01,1.742259956622571604e-02,1.067148222130999066e-02,-9.757962188191166009e-03,5.565372481942176819e-02
2.819179704943437503e-01,3.246745196674416523e-01,3.906613607129413857e-01,7.439826282776161592e-02,1.868133172594387036e-03,-6.204554106862747095e-03,1.604213863611221313e-01
2.945283714808173414e-01,2.034579371852700547e-01,4.001341994079222752e-01,1.224206290912421835e-01,1.628593705943107151e-02,-2.445770756182624045e-02,2.767935097217559814e-01
3.044892998053293498e-01,2.843020270296873209e-01,3.428088273563248967e-01,2.813487845688153466e-02,7.694843417633320110e-03,-8.393650997003567274e-03,7.357434928417205811e-02
4.012133762350698629e-01,3.047619031565428904e-01,3.261465150393014767e-01,3.439272940412681223e-02,-2.794305387400092613e-02,8.479823884108414478e-02,1.875122785568237305e-01
2.999134641184004746e-01,3.150984272646405460e-01,3.444863199409262666e-01,-2.429061264516078466e-03,1.291185033069039076e-03,2.103892077671278265e-03,3.970474749803543091e-02
3.610653851218856292e-01,3.390930470549577969e-01,2.533271691782230106e-01,2.155521263250053873e-02,-1.715132046211749819e-02,6.311801082730986168e-02,1.547613739967346191e-01
3.436891240812396386e-01,3.250995836239533587e-01,2.812206574889576927e-01,-3.780847691216525364e-03,7.668957453300270484e-04,-4.560893331018596973e-03,5.651260167360305786e-02
3.144924114433569895e-01,3.330152071837478300e-01,3.060171580889481935e-01,1.229887875024179150e-02,-1.477555922825390944e-02,1.161556873101283333e-02,4.566631466150283813e-02
3.307849910362080093e-01,3.497811382770859012e-01,2.827607852981087189e-01,7.684399961703532525e-03,-1.914446863578925587e-02,9.212421531817968287e-03,7.148944586515426636e-02
3.016785469055797142e-01,3.463299481027000692e-01,3.158333596718304603e-01,6.312513936988924448e-03,1.722847699635119204e-02,-7.980010267381584810e-03,5.256539210677146912e-02
3.278394289902918923e-01,2.978101049046526505e-01,3.277233218386191305e-01,2.269496160168102752e-02,-1.701343699800871717e-02,2.650295619336435343e-02,7.361427694559097290e-02
3.740461397953926403e-01,2.563159254129098730e-01,3.298763567478831815e-01,2.983889444666849855e-02,-1.137384241188114757e-02,5.224725457612694468e-02,1.478504389524459839e-01
2.115885982396586984e-01,3.666684976594430934e-01,3.597237689790562243e-01,-1.403340905530063229e-02,-1.943765180793482691e-03,3.533766022303035104e-03,1.538200974464416504e-01
2.865408285386136233e-01,3.375021032208534999e-01,3.266812014732696778e-01,-1.498533938322611694e-03,5.486341095750310939e-03,5.371059315990181146e-03,4.843839257955551147e-02
3.106616077829771894e-01,3.170232466815336991e-01,3.278872317049821850e-01,-9.391665537843360556e-04,1.290001339415517432e-03,3.818557945662357650e-03,1.670305244624614716e-02
3.514067885451633289e-01,2.785605110637494608e-01,3.367433564197484519e-01,1.605827700294831795e-02,-1.446212432395562256e-02,2.344991577054683293e-02,8.662666380405426025e-02
3.457389277232918445e-01,3.286831931145161589e-01,2.869422849150319310e-01,5.840601816236997215e-03,-1.361184526996722481e-02,2.062249108654725521e-02,6.840445846319198608e-02
2.586953252167096817e-01,3.536170482069597720e-01,3.395341936475950173e-01,-2.002159635719755366e-03,5.697359192780517174e-03,3.025198260912588186e-03,8.949051797389984131e-02
3.439423685833745137e-01,2.874763160579042465e-01,3.337621661950114227e-01,1.976038683010102395e-02,-1.357597403149438976e-02,3.310313724958911796e-02,8.791477978229522705e-02
3.341578240700306401e-01,3.194134667404421868e-01,3.089273996663961519e-01,5.678968022836118797e-03,-4.536219460196752422e-03,1.079127256998669605e-02,3.146112710237503052e-02
3.249901429956859600e-01,3.000595380432464210e-01,3.281535575436765328e-01,3.257048676489286698e-02,-1.796692806258429892e-02,3.496142088411650223e-02,9.234853833913803101e-02
3.277322493014501181e-01,3.010051754931569734e-01,3.277739278931894873e-01,-2.849679387273904713e-03,5.947852940007058303e-03,2.954139265780250830e-03,2.953177690505981445e-02
3.034666844524022133e-01,3.268731059734520938e-01,3.276407592294337534e-01,-2.536250449265159673e-03,1.997644890924407408e-03,5.801572332402312772e-03,2.643221616744995117e-02
3.328490066199587538e-01,3.229587121532022653e-01,2.974068440262321311e-01,-1.417246340801610327e-02,-1.503109181755108228e-02,-1.860281035181767656e-02,5.763681605458259583e-02
3.263356226102842594e-01,3.495244989907900779e-01,2.837944911271571558e-01,2.890624130612819229e-03,5.731594490875470058e-03,-1.901908957192925079e-03,5.889333784580230713e-02
3.426313861164163033e-01,3.060671390942993897e-01,3.034568490862393220e-01,2.207942549257354290e-04,1.654602842281162160e-03,-5.290778278781789641e-03,3.913486376404762268e-02
3.560996556514009481e-01,3.294210369905287150e-01,2.556589035915456387e-01,-5.707683954438779600e-03,-7.873298020901853961e-03,-3.425920009182779197e-02,1.092027947306632996e-01
2.907567368284476039e-01,3.268002359067344043e-01,3.370749183347625522e-01,-3.984853578904047101e-03,2.472489498490833704e-03,5.000246496010089629e-03,4.377239570021629333e-02
2.865291690496718502e-01,3.385137334584277791e-01,3.255105208338929246e-01,-1.852945104338335220e-03,5.894094254442984807e-03,5.298484629742029363e-03,4.893112555146217346e-02
3.428876775479924865e-01,3.137075931624992986e-01,2.999567928584133680e-01,8.524087561693061274e-04,1.810810224642275638e-03,-3.286288918297502332e-03,3.855161741375923157e-02
3.392785810016252790e-01,3.017895054624547546e-01,3.069266389611757795e-01,-4.189539923923774230e-03,-5.805900814940959456e-03,-1.227233418222272061e-02,4.295168444514274597e-02
3.400542379337083698e-01,3.071698238620440558e-01,3.207443333165662103e-01,-1.090883729678550525e-02,-9.458205597421031827e-03,-1.453809971926126564e-02,4.559289664030075073e-02
2.819385806853711429e-01,3.504665430303894880e-01,3.271302897054101932e-01,-2.473529787673991055e-03,5.090013531734130688e-03,3.870715305599218073e-03,6.150206178426742554e-02
3.636296156484894460e-01,2.975487475441351282e-01,3.227556466278214131e-01,-1.424158934424610279e-02,-1.292927819464320845e-02,-3.356564283846182051e-02,8.846637606620788574e-02
3.436742973381683441e-01,3.067346052268626333e-01,3.021481933998924618e-01,-2.979975172855484750e-04,1.349515048802140630e-03,-8.870803537024390256e-03,4.238867759704589844e-02
3.422961147092827838e-01,3.184929906899034435e-01,2.900089618274733216e-01,2.454339547116869431e-03,-3.571267593407221295e-03,-8.865885717690641724e-03,4.845701530575752258e-02
3.193170596843250553e-01,3.148290855531377663e-01,3.213094519780952951e-01,1.110275328135255490e-03,3.025746829127886305e-03,-1.266687339963551949e-03,8.308453485369682312e-03
2.871498463569255311e-01,3.372862655071898752e-01,3.268593351116020895e-01,2.017341289656222805e-03,5.159601735357327752e-03,-7.044994776642174786e-03,4.837955906987190247e-02
3.428352848695805366e-01,3.072651770693455853e-01,3.101381862422707969e-01,1.406786741147880357e-04,2.480054485794262221e-03,-7.740325951226650555e-03,3.700733557343482971e-02
3.138145588814035825e-01,3.165098228044921913e-01,3.477474036819843128e-01,2.656993839307340843e-02,1.424224923335226482e-02,-1.684698146546098965e-02,6.815509498119354248e-02
3.114684386640003133e-01,3.099885350572536558e-01,3.212024696272421376e-01,8.730913134732386574e-03,6.540524085804585476e-03,-7.835415833008866834e-03,2.554505877196788788e-02
2.131692069502438280e-01,3.850679883065635245e-01,3.621575144584414652e-01,-7.835752983873004417e-04,-2.089757469595195875e-03,8.760117320998112196e-04,1.617190241813659668e-01
2.457464998920837751e-01,3.613356453241481914e-01,3.609281792308112191e-01,9.511262411665670231e-04,3.142515552571793032e-04,-2.868615244975988854e-03,1.155059114098548889e-01
2.169398620618029905e-01,3.744240782562915371e-01,3.744150714510675049e-01,1.199435833716864901e-02,1.430646142553801577e-02,-1.802813912418147271e-02,1.637697219848632812e-01
2.537885146391952729e-01,3.580986026732779770e-01,3.609188300942421934e-01,-7.194875133179798668e-03,1.547534510959885120e-04,-2.658324120644052144e-03,1.065800040960311890e-01
2.493295682879041464e-01,3.642882907352562594e-01,3.592530855364966524e-01,3.657336061158416186e-03,7.008914636749886962e-03,-4.970478719946017695e-04,1.133590042591094971e-01
3.155397299787591758e-01,2.887533181493846524e-01,3.484155653865961266e-01,7.819647643320550359e-03,-1.507321580823957992e-03,3.834996007289663225e-05,5.356509238481521606e-02
3.035393966310656055e-01,3.263183687927476151e-01,3.271269795558999216e-01,2.221222022133367748e-03,2.501891090498819820e-03,-6.971055833766936875e-03,2.678285725414752960e-02
2.599911145011916669e-01,3.555240337029114683e-01,3.415553153205420633e-01,9.931313094797319507e-04,2.494492214264566396e-02,5.007878145824602723e-03,9.966009110212326050e-02
2.502041802630621814e-01,3.599476881577178267e-01,3.503143144125637765e-01,5.431669771346461610e-03,1.000942065589092989e-02,-2.366100288635483023e-03,1.071685999631881714e-01
2.557409425237398004e-01,3.583088012840354719e-01,3.590728609710526209e-01,3.155437377521030581e-03,7.583836499805041154e-03,-1.718154636138985837e-03,1.039730161428451538e-01
3.017349521866112827e-01,3.276679487806130053e-01,3.274585405362190893e-01,2.590558183525993197e-03,-2.385374271333237130e-03,5.544696900302646669e-03,2.822352945804595947e-02
2.457839868387781679e-01,3.574945980748749919e-01,3.531148007136876710e-01,2.232338986044227550e-03,6.414655908338654736e-04,-2.554952205147888351e-03,1.097494438290596008e-01
2.136376060882240191e-01,3.739661300946843792e-01,4.006063964746903738e-01,-1.696411558769990793e-02,-7.848554577696096463e-03,3.164679061258625879e-03,1.782254874706268311e-01
3.025244519874137339e-01,3.423863977215668153e-01,2.998046622762273183e-01,-2.876177593922669019e-03,-1.370178434781068808e-02,-3.802204081562975992e-03,4.833417385816574097e-02
3.030828073273818535e-01,3.478342157303230819e-01,3.163347231461026698e-01,7.899371355738900660e-03,-1.510198213173161511e-02,1.869421383410844757e-03,4.967045411467552185e-02
2.843155113900151520e-01,3.513160615248999696e-01,3.335891340833189167e-01,7.939232927531805761e-03,-2.145168087467096488e-02,-1.433716226530140159e-03,7.205129414796829224e-02
2.840388599601994524e-01,3.065374407516336941e-01,3.420211399385316708e-01,-2.691168232894530082e-02,-9.757846275388531998e-03,-8.724474299029859325e-03,7.245911657810211182e-02
3.203114208869373147e-01,3.125893938764410240e-01,3.228686905296185294e-01,-1.457590980511911825e-03,3.832918237535169748e-03,8.292937991203635671e-04,1.176551356911659241e-02
2.783243167717558975e-01,3.556457886975200600e-01,3.333396948511898605e-01,-1.858092753423724441e-03,-2.786716061203414058e-02,4.207852814805988079e-03,8.452599495649337769e-02
3.064586918777817970e-01,3.388507064239766886e-01,3.185299586644545489e-01,9.063362430072800444e-03,-1.152075974179291029e-02,9.023175612682919622e-03,4.114384204149246216e-02
2.890451001248813268e-01,3.916088677872092694e-01,2.786560899271127156e-01,2.343595689907172156e-03,-5.656600952904611984e-02,1.179839914268223863e-02,1.473974883556365967e-01
2.986339919729498193e-01,3.142870053691038112e-01,3.526256780185481610e-01,3.244213128067373331e-02,4.206754404805650854e-03,-1.258927016573190873e-02,7.746626436710357666e-02
3.155548587285522122e-01,3.191215099201137328e-01,3.068120077022848391e-01,1.321001054063427119e-02,1.828521482270833651e-02,-1.516014047320872818e-02,4.833623021841049194e-02
3.203626428177590024e-01,3.181527897801372795e-01,3.273821407353478818e-01,1.179881075678520207e-02,1.826212785721011492e-02,-1.774262214016252004e-02,4.931756854057312012e-02
3.299121098742702762e-01,3.557835396972101605e-01,2.826623806801478733e-01,1.322073317042185905e-02,1.727556012101755245e-02,-1.706307115447249292e-02,8.010885864496231079e-02
3.089670619717006517e-01,3.122656169897637390e-01,3.353073615669269758e-01,-1.532632795557802496e-03,-7.883762149102544435e-04,-8.458073161593039927e-04,2.507717348635196686e-02
3.331389276311736425e-01,3.163270374471647273e-01,3.072358755057650881e-01,2.234646764681959968e-02,2.869869767295821217e-02,-2.499784415391680809e-02,7.976054400205612183e-02
4.734834587173228360e-01,3.324543274410395877e-01,2.672155554447059878e-01,-4.966938016981442550e-02,-4.173469256372765862e-02,-1.776268463388565866e-01,3.750016987323760986e-01
3.303963078581657054e-01,3.047365308537967055e-01,3.323623545708430660e-01,4.549670472776562447e-02,5.594801107963764258e-02,-3.620878772802721413e-02,1.422896981239318848e-01
3.040188496752613267e-01,3.171801293142093581e-01,3.372502662012212271e-01,-2.395341459486271998e-03,1.231299046724617166e-03,4.961400439042556142e-03,3.059062175452709198e-02
3.524611480552557463e-01,3.617207285234856351e-01,2.497853342464287363e-01,-1.790869313237456427e-03,-4.059509508744466900e-03,2.908745635975859122e-03,1.079964861273765564e-01
2.873165099893452146e-01,3.417175293213228215e-01,3.268676007459781485e-01,-3.669194307823998684e-03,-4.954159636580651553e-03,-6.283000945532125209e-03,5.103516951203346252e-02
2.584796696662072235e-01,3.500092628596671585e-01,3.400959815275542697e-01,-2.694211314233470149e-03,5.841251758315268647e-03,1.647972661668876525e-03,8.775457739830017090e-02
3.659591454046527970e-01,3.589379514109889424e-01,2.267196479102730478e-01,1.941949790076858101e-04,-8.588003383862584383e-03,-1.301420357544746075e-02,1.385236084461212158e-01
3.501283367139019220e-01,3.533072834998942646e-01,2.537427926889711527e-01,-1.891972724107845744e-03,-8.680420133975776109e-03,-1.585839709485200753e-03,9.925228357315063477e-02
3.255371909976884637e-01,2.824469308526407207e-01,3.441946732484090776e-01,-6.014931978181014757e-03,-1.112966923781812719e-03,-8.131341265654248862e-04,5.588439851999282837e-02
3.525673514391095553e-01,3.569771216416661730e-01,2.542773998463784824e-01,4.041220773808498604e-05,-2.929239881341394978e-03,-1.030257273115654966e-02,1.022642254829406738e-01
3.602857962180258666e-01,3.606789724592421309e-01,2.488126042129831794e-01,4.948177806992314336e-04,-1.256914868907291856e-03,-7.883826621200596199e-03,1.125264167785644531e-01
3.157781071420612262e-01,3.263456431808144931e-01,2.986391167199694552e-01,-1.106131119769584829e-02,1.586799869763615492e-02,1.075735583994219709e-02,4.534462094306945801e-02
2.801052809323199555e-01,3.407025306252357000e-01,3.392760921612444913e-01,-3.586946376018140380e-03,4.604879041109777998e-03,4.831390741105083195e-03,6.131772696971893311e-02
4.825075261783637326e-01,1.758034841763933820e-01,4.330145575053323537e-01,-5.290602331455026425e-02,4.133626881973050636e-03,1.078745268728578260e-01,3.531237244606018066e-01
3.144119101694874407e-01,3.501066314518824774e-01,3.009773437997777523e-01,-3.837495084118296845e-02,6.277861752433701314e-02,2.402346594658130025e-02,1.410918086767196655e-01
2.910001602989468750e-01,3.448553549783952010e-01,3.330227621894827905e-01,-1.374912407830895800e-02,1.721338878696843100e-02,8.859667026041422380e-03,6.398940831422805786e-02
3.438478372468722899e-01,3.085428030305518710e-01,3.085729883370894044e-01,-5.682095394191199068e-04,4.832132892700946635e-04,-7.399119477867865946e-03,3.756714984774589539e-02
2.903016479500950542e-01,3.252168445584835976e-01,3.443422651294652526e-01,5.081420085286092111e-03,1.671218854563663462e-03,-3.110446929824062148e-03,4.865682497620582581e-02
2.786498207717960640e-01,3.584699814627217429e-01,3.323798425884710306e-01,-7.403968899180643493e-03,2.418079791317062979e-02,2.829584893664846990e-03,8.313869684934616089e-02
2.472101576570994441e-01,3.519244339745762895e-01,3.762590386082322880e-01,-2.738144286382333120e-02,1.662895995625435913e-02,7.734598819960112476e-03,1.317714005708694458e-01
2.645595785192343952e-01,3.536017231456560772e-01,3.405635445249773907e-01,1.350274844694054552e-03,5.981598014105779341e-03,-7.160682952779334406e-04,8.397557586431503296e-02
3.125599193829646794e-01,3.611282376419179263e-01,3.152044310945849026e-01,-1.017869232887160663e-02,3.522800045293628807e-02,1.216588065294591132e-02,8.194702118635177612e-02
2.477681979184340466e-01,3.547736221151233105e-01,3.541924325507047611e-01,3.475745198524812611e-03,3.127203295426275731e-03,-2.906754983605852732e-05,1.070228517055511475e-01
3.525662967089376876e-01,2.634487577606473563e-01,3.260881676182488254e-01,5.840931824459046767e-02,3.705672469928546209e-02,-5.085652564908651335e-02,1.685142964124679565e-01
2.822848797376688035e-01,3.420482219518242162e-01,3.112851807965369977e-01,-8.152648478728263814e-03,2.831895596929655257e-02,7.976300264377424870e-03,7.399777323007583618e-02
2.676342002469989656e-01,3.736060720694328041e-01,3.359871507287774395e-01,-2.143801175629358666e-02,3.621176423190614058e-02,2.391050355040377426e-02,1.252455562353134155e-01
3.197280292113071631e-01,3.200826016759259485e-01,3.021176599754327730e-01,-3.962955829356839405e-02,-4.604596584578661556e-02,-4.627316369417562580e-02,1.334627717733383179e-01
1.568388183609224773e-01,3.818473490949145233e-01,3.748936982766385428e-01,-3.723086261012355236e-02,-2.516869065285378890e-02,-8.873555461581229820e-03,2.353881448507308960e-01
3.282022680919458035e-01,3.127502747779261627e-01,3.156573282760697929e-01,1.204397870255995368e-03,2.110497683865833994e-03,-3.304040284866229080e-04,1.484375633299350739e-02
3.173960925985261361e-01,3.080812583788187231e-01,3.282125316678101146e-01,6.903523746559772287e-04,3.721185759823327638e-03,-1.516201497141652288e-03,1.882505975663661957e-02
3.005399889637431210e-01,3.148204433907933475e-01,3.409433387217534195e-01,2.669559773461250510e-03,5.357673793134748712e-04,-1.903646670120204276e-03,3.595130518078804016e-02
3.099683229387028005e-01,3.409646794022412331e-01,3.074888728689743611e-01,-4.321187305814149643e-02,-7.753184315894393053e-02,-3.328408381536728661e-02,1.673398464918136597e-01
2.666071136900955985e-01,3.407977685316607719e-01,2.994138254384554609e-01,-4.418287292119833787e-02,-6.350046435226323893e-02,-3.375600146714464317e-02,1.597444564104080200e-01
3.047769691805516934e-01,3.169356035850687814e-01,3.364135729047370571e-01,2.550992158456380152e-03,1.122839690496351328e-03,-3.545299965897366450e-03,2.872388623654842377e-02
3.039258717342150917e-01,3.300662593136364786e-01,3.072977079138939915e-01,-6.195076746606938481e-03,-1.561169094510014843e-02,-8.190605769378493314e-03,4.067084565758705139e-02
3.008389172633817998e-01,3.299932577661268684e-01,3.197410886608427205e-01,-7.656420107460504623e-03,-1.358059102822727592e-02,-8.474658372411960142e-03,4.001007974147796631e-02
3.281747593818981068e-01,3.121924350117072366e-01,3.156918609227153949e-01,1.487982588747779151e-03,2.721439995207436836e-03,-8.850612270521104321e-04,1.558726094663143158e-02
3.106134781637093223e-01,3.057078755153668226e-01,3.373367061642043585e-01,-3.295638916059962648e-02,-1.326539116485154352e-02,-2.154622756122018604e-02,7.777076214551925659e-02
3.163161590052862571e-01,3.189048907057487892e-01,3.230227818011785490e-01,5.751616662712803231e-03,3.851408173777203306e-03,-6.635441416065149083e-03,1.761105470359325409e-02
3.136092866681528535e-01,3.241201375923784544e-01,3.147114003012497774e-01,-4.056743800586101560e-03,-4.568568181936680413e-03,-3.306927381371766936e-03,1.564936898648738861e-02
3.119496347360073418e-01,3.438770039878894513e-01,3.013483416057389785e-01,-1.946643340920363105e-02,-3.372013720993556618e-02,-1.097349987711510738e-02,7.987138628959655762e-02
3.009231188752232167e-01,3.322848916397045382e-01,3.183535039072326600e-01,-1.022950167507777168e-02,-1.297992088282551651e-02,-9.691978142113064770e-03,4.291733726859092712e-02
3.130418551212599265e-01,3.526850601622726900e-01,3.157789372984476928e-01,-1.890897061996866732e-02,-3.536518815036379659e-02,-2.237012811087710218e-02,8.829820901155471802e-02
3.162968696560481963e-01,3.152449586286277805e-01,3.167149188180413688e-01,-4.474580925739561968e-03,-4.068889498309893361e-03,-4.570138675439604052e-03,1.319517847150564194e-02
3.054574121809730536e-01,3.210012905950631046e-01,3.218128117484070905e-01,-2.814453735262197661e-03,-6.419555418298432750e-03,-6.009502959624281847e-03,2.259696461260318756e-02
3.136122816879992059e-01,3.322134535373783004e-01,3.080618728146409246e-01,-1.038250630687366505e-02,-1.433638089394320865e-02,-8.910450348943572269e-03,4.072134569287300110e-02
3.727706308663366053e-01,3.936474201444166154e-01,2.327114434331301329e-01,-2.474692630358510045e-02,-6.200393542132467961e-02,-3.348464032845470395e-02,1.992755979299545288e-01
3.649643638210073870e-01,3.706933865492175184e-01,2.283266166032481559e-01,-1.088005833318100683e-02,-5.113496487764018772e-02,-9.139442351395689682e-03,1.671393662691116333e-01
3.020362299686455976e-01,3.923627850651625337e-01,1.766843522981046410e-01,-1.307677131846643470e-02,-1.195212551299320025e-01,-2.221908549381599457e-02,2.829216122627258301e-01
4.036380472383009343e-01,4.055446321739511473e-01,8.339323784443156140e-02,7.976636529877094081e-03,-3.611523229915097888e-02,5.493521888070619121e-03,3.276664316654205322e-01
3.454675246838004865e-01,3.839217661757405864e-01,2.240290746067022387e-01,-9.832281305356804085e-03,-4.499034000816135026e-02,1.529575399690893608e-02,1.672128736972808838e-01
3.771437737484069075e-01,3.942695238838628269e-01,2.248899534739243755e-01,5.565827117650910469e-03,-2.663162560458463488e-02,9.074444100342334354e-03,1.689665019512176514e-01
3.207602370741401421e-01,2.862898647117451678e-01,3.489834316104049594e-01,-2.675179732165097746e-02,1.674598738538177548e-02,8.132129731600734948e-03,7.838542014360427856e-02
3.255970962969324534e-01,2.808442604486867111e-01,3.528498898908517534e-01,-6.548924522918321556e-02,1.278574035696267326e-02,3.366952177752330355e-02,1.439549624919891357e-01
3.171204523308856493e-01,2.427683130976255321e-01,3.473074625183105724e-01,-5.160933521528272144e-02,1.813171168888319182e-02,2.096153606281414908e-02,1.377641856670379639e-01
2.296345994178966010e-01,3.623902598159768895e-01,3.685059416443464686e-01,3.933137183979740041e-03,2.058578200280351822e-02,1.307256773088379034e-03,1.406990289688110352e-01
1.289457598994741272e-01,4.188637336101527775e-01,4.431538344995277767e-01,-1.703583868025546066e-02,8.119015604018663124e-02,-1.841599573161296216e-02,3.366722464561462402e-01
2.818986536758357753e-01,3.265906764580144284e-01,3.444965855121249199e-01,-5.987334510014334123e-03,-2.236656497978918253e-04,-2.810363852220019998e-03,5.700560286641120911e-02
1.271630633055729764e-01,4.814391614883851145e-01,3.752042808034577459e-01,4.855433388344959633e-03,9.575324897380349531e-02,1.858084720016203034e-02,3.574541211128234863e-01
1.131066520521217811e-01,3.915360013310753562e-01,3.457004495269173083e-01,-6.165322897252849266e-02,9.106169833413320369e-02,2.149872632876792880e-02,3.233086466789245605e-01
1.925664732247733268e-01,3.955300995866252167e-01,3.221331062049826999e-01,-6.650303292004358831e-03,1.257542764186571349e-01,2.211884211649932028e-02,2.841254174709320068e-01
2.844292153581106652e-01,3.254693955590614030e-01,3.442481125996861291e-01,-5.686455909246115013e-03,2.064635691332937072e-03,7.295066469196767817e-04,5.402787029743194580e-02
3.004828487573935059e-01,3.156652225969263648e-01,3.413103882890575203e-01,-3.285910761868636714e-03,-7.479162086907647014e-04,-2.020822522059529530e-03,3.638480976223945618e-02
2.679190798489581860e-01,3.902627900217831014e-01,3.299854540405110503e-01,-1.119526041302602425e-03,8.060509988802817827e-02,5.252656470249676517e-03,1.755131483078002930e-01
2.857035600941899012e-01,3.106860196546399888e-01,3.585735160352755413e-01,-3.702503765351244924e-02,2.799336245080294959e-04,-1.203583669358731546e-02,9.306482970714569092e-02
2.354771287793355206e-01,3.983269844114122327e-01,3.724882937692098883e-01,-4.144844098301445762e-02,1.356872165537455488e-01,2.913479040158826333e-02,2.931098341941833496e-01
2.247546482150739044e-01,3.899771473859582338e-01,3.244871768407863177e-01,-5.300201779005582481e-02,1.087987765334271772e-01,1.354084429751813493e-02,2.554529607295989990e-01
3.041507956749061603e-01,3.156181929743871462e-01,3.368901261748404874e-01,-2.514455909606246736e-03,-6.552838672351907721e-04,-4.296903827066764388e-03,3.005953878164291382e-02
2.689822345466493791e-01,3.410030325393896278e-01,3.484928399685806588e-01,-5.665738137506277222e-03,2.105607910809661424e-03,8.290795163365527595e-04,7.677355408668518066e-02
4.388363202324377932e-01,2.656288529829669010e-01,3.048493419069579491e-01,-8.625494752551972344e-02,3.269914830779910297e-02,1.355724829325256064e-01,3.246735930442810059e-01
3.955880898308860028e-01,2.117408172044561443e-01,3.025009176677400102e-01,-4.377866748146543030e-02,4.768430383268552897e-02,1.195203874861354570e-01,2.842141389846801758e-01
3.268707801141044755e-01,3.008921145996953928e-01,3.267442890418771340e-01,-2.901991738275177136e-03,6.796111325034885804e-03,3.017571410670386294e-03,2.937284857034683228e-02
4.138212593726598443e-01,1.808053301086662845e-01,4.807341388048009811e-01,-1.299406125502694520e-01,6.484467329669507674e-03,-2.734620037014788216e-02,3.569156825542449951e-01
3.519110689639151635e-01,2.629695813585464781e-01,3.560782069749597323e-01,-3.796083659574212010e-02,2.857835520415363123e-03,6.036776586649114477e-03,1.129402071237564087e-01
2.888205479601611558e-01,3.350405069227283539e-01,3.314830595787880974e-01,-1.737269219100585557e-02,-1.940927886137026534e-02,-1.363107549986351634e-02,6.765741109848022461e-02
3.468258236816541551e-01,2.481631632128160070e-01,3.687456070899852167e-01,-8.350411471346172454e-02,8.615728301726459371e-03,3.814374778680435646e-02,1.946376115083694458e-01
3.850945424869888223e-01,2.596534638179208154e-01,3.190307435991209251e-01,-3.555814043689362741e-02,4.282996600383590785e-02,6.347983818992428140e-02,1.822037547826766968e-01
3.755991636654488763e-01,2.519732213535361698e-01,3.377480679065434366e-01,-6.806179708566946311e-03,6.697125460033197253e-03,3.681909550298524680e-02,1.279733031988143921e-01
4.805896462646610523e-01,1.674348396826368379e-01,3.569680980169924744e-01,-5.501553242080549355e-02,6.159790300425835308e-03,1.124892051888395084e-01,3.489856123924255371e-01
2.480218924944074532e-01,3.611332211335679943e-01,3.101502562220391224e-01,3.256739073629491207e-03,5.264231622335140831e-02,-4.151359493696853663e-03,1.342529207468032837e-01
3.124369274528260854e-01,3.539087350352414507e-01,2.836050428104369137e-01,5.975440491189936212e-03,3.011451985282814076e-02,-1.355561841091601288e-04,8.108467608690261841e-02
2.411259995119690025e-01,3.550652615224376696e-01,3.530538796201319052e-01,-1.265568164292249194e-03,3.696902038751584581e-03,1.758970900008300416e-03,1.131906062364578247e-01
2.848528711203731634e-01,3.529957446255044817e-01,3.095816522674844640e-01,-1.742676178009029686e-03,3.124012112989563161e-02,-6.048920592421080239e-03,8.134241402149200439e-02
3.108040023633635296e-01,3.404704594760301628e-01,3.054462058493022658e-01,-7.843842445301958677e-03,1.144175223593607051e-02,6.898964958964497705e-03,4.228306189179420471e-02
1.384881869467216586e-01,3.400907845914872274e-01,4.659836283986163452e-01,1.557480414882247699e-01,-2.235802584563597109e-02,-3.553034288288103859e-02,3.999151885509490967e-01
3.301047892279024842e-01,3.452418871398318378e-01,2.736809086859509077e-01,6.710433258922191870e-03,-1.263090298151558002e-02,7.774474539137604320e-03,7.114714384078979492e-02
3.162919670240124104e-01,3.292069522414215466e-01,3.216572703330714544e-01,-1.358072513610040707e-02,1.552746466603412145e-02,9.827219826652217050e-03,4.114156216382980347e-02
2.508864601617883938e-01,3.529218751148314737e-01,3.554434893600544321e-01,3.574505128450051767e-03,-2.398230007429946742e-03,1.458226813538955570e-03,1.036187410354614258e-01
2.870662710944160700e-01,3.723544974802556751e-01,3.013286353549134988e-01,9.518167974716476923e-03,6.777286441296076491e-02,9.776040722483442594e-03,1.435237526893615723e-01
2.972254385096995688e-01,3.410691717427498659e-01,3.010224770077011835e-01,3.134059067966202781e-03,1.674538269505409377e-02,-1.821598384165765399e-03,5.148649588227272034e-02
2.733868783680724612e-01,3.423389644648273111e-01,3.401677237742174453e-01,4.885492425382332617e-03,-4.403475351487910402e-03,5.376707519347300075e-03,6.946866959333419800e-02
2.932167180373385640e-01,3.428528116075455490e-01,2.968183899504162615e-01,-5.293570901917237122e-03,2.106050147587830781e-02,3.731114339459360579e-03,6.127319484949111938e-02
2.858559626385931418e-01,3.421968344228753511e-01,3.212041782638340170e-01,-3.451040976994889514e-02,4.104578263291282225e-02,2.110515686735620067e-02,1.113359704613685608e-01
3.260109631719297907e-01,3.624821932271677927e-01,2.787449028080005164e-01,-4.600100461999392064e-03,2.824244213489016456e-02,3.826066585822295550e-03,8.825184404850006104e-02
2.791583247258039302e-01,3.255537523494091978e-01,3.446428944070334399e-01,5.177614090340287856e-03,1.558043759656074702e-04,1.004340691857424266e-03,5.904322117567062378e-02
3.085728584989892997e-01,3.084473266864006802e-01,3.389177115900242621e-01,6.894050983697525871e-03,2.241073604667498474e-03,-1.790167885528725494e-03,3.304391354322433472e-02
3.601315219122460665e-01,3.640594628907813379e-01,3.646990979551694712e-01,1.184228505673270149e-01,1.082627748278975621e-01,-1.043986499126944162e-01,3.315870761871337891e-01
3.076413365183177651e-01,3.093816624492034539e-01,3.352629103211259842e-01,3.926743882377534980e-04,-1.047054452073158375e-03,6.611835619503649052e-04,2.688814885914325714e-02
3.143798795711455485e-01,3.089484040905686180e-01,3.050960900508535301e-01,2.209163858523562757e-02,2.261560015460365933e-02,-2.538724332566833636e-02,7.069171965122222900e-02
3.501675565897499620e-01,3.257939249785951064e-01,2.902658643396974214e-01,2.992695082709377619e-03,6.660168554182120280e-04,-4.070668747312876021e-03,5.291668325662612915e-02
3.115287531952625200e-01,3.600470195784879479e-01,2.968607370341134200e-01,-2.943929208159779746e-04,4.273628133981283855e-02,2.806383050037243414e-03,9.372244030237197876e-02
3.099787664827221567e-01,3.087510615218997390e-01,3.361665658168431214e-01,1.538522155556174128e-03,-1.354033751798773989e-03,1.071395518878991582e-03,2.712017670273780823e-02
3.064838458868673343e-01,3.083825905747504814e-01,3.396696629271931944e-01,9.602966340143646862e-04,-8.179211407550580990e-04,-1.675090183849769294e-04,3.235351666808128357e-02
3.421216747374054568e-01,3.174422697979432662e-01,2.997475624240631964e-01,5.027407897273833588e-03,2.380946275151635955e-03,-1.329669409407802094e-02,4.452086985111236572e-02
3.405672288452740171e-01,3.077085017415428503e-01,3.034373309022064258e-01,1.003280894424143531e-03,-2.300603169058050676e-04,-3.522455533449801984e-03,3.575871512293815613e-02
2.924843417431469139e-01,3.432640623137149793e-01,3.067767627269887276e-01,1.269114409728298171e-02,4.052061015566863628e-02,-8.775390825062328454e-03,8.773291856050491333e-02
3.171938542139056683e-01,3.369499802811984357e-01,3.014896529483989118e-01,5.106314782750533479e-03,3.398420761482705103e-03,-1.639748781194239838e-03,3.268207609653472900e-02
2.730103395526157772e-01,3.267194725754072326e-01,3.421280213492247091e-01,-1.330748011371967084e-02,-6.588491543544320803e-03,-6.665396432128594707e-03,6.887995451688766479e-02
3.351286492390232463e-01,3.137165315741696214e-01,2.855069707291472136e-01,1.118107922519162231e-02,1.602466406559318463e-02,-2.681576996169975080e-02,7.183982431888580322e-02
2.952350411419649157e-01,3.431082458833004112e-01,3.172772506223199840e-01,2.095106745611988869e-02,1.847671192937203402e-02,-1.790466795350335871e-02,7.088872790336608887e-02
3.033836205171063782e-01,3.141488291795082599e-01,3.358353626832958350e-01,1.999621222691566613e-03,-1.848253522048869633e-03,3.432186945497863427e-03,2.961821667850017548e-02
2.932853375592944789e-01,3.384167599072101518e-01,3.350026362589620388e-01,1.380695676982436094e-02,-2.256748259439551874e-02,1.688094427633862749e-02,6.963537633419036865e-02
3.229820463719212942e-01,3.102586132340008351e-01,3.167362000293580948e-01,6.627904115326083319e-03,6.098684531736561949e-03,-6.739341137480857682e-03,2.238421514630317688e-02
3.745459784130675263e-01,2.941972003632011279e-01,3.157749699299119972e-01,1.730036421154065515e-02,1.511544209104306521e-02,-4.760159907619337938e-02,1.164854168891906738e-01
3.191867626203852559e-01,3.213139748137315843e-01,3.136988309724708102e-01,3.258270986428517604e-03,-6.801630893866495711e-04,1.385969739271580067e-03,9.236666373908519745e-03
2.974233873711673026e-01,3.165145182588392503e-01,3.745035187585447067e-01,6.658139060486233107e-02,2.798835580773079493e-02,-3.138873443841565941e-02,1.530990451574325562e-01
3.132657625616946939e-01,3.301518257344463469e-01,3.212582273253924425e-01,6.603473997210240927e-03,1.073761846091579250e-02,-8.534499392980664581e-03,3.015422634780406952e-02
3.066167215711841920e-01,3.085805673376251779e-01,3.412616284171481329e-01,-1.392384764594070115e-03,-3.864076228087202480e-04,-2.283957290874468805e-04,3.380103036761283875e-02
3.179639284434520596e-01,3.019309160091898092e-01,3.421052965963345960e-01,1.414436261876291477e-02,5.142051960239184955e-03,-6.685400018163371177e-03,4.517208039760589600e-02
3.147222963999627421e-01,3.266791428424543065e-01,3.371675842857411176e-01,2.574829078244375916e-02,2.211877504189888738e-02,-2.035148259388640593e-02,7.125710695981979370e-02
2.946335064302053053e-01,3.208684795229342357e-01,3.154944195552427111e-01,1.810547462584419925e-02,1.931971958080000093e-02,-1.446686940509205391e-02,5.750840157270431519e-02
3.788350346664965951e-01,2.853858360622690271e-01,3.507680501311604693e-01,-3.308061051179540801e-02,-2.322608181846621753e-02,-6.676925888808084297e-02,1.586612910032272339e-01
3.696805353228629354e-01,3.208991415621377796e-01,2.964071847464624376e-01,-3.612650995387137187e-02,-4.627064910518528806e-02,-8.273544458910585264e-02,1.872110813856124878e-01
3.414086364423592479e-01,3.183461599036009337e-01,2.825285089277627670e-01,-2.841298245500020053e-02,-3.047537357720935675e-02,-4.916114216392061809e-02,1.228796839714050293e-01
3.370209176658909844e-01,3.159010647844404107e-01,2.964342703104154153e-01,-4.552423198397729555e-03,-1.683117854224305257e-03,-2.171224600468005424e-03,3.634494543075561523e-02
3.333802572084200166e-01,3.165256231777406892e-01,3.026424932826653480e-01,-1.360104942087007884e-02,-1.064026713687912622e-02,-1.678446194355045357e-02,4.950334504246711731e-02
2.932384314593090013e-01,3.144731385774441335e-01,3.284522325930548381e-01,-1.820427096300106934e-02,-1.254367234657919640e-02,-1.329362036398617358e-02,5.421760305762290955e-02
3.440742705031097359e-01,3.346240033440517903e-01,2.790428139492710513e-01,-2.347786788879955774e-02,-2.270804035685823966e-02,-3.721549196178983859e-02,1.051637232303619385e-01
3.486041085272290618e-01,3.416707491289713849e-01,2.588088628288034432e-01,-4.166802307559894187e-05,4.361891048447163501e-03,-4.416669231346458287e-03,8.720251917839050293e-02
3.016553046565067508e-01,3.265851313687797575e-01,3.271388765267808085e-01,-3.059879944639547298e-03,-3.079241387616585453e-03,-6.519586621477272380e-03,2.862964384257793427e-02
3.163641358987595020e-01,3.180197666405749635e-01,3.224518727630609205e-01,-7.498874081358152628e-04,-7.511887122501291741e-04,-4.384791843552027896e-04,5.803382489830255508e-03
3.417984897317295490e-01,3.041110931833770903e-01,3.098065484710352813e-01,2.368987183518413489e-03,-8.592512624343763171e-04,-6.494382403663024814e-03,3.719829767942428589e-02
3.134411371498815879e-01,3.278801473033828850e-01,3.121913494139835765e-01,-1.116285397765736428e-03,-1.220477047809935024e-03,-2.430422785832954055e-03,1.593802124261856079e-02
2.705540887909796965e-01,3.281140377253304319e-01,3.578102506079874345e-01,-1.310648584256583586e-02,-7.708314381242102305e-04,-4.965105828410001226e-03,8.059407025575637817e-02
3.577979933878601138e-01,2.796388495529869012e-01,3.401949948588372519e-01,-2.498473176722163305e-02,-1.057900316974014730e-02,-7.303298204719126108e-02,1.524886488914489746e-01
3.379320749654242118e-01,2.811058857751542739e-01,3.356567756903443001e-01,-2.291392415427025500e-02,-1.912473601464694320e-02,-3.562101037231171774e-02,9.789828956127166748e-02
2.987640006795667658e-01,3.108745286738683888e-01,3.238498031733397231e-01,-5.169687832903061692e-02,4.209995340388936191e-02,3.460097519537318894e-02,1.319043636322021484e-01
3.635552434911301645e-01,2.075943076401292053e-01,3.612993950519133302e-01,5.127188612175205898e-03,-5.801560177008569137e-04,6.154245270494769840e-03,1.554688960313796997e-01
3.216391750444217434e-01,3.791038502862151827e-01,2.573081131031402791e-01,-4.098810044174462652e-02,7.966520372579648235e-02,3.421162820371817515e-02,1.967954635620117188e-01
3.513993032031738073e-01,3.494747122358488056e-01,2.666964072648835837e-01,-8.075922410171319787e-03,3.707639389737141244e-02,5.439475322129810886e-02,1.421663612127304077e-01
3.485069182093424311e-01,3.401298897413840283e-01,2.833624550389471364e-01,-1.305444333982076939e-02,1.933806979389195851e-02,2.490814118021448739e-02,8.522114157676696777e-02
2.742540650654560763e-01,3.147919154804814101e-01,3.227507428377789367e-01,-4.923842254505067517e-02,4.503317245145586206e-02,3.357622329193452049e-02,1.369985789060592651e-01
3.501586120128062918e-01,2.906001085896648961e-01,3.392375366090603639e-01,1.388623810458861421e-02,-1.284260956927789875e-02,2.355691990910271580e-02,7.585583627223968506e-02
3.400898262691518514e-01,2.720118294353091604e-01,3.344227130990484187e-01,9.317755342078263767e-03,-1.229507102081220382e-02,1.159870601854038306e-02,7.347436249256134033e-02
3.471469955052908229e-01,2.727601799458236331e-01,3.494422798967718458e-01,8.089493247320138011e-03,-2.796216171891465277e-03,1.064413227343056351e-02,7.917748391628265381e-02
3.453348069954670363e-01,2.406994955888867027e-01,3.523255725991780718e-01,1.894980636737597646e-02,-2.444944270404646701e-03,8.149236657980368781e-03,1.141198873519897461e-01
3.323787526149544758e-01,2.760086983120402793e-01,3.480111587032572729e-01,1.113358871006252943e-02,-5.396899860045859323e-03,7.485352614053244688e-03,7.021749019622802734e-02
3.340142445052232678e-01,2.740559203464608684e-01,3.527705249740661353e-01,2.195616869542605515e-02,-9.833189511382787670e-04,1.324024387036642006e-02,8.394299447536468506e-02
3.442370640701861162e-01,3.260649361980205718e-01,2.846387587414371811e-01,1.637134856642365058e-03,-7.612084894640053310e-04,5.440747818463955582e-03,5.383066460490226746e-02
3.399213096696530045e-01,2.681161489815825361e-01,3.528140225088553517e-01,-6.035341024160817934e-03,-2.444161380812872372e-03,-2.272779952308250431e-03,7.994160801172256470e-02
2.452368692024590735e-01,3.408282536725301126e-01,3.523494784146956604e-01,1.311287075871204674e-02,6.476904087142127840e-04,-2.571383841469288781e-03,1.044448092579841614e-01
2.781253219651221298e-01,3.392816944781732458e-01,3.395332757748609209e-01,-4.198335722734555450e-03,3.584374845894902281e-03,6.006415110180148183e-03,6.289041042327880859e-02
3.486021699700937448e-01,3.263789025052313830e-01,2.875633947615502395e-01,2.891703472564046296e-03,-2.918350632698389017e-03,6.287519157386245623e-03,5.506686493754386902e-02
2.647967826122479829e-01,3.485025724942474867e-01,3.418729759745668950e-01,1.384959389307661905e-03,-5.420691992446413296e-03,8.187842233449434777e-04,8.118861913681030273e-02
3.524638277392350139e-01,3.049281206304834679e-01,2.913988006640944595e-01,-7.820199084175812054e-03,1.316301305058180555e-02,2.841702448269947320e-02,7.881405204534530640e-02
3.399773962839226504e-01,3.009970938023067699e-01,3.064353906279717044e-01,-3.822367731405219501e-03,5.493715669478759465e-03,1.244202568363502945e-02,4.399816691875457764e-02
2.936220592649834704e-01,3.378520872523341767e-01,3.269408222127663799e-01,-2.402518783896125717e-03,3.519371591368167847e-03,5.936670161089737698e-03,4.186826944351196289e-02
3.608589465696224741e-01,4.688098426072905278e-01,2.722988035096317039e-01,6.567045729431152112e-02,1.557018516346536097e-01,-8.944046496128520152e-02,3.724543750286102295e-01
3.492219584623179052e-01,3.028385702614233566e-01,3.159246224364887223e-01,1.011030286700747346e-03,-1.088383565862322119e-03,1.549320462019723385e-02,4.942091181874275208e-02
3.649737959032841594e-01,3.073046475021647961e-01,2.789499227802703096e-01,5.319037202786532775e-03,-7.769034118762466190e-03,2.743602380178366065e-02,9.104432910680770874e-02
2.614704805911545193e-01,3.420100782939262674e-01,3.459549515692035282e-01,-4.004621247561587424e-03,-6.890991591037167949e-03,-4.502892789627237387e-03,8.409104496240615845e-02
3.511564631820610627e-01,3.053286999174407157e-01,3.129632445302264476e-01,-2.013450288343834882e-03,1.848600045074998578e-03,3.725916882651874457e-02,7.743220776319503784e-02
3.647987118254321093e-01,2.769162873844127071e-01,2.846386830613397700e-01,4.619720481613050558e-03,-4.602087245300304739e-03,6.355606790447052012e-02,1.391042023897171021e-01
3.493870147438096763e-01,2.538378425276542338e-01,3.410624067633650225e-01,1.275217699307099788e-03,-3.469329166462154120e-03,6.283971708872792238e-03,9.253640472888946533e-02
3.496187847328884879e-01,3.322810086712260080e-01,2.916125011034819692e-01,5.293847000637940184e-03,-4.799950099181744291e-03,2.604741706895132361e-02,6.962919235229492188e-02
3.146738211892952108e-01,3.028988446386106648e-01,3.359527328761545140e-01,2.729280937784610110e-03,3.215726880262651747e-03,-1.628120793348782763e-03,3.005532920360565186e-02
2.436183964335007501e-01,3.519290273213812048e-01,3.466720579755879217e-01,-1.393558149662450611e-02,-2.081784810234753313e-02,-4.760501410635517225e-03,1.146306246519088745e-01
3.358214466042133139e-01,2.283405053595196077e-01,3.535251206960300929e-01,4.954264752124704074e-02,-3.229766170877307330e-03,2.850638216786209947e-02,1.536259651184082031e-01
3.176299966331561087e-01,3.054902319847557224e-01,3.363899149495974128e-01,2.204033863442118792e-03,-3.212090271810044435e-03,1.267796115422412584e-03,2.788184396922588348e-02
3.358536242227158630e-01,2.668943652553031898e-01,3.313390510769181341e-01,3.133157247862901340e-02,-2.158820777284503611e-02,3.689244863720896744e-02,1.135374456644058228e-01
3.154113079528024777e-01,3.179303045127706007e-01,3.028343625600904976e-01,1.476891305125365914e-02,-1.517878298453167671e-02,1.524373038127226077e-02,4.731668531894683838e-02
3.439415401493806090e-01,2.835608506616752456e-01,3.039275367095078950e-01,2.860869587448388457e-02,-2.607262770119022494e-02,5.110516353625495223e-02,1.231292262673377991e-01
2.228943530718656973e-01,4.610817526983187475e-01,2.782216298959747092e-01,3.880872501060071700e-02,-1.186557436521296499e-01,6.238041675111118123e-02,3.241079151630401611e-01
3.505420035665817724e-01,2.831766997263987506e-01,3.644384437369280749e-01,5.720164218149464963e-02,-2.436613564191199635e-02,4.235199028862404041e-02,1.504846066236495972e-01
3.174790770665638640e-01,2.962523325479056724e-01,3.290854477376584097e-01,1.793320092044174696e-02,-1.306748486671808346e-02,1.553767141819161965e-02,5.507251992821693420e-02
3.421721978407329390e-01,2.840639207140958633e-01,3.333963881163922727e-01,9.561728366218328473e-03,-7.402764503522235237e-03,2.594173504269538244e-02,7.349315285682678223e-02
3.332728814991082755e-01,3.059379379732974913e-01,3.202067041157290461e-01,6.269046946683577357e-03,-7.109928267752105811e-03,1.250615617640355934e-02,3.604897856712341309e-02
3.446993649063987419e-01,3.043003079347029738e-01,3.010153423953943475e-01,4.342682762201971296e-03,-3.754620663632025380e-03,1.192795497009698294e-02,4.797166585922241211e-02
3.081972897698291303e-01,3.504619481451007323e-01,3.136877483762101626e-01,9.537035603954009330e-03,-3.035059488399094452e-02,-9.871532316455646546e-04,6.799748539924621582e-02
1.762680261227418943e-01,4.384956104926658882e-01,4.636326582733864554e-01,1.066322542517419009e-01,5.712137660604912209e-02,-2.163887580350981610e-02,3.482691347599029541e-01
3.171015004346056654e-01,3.049331078322729538e-01,3.273883867682920168e-01,2.312165391124562999e-03,-5.569625742468554443e-03,1.460944649218492812e-03,2.223889157176017761e-02
3.132946427831735381e-01,3.440790726714306191e-01,3.082746180320278251e-01,4.431774192206481069e-03,-1.274620832962478079e-02,6.194165516172465621e-03,4.229471459984779358e-02
2.831617582735298511e-01,3.408665955148196813e-01,3.100785919264665291e-01,1.042088224448038496e-02,-2.534570717894881614e-02,8.285648168063328503e-03,7.042788714170455933e-02
3.088717495356991249e-01,3.407006873429228588e-01,2.872383977842242198e-01,6.934963780868953417e-03,-2.224005104732843657e-02,1.410737264518191827e-02,6.629361957311630249e-02
3.084038736266602743e-01,3.090789747539645638e-01,3.420576855902329738e-01,-7.011002665592330936e-03,-5.228809556892898393e-04,7.361820920047886007e-04,3.549962863326072693e-02
2.615622642612251414e-01,3.404979295825654173e-01,3.384399409431478878e-01,3.666936995439303015e-02,-4.009484575321932420e-02,1.635845169895247184e-02,1.254278272390365601e-01
3.114960613402527612e-01,3.392429291443717632e-01,2.982353729867863179e-01,1.030496851946608762e-02,-2.123105151408260019e-02,1.461737737980101093e-02,6.021237373352050781e-02
3.183686204031287437e-01,3.324296812127051082e-01,3.082448109275517378e-01,7.392077756285623039e-03,-1.199536466329419702e-02,6.625189140845508078e-03,3.420278802514076233e-02
4.103587008525562130e-01,1.744068407291225753e-01,4.976892302097804532e-01,-1.381814490741213042e-01,1.408403178407597461e-02,7.050502821856619376e-03,3.767389655113220215e-01
3.028308768181780519e-01,3.319508418698565722e-01,3.192572485696579809e-01,1.044918780920010143e-02,-1.333649610598236328e-02,1.072252418217154932e-02,4.295955225825309753e-02
3.105345483443391896e-01,3.287100002863456161e-01,3.136451815623023665e-01,1.817006215974267033e-03,-2.032633840115054616e-03,3.779491877229953015e-03,1.867187581956386566e-02
3.049090865987771348e-01,3.223818237890364036e-01,3.302467806942774309e-01,1.319794690949604651e-02,-1.063052367082887271e-02,1.050442511525653821e-02,4.119692742824554443e-02
2.993177279071331798e-01,3.155343788771408087e-01,3.413684417377171321e-01,2.926168617045690409e-03,-5.287988497877914871e-04,1.884033318450797218e-03,3.723567724227905273e-02
3.215425327704162228e-01,3.202909778561801590e-01,3.025942800246891329e-01,1.196064034424335239e-02,-1.148158453625235283e-02,1.382925447104282890e-02,4.165674000978469849e-02
3.153244758137990211e-01,2.995937052159086678e-01,3.445189759183443501e-01,-2.670585669852711553e-03,-2.236750559419955695e-03,-1.532823067353731314e-03,4.003101214766502380e-02
3.123411201316355079e-01,3.106881099665585455e-01,3.340864690193265374e-01,6.889883929390859703e-03,-3.509294630171752929e-03,3.046708006171852494e-03,2.680936641991138458e-02
3.150256958201124169e-01,3.207566599140748709e-01,3.188682985108529100e-01,6.280008096195085869e-03,-4.103694273009745631e-03,7.623767936239969276e-03,1.920389756560325623e-02
2.845499162644475333e-01,3.403612267912841105e-01,3.413556683786045376e-01,-3.929112831994321757e-03,-4.845932766256716775e-03,-3.963219989295272035e-03,5.775185301899909973e-02
3.144471666966959789e-01,2.993452093297661598e-01,3.413033595973427592e-01,-2.834497155565602125e-03,-4.097263556842801655e-04,-7.797998552835519546e-04,3.716633468866348267e-02
3.156509948054282422e-01,3.217040436292297745e-01,3.231291405394795535e-01,6.788182160279450546e-03,-5.342042846105257876e-03,6.014226998337244591e-03,1.948486082255840302e-02
3.502692760240194159e-01,2.859522234230478799e-01,3.248588178932053094e-01,-9.017810016777067384e-04,1.768312327476323151e-03,-5.664746617635012596e-03,5.706257373094558716e-02
3.600109108914404388e-01,3.506467227284425503e-01,2.156452877172134186e-01,-3.370434671571227291e-03,-8.879627214389137699e-03,-2.449428517234415043e-02,1.471318751573562622e-01
3.139231615652756657e-01,3.006571321873280356e-01,3.281382155911072851e-01,-1.541976359583900960e-02,-1.455346601334619322e-02,-1.523425281447944590e-02,5.110378935933113098e-02
2.843677253021412721e-01,3.393437682222501528e-01,3.396755585782898490e-01,-4.234751607614574247e-03,-5.380322585788454952e-03,-5.173540512874547428e-03,5.711090564727783203e-02
3.229218836816892813e-01,3.099237492362408863e-01,3.275796792855755202e-01,8.283139987166327975e-03,-6.580270454281307059e-03,5.593248126674795970e-03,2.609163895249366760e-02
2.985862549384865061e-01,3.166998099781961895e-01,3.308929566796360855e-01,-5.311801912155513991e-03,2.701335103358577794e-03,5.393284342546044406e-03,3.131189197301864624e-02
3.148123147910597552e-01,3.214842583135955612e-01,3.217395703953215280e-01,-3.664093157434584460e-04,-8.623477998984901798e-04,-2.434698605452288462e-03,8.167032152414321899e-03
3.362805592879132277e-01,2.841489783252812984e-01,3.435748841785159491e-01,-4.793253816723049010e-02,3.364551566650639258e-02,2.728212373570440899e-02,1.251909136772155762e-01
3.128146917866298504e-01,3.021518702850968796e-01,3.365994115309553503e-01,-1.811305342851307273e-02,1.391392085041779671e-02,1.298855737228870114e-02,5.481029674410820007e-02
3.367164879115636111e-01,2.957875792210796217e-01,3.362192847964898257e-01,-2.043718017491880784e-02,1.469555316510897866e-02,2.582944329456609428e-02,7.454841583967208862e-02
3.229769410421792220e-01,3.087553774421024633e-01,3.197818348241785458e-01,-1.679727360924679683e-02,1.176393434239321814e-02,1.653988952368178056e-02,4.742722585797309875e-02
3.569361645527026616e-01,3.266266126700310690e-01,2.900688150620846506e-01,-7.945147440417426113e-03,6.209221106019372112e-03,3.483119277056988955e-02,8.548606187105178833e-02
3.152219588493421210e-01,3.279472677486498511e-01,3.154989950130298593e-01,2.029458162482952049e-03,-2.557080242725771448e-07,-1.716375112768396853e-03,1.340443175286054611e-02
3.144232929312023028e-01,3.091402452033644721e-01,3.264418073169544909e-01,6.982601034379636896e-03,-4.288300923841599673e-03,5.995603645334269920e-03,2.334802225232124329e-02
3.045587583119746533e-01,3.196217664539099390e-01,3.190508067204659293e-01,1.037659597885469062e-02,-1.207377726998394400e-02,8.569259135428905147e-03,3.463042154908180237e-02
3.088303822049003333e-01,3.352161261637537359e-01,3.094272906153932579e-01,-9.064070900877442549e-04,-9.468986879574304433e-04,-2.065093271588649190e-03,2.643411234021186829e-02
3.439005246835471485e-01,3.254212861482095875e-01,2.845586591510517183e-01,1.766702988283968767e-05,3.747879195350732953e-03,-4.039156726979359867e-03,5.345495045185089111e-02
3.303083873590601516e-01,2.906936769828460942e-01,3.295160643144420254e-01,5.436138326640550626e-03,-1.041523054236471839e-02,7.502997826239168194e-03,4.606013745069503784e-02
3.382669096591521818e-01,3.084202305310582148e-01,3.102283741955996765e-01,-2.157597167041236668e-04,9.018612927083015027e-04,-9.444395761846000742e-04,2.907545678317546844e-02
3.298691055981817777e-01,2.994780025614253716e-01,3.151247992099839856e-01,5.845163169396416607e-03,-8.831681704580970904e-03,6.431484901626861178e-03,3.396326676011085510e-02
3.024813974467968070e-01,3.303642826276588229e-01,3.192609065825361969e-01,1.986372241348005607e-02,-3.225681101565438386e-02,1.991607628618210016e-02,7.801476866006851196e-02
2.879884358399459332e-01,3.254750590936132948e-01,3.439154414273441485e-01,-4.349702130330385802e-03,-2.606008706715923131e-03,-4.461491069421956619e-03,5.072879418730735779e-02
3.006982498908513657e-01,3.415147927016723428e-01,3.074958897058929774e-01,5.912658153313808587e-04,-5.576078415449645977e-03,7.674973707025119956e-04,3.912589699029922485e-02
3.299909418995425336e-01,3.093695146047394373e-01,3.087910726520118332e-01,5.725012359325321910e-03,-5.735788427967273076e-03,9.240224637037509556e-03,2.984420396387577057e-02
2.982197191044887452e-01,3.168462121068242876e-01,3.201934461584412528e-01,2.405341655838709111e-02,-2.496748738797245279e-02,1.966884824971084494e-02,7.202024012804031372e-02
3.229739046640347500e-01,3.210497848246427477e-01,3.127163192928570923e-01,1.158747360731512792e-02,-1.698594025709355623e-02,1.567068548151285753e-02,4.576319083571434021e-02
3.161636965178719616e-01,3.153702647007879389e-01,3.214815321531253600e-01,-5.909044750171203167e-04,-7.015912215869601508e-04,-2.051651404634196631e-03,6.948400288820266724e-03
2.857431230276601952e-01,3.447775712385036107e-01,3.269519828877778811e-01,-1.158654918775805934e-03,-5.890244465562525372e-03,-2.976656831446379461e-03,5.371394380927085876e-02
3.058293538050616545e-01,3.016924554009362547e-01,3.403519736782116278e-01,-1.109778018862786660e-02,4.892965381290593704e-03,5.131622399769440387e-03,4.326716810464859009e-02
2.948506608611136670e-01,2.994786190777690704e-01,3.526328789380817619e-01,-3.338804730618390865e-02,7.621191260323552027e-03,1.664191922469013263e-02,8.626808226108551025e-02
3.196437759980321203e-01,3.226685307570676398e-01,3.108745407741140832e-01,4.808517399013458558e-03,-1.575318968589042986e-03,1.423200064449194578e-03,1.398071274161338806e-02
3.367234098795279795e-01,3.256445788319479173e-01,2.841224431701261377e-01,5.676236687415358445e-03,1.963767360220476654e-03,-4.464145509203090376e-03,4.974795505404472351e-02
3.171712974118626738e-01,3.009956900930238488e-01,3.491086336539955814e-01,-1.523947167257152374e-02,1.231406375222036161e-03,1.398915040322089992e-03,5.005390942096710205e-02
3.192319677665775290e-01,3.026728575572799063e-01,3.393306805607294030e-01,-2.179010022688258885e-02,8.833801872153150547e-03,1.835313206442656248e-02,6.066321209073066711e-02
3.088696440192578163e-01,3.169290460348678784e-01,3.368045061732674039e-01,-1.458797079056116733e-02,9.134156139180933318e-03,7.462173936299597646e-03,4.093836247920989990e-02
3.095326324713594257e-01,3.361488332121397860e-01,3.123183268432628834e-01,1.021835492122607440e-03,-6.057793333667017312e-04,2.203300573677121916e-03,2.570670284330844879e-02
3.018533701762450283e-01,3.371410858261695287e-01,3.147351212309600910e-01,1.875985548177905998e-03,3.145804840445389806e-03,-3.452474173791577998e-03,3.213408961892127991e-02
2.986278194034439060e-01,2.814814674536899042e-01,3.704965069738310746e-01,-5.802317352829154673e-02,3.237664364470944911e-02,1.691761842460386481e-02,1.442040801048278809e-01
3.185667632530103099e-01,2.878566341267501660e-01,3.400553405208022184e-01,-2.177854789865150964e-02,9.689000595488347564e-03,1.018505612479170784e-02,6.387910246849060059e-02
3.583192022280606293e-01,2.021890362902412364e-01,3.689710464123447942e-01,1.711234848636597819e-02,-4.064984937369585383e-03,7.139741277611799664e-03,1.650277674198150635e-01
2.944895941022962482e-01,3.274266009796846233e-01,3.299714451249542435e-01,3.793806201643114794e-03,-5.697232168510354966e-03,7.070442741327434902e-03,3.828407078981399536e-02
3.594584007152798466e-01,2.383176217784689355e-01,3.675354334359689501e-01,2.555547272895802337e-03,2.341555910147082205e-03,-1.592401295033526705e-03,1.255485266447067261e-01
3.368796923085169981e-01,3.089691935484480956e-01,3.044947292145086526e-01,2.673909206995674429e-03,1.658143244518281651e-03,-2.744535964482242105e-03,3.124414198100566864e-02
3.615656871965319263e-01,2.395851305617276994e-01,3.677718066345846415e-01,-3.691720466498187416e-04,1.925078312490994224e-03,-1.119472233197811801e-03,1.252600699663162231e-01
3.598221523637448183e-01,2.438391315491115763e-01,3.563248530930045455e-01,5.456764809030937961e-03,3.177199174267967153e-03,-1.032890600085561300e-02,1.161823421716690063e-01
3.571541994797428621e-01,2.497326059940287168e-01,3.599228098453621794e-01,1.082898471936424856e-02,2.650808467145656083e-03,-1.836951684330490140e-03,1.105779185891151428e-01
3.107823549211967684e-01,3.168795130744969102e-01,3.276102861943336886e-01,1.379149268391015879e-03,1.164884434270923837e-03,-3.508690383341601590e-03,1.626228168606758118e-02
3.604754452768819117e-01,2.418761770966336433e-01,3.560463931112693436e-01,1.668100033537200087e-04,2.849525966884537166e-03,-4.091968442148948178e-03,1.167681291699409485e-01
3.510785671061674162e-01,3.618761036160322297e-01,2.556378936587363482e-01,-7.649131522784177262e-04,-1.039731039874003914e-02,4.324360632514425568e-03,1.031416580080986023e-01
3.407971522607441406e-01,3.523342347964970589e-01,2.708508050666085243e-01,2.647000988319733825e-03,-5.240309009803416178e-03,8.290415805827863402e-03,7.837198674678802490e-02
3.129958690038945890e-01,3.432676298157136818e-01,3.226070331656139545e-01,2.232668625102323529e-02,2.881542618049905136e-02,-1.856090785654527370e-02,7.574798911809921265e-02
3.066836126318273625e-01,3.486666263822571499e-01,2.851127707519420240e-01,-3.983863600817418200e-03,2.892362768938804354e-02,4.666418047648703861e-03,7.586930692195892334e-02
3.024836072053465608e-01,3.992784995024818429e-01,2.976625792184486308e-01,1.265318413646872265e-03,8.758885524718471038e-02,-6.478316516343706095e-03,1.816735416650772095e-01
3.017691098973807051e-01,3.275256963403034849e-01,3.280967608874258423e-01,-2.934055410042253707e-03,-2.950800536429421233e-03,-5.668522612849786167e-03,2.875379472970962524e-02
3.115890540607085812e-01,3.604325772076186762e-01,2.840718558619592660e-01,2.879410769139433349e-03,2.768398373853540873e-02,1.731981443675950205e-03,8.258331567049026489e-02
3.126979994103277205e-01,3.155715583856791295e-01,3.285338781405715003e-01,-1.298010650735834407e-03,-1.025730278114708434e-03,-8.234828177225028299e-04,1.495902054011821747e-02
3.315462840174575598e-01,3.751711486734313206e-01,2.359197593368306256e-01,2.908442993916605240e-02,4.498559713246007286e-02,-3.274597253890552256e-02,1.644535660743713379e-01
3.107386286339758330e-01,3.161542005704714997e-01,3.275705847161039519e-01,1.323226362952705480e-03,1.361799659005997901e-03,-2.306793732383505529e-03,1.575654372572898865e-02
2.877499924556676802e-01,3.470262572129847456e-01,3.073078163777717697e-01,6.129659189668137942e-03,2.626056636947530706e-02,-4.849159744924712648e-03,7.063273340463638306e-02
2.895954764690533700e-01,3.451803973861526376e-01,3.383918447753898051e-01,2.237425195500573200e-02,1.751773538054332904e-02,-1.199860746971544503e-02,7.491835951805114746e-02
3.339580566613074009e-01,3.013851153715094711e-01,3.145681623022626439e-01,-1.356261388512602570e-02,-1.268365334562411746e-02,-1.623352457841742424e-02,5.128761380910873413e-02
3.119919006507802517e-01,3.235452340463424448e-01,3.203254659519182423e-01,-6.492549977103639555e-03,-7.394613060295028920e-03,-9.628411992313993042e-03,2.598589658737182617e-02
3.611884160881351780e-01,3.620934246412911839e-01,2.388816782642142478e-01,-3.691976740457138121e-04,-7.938020161423227491e-04,3.435357884059130583e-03,1.229152157902717590e-01
3.025814131750124147e-01,3.179783291848402582e-01,3.286370871524570414e-01,-1.207663956091376348e-02,-8.323674402698362160e-03,-8.673780460515692278e-03,3.722735494375228882e-02
2.634072412344586334e-01,3.363777680140048743e-01,3.661248425998688827e-01,-4.174225481115396291e-02,3.571215403072626471e-04,-7.549538325845288203e-05,1.166528761386871338e-01
3.431389886834221303e-01,3.262814690600350787e-01,2.628944350459050394e-01,-9.400042423058460606e-03,-1.362870243007207119e-02,-1.981468432461540308e-02,8.585343509912490845e-02
3.136993000012915367e-01,3.145076301807770425e-01,3.250621912653755552e-01,-3.324071219232351514e-03,-3.764057948142032241e-03,-3.807316353066118701e-03,1.548300497233867645e-02
3.297273917862318382e-01,3.294719253432835671e-01,2.999778519399545207e-01,-8.865378645585706568e-03,-1.714923059614564815e-02,-1.448483572934602948e-02,5.123480036854743958e-02
3.265827360516932454e-01,3.387087990207938715e-01,2.952834538354290883e-01,5.709837275969640961e-03,3.831617031880505016e-03,-2.769263247790301405e-03,4.087885096669197083e-02
3.324657514948136661e-01,3.145366606699411816e-01,3.094564790431505452e-01,-3.803142150631248601e-03,-2.568639859417002572e-03,-3.889810464574123584e-03,2.338633872568607330e-02
3.148982747050966813e-01,3.440741965912580969e-01,2.944374192698783199e-01,-1.528050054542855890e-02,-1.698806644332150409e-02,-1.596219278691901958e-02,6.478799879550933838e-02
3.041581472435513356e-01,3.300965519794015202e-01,3.246451358326437053e-01,-9.318348891792366251e-03,-1.152628759892970582e-02,-8.329053318787547899e-03,3.779282793402671814e-02
3.220046397259916371e-01,3.161418397532232971e-01,3.144447824153575599e-01,-2.308364863629256466e-03,-1.466075940745114464e-03,-2.192810854205183482e-03,9.168476797640323639e-03
3.253666665906708166e-01,2.497518796268287933e-01,3.849047308456990391e-01,-4.643985136533306662e-02,2.572629271713394294e-03,8.907982829408680678e-03,1.431510597467422485e-01
2.930912377811688008e-01,3.380079361894579582e-01,3.270997012923395619e-01,2.687163836798025195e-03,-4.359512528092893482e-03,5.142892316393655669e-03,4.248015955090522766e-02
2.987312484893927533e-01,3.002974018157877900e-01,3.431491239132529181e-01,-1.468477617614699984e-02,9.056338948840072633e-04,9.638908814547744210e-04,5.057678371667861938e-02
3.384473147956350014e-01,2.911110157874503557e-01,3.767910605866183205e-01,-7.329107968164369491e-02,1.773560263981447185e-02,2.157112463435087099e-02,1.548559367656707764e-01
3.273138854486749016e-01,2.834909166458651208e-01,3.272638954334898265e-01,-1.416629583752830254e-02,1.371857539718378087e-02,1.412330903320963178e-02,6.069034337997436523e-02
2.865375812747549267e-01,3.327173215934353112e-01,3.425806012451279581e-01,-2.601736622109602007e-02,-1.365323506950218667e-02,-5.397079440417834953e-03,7.323021441698074341e-02
3.310183699436386462e-01,2.990902407489266501e-01,3.343130258942718647e-01,-1.998773925473317642e-02,9.742078160591794572e-03,2.308688215281467365e-02,6.494396179914474487e-02
2.960026527613737746e-01,2.811186037877425603e-01,3.367843673720259390e-01,-5.526446835188010553e-02,2.071313269755933190e-02,2.541360916266406644e-02,1.219787746667861938e-01
3.274515160864452934e-01,3.211847217694722145e-01,3.358365287902587704e-01,-6.476741542612703129e-02,4.373163160890697343e-02,4.843612521649006547e-02,1.597564518451690674e-01
3.116151481740658258e-01,3.132904268932910630e-01,3.221980845476368205e-01,7.605472098890401350e-03,7.679370838789967638e-03,-7.800822640198721084e-03,2.510143630206584930e-02
2.646488853424214804e-01,3.536186082377387740e-01,3.421264642851172821e-01,-1.426984339713359288e-03,-6.798263400585704067e-03,-9.597277877854257146e-04,8.469208329916000366e-02
3.424047887262425816e-01,3.150052603207830204e-01,3.012005619941967027e-01,5.819595200962642684e-03,-1.191179851885991112e-03,1.518570598101718488e-02,4.601329192519187927e-02
3.100665752092935934e-01,3.241220692175442175e-01,3.126784627113189385e-01,5.901310937364422082e-03,6.559841796074245002e-03,-6.382364744430727745e-03,2.287885919213294983e-02
3.079141452731047890e-01,3.169973551949623047e-01,3.325589713501420075e-01,1.837750498809132427e-03,2.112499763135750660e-03,-4.256354388511554045e-03,2.332139946520328522e-02
2.902169004314938405e-01,3.284941801871835154e-01,3.349918338257982242e-01,1.906721907369978222e-02,1.888942949235939209e-02,-5.864755774856921823e-03,6.340643763542175293e-02
2.974067851643141802e-01,3.170921136769216386e-01,3.356038191763664469e-01,4.300657090345655700e-03,2.363945848865386511e-03,-5.163537196741879026e-03,3.531065583229064941e-02
2.711330449405338072e-01,3.573812723751935705e-01,2.931457303648972723e-01,1.997398669802275331e-02,7.366443893724734793e-02,-1.723993459263012396e-02,1.561814099550247192e-01
3.571318023235617867e-01,3.512104814645817807e-01,2.472313549096542828e-01,-4.508235170429151020e-03,-4.867981958947486046e-03,-9.679212745723040148e-03,1.089749559760093689e-01
3.110252024544959970e-01,3.200035147498871968e-01,3.286984942192812120e-01,5.048744370732092136e-04,1.424828887610339124e-03,-5.380518610635148281e-03,1.811032928526401520e-02
3.084212897194812397e-01,4.577357045815487191e-01,3.049163797440174184e-01,-5.287399707640227237e-02,1.681375530715050193e-01,5.340762798992633453e-02,3.529663383960723877e-01
2.318114962205856666e-01,3.840156775795962596e-01,3.644367244473539769e-01,-3.314981634585951326e-02,-1.247060408370796736e-03,-5.463078568297271773e-03,1.547914147377014160e-01
3.581422341909755169e-01,3.483841676173940471e-01,2.569551571389733224e-01,3.801800703209687565e-04,-1.748331388433832295e-03,-9.515533036337845557e-03,9.812182933092117310e-02
3.551057264258780100e-01,3.528443597841812718e-01,2.561741054771198844e-01,1.826325390449161617e-04,-7.043685987241278361e-03,-3.775550760789906680e-03,9.879556298255920410e-02
3.515357367437818570e-01,3.575903910907054506e-01,2.481344248254532259e-01,-5.008116135117732714e-04,-2.500241642425407411e-03,-8.035882547537506922e-04,1.066583022475242615e-01
3.623351145951068664e-01,3.642255287494733929e-01,2.439111691421614603e-01,-2.206530359521792793e-05,-4.260814876452919710e-03,-7.137229288310741743e-03,1.202454194426536560e-01
3.597377997792755577e-01,3.546814441171340926e-01,2.374214337241501438e-01,6.119825946214445950e-04,-2.794230197182364598e-03,-1.597105760725868288e-03,1.200024336576461792e-01
3.241622203795325730e-01,3.146821847616024237e-01,3.165794472485196076e-01,4.166976622457812043e-03,-5.099246769286967448e-03,3.526411461114858665e-03,1.558490749448537827e-02
3.271895948809233623e-01,3.392406660138688745e-01,2.929899978115482195e-01,5.855447585429456384e-03,-3.770273970016604567e-03,2.150199634967025347e-03,4.343220219016075134e-02
3.173489086259580483e-01,3.072441537362906594e-01,3.315795084708507146e-01,-2.282144066230226004e-03,-4.671611439425634761e-03,-1.992131908679272735e-03,2.326832525432109833e-02
1.034512579751185046e-01,4.549627017849238175e-01,4.254307755022266879e-01,-5.919970027728414103e-02,8.410057885589402888e-05,5.588326044581858401e-03,3.530710041522979736e-01
3.552761789154397221e-01,3.496834231399114645e-01,2.533577919582181148e-01,-1.686751358806391505e-03,6.582810641899716243e-03,2.324074936874729810e-02,1.077384054660797119e-01
3.805237881264837974e-01,2.160747056273453759e-01,3.987885320344394802e-01,-2.983074759576079954e-02,-7.883851533335669778e-03,-3.403176226783271793e-03,1.824049204587936401e-01
3.397198848655083037e-01,2.815004649175568696e-01,3.414924838943743102e-01,2.935481513989396385e-03,5.349839950692785243e-03,-3.928712801019247462e-03,6.044717133045196533e-02
3.295262442679423032e-01,3.307005055737310406e-01,2.985507398128193213e-01,-8.171347099441561568e-03,1.418164612082753635e-02,1.475361929101014560e-02,4.953697696328163147e-02
3.409471650984358670e-01,3.334711201724546714e-01,2.870684948082419252e-01,-6.669085894864349232e-03,1.184276128668480636e-02,1.772124170290911502e-02,6.365778297185897827e-02
3.601389735728635078e-01,3.150363776126708926e-01,2.529391896153919128e-01,4.457119203300037233e-03,-8.438126233352268718e-03,6.320650576464002801e-02,1.447392106056213379e-01
3.446094130334520500e-01,2.654038687915764583e-01,3.352220740303641366e-01,-2.120685036129340076e-02,1.160656644698310723e-02,3.235096554094375049e-02,1.025241166353225708e-01
3.622783865288605187e-01,2.593490240992166185e-01,2.911400896249595749e-01,9.545805448435031385e-03,-6.766980755143506450e-03,7.568906293006492925e-02,1.610283702611923218e-01
3.158827651623414279e-01,3.212536094808841614e-01,3.168000782841263185e-01,-1.872097711729759847e-03,-9.522358492832065386e-04,-8.873376040983094399e-04,6.352739408612251282e-03
3.445602652487573803e-01,3.144467098595160048e-01,3.000818325895247551e-01,-1.202366264487690932e-03,1.513118377776571455e-04,-3.551620921475951223e-03,3.984973207116127014e-02
3.316510470941113620e-01,3.140189585091255342e-01,3.133962120561359921e-01,-3.748589824381005388e-03,-3.634021982744051367e-03,-4.154038353449474204e-03,2.134949527680873871e-02
3.314708663236633490e-01,3.025954759298746244e-01,2.892209073214950243e-01,-2.992041976408907344e-02,3.722785243525793264e-02,4.288328628693467010e-02,1.172997280955314636e-01
3.305855165742007662e-01,3.461529037144250864e-01,2.679893406654813015e-01,5.747699700022371010e-03,2.652998558288017714e-02,-8.290096269109035673e-03,8.690160512924194336e-02
3.614577740314660614e-01,3.551433075775378145e-01,2.657983480898434836e-01,-6.061306896889257119e-03,1.770647715882649881e-02,2.057359192066705172e-02,1.044373214244842529e-01
3.397430477996208342e-01,3.079142346703918065e-01,3.095055292521751711e-01,1.551040498138318833e-05,-1.472577881453968063e-03,-9.489079443947144761e-04,3.121159970760345459e-02
3.003437659726039821e-01,3.556636853470646065e-01,2.535075780228021602e-01,-1.637021870727804751e-02,-6.647588928930334151e-02,-1.814309648246699089e-02,1.513059735298156738e-01
3.213217531922301085e-01,3.303918762114827490e-01,3.026042337675411975e-01,-7.660130666694065643e-03,-4.532134502089221056e-03,-2.632604842653170525e-03,2.933987416326999664e-02
3.167886169182654865e-01,3.482704644439225672e-01,3.062025528240505667e-01,-1.535478261477836101e-02,-3.799080855281808389e-02,-1.579551733791368859e-02,8.498322218656539917e-02
2.524912987603011305e-01,3.564331384555903259e-01,3.591682524039788715e-01,-4.910949574373003196e-02,-5.544527520880638410e-02,-2.587859181642628015e-02,1.719376295804977417e-01
3.361364199373421680e-01,3.412279801964519521e-01,2.661835529905792752e-01,-1.828010284488242390e-02,-5.134060643080268910e-02,-3.333460967394107771e-02,1.323599070310592651e-01
3.415977244218969533e-01,3.143202375231469725e-01,3.034123398410925043e-01,2.203092532418408217e-03,7.364031264253950585e-04,-2.294854496520630418e-03,3.453361243009567261e-02
3.098536141326575510e-01,3.308020004336446607e-01,3.123851327631070873e-01,-4.674813399786525818e-03,-8.688573730767028269e-03,-5.179634379007440684e-03,2.765381895005702972e-02
3.166117483304194402e-01,3.219791994951491376e-01,3.179592787333075932e-01,-7.306396239410129466e-04,-5.964528631796992952e-04,-5.595966366434866135e-04,5.196227692067623138e-03
3.112410092243762527e-01,3.343455010293305274e-01,3.123251332095845489e-01,-7.871852990224527738e-03,-8.924967810484622788e-03,-5.952847059557325043e-03,3.226634860038757324e-02
3.005200213498985806e-01,2.995144613720090998e-01,3.425665491682781116e-01,-1.469655754355252836e-02,-4.232089826352662372e-04,-1.610861637769966665e-04,4.959620535373687744e-02
3.002883643411285441e-01,3.409905308479536656e-01,3.150786239169286462e-01,-6.827951191697791177e-04,-3.624062948598533000e-03,-1.611989606520912574e-03,3.635956719517707825e-02
2.816176674011270920e-01,3.218777121696646537e-01,3.767724052528346190e-01,-7.736977364592559359e-02,-1.695316982071179077e-02,-1.268866014172247147e-02,1.617029458284378052e-01
3.030581109112481242e-01,3.378403300354527738e-01,3.169290679325691418e-01,1.301827940161878446e-03,-2.676651961243432017e-03,4.528135544852769645e-03,3.174639120697975159e-02
3.151683752740566669e-01,3.051945545330002618e-01,3.406815739278405419e-01,-1.435154470680300234e-02,-1.045889593989853157e-02,-9.848221963550025243e-03,4.734863340854644775e-02
3.266390437011646997e-01,2.557319206514997445e-01,3.596525652161635667e-01,-4.340183142632799557e-02,-1.297254811806784411e-03,-1.573799794945085831e-02,1.218928471207618713e-01
3.072859945240384860e-01,3.419366798274850461e-01,3.096464208944876839e-01,8.273122244961098222e-04,-1.699221976376233661e-03,1.002441244636978826e-03,3.373694419860839844e-02
3.109171934015454442e-01,3.095245888443158289e-01,3.332614495395993526e-01,-2.644532399269638838e-03,-3.676323315311993967e-03,-1.878142623205451833e-03,2.458517439663410187e-02
3.326451259471496225e-01,2.868651870851101626e-01,3.472360085423349951e-01,-1.851177027256003735e-02,-1.136495005229396470e-02,-1.899543885970609788e-02,7.399114221334457397e-02
3.276991232272284948e-01,2.503642228721590368e-01,3.850583029570707749e-01,-4.410563705086358727e-02,-6.218785967178645444e-03,-3.344135630935609477e-02,1.517021507024765015e-01
3.276071743407478754e-01,3.090910318387977695e-01,3.179853507517348965e-01,1.235434083414067201e-03,-5.249128307146799788e-03,1.621007205946270935e-03,1.877205073833465576e-02
3.290486829544148617e-01,2.471116898122447947e-01,3.574071385880338014e-01,-4.274240365866921465e-02,-7.638849636386762533e-06,-2.508720912819693838e-03,1.238591969013214111e-01
3.430107375001041348e-01,2.697523009062067212e-01,3.582089902678041726e-01,-3.224703553826327451e-02,-3.261581889326259365e-02,-5.852448964899758382e-02,1.526352614164352417e-01
3.711384639862533863e-01,2.690722182096546011e-01,3.294756033044102250e-01,-2.550180177697007264e-02,2.174309361039103265e-04,-6.772303983656642601e-02,1.536598205566406250e-01
3.650837981514549191e-01,2.427634032520518126e-01,3.192828542478193254e-01,-1.143598472993465065e-02,-6.220336655244225986e-03,-5.290590481279467544e-02,1.426994800567626953e-01
3.173100872417226603e-01,3.171261248804380095e-01,3.159994256105332910e-01,-1.909868879584505214e-02,-2.191354382352249039e-02,-1.896230188358102517e-02,6.012576073408126831e-02
3.485366759984346863e-01,2.827387887009923384e-01,3.306045057597415959e-01,-2.342601042968350811e-02,-1.400859406215497309e-02,-1.791594993010096198e-02,8.166410028934478760e-02
3.424177234636724965e-01,2.847661420526689247e-01,2.977524031733289056e-01,-3.632517000478444058e-02,-2.960821299537463869e-02,-5.664883036618667544e-02,1.376932561397552490e-01
3.588479860147614220e-01,2.909619557809786095e-01,3.120388734924700591e-01,-5.245862174252441390e-02,-4.568664263536104803e-02,-4.706812179577519323e-02,1.574346721172332764e-01
3.164222851722615082e-01,3.153532239058718378e-01,3.224433793707904838e-01,-1.327246468433685800e-04,-4.414882450621548395e-04,9.915891236031721540e-04,6.886269897222518921e-03
2.878021443875122820e-01,3.369927777625391641e-01,3.302212985760367703e-01,-7.887546218110485022e-03,-8.944233733346275417e-03,-6.556490655011021004e-03,5.184668675065040588e-02
3.307749581620409995e-01,3.059437907329996542e-01,3.179383687631780475e-01,-1.162286466997108220e-02,-1.110828766578745783e-02,-1.180090034558566731e-02,4.069221392273902893e-02
3.191455826048581468e-01,3.425890599766384659e-01,3.175189426415928606e-01,-4.973075076167220859e-02,-3.612595103945346470e-02,-6.244556509551424384e-02,1.536991149187088013e-01
3.097590430031708086e-01,3.357558178734206256e-01,3.088030187336748278e-01,8.548038274210817454e-04,-2.210566911734661094e-04,9.354928717068197990e-04,2.658127062022686005e-02
3.042371335571087965e-01,3.099959863787286607e-01,3.219369214049864203e-01,-5.430523257705492657e-02,-7.407272062340827801e-02,-5.611911701976847466e-02,1.870830357074737549e-01
3.130993697370386686e-01,3.218965395638117011e-01,3.191806899125065877e-01,1.225530758506750313e-03,-1.019929808220105356e-03,3.261517584981229057e-03,1.002064254134893417e-02
3.472567964995237899e-01,3.493827973294281186e-01,2.710242692480233084e-01,-9.457799856992318496e-03,-1.596726868286756085e-02,-3.131050201623462870e-02,9.976092725992202759e-02
1.864890090136062106e-01,3.998225772930559252e-01,3.754264999358626342e-01,-5.970164123573874770e-02,-2.286396613517710161e-02,-8.283657746434788804e-03,2.310170531272888184e-01
3.893195612756409352e-01,2.391994919744306336e-01,3.651032507654053405e-01,5.813994025661156639e-02,-6.689472008174930651e-02,1.697445723677258045e-01,3.598502874374389648e-01
3.592942557947286786e-01,3.298172299155032738e-01,2.783048610219128749e-01,-7.536010572586040318e-03,-7.944570729079432000e-03,-2.365370034377766925e-02,8.413718640804290771e-02
3.015050355373041224e-01,3.424777277857150026e-01,2.889398717046972043e-01,-2.830058499730242830e-02,-5.909318791984136121e-02,-3.974248929670482627e-02,1.413104832172393799e-01
3.395715091197799573e-01,3.011887656376512901e-01,3.156675648897790398e-01,1.629819366884738968e-03,-3.561565003988272429e-03,2.591182993876434745e-03,3.454418107867240906e-02
3.568136259129938148e-01,2.428602982816643052e-01,3.551334330556705776e-01,7.215772279780702583e-03,2.976281484534132760e-04,7.829536085020098388e-03,1.146171614527702332e-01
3.041889137198141024e-01,3.564156572516982702e-01,3.213692846275600368e-01,-2.089922451170300732e-02,-3.722152639507970290e-02,-1.781730715016750441e-02,9.243673831224441528e-02
2.148130833163405251e-01,3.728059947666035878e-01,3.894627395836512962e-01,1.203203791205795757e-02,-1.471043431115181925e-02,1.083269349883105200e-02,1.711911112070083618e-01
3.358564425576652801e-01,2.651844005862746823e-01,3.617692248703485713e-01,3.399120936714304653e-02,3.150106297364405842e-03,4.005242059794114975e-03,1.050781682133674622e-01
2.257347582099951677e-01,3.400084330277126088e-01,3.684771368868531849e-01,5.203338780266009850e-02,2.129284882000329407e-02,-1.668006821075820531e-02,1.656484603881835938e-01
2.197616992166542271e-01,3.872362133715472887e-01,3.717124348199722372e-01,5.224398963079544822e-02,2.344956361194008854e-02,-7.200511269966521077e-03,1.888977438211441040e-01
2.871256590960302724e-01,3.306625970297221717e-01,3.280827258942012326e-01,-1.803640954109191410e-02,-1.563369338284003804e-02,-1.004162414516148426e-02,6.165611743927001953e-02
2.065804097493846303e-01,3.661458439073266846e-01,3.631281813003616743e-01,2.786841977790958588e-02,7.777371950128854003e-03,-6.460604984740707379e-03,1.662087440490722656e-01
2.426928450456419806e-01,3.498647704184586482e-01,3.541673646029557809e-01,2.280661061679843324e-02,3.941573494140869147e-03,-6.060700817895441073e-03,1.169729903340339661e-01
3.883391393474555642e-01,2.184645771794115898e-01,3.606171374294907528e-01,4.112410677523922753e-02,-6.685782485930051762e-03,2.232988105203956297e-02,1.778205782175064087e-01
2.989164343315002803e-01,3.359062786465996653e-01,3.298153491955085892e-01,-1.203311010946932214e-02,-1.491573340752282845e-02,-7.880123635190791620e-03,4.968056827783584595e-02
3.349741507859906875e-01,3.026078550132022538e-01,3.224370652464018661e-01,2.330777902957556491e-02,-1.552285731099265972e-02,2.598230679833596693e-02,7.195034623146057129e-02
3.207986103067678174e-01,2.751362086745564040e-01,3.463576867492677569e-01,5.074305678996304803e-02,-2.046067518694224749e-02,2.327678348052218335e-02,1.204629689455032349e-01
3.330202176955155968e-01,2.196278374897829289e-01,3.490793580357505754e-01,5.747692750658702637e-02,-1.274057373904375658e-02,2.588146662724536209e-02,1.653602719306945801e-01
2.955411248580576133e-01,2.800724079630619867e-01,3.459133888691739989e-01,5.379567381321897351e-02,-1.914063768380762365e-02,2.148131758466600288e-02,1.213309392333030701e-01
2.994680682114900794e-01,3.427460267878132960e-01,3.224244166354467978e-01,2.528223633348685578e-02,-2.495925757954351246e-02,2.499720145563906482e-02,8.406854420900344849e-02
3.361470038692406237e-01,3.043260205266977159e-01,3.181992823915169577e-01,1.375283089893008116e-03,-3.852355617230977282e-03,2.629738875562823153e-03,2.888813428580760956e-02
3.066595274416369366e-01,3.167645577781740829e-01,3.315145189390850677e-01,1.719362078441543729e-03,1.995454919256720895e-03,-5.216058876076648705e-03,2.389890700578689575e-02
3.488511313511003520e-01,3.353609928072350255e-01,2.765850662403084304e-01,-2.838902942568139343e-03,2.875107893716146237e-03,7.131634400529924742e-03,6.805179268121719360e-02
3.289763958806700694e-01,3.188699015395227154e-01,2.867036058646569852e-01,1.520092162164132094e-02,-1.824885972787420457e-02,1.851068111431394131e-02,6.466918438673019409e-02
2.771890764919279215e-01,3.510611920094920957e-01,3.517248359704281402e-01,1.518343990768437554e-02,-1.501804636391445430e-02,2.718441679433725253e-03,8.304794132709503174e-02
3.129577067002480839e-01,3.347183613181499151e-01,3.136814778658254532e-01,4.303509293850816576e-03,-2.841296912087789509e-03,4.417843991952483985e-03,2.442604675889015198e-02
3.150322190437248593e-01,3.000533887426187762e-01,3.422009468838088653e-01,4.464144383530756384e-03,-1.655038782851871388e-03,7.609569636371903579e-04,3.793680667877197266e-02
3.074758930991755013e-01,3.077226233853995740e-01,3.411580832440984645e-01,8.924283525401493014e-03,-2.283952588358057704e-03,9.408009296580917107e-04,3.719507530331611633e-02
3.281177480972681249e-01,3.278545544741859330e-01,3.013126822361286150e-01,-5.254693031535606976e-03,-2.762891164183110208e-03,-3.009869733154603953e-03,2.905924804508686066e-02
2.880779114533379426e-01,3.308936903093165904e-01,3.444392121139124296e-01,4.093021540082420612e-02,-5.103507541466127673e-02,4.008569535222380326e-02,1.423264145851135254e-01
2.683986868395336067e-01,3.131874596643730024e-01,3.356386015533776579e-01,5.774952954220582968e-02,-3.975009728853434038e-02,2.953241967773156257e-02,1.444900482892990112e-01
2.878358593182305247e-01,3.354994911851326145e-01,3.416259003261233884e-01,2.361914077971902573e-02,-9.640135332865288481e-03,1.350890520198291291e-02,7.142283767461776733e-02
3.068395221096230086e-01,3.397334947197888089e-01,3.095737628619427140e-01,1.384416797609534973e-04,-9.170840594096480759e-04,-6.819371778232469856e-04,3.167846426367759705e-02
3.336560176282101775e-01,3.039326647525861791e-01,3.599556771633206642e-01,6.818809500561073822e-02,-4.812140155673980818e-02,4.767186515599412810e-02,1.734085977077484131e-01
3.186471357648885117e-01,3.402960294367333716e-01,3.085488572809017005e-01,7.513975606736323504e-03,-1.179251541579717441e-02,6.704799698201388200e-03,3.886771202087402344e-02
3.106230586811425387e-01,3.224602676719531824e-01,3.304590079146494941e-01,-7.323035568708747070e-03,8.118244470153811870e-03,6.759675086507989719e-03,2.818616665899753571e-02
3.055756253019086821e-01,3.512241310064882494e-01,2.897130217105617911e-01,9.660383524285625148e-03,-2.369579693859947406e-02,4.345039614123444999e-03,7.127827405929565430e-02
2.642876592204688180e-01,3.497935017743742936e-01,3.408426968721141037e-01,-2.140116386006718410e-03,-7.012172204103488127e-03,-3.263261768231853505e-03,8.257856220006942749e-02
2.931729854976923288e-01,3.373765477850842465e-01,3.133127759666824996e-01,1.548910196886577745e-02,-1.962807935113910357e-02,1.336355884349023707e-02,6.229439005255699158e-02
3.199973480243622492e-01,3.047809683517982426e-01,3.464927439229761319e-01,3.149200047735263575e-02,-1.695880033964194261e-02,1.827661770928665566e-02,7.859296351671218872e-02
3.299803940071909802e-01,3.049312948822083813e-01,3.366016414232204657e-01,2.960317510714714079e-02,-2.315215480371099824e-02,2.119804959368826527e-02,8.013948798179626465e-02
2.839474281662884292e-01,3.458726571761603363e-01,3.366996892200904701e-01,1.411679047671362749e-02,-2.076078052654057801e-02,1.290779549793451622e-02,7.577304542064666748e-02
3.475371625659662844e-01,2.390991324757630876e-01,3.989073516029304489e-01,7.903037467989955378e-02,-3.558168390982193027e-04,5.320346550285232415e-03,1.969540119171142578e-01
3.124761334149841474e-01,3.289090161472351115e-01,3.155383768789416510e-01,1.109228574051115751e-03,1.147676723023347825e-04,2.363014595497509463e-03,1.579802669584751129e-02
3.347301665207590982e-01,2.689824581310827911e-01,3.403624819823602987e-01,3.460639152242730998e-02,2.635379588020837771e-02,-2.525359921691248954e-02,1.109702810645103455e-01
3.161025344499300282e-01,2.542530691787359132e-01,3.985429951406789240e-01,5.890970314449368861e-02,5.096556826670560481e-03,-6.725535637962508709e-03,1.623125523328781128e-01
2.881635320382937571e-01,3.274106768114253829e-01,3.365907455379733015e-01,5.670132698404804772e-02,4.132643972710846325e-02,-4.982556326405188085e-02,1.555680185556411743e-01
3.584552401168799030e-01,3.121970999472092334e-01,2.810083817650531612e-01,-1.074618434599931187e-03,2.045013152335879844e-04,-2.237312539835243502e-02,7.784949243068695068e-02
3.271398473465134682e-01,3.274081191284659020e-01,3.066398143266032550e-01,3.092837245317688749e-02,5.687906688507610165e-02,-6.508807633390358005e-02,1.603451669216156006e-01
3.281249163122408885e-01,2.878757301367095289e-01,3.352344321306032771e-01,2.446207581122252298e-02,1.104204814163638887e-02,-2.316728918926408073e-02,7.568239420652389526e-02
3.052652735160889530e-01,3.136731556738321380e-01,3.307942255037967794e-01,7.333241626013160472e-03,5.485918131050653186e-03,-4.522468719682612090e-03,2.864871360361576080e-02
3.857008753882074648e-01,1.847556616884796499e-01,3.989721476783196774e-01,1.154616312232711189e-01,7.388454616992944091e-02,-6.656427096614765671e-02,3.359840214252471924e-01
3.260714664840138055e-01,2.538748223237410340e-01,3.075009986089848879e-01,8.788108843802194814e-02,8.192891711336079685e-02,-1.213116551529661857e-01,3.027743995189666748e-01
3.682187877724441005e-01,2.142531131559107793e-01,3.339761246107711967e-01,8.597602339011706229e-02,4.541817881619074349e-02,-9.825288803405496374e-02,2.773639261722564697e-01
3.735007624462149955e-01,2.501631260126562784e-01,3.813905783742378430e-01,1.356574614265299850e-01,2.214621649700295944e-02,-7.664611335695546701e-02,3.009179532527923584e-01
3.513264443084799238e-01,2.683145559627455601e-01,3.585010101060113197e-01,1.015149849009415878e-01,1.115476932775997937e-01,-9.602493809894231680e-02,3.216285705566406250e-01
3.442226928389883756e-01,3.542238915202235994e-01,2.215736658448947405e-01,1.765429957818912682e-02,5.980737842053608644e-02,-2.341574329051936826e-02,1.722792088985443115e-01
3.110857021618910201e-01,3.247093748831457183e-01,3.192251105494780528e-01,2.591601948072945472e-03,-1.607239118839372477e-03,4.435566054000025099e-03,1.509593892842531204e-02
3.184075975866321739e-01,3.176333506373650861e-01,3.188072440044614764e-01,1.200095550685173495e-04,-2.352760550880154500e-04,4.780886653872416098e-04,1.401277375407516956e-03
3.481170909284371229e-01,3.560869843247400635e-01,2.629953981345837244e-01,1.015840856647514355e-02,1.734184584128175763e-02,-3.479117096396668052e-02,1.132727116346359253e-01
2.800640556658680058e-01,3.518379417140100607e-01,3.299269011068532986e-01,-1.879682097927571488e-02,2.520465249149781914e-02,1.064506400354986448e-02,8.581771701574325562e-02
3.530734904531702134e-01,3.649454869244657673e-01,2.586515929847640893e-01,6.234181295521154520e-03,2.590071019582054074e-02,-1.280796791452926651e-02,1.131312623620033264e-01
3.185320895249914575e-01,3.184956882828948177e-01,3.174634847935631221e-01,2.265356769195008522e-04,-8.590143482022255560e-05,2.218686078536253280e-04,1.195036456920206547e-03
3.124823633237973075e-01,3.149876307219226512e-01,3.251738495412404562e-01,2.599772954661978570e-03,-1.678663608595749044e-03,3.760001325358116112e-03,1.437698304653167725e-02
3.496648717047836641e-01,3.609505364033323005e-01,2.484920733134303450e-01,2.634195513126466864e-03,1.851274627117250118e-02,-1.850396777123762201e-02,1.165387332439422607e-01
3.336855491474043922e-01,3.580149653358596917e-01,2.678679027374737398e-01,5.707763950160589777e-04,2.577761727573036482e-02,-6.917578050750510313e-03,9.307620674371719360e-02
3.275517534928649166e-01,3.480493940964996535e-01,2.891553393985730747e-01,-1.097914985918075226e-03,2.328475080612161033e-02,2.841902171983214879e-03,6.584723293781280518e-02
3.626695849008644834e-01,4.002199896945395907e-01,2.478940955083554498e-01,2.461883126054655968e-04,6.956694200566641839e-02,-1.065741900328983499e-02,1.837196648120880127e-01
3.095305881887362998e-01,3.095035313677597100e-01,3.349070020185909158e-01,-5.536476011862736081e-04,-1.319735417150235193e-03,-3.532615535380213595e-04,2.551800943911075592e-02
2.951089125883880615e-01,3.199685368463452972e-01,3.327811517536637953e-01,-2.059856439181468463e-02,1.468408155018266145e-02,1.732249659237133574e-02,6.261514872312545776e-02
3.230961286649289277e-01,3.224940760609672497e-01,3.334987867190517541e-01,-1.529437053991137413e-02,1.839334455185905742e-02,1.840288739387455769e-02,5.336232855916023254e-02
3.207550276074280227e-01,3.224264438676717193e-01,3.589623389737860992e-01,-6.314775041634729247e-02,5.279183966845205772e-02,6.161329343849983320e-02,1.819647699594497681e-01
3.087008019711280360e-01,3.117744800356356261e-01,3.356327500947806075e-01,1.360836119294139271e-03,6.981948283341451620e-04,-9.095686481388185786e-04,2.571958675980567932e-02
3.443603989855009706e-01,3.174479036540553412e-01,3.011568352079203592e-01,-1.502573834484769930e-02,1.681575154829776514e-02,3.083878791027236388e-02,7.620258629322052002e-02
3.085736097154672675e-01,3.089761418493555678e-01,3.362033878204663262e-01,1.214720034038578676e-03,7.367424474864657166e-04,-1.903776413445274363e-03,2.773757278919219971e-02
3.894117922938419296e-01,2.796575040860011518e-01,3.970440732696386976e-01,1.268503632034068407e-01,-8.031343344368700732e-02,1.292052000235132114e-01,3.614521622657775879e-01
3.090858466840483709e-01,3.067280281722803426e-01,3.414872697095500675e-01,1.277302139228495611e-03,9.521795853883316049e-04,-4.315805899564163859e-04,3.376360982656478882e-02
3.200198349302165179e-01,3.217289231072590350e-01,3.147398990125134799e-01,3.803368950051417424e-03,4.398389612744032975e-04,-7.854112923509715214e-04,9.254750795662403107e-03
2.969910268974301770e-01,3.394893240428530357e-01,3.265476370719373467e-01,-7.720062086886157748e-03,1.692978978319246638e-02,1.046818539873846897e-02,5.282985046505928040e-02
3.096433615210550938e-01,3.096102650560361713e-01,3.366499807070090222e-01,1.371414094340733480e-08,-3.434348255534970290e-04,1.156195406015153679e-04,2.703046984970569611e-02
2.461611970002608729e-01,3.406627410577457438e-01,3.390298446762015083e-01,-3.648082240374644208e-02,3.339921522265090759e-02,1.573568109194316625e-02,1.298491656780242920e-01
3.182246596673719008e-01,3.168279813686294966e-01,3.191983307539934533e-01,6.224294342266325965e-04,1.023195303434163827e-03,-5.553051057458034678e-04,3.080062335357069969e-03
2.815491121222173931e-01,3.530382756068891625e-01,2.986166858413403791e-01,-2.119677250941242111e-02,5.000502904365815987e-02,1.237143897400373033e-02,1.161483153700828552e-01
3.239526297784231512e-01,3.168491034631576997e-01,3.137345802545865592e-01,2.544231454408765487e-03,7.364093958626753656e-04,-6.497206590684904363e-04,1.022727135568857193e-02
3.136800956738322599e-01,3.359115613530995192e-01,3.012214519092901166e-01,3.076305801734296672e-03,3.065308231225809428e-03,-1.724223720023852812e-03,3.149488568305969238e-02
3.109329712605641838e-01,3.121059011993246868e-01,3.309517289942658924e-01,-5.595551621760798053e-03,5.404342593756333510e-03,6.462517010309717577e-03,2.618185617029666901e-02
3.171464338656664328e-01,3.116969956806636133e-01,3.204975175240853957e-01,-6.528104912848678443e-03,7.230725210030238340e-03,6.073751964533690394e-03,2.132035791873931885e-02
3.082339764204132249e-01,3.065958612107700376e-01,3.400773525717680212e-01,1.079491133954910663e-03,-5.682593037742570731e-05,-7.894705162300671725e-04,3.277533501386642456e-02
3.125045218258338808e-01,3.083126471656200129e-01,3.349967954094680289e-01,-1.674370960484958173e-03,-1.007702916754889527e-03,-7.166126609602126033e-04,2.511486597359180450e-02
3.149625404387857430e-01,3.224460755032238501e-01,3.226932770650040583e-01,-5.478360941418538438e-03,6.760442024577052386e-03,6.247480155969402892e-03,2.005381323397159576e-02
3.123941416061382648e-01,3.090043293372544131e-01,3.323796664937954115e-01,-1.010342632338681428e-03,-1.978841709792122060e-03,-4.394032284469303121e-04,2.222719602286815643e-02
3.217403870008705424e-01,3.128527852401554177e-01,3.164046658613869911e-01,1.667404673418971129e-03,2.586822143857818793e-03,-2.029374781711081738e-03,1.004033721983432770e-02
3.127172407940629340e-01,3.198872196625220377e-01,3.257077273144516893e-01,-7.783864475078155348e-03,5.378778151569415730e-03,4.849845602301261147e-03,2.159032784402370453e-02
2.987067787366635141e-01,3.363853548384011516e-01,2.891939203039612938e-01,-3.028230349332752813e-02,4.857368611442880457e-02,3.624614828420877344e-02,1.250568330287933350e-01
3.326209680685880965e-01,2.779870290554039558e-01,3.282030189971549272e-01,-2.533019939754963326e-02,1.421728898923589092e-02,2.026187738449184220e-02,8.078302443027496338e-02
3.381770520832502180e-01,2.997970911813839789e-01,3.189345312139427735e-01,3.934648537778920145e-03,4.789293096071753873e-03,-5.198629921277970328e-03,3.607079759240150452e-02
3.237026119552234849e-01,3.308453997794953416e-01,3.010585196025445387e-01,-6.752469582767458081e-03,1.206251605093789508e-02,9.873461607297108478e-03,3.989075496792793274e-02
3.358873660020070817e-01,3.038840857662862827e-01,3.181697261861756165e-01,-1.713065759096280786e-03,-3.457009647074396706e-03,-2.547421943929204131e-03,2.890028990805149078e-02
3.173213234918876302e-01,3.058574170441618612e-01,3.243173711140674986e-01,-1.360625530696414273e-02,1.002353886394087047e-02,2.183098834581059799e-02,5.046928301453590393e-02
3.158752299265289443e-01,3.168884289874355775e-01,3.226845971351011144e-01,-1.432029448425793834e-02,1.616959329090570871e-02,8.419401689061583802e-03,4.065382480621337891e-02
3.460680791867479789e-01,2.949620847448392591e-01,3.178049670328430554e-01,-2.345132051540985228e-03,5.846313570016121661e-03,9.815466535858833122e-03,4.872657358646392822e-02
3.357761772429177505e-01,3.095915924014056575e-01,3.126550511318492154e-01,9.573485747893920907e-04,2.368271347094720505e-03,-9.498968440842490979e-04,2.524053119122982025e-02
3.455887274318794056e-01,2.727186612383049047e-01,3.293321138951393334e-01,-5.938525208784591232e-03,6.736128089297172168e-03,2.576392051818827966e-02,8.138161152601242065e-02
3.610983015124943352e-01,2.856682924355695152e-01,3.173289011351024813e-01,-1.526735295708758766e-02,3.062413983061713224e-02,8.013310865765468916e-02,1.645620167255401611e-01
3.123757483375398936e-01,3.115513142805566571e-01,3.280562991293991537e-01,5.577157301690894393e-04,9.869126146720896484e-04,-2.689716884855097596e-03,1.688329875469207764e-02
3.105776439610791195e-01,3.201504522323959656e-01,3.284129032589128694e-01,1.428678835716306770e-03,1.556186314255050352e-03,-3.734996094028174111e-03,1.715344563126564026e-02
3.818333712710914041e-01,3.226232313270096519e-01,2.737546146650517986e-01,-2.445272530030867530e-02,2.159546069954531092e-02,4.839118290232118785e-02,1.378605067729949951e-01
3.597049741464427020e-01,3.464656908776421740e-01,2.746426674100005960e-01,-1.971339951848178305e-03,6.637559748378063854e-03,1.866816885237681731e-02,8.645254373550415039e-02
3.411334022479698413e-01,3.493006914493805293e-01,2.637504248254408101e-01,1.275283683055436317e-03,5.779958347456243435e-03,-2.283524243366647898e-03,8.250809460878372192e-02
3.613993117674721423e-01,3.249285253132380702e-01,2.731584926811795877e-01,1.414467874693187436e-03,7.160292944214295685e-03,1.735181763989229048e-02,8.343510329723358154e-02
2.879471385440623976e-01,3.548742883878175935e-01,3.115195612748440923e-01,1.393432101840491079e-02,2.735045537484628517e-02,-9.270835300501281684e-03,8.088108897209167480e-02
3.150218779156235271e-01,3.004653337103919131e-01,3.444936014179425521e-01,2.807007188459804872e-03,2.434115402368177555e-03,-7.260329551766787903e-04,3.940147161483764648e-02
3.335194760045175899e-01,2.873038288921910821e-01,3.323911444351512201e-01,7.014073798467806639e-03,8.029379536363101186e-03,-6.261823487382061487e-03,5.043459683656692505e-02
3.790644129073371116e-01,3.095286722648689648e-01,3.192958976659503456e-01,-3.382234898970929576e-02,3.598717424850140373e-02,7.434884058720207800e-02,1.677849292755126953e-01
3.724411997298577859e-01,2.585113368159009939e-01,3.786031363218599344e-01,-6.732099793383082564e-02,2.461428518903752485e-02,5.159250742596867972e-02,1.926637291908264160e-01
3.413006660183411922e-01,3.069644108512683545e-01,3.096771834687659375e-01,5.786252245097865590e-04,1.328196485026635412e-03,-7.424098094726809148e-04,3.318345174193382263e-02
3.411003923671054872e-01,2.655752545150543709e-01,3.526430393977518229e-01,5.728133791704773624e-03,-6.957305791637453723e-04,1.433182217321200391e-03,8.255354315042495728e-02
3.357924051400221210e-01,3.094115204332621438e-01,3.094986144371577597e-01,9.137572563387603986e-04,9.700907087622141246e-04,-2.059225360160756664e-04,2.644080854952335358e-02
1.576331809977301046e-01,3.591780444254437099e-01,3.896069571953032495e-01,9.430666778627259939e-02,-4.928941511789248359e-02,2.169739847254147092e-02,2.882029712200164795e-01
3.488470226806630325e-01,3.366225880764864287e-01,2.734186406904322020e-01,-3.985598181819193300e-03,4.748069860024666661e-03,2.856566430894004818e-02,8.648749440908432007e-02
3.415539398266783100e-01,3.294885199060284542e-01,2.908807840929422128e-01,-6.966465914470670005e-03,1.665519732821110419e-02,2.617999047337533219e-02,7.166524976491928101e-02
3.366338774121533928e-01,3.266036545434106708e-01,2.938088898946283889e-01,-1.071305028103129373e-02,9.408646646408325848e-03,1.810080653895976277e-02,5.565819516777992249e-02
3.516730801349368107e-01,3.441815798409443294e-01,2.749243420545197103e-01,-8.519036722517830951e-03,1.909483305651383384e-02,2.018548292513740877e-02,8.891259133815765381e-02
3.280173797740859598e-01,3.118130477395187894e-01,3.199415311020227248e-01,9.565016946419134438e-04,5.130975546400380963e-03,-1.448593577084154958e-03,1.688065938651561737e-02
3.742771590622581135e-01,3.610381324003508752e-01,2.691124446376758628e-01,-2.473776725824339620e-02,4.593903035618717573e-02,5.056806360362898350e-02,1.602530926465988159e-01
3.943307000448831312e-01,2.023149405736077711e-01,2.492582646821544234e-01,2.720009833681967179e-02,2.248309106859990719e-02,-1.470094441886019565e-01,3.140560388565063477e-01
3.589450793405541407e-01,3.193865163941737029e-01,2.278075555718996892e-01,-9.519826803121855807e-03,1.060766159200366224e-02,5.770137750293015400e-02,1.554738432168960571e-01
4.036849427653656508e-01,4.221069090552309055e-01,1.696194553458525711e-01,-3.368947371850779943e-03,-2.659965000131446836e-02,5.331575550157460243e-03,2.483544200658798218e-01
3.926440501831963137e-01,3.972515935285145794e-01,9.112484450792560087e-02,4.790936503411377667e-03,4.954160018158586254e-02,1.958235768144364966e-02,3.176581561565399170e-01
3.142795118164679602e-01,3.084477686566789445e-01,3.323585439219252091e-01,3.218883425310486556e-03,4.733136823675170371e-03,-2.046882614234006841e-03,2.402401901781558990e-02
3.174675992041295358e-01,3.054238832109510415e-01,3.321168595627420062e-01,2.168825988361263585e-03,5.295154806464650969e-03,-1.166462626197069946e-03,2.526643499732017517e-02
3.280952784714061266e-01,3.024607576798048481e-01,3.285766733051611599e-01,-2.254278277697002730e-03,-5.254032136708426323e-03,-2.255793448768420723e-03,2.798260934650897980e-02
3.117316687574604450e-01,3.237603154865377753e-01,3.104071043913633754e-01,5.743476980118874045e-03,6.758950236117984220e-03,-5.465890790968840063e-03,2.209108881652355194e-02
3.437735622087599863e-01,2.913279096177188165e-01,3.179597928167104404e-01,1.953653789137481996e-03,3.420529089173903348e-03,-5.796774863218168150e-03,4.701526835560798645e-02
3.047258307530447685e-01,3.148666422106343177e-01,3.376205683108835509e-01,3.059114899217000704e-03,8.101367945615857262e-04,-3.930840475633605967e-03,3.045847266912460327e-02
4.710022571134890867e-01,4.059601948709354313e-01,1.240573320260023871e-01,-1.524540445821609760e-02,7.651144957597601388e-03,3.029264508937497269e-02,3.250554800033569336e-01
3.468693243115586466e-01,2.596587197772418087e-01,3.192681556824186750e-01,1.845970290915406598e-02,1.875281924060852312e-02,-4.242812475888627088e-02,1.159229204058647156e-01
3.084132406329722076e-01,3.138400992675646761e-01,3.358353717402930427e-01,-4.155815710580832226e-03,-1.872709150435974620e-03,-3.881050858217819331e-03,2.720531634986400604e-02
3.413566356828361403e-01,3.060376289805889494e-01,3.088641963539334734e-01,-6.768764658705694458e-05,-1.018139220008246556e-04,-1.153408302935889779e-03,3.405328094959259033e-02
3.377232385405949944e-01,3.176887437622929466e-01,3.012310574267536567e-01,4.937447549514051640e-03,1.405650520198734824e-03,-2.217279001904698139e-03,3.310241177678108215e-02
3.397471009282529986e-01,3.068230603477070662e-01,3.088155863747746865e-01,4.714100047962646372e-04,2.513848532617913591e-04,-7.970013850925062584e-04,3.201753273606300354e-02
3.267761367796092054e-01,2.985321079370408803e-01,3.282095987934897652e-01,3.108982767318757730e-03,5.819891606215793489e-03,-3.003003245255167920e-03,3.159005567431449890e-02
3.484318596880317531e-01,3.328282569731121354e-01,2.808074264163365474e-01,-4.717844846076869273e-04,5.175671312126694026e-03,-2.655808104205288622e-02,7.719052582979202271e-02
3.184337182305617686e-01,3.186723787262628060e-01,3.144867415608310623e-01,1.207373423610541563e-02,1.428707097581583853e-02,-1.471375167540685605e-02,4.142158105969429016e-02
3.896023427300716602e-01,3.315500256912143340e-01,2.632683306067247209e-01,4.326767619367487272e-02,4.335714257657759946e-02,-8.721488014187736559e-02,2.146426737308502197e-01
3.357061326630060294e-01,3.090388906558018678e-01,3.094568403451016247e-01,-8.954823618103600631e-04,-1.764405016170089496e-03,-1.204981603225469726e-03,2.676325663924217224e-02
3.484952648557403387e-01,3.339701897426425869e-01,2.183508829861724732e-01,2.594249987541038041e-02,5.079014971533118289e-02,-6.591091231892849678e-02,1.950612366199493408e-01
3.570699285527598743e-01,3.318276894450589709e-01,2.830428871281982506e-01,4.690962136135097896e-03,8.853818946777169963e-03,-2.362720949226174497e-02,7.889541238546371460e-02
3.465790886404943039e-01,3.247458246375345969e-01,2.617111558835482632e-01,1.216496910275500012e-02,1.764891586172506049e-02,-3.198742275805415564e-02,1.013622805476188660e-01
3.282032881498908039e-01,3.137461350960459860e-01,3.119043299987591666e-01,-9.516589689994268964e-04,-2.527305287476031351e-03,-1.150471387321131463e-03,1.627508178353309631e-02
3.036147410295737537e-01,3.155994354586013073e-01,3.462422071565088855e-01,4.133575581887093814e-02,-5.469041980541088088e-02,2.566298633277187477e-02,1.323808282613754272e-01
3.064895746829466860e-01,3.196064495087370672e-01,3.334727204162558079e-01,1.251047729153996826e-02,-8.104509935154442790e-03,6.223035862786375355e-03,3.645506873726844788e-02
3.487247750694359993e-01,2.836405296750713068e-01,3.258940219462361787e-01,1.558367757390276035e-05,-2.336569620171461640e-03,-6.458343515164228187e-03,5.841908976435661316e-02
3.265729890753872322e-01,2.902001791282516896e-01,3.369420507283317212e-01,3.604561858265393267e-03,5.166249906901664371e-03,-2.646081955039417122e-03,4.413281008601188660e-02
2.980367591324438181e-01,3.187727359665323279e-01,3.398558758843734928e-01,1.530694634648201505e-02,-3.772726401772234089e-03,3.726141699413927470e-03,4.581396654248237610e-02
3.171811511262454530e-01,2.875471500494936050e-01,3.412307406789198971e-01,2.260278298845665515e-02,-1.028938029157824494e-02,9.739510390246770496e-03,6.560555100440979004e-02
3.166994870504343806e-01,3.062667995722502257e-01,3.407926390794134841e-01,1.485495912682018721e-02,-7.832982971542720024e-03,6.616099849588719106e-03,4.379579797387123108e-02
2.375106046013300554e-01,3.304169709579606318e-01,3.603500219003514804e-01,6.538545294828512766e-02,-2.391253710351217213e-02,2.558435811908565255e-02,1.697451919317245483e-01
2.971123919674105718e-01,3.192617955114724904e-01,3.636401263068747558e-01,3.812989437644712098e-02,3.909204808733112921e-03,-2.598643853908716179e-03,8.871728926897048950e-02
2.942018798417494474e-01,3.266351471667208739e-01,3.317926584361299835e-01,3.779087044809926153e-03,2.365531971641693463e-03,-8.066104294332569757e-03,3.873770311474800110e-02
3.162203087989018391e-01,3.183122031663107587e-01,3.189553382613080634e-01,1.155495233580520684e-02,1.521707868197935687e-02,-1.322374261472227842e-02,4.032327234745025635e-02
3.416259596712831192e-01,3.084462211499070516e-01,3.073247585756348488e-01,-5.816199139451632728e-04,-8.791094888293444229e-05,-2.133064449587332694e-03,3.397131711244583130e-02
2.929432367234532375e-01,3.203634609752136209e-01,3.217809525791649472e-01,1.938535207971434082e-02,1.907145972392835370e-02,-1.535808745260599031e-02,6.098274886608123779e-02
2.788811503587178553e-01,3.279355770884311294e-01,3.394512872003639936e-01,1.147297450724407697e-02,6.308681091528894717e-03,-1.007679817027478351e-02,6.263191252946853638e-02
3.131066106226777501e-01,3.268608807833512930e-01,3.180599793867995295e-01,1.328699007106355677e-03,2.621464857962010030e-03,-5.844664702493446509e-03,1.655230298638343811e-02
3.182077980150977981e-01,3.172107375886819569e-01,3.179342716840044547e-01,3.241635845060920635e-03,2.806563863062734327e-03,-2.938375320926447758e-03,9.047285653650760651e-03
3.120894134098382566e-01,3.122453712713926799e-01,3.282195035074076950e-01,-1.580190221725169075e-04,8.180884592717496641e-04,-1.047583550303990895e-03,1.621923409402370453e-02
3.356973154630464862e-01,3.101912994765593790e-01,3.082992998673974583e-01,-1.628106585231095180e-03,-9.154763174792951604e-04,-1.135586305817030614e-03,2.677179500460624695e-02
3.355114359729947648e-01,2.689548826761615219e-01,3.388683282982989931e-01,6.390735474110915970e-02,4.239725296134689431e-02,-4.237591278209229539e-02,1.664231121540069580e-01
3.273992671059444137e-01,3.123871031637334705e-01,3.136934386190709523e-01,-2.675930904898890170e-03,-1.287812232850649077e-03,-1.366733086948963404e-03,1.547648943960666656e-02
3.030440459190347213e-01,3.236465561427386284e-01,3.066344090227941521e-01,2.674762247871810897e-02,3.100696377723246439e-02,-2.592921635345199483e-02,8.608692139387130737e-02
2.824306236191086450e-01,3.447601723894148651e-01,3.023494208386432458e-01,3.380723124585482270e-02,5.535988409220769096e-02,-3.080016674845369173e-02,1.360481083393096924e-01
3.305524176195215325e-01,3.237883029362408904e-01,3.073294199257399772e-01,-9.113748125482734955e-03,-9.287327893713549082e-03,-9.882597416439254517e-03,3.505595028400421143e-02
3.427374024361906635e-01,3.152382494502434795e-01,2.923606664962747903e-01,9.427064342531774402e-03,1.041817212907055271e-02,-2.054879169876046990e-02,6.138145923614501953e-02
3.509701689588745621e-01,3.646930584598626068e-01,2.660647795725579190e-01,-3.487519076645620095e-04,-3.421502444072718752e-02,-1.428426987639254582e-02,1.126360520720481873e-01
3.513104648839805999e-01,3.222343956440450463e-01,2.625812052207124880e-01,2.696890479388897033e-02,5.161883823170512753e-02,-5.250498551105970552e-02,1.567934900522232056e-01
3.148115217171184588e-01,3.344340334068406917e-01,2.906876562495256944e-01,1.122969476651570521e-02,2.145584029634546586e-02,-1.895595929176007235e-02,6.540441513061523438e-02
3.082974922982388843e-01,3.308137852511329746e-01,3.055454498018382870e-01,8.626692364180342174e-03,1.420441276098090115e-02,-9.427860281889376137e-03,4.088681936264038086e-02
3.498070538307134214e-01,3.575005118960171702e-01,2.794434040881569326e-01,1.356035440752489420e-02,2.813898812275539285e-02,-3.144079161527191246e-02,1.069775670766830444e-01
3.222860945271361910e-01,3.154261313613455076e-01,3.175711374711935320e-01,-9.971373972380436108e-04,-6.247015067660573618e-04,-9.482363134456005087e-04,6.617895793169736862e-03
3.214218454245400536e-01,3.152485708514536356e-01,3.152196259533308065e-01,-8.414899199440088349e-04,-2.058633154686516017e-03,-4.564904270373487758e-04,7.331590633839368820e-03
3.111014352854540310e-01,3.207256330576425118e-01,3.221697148966949920e-01,8.824609285957289717e-03,6.419952478391052070e-03,-9.849640130071998095e-03,2.751224301755428314e-02
3.159057809025910823e-01,3.439478272670674075e-01,2.789770559995831123e-01,7.539584726221374919e-03,2.075742036294557849e-02,-1.134173740295024886e-02,7.095559686422348022e-02
3.252785660939561119e-01,2.938347180038600737e-01,3.383872906856296159e-01,-4.758188394062922051e-03,-5.556179051458724066e-03,-2.017447934767533681e-03,4.177903383970260620e-02
3.176243847534322984e-01,3.160817964740683661e-01,3.223164662404534586e-01,-7.294684946696994516e-04,-5.018850548955447986e-04,-9.103008009518332409e-04,6.039133761078119278e-03
3.175973823620264480e-01,3.543798621547878391e-01,3.046319893598415374e-01,1.994391685411502774e-02,3.931385683531792019e-02,-2.150950261211594106e-02,9.599971771240234375e-02
3.120830874310889791e-01,3.106051176860359919e-01,3.313084952594252397e-01,8.626815000441299258e-03,7.795164900567868801e-03,-8.273580432134339593e-03,3.179829195141792297e-02
3.198062831666855232e-01,3.145999607875460402e-01,3.198207107592321852e-01,-1.511994400118294194e-03,-3.963432316661545315e-03,-1.416060242177144242e-03,9.337106719613075256e-03
2.848575978531524000e-01,3.555474197146368809e-01,3.334803085683794022e-01,1.270076123549695145e-02,2.410388841055406683e-02,-8.494162556038992173e-03,7.979637384414672852e-02
3.175234241075366448e-01,3.172275297928408011e-01,3.193463211260231249e-01,-2.638607186622868913e-04,-1.103569134013892422e-03,-6.019066085524343900e-04,2.983157522976398468e-03
3.413923213205177776e-01,2.675534831025631055e-01,3.272869701528359210e-01,-1.268460363650968266e-02,-1.032464504747455762e-02,-2.356884389306948893e-02,8.413427323102951050e-02
3.316338968716505131e-01,3.051750843022467685e-01,3.322427595843123749e-01,-1.274230470714575632e-02,-7.522890721603840009e-03,-1.189233108192910490e-02,4.239943996071815491e-02
3.272485395648295770e-01,3.023254255492460740e-01,3.271757253286292633e-01,-2.420245679058606342e-03,-6.260881279830207875e-03,-2.546865805287036426e-03,2.782050333917140961e-02
3.155770473414662991e-01,3.124487810632027296e-01,3.283450203700243319e-01,-1.571509237167060147e-04,2.427004086897261055e-03,-1.046572514598991194e-03,1.528986170887947083e-02
3.237392075594516805e-01,3.144937448111638778e-01,3.139742129998059350e-01,-3.302690495454503432e-03,-2.082902481876094340e-03,-2.255711561617541189e-03,1.231077779084444046e-02
3.175566524947094349e-01,2.972881992771215232e-01,3.364087378159655306e-01,-6.631092739587066826e-03,-5.350153893225415361e-03,-2.410192195304681519e-03,3.719580173492431641e-02
3.091119083009913893e-01,3.137885643295534877e-01,3.316338152098247671e-01,-3.792005412527898328e-03,-2.571061771179256657e-03,-4.398426471545261590e-03,2.334068715572357178e-02
3.089221772188554538e-01,3.097914349343125484e-01,3.356554877782668700e-01,-2.203582101563174474e-03,-1.637563515192955871e-03,-2.379042353391402128e-03,2.705141529440879822e-02
3.099443394572017341e-01,3.074459232863698266e-01,3.310615603184958178e-01,-2.898807312241211825e-03,-3.507567368276474484e-03,-1.707393681869302749e-03,2.399588748812675476e-02
3.175668956602901161e-01,3.189172908423502095e-01,3.178245568388696207e-01,-1.406400077223661038e-04,-1.334094942820302052e-04,-3.332182135735032636e-04,1.409910735674202442e-03
3.032207139329828882e-01,3.186029459663576313e-01,3.391375013792393700e-01,-1.244235085273174765e-02,-5.064811549254484568e-03,-9.298601536906050957e-03,4.212995991110801697e-02
3.154186745973421857e-01,3.158773545329139898e-01,3.220880440058607741e-01,-2.419265950833536885e-04,7.885629170250436047e-04,-5.408517461332634259e-04,6.674609612673521042e-03
3.097323709383335566e-01,3.121152638569439919e-01,3.358131384984084367e-01,-8.784984571399470079e-04,-1.220471772407686522e-03,-1.920492029138036374e-03,2.532954327762126923e-02
3.071022393889010771e-01,3.408643029617927089e-01,3.012863697973210408e-01,1.458817058033862061e-03,-3.766122157432384189e-03,2.609399872612193534e-04,3.767222911119461060e-02
3.065865374569589630e-01,3.207072290060362096e-01,3.221376772101368080e-01,3.579732128954486812e-03,2.147955461323694526e-03,-4.928225826139650233e-03,1.862218603491783142e-02
3.104068038396225471e-01,3.438888333228724559e-01,3.083414067076142850e-01,-1.525788736207130559e-03,-6.403347340373184704e-03,-1.357295195662969233e-03,3.646896407008171082e-02
3.962244580491237622e-01,9.458853300402822462e-02,3.948733025171461963e-01,-1.188766242900554312e-02,2.922015407292232088e-03,-4.154591154696913452e-02,3.101713359355926514e-01
3.064941389969381147e-01,3.409746938985235842e-01,3.020757822448568719e-01,7.360380506996721649e-04,-3.612955124159808028e-03,-4.325557817261863275e-04,3.744495660066604614e-02
3.402998098711826347e-01,3.062218910545619899e-01,3.044341540345317787e-01,-3.708222595167203449e-03,-2.612413804959971570e-03,-4.255189436489278249e-03,3.662607818841934204e-02
3.089836314587025012e-01,3.395858401254036041e-01,3.087587928501023260e-01,-9.401008265480549630e-04,-3.064826540991604257e-04,-6.425642139334764935e-04,3.078308142721652985e-02
3.356709027769514964e-01,3.057972454233712778e-01,3.143628374416726490e-01,1.213844007737089345e-03,2.976099097203309049e-03,-1.576401455040117626e-03,2.735628001391887665e-02
3.021635126873449817e-01,3.406892419634928726e-01,3.069866175925810015e-01,-8.212476792216408380e-04,-3.935916253284206349e-03,-1.338450229448799296e-03,3.708844259381294250e-02
3.411569604092327124e-01,3.007485024164667231e-01,3.129395469398813523e-01,1.172390437624234961e-03,5.002031643632155918e-04,-2.323055372311460826e-03,3.619264438748359680e-02
2.646319145199141354e-01,3.422559486567033904e-01,3.487872909874563665e-01,5.646845331169661301e-03,-2.789218343016902635e-03,7.749925402636816205e-04,8.182872086763381958e-02
3.041017076001412134e-01,3.387737219568233704e-01,3.086380220810222008e-01,1.296529996867250897e-03,-3.832703828593183454e-03,2.449098813475104799e-03,3.365337476134300232e-02
3.055200936869832962e-01,3.357743485963355368e-01,3.088116056552147604e-01,1.129793823283375314e-03,-4.453913360344834149e-03,2.378125569798125814e-03,3.011444024741649628e-02
3.121319684063172950e-01,3.406165212765707162e-01,3.095319528522499919e-01,3.297301839768091748e-03,-4.439031189162115192e-03,2.994716667791812430e-03,3.179350122809410095e-02
3.081154574758878106e-01,3.331171912763189469e-01,3.089001489474644258e-01,1.434048576460797983e-03,-3.936719041021286176e-03,2.240750436266215548e-03,2.595783956348896027e-02
3.119604125202577460e-01,3.331489186576721551e-01,3.092015031906212852e-01,3.389231496731446702e-03,-4.674803789607264067e-03,2.139778640829858528e-03,2.507547661662101746e-02
3.172717803620767607e-01,3.215530935882050523e-01,3.188327882984087203e-01,-4.583373075795283205e-03,-5.514797837250485189e-03,-6.425096356007511597e-03,1.709355786442756653e-02
3.200730423445117268e-01,3.102003684495974190e-01,3.290497140201620874e-01,-1.419839413382121066e-03,-3.264162215762735509e-03,-1.209766629407634875e-03,1.758057996630668640e-02
3.119920812278489941e-01,3.118549746970327718e-01,3.289940926031678092e-01,-6.576531276557392915e-04,-1.282871400491038000e-03,-7.192081877923078978e-04,1.729753986001014709e-02
3.069535672440437679e-01,3.187260264071736793e-01,3.316656803316557212e-01,-9.242368912081994070e-03,-5.851509104678998506e-03,-5.334750289007834240e-03,3.004530444741249084e-02
2.992523367715469451e-01,3.177619641152278351e-01,3.312257388702871674e-01,-4.699842577068327233e-03,-3.049031822566571938e-03,-5.505814568813272025e-03,3.095458447933197021e-02
3.446612771923229790e-01,3.014594994996793731e-01,3.131871093636935943e-01,2.557966234067703538e-04,-1.808576445512640775e-03,-4.829773337580594433e-03,3.971480950713157654e-02
3.063148591415962296e-01,3.176050761178838000e-01,3.315745218903499159e-01,-1.626726925101644374e-03,-2.000194076333188745e-03,-4.455407990017088912e-03,2.366063185036182404e-02
3.440736050639879307e-01,3.010230422834446751e-01,3.145738701288835482e-01,1.154545683890868943e-03,2.531043858834653749e-03,-2.328829279630121284e-03,3.864056244492530823e-02
3.091909889050935001e-01,3.211921287349183141e-01,3.224447967388089920e-01,-1.748406153743375111e-03,-1.588415863123371092e-03,-4.647867944697286514e-03,1.556206867098808289e-02
3.121773208654803899e-01,3.215674541881661797e-01,3.226266048100852046e-01,-6.285542186725452674e-03,-4.805783358967481711e-03,-4.574635744070690117e-03,1.870386675000190735e-02
3.079266498555088272e-01,3.140590674598521259e-01,3.314748985478794263e-01,-2.491252092854378489e-03,-2.410540127140705161e-03,-3.638207216393319135e-03,2.287967689335346222e-02
3.375607633998796153e-01,2.951144930376168873e-01,3.273511665942397397e-01,-3.332939586532364818e-03,-5.142396064937584423e-03,-4.376455507048120086e-03,4.052999615669250488e-02
3.523243147273144582e-01,2.573146809933418711e-01,3.409612919450471513e-01,2.381001517346967127e-03,3.545903268531089281e-03,-6.600279447099620909e-03,9.089428186416625977e-02
3.279518593971615936e-01,3.103232476453106070e-01,3.180819840195314718e-01,-1.277422923128212606e-03,-4.865437649389950034e-03,-1.902662892915529553e-03,1.791545189917087555e-02
3.153308271550623876e-01,3.182782102509567612e-01,3.215932510942758338e-01,-2.707567176606585826e-04,-9.092138474971886083e-04,-2.344380282447842967e-03,6.973919458687305450e-03
3.156611616726311409e-01,3.145214796331219920e-01,3.244188559873052435e-01,-6.841403848830254807e-04,-1.847378752836582351e-03,-6.459282597731900869e-04,1.004347112029790878e-02
3.374355791287000361e-01,3.038637713118462202e-01,3.162775342599038475e-01,-1.320866793820991113e-03,-3.610740171415575614e-03,-3.018113329289093608e-03,3.059556707739830017e-02
3.006681000262190762e-01,3.136027229045618703e-01,3.442746597530321750e-01,3.004296338816400767e-03,-2.724335023633231803e-04,-9.590087185049739598e-04,3.917730599641799927e-02
3.199105005916014766e-01,3.178310952453837768e-01,3.168998967460872063e-01,8.949703232338380565e-04,-7.334723520155858839e-05,-5.469989357594517336e-04,3.231729380786418915e-03
3.251749455355323337e-01,3.177246891990563316e-01,3.165933996659681671e-01,1.672327463574155770e-03,3.110142851084744548e-03,-2.047834112985759316e-03,1.073333155363798141e-02
3.236305783246070655e-01,3.153459205381257124e-01,3.140074956435777720e-01,1.942972259731183884e-03,5.986450407770341729e-04,-8.221464848834037723e-04,9.795082733035087585e-03
3.414363522646939320e-01,3.000525203057923251e-01,3.007171999641653493e-01,3.797111458713264137e-03,2.982845874603012436e-03,-1.342652750785853881e-02,4.791990667581558228e-02
3.150305382689346234e-01,3.126173310815404949e-01,3.242506159533202204e-01,-1.040999628466866356e-03,-2.677538552111002456e-03,-1.555390993593504375e-03,1.204573642462491989e-02
3.071077045840290287e-01,3.407461747531033147e-01,3.103504167286080251e-01,-3.881006622165517235e-04,-6.505333192232622044e-04,-1.363945602920853522e-03,3.225344046950340271e-02
3.196655070210799865e-01,3.190560150237901071e-01,3.144976297897545958e-01,-4.369559850339907285e-03,-1.292131244662222088e-03,-1.521451549605585922e-03,9.651998057961463928e-03
3.216440476914039781e-01,3.167664909594275491e-01,3.148972198770039199e-01,2.320255348352795195e-03,1.149161149959851283e-03,-5.343295384270718620e-04,7.574378047138452530e-03
3.436061498965217176e-01,2.646082724329467117e-01,3.408156201894723680e-01,-8.619735336986726615e-03,7.045774368207005992e-03,5.763142328613054914e-03,8.061932772397994995e-02
3.478950616176872401e-01,2.544417449588607938e-01,3.493516066041620904e-01,-1.214539793436827421e-02,5.069395270635991026e-03,1.028944062555964961e-02,9.853430092334747314e-02
3.320430564318886391e-01,2.869014694128148024e-01,3.328331419956978010e-01,-6.648911611384110409e-03,8.194928331410420569e-03,8.051944096200115697e-03,5.101616308093070984e-02
3.391036932447181185e-01,2.828618202731813525e-01,3.330859661079941247e-01,-3.491685438658427305e-03,6.870602615701643275e-03,8.399520957455542530e-03,5.701543763279914856e-02
3.294710600277129808e-01,2.844546289209881063e-01,3.463795385673266725e-01,-2.138603569949145550e-02,4.896486908543820279e-03,1.034620405355482151e-02,6.956063210964202881e-02
3.298025519801866534e-01,2.796279740743041198e-01,3.407763556328975429e-01,-7.975045702942560114e-03,7.100761663355050282e-03,3.064817424751630631e-03,5.965537950396537781e-02
3.086032314197895143e-01,3.092783155024624864e-01,3.411863941021124891e-01,-6.454414982077183796e-03,2.562231720207956958e-03,1.022056074847877164e-03,3.446634858846664429e-02
3.093806227592739155e-01,3.077880598418750724e-01,3.390040524299180458e-01,-6.904525526701542522e-04,1.485251324704026619e-03,4.732846839573461939e-04,3.059380874037742615e-02
3.145090965766774160e-01,3.152527443423172038e-01,3.250677309606086474e-01,4.120168559468799095e-04,3.783413119189792269e-04,-1.876948826717031449e-03,1.075608562678098679e-02
3.132593979818532048e-01,3.232243501950409215e-01,3.140845713529420991e-01,-3.499480254525277716e-03,-1.815118128524109004e-03,-2.487448167452700320e-03,1.252771355211734772e-02
3.084821046562037372e-01,3.065353073907517434e-01,3.419351704218867583e-01,-9.143033442390619426e-04,-6.462121338083438122e-05,2.498167446848746187e-04,3.450698032975196838e-02
3.087612856357289659e-01,3.037469431611544701e-01,3.410184619388070271e-01,-4.466897053477516741e-03,1.649371074224676922e-03,8.672738912056442238e-04,3.602353110909461975e-02
3.147732110297856711e-01,3.133640590779271928e-01,3.249586771540461383e-01,-1.791103923250515371e-03,3.008247854122624108e-03,1.034449641304407150e-03,1.265169493854045868e-02
3.164170275645867836e-01,2.971793421269658397e-01,3.304821628906975950e-01,-5.932405031990378198e-03,5.257537346352114151e-03,3.336485846926945387e-03,3.256376832723617554e-02
3.437086972560045028e-01,2.821449793027802633e-01,3.255403992280925252e-01,4.460873289588617591e-03,5.582368502288619647e-04,-3.983229120799830665e-03,5.576649308204650879e-02
3.481373919318297983e-01,3.180142673895498540e-01,2.771530564345801029e-01,1.198856363364895995e-03,5.535867045146818446e-03,-1.845001594246947763e-02,7.018095999956130981e-02
3.139900258646532438e-01,3.081688365280617070e-01,3.309081871245381778e-01,-2.390062481853382371e-03,3.639029119384440923e-03,2.839671484510115831e-03,2.235285751521587372e-02
3.202634316541478898e-01,3.083688070378287072e-01,3.234638687009829816e-01,-5.371778699816482337e-03,5.097043348883413365e-03,6.216946199468410643e-03,2.168528735637664795e-02
3.176847036141073888e-01,3.138081380948766208e-01,3.313942432878539401e-01,-8.410171710384392943e-03,4.985029887453957739e-03,6.594702129111586902e-03,2.594879642128944397e-02
3.443874380320340878e-01,2.833319228734468287e-01,3.254623741249822455e-01,5.192940714379087625e-04,-4.481237089480625928e-03,-6.444800108612515344e-03,5.582216754555702209e-02
3.268809868326868484e-01,2.903035888596112168e-01,3.382847971303274970e-01,3.607769696700574655e-03,5.903681293618244334e-03,-2.619988100270785776e-03,4.526893049478530884e-02
3.304679919944796818e-01,3.102176851194389240e-01,3.083684059470011007e-01,2.664653037382389185e-03,1.137672423446621246e-03,-3.341320943567994192e-03,2.257477678358554840e-02
3.418410840023302644e-01,2.814476855808556444e-01,3.386078456566296024e-01,3.236477459988984593e-03,5.007653202993605362e-03,-4.332210652310933968e-03,6.021219491958618164e-02
2.968790274174291643e-01,2.594932837895169153e-01,3.588791858058397177e-01,-1.323077197619321743e-01,-5.351257525091775158e-02,-7.302578027459763477e-02,2.909720242023468018e-01
2.817306405327311136e-01,3.272881033427960662e-01,3.398223141856500651e-01,4.091197717824103519e-03,-1.652635886479615146e-03,7.137574496062115692e-03,5.490772053599357605e-02
3.302532468353557848e-01,2.965102939688655792e-01,3.261154322355693247e-01,6.560087732752091678e-03,-9.610627311401786360e-03,4.200709450017813332e-03,3.840860351920127869e-02
2.732118066840108495e-01,3.377922581747869191e-01,3.421402569082051537e-01,5.338587873946538075e-03,-4.612637985706346568e-03,4.222427223994424522e-03,6.836046278476715088e-02
2.608538822465392149e-01,3.350871467454683561e-01,3.549258568673596126e-01,3.454779190162760721e-02,-5.342351585816742729e-03,6.089757252908227676e-03,1.056142598390579224e-01
3.358462393874917518e-01,3.082443325713735693e-01,3.120132778054164335e-01,1.021440469418694215e-03,4.289770325629004705e-03,-3.908767283243357211e-03,2.786058001220226288e-02
2.649013150317231502e-01,3.425358850162107394e-01,3.523343735162967061e-01,5.645036047540231278e-03,-2.698762058424674769e-03,2.497788884188822771e-03,8.378546684980392456e-02
3.352211704308379336e-01,3.102313981050749958e-01,3.059404310125901638e-01,3.502006752954985470e-03,1.358410799508465942e-03,-4.121866554121924632e-03,2.904184535145759583e-02
3.305807469353964634e-01,3.104912143541292413e-01,3.116629851226699333e-01,1.099075575581003354e-03,2.349731064026882622e-03,-6.833114255659660701e-04,2.007511816918849945e-02
3.924025160214136276e-01,2.762766600829493768e-01,4.077484235822214087e-01,-1.090008276892826672e-01,6.130545954829597077e-02,1.026515653001945361e-01,3.066487014293670654e-01
3.691383665254546753e-01,3.429775274372889871e-01,2.241611666816166748e-01,1.287327125192518767e-02,-2.360710517360765925e-02,2.814891054777441184e-02,1.498538851737976074e-01
2.593423807176302720e-01,3.521166685719114287e-01,3.464115407296237126e-01,-5.724347349796254751e-03,-6.489907119361020688e-03,-5.398693277390414873e-03,9.177377820014953613e-02
3.017447081224107208e-01,3.282585812315654827e-01,3.270307835516982342e-01,2.598535810883146994e-03,-2.392070178822456455e-03,5.617275904592952326e-03,2.835531346499919891e-02
3.173246538636286807e-01,3.100033017965539428e-01,3.284026194359767614e-01,-2.367359444883340540e-03,-4.781031986886476876e-03,-1.384276939291366297e-03,1.866991817951202393e-02
3.470159730134846354e-01,3.467834445310352121e-01,2.535804027728947863e-01,9.817531867418705441e-03,1.103669893845842832e-02,-1.129050243579545788e-02,9.871949255466461182e-02
3.316621380323028223e-01,3.537798518852448004e-01,2.300096028472685961e-01,8.998691205313090816e-03,-4.657229328163235010e-02,1.522025267181396913e-02,1.432326287031173706e-01
3.860965819563746959e-01,2.713799300674399895e-01,3.435926518928782980e-01,-2.647363386436738658e-02,-1.792133790662438567e-02,-6.561977381614270133e-02,1.614761054515838623e-01
3.294065992647068342e-01,3.406831832256029813e-01,2.712429095858573391e-01,6.558531030258655213e-03,-2.410286562260214802e-02,7.960260712552231013e-03,7.891798764467239380e-02
2.813346216481708573e-01,2.894518168232419475e-01,3.575281427800219847e-01,6.021019986082169761e-02,1.492138175281157442e-02,-1.101877686973494821e-02,1.309994310140609741e-01
2.977713661975165405e-01,3.135211185307659187e-01,3.301517924177371777e-01,1.910897445896785757e-02,9.936976223846739897e-03,-1.152633460428279834e-02,5.076240003108978271e-02
3.177109227366564648e-01,3.178608406984439472e-01,2.999254212819764120e-01,1.219158032820031462e-02,1.355089616756434065e-02,-1.416143429110146811e-02,4.378853365778923035e-02
3.164216830592543883e-01,3.154852107115004856e-01,3.250531482057105181e-01,4.063825182989876800e-03,3.522108126981127359e-03,-3.716277769338464064e-03,1.454834081232547760e-02
3.154361333596054640e-01,3.107688148701204245e-01,3.282501364140525957e-01,1.431493621691725055e-03,3.588870529587643785e-03,-1.627066398637455873e-03,1.727770455181598663e-02
3.209533485790657115e-01,3.003053740638193525e-01,3.312222874722172139e-01,4.636389671203992868e-03,6.826110270424365876e-03,-3.200952296026748217e-03,3.128636628389358521e-02
3.068541709419511099e-01,3.110397050871592795e-01,3.591106768818450590e-01,-3.041345633461337017e-02,-1.208788623611616563e-02,-1.033621163878679049e-02,7.786743342876434326e-02
3.414972620212352039e-01,2.547997724530350339e-01,3.612083568722898597e-01,-3.171917241275704763e-02,-1.133202036226391846e-02,-2.553340070011816260e-02,1.223654747009277344e-01
3.230642083568210920e-01,3.068996486636466070e-01,3.425913383603139684e-01,-3.398098112708674429e-02,-2.030744679289427090e-02,-2.074322825230421122e-02,8.336900919675827026e-02
2.826730072828900209e-01,3.490724421887233531e-01,3.256781990667492743e-01,-7.462855100631293889e-04,-4.192917504842045770e-03,-3.573455477325973573e-03,5.912302806973457336e-02
3.122237791212762459e-01,3.097277278554743107e-01,3.286163513888042953e-01,-1.318090689174714536e-03,-2.380216282079658779e-03,-1.237822405497708946e-03,1.851130463182926178e-02
3.104362924340833274e-01,2.753389983125812956e-01,3.383742807017723342e-01,-5.938716022905315972e-02,-2.521275270359837894e-02,-3.233723199337738136e-02,1.364461183547973633e-01
2.930877162600921126e-01,3.088539535778029865e-01,3.658274854063531256e-01,-7.169751749404777719e-02,-3.860521053506572875e-02,-4.529983990179698577e-02,1.744755953550338745e-01
3.309647268472654669e-01,2.756934668524778087e-01,3.417649977665384031e-01,8.534881898841838871e-03,-7.218932895729892121e-03,5.955958179470931951e-03,6.519044935703277588e-02
3.109894968518667757e-01,3.120140451068107446e-01,3.327968044275304016e-01,-1.085376749309138050e-03,-1.518137911513472689e-03,-1.570336400924085898e-03,2.172813750803470612e-02
3.419974092369703622e-01,2.727410906686557057e-01,3.308483674709200018e-01,-3.081165259391505790e-02,-3.204577126310744623e-02,-3.986919700899175384e-02,1.218446716666221619e-01
3.265139729498770516e-01,3.375201135663589147e-01,2.845023474265199193e-01,-6.180228181895409609e-03,-4.209236674419061276e-03,-1.771886581934352346e-03,5.025589466094970703e-02
3.082403925904863007e-01,3.190429737673952659e-01,3.277459763112249291e-01,9.284497844436107906e-04,-2.479469234184975435e-03,-5.247727675059340666e-03,1.975090429186820984e-02
3.116747846851792292e-01,3.115846000661336990e-01,3.330372166909199017e-01,6.965606802366392999e-04,2.059465227142799268e-03,-1.706309930939003874e-03,2.193632721900939941e-02
3.654898439844322389e-01,2.677321295346717367e-01,3.480857063417330810e-01,-2.226952091652650498e-02,-1.250592855653468068e-02,-2.812419607203912181e-02,1.117496639490127563e-01
3.493667940732315680e-01,2.734082013392697408e-01,3.485746766846227751e-01,3.100492188186935050e-03,-1.956908552926202478e-03,1.247677773173086826e-02,7.885115593671798706e-02
3.245031502979127680e-01,2.948640648423635491e-01,3.425822638949088672e-01,1.155100219359813003e-02,-3.926038582259185929e-03,4.378392664364116720e-03,4.738361760973930359e-02
3.160251510656925111e-01,3.013773863112007012e-01,3.407223512421999612e-01,-2.243332073670456679e-03,-2.549248165942635119e-03,-1.361226473656824585e-04,3.494161739945411682e-02
3.096250297010579300e-01,3.054813676435148007e-01,3.358302661560796931e-01,3.702814221756925775e-03,3.357173611601007440e-03,-1.550483187233632314e-03,2.991030551493167877e-02
2.777719711879748088e-01,2.872321556932668218e-01,3.466176631099721628e-01,5.698295645933727088e-02,2.286968975324016329e-02,-2.718744939919028394e-02,1.330625563859939575e-01
3.492358823560087200e-01,2.599220872624650180e-01,3.489584775179396803e-01,5.999314708903900374e-03,-5.902403995424548855e-03,5.572307029662488913e-03,9.087297320365905762e-02
3.119928537601523999e-01,3.199816805934116992e-01,3.273284968681595686e-01,1.736801613615699324e-03,1.552693477775618069e-03,-3.777707389539796193e-03,1.534876972436904907e-02
3.242196484253975775e-01,3.244971082402953177e-01,3.091209809126650998e-01,7.675896448466680219e-03,5.190079026981151908e-03,-6.436251394832704330e-03,2.478065714240074158e-02
3.137843794986560630e-01,3.002027401243027027e-01,3.413992420861620136e-01,2.667195394971604277e-03,5.007447044442050240e-04,-1.142436249996797281e-03,3.671656548976898193e-02
3.074713783950205892e-01,3.030709261665129883e-01,3.385333524951418260e-01,4.862299944708547116e-03,2.544268787397035297e-03,-7.591206530887913357e-04,3.482774272561073303e-02
3.520293503891265829e-01,2.412335420229093919e-01,3.250370998469568340e-01,8.682619240188139270e-03,-6.160291304621695087e-03,4.920978888912714427e-02,1.327346414327621460e-01
3.167873717136503453e-01,3.376173180664872597e-01,2.946026756180581962e-01,-1.266068217017819221e-02,1.719313049606642843e-02,1.129706003454279337e-02,5.602422729134559631e-02
3.562982251440991455e-01,2.701591720104380978e-01,3.335797635993788535e-01,2.281286088934888958e-03,1.845789069894216306e-03,1.354767245410486848e-02,8.096647262573242188e-02
3.406908474892877403e-01,2.608805818787573449e-01,3.488835775419086294e-01,6.311410459818104536e-03,1.120444368284609577e-03,-3.125704833147458991e-03,8.510723710060119629e-02
3.649294406678532665e-01,2.434153426460013980e-01,3.237126091209496237e-01,4.200030489326852905e-03,-4.592521809030091634e-03,4.769239620342673180e-02,1.356317251920700073e-01
3.149500823164578800e-01,3.003973333814601299e-01,3.404768958986969518e-01,3.371207753471502835e-03,-2.750951366541297492e-03,1.469591973177164740e-04,3.594091162085533142e-02
3.717967758353803442e-01,2.650294675954716350e-01,3.265190344029773040e-01,2.937160802776925955e-02,-5.671291918894813718e-03,4.770804410052122829e-02,1.346398442983627319e-01
4.428444464013156501e-01,2.206587484534761612e-01,4.008446328688021199e-01,-6.179165488042720478e-02,2.976862959249471433e-02,1.235371887170392535e-01,3.188983500003814697e-01
3.164978736006067717e-01,3.176760588972338817e-01,3.214884808658558524e-01,1.542198791139129139e-04,-5.728024767091936809e-04,1.600300730419881726e-03,5.399348679929971695e-03
3.122838780773368739e-01,3.289750319425769343e-01,3.120654663192918843e-01,1.110146269990160226e-03,1.155453421645031848e-04,8.462683841865320435e-04,1.697568036615848541e-02
3.218894506346201001e-01,3.101896375755539004e-01,3.217951025309505053e-01,2.132271679819113582e-03,3.056869462125529503e-03,-1.845359010981929750e-03,1.369962841272354126e-02
3.530420907502482830e-01,2.267038551965050996e-01,3.651963976661627975e-01,3.562169089891023543e-02,-6.369056620707460800e-03,9.484981600233284918e-03,1.477935463190078735e-01
3.383266108317527499e-01,2.804311623561852040e-01,3.383832072024026139e-01,-2.430715908818366008e-03,-6.063687828723652098e-03,-3.363841287874644054e-03,5.930547416210174561e-02
3.175794369284393737e-01,3.228232954668789345e-01,3.174348380192085761e-01,-3.196756403086491519e-03,2.071497693409431705e-03,2.877559143162907330e-03,9.831038303673267365e-03
3.540901537708127100e-01,2.590527043386700590e-01,3.416527191023381871e-01,-5.689930336473427840e-04,-6.009606471011385079e-04,-7.082951030648955253e-03,9.031801670789718628e-02
3.140544658526119859e-01,3.216061743782976934e-01,3.168793489520301265e-01,-1.391347111734040449e-03,1.257422217323336854e-03,2.510293931523986232e-03,8.551676757633686066e-03
2.964379691311989640e-01,3.266939389183522446e-01,3.295032128480682165e-01,-3.333572367139397367e-03,3.247868495613287065e-03,7.545049375821831841e-03,3.527152538299560547e-02
3.195597557343839989e-01,3.104243602694884419e-01,3.281830883091304552e-01,1.221531320203603959e-03,3.569741892568161282e-03,-1.251567305175175148e-03,1.685229130089282990e-02
3.175987684226649899e-01,3.199692068453806604e-01,3.174351294609982777e-01,-1.184276255599843539e-03,2.375716894678284305e-04,-9.550277220366655128e-05,3.230768721550703049e-03
3.406146590838858845e-01,3.040805552268784906e-01,3.306750886118506871e-01,1.373971740879652206e-03,9.571074891561320158e-03,-1.104381661378989708e-02,4.143404215574264526e-02
3.497812365896668108e-01,2.794941061997001652e-01,3.083145950195374518e-01,8.592559814042111110e-03,9.018266187501268460e-03,-2.941891421282480379e-02,8.250510692596435547e-02
3.270949043759012742e-01,2.843875175855554716e-01,3.443092125279521576e-01,5.758410456029687367e-03,6.398509295431310199e-04,-1.825996363681408642e-03,5.446228384971618652e-02
3.963572559537102413e-01,2.873333178562782475e-01,2.791923521303912858e-01,-6.712065162955921458e-04,1.499172013040575915e-02,-7.048417041815675799e-02,1.685814857482910156e-01
3.406817793619857371e-01,2.807500038538801035e-01,3.408088328545589296e-01,-1.953116369707968199e-03,-3.913290344193492976e-03,-2.869306772345561057e-03,6.067563593387603760e-02
3.531665281303712489e-01,2.838412879372207431e-01,3.261500618022420417e-01,-2.768839344251780880e-04,2.652575642818425557e-03,-5.946043748137792850e-03,6.156590208411216736e-02
3.548452309066166266e-01,2.366455400705506085e-01,3.549146950538876188e-01,1.431937852455314984e-03,-4.470380907571267198e-04,2.508278182637182357e-03,1.183427572250366211e-01
3.258389065343393898e-01,2.850917147802725649e-01,3.490364630773702959e-01,4.521210434965663647e-03,-3.234837257033608762e-03,1.997957241309843493e-03,5.699462816119194031e-02
3.990381841808942065e-01,2.906503532562040859e-01,3.281453530000101315e-01,1.792507829692266755e-02,1.347727958201699536e-02,-6.852049943472157678e-02,1.571108102798461914e-01
2.934289031021532490e-01,2.917667483572813358e-01,3.674906296394752081e-01,-1.122940090578736227e-01,-7.284212508916278195e-02,-5.122538358969889322e-02,2.592891752719879150e-01
3.499701220874363305e-01,2.875235597578956193e-01,3.179721777718086395e-01,1.243590720819457438e-03,7.439360462531912840e-03,-9.610581184091819898e-03,5.807789415121078491e-02
3.273164543797324466e-01,2.938586389530409293e-01,3.367272062983743819e-01,-4.312407126806984056e-03,-5.386463220992917730e-03,-2.386191962211805205e-03,4.102152213454246521e-02
3.244391305674038661e-01,3.147176026416621530e-01,3.127748512798008140e-01,-3.556594473656941088e-03,1.880376382631652066e-03,1.857703072323038662e-03,1.326942443847656250e-02
3.214466524550896875e-01,3.173411971585146096e-01,3.153833349306269795e-01,-2.339483754848883327e-03,9.956138231311162292e-04,9.893586303361060885e-04,7.145326118916273117e-03
3.249934192032397084e-01,3.153188757864890945e-01,3.145002182172392247e-01,-2.041958905827080846e-03,8.467520385299432198e-04,3.426914425800348519e-04,1.082585752010345459e-02
2.457603308370396866e-01,3.826592990796753302e-01,3.724222764506082695e-01,2.312477303016512165e-02,-5.440985317987728775e-02,8.848068617311457759e-03,1.678246557712554932e-01
2.844563369595954350e-01,3.495290408914946689e-01,2.674510496484634459e-01,2.888637964170222977e-02,-6.057043521913120510e-02,3.371436482891147085e-02,1.501658856868743896e-01
2.431836900965831383e-01,3.499233579858463949e-01,3.482148380244847741e-01,1.948603827819840942e-02,-2.474545500086478694e-02,6.430524921639098335e-03,1.196415200829505920e-01
2.120524800474245242e-01,3.706274722404546140e-01,3.638679831432978795e-01,1.533442971174807726e-02,-9.525593885609940151e-03,2.172694723824107176e-03,1.584665328264236450e-01
2.117568715803142543e-01,4.007416412388020710e-01,3.997699421394448338e-01,-1.648193540678295809e-03,-3.448670193004980955e-02,-3.787834487131209842e-03,1.978679895401000977e-01
3.095412201110230854e-01,3.082137865054625503e-01,3.362322650493652088e-01,-1.976982556543503949e-03,-1.779017665365212938e-03,-5.786296670791881043e-04,2.778181247413158417e-02
2.142314894152329563e-01,3.737308052083274101e-01,2.830726400855148039e-01,-5.446994344266042898e-02,-1.306999860081801690e-01,-4.450608635663534651e-02,2.920441329479217529e-01
3.009414331277746046e-01,3.316560245603838997e-01,3.216497330421968504e-01,-3.583594038590738520e-03,-8.030064948597816568e-03,-7.853213661137906088e-03,3.395826742053031921e-02
3.095346939406967701e-01,3.360235071476163626e-01,3.127752910848037304e-01,-1.249275851251580504e-03,-4.488374763901872258e-04,-2.076392961036073459e-03,2.538778819143772125e-02
2.412115408741584144e-01,3.578997058944128340e-01,3.657829083275818682e-01,-1.127945281838633584e-03,-4.580110112036039904e-02,-8.147332726958004395e-03,1.452388614416122437e-01
1.343766722334404085e-01,4.185987375225025398e-01,3.490746451287405905e-01,-1.408863278654737608e-02,-8.642104470514806736e-02,-1.422292869010656534e-03,2.980986833572387695e-01
1.249342914834211116e-01,4.025189842925414041e-01,4.023162303708199272e-01,5.206792290739802043e-02,-6.320199566495313115e-02,-1.220312403839224347e-02,3.123466968536376953e-01
3.204784299304040962e-01,2.969406672322126850e-01,3.371082541095686835e-01,9.781268811931163876e-03,-8.296500692940961610e-03,2.847480752748023959e-03,4.171146079897880554e-02
3.340930555616909436e-01,2.413892074482596461e-01,3.347220393735107491e-01,8.027058874542794542e-02,-5.267206801814183770e-02,8.601345145225627875e-02,2.418693751096725464e-01
3.870234657998343764e-01,2.175254899245541995e-01,4.061914289664084743e-01,8.574440422772798553e-02,-1.276175588535733048e-02,1.170919250929097349e-01,3.098747432231903076e-01
3.149154926231589879e-01,3.443698300446516591e-01,2.992320821027708577e-01,-4.495450662697910663e-04,-2.630436955632661430e-03,-2.540361569083134552e-04,3.996285051107406616e-02
3.096438612780183508e-01,3.064811653377564893e-01,3.397480651109030525e-01,-1.317259640012012232e-03,-3.453431151499305692e-04,-2.125687394634203752e-04,3.189318254590034485e-02
3.077087221473474021e-01,3.393553495082072269e-01,2.971900385263845923e-01,-2.928526200297586223e-04,-1.312334487175138668e-02,-1.424681823347896605e-04,4.429466277360916138e-02
2.979015788728767711e-01,3.173404937833235184e-01,3.278912926311062237e-01,6.644478041571273003e-03,1.780517917708395511e-03,-5.689809551011133087e-03,3.055104985833168030e-02
3.366126353003441873e-01,2.784582365704300622e-01,3.587374874962614424e-01,2.692135899639831395e-02,-5.866328574353033530e-03,8.648907244275581482e-03,8.752160519361495972e-02
3.311782782980393636e-01,2.828159540729686672e-01,3.391649808634231711e-01,8.383577108092076652e-03,-6.963082571243991992e-03,3.445045949398802508e-03,5.639919266104698181e-02
3.794119637613226348e-01,2.684761390031046302e-01,3.607653278789387241e-01,2.794701404689602098e-02,-1.954316642125200620e-02,5.022059057713885999e-02,1.471091806888580322e-01
3.255386982424912090e-01,2.874775489418119889e-01,3.389393638861829539e-01,1.972145084957870748e-02,-8.494786313287466112e-03,2.245579415718842661e-02,7.095317542552947998e-02
3.259399624269195828e-01,2.442920868326563522e-01,3.872669661265076280e-01,4.974899488759135235e-02,-9.241195926986640885e-03,2.144665855953704903e-02,1.565105766057968140e-01
3.122337986603810900e-01,3.112186323421765044e-01,3.320332493961722919e-01,-4.385661462329073904e-04,2.267780643407085045e-03,1.356292844775691068e-03,2.084880508482456207e-02
2.974671727328460635e-01,3.132493955620939685e-01,3.412053787993186704e-01,2.861169889275371869e-03,-1.896771577563839423e-03,5.876552139794312575e-04,3.883569687604904175e-02
3.154410784737640694e-01,3.150372733041570950e-01,3.241784973193197472e-01,-4.417740454290915077e-04,1.691619320398625058e-03,4.076742351552585064e-04,9.471144527196884155e-03
3.144146050837466344e-01,3.155285497727649546e-01,3.313104889555890109e-01,-2.525618895595671282e-03,3.684028970318797315e-03,4.741305830603073646e-03,1.987921260297298431e-02
3.028377491823081580e-01,3.359533272795370284e-01,3.151127193125549675e-01,8.768916200222969361e-04,-3.082764328177986513e-03,2.877969719266045782e-03,2.994142472743988037e-02
3.573546838463644848e-01,3.324213131094506113e-01,2.601780546060641353e-01,-1.363951353139431812e-02,2.092758231588256329e-02,2.940340488484851494e-02,1.100350394845008850e-01
3.163875808847561033e-01,3.224739186086903464e-01,3.153964057499195062e-01,5.742132918578374441e-04,5.288516937706024858e-04,7.263412557589033446e-04,6.889810785651206970e-03
3.119935119993029748e-01,3.147457530908555623e-01,3.278377777393461368e-01,-1.768484154521968643e-03,1.515735161908626739e-03,3.369413894956598335e-03,1.628932729363441467e-02
3.933956971753613807e-01,3.368959449807306106e-01,1.587784224689805512e-01,-4.121270294707404802e-02,-7.234183775593594490e-02,-1.170231332449520184e-01,3.268950879573822021e-01
3.375615645134191212e-01,3.434786089384332386e-01,1.860385776472583408e-01,-5.769437776178858862e-02,-1.102707873968613861e-01,-1.064788448263370851e-01,3.230617344379425049e-01
3.677713296679812061e-01,3.924226236580046212e-01,2.148164811895180160e-01,-1.855210289924653921e-02,-4.614231733521618334e-02,-3.725810830487041175e-02,1.983879804611206055e-01
3.264420575608841801e-01,2.675081368941306659e-01,3.480479706167141085e-01,6.124179788938254564e-03,-2.703683291385588529e-03,8.624111817086374532e-03,7.463856786489486694e-02
4.096850412094710792e-01,3.673701149404428601e-01,2.055192671300111462e-01,-1.670801361719849790e-02,-3.677052917107913321e-02,-5.298717804404440290e-02,2.194346487522125244e-01
3.467154815991924099e-01,2.737977431726886235e-01,3.498941772940955541e-01,-1.471326266441823002e-02,1.224856455085668880e-03,1.360230165602092228e-02,8.226720243692398071e-02
3.407804502947678338e-01,3.089484415901969094e-01,3.066847722665555498e-01,2.322681663867297991e-04,1.852968213276800033e-05,-8.001933777692512521e-04,3.305362164974212646e-02
3.107530992477389731e-01,3.128093123791754193e-01,3.318396147387088768e-01,7.436309142057828062e-04,-4.907127671997897275e-04,2.240367870351017438e-03,2.056574448943138123e-02
3.188803128421278110e-01,3.181801817976124269e-01,3.171301598305138469e-01,-1.079874797956575363e-03,-4.642608482437971191e-04,-4.714437722476660887e-04,2.672014757990837097e-03
3.182607451115546660e-01,3.191690667624061395e-01,3.174138824736782993e-01,-1.012364967392079609e-03,-3.513726837214610900e-04,-3.776721793954384578e-04,2.486844081431627274e-03
3.171060103770622085e-01,3.150348735832870228e-01,3.252178341707168685e-01,-2.310669562507301593e-03,-2.620059376677650112e-03,-3.378625482181795044e-03,1.255981810390949249e-02
3.188071856131994286e-01,3.161075643262742374e-01,3.190428491665434629e-01,-1.405512727622358670e-03,-2.110814804050511421e-03,-1.116975869903817468e-03,5.569166503846645355e-03
3.181883085596158289e-01,3.191019659704361078e-01,3.188144301952836601e-01,-3.831134195371892529e-04,-5.603198115284466424e-04,5.849587154440637085e-08,1.427214127033948898e-03
2.930486327824128878e-01,3.378298219166810945e-01,3.265953802668264960e-01,2.697819362129249936e-03,-4.326365614963904871e-03,4.838522551638402974e-03,4.215088114142417908e-02
3.415241588810675744e-01,3.077572848850783083e-01,3.048433288875103675e-01,8.269692282141321519e-04,1.847967525184512905e-04,-1.459936282900714576e-03,3.543496131896972656e-02
3.439576803838684249e-01,3.529366688106194694e-01,2.423706305192155075e-01,2.900390522287919163e-03,1.998108326533035162e-02,-1.153024752362389943e-03,1.119806095957756042e-01
3.180650229062578771e-01,3.178574803513876668e-01,3.178120361670250804e-01,-3.191288250497936735e-05,-2.851645687147373815e-04,-1.000414769954600111e-03,1.817710581235587597e-03
3.534841574691166555e-01,2.408762752188242373e-01,3.556757380805101176e-01,-2.445409005459747622e-03,-2.781733647269891648e-04,-1.920035150954693681e-03,1.138479635119438171e-01
2.633618320141816738e-01,3.417693102934624139e-01,3.484033343957005369e-01,5.640352415157985633e-03,7.456254524070534198e-04,-3.152496325757303368e-03,8.269717544317245483e-02
3.116251565128416168e-01,3.109495726276934602e-01,3.393374214361659091e-01,5.294922983639681509e-03,3.530195466590351286e-03,-3.852483289066530557e-03,3.087342530488967896e-02
3.091759431623891108e-01,3.078310712691154638e-01,3.388359732481269759e-01,8.414152287262375825e-04,1.426720671409332022e-03,-7.192020448805611305e-04,3.051552549004554749e-02
3.090021463757027798e-01,3.105100082565008246e-01,3.319779439416923328e-01,3.363787142603499349e-03,1.815097964276359173e-03,-2.921589287046315580e-03,2.376873046159744263e-02
3.993331492806677097e-01,2.943968579781317541e-01,3.373197062494769360e-01,-2.288940276011528288e-02,1.036694693166331088e-02,6.761990772003997896e-02,1.547946482896804810e-01
3.112289859423320038e-01,3.105668210470609591e-01,3.318108576102123397e-01,5.371215781223841190e-03,4.527548265678415194e-03,-3.057260159447260095e-03,2.477432042360305786e-02
3.056915186738003998e-01,3.103220539345918350e-01,3.353256589000808141e-01,4.197632051338101924e-03,1.310880300809283243e-03,-3.108394584512100180e-03,2.914453856647014618e-02
3.433370971465778965e-01,3.179970632711195400e-01,3.076684128174583810e-01,-1.022509796186909549e-02,5.923240225266679197e-03,1.080459228365250081e-02,4.218597710132598877e-02
3.420506656728135586e-01,2.632114660521316929e-01,3.533121526875592222e-01,-5.424251610629568336e-03,3.492916877059719220e-04,-6.417209015193391358e-04,8.555790781974792480e-02
3.063379556371926271e-01,3.019741350179505623e-01,3.392551671722309203e-01,-1.151211241989274700e-02,5.048913438625720305e-03,5.183216476392557386e-03,4.243687540292739868e-02
3.133027784680600392e-01,3.001632649449517687e-01,3.406700553942223486e-01,-2.560459634615990139e-03,6.126796442973979654e-04,5.284852590295884478e-04,3.609486296772956848e-02
3.121939251496278489e-01,2.991668996279572834e-01,3.431343337003059379e-01,-7.346317359888861198e-02,4.007462886982878641e-02,3.711130235188710852e-02,1.633103191852569580e-01
3.505123346731304768e-01,2.606970601743618943e-01,3.497618027943996677e-01,-2.094394718909682249e-02,4.306770710085155301e-03,1.611241298347973472e-02,1.007489860057830811e-01
3.297342246309505343e-01,2.867836671257198988e-01,3.322875581687215196e-01,-7.385606645405157558e-03,7.050770530879423362e-03,7.417773507107421060e-03,4.938409477472305298e-02
3.322643802848077588e-01,2.963333385221538219e-01,3.267926537772988804e-01,-5.914417116660195331e-03,7.643794772628853887e-03,3.458848120691905299e-03,3.795377910137176514e-02
3.457293250551110031e-01,2.752772673325568076e-01,3.300735170505759153e-01,-3.633493874172848484e-03,6.677927993925900085e-03,1.225517218378421522e-02,6.877188384532928467e-02
2.626941476057472746e-01,3.531373478453248560e-01,3.409931802255629640e-01,-1.374811202683556225e-03,-4.726133056405634053e-03,-2.880079606314146692e-03,8.559591323137283325e-02
3.189983637000923800e-01,3.163490017051229231e-01,3.147772040466943477e-01,4.683180045041326033e-03,4.274294651110497646e-03,-3.853174023210908898e-03,1.337161473929882050e-02
3.251030984711043570e-01,2.840939410179075253e-01,3.447164720619410594e-01,-3.912656511522511447e-03,-4.232553178795592057e-03,1.200951276536078773e-03,5.454136431217193604e-02
3.187651032237077686e-01,3.181733664903215186e-01,3.192088411853218344e-01,1.785047341548331177e-03,8.941765487475374259e-04,-2.104567907369106830e-03,5.104418378323316574e-03
3.155078864295258745e-01,3.144527153675663045e-01,3.251168109548858709e-01,4.864212797209445513e-04,1.784309176427604712e-03,-5.010213083052757720e-04,1.070504728704690933e-02
3.167305604541680308e-01,3.177087749957220320e-01,3.189277467829284562e-01,5.387942584864065330e-04,2.182118602670286487e-04,-1.057481718460751268e-03,2.829092089086771011e-03
3.152784667461663859e-01,3.177200978379244867e-01,3.214736214426690553e-01,7.783011961967654458e-04,9.449236439836060982e-04,-2.594310588319415165e-03,7.341829594224691391e-03
3.281601626339637479e-01,3.159254325789732087e-01,3.126269589360278767e-01,3.737750961833932566e-03,1.589367858080483571e-03,-9.003441917251127531e-04,1.590116135776042938e-02
3.192883903449302840e-01,3.277563152572461891e-01,3.043317161806601834e-01,6.097361115730478079e-03,4.034755898284564900e-03,-2.297123674646367290e-03,2.445938251912593842e-02
3.150663559364866861e-01,3.240738890908867464e-01,3.135215799100242728e-01,3.424988860658452830e-03,3.065470025971855569e-03,-2.269802894901774230e-03,1.327688153833150864e-02
3.175835954178514720e-01,3.077261233504996474e-01,3.267741044272380324e-01,4.190849480292643293e-03,-5.765402681827695199e-03,2.927423677037863450e-03,2.122142910957336426e-02
3.126964327383597309e-01,3.243541430483821153e-01,3.132688016745273085e-01,1.389739307992871519e-03,2.508456138304374951e-03,-2.636207739902393481e-03,1.323167607188224792e-02
2.908301538657472873e-01,3.179364289138783550e-01,3.448270464292450543e-01,9.521294236745485653e-03,-1.432149805017579527e-04,6.220671330330869529e-04,4.959785938262939453e-02
3.149243011786703184e-01,3.310209898377997062e-01,3.139837048090708405e-01,3.779755095288381446e-03,2.742821802019390458e-03,-3.389389323659626474e-03,1.936546713113784790e-02
3.395033923463656178e-01,3.100612495328254337e-01,3.108811429650825131e-01,-1.971420248078109040e-03,2.421961868579181922e-03,5.683964362721700449e-03,3.113763220608234406e-02
3.289011301998073233e-01,3.146922515938896936e-01,3.125943255576141833e-01,-4.043370986491337526e-03,8.456042761300328102e-04,2.428053328535575810e-03,1.746369712054729462e-02
4.814655915497295657e-01,2.240765191594530636e-01,3.900710233251160619e-01,1.024784911784699763e-02,-3.086584966334130625e-04,-1.286095799170576537e-01,3.178281784057617188e-01
3.401903395606737934e-01,3.546116284928819695e-01,2.594710278517872171e-01,2.263306471698452518e-03,6.000577671421813107e-03,-2.030598084317007147e-03,8.957352489233016968e-02
3.319840132290911572e-01,3.126786152553021614e-01,3.113100078468857834e-01,-1.467313100008191002e-03,2.672700940263519789e-04,6.130887131496716089e-04,2.021865360438823700e-02
3.354432803491445569e-01,3.091175503467324392e-01,3.058689284534857333e-01,-3.157688908699015414e-03,1.830983432439335645e-03,2.832467667252529676e-03,2.920888736844062805e-02
3.274259316549371079e-01,3.497419215607778242e-01,2.792975590943917452e-01,-4.446206126968386399e-04,5.323893491377806181e-03,1.272960814470907326e-05,6.303967535495758057e-02
3.182109293937608885e-01,3.247222750739575670e-01,3.172631519759761543e-01,3.624126614845002252e-03,2.326143877276073968e-03,-2.352267827042715895e-03,1.103188190609216690e-02
4.671676277739275629e-01,3.577431352748024485e-01,2.612774102031225065e-01,2.390747210918695714e-02,-2.562669946177286578e-02,1.541493893651984526e-01,3.268119692802429199e-01
3.037456628667738467e-01,3.179711410198574062e-01,3.381219053803118935e-01,2.644765665636938674e-03,-1.477339054055049538e-03,6.150999627139870293e-03,3.218863531947135925e-02
3.172828147484526573e-01,3.189041651093001417e-01,3.177686858863287278e-01,5.051974500755516788e-04,1.251518681851048300e-04,-7.104020770049930458e-04,2.098512835800647736e-03
3.131926930794859953e-01,3.237211895110266857e-01,3.168760401565132723e-01,1.767620118315188071e-03,1.530839823231463885e-03,-2.749604213861976849e-03,1.116785593330860138e-02
3.536546448856811575e-01,2.477319479226390286e-01,3.528948502979862289e-01,-2.192743714397386769e-03,1.168307578529844412e-03,2.974121480296849310e-03,1.057580783963203430e-01
3.546692978254678552e-01,3.479715881660870314e-01,2.538133253034566827e-01,-2.855538950126241919e-03,3.646822674071480575e-03,1.234947998288017657e-02,1.003153622150421143e-01
3.155394531616924070e-01,3.222537696276168706e-01,3.169996451422500972e-01,1.324063577312751096e-03,8.600765559141994223e-04,-2.173009565299830869e-03,7.684696000069379807e-03
3.145725907363223772e-01,3.218226227252306004e-01,3.163290631440602296e-01,1.395475575739703929e-03,-1.876030924622515590e-03,2.923918038623189459e-03,9.217488579452037811e-03
3.382698326783952214e-01,3.097586380293225194e-01,3.082683122451313484e-01,1.106834534651513066e-03,-4.260351991009736733e-04,-6.989705215748368526e-04,2.938172407448291779e-02
3.106685899235174797e-01,3.306146741252570798e-01,3.123779754205243120e-01,7.463275125784438538e-04,9.775935927431940627e-04,-1.908976993355577644e-03,1.954848878085613251e-02
3.124066479913925054e-01,3.398295024476472026e-01,3.111998507909795597e-01,4.373343497525065439e-03,4.666741455248513658e-03,-3.823771035611199000e-03,3.087297640740871429e-02
3.426642824658688857e-01,3.483126902171385653e-01,2.591958187918009804e-01,5.337269568819817374e-04,6.608191918611070262e-03,-3.433792758368121954e-03,8.739327639341354370e-02
3.075945915064918212e-01,3.382689581715950244e-01,3.096234643350431193e-01,8.069566027462687528e-04,9.475316457877591431e-04,-1.683152469391414018e-03,2.993233501911163330e-02
3.394082425249669299e-01,3.550810825863370823e-01,2.686824442521466016e-01,3.569373202616892699e-03,1.471524338544891175e-02,-3.357618190105848312e-03,8.413030207157135010e-02
3.214183850764103512e-01,3.150193673828428076e-01,3.181309644097587985e-01,-1.426455718012027956e-03,2.608895743858072758e-03,1.212668156987831017e-03,7.851963862776756287e-03
3.120233364748589699e-01,3.357134909527303424e-01,3.070976868404566851e-01,3.690097870388557924e-03,3.263051903502375232e-03,-1.468048991161314274e-03,2.795412950217723846e-02
3.030460481910872139e-01,3.174098376679148070e-01,3.398582493667328119e-01,1.352604067491169730e-02,-4.282200145156329560e-03,5.464483807193940175e-03,4.154694452881813049e-02
2.907060948869487071e-01,3.429083205506594512e-01,3.172795678590606960e-01,4.085358693098191558e-03,-6.581741044369761665e-03,5.202228425606116903e-03,4.801297187805175781e-02
3.518983832620053431e-01,2.735022801305238005e-01,3.425290705379822054e-01,-3.712838879715092862e-03,2.655467890180745420e-03,3.818556786927730304e-03,7.486968487501144409e-02
3.014069546001981181e-01,3.334721171216489255e-01,3.191332171424980380e-01,6.345483902255431678e-03,-1.260364946231530905e-02,6.979018092070507495e-03,3.895473107695579529e-02
2.860490862187168304e-01,3.381384527048283406e-01,3.365400809162997220e-01,3.280338579636343961e-03,-6.807199819487256588e-03,6.056515853219690375e-03,5.398090928792953491e-02
2.896539344262301086e-01,3.329794575533119860e-01,3.365759691947896037e-01,5.368114167881966360e-03,-5.545908019581622349e-03,5.361214888270472365e-03,4.807084053754806519e-02
2.961464893557814726e-01,3.278183080497403257e-01,3.315649066779607912e-01,1.727557923169359411e-02,-1.835698902432296789e-02,1.070462103101991504e-02,5.818800255656242371e-02
3.513127710235645629e-01,2.477314454207432126e-01,3.552291793422400756e-01,-2.194441248792395639e-03,1.164695707483497230e-03,2.971831749797707294e-03,1.058069393038749695e-01
3.148113347661217754e-01,3.436760148662177383e-01,3.021239803190816642e-01,8.534710473650790503e-04,1.707581588073565221e-02,7.802095162619054284e-05,4.730020090937614441e-02
3.423902891322866959e-01,2.601570835567471596e-01,3.529272003423743476e-01,-6.837269566016900869e-03,3.661773290014371136e-03,3.884182436601906450e-03,8.924988657236099243e-02
3.422880291051579871e-01,2.725776115060239979e-01,3.388834968078763832e-01,-6.292500062112370285e-03,6.527582293511153405e-03,5.341936591606468929e-03,7.047002762556076050e-02
2.663814867459921576e-01,3.550880596573440240e-01,3.397972903576041426e-01,9.669888170496049318e-03,-3.514595547255944252e-02,1.150681304871095656e-02,1.054975241422653198e-01
3.170466047140719779e-01,3.430821854791615833e-01,2.988334334264902137e-01,-2.860627450686284868e-03,-1.707764130703017316e-02,-3.857247488320072158e-03,4.927356168627738953e-02
2.734158296623989126e-01,3.507804597871564956e-01,3.413955089942750654e-01,-2.190227380512152489e-03,1.540967200690299133e-02,1.200286215623467710e-03,7.796401530504226685e-02
3.152635083331143950e-01,3.283819569173375141e-01,3.127305944718337671e-01,-8.925816650257891414e-04,7.953365367118021747e-04,6.473541082896150638e-04,1.474049687385559082e-02
3.290582536017368498e-01,3.683298690692895505e-01,2.349339091401131674e-01,4.532975980071984878e-02,-6.977560471423817356e-02,7.752127651739405823e-02,2.299934327602386475e-01
3.251230352622285769e-01,3.564378198242950657e-01,2.681955206205797193e-01,3.500008909515810087e-05,-1.532541749212457810e-02,-1.754933252581592981e-03,8.196266740560531616e-02
3.034527783535492240e-01,3.511710692958038282e-01,3.172027182593728512e-01,-4.630177902908560496e-03,-1.610256755254305464e-02,-4.683261680325077718e-03,5.213410779833793640e-02
3.138939363916016245e-01,3.441047443062444922e-01,2.984209609289102394e-01,1.468163298386159291e-02,-1.567106431577729164e-02,9.260197386929272870e-03,5.709823593497276306e-02
2.453008385092888544e-01,3.252899431633370919e-01,3.127946152157438098e-01,-8.048390333390371965e-02,1.045075361513789075e-01,6.951199701062092673e-02,2.687919437885284424e-01
3.148240300922832136e-01,3.463841221320790309e-01,2.924486680639820646e-01,2.118856536161380175e-03,-9.194540311053392423e-03,3.533095605153084313e-03,5.007394775748252869e-02
3.182588871931858465e-01,3.010124674357703700e-01,3.452562874516086344e-01,-1.399764208083622771e-02,-4.390376198730899446e-03,-5.077254208385139668e-03,4.706241562962532043e-02
3.278230415183742141e-01,2.962414714447761388e-01,3.458126915835247339e-01,-1.989207080903660635e-02,-1.318159143703359105e-02,-1.764219713957566188e-02,6.731458008289337158e-02
3.081366427574072087e-01,3.400698960509880298e-01,3.067778532766080590e-01,2.301338876542933175e-04,8.587613018492102181e-04,-6.800410473569474005e-04,3.269140794873237610e-02
3.084300879933602468e-01,3.065072649466040744e-01,3.398127032082347010e-01,-8.053776253275786966e-04,8.818085595888008183e-05,5.161815745374402978e-04,3.242957964539527893e-02
3.085416873503243895e-01,3.094685366920436609e-01,3.438998176721628774e-01,7.597831786592724318e-03,-2.097645061297441466e-05,1.171020638050339173e-03,3.735747560858726501e-02
3.150370715811425248e-01,3.053789471947276901e-01,3.371130329885304033e-01,2.989137754992825420e-03,-4.047466530714983676e-03,1.011493334730466896e-03,2.954420447349548340e-02
3.085680967771581296e-01,3.097501794098705408e-01,3.365922549822329413e-01,9.831184848201179188e-03,-5.966656621165527738e-03,7.694680560710093556e-03,3.644184023141860962e-02
3.062348521088853470e-01,3.085437316073711411e-01,3.418059311077250029e-01,1.111236140199410279e-03,-8.863658062874210403e-05,-1.507313512091133366e-04,3.452968969941139221e-02
3.075697156548319877e-01,3.094190640987218299e-01,3.392392973392199251e-01,8.459330760317583563e-04,-5.614742016925417488e-04,1.459971534888903797e-03,3.094028867781162262e-02
3.092090538419509094e-01,3.201730528512897189e-01,3.274532765736112294e-01,1.028247942189226090e-03,-1.209942859675543301e-03,4.800830790305117210e-03,1.815871708095073700e-02
3.084218662595571425e-01,3.021284742702476933e-01,3.409769797510799338e-01,5.607101618153749294e-03,-6.758490732483252248e-04,1.721394631305229724e-04,3.741794079542160034e-02
3.548063694912471089e-01,3.333082443236305425e-01,2.566141748523708133e-01,-1.655432031264837374e-03,5.893422704120227992e-03,2.354294534199063635e-02,9.883399307727813721e-02
3.193458690320076232e-01,3.195942194662928504e-01,3.192768055014558737e-01,1.731018824028291749e-03,1.816770087138120608e-03,-1.326219798352731806e-03,4.924572538584470749e-03
3.161142321953503975e-01,3.193667367949560854e-01,3.190465294359298709e-01,1.123941614109806022e-03,1.169353523582836304e-03,-1.364021466537617333e-03,4.807640332728624344e-03
3.169238264424533713e-01,3.193271953940619023e-01,3.183353628467032737e-01,9.368278392266370710e-04,5.885644691328256566e-04,-9.173910612505851558e-04,3.251639194786548615e-03
3.446449841135950654e-01,3.002314322787937306e-01,3.150644132949291243e-01,-1.384845540730439157e-03,1.984807370574169765e-03,2.816214816278507938e-03,3.968829289078712463e-02
3.179108531077944888e-01,3.193162166663434109e-01,3.171468028845441101e-01,1.103000764398645106e-03,4.989232628440346982e-04,-7.513451128238054708e-04,3.118132706731557846e-03
2.047080090584384171e-01,3.688225024352663195e-01,4.159938335357460382e-01,1.579332354336314415e-01,-5.184766475104705084e-03,3.846662177242344410e-02,3.409525156021118164e-01
3.191215534550878030e-01,3.193940741168161401e-01,3.161581053564254673e-01,1.760113910749494049e-03,1.142140460544051285e-03,-1.033213482441409795e-03,5.106264725327491760e-03
3.084396517403872329e-01,3.393502214142473106e-01,3.095614679633703625e-01,1.884505306733855786e-04,-1.062052086993698664e-03,1.640810452553197315e-03,3.055508062243461609e-02
3.064882166587059031e-01,3.417269601383100541e-01,3.085565119801690903e-01,-1.091190330082998796e-04,7.855302290461526997e-04,-2.300971596841235793e-04,3.428131341934204102e-02
3.084924830713629551e-01,3.412918746549722937e-01,3.054947645754673702e-01,-1.651820795196784529e-03,3.218423733619544657e-03,1.377754247248185815e-03,3.504375368356704712e-02
3.093432366273311529e-01,3.357651764938196504e-01,3.094058523962298080e-01,1.047968206268529634e-03,-2.859522601612491679e-04,7.352554226348465873e-04,2.648830413818359375e-02
3.080487133554127843e-01,3.393819887667304802e-01,3.096751355340687240e-01,-5.296836441165811210e-04,5.760354400054793411e-04,1.164440411711394454e-03,3.064903244376182556e-02
3.181834868664472626e-01,3.171874616934277635e-01,3.178809550350223390e-01,3.241663752658722228e-04,-1.079515534993253549e-03,4.730725987352245396e-04,2.294551813974976540e-03
3.401676858387946423e-01,2.848417105495737456e-01,3.265357937103488539e-01,5.897221151469578216e-04,-4.830335196907929902e-03,4.780418498842669249e-03,5.130488425493240356e-02
3.083129394992104033e-01,3.407371427317231194e-01,3.040933246440225557e-01,-8.075551083494135907e-04,4.066539655897423271e-03,5.008295076837292019e-04,3.547211363911628723e-02
3.825521849677052111e-01,3.989224482348954770e-01,1.412648854893037709e-01,-6.463197127929006316e-03,-9.415377516040628059e-02,-5.583412929641286271e-02,3.138629496097564697e-01
3.845115260491343556e-01,3.811439709096912654e-01,2.216724849905895578e-01,-3.029303224459784644e-03,-2.747161843032554576e-02,2.415245498470511721e-03,1.681922227144241333e-01
3.251052002002938202e-01,3.456031396107441811e-01,2.679100003020256082e-01,1.076435448294961982e-02,-2.016697395219994166e-02,6.280105655318441241e-03,8.093141764402389526e-02
3.491346522237305239e-01,3.533668526471812621e-01,2.681880507992408513e-01,8.668955647504023813e-04,-1.581522637906222079e-02,-3.391914782222772446e-03,8.774953335523605347e-02
3.304371729510777178e-01,3.406687319698142313e-01,2.776468936497314410e-01,7.842583061305150385e-03,-1.488855584738900742e-02,3.113524799908670444e-03,6.565236300230026245e-02
3.391377436503648091e-01,3.078699294042278600e-01,3.102475215155872101e-01,4.096484735775730092e-05,6.634576269722047316e-04,-1.222946967418460590e-03,3.024565055966377258e-02
3.986778416974811057e-01,2.206019117509563920e-01,3.927405355214179661e-01,-3.456261863264365342e-03,6.964405507139712070e-03,-2.907355439192890051e-02,1.827735155820846558e-01
3.283348288690109973e-01,3.168531729678565334e-01,3.075103085162314009e-01,4.196619500837234923e-03,-1.431992424412024826e-03,1.929839335693617035e-03,1.991352811455726624e-02
3.344368673066246966e-01,3.494545572940468414e-01,2.739021306552445467e-01,2.781855749612398374e-03,-9.288170878038645370e-03,2.426681031451123800e-03,7.140567153692245483e-02
1.800157647749510148e-01,3.742964669569228686e-01,3.797460182491704805e-01,4.244317235902323772e-03,-2.326350482641476296e-03,-7.173683904350462714e-03,1.976312100887298584e-01
3.470437925035222415e-01,3.627241039807394540e-01,2.417994864738710614e-01,-2.153847058720030107e-03,-2.350940122908481977e-02,-2.574851081821013903e-03,1.210965812206268311e-01
3.808748336423157244e-01,3.878018133283938629e-01,1.957237607511882749e-01,8.640586424801250179e-03,-6.076123245262060341e-04,7.309825947791922032e-03,1.897283047437667847e-01
3.143148155960749923e-01,3.016581267871315530e-01,3.361915211685427840e-01,-2.446409512103763124e-03,2.665172010203247042e-03,2.645904232108901681e-03,3.123996220529079437e-02
3.622394049230834301e-01,3.632063997827571500e-01,2.325882934660087886e-01,-2.891265540223418151e-03,-3.165735032324503567e-03,6.453513304553887015e-04,1.303537935018539429e-01
2.706039331378055635e-01,3.460462132576926919e-01,3.409590192585535973e-01,-9.664187682011708691e-03,-6.151863936799921960e-03,-5.574155539849515693e-03,7.629264146089553833e-02
3.597750462741680089e-01,3.574937711615726599e-01,2.404372702572167564e-01,6.156614242312791066e-04,-4.816972472767419924e-03,3.286527813129690341e-03,1.186491325497627258e-01
3.608901622391955111e-01,3.615743992622832970e-01,2.421237513999464075e-01,-1.139879994739626066e-03,-3.184367874607202647e-03,6.491683862726910139e-04,1.192592829465866089e-01
3.523842138694034398e-01,2.431955602291879792e-01,3.557269194062600004e-01,2.842069428280037321e-03,1.192239291264504371e-03,-2.548881857144103761e-03,1.111139431595802307e-01
3.081642947206391647e-01,3.413574015043887577e-01,3.071840483069205874e-01,3.059531346277211106e-04,7.454292028073689156e-04,5.776769703803678055e-04,3.373765945434570312e-02
3.094831204160477522e-01,3.423420223537612106e-01,3.103220934790876240e-01,1.480866442942113280e-03,6.658668756375241485e-03,-3.612633541516951799e-04,3.453733772039413452e-02
3.078647793796962517e-01,3.377993121459239578e-01,3.097690402208581051e-01,3.388029698270196631e-04,8.876872719001449369e-04,-1.502292801624384401e-03,2.919209189713001251e-02
3.089886542269874026e-01,3.394633898741120093e-01,3.029883117470664189e-01,1.879163703877037486e-03,4.138179660556154556e-03,-5.527597562348704040e-04,3.479161486029624939e-02
3.102854488988832649e-01,3.303879970269784638e-01,3.105417189210651352e-01,5.809454822237265607e-03,6.364445524640510547e-03,-5.484986647487301477e-03,2.668425440788269043e-02
3.220302752170418614e-01,3.062413463892452725e-01,3.203628745033289538e-01,3.141503371228876115e-03,5.586748839465296643e-03,-1.900860624294866113e-03,1.896908693015575409e-02
3.143291788770261053e-01,3.249055451494418656e-01,3.157614079851815414e-01,5.938200422751095230e-04,7.202475822002135262e-04,-1.524422026484125326e-03,1.040907017886638641e-02
3.106464741187667244e-01,3.276066144171227434e-01,3.134292708969096952e-01,1.762095566620946107e-03,2.281651901751809500e-03,-3.200051850470014489e-03,1.743122003972530365e-02
3.397041829898313492e-01,3.069544357770269682e-01,3.083674850366384113e-01,-6.566375007462990892e-04,7.328195115330044093e-05,8.013506979134077737e-04,3.211700171232223511e-02
3.096858726728548006e-01,3.312690672957019911e-01,3.131586574431871051e-01,1.329922786986690534e-03,1.616756297717509509e-03,-3.340807389269640285e-03,2.120310068130493164e-02
3.428897307646145420e-01,3.149329471545210257e-01,2.893635784924754595e-01,2.480084192345956891e-04,1.365871864210107612e-04,6.739802460979556209e-03,4.781973361968994141e-02
3.497338683486884703e-01,3.300831418644843418e-01,2.716252274416927626e-01,1.458506157353649463e-03,1.825204128442122202e-04,1.032383480223010921e-02,7.265291363000869751e-02
3.109114080488802334e-01,3.126108243902527839e-01,3.287808363020631730e-01,2.822005320026784846e-04,9.280598543158571651e-04,1.065180541923286183e-03,1.726451516151428223e-02
3.146044849520338582e-01,3.409107299822959902e-01,3.013469217384196486e-01,-1.940718023979241900e-03,2.632032737607177889e-03,-6.643462220898113701e-05,3.533600643277168274e-02
3.334670680120681019e-01,3.093356029818522535e-01,3.104311644721250985e-01,-2.114008112773123858e-03,3.367592547189065307e-03,3.157846863871711322e-03,2.518800273537635803e-02
3.388501126604752667e-01,3.095596787436977193e-01,3.078087065648599796e-01,-1.406654437966102424e-03,5.800144588606421982e-04,7.185810346883566083e-04,3.034429997205734253e-02
3.313267726532497792e-01,3.120270786207089975e-01,3.103817849501441795e-01,-2.046342453962349088e-03,4.323803565020826870e-04,5.898162426712061064e-04,2.052086591720581055e-02
3.354717334100320025e-01,3.062450304617864161e-01,3.099608561727649203e-01,-1.292178785829426867e-03,2.893136198290058130e-03,4.258484733584092657e-03,2.905047684907913208e-02
3.407795185546431127e-01,3.089240038475802863e-01,3.062588196917529482e-01,-5.200240696588252374e-05,-3.780542391431663250e-04,-9.422271054468091787e-04,3.331483155488967896e-02
3.415507170158653127e-01,3.093738869129075697e-01,3.090465969925941248e-01,-2.201894287085731303e-03,1.374092814535444454e-03,6.422862211716433116e-03,3.449573367834091187e-02
3.386905589422912199e-01,3.091963582929573295e-01,3.046398798694758270e-01,-2.155558840421183727e-03,8.968101516543963442e-04,3.983105302394120834e-03,3.300010040402412415e-02
3.284352236289480587e-01,3.125765117349989519e-01,3.125246581754450581e-01,9.706423248590143309e-04,-8.770578734108918847e-04,1.916115470250487449e-04,1.604892686009407043e-02
3.267523466483708838e-01,3.039686544869455442e-01,3.263159383153004800e-01,2.737751746865229891e-03,-7.296029361335970576e-03,2.575119942344658748e-03,2.667245455086231232e-02
3.278738231071331444e-01,3.041313698609749427e-01,3.279123038867032269e-01,2.528163674117756346e-03,-6.078620621179160050e-03,2.265102373935187676e-03,2.664648182690143585e-02
3.418404490444421073e-01,3.084251932849926825e-01,3.063594650728393431e-01,-1.667974008846279251e-04,2.938296650405289485e-04,8.842097010115403241e-04,3.453348204493522644e-02
3.407455813290217184e-01,3.034621012709391996e-01,3.084910087423772818e-01,-2.717379616891305960e-04,7.590673971473499339e-04,4.811975633506781341e-03,3.604536131024360657e-02
3.035430295796489042e-01,3.033872338002160940e-01,3.384699120130937322e-01,-1.145828720268561411e-02,4.763203586303057895e-03,4.026379275077956142e-03,4.166448488831520081e-02
3.116654858455479293e-01,3.044506913633871492e-01,3.389096848144990681e-01,-3.867870892231703266e-03,3.474971728617244539e-03,1.333688901022059238e-03,3.282231837511062622e-02
3.438827317034547359e-01,2.850895781132127271e-01,3.267481156846095414e-01,1.183769109596493653e-03,-2.980555776635507824e-03,5.402430060788584835e-03,5.349061265587806702e-02
3.409726816816374684e-01,3.354640653676737028e-01,2.787494771527269655e-01,1.626966135831841090e-02,-2.929297705052219536e-02,3.128310547746324805e-02,9.931539744138717651e-02
3.037763097031409010e-01,3.207102579890149241e-01,3.342680245633340430e-01,-1.315733778161895344e-02,4.391449875830118026e-03,6.806172053006804765e-03,3.763417527079582214e-02
2.933501057317933758e-01,3.079596836869507581e-01,3.338206561711541398e-01,-2.420513844504467577e-02,1.331652084699158807e-02,1.386957206368026087e-02,6.424015760421752930e-02
3.116324140071655147e-01,3.107300800789671857e-01,3.341570379720769091e-01,-5.384980284042988931e-03,4.144478595762387391e-03,4.345530913766182737e-03,2.690116502344608307e-02
3.640964680801765385e-01,2.808654042180487309e-01,2.350729738511480316e-01,4.885161256539771041e-02,8.010836642258342688e-02,-1.406377376940620982e-01,3.139810860157012939e-01
3.584757492576011173e-01,2.785097911508640500e-01,2.346555872737816351e-01,8.231413619726918318e-02,7.850004886536360305e-02,-1.409293170899633962e-01,3.319961428642272949e-01
3.626528413367921533e-01,2.361480372553739215e-01,3.173233003896542836e-01,6.031943366823328337e-03,2.997961159748520343e-03,-5.519340098916231813e-02,1.469655632972717285e-01
3.630724472582482765e-01,3.320547299422110799e-01,3.141859431058646734e-01,3.864869257173748213e-02,4.339173219341061621e-02,-6.755121168870886761e-02,1.601712554693222046e-01
2.811440962694363721e-01,3.263966819749715698e-01,3.493930632899076572e-01,3.956115105590248850e-03,-2.495257513352522674e-03,3.435681500600321070e-03,6.097802147269248962e-02
3.374655126825637508e-01,2.932743209756940583e-01,3.286874473028676968e-01,-2.833850476844237010e-03,6.300709848494325839e-03,4.548457548576981258e-03,4.297972843050956726e-02
3.279385611056365724e-01,3.086409624395317630e-01,3.198876036618478746e-01,-1.089715692071749949e-03,5.032396131483546017e-03,1.289796008808417275e-03,1.914103701710700989e-02
3.287471246475378583e-01,3.019839274380366478e-01,3.272384078680762864e-01,-3.098765267252775752e-03,4.727481331435007435e-03,3.189882339260447213e-03,2.836454100906848907e-02
2.287218922839950874e-01,3.529001209220317126e-01,3.749299773752833298e-01,-3.366874722366593187e-02,-2.494889388095105145e-02,-2.819564452444679042e-03,1.547033339738845825e-01
3.283878572356597192e-01,3.092698791617187748e-01,3.202989052841341833e-01,1.079342832395689764e-03,-3.865671875502458936e-03,1.082538813531781080e-03,1.811421290040016174e-02
3.411839536410031792e-01,3.083436102776834775e-01,3.039414641943182782e-01,6.194985862768784008e-04,-5.246177930535094814e-04,-2.694893568191950809e-03,3.558369725942611694e-02
3.187470343410628848e-01,3.155156378072387913e-01,3.158741976355413650e-01,-5.306537440613549178e-03,-4.375086609331780597e-03,-4.114008829093826307e-03,1.421580836176872253e-02
3.250998386231579440e-01,3.162958644837663980e-01,3.148479037806482528e-01,-8.468989726218545920e-04,-1.116183523875217487e-03,-5.676650022405906005e-04,9.960441850125789642e-03
3.280574447338654998e-01,3.020269530495503507e-01,3.286423130083091504e-01,-3.101703933248981058e-03,5.045304891474600324e-03,3.192749313796602352e-03,2.879168093204498291e-02
3.184458347178225623e-01,3.014317813557370052e-01,3.282039160133446987e-01,-3.690317787386751536e-03,5.255355653961540918e-03,4.707897381071168711e-04,2.598267234861850739e-02
3.534154952321585386e-01,2.638324630400680215e-01,3.448536180807709184e-01,-4.664385860247574622e-02,-1.635615977542616631e-02,-3.323637862525827963e-02,1.340705752372741699e-01
3.138468502789904524e-01,3.286682915901412705e-01,3.107197139175904566e-01,3.475023704492474601e-03,-1.935994113323914832e-03,1.618323202672782490e-03,1.819701306521892548e-02
3.270267519833275349e-01,2.841818066545061527e-01,3.442070128582371269e-01,-4.823871528347747038e-03,5.005891009696236812e-04,2.870436831229716108e-04,5.420098081231117249e-02
3.195981825220577943e-01,3.170800964777650277e-01,3.175136355197823446e-01,-6.784944150821466862e-04,-1.304750222183151355e-03,-3.122572666628676522e-04,3.495385870337486267e-03
3.215197804972880768e-01,3.149710440548108004e-01,3.173252702030479599e-01,-1.009589690818187349e-03,-2.406829923320883812e-03,-3.640509220315439826e-04,7.337917108088731766e-03
3.218302354704685175e-01,3.149661950725038961e-01,3.171951112004021134e-01,-1.076124251079912638e-03,2.483855782964203111e-03,8.982620381251970503e-04,7.822219282388687134e-03
3.257901250425386253e-01,3.155245331095123396e-01,3.148762113221956760e-01,-1.895046531792121680e-03,6.446794773962328954e-04,2.724471488372974559e-04,1.116697024554014206e-02
3.408975509253911462e-01,3.000034864931375167e-01,3.150568750944877650e-01,-4.946829938662252986e-04,3.096416825250430330e-04,2.766332936230956295e-03,3.615680336952209473e-02
3.301962500966405534e-01,2.986093533078152951e-01,3.299248784127324363e-01,-1.424724848400795753e-02,8.490415455748086260e-03,1.299784260058860219e-02,4.817965626716613770e-02
3.373106280434346460e-01,2.930718083210527292e-01,3.255894173182577456e-01,-2.833107901950111460e-03,4.851859830627588445e-03,4.330205332167458634e-03,4.155575111508369446e-02
3.454569174601859749e-01,3.061676383390729006e-01,3.146558870051324175e-01,4.247377554913422601e-03,-4.020539186212685086e-03,1.537578033321937085e-02,4.576089233160018921e-02
3.367902284040357741e-01,3.097070943563826062e-01,3.147868963427132294e-01,-8.598015306052211870e-03,1.275838874452200032e-02,2.357615290603645025e-02,5.476618930697441101e-02
1.747771617107335973e-01,4.069700485280666191e-01,4.413904850514873135e-01,-5.434183959547102261e-02,-5.529124501206652414e-02,-2.607931583877643247e-02,2.883771061897277832e-01
3.712866414364963674e-01,9.396639027536962674e-02,4.076724460207414302e-01,-9.326111801380133903e-02,9.361790716180460464e-03,1.814028282197617178e-02,3.400941193103790283e-01
4.008998270558074006e-01,1.152140805224029507e-01,3.841579247835726907e-01,-2.882920626943780845e-02,-2.243022048889119213e-03,7.219238797853913536e-02,3.086379766464233398e-01
2.180994906926496113e-01,3.794350037718398627e-01,4.010249380797029639e-01,-5.825425532055868161e-02,-6.145867736196909160e-03,7.631368939565702069e-04,2.006844133138656616e-01
3.778435272556036617e-01,1.402285173275681085e-01,3.407447893121373084e-01,-9.508216153404172588e-02,3.604464297534332867e-02,1.163880103309131858e-01,3.473902642726898193e-01
3.105487761201123353e-01,3.124996122277280963e-01,3.273789681854424316e-01,-6.642746637993922169e-03,-5.441649578041200634e-03,-3.988809133736798823e-03,2.287297323346138000e-02
2.807639969333731722e-01,3.107796983238616528e-01,3.465013037055275635e-01,-2.714542085625350903e-02,6.505307138225164057e-03,5.651590385959933890e-03,7.538291811943054199e-02
2.977541558869338800e-01,3.177651787260633576e-01,3.376259446331808523e-01,-8.498377805433681223e-03,-2.686958137871248847e-03,-5.986686149786382694e-03,3.921955078840255737e-02
3.014329275203002645e-01,3.151078532909542540e-01,3.410870316410313241e-01,-2.467256996315740115e-03,-1.390161046803956761e-03,-3.324693915970291895e-03,3.569881245493888855e-02
3.085392758122645351e-01,3.065784446776885774e-01,3.416226015297645913e-01,-7.094135343950693125e-04,-6.088640058842782570e-05,-3.539711365252190301e-06,3.412833064794540405e-02
3.162221031546558758e-01,3.129042535812649461e-01,3.286811848425715277e-01,-3.590046608925419260e-04,3.246347940545048216e-03,1.111462083496484376e-03,1.559753902256488800e-02
3.527580560810514854e-01,2.671054431791711203e-01,3.293404535323837257e-01,1.693880361039398720e-03,1.801949636374844052e-03,-1.668788350227056252e-02,8.205351978540420532e-02
3.589121142196689540e-01,2.591781996301720792e-01,3.418978990036745658e-01,-1.217012814375013343e-03,2.565497701001965593e-03,-6.692659108400093697e-03,9.326310455799102783e-02
3.567245643376109054e-01,2.415324995105869732e-01,3.677512311095083586e-01,5.156096735988959651e-03,3.665339870154546605e-03,-5.102891866878194599e-02,1.503093391656875610e-01
3.378149456925986782e-01,3.042790289681699401e-01,3.157421478412355542e-01,9.607126340539058010e-04,-4.205592597259977770e-03,3.218471888605598050e-03,3.096030093729496002e-02
3.261340925787401535e-01,3.198916858499702975e-01,3.084279375758515185e-01,8.578038625843678600e-03,-6.740611142782831217e-03,9.243800389539293116e-03,2.924629673361778259e-02
3.184383025204097772e-01,3.227314617713453737e-01,3.121293646971980973e-01,3.766271658053482220e-03,-1.903731879728896587e-03,2.270547940085773479e-03,1.241822633892297745e-02
3.892452751338154049e-01,2.491049052487023241e-01,3.757071470155920467e-01,2.824805263140059072e-02,9.036307062717182509e-03,-4.149346541466401167e-02,1.604035943746566772e-01
3.790298485647600191e-01,2.126561709853438953e-01,3.677311628698545221e-01,1.259643807854101023e-02,1.892145172557644500e-02,-2.142341019665981727e-02,1.698676496744155884e-01
3.172444848317798050e-01,3.138449311744473946e-01,3.218547243809471436e-01,1.906507029058235412e-03,-3.220757427563248135e-03,1.472889374160811071e-03,9.849689900875091553e-03
3.592130877413120538e-01,2.457068910021057428e-01,3.515644314105222379e-01,9.195471307557726882e-04,4.832751972264419079e-04,-1.401433032163067541e-02,1.125452369451522827e-01
3.276927683141916958e-01,3.552901284313194630e-01,3.159099246283705309e-01,4.031369162151428320e-02,-6.257201750957602782e-02,3.881814191747868376e-02,1.495577543973922729e-01
3.440349997351693778e-01,2.999371858679177882e-01,3.152326492253206269e-01,-1.116605020239189346e-04,-8.310635560248387423e-04,3.507427120845758341e-03,3.928215056657791138e-02
2.936138836229376103e-01,3.432618170328451956e-01,3.220306400688351389e-01,1.450331969929353169e-02,-1.903561005809263282e-02,1.830467585161863614e-02,6.771175563335418701e-02
3.059601682753801399e-01,3.471425852228176012e-01,3.056421618414208452e-01,5.172262775509200994e-02,-4.712861586759380106e-02,3.071297112470969953e-02,1.386652737855911255e-01
3.267468242679005264e-01,3.490855245151177622e-01,2.835513107909020114e-01,2.705461780846748522e-03,-6.492856018932704337e-03,2.191930806565012182e-03,5.909860506653785706e-02
3.413473847753551449e-01,2.998014710342118416e-01,3.156924573348185437e-01,4.712257947222330380e-04,-1.827001935838218957e-03,3.376271694354996810e-03,3.692232817411422729e-02
3.095013751823625370e-01,3.332870768506519532e-01,3.090366224785656146e-01,5.543322547651116997e-03,-6.749648013232564803e-03,6.448618796711086572e-03,3.050643578171730042e-02
3.260938083975604695e-01,3.429801702028107968e-01,2.865317215956565411e-01,5.926465254314016579e-03,-4.584910891921677341e-03,2.792103469959630446e-03,5.205946788191795349e-02
3.175096130576431364e-01,3.423303680721219155e-01,2.898088313560377993e-01,8.291867584520678028e-03,-7.180774559092152794e-03,4.675194906362850795e-03,4.997485131025314331e-02
3.374213999834086430e-01,3.035730314447193101e-01,3.174186191025042958e-01,-1.668451740174571422e-03,4.978353667795464357e-03,1.760107013598431963e-03,3.099611215293407440e-02
2.477597514395134537e-01,3.556169094230338112e-01,3.585917606716203521e-01,-4.164997194681828961e-03,-8.091594698008453034e-04,-2.718489340337082775e-04,1.096225455403327942e-01
3.550655112780608524e-01,3.405556095351932600e-01,2.591901827095053346e-01,2.374047427895510046e-03,3.048881046065322377e-03,-4.125965379201684477e-03,9.004077315330505371e-02
3.192880289286625928e-01,3.332643328952016315e-01,2.987679313377087920e-01,5.850061315027719339e-03,-5.162254090028443702e-03,3.100644297653263638e-03,3.338659554719924927e-02
3.281070223736375358e-01,3.084935821551593738e-01,3.171718023566298394e-01,-1.165428392645502303e-03,3.898561827966712592e-03,1.936061565579387782e-03,1.872711442410945892e-02
3.359322700877349077e-01,3.093894062638237186e-01,3.089034496990002987e-01,9.410307178963133942e-04,-1.921285065165849720e-03,1.180081688199903674e-03,2.712133526802062988e-02
3.068516063154828055e-01,3.383540300669565792e-01,3.030658073309312472e-01,-2.715487409689234296e-03,5.577220608740511912e-03,1.342216805321884724e-03,3.531061112880706787e-02
3.080230428955812449e-01,3.402494833405349528e-01,3.119499748128624073e-01,-2.853936200296294367e-03,8.810083059857774790e-03,3.037414075976364088e-03,3.481922671198844910e-02
3.213546630490517475e-01,3.394275465257752256e-01,2.928617210889616906e-01,-8.309749968434988407e-03,6.285086924045987788e-03,3.470358861358941414e-03,4.489119723439216614e-02
3.081862268334958355e-01,3.388180933309483667e-01,3.110157768674882139e-01,-2.602051866709921470e-03,8.904532937217128283e-03,1.976158913373310573e-03,3.360867500305175781e-02
3.035837869176902237e-01,3.084281047428206746e-01,3.416313003271706505e-01,3.600260371249759325e-03,7.885314388347998546e-05,-1.302917307437417762e-03,3.647962957620620728e-02
3.082948839721997847e-01,3.035616366668719701e-01,3.440282374173823654e-01,4.555377852428232378e-03,1.183683466456768004e-03,9.144283646929599746e-04,3.920940309762954712e-02
3.307294912817695942e-01,3.146162103377102004e-01,3.075389366998736995e-01,-4.282139231945927653e-03,2.073918167487702208e-03,2.001429574274506303e-03,2.244313806295394897e-02
3.030334034261509824e-01,3.083360103007282693e-01,3.407485723960045898e-01,3.835649025784712909e-03,7.166717874681962242e-04,-1.543031375174393986e-03,3.610239923000335693e-02
3.355622361531236386e-01,3.033026014654072178e-01,3.147205799795456671e-01,-1.262464829217814673e-03,2.948206677674693361e-03,2.374201677356997144e-03,2.916302718222141266e-02
3.159827717504040123e-01,3.154131389323220347e-01,3.219020438317998778e-01,-2.527114395328967054e-04,7.446843240224142743e-04,6.663674787819709499e-04,6.474678870290517807e-03
3.083261818305246815e-01,3.066406249945554108e-01,3.416206312050039107e-01,9.322440631841779832e-04,-1.930951414341022299e-04,-2.452288893686899987e-05,3.420821577310562134e-02
2.908098783822453681e-01,3.903177284102200550e-01,3.333340678585889338e-01,-3.984191923501540422e-04,-6.188875708096867878e-02,-3.007944357067723288e-03,1.378292441368103027e-01
3.351825120672638492e-01,3.091813022322095761e-01,3.094178848375944146e-01,-1.046122244931382058e-03,6.490532483697903591e-04,3.486157230206275086e-04,2.597843296825885773e-02
3.174135755140183868e-01,3.195773024752108227e-01,3.156863632655638185e-01,-2.101466291041029569e-03,1.301958141317360136e-03,7.739377147944162972e-04,5.615415982902050018e-03
2.170644882128371367e-01,4.356614814893322585e-01,3.735886728181636585e-01,-8.019530513469164124e-02,-9.237989111770920914e-02,-4.376814194150676490e-02,2.978450953960418701e-01
2.508640312433804143e-01,3.602228653788986934e-01,3.537318715222302901e-01,-7.960345018266513917e-03,3.316202799720487180e-03,2.144587641264080781e-03,1.073709949851036072e-01
2.434684989947231981e-01,3.755672594410895404e-01,2.854905508668769132e-01,-6.879429370715391123e-02,-1.219795971742105162e-01,-7.404692153907743712e-02,2.982427477836608887e-01
2.949710931084699173e-01,3.364596838044074389e-01,3.170982917644584731e-01,-1.735642801963635865e-02,-2.625096827895245094e-02,-1.363041464094138545e-02,6.943580508232116699e-02
3.103495333050133587e-01,3.863606181925263172e-01,3.147292586552116744e-01,-1.694760822339315756e-02,-8.301336060464757638e-02,-2.327807925381136789e-02,1.691889017820358276e-01
2.628062112983806653e-01,3.521942904973750510e-01,3.353126239574683587e-01,-1.269353682972501444e-02,-4.130386882803962351e-02,-8.360414099542936434e-03,1.121485456824302673e-01
3.973536322678704047e-01,3.251830256244030437e-01,2.939633472203563858e-01,-4.790302090766071497e-03,9.925533154204710037e-03,7.746023566639757829e-02,1.637102961540222168e-01
3.590812150034311534e-01,3.379930734886845700e-01,2.755970688834916693e-01,1.252192115828353047e-03,4.594770724670374897e-04,2.730692479526695624e-02,8.886016160249710083e-02
3.488494223087427182e-01,3.147386839031717232e-01,2.908716074673250440e-01,3.813836409403280239e-05,4.099971366347940696e-03,9.986081974496966579e-03,5.382288247346878052e-02
3.498107190114106424e-01,3.284970969328314672e-01,2.874248095323174712e-01,-2.517597225901828818e-03,5.386508831571056727e-03,6.048496213471933267e-03,5.685431882739067078e-02
3.431863849838176495e-01,3.139738271692680271e-01,2.885218985423579907e-01,-1.306476366780025126e-04,-5.452798948474980433e-04,8.124263550482386728e-03,4.943323135375976562e-02
3.483538292218984478e-01,3.246423351358802556e-01,2.690212006799894695e-01,5.839432253168771840e-03,-3.355815449788856174e-03,1.465626750420064017e-02,7.586373388767242432e-02
3.490827517708290917e-01,3.319849621150351426e-01,2.723323081486972441e-01,-1.093608051294509258e-03,3.705207606341895388e-03,1.454871499519379274e-02,7.450148463249206543e-02
3.514532642231681381e-01,3.307479428971367152e-01,2.746632351596213772e-01,7.599521806278592860e-04,-3.834830408872118464e-03,1.251683237846953727e-02,7.246599346399307251e-02
3.203739084871191078e-01,3.310855193662572415e-01,3.008941362002337527e-01,1.060037839068927491e-02,-1.331652572919404462e-02,1.130537423100842938e-02,4.421976953744888306e-02
3.881483655809956357e-01,3.398200695508204472e-01,2.608668812106387236e-01,2.520617410524878671e-02,-3.686051327356845014e-02,6.380064395501082453e-02,1.748674213886260986e-01
3.129097977415384313e-01,3.324478035926026753e-01,3.191883738508252133e-01,1.391732780634495625e-02,-1.969117495592741934e-02,1.354085653434059823e-02,5.092004314064979553e-02
3.447207885920978154e-01,3.458541414626339350e-01,2.520119153295855008e-01,7.055195656630730040e-03,-1.915325912679669701e-02,2.587089343959004736e-02,1.093575358390808105e-01
3.436429086984305048e-01,3.450236498611149449e-01,2.534618747868603861e-01,8.040850348548390231e-03,-9.728663534970524718e-03,1.346217697958893185e-02,9.633607417345046997e-02
3.484140148862759356e-01,3.302487673245932398e-01,2.709566558623511257e-01,2.738769946918168715e-03,-8.041014392459317189e-04,1.074513146870753784e-02,7.275577634572982788e-02
3.578188336985389517e-01,3.432555184735033293e-01,2.610172056355533066e-01,1.796256616860028577e-02,-6.524107676888510864e-03,3.117741393209067652e-02,1.103840544819831848e-01
3.270364755015660041e-01,3.277318760065816017e-01,3.018199185068393686e-01,6.197757799090544521e-03,-2.027220368699295203e-03,1.994623707396159067e-03,2.816726826131343842e-02
3.520477063841913612e-01,3.440293181896861285e-01,2.531877701841008799e-01,5.226910648278443490e-03,-6.584946827907949170e-03,1.446592098625124403e-02,9.942192584276199341e-02
3.200579660790774383e-01,3.158118502009505946e-01,3.171787991242275284e-01,1.106728926635932230e-03,-1.790601581856469861e-03,1.314855125563483412e-03,5.707334261387586594e-03
3.391071760541957136e-01,3.111276824947250552e-01,3.045717128487911984e-01,-1.925823668414075509e-03,-1.629061086591952583e-03,-3.423135883798623155e-03,3.261145576834678650e-02
3.413098315795333182e-01,3.063409127122050934e-01,3.084259347322513278e-01,3.106712056469608258e-04,-2.166173703579778772e-04,1.426673962516105060e-03,3.407048806548118591e-02
3.375730805495308906e-01,3.262862033028659514e-01,2.970977689856852955e-01,-6.128630121970564219e-03,-1.495849244474331454e-03,-2.723738874877968969e-03,3.808482363820075989e-02
3.411499158809112586e-01,3.084049507792404055e-01,3.071197248104388655e-01,5.074587704144806026e-04,-3.915321224162387039e-04,-1.043209805564914707e-03,3.347336873412132263e-02
3.402218239290292767e-01,3.063089107641908115e-01,3.089750061678562254e-01,1.468039386291825814e-04,-4.574774914753011821e-04,1.516357648627954810e-03,3.277757018804550171e-02
3.396486975460064062e-01,3.104096842114371091e-01,3.081349452614696727e-01,-1.546208116363874353e-03,-3.521540855583802894e-04,-1.093725779200467856e-03,3.062251582741737366e-02
3.410682024252726374e-01,3.023146785344331677e-01,3.065933035117915373e-01,-9.143422838002106083e-04,-9.480859447869064652e-04,-3.812282478901679768e-03,3.745845332741737366e-02
3.400558711267727685e-01,3.117179377938040230e-01,3.102964037850880485e-01,-2.129834819322446414e-03,-3.615647220458472269e-03,-5.934406416844752868e-03,3.168313950300216675e-02
3.409785393435887380e-01,3.071026185980774148e-01,3.096338741868295830e-01,-4.788786087773386170e-04,1.206274957071626613e-03,9.737016376625442886e-04,3.280448541045188904e-02
3.352975907787078547e-01,3.115430513975644411e-01,3.102908377638922133e-01,-2.835753853529982254e-03,-4.472861585672190284e-03,-6.370881409054509129e-03,2.831078134477138519e-02
3.356088035069150766e-01,3.110201024659665081e-01,3.056836502861789984e-01,-2.071876604118157682e-03,-1.122747846779902385e-03,-3.613803452278473421e-03,2.863803133368492126e-02
3.319131068240058768e-01,3.124962610624950621e-01,3.111091416577801971e-01,-1.893887293964065244e-03,-6.259312492669812230e-04,-6.264111684629051959e-04,2.046911045908927917e-02
3.176757382363530335e-01,3.226347214346373393e-01,3.167104580941291769e-01,-3.514367807035055549e-03,2.485672986004253040e-03,2.748468303473510649e-03,1.041923090815544128e-02
3.357534371502692849e-01,3.093880414170788185e-01,3.124499232913427460e-01,-9.958078908885122961e-04,2.254059919678405143e-03,7.090047874484206548e-04,2.536743506789207458e-02
3.139153999539840978e-01,3.242004037767760027e-01,3.125852979180473445e-01,-3.760449871137199612e-03,2.198886494205659192e-03,1.191165437736583198e-03,1.350612659007310867e-02
3.282642426420424586e-01,3.131857040659529190e-01,3.154948243615650072e-01,-8.972454333320465346e-04,2.204350185766472403e-03,2.476010711099826652e-04,1.466467697173357010e-02
3.175685227727092497e-01,3.217833377615714197e-01,3.151941812844486490e-01,-2.391996599848099543e-03,8.771886489672038600e-04,8.040462145390329073e-04,7.404212839901447296e-03
3.150413301579507164e-01,3.242784708703084218e-01,3.143381080530205374e-01,-2.168675412803041432e-03,3.114437727681181110e-04,4.522959764907593652e-04,1.035998109728097916e-02
3.872247370712114112e-01,1.112598646940940739e-01,4.543546420132332786e-01,1.698398263505548900e-02,2.133243588294012061e-02,6.675250023027652635e-02,3.388020098209381104e-01
3.172939137365227147e-01,3.358208868232385180e-01,3.032789942264693672e-01,-3.949762577253394281e-03,2.512784797345841807e-03,9.941611413353907897e-04,2.946234866976737976e-02
3.155396803922635440e-01,3.146677210090697008e-01,3.257828300103384755e-01,2.743728570338821709e-04,-1.743710556371014892e-03,3.180627828435284238e-04,1.114741899073123932e-02
3.172279680083320286e-01,3.154383199378472113e-01,3.251121766924642831e-01,3.756221399546635920e-03,-3.719658002924345480e-03,3.615727344129483593e-03,1.423127390444278717e-02
3.178674619870296980e-01,3.189222666766838854e-01,3.187787801200936966e-01,-5.451118967454853014e-04,3.809571468005906367e-04,-5.658243030501020639e-08,1.519433106295764446e-03
3.164964670936218916e-01,3.150029969659834950e-01,3.193151396656924157e-01,2.207027602909603179e-03,-1.976719748321573156e-03,9.318351626315878825e-04,6.582180038094520569e-03
3.180776053557480831e-01,3.183581160392993104e-01,3.230424765510025442e-01,2.264201841392347262e-03,-3.937532963664888003e-03,3.586945707485164440e-03,1.112774945795536041e-02
3.166242285877553519e-01,3.185141554209031667e-01,3.200768956379869135e-01,2.593008367289919777e-03,-2.019421323816087202e-03,2.730334067398614093e-03,7.983538322150707245e-03
3.144728477147635815e-01,3.309515687315312538e-01,3.163760641355355396e-01,-3.412885756461088698e-03,3.990900382173214432e-03,3.284588293972879637e-03,1.894462108612060547e-02
3.113400967553506260e-01,3.303945331717707545e-01,3.106263022468833679e-01,-2.368678346007058438e-03,5.634515047018875651e-04,1.127836134865362917e-03,1.996953599154949188e-02
3.140316249678872795e-01,3.305447729944166468e-01,3.092252216815220001e-01,-3.430475107828250339e-03,1.691011792180461496e-03,1.500726828630128242e-03,2.063477598130702972e-02
3.174311993934809673e-01,3.223970842465287978e-01,3.125218175791873998e-01,-3.519360006647911411e-03,2.015480558129097675e-03,1.729023890635855319e-03,1.146534830331802368e-02
3.121716256799150768e-01,3.241714778059453517e-01,3.157061852676082414e-01,-1.643848181085342088e-03,2.615958059162638589e-03,3.445227008692943425e-03,1.335367187857627869e-02
3.103242233725788668e-01,3.303569036706726636e-01,3.124804916953282663e-01,-1.268283567606197327e-03,8.510404558654832306e-04,2.248359981539056317e-03,1.961952447891235352e-02
2.671083228773873941e-01,3.321328734481260869e-01,3.343420937508548296e-01,3.168233973703772632e-02,2.421268977326471172e-02,-1.288317820859942106e-02,9.820758551359176636e-02
3.538074964390940935e-01,2.762790497899452191e-01,3.460291399715122451e-01,5.217471454130706565e-02,4.374988403324828884e-02,-6.436462374080109683e-02,1.783403903245925903e-01
2.961779820174750277e-01,3.327333382029817876e-01,3.311607453005518953e-01,1.387976465003110810e-02,9.899210251441470376e-03,-9.679849300026155748e-03,4.933868348598480225e-02
3.223194512234927034e-01,3.036484876621072804e-01,3.313321290168334543e-01,1.107143790933856099e-02,6.740317410571309599e-03,-5.773456573966998656e-03,3.467178717255592346e-02
2.747753476780745996e-01,3.282299270041511563e-01,3.404867038153572834e-01,1.207103355909754268e-02,4.185717532133995979e-03,-8.368843854478193872e-03,6.605001538991928101e-02
2.908372539295124293e-01,3.250273706549287600e-01,3.403569415165312861e-01,4.596569946296330360e-03,2.941787387276783954e-03,-5.316986556199808540e-03,4.585017263889312744e-02
2.920346619963982149e-01,3.164356567215563798e-01,3.396207956309045262e-01,7.380135401639540543e-03,3.468195142543146862e-03,-7.047597333731991757e-03,4.524588212370872498e-02
3.405046006172244288e-01,3.085423487302614287e-01,3.031514074509158996e-01,8.503188990283076093e-04,2.101602804201242486e-04,-2.738487013716625011e-03,3.532356023788452148e-02
2.915432404067320737e-01,3.106858021035539541e-01,3.383476276299572372e-01,8.553975328426843133e-03,2.421341979956158352e-03,-3.978393520036018795e-03,4.411026462912559509e-02
2.988080022774090572e-01,3.159908708346676476e-01,3.308667071526116277e-01,5.800011793779137788e-03,3.247914497052164368e-03,-6.022938970335995831e-03,3.183623030781745911e-02
3.980126478090041386e-01,3.090446112673245205e-01,3.134862665366426882e-01,3.068515417438130721e-02,-1.980913081186589861e-02,8.481596402644821231e-02,1.819974184036254883e-01
3.530288518750676063e-01,2.401689475579606992e-01,3.348047166996982460e-01,6.112970198015698145e-03,-5.317456021798176898e-03,4.436008809126214952e-02,1.308169960975646973e-01
2.676459754110255274e-01,3.412386354804549105e-01,3.543648364164707631e-01,-6.372078015316394624e-03,7.239177864571569136e-04,-1.681356753539068553e-03,8.176816254854202271e-02
3.513424267047765559e-01,2.776043030851200744e-01,3.323095509457016927e-01,4.980162710966525019e-03,7.401431691110463111e-05,2.576615672169084090e-02,8.038793504238128662e-02
3.922169158347569851e-01,2.638442325818050604e-01,3.237348037831939696e-01,3.078550915162014956e-02,-3.765252268487977866e-02,6.049169341627570751e-02,1.745056658983230591e-01
3.647959125981408146e-01,2.887723235295060475e-01,3.139311692134858500e-01,4.013991944255153842e-03,-3.362503900018654849e-03,4.143248735964558116e-02,9.865138679742813110e-02
3.426760980727633910e-01,3.455366115310688491e-01,2.664463378272682315e-01,-6.632142758419523956e-03,1.094090187011990782e-02,1.388186520989876521e-02,8.429946750402450562e-02
3.633178411483851677e-01,3.547418213693971922e-01,2.605019441707622785e-01,3.054576483178296237e-04,3.558968089348348712e-02,5.781439782718423431e-02,1.535922437906265259e-01
3.245797853995383564e-01,3.466749059291514001e-01,2.768863527137695457e-01,-2.296155600553282175e-02,4.568678581347584283e-02,3.413592302502457126e-02,1.231096237897872925e-01
3.417816620590634624e-01,3.329033129882884023e-01,2.764552728466225795e-01,-6.643267890919526963e-03,4.887844785287705218e-03,7.848044195368638135e-03,6.446099281311035156e-02
3.163283832526999628e-01,3.222561851777715480e-01,3.184642396289218413e-01,9.114135807501289998e-04,2.898830358898351060e-04,-1.513976407236181402e-03,6.054773461073637009e-03
3.392257746038086497e-01,3.043923676649964438e-01,3.071435872998988237e-01,1.426962962314695747e-03,-1.932280077255653893e-03,4.086835752421486695e-03,3.453284874558448792e-02
3.090683984798128225e-01,3.091678808509460974e-01,3.356407907728609641e-01,1.154715669669602925e-03,1.843566411957045775e-03,-9.200680556999711254e-04,2.683643624186515808e-02
3.396907203687428711e-01,3.097233206002310557e-01,3.079575749586773714e-01,1.510591051616180227e-03,-7.771816214273334720e-04,8.210150564483399520e-04,3.106054663658142090e-02
3.396175158504382008e-01,3.080913560498764747e-01,3.092687354199068483e-01,7.853255505495860839e-04,-1.458980017111766560e-03,6.535619068871993285e-04,3.110762313008308411e-02
3.226487084444840669e-01,3.153999416735038253e-01,3.158107445195714735e-01,7.876637906425274383e-04,5.844329901727500715e-04,8.326797506791151836e-05,7.255501113831996918e-03
3.181311346654273620e-01,3.177391873997602589e-01,3.180745298889876005e-01,4.252676283684557988e-04,7.771334227516711818e-04,-3.633959075189499891e-04,1.698580919764935970e-03
3.416933356800959110e-01,3.067271103826214040e-01,3.086989259771050209e-01,3.539383027125717366e-05,-2.881660850847333317e-04,8.356760341766123184e-04,3.405768424272537231e-02
3.108028079520988030e-01,3.435175198022082932e-01,3.086955451645618798e-01,-1.354643257460483264e-03,-5.900503777897500406e-03,-2.100788279971641925e-03,3.559247776865959167e-02
3.103538845251766487e-01,3.384731206269087078e-01,3.084771191383368083e-01,-3.210637568505368342e-03,-5.968895437861273384e-03,-1.306087045320489812e-03,3.146287053823471069e-02
3.029455260160990870e-01,3.404171300360177566e-01,3.077550492615507838e-01,-5.711107730744062472e-04,-4.176648466999136229e-03,-1.633756614579191455e-03,3.617113828659057617e-02
3.088754909605644361e-01,3.387052097379674165e-01,3.088813057653413963e-01,-1.155519742882393872e-03,-4.531528902359439502e-04,-6.219222383165145390e-04,2.992358244955539703e-02
3.139407155596538601e-01,3.143577511036729777e-01,3.266992653935472113e-01,-4.452782288675054961e-03,3.947258023274959580e-03,4.184454209027564132e-03,1.778727211058139801e-02
3.173732572230366644e-01,3.151316992564482944e-01,3.254682463181854390e-01,-2.904252774803948826e-03,3.104146302243841402e-03,3.360063077830865823e-03,1.329586841166019440e-02
3.302420651305705279e-01,3.132503772269302766e-01,3.183616848986641212e-01,1.097400442855920016e-03,6.674987471250127744e-03,-6.818497649579287681e-03,2.246659994125366211e-02
3.102416031371262317e-01,3.120968888763727689e-01,3.331055542365133348e-01,-4.712461766420012995e-04,5.643423478951739439e-04,2.043922327560237281e-03,2.231451869010925293e-02
3.395949203347237155e-01,3.047271198217476607e-01,3.086997748153731957e-01,-6.187413989464208381e-04,-2.884718026866419770e-03,-4.158611196035433971e-03,3.422021493315696716e-02
3.124524125654685736e-01,3.148861641422088797e-01,3.251544590969933091e-01,-1.919708044130510015e-03,2.161007793739503757e-03,3.366979458795900989e-03,1.397951599210500717e-02
3.105781719509063676e-01,3.147034416383209798e-01,3.285027180188391793e-01,-1.215341633174939120e-03,1.641492795312862480e-03,3.440895779486651679e-03,1.767477206885814667e-02
3.179557606357336641e-01,3.189819255045593382e-01,3.175240882109754414e-01,8.320095758080129061e-04,3.501045441641431155e-04,-3.973553833389791641e-04,2.144862664863467216e-03
3.281250895370470544e-01,3.128142260267066099e-01,3.134272276141118474e-01,8.270005883310844151e-04,7.301226691356056892e-04,5.200393702427141178e-04,1.516163162887096405e-02
3.200507933445363440e-01,3.170266711150095951e-01,3.181691857999028872e-01,2.607762912612366984e-04,8.398216519770280650e-04,-4.725641499928620679e-04,3.159970743581652641e-03
3.187299116609487171e-01,3.177350238088356149e-01,3.181354200887309136e-01,1.526419642913477172e-04,2.435663498556845893e-04,-6.720963290662848653e-05,1.006575068458914757e-03
3.178836827821537314e-01,3.185413095899014557e-01,3.188652500484782104e-01,5.170744009288625546e-04,4.262910998023551569e-04,6.005313225241218286e-08,1.448348164558410645e-03
3.178613445032011930e-01,3.195284567022153022e-01,3.158504204259929282e-01,1.854666636950714435e-03,1.410784350818142761e-03,-8.749389243521639480e-04,5.363055970519781113e-03
3.194046976489905432e-01,3.169278264114216981e-01,3.173765213792463791e-01,1.670638160914979155e-03,2.625863362965850066e-03,-7.747416894987777490e-04,6.007004529237747192e-03
2.809532517273417573e-01,3.142818508677344136e-01,3.598017615276260517e-01,3.088199648354301996e-02,-4.499431963661302582e-03,-6.265070505699378393e-03,8.797473460435867310e-02
3.277088856105835335e-01,3.199694652742166023e-01,3.111290825852437991e-01,4.305950599824031819e-03,1.811225927704534795e-03,-1.594754461541254961e-03,1.672020927071571350e-02
3.310450434227446004e-01,2.717013234053883286e-01,3.391260185532713467e-01,1.081008625389773443e-02,1.092592323399590656e-02,-9.415948994182715692e-03,7.100152224302291870e-02
3.155725085037469624e-01,3.191431905659735113e-01,3.169631392812222170e-01,7.263017528532008391e-04,1.408965146576036118e-03,-1.255082795004480029e-03,4.688487388193607330e-03
3.117974310557929951e-01,3.143487324355411228e-01,3.314410563418678235e-01,-3.858937739108282174e-03,4.423296751800500498e-03,3.902551214124020361e-03,2.216584980487823486e-02
3.505779803155946728e-01,3.522668217737070506e-01,2.482201124087297650e-01,-1.354205353621609677e-03,-1.739981835927222227e-03,-1.946412546337020991e-03,1.033382862806320190e-01
3.104568199355429714e-01,3.103878514675493250e-01,3.396986279456409852e-01,-6.335268993946738085e-03,3.773846454575829207e-03,3.104986911063241893e-03,3.239074349403381348e-02
3.062326601840268947e-01,3.109162421291026268e-01,3.360639896318637354e-01,-2.638471134124352989e-03,1.486481392964002050e-03,3.079959947818842678e-03,2.877670340240001678e-02
3.079570702208740407e-01,3.096787937755584030e-01,3.398903430871791920e-01,-7.726272477275537625e-04,5.033916146852240045e-04,1.452972183668917172e-03,3.125064074993133545e-02
3.632499011968119418e-01,2.321493822840037247e-01,3.505029882910858374e-01,4.598862754123739585e-03,-4.118204127143569419e-03,-2.487656129457653520e-02,1.328516453504562378e-01
3.136409312835328200e-01,3.280640037138913834e-01,3.155673284716131177e-01,-1.114492923848092775e-03,-1.349804915853829862e-03,-8.430128741915884471e-04,1.397410687059164047e-02
3.223402866003488576e-01,3.168139586963295562e-01,3.127918530626777049e-01,-3.003688419198753852e-03,1.980261277918515112e-03,2.050007804052522437e-03,1.097193919122219086e-02
3.310778273125444815e-01,3.150908601697037237e-01,3.138016290288070387e-01,-4.076599868163963657e-03,3.791073672780269702e-03,2.763471128007809197e-03,1.984286122024059296e-02
3.390588582121268901e-01,3.089024709614758835e-01,3.076254226746617526e-01,5.332655236123108562e-05,6.506405078944135561e-04,-5.806904760557750128e-04,3.085190244019031525e-02
3.056796038288220885e-01,3.373654941569501076e-01,3.151726875464033184e-01,-1.007228279796579555e-03,-2.308817575371881117e-03,-3.854537399740892191e-03,2.927328646183013916e-02
3.322429407908313870e-01,3.117644996271057845e-01,3.133358178417678386e-01,-3.600680963517572351e-03,3.276979791468497688e-03,3.910350878812580804e-03,2.250867523252964020e-02
3.004877669976034893e-01,3.448787565632132068e-01,3.144700881718084373e-01,2.512916268671396350e-04,-3.821181083100324248e-03,-1.473777091142767061e-04,3.986771777272224426e-02
3.124871921891994586e-01,3.120651928638943362e-01,3.282877522336316578e-01,-7.912301981279025107e-04,-1.019569398704150759e-03,-2.497498847137514123e-03,1.673955842852592468e-02
2.473090435135010812e-01,3.315573421950658850e-01,3.748715922431208880e-01,-5.668905725539960527e-02,-1.163103700444863622e-02,-8.330184215369809686e-03,1.512548178434371948e-01
3.089869125347142753e-01,3.350434972218553908e-01,3.123471881252253834e-01,-8.274250083990404830e-04,-1.635585800872461394e-03,-8.389578893654704673e-04,2.479658462107181549e-02
3.283560382018606005e-01,3.146836812223975377e-01,3.111426216375595688e-01,-3.620146560429008190e-03,1.525472739907965565e-03,1.338759814297689086e-03,1.730784587562084198e-02
2.946838209202236047e-01,3.267434377783058896e-01,3.369793101396182378e-01,-3.176621820033477019e-03,-1.951826560714069181e-03,-5.917298357372848851e-03,4.009358212351799011e-02
2.838955676305206510e-01,3.486666925093602765e-01,3.267001767563276760e-01,1.435515910010854703e-03,-5.428645480431635618e-03,3.762431489793145387e-03,5.824165791273117065e-02
3.049683020698961133e-01,3.412417832104099324e-01,3.096143062091205600e-01,1.624835099705632677e-03,3.804253488214687923e-03,-1.813619398051226350e-03,3.507176786661148071e-02
3.085933431214634703e-01,3.383536158776541680e-01,3.103161350645392558e-01,2.343074471307011759e-03,6.060721877040985660e-03,-3.005337898805868126e-03,3.148228675127029419e-02
3.057069581242992662e-01,3.354693348411262876e-01,3.175390651797802000e-01,-1.375867699470785998e-03,-1.858084263173779942e-03,-3.644261719136875251e-03,2.700971253216266632e-02
3.087817325477839603e-01,3.436728043539265531e-01,3.081920645225329491e-01,1.222447738509231186e-03,6.864973776671719902e-03,-8.137446024312093356e-04,3.723119571805000305e-02
3.028213822165941593e-01,3.409495503315388976e-01,3.087086961213496572e-01,2.542571037001183998e-04,5.011578661579255828e-03,-1.076135703244178801e-03,3.664643317461013794e-02
3.300710476856120734e-01,3.084754858237559461e-01,3.147252105346783346e-01,1.748333660890182342e-03,2.997463881545314734e-03,-2.608797399334311217e-03,2.066404744982719421e-02
3.310709073349792364e-01,3.085843990426567207e-01,3.119562823842295107e-01,1.227621191624170662e-03,2.937539226873550624e-03,-2.960524398024256317e-03,2.231352590024471283e-02
3.311894443279925215e-01,3.123388874910478230e-01,3.105203796460991317e-01,2.217900356454749044e-03,1.082470002842949924e-03,-9.200916060414672786e-04,2.034066244959831238e-02
3.108312457607729784e-01,3.281702897452133394e-01,3.203050107125728907e-01,-1.513098599023381726e-03,-1.787569956732882291e-03,-3.580818040861048421e-03,1.676454767584800720e-02
3.106180611225439758e-01,3.274213509605084504e-01,3.173622318310360124e-01,-1.658485025743625671e-03,-2.498089959887287922e-03,-5.230301776088268004e-03,1.798753440380096436e-02
3.399421558000670918e-01,3.090965482018471766e-01,3.062197409909619972e-01,-3.489281045557069512e-04,-1.871139181709204882e-04,-9.925087602791267827e-04,3.243285045027732849e-02
2.928657509139135917e-01,3.391184541480470327e-01,3.270162532508976150e-01,-2.000624768406562663e-03,-3.757629936730408696e-03,-4.973220980759724720e-03,4.306485876441001892e-02
3.280402327872437573e-01,3.136289237964410281e-01,3.111021915809369931e-01,3.659660065977908376e-03,1.576649674931911637e-03,-3.317835800887315983e-03,1.819738000631332397e-02
3.111525729453876732e-01,3.076238749648057547e-01,3.433710661973764511e-01,-6.354856027943235272e-03,-1.237862794883130401e-03,-1.011475197860955228e-03,3.595818579196929932e-02
3.072136120045562691e-01,3.084254423951458546e-01,3.416247147330984668e-01,-8.669734671338309067e-04,-2.838887576710053527e-04,-1.920193464004541981e-04,3.385999798774719238e-02
3.110680366851403256e-01,3.076199495428428854e-01,3.399378638170434397e-01,-6.619107340155265876e-03,-1.650729556124808615e-03,-1.456278828272719811e-03,3.302842006087303162e-02
3.022830637755238858e-01,3.069758415344408520e-01,3.401762748324335117e-01,-5.159916695761048236e-03,-5.930392425465504016e-04,-1.066645369499167554e-03,3.693826869130134583e-02
3.036618479245838942e-01,3.440772686133140024e-01,3.086319118179120524e-01,-4.593165307476434036e-04,-4.318638016984319844e-03,7.012613111388106861e-04,3.892686218023300171e-02
3.043247476281554786e-01,3.390061699048232957e-01,3.079514948590347800e-01,9.894906765923470234e-04,-4.365952199015102342e-03,2.201030126347588295e-03,3.412959352135658264e-02
2.904770017785155423e-01,3.387650262995510753e-01,3.140380842300476982e-01,1.516944345997121900e-03,-7.558633974865816910e-03,3.693780939359397365e-03,4.436636343598365784e-02
2.738287728098026119e-01,3.972767706531596943e-01,3.123452192742664502e-01,-1.329483250580133606e-02,8.442476107295719678e-02,1.760957866061014848e-03,1.840932518243789673e-01
2.998465248401376848e-01,3.429655736492262519e-01,3.006729919694184905e-01,5.264177575949158358e-05,1.395099533752909224e-02,1.398851363545011424e-04,4.907399415969848633e-02
3.214717077647747945e-01,3.259538361829372732e-01,3.116070982780054788e-01,-7.847275954169763076e-03,7.714540217197042235e-03,7.776194150886440656e-03,2.657637372612953186e-02
2.845760540663607174e-01,3.645409846530447417e-01,3.260907507267284955e-01,-1.413950844753268481e-02,7.181286390437884026e-02,2.536160485341544708e-03,1.445284634828567505e-01
4.621376054587014170e-01,3.756273588061371793e-01,1.772101305334081445e-01,2.493372475641024173e-03,-6.315549567615717612e-03,-7.930712937762114667e-02,2.881418168544769287e-01
2.695419002221470239e-01,3.469137100667181173e-01,3.306817186687140420e-01,7.376461201380817793e-04,1.109225526912122409e-02,-2.806643994119717260e-03,7.340541481971740723e-02
2.890405169863695667e-01,3.430638575987235983e-01,3.136212560940039307e-01,2.012025588203988794e-04,7.116454090529321375e-03,-4.826987200877548784e-04,4.845155030488967896e-02
2.860397562997060161e-01,3.501048185563452320e-01,3.261817408042934630e-01,6.552179050870919012e-05,-6.128965612784470843e-03,-9.350158686707069587e-04,5.709063634276390076e-02
3.187256095240283416e-01,3.184161341236086962e-01,3.179998107373600003e-01,1.241942137936980200e-04,-3.597606919940246747e-04,-7.418683485518626848e-05,9.214168530888855457e-04
2.701900038982356644e-01,3.479272319471741759e-01,3.312245166041272171e-01,9.621055955844053600e-06,9.878123962605386832e-03,-5.527419882314720629e-04,7.291970402002334595e-02
3.247025165089264531e-01,3.191287404540646966e-01,3.110267333037167736e-01,9.986379211370624218e-03,-7.813262465433862963e-03,1.168377349071028116e-02,3.215158730745315552e-02
3.223798536734063247e-01,3.145890260642278946e-01,3.167281237928502025e-01,5.108684203763968860e-03,-4.951097901619022287e-03,3.806608971926441626e-03,1.561775524169206619e-02
3.219916911628137313e-01,3.224948359799226227e-01,3.067797225168234498e-01,6.473581199241543356e-03,-4.096283105821303151e-03,2.533205940481860537e-03,2.084760740399360657e-02
3.226812210483119281e-01,3.100191212301448007e-01,3.200278296037707415e-01,7.521374263676891461e-04,-3.849320408953028384e-03,1.095310219088764005e-03,1.354694832116365433e-02
3.160572647068599639e-01,3.207159118023552580e-01,3.219578809651487683e-01,6.586169785965633079e-03,-5.330556071113027976e-03,4.982274634719830592e-03,1.785715296864509583e-02
3.237014392598378532e-01,3.130169091862708419e-01,3.182647564490103109e-01,2.386148667268119927e-03,-3.381462837416000702e-03,2.324814721717734321e-03,1.237847283482551575e-02
3.220676241333504386e-01,3.153376945664432829e-01,3.164286596917452177e-01,-1.714602317769062549e-03,-1.069490139235934828e-03,-1.045538979607459973e-03,7.393950596451759338e-03
3.195259154047805916e-01,3.195040217188914178e-01,3.134817879188080969e-01,-4.650048613710397113e-03,-1.379170897090340906e-03,-1.595749388518659124e-03,1.070579607039690018e-02
3.407922234907226899e-01,3.078393701352698519e-01,3.080531383755583663e-01,-1.443582843637752325e-04,9.043788478511564227e-04,-1.462794583065761371e-03,3.298223018646240234e-02
3.264333307390878125e-01,2.899969220088131627e-01,3.437021378472735478e-01,-4.758908067607326917e-03,3.319343073397401644e-03,1.210351885670766028e-03,4.858423024415969849e-02
3.087302738101705413e-01,3.092540109726722442e-01,3.440461552666292944e-01,-6.252088738524156156e-03,7.130523474235019032e-04,7.818853768373646568e-04,3.673710301518440247e-02
3.077914109423389166e-01,3.028816062168958045e-01,3.414772550133492457e-01,-3.448279356435651668e-03,2.117906903041403232e-04,-8.623675809787510348e-05,3.687901794910430908e-02
3.039846387231086022e-01,3.100174150923061256e-01,3.391419286344893869e-01,-4.058790799361080420e-03,1.813531925427252795e-03,3.231293021854589418e-03,3.392558172345161438e-02
3.085014501979058688e-01,3.082925509039704526e-01,3.397065616287419099e-01,-6.330195380319369146e-03,8.776238438605869947e-04,2.417678792534513205e-03,3.347210213541984558e-02
3.355614964338369810e-01,3.080714473690030486e-01,3.092735984024900242e-01,-6.159249306572522247e-04,-7.788726914149523162e-04,-5.953097024334981155e-04,2.698373608291149139e-02
3.288911474829235848e-01,3.154751234952128391e-01,3.120522630124379915e-01,-3.008108522935134220e-04,-1.291082336874194592e-03,-1.302899993447492613e-03,1.574775017797946930e-02
3.078776770622935754e-01,3.025310194263396979e-01,3.405219729905323844e-01,-3.796377290435803964e-03,8.353653813367331550e-04,4.184532291271229280e-04,3.625784069299697876e-02
3.086619335241838069e-01,3.443312609123823087e-01,3.088159511991770412e-01,7.053518035587886311e-04,-7.042361911864279851e-03,7.244386158282322590e-04,3.766540065407752991e-02
3.098147277589517468e-01,3.390515990847909333e-01,3.047334788157244900e-01,2.614507684404476957e-03,-3.867242743625915954e-03,1.271752067455407705e-03,3.315718844532966614e-02
3.281737064388763336e-01,3.014008749331847370e-01,3.270277488968367785e-01,-3.014847027583742334e-03,-6.740502281795463478e-03,-2.575073286754633699e-03,2.951069734990596771e-02
3.085358934729000024e-01,3.416603262946789621e-01,3.080700914947807068e-01,4.533056747132911896e-04,-6.945584275105222763e-03,-1.176372677004847763e-03,3.552978858351707458e-02
3.076773376880904132e-01,3.392227184706093079e-01,3.092142549467336021e-01,7.107195516566670260e-04,-7.648561511364855526e-04,1.549616780354478706e-03,3.097523003816604614e-02
3.283012448950238804e-01,3.196822648497548713e-01,3.079434417252108758e-01,-3.997019660979071048e-03,-1.250869896979009020e-03,-1.809400035345217275e-03,1.938318274915218353e-02
3.481848583930384766e-01,2.837378099510131646e-01,3.268611355843913380e-01,-2.107037716238777895e-03,-4.114305740771881728e-03,-4.127247863268686257e-03,5.787120386958122253e-02
3.082793033638165370e-01,3.409528140828730902e-01,3.026009817165042914e-01,6.546338043470888851e-04,-5.181898710410025831e-03,1.962685972888709627e-04,3.697688132524490356e-02
3.189901447543361246e-01,3.171179866814983206e-01,3.179431248829381329e-01,-6.907483384617672199e-04,-9.313886795055226035e-04,-4.586160921943181670e-04,2.702939091250300407e-03
3.301439921483319551e-01,3.141824603571661823e-01,3.152682178032044091e-01,-4.447770716814416180e-03,-3.632123315639889348e-03,-3.054356008742360826e-03,1.911887153983116150e-02
3.330854148595352449e-01,3.138262717276350533e-01,3.113736985278766634e-01,-3.624596895949524535e-03,-4.106662556297760100e-03,-4.599794413796432814e-03,2.403425984084606171e-02
3.229384168457998250e-01,3.126147560991771601e-01,3.165373173624616565e-01,-1.891184776543896207e-03,-2.840018246170381531e-03,-1.624389788102532407e-03,1.114953123033046722e-02
3.353522884927249703e-01,3.095310733661905678e-01,3.119712241326247915e-01,8.310504407687142317e-04,-8.112750398502422203e-04,1.629807106443039973e-03,2.493385411798954010e-02
3.196810354973446122e-01,3.196152193630091287e-01,3.178450334977468983e-01,-2.421348814748515866e-03,-2.461598270571986428e-03,-1.658540343473116283e-03,6.875598337501287460e-03
3.272974475405581729e-01,3.134824954126712582e-01,3.106153802494728833e-01,-3.819497155329280511e-03,-2.368019911483058154e-03,-2.367522549014873003e-03,1.777880825102329254e-02
2.114718678656667405e-01,3.825988804601866411e-01,3.649316319421367916e-01,-8.658683425660947119e-02,-6.549477116218398176e-02,-4.223051957108445859e-02,2.593916356563568115e-01
3.447732997211073180e-01,3.305062964919391888e-01,2.860110859250904469e-01,4.144013779360492152e-03,-1.284962983945159634e-02,2.344153335689345280e-02,7.080648839473724365e-02
3.415064808517004336e-01,3.238934551743098966e-01,2.720474105340436877e-01,7.999181688299999635e-03,-5.227354163848104383e-03,1.433249949400807778e-02,6.929354369640350342e-02
3.182280866040447243e-01,3.181813158294756749e-01,3.178064454191963928e-01,-6.360252552755615634e-04,-1.664814595776567541e-04,-1.794484014767464811e-04,1.246429397724568844e-03
3.333300283826473587e-01,3.169276590385291525e-01,3.056552458924397531e-01,5.863552255793673743e-03,-2.744971903154140580e-03,2.105958950206268925e-03,2.683380059897899628e-02
3.409958535594242446e-01,3.141769651894296134e-01,3.015432729829549685e-01,2.876398865030196841e-03,-8.680579070671264746e-04,2.080203732708919666e-03,3.546474128961563110e-02
1.691812656492245881e-01,4.047256266394093083e-01,4.193982419047868615e-01,-1.065612402022111938e-01,-4.248100256553517806e-02,-5.535297702432004363e-02,3.283658623695373535e-01
3.160584831107859927e-01,3.178537749887558328e-01,3.222288175222545736e-01,9.367566206745321297e-04,8.166093091904377257e-04,-5.125182213152664618e-04,5.969896446913480759e-03
3.164251962264325035e-01,3.212247644004435077e-01,3.153398639182877772e-01,-7.429519264483064669e-04,-6.456433290841928369e-04,-2.063129825834281086e-03,6.715574301779270172e-03
3.187558439432333635e-01,3.190820735116985940e-01,3.178850075236580031e-01,2.017836024517054267e-08,-2.382300109388099446e-04,-3.108483806761424260e-04,1.268469612114131451e-03
3.178494306035176131e-01,3.244521258428824106e-01,3.128245601144188370e-01,3.727077893187537468e-03,1.672199836654772887e-03,-1.481433025998426167e-03,1.259637344628572464e-02
3.159717732652780331e-01,3.123591217736398917e-01,3.249602930089328656e-01,2.425693994693985198e-03,3.688549372834960989e-03,-1.458038095822476298e-03,1.382616814225912094e-02
3.128017224173713084e-01,3.148379489931589781e-01,3.248488881005586748e-01,2.148153515879919814e-03,1.410375972141748348e-03,-3.966170046375233280e-03,1.384746748954057693e-02
3.158598679097030515e-01,3.151221693638588950e-01,3.213653479475453989e-01,5.898746238193894797e-04,7.256706240083054052e-04,-2.115113725178542712e-03,7.138673681765794754e-03
3.188258963324799855e-01,3.180520382123082634e-01,3.178253852735207219e-01,4.488710073165488347e-04,1.222876333928990327e-04,-1.470338092249428327e-04,1.240886864252388477e-03
2.429187047900089325e-01,3.549883142829172167e-01,3.519166478843662738e-01,-1.063732800396372620e-03,-3.353618974767091313e-03,-8.762824362418262288e-04,1.107439845800399780e-01
1.965981906831496262e-01,3.556847812128091091e-01,4.436113959989683164e-01,-1.533790111145737489e-01,-7.681440648402529381e-02,1.101206456901669337e-02,3.683314919471740723e-01
3.115297898941954968e-01,3.198567750294111778e-01,3.221188801643121713e-01,1.322918233917753624e-03,1.746489978697265098e-03,-3.993829795122952678e-03,1.247178297489881516e-02
3.146594990869914787e-01,3.283559293791460387e-01,3.103389698853438738e-01,3.359594424897515644e-03,1.734921077938290750e-03,-1.566248246143419351e-03,1.776752248406410217e-02
3.991542372608081757e-01,4.606805387485825021e-01,2.341693685685217741e-01,3.650227620977007648e-02,1.382478637877341265e-01,-8.036397439424323996e-02,3.490933477878570557e-01
3.281267419078587322e-01,3.133412897944319875e-01,3.138486389460032888e-01,-1.746880639405807949e-03,-3.538271367132214771e-03,-3.524964988397860741e-03,1.718588359653949738e-02
3.167639401020297396e-01,3.183442785720906332e-01,3.190471924501290801e-01,6.813720886648101617e-04,9.656167642293517640e-04,-9.957402270457712395e-04,3.356627188622951508e-03
3.244087932218284731e-01,3.163706602955096980e-01,3.169255073533442935e-01,3.407885025004602809e-03,2.784717366972454082e-03,-3.459135171675829703e-03,1.242824736982584000e-02
3.219425380205093168e-01,3.173795571741200860e-01,3.140007694178549857e-01,3.267967434193600872e-03,1.512470694956977516e-03,-2.501521628338627262e-03,1.026297733187675476e-02
3.442047506199159557e-01,3.143964745196199950e-01,3.020986052519710752e-01,1.877442932864886033e-03,1.311614526688440266e-03,-2.617314826108990602e-03,3.798204287886619568e-02
3.191631669148152217e-01,3.159544810084231603e-01,3.190930718143540901e-01,1.474619256486206769e-03,1.793026412663099520e-03,-1.080453234687921539e-03,5.454002413898706436e-03
3.175265963989022389e-01,3.284425724250541467e-01,3.091353603406427619e-01,3.914654607241761265e-03,1.123877264249317862e-03,-1.288095009472638120e-03,1.832785643637180328e-02
3.133104107226691859e-01,3.119034921162323615e-01,3.287045876706531922e-01,7.282792025027094718e-03,7.089859537345049971e-03,-6.810573430423906040e-03,2.663992717862129211e-02
3.142898337381621610e-01,3.171039729041512656e-01,3.219722237806428300e-01,2.442823941390689143e-03,1.854069340386166592e-03,-3.235680517708127563e-03,1.024416647851467133e-02
3.142683004347338049e-01,3.220350407989762131e-01,3.164047885673371141e-01,1.812657235913861433e-03,2.581542452578186771e-03,-3.316650135923671170e-03,1.054248772561550140e-02
3.444302938707690109e-01,3.417667702661987272e-01,2.698575191098402382e-01,-5.770374056922559537e-03,-7.801875231879659353e-03,-5.058575537323118342e-03,7.568906247615814209e-02
3.154396042839052727e-01,3.248528823382957342e-01,3.143200081426430481e-01,1.810081451791808668e-03,5.574103854940971924e-04,-3.076388692291472625e-04,1.055687479674816132e-02
3.082565066880522675e-01,3.401144681560440142e-01,3.054244465705104328e-01,3.748569106254693618e-04,-6.241613031938078723e-04,3.945040131998802648e-04,3.339507803320884705e-02
4.183469880150070264e-01,4.585851564335579056e-01,1.222669792145306966e-01,3.182404454851003178e-02,2.081214797382411903e-03,-2.719190552171628361e-02,3.262908160686492920e-01
3.161947581774520177e-01,3.225811624742072059e-01,3.157354305720191379e-01,7.980323055834835991e-04,-3.593513719740897634e-04,-4.448984141789508423e-04,6.842686794698238373e-03
3.280367755535436580e-01,3.130464602176167843e-01,3.150845622861876971e-01,-5.975983649073834643e-04,-2.051395327102268143e-03,8.804684700810543507e-05,1.456128153949975967e-02
3.018354487467514446e-01,3.443242089251440374e-01,3.153494229868217813e-01,1.368017708270320666e-03,-1.870771832314477648e-02,3.701331336040183397e-04,4.969599470496177673e-02
3.347553439677704024e-01,3.198317516672612437e-01,3.045947093184504517e-01,9.214674042479747973e-03,8.007156295508615490e-03,-1.588670547404012409e-02,4.343396052718162537e-02
2.332824842617492178e-01,3.977828499230565695e-01,3.697523132423460313e-01,-3.435960852838129600e-03,-4.532371433551666412e-02,1.231280930337338379e-03,1.715742647647857666e-01
3.108164765169537658e-01,3.176579772125059375e-01,3.280486055136353496e-01,-2.079541289405822946e-03,-1.565251726104857806e-03,-4.905456505062484769e-03,1.784300431609153748e-02
2.709054548804130658e-01,3.547286999438510890e-01,3.382492293256681992e-01,4.738888576095378561e-04,-1.372105168899070970e-02,-3.345603847198074660e-04,8.051308989524841309e-02
2.870084168546808145e-01,3.412019608864166331e-01,3.039052944117102140e-01,-1.262983700975382588e-02,-2.890956341630425419e-02,-1.098194031090379830e-02,7.519560307264328003e-02
3.444505051474950341e-01,2.862797892658454080e-01,3.248608496072011298e-01,-1.670300675263299050e-03,1.037913910620759904e-03,5.096030991889104363e-03,5.213015154004096985e-02
2.846001671543080813e-01,3.456068642531852086e-01,3.144773486361375214e-01,2.619277081508643735e-03,-1.008685719767692460e-02,4.060377388450641008e-03,5.627637729048728943e-02
2.699315946588558002e-01,3.490210792345829760e-01,3.338155007486073855e-01,-7.013629713997108573e-04,-1.496229393658610185e-02,-5.337100479132311087e-03,7.773220539093017578e-02
3.487785149896569514e-01,3.418826748850294361e-01,2.677787745946095810e-01,-2.873249658169938717e-03,-2.771539218124858400e-03,-5.646814455418626422e-03,7.869828492403030396e-02
3.206130448989623072e-01,3.113108439133582261e-01,3.252621995584075165e-01,-7.455199996305821725e-03,-5.908415525630262601e-03,-5.152564466086130730e-03,2.241668663918972015e-02
3.086207166034942717e-01,3.447190537716018355e-01,3.114373738122064306e-01,-2.029263941794484747e-03,8.832054439643315449e-03,1.436314649831919778e-03,3.823486715555191040e-02
3.120765728941761186e-01,3.394148388120216131e-01,3.115203598778191196e-01,-4.695317419248751234e-03,7.503472636725249528e-03,5.017859086569991141e-03,3.276396170258522034e-02
3.075576167068173050e-01,3.389465520397691445e-01,3.098714738210559538e-01,-7.517114417422974312e-04,8.432007534251873687e-04,1.255258881139929882e-03,3.043919987976551056e-02
3.066005736051462538e-01,3.400732800985610260e-01,3.082372785890968303e-01,-5.670449664752956823e-04,4.262229396155605148e-04,1.424876226191319848e-04,3.270911797881126404e-02
3.514168509217296954e-01,3.547800103887879253e-01,2.484666163181368514e-01,1.640717328713715351e-04,-1.770119851409591169e-03,-2.056831829450590527e-03,1.047782078385353088e-01
3.022068651944448958e-01,3.443264648330982558e-01,3.102958688359243045e-01,4.565721118176849181e-04,3.823711364999252647e-03,1.638991699613997826e-03,3.938697278499603271e-02
3.082236970749291372e-01,3.420162635804812057e-01,3.075427871705820881e-01,2.173516783165804355e-04,8.338054826976839780e-04,1.238085301418004856e-04,3.417139500379562378e-02
2.713894119976903996e-01,3.406086013033888804e-01,3.458106580214896919e-01,-4.832249453772706309e-03,5.478135627538369655e-03,6.070904525896065641e-03,7.381794601678848267e-02
3.121352294187107468e-01,3.211051756407473645e-01,3.175754432028217167e-01,-2.030596384869539413e-03,-1.439652596549600766e-03,-2.942608486921259158e-03,1.028698403388261795e-02
3.174212491639565870e-01,3.158190416681815882e-01,3.209465846421846735e-01,2.039437319905036770e-03,3.421977344662841328e-03,-2.353345101875584534e-03,9.212261997163295746e-03
3.181480386298310425e-01,3.170345480555017414e-01,3.190855896222361543e-01,6.648969186325434048e-04,1.247349032290502764e-03,-8.175878331484226925e-04,3.340968396514654160e-03
3.279524687713408770e-01,3.182684043456880940e-01,3.078419208318824429e-01,-4.785347312385220681e-03,-1.245036028981770905e-03,-1.775561096154554524e-03,1.965375989675521851e-02
3.197436013687643408e-01,3.231115347388810455e-01,3.118635958616954862e-01,-4.757649563984682820e-03,-1.500231285212257982e-03,-2.973197448448474875e-03,1.418288704007863998e-02
3.232005540571119551e-01,3.203045006686144336e-01,3.146917612140214815e-01,-6.106348847059656949e-04,-4.020861084143874734e-03,-4.871258141472169755e-03,1.330236159265041351e-02
3.119885605588253452e-01,3.276939111068513655e-01,3.134488314678797738e-01,-2.713219484732955385e-03,-1.312344453788155283e-03,-1.153053805573422226e-03,1.603422500193119049e-02
3.280426578112236036e-01,3.130904836512951039e-01,3.095488648732390158e-01,-3.114089183547162284e-03,-1.702428975272513760e-03,-2.079224955057990334e-03,1.843427307903766632e-02
3.231141484398661889e-01,3.107335589600506154e-01,3.199787238610405371e-01,-9.525003375520529371e-04,-4.956607278986917796e-03,-1.201782514035149929e-03,1.431956607848405838e-02
2.948621308587565104e-01,3.269991667344384068e-01,3.395627507892161612e-01,-3.150366829744827898e-03,-1.388326811464386194e-03,-4.644299397789339832e-03,4.116617888212203979e-02
3.211423416239652662e-01,3.198512166814827529e-01,3.102889422528727903e-01,-8.463466184487572139e-03,-6.789822399213760185e-03,-9.018996283916412560e-03,2.650797739624977112e-02
3.122813837265305814e-01,3.254987316956324261e-01,3.139736441582509086e-01,-2.290245364459612878e-03,-3.490075608987570042e-03,-3.909182223187852509e-03,1.591595076024532318e-02
3.150397806952774937e-01,3.223935566914774009e-01,3.153244797683654177e-01,-9.202239882423609522e-04,-3.056803230553607428e-04,-8.299107698575811142e-04,7.546686567366123199e-03
3.042454564600551858e-01,3.127325129242522483e-01,3.379204146971848122e-01,1.104243242222332187e-02,5.745307487678346335e-03,-1.014442137438785300e-02,4.115569218993186951e-02
3.285602448657647945e-01,3.036822446766380135e-01,3.179387496300013494e-01,2.017865533103083142e-03,5.553256952984597823e-03,-1.205696991598959435e-03,2.401212044060230255e-02
3.146701485332901171e-01,3.266544638249165300e-01,3.155413168427179671e-01,-8.948601924133302039e-04,-7.149807234813858456e-04,-1.887949985822477347e-03,1.218898594379425049e-02
2.842654284549941401e-01,3.475860535336265378e-01,3.091326669121064463e-01,1.119038290383549605e-03,2.499117590405108488e-02,-1.243770736922162994e-03,7.025201618671417236e-02
3.072193160425879532e-01,3.486849167412637840e-01,3.443872352154931371e-01,5.169559640105953618e-02,6.378563143018459169e-02,-4.733557231671400162e-02,1.688335090875625610e-01
3.158394427782293956e-01,3.169901114279196630e-01,3.163874859420993668e-01,1.984566521517304276e-03,2.029923999089740076e-03,-3.612098824386447346e-03,8.019528351724147797e-03
2.797962645857891006e-01,3.245330739723746305e-01,3.515372157223947136e-01,-2.416126488304057643e-02,-5.365522622437993681e-03,1.661473620150705861e-03,7.605677843093872070e-02
3.103569486984846248e-01,3.336629481939784037e-01,3.100464442495183826e-01,6.207459269801525112e-03,6.116231406650245346e-03,-4.923105805764520747e-03,2.917252294719219208e-02
3.095483864108876104e-01,3.093578561851413333e-01,3.312002708031188680e-01,-2.743396455640287595e-03,-2.766644162389828542e-03,-3.437038025251396359e-03,2.353608049452304840e-02
2.888969032298634443e-01,3.396551121497805026e-01,3.281980502744556438e-01,3.064392617868564022e-03,4.304113745834225145e-03,-6.593363632581914456e-03,4.837649315595626831e-02
2.608378607713883746e-01,3.470719860947166779e-01,3.425399819877842367e-01,1.406892688992082002e-03,6.205979489708389647e-03,-1.579034785780278295e-03,8.482340723276138306e-02
3.010471814775308452e-01,3.203368574985619444e-01,3.741473717457962089e-01,7.328843034007570534e-02,3.202399198541557718e-02,-3.076402095352590710e-02,1.622809767723083496e-01
2.683613890766267662e-01,3.461215119605422497e-01,3.460527985110095628e-01,2.662748902885405181e-02,1.015743244594919520e-02,-7.602011457958874480e-03,9.301214665174484253e-02
3.124890680602105952e-01,3.306601103907388373e-01,3.104281175469555953e-01,1.973575748900912186e-03,9.075776145605911251e-04,-7.267523744551202284e-04,1.968818157911300659e-02
3.136558844838389648e-01,3.152539995983977272e-01,3.241878839481666108e-01,5.320149620097624652e-04,-6.127941669113653187e-04,1.919731916345853405e-03,1.047269906848669052e-02
3.179075099096933532e-01,3.172327436944110679e-01,3.195530331399477619e-01,5.019833112103076408e-04,-8.301023164295583253e-04,-1.723037322935599906e-06,2.663940656930208206e-03
3.657362047460802068e-01,3.286214870186545678e-01,2.823962555163875288e-01,1.053207105477505868e-03,-3.071923538982010340e-03,-2.598434983780559607e-02,8.536455780267715454e-02
3.442940147853296717e-01,3.255448140866571971e-01,2.832626950177548619e-01,-3.519168021538874452e-03,-3.956614788071762586e-04,-5.435338972505615596e-03,5.530206114053726196e-02
3.161432680528064587e-01,3.144519938943406423e-01,3.211500091675071333e-01,1.392135301665735000e-03,-2.687786854809115587e-03,1.498991861330448670e-03,8.403765968978404999e-03
2.854100878231280447e-01,3.117089659553061720e-01,3.414026826046456797e-01,2.417838885854461939e-02,-8.207602964600603859e-03,8.893480095797087759e-03,6.743454933166503906e-02
2.688394815877847011e-01,3.294831914414120821e-01,3.492548520661017397e-01,1.436051227447652200e-02,-3.578965047814744276e-03,5.056380192429187244e-03,7.746873795986175537e-02
2.503374702013458908e-01,3.336923876755034102e-01,3.549877243684675943e-01,4.166721580877959241e-02,-7.698759743111245613e-03,3.081606106738205269e-03,1.207947731018066406e-01
3.312289312005202713e-01,3.077577420831954513e-01,3.129756476656319619e-01,-1.899169461774422116e-03,-3.716106137913327730e-03,-3.465531999987430528e-03,2.332233637571334839e-02
3.439713575172944071e-01,2.542809098865494999e-01,3.403800304619484240e-01,-2.327007885825255543e-02,1.024977720394905541e-02,2.723752374934952647e-02,1.090893149375915527e-01
4.650944236837565304e-01,3.473751104756424568e-01,2.835263516982975407e-01,4.027852475052207115e-02,5.024684106545353190e-02,-1.600748820909251857e-01,3.387682735919952393e-01
3.972890150946191690e-01,2.611325928163013010e-01,3.319928374067054322e-01,5.372210254862443135e-02,8.690136021448388592e-02,-1.161665318952467274e-01,2.927616536617279053e-01
3.395302024701793986e-01,3.404258034750635153e-01,2.799529943592973247e-01,4.813328614297067605e-03,-4.509987345021044744e-03,4.227652442016168605e-03,6.154467165470123291e-02
2.859322668123415734e-01,3.445578791426427978e-01,3.257368463300985839e-01,-6.515015509831376637e-04,4.865821479700610172e-03,3.506756358994328384e-03,5.288660526275634766e-02
4.056865185386945294e-01,4.462095367082021258e-01,2.053835816525823310e-01,4.854336118665009830e-02,-1.500406337092058118e-01,1.116844246144489544e-01,4.023759961128234863e-01
2.922353919425002000e-01,3.286521819295856739e-01,3.770567376505587487e-01,6.425302750902640858e-02,-3.471458982089059564e-02,2.911135857754584139e-02,1.548386216163635254e-01
3.220043101911970740e-01,3.125799108286195227e-01,3.245682565976535372e-01,-6.226299598861897815e-03,-6.968975031454878281e-03,-6.089477032821173988e-03,2.219915017485618591e-02
3.538044498610229405e-01,2.406906233581885823e-01,3.528635704046597654e-01,-2.504241241306663819e-03,-1.410626817236438789e-03,-1.570123485075917242e-03,1.127890795469284058e-01
3.355732408414354717e-01,3.612814487384108375e-01,2.256073441185719175e-01,-1.029281672215973803e-02,4.688310887050506359e-02,2.056749387153506553e-02,1.541473567485809326e-01
1.672471073705926181e-01,3.353485666384806718e-01,3.985448849763125745e-01,-1.175996958087279914e-01,-4.057476739691835699e-02,-2.127645108441070937e-02,3.011001944541931152e-01
3.637457261055010438e-01,3.652774813459525038e-01,2.384752582387424935e-01,8.995516532192994810e-03,2.817976129587985643e-02,3.961774581608955986e-02,1.523833125829696655e-01
3.605962541426885881e-01,3.471911437160694613e-01,2.414855525258891578e-01,-4.391516175867325733e-03,-7.374620904217055531e-03,-1.490810612662868753e-02,1.168680042028427124e-01
3.438393010896551027e-01,3.166186101285516918e-01,3.001602708130082231e-01,5.352792433105280252e-04,-1.021318768257304136e-03,-1.773632764206558785e-02,4.906700551509857178e-02
3.088346875428912286e-01,3.343750746486048864e-01,3.092114078213337169e-01,-4.602594550241540482e-03,-7.847224979511759763e-03,-6.428235906491456576e-03,3.186042606830596924e-02
3.538829267082044816e-01,3.541444661537876959e-01,2.341436576099539535e-01,-4.346186685118044041e-04,3.131051714379275066e-03,-1.443423789294752922e-03,1.200212687253952026e-01
3.583527114307343275e-01,3.557362267233689090e-01,2.529380454691447233e-01,-1.089965599564768741e-03,5.559061169213739498e-04,1.001092064846589164e-02,1.055861189961433411e-01
3.268638076639460155e-01,3.259251799081817058e-01,3.011224245450862536e-01,-6.682003763042250639e-03,-2.854106773298844581e-03,-3.155726693100778350e-03,2.876802720129489899e-02
2.726234243773322796e-01,3.346631318465676519e-01,2.649353954679476986e-01,-7.291688714997272835e-02,-1.149424528891463265e-01,-6.359762622861261927e-02,2.685235440731048584e-01
3.473673219804748191e-01,3.347773551422809080e-01,2.377920992557545632e-01,-1.144889242657503789e-02,2.489725331125183100e-02,3.630706886139895700e-02,1.303577721118927002e-01
3.276017166257791935e-01,3.400875964500070792e-01,2.930657729324328553e-01,-4.342382976600975969e-03,-3.469774092561420890e-03,-1.492799369983032224e-03,4.334988445043563843e-02
3.397104248538719840e-01,3.400420262232983770e-01,2.797330911059656144e-01,-5.172092530370122482e-03,-4.383762819307508371e-03,-3.742591170467319921e-03,6.162145733833312988e-02
3.510004366765899220e-01,3.422274724782465860e-01,2.679597590595231282e-01,-1.717652947949456629e-03,-2.065713356523214000e-03,-5.570530715914962482e-03,7.974303513765335083e-02
3.557441217804242495e-01,3.402619081258953515e-01,2.505088361806421249e-01,-5.361208048444000666e-03,-2.405279198636434308e-03,5.655291960205636147e-03,9.942042082548141479e-02
3.412310331756326365e-01,3.467327274522974401e-01,2.738284669917733782e-01,-5.172680203172413602e-03,1.088054189501945317e-02,1.790243445420632018e-02,7.963116466999053955e-02
2.845494140284145490e-01,3.386162947006646218e-01,3.249092264089262216e-01,-3.992628208326876385e-03,-8.655021941556545126e-03,-7.140212082483094955e-03,5.287260189652442932e-02
3.071712223825204813e-01,3.432377758531937051e-01,3.185446935744430386e-01,-8.010767180589644168e-03,-1.313528448167724377e-02,-6.191074095909193317e-03,4.295419156551361084e-02
3.359513135161780739e-01,3.489725653055910093e-01,2.766854567478351790e-01,-4.662714253893133175e-03,-2.845034410868373803e-02,-1.251454015632817458e-03,8.337803930044174194e-02
3.329055883334303689e-01,3.461677145752775631e-01,2.908196377084465434e-01,4.037530572606199547e-03,-1.942514922776833464e-02,7.437391544421169398e-03,6.206544116139411926e-02
3.173716130878169173e-01,3.276352356293538715e-01,3.079736449318766223e-01,-5.280826717742395648e-03,-2.308255766911703789e-03,-1.335641483664856688e-03,1.987758278846740723e-02
2.865426988144892384e-01,3.304138614868104007e-01,3.240011052431605032e-01,-8.167155733198119133e-03,-9.645619237268053536e-03,-9.266518923680487629e-03,4.920664057135581970e-02
3.173355189294562173e-01,3.358635584911722760e-01,2.989616603256332605e-01,-3.874343127760733994e-03,-3.398875952780571006e-03,-1.078967161623546481e-03,3.323401510715484619e-02
3.155131096689680614e-01,3.410089467130354990e-01,2.991645109610792108e-01,-1.807829259751703166e-03,-2.019753434509166494e-03,-7.585480599423342473e-04,3.684975951910018921e-02
3.478878012239343676e-01,2.614936243395890592e-01,3.422295697733472863e-01,-1.852191765581459766e-03,-2.182950712271251436e-03,-5.114765083407169476e-03,8.432201296091079712e-02
2.977820651473246372e-01,3.301707365467637656e-01,3.164846926789329773e-01,-2.498257545309057713e-03,-6.327560188627836743e-03,-5.145881281171634306e-03,3.180155903100967407e-02
3.109776326947046865e-01,3.310362254363254930e-01,3.220349671957458138e-01,-7.118929534235524277e-03,-8.963063921268806314e-03,-7.022750573070710156e-03,2.904860302805900574e-02
2.901131425473281178e-01,3.412245652405663243e-01,3.166255875044862722e-01,-3.900751118790783678e-03,-7.662895622966176337e-03,-7.422774888287766298e-03,4.844892770051956177e-02
3.159770052459597300e-01,3.175351648596530518e-01,3.187335350964844993e-01,-1.292893274061958711e-03,-1.199285901334572104e-03,-2.729835435714998270e-03,6.116926204413175583e-03
3.318620264669950304e-01,3.151510954055018465e-01,3.087353449199704003e-01,4.875465746551370903e-03,1.293924519491467754e-03,-3.023668628406200095e-03,2.305192314088344574e-02
3.227955140617632113e-01,3.157177782038155800e-01,3.182206182921779036e-01,1.044251315132150356e-03,3.266943153559903308e-04,-1.128756504372393317e-03,6.786601152271032333e-03
3.231555184468414832e-01,3.551900154680014965e-01,2.952829380348408472e-01,1.099857773844192463e-02,3.808564317520148068e-02,-1.305890923124623966e-02,8.900580555200576782e-02
3.277138404724831977e-01,3.233503361046511926e-01,3.077915359177881283e-01,5.755343212184054619e-03,2.646277637989865195e-03,-3.514214881641829300e-03,2.205531112849712372e-02
3.303629922847921563e-01,3.104993897195644226e-01,3.118206280937487751e-01,2.473397778907823231e-03,4.603100723617387958e-03,-4.163190880254697031e-03,2.244947664439678192e-02
3.093980723302796609e-01,3.353848770480816199e-01,3.093877466861822967e-01,8.102040156389555409e-04,-1.502399409876644526e-04,-9.991155447916298497e-04,2.608858235180377960e-02
3.307087374820497638e-01,3.127886380514822706e-01,3.103671059101965612e-01,2.495779811344060999e-03,1.011282503556108986e-03,-1.109035614277122843e-03,1.989554241299629211e-02
2.982109537628348517e-01,3.306736624695870708e-01,3.267983972735456488e-01,-6.353857676468344096e-03,2.879033125272760073e-03,7.430065986022674554e-03,3.542092815041542053e-02
3.283008452628651819e-01,3.140784989636498659e-01,3.155111994134184861e-01,8.512973537109215462e-04,7.053455259846172064e-04,-9.811273364755009312e-04,1.380238682031631470e-02
3.302216018284478971e-01,3.080830433936630475e-01,3.178128414956697956e-01,2.633255312356975065e-03,6.840636764105446216e-03,-3.778166972727739839e-03,2.394555695354938507e-02
3.038561442159228854e-01,3.074597181840456050e-01,3.394150510773167873e-01,-4.595238965434279149e-03,1.276505071806336962e-03,2.211443635151799647e-03,3.510257601737976074e-02
3.123197368800962881e-01,3.111305564124527412e-01,3.333908323596450618e-01,6.239857827089922071e-04,2.380217066073052421e-03,-1.151261618506152539e-03,2.219466492533683777e-02
3.396979891106830518e-01,3.405729871321722668e-01,2.754408770130840067e-01,6.064354736575635653e-03,4.646710691527722314e-03,-4.705432133515675790e-03,6.653942912817001343e-02
3.110724665465407490e-01,3.117689135706664394e-01,3.331963068547174611e-01,3.291055298367182285e-04,1.270956487163871045e-03,-2.232121791880902102e-03,2.224093675613403320e-02
3.083465870009799437e-01,3.097737572739538980e-01,3.326512601444184813e-01,2.975726515519954134e-03,2.183315998980420863e-03,-3.452897553263626230e-03,2.519325353205204010e-02
3.149624583552455004e-01,3.357366962860364734e-01,3.046138246576426400e-01,3.303754362124440135e-03,1.481551052660678774e-03,-1.660257972663932956e-03,2.830630540847778320e-02
3.036731673300575030e-01,3.098887680518559451e-01,3.388803266117560442e-01,2.912794089209835065e-03,1.555456487118767831e-03,-2.780211618501679440e-03,3.339527174830436707e-02
4.031915115058025134e-01,4.028424230018828878e-01,1.328639239373760605e-01,-1.752941294867994826e-02,-6.031158247078994422e-02,-8.750483544874339270e-02,3.283113539218902588e-01
3.774612985170539003e-01,3.075692134981389270e-01,2.785966266116808865e-01,-3.100723065238057685e-02,-1.087102798840750874e-02,-5.919545204742769628e-02,1.466303318738937378e-01
3.883877308643897686e-01,3.157618724729324700e-01,2.671319418902738940e-01,1.416248715087240970e-02,3.947312398318230525e-03,-6.135297287361489438e-02,1.520269960165023804e-01
3.190951887938788256e-01,3.180081040153980299e-01,3.167505642481014405e-01,1.472791702456250490e-03,9.764392303037616912e-04,-7.083394811882373632e-04,3.873382695019245148e-03
3.267554723798433702e-01,3.373660806494566677e-01,2.952102608735671652e-01,5.188714453417127281e-03,3.822103010495236930e-03,-2.717143273350155867e-03,3.986403718590736389e-02
3.500697231856228497e-01,2.853849128107269206e-01,3.251230673490549949e-01,-2.850355720754700552e-04,-9.362129312115571519e-04,5.859671233008339510e-03,5.743405967950820923e-02
3.409934220909570102e-01,3.486293453256321673e-01,2.675344901682925047e-01,-2.645386436630135698e-03,-7.043644226569888665e-03,-2.113217918061442106e-03,7.873168587684631348e-02
4.032490396191610871e-01,3.424694307863779819e-01,2.664993007343520182e-01,-2.618920501925607689e-03,1.154455259108450906e-02,-7.476388611897447078e-02,1.768399775028228760e-01
3.902887175565842859e-01,3.358432113972177335e-01,2.366151404953910908e-01,-1.118312239472316755e-02,-2.107295901615886466e-02,-8.753009889110240083e-02,2.071352154016494751e-01
3.268278015806073689e-01,3.438571301273308234e-01,2.865496653840512997e-01,-3.713031910639760964e-03,4.113296488199492777e-03,1.607666749572451417e-03,5.194330587983131409e-02
3.166780436599107573e-01,3.144537809497897629e-01,3.215505107073683422e-01,-1.628952813870769524e-03,-2.372980877997890765e-03,-1.110363423611968698e-03,8.250952698290348053e-03
3.412639998687077569e-01,3.420952334735237188e-01,2.799774472701350714e-01,-3.550850802558975366e-03,-3.907446371840680825e-03,-3.094780784047570024e-03,6.261021643877029419e-02
3.870828868322321870e-01,3.721113924137516848e-01,2.047326821267892449e-01,6.191476891724971218e-03,-1.719183048571125069e-02,-6.654030382904406460e-02,2.122032195329666138e-01
4.001088393024731515e-01,4.015214120725542069e-01,1.091152337726469801e-01,-9.132929247465748981e-03,-2.169073917839470581e-02,-9.191413819004594365e-02,3.348083794116973877e-01
4.079059444848192606e-01,4.307031453158761125e-01,1.667203973484196466e-01,-9.399044533985542044e-03,-7.426597300466858398e-02,-1.253936776901800054e-01,3.580091893672943115e-01
3.333128619671599235e-01,3.122451018885716301e-01,3.105861801803548317e-01,-2.126672431305951048e-03,-8.267831011399114300e-04,-5.078844806610667258e-04,2.231468260288238525e-02
4.040560224461930972e-01,3.570281463862493010e-01,2.419548379291006635e-01,-2.876903027621408732e-02,-3.764489677679264817e-02,-7.497087882301289863e-02,2.108587771654129028e-01
3.151481113302455617e-01,3.444341974015244778e-01,2.885112427464026075e-01,-1.955313182810163031e-03,-8.570296090648408735e-03,-1.491671954302307718e-03,5.085058510303497314e-02
3.528248868890588308e-01,3.538147910025151721e-01,2.477208663404054101e-01,8.713029979331961619e-04,-2.278759061880725363e-03,6.504495744193251406e-04,1.056929677724838257e-01
3.939774407394668887e-01,3.035658433798583689e-01,2.007498813208755672e-01,-1.041533475792278535e-02,1.394596985652030597e-03,-1.226556651026580458e-01,2.711192369461059570e-01
3.871638291389228881e-01,4.100002901195590743e-01,1.338936859717614614e-01,-1.340307551899035804e-02,9.050522445437288177e-02,6.913607862289342793e-03,3.093654215335845947e-01
3.311413260462603425e-01,3.300425169033266437e-01,2.888764126762917717e-01,9.808909712057936256e-03,-5.606024477429479014e-03,6.143725358394549335e-03,4.729959741234779358e-02
3.416579136794042904e-01,2.597942673741446273e-01,3.485087579476190411e-01,-6.840403644290035494e-03,1.340091100162035635e-03,3.923054093807633140e-03,8.661037683486938477e-02
2.651539162800693461e-01,3.529556464532633830e-01,3.425071893339274309e-01,2.181367319209990933e-03,-5.343279812742829891e-03,3.106093067751117959e-03,8.384385704994201660e-02
3.502654186302336936e-01,3.554495646197707304e-01,2.688801067536420453e-01,-1.214693904864255249e-02,2.135535693541124047e-02,2.364593034686643738e-02,1.027645170688629150e-01
2.954455812153764516e-01,3.428111743012693391e-01,2.987255989238956078e-01,1.803297995912536830e-03,-1.859984974871900856e-02,3.073273385274757040e-03,5.634582415223121643e-02
3.908368717805177361e-01,3.933630024683102411e-01,1.911629297096422153e-01,1.789721206811129180e-03,-5.876955099919671174e-03,1.248495024349002835e-02,2.023890167474746704e-01
3.396288742910607561e-01,3.152040502745189210e-01,2.867116940042093165e-01,1.436310146478167807e-02,-1.339322560970600783e-02,2.137688418508422797e-02,6.806065142154693604e-02
3.557096362591919414e-01,3.588637990968663316e-01,2.541243386959355366e-01,-1.551899026619244166e-03,4.351530778746455497e-03,-1.400096531526907016e-02,1.063111051917076111e-01
3.280866392911672147e-01,3.120973014998149053e-01,3.117032106364464594e-01,1.135853595963226288e-03,-2.592137005057759333e-03,9.554963223033809388e-04,1.699654199182987213e-02
3.418056742879297949e-01,3.487978155849911222e-01,2.618502200658215928e-01,4.926633396817694296e-04,-6.042715137824571786e-03,2.647195917559873324e-03,8.445187658071517944e-02
3.884937176438196804e-01,3.697985728950848872e-01,1.282757278129136869e-01,-3.719018072310600366e-03,1.242890067503758106e-02,6.999474481392777003e-02,2.800014615058898926e-01
3.087835319226340802e-01,3.359331131585330255e-01,3.089438355546362813e-01,-1.891226081493711710e-03,-7.851634051158226874e-04,-1.134469161187839263e-03,2.737177349627017975e-02
2.320182667279006572e-01,3.697160856329748113e-01,3.748471136859777286e-01,1.525503217280534812e-02,-3.224748910448168443e-02,-1.552640809172214573e-03,1.533578485250473022e-01
3.439728709875072288e-01,2.833045341772160719e-01,3.243736682077162370e-01,-9.375033758361546368e-04,-1.113621023643731689e-03,-4.776620288829378468e-03,5.431878566741943359e-02
2.557406179864629703e-01,3.579264725946001979e-01,3.531258455930262330e-01,6.238042029331892016e-03,-3.471768797553955680e-03,8.939455375216074588e-04,1.006465852260589600e-01
2.527421648832814949e-01,3.535383842264897547e-01,3.515287883863590923e-01,2.962387450052526849e-04,-9.014660096466887290e-03,4.315957774552240094e-04,1.010246053338050842e-01
3.196889003613889169e-01,3.278178913141655548e-01,3.081170954233568016e-01,-4.161990249538700427e-03,-2.304675462605342874e-03,-1.333938494659791868e-03,1.916490308940410614e-02
3.152922053570322292e-01,3.372618878645765594e-01,2.989247487893795796e-01,-4.163185599144031065e-03,-2.908126760406025500e-03,-1.430392232141701426e-03,3.454930335283279419e-02
2.554615463013048537e-01,3.593782866351074579e-01,3.587791016692979396e-01,-6.409108049637708172e-03,8.028289411421007590e-03,5.112363945063149676e-04,1.051387488842010498e-01
2.205480837551719586e-01,3.592771672951136086e-01,3.571462820683838357e-01,1.819358004981350141e-02,1.155876025166301807e-02,-2.215394774812039051e-03,1.426998227834701538e-01
1.693614324746855471e-01,4.347269940277322942e-01,3.936543119548346348e-01,1.459549174312794496e-02,-4.061328679744879294e-02,2.007674989230232021e-02,2.607742249965667725e-01
2.464009823126724896e-01,3.544327793139082083e-01,3.584030391780264058e-01,-2.008011132445198718e-04,9.146471545998871317e-04,8.532396800244252191e-04,1.100925132632255554e-01
2.414185535935158833e-01,3.637829747725718765e-01,3.606910590030818486e-01,2.406105392125539900e-03,3.868536902578340736e-03,-1.153683385996170973e-03,1.211219578981399536e-01
3.192081111092036627e-01,3.124560404368345035e-01,3.272816568560458217e-01,-1.693490574382317719e-03,4.618016340810729425e-03,-1.579830574466668575e-04,1.542538776993751526e-02
3.210969558898291720e-01,3.171089657681255836e-01,3.165261769090304544e-01,2.858001760540757313e-03,2.331480160224966465e-03,-1.824759482426641186e-03,8.328806608915328979e-03
3.093550397842921296e-01,3.397814336593699691e-01,3.069920629647889254e-01,-3.169954542115594061e-04,1.468021286999286442e-03,1.319871459747903933e-05,3.178070485591888428e-02
2.985809293176150958e-01,3.168768179362235760e-01,3.486496576189080931e-01,-1.620171397607213584e-02,2.217846851885073214e-03,1.423521388339286367e-03,5.228659138083457947e-02
3.123251833664929533e-01,3.242780550246059379e-01,3.210884502613994829e-01,5.809663436320026617e-03,7.356362608899906161e-03,-5.263824004286787352e-03,2.148599736392498016e-02
3.033412318213722925e-01,3.220919020031296487e-01,3.344330339973350386e-01,1.314630173556952629e-02,1.390649558121337392e-02,-1.665544429221987519e-02,5.163482204079627991e-02
3.149286816028019631e-01,3.230176864067739184e-01,3.152059581063265115e-01,1.438573960291518895e-03,1.417681355878897709e-08,-1.048506673754725669e-03,8.530683815479278564e-03
3.149678368738286771e-01,3.218937690838371557e-01,3.170331982750757560e-01,4.864318354388795940e-04,-1.014219210664491725e-03,-8.273672585867561423e-04,6.616576109081506729e-03
3.152574253567524409e-01,3.447809203302112380e-01,3.006813013212917829e-01,3.161228656375371024e-03,2.597674658954186692e-03,-1.075533051538675716e-03,3.959965333342552185e-02
3.884571273521003620e-01,3.605461897296978746e-01,2.124305433954261635e-01,8.688678766003005843e-03,-3.158860875351157758e-03,-2.005664660941816266e-02,1.682692319154739380e-01
3.236267725257524486e-01,3.140957848012987386e-01,3.132154232948879402e-01,3.540191705283623862e-03,1.713182431837326691e-03,-2.194125393959698959e-03,1.268273964524269104e-02
3.177422259333700927e-01,3.216689637493678200e-01,3.159080840519027933e-01,2.725046794556627589e-03,8.291544016235825052e-04,-1.422607787389241259e-03,7.509801071137189865e-03
3.180914314965496148e-01,3.217579925399181584e-01,3.171987231145694808e-01,1.815165738057799433e-03,-2.884996117495112946e-04,-8.993912243657636342e-04,5.484036635607481003e-03
3.543166427429892962e-01,3.537626258824008718e-01,2.449041687351866947e-01,2.091306437358804904e-04,1.404468298562811272e-03,2.885017791755366701e-03,1.092785373330116272e-01
3.164062700299279940e-01,3.035342755964775541e-01,3.512345439591097462e-01,-1.720667085705167645e-02,-1.733493522323527325e-03,-1.465447747008255096e-03,5.225583538413047791e-02
3.021284065474482694e-01,3.166097189706574833e-01,3.495692972322076986e-01,-1.542947661429863032e-02,-3.346712319629314720e-03,4.351042539400471181e-04,5.021668970584869385e-02
3.271225115301296671e-01,3.443185892582574792e-01,2.789208339779184476e-01,1.788412446995657143e-03,5.904529827442452604e-03,-6.519069496580010567e-04,5.969461798667907715e-02
3.111808022152575681e-01,3.400334896845391697e-01,3.119646735287331940e-01,-3.050329952096153280e-03,5.436572500915259551e-03,3.423076638785870277e-03,3.101951070129871368e-02
2.878710120539001993e-01,3.304981520092905023e-01,3.522043531476360401e-01,-1.949348044199838634e-02,-2.117707929838989409e-02,-1.073990952015578884e-02,7.774918526411056519e-02
2.751501000090076365e-01,3.331748004353354276e-01,3.461587539606401087e-01,-2.036506919255463843e-02,-1.326959244340203577e-02,-9.572718865416773859e-03,7.960027456283569336e-02
3.336146512334986491e-01,3.345179108197292028e-01,2.980257093727538553e-01,-1.173254166395250320e-02,1.792108383298477228e-02,1.090987412554363795e-02,5.507326126098632812e-02
3.412235198257915214e-01,2.653249416618176371e-01,3.489571614957363010e-01,5.668810625676223326e-03,-2.300049591959326799e-03,2.186977158134974838e-03,8.083316683769226074e-02
3.524614035960378366e-01,3.522473658690976617e-01,2.446543794768702984e-01,-1.319265351652213879e-03,1.355752614985899010e-03,2.847769482111453185e-03,1.078628301620483398e-01
2.790758692788364304e-01,2.878942790608519653e-01,3.745651731517508631e-01,-5.890237404962027357e-02,-1.624206152014865540e-02,-1.673894818629222125e-02,1.428088545799255371e-01
3.107951220575778106e-01,3.311002148002574752e-01,3.122241008383629390e-01,2.067001556465964174e-05,-5.699941606956836389e-04,-1.945708444781010620e-03,1.994132809340953827e-02
2.879977174901816039e-01,3.147146471935145517e-01,3.474373438615620535e-01,-9.185569577190109275e-03,9.075289345852159684e-04,-1.194284401372617318e-03,5.402493104338645935e-02
2.857195896053134621e-01,3.111864947662926206e-01,3.508143308586306186e-01,-2.639325263438935601e-02,-3.559221993906050777e-03,-2.424053763709290484e-03,7.330464571714401245e-02
3.799267247414329085e-01,2.419961489070772964e-01,3.809631153752314203e-01,-2.484360880362820531e-02,-6.120542820411124102e-03,-2.276222685705733481e-02,1.506227850914001465e-01
3.104532337173761536e-01,3.409623789064453181e-01,3.032915500791300567e-01,-1.074217697549744669e-03,-2.259265665110508654e-03,-1.395596487667776636e-03,3.500303253531455994e-02
3.281036910690315334e-01,3.120196274027168815e-01,3.118138194055491419e-01,-2.194196329588422346e-03,-1.160110601689531536e-03,-5.491527968795979157e-04,1.677603833377361298e-02
3.561149756780270237e-01,2.299901060441899570e-01,3.548371646735231089e-01,-1.227469725325887676e-02,5.292273131179701983e-04,-1.783481308868488033e-02,1.309772431850433350e-01
3.421168307162920641e-01,3.413404539830915407e-01,2.679615405754330881e-01,-3.895069190005186199e-03,3.460965547540162824e-03,4.104412136994458303e-03,7.465939968824386597e-02
3.875764039715217657e-01,1.281006446729487658e-01,4.770540465069426639e-01,-1.003846260899984577e-01,1.264972910310818016e-02,-3.561691383613965062e-02,3.647850751876831055e-01
3.578930112885501114e-01,2.575158543471969819e-01,3.500873416582319653e-01,-6.480997370291221790e-03,-7.083363697921315431e-05,-1.211997323265462563e-02,9.959767758846282959e-02
3.496143641689066772e-01,3.139516033049709054e-01,2.897322755556882012e-01,-2.278060385778453607e-03,-3.588721518262117478e-04,7.168780647935946680e-03,5.377978831529617310e-02
3.549802964300018404e-01,2.431000600081092422e-01,3.518183460976093690e-01,2.257633426195571665e-03,5.997075337298666143e-04,-1.708756158520859710e-03,1.104470640420913696e-01
3.275507547807394726e-01,3.487053611126150754e-01,2.829928765847493088e-01,-8.650898584385757414e-04,-5.615526445115625806e-03,-2.779893865524122286e-04,5.892881751060485840e-02
3.233942213226246865e-01,3.153288929182707645e-01,3.149519005974515951e-01,-4.270292364262901061e-04,-1.432611615822207115e-03,-1.324167539953369461e-07,8.656581863760948181e-03
3.501940768943500037e-01,2.442056602733218562e-01,3.424393423127723990e-01,-1.978327359787914255e-02,-6.272777108338634285e-03,-2.604696980856865962e-02,1.174703314900398254e-01
3.516050489564314097e-01,2.543487554768372183e-01,3.414683979157918658e-01,1.910435349158885656e-03,-6.721305728134720388e-03,-3.608627686242745890e-03,9.360143542289733887e-02
3.441234285912607715e-01,2.749020503779412983e-01,3.466022623445968454e-01,-7.545452168472639720e-03,-6.072699267956039280e-03,-1.418814623752240670e-02,7.651586085557937622e-02
3.482856518898032050e-01,2.470513806480409691e-01,3.629750709496977201e-01,-1.034623011380437184e-02,-3.207350891340031603e-03,-3.619486258097121684e-03,1.110969185829162598e-01
2.978976361468518297e-01,2.800229446218597262e-01,3.347263142983080142e-01,-9.806465898655028490e-02,6.725654444465647974e-02,8.270629182769009824e-02,2.554907202720642090e-01
3.084706517532116443e-01,3.411023130450359098e-01,3.081468657320082793e-01,1.070209937156658129e-04,-8.973967966531743758e-04,-2.449098650773933687e-04,3.283483162522315979e-02
2.980501501935091113e-01,3.437636434167001820e-01,3.152889593305836513e-01,4.804539268976314994e-04,-4.171831148517345100e-03,2.265051338693403315e-03,4.083075001835823059e-02
3.098893042434707756e-01,3.412055144460640066e-01,3.055835650341707233e-01,1.590031940248546553e-03,-6.235904810151317356e-04,3.943581668029230171e-04,3.381274268031120300e-02
3.595199883654803252e-01,2.469759007498192327e-01,3.637508121510590331e-01,-9.049280092259019692e-03,-4.829654557753767716e-03,-3.799529961282063772e-03,1.162720099091529846e-01
3.751096367350080785e-01,3.494852780402156189e-01,2.158946086317803936e-01,4.559902455500517565e-02,-8.838378251022668830e-02,1.002955071652230079e-01,2.859662771224975586e-01
3.859886249274760428e-01,2.067623120759395361e-01,3.238486017400696859e-01,6.318135494840516897e-02,-5.528700058223556812e-02,1.184933549952814358e-01,2.968399524688720703e-01
3.556849857158616013e-01,2.727202871025176112e-01,3.480929940763880515e-01,-4.979327082533098817e-03,-2.774170912965851204e-03,-1.369135060181203047e-02,8.349096029996871948e-02
3.145898659886182669e-01,3.449373589142677443e-01,2.997709931567834607e-01,-4.857071447312690058e-04,-3.105393159280356828e-03,-1.827485983565034164e-04,4.024951159954071045e-02
3.393534589167087057e-01,2.945977028691292854e-01,3.159637563135851979e-01,3.199107100444416752e-03,-5.371401404367638806e-03,5.709540776763256942e-03,4.145343601703643799e-02
3.459916295802020203e-01,2.797365977454575603e-01,3.113778317253035333e-01,6.303277631417403964e-03,-6.872089438835628922e-03,2.869655173946596138e-02,7.762636989355087280e-02
3.098631953015691942e-01,3.098300749123907294e-01,3.402031856371965368e-01,1.482950112890624132e-07,-1.593476835846307236e-03,-1.834176614743806069e-03,3.064687736332416534e-02
3.922733000314016505e-01,2.775034251310464772e-01,1.748436546858062879e-01,-1.208140572525968036e-02,1.300879683555453831e-02,1.345727984655934462e-01,3.012780845165252686e-01
3.944635805495675385e-01,3.291777975493338504e-01,2.769930376386492421e-01,-8.458159156734812445e-03,7.272028103852963381e-03,6.656420189221713690e-02,1.551065891981124878e-01
3.137141372620420032e-01,3.284596371832268491e-01,3.157542577807153084e-01,-7.671416943180728093e-04,1.507099483658561360e-03,7.690211583690494774e-04,1.420785021036863327e-02
3.220551830132316051e-01,3.163203610634281460e-01,3.153224342959047855e-01,-8.500606226097789757e-04,6.666712547034153421e-04,-5.207052719114455041e-04,6.627332419157028198e-03
3.826335807853503135e-01,3.274758507831565524e-01,2.021915919226292269e-01,3.133404011062577293e-02,-6.412806566971121502e-02,1.206500567076228825e-01,2.908623814582824707e-01
3.083564806804274805e-01,3.416010141248749798e-01,3.040922761586418166e-01,-2.118552911303594815e-04,3.764713530389487799e-03,3.449665516563471665e-04,3.616842254996299744e-02
3.572516557325223774e-01,3.256935509758190350e-01,2.920812968011375910e-01,6.285842830052344385e-03,-1.403695916891845551e-02,2.919466204363622627e-02,8.033097535371780396e-02
2.934174656592700714e-01,3.094136822876665804e-01,3.404471455591473461e-01,-2.398201402721484091e-02,1.299616274111764849e-02,1.128419596509529048e-02,6.579881161451339722e-02
3.413597290662535588e-01,3.055407486672797046e-01,3.090142716567383929e-01,-1.607501225631110912e-03,1.352329727199195813e-03,3.992366990938750124e-03,3.509561717510223389e-02
3.101020440378729481e-01,3.311521275825590749e-01,3.046611203418223002e-01,-8.965073282465605212e-03,1.165116127314797141e-02,8.268138317929992626e-03,3.795647621154785156e-02
3.423546027906885780e-01,2.953771450531053611e-01,3.136325015619338963e-01,-3.432606639706299589e-03,1.937673958797772079e-03,7.608510856564238561e-03,4.362143576145172119e-02
3.260271250975615986e-01,3.097114509040677643e-01,3.209429116155709805e-01,-5.829398546805538740e-03,8.772813610734477713e-03,9.667866508610923129e-03,2.867635712027549744e-02
3.201350147735938512e-01,3.286536272396231584e-01,3.101781344056627199e-01,-3.475936913419303952e-03,2.027271669429959143e-03,1.543281374897314444e-03,1.767048612236976624e-02
3.840965928427053644e-01,3.556433882077393860e-01,2.288937667014325217e-01,6.735575067160194662e-03,4.444584652470335434e-02,1.837530705872777309e-02,1.660025417804718018e-01
3.306565788591916411e-01,3.305685750755525398e-01,2.861610222785018198e-01,-1.035788215861592997e-02,9.808610270705430886e-03,8.028622677337698965e-03,5.272386968135833740e-02
3.405311878729347375e-01,3.388243825332081238e-01,2.676881644682582162e-01,-5.750686386402326447e-03,3.099831605038546548e-03,3.498035005884616178e-03,7.313984632492065430e-02
3.194116887010040595e-01,3.192182592345054193e-01,3.059886253094966091e-01,-7.396964523551003562e-03,4.298927854592098606e-03,4.165710945576146448e-03,2.119591087102890015e-02
3.085447090081577803e-01,3.321011746235146833e-01,3.076185619233697821e-01,-4.785599846892854212e-03,8.615264357633897405e-03,6.025469772819865705e-03,3.127098828554153442e-02
3.912080719933683781e-01,3.924324275830730624e-01,1.083934869000674761e-01,7.868977206367284028e-04,-5.338187574192502366e-02,2.142844427546717126e-02,3.004332184791564941e-01
3.570550416239602343e-01,3.389146058788835569e-01,2.276504872586109229e-01,-9.061026197210515082e-03,1.362613780371610406e-02,4.063561320079787237e-02,1.431231647729873657e-01
3.526673972343500885e-01,2.540434345416593964e-01,3.407080016398358335e-01,1.840888245360898425e-03,-2.141142294333215311e-03,6.189723007069249973e-03,9.396322816610336304e-02
1.510969763995011206e-01,3.758241302196032585e-01,3.830612562063548387e-01,-3.119843992838219893e-02,-2.479592756542598961e-02,-6.725458249603392773e-03,2.389169037342071533e-01
1.772409530622666429e-01,3.835533083476424521e-01,3.345006153099021051e-01,-4.591671353877847112e-02,-1.001971933223058664e-01,-2.015203463021585789e-02,2.692815661430358887e-01
3.273233433107120560e-01,3.441391139918592579e-01,2.832683703989893886e-01,7.510746030042391103e-04,-6.308119257380705343e-03,1.094302599913637335e-03,5.557959154248237610e-02
2.212899114176709592e-01,3.635188921092640246e-01,3.745530880614854619e-01,-5.158068754949895335e-02,-1.417731445158967041e-01,-2.830661551843426799e-02,3.043100237846374512e-01
2.110926818395739701e-01,3.531643836448911666e-01,3.508905863399565117e-01,-9.912648283985756384e-03,-2.732971522457710786e-02,-2.223658506331477932e-03,1.497225910425186157e-01
1.119684410973485478e-01,3.772732840567609713e-01,4.330381445230371273e-01,-5.288937761672034971e-02,-5.469475752690747261e-02,-1.515714109884357466e-02,3.261083960533142090e-01
2.566305477049696249e-01,3.420749700218592149e-01,3.519236420796842957e-01,-4.768494471329058973e-03,-2.522419179488629825e-03,-2.733616913780211998e-03,9.137275815010070801e-02
2.134639977716382697e-01,3.612486389203651282e-01,3.452615876638641668e-01,-5.439297040296845777e-03,-2.728698957977519074e-02,1.082755129025992063e-03,1.485235989093780518e-01
3.414526415558835071e-01,2.775373186632993927e-01,3.417859102763349255e-01,3.758037781693225436e-03,-3.230245306056561249e-03,3.895967800253090536e-03,6.500606238842010498e-02
2.924220295957081217e-01,3.847460565682552236e-01,3.455018712826554150e-01,3.301052667871135632e-02,-6.941260587179821917e-02,1.822764341831093274e-02,1.586215794086456299e-01
2.205125906878299125e-01,3.660388619487547346e-01,3.867161468464000995e-01,-8.234730268756563012e-03,-1.473471483276188147e-02,-1.095969230695702061e-02,1.607160419225692749e-01
2.223724179181004179e-01,3.927681518923634707e-01,3.861979000437968934e-01,-4.504369493514223666e-04,-1.560298891500355722e-02,-1.570861481378902236e-03,1.694010049104690552e-01
3.625116761793224507e-01,3.617711223290240863e-01,2.491080262355496455e-01,-1.100912155565263693e-03,-2.757829029184970249e-03,6.721933957756446448e-03,1.137495562434196472e-01
1.981287100325192507e-01,4.012480583787012556e-01,3.823441793409095291e-01,-2.875654292743434759e-02,-5.817250095712783557e-03,3.363702871546353848e-03,2.009760290384292603e-01
2.305885138250116095e-01,3.834846923583554723e-01,3.912607990688737325e-01,3.291114190628048608e-02,-8.432875944461886352e-04,4.090254505130438978e-03,1.671179234981536865e-01
3.098778366206872414e-01,3.392606018398435230e-01,3.073483492085578583e-01,1.457707014366102852e-03,-7.567043394320530731e-04,3.129901956337180708e-04,3.086186945438385010e-02
1.550797363536191853e-01,4.858183488049137022e-01,4.432399045556675299e-01,2.248718001237461420e-02,-9.490606844673157849e-02,4.973174926237149823e-03,3.545861244201660156e-01
2.464652570107989660e-01,3.609941637135692938e-01,3.583291010433213297e-01,4.073052967406593818e-03,2.460487632002140643e-03,1.397474068786663543e-03,1.135453060269355774e-01
2.374442230422501021e-01,3.540916692579632041e-01,3.452835884790138032e-01,4.513262514319458206e-03,-2.211413180362608796e-02,1.464111074296609808e-03,1.191277131438255310e-01
3.598506382591309394e-01,3.621934991129636683e-01,2.449864385471565154e-01,-1.126551214869644804e-03,9.254619543207288565e-03,4.419481924063329605e-03,1.174211725592613220e-01
3.462894918486610352e-01,3.450076938338456078e-01,2.553165064731623968e-01,-8.877509586607127898e-03,-1.312512137640847038e-02,-7.447359385337285267e-03,9.529294073581695557e-02
3.739425881915308114e-01,3.798427653383766311e-01,2.262923679772060603e-01,-1.501870092021461919e-02,-1.866286737544372784e-02,-1.475550812231356257e-02,1.583708524703979492e-01
3.817179700171132173e-01,3.819805916899987053e-01,2.421526131413073157e-01,-1.130445675366636635e-02,-3.215400825412369212e-02,-2.605342284196101796e-02,1.582294702529907227e-01
3.146915835160103980e-01,3.443151912967432615e-01,2.997375014239854751e-01,2.646216736146241033e-03,-3.628581662423825942e-03,1.268208468508226841e-03,4.011868312954902649e-02
2.268970237951961066e-01,3.710740199351883484e-01,3.329457581470731120e-01,6.311368105109911586e-02,-7.828226757414226411e-02,3.866280070387020928e-02,2.270734161138534546e-01
2.929673604453519320e-01,4.334188460979573332e-01,2.695337624753689210e-01,-2.980535872431522293e-02,-1.758232563226397593e-01,2.206496264286441147e-02,3.470362424850463867e-01
4.497931781855067368e-01,2.030885560469000983e-01,4.428792592530219618e-01,1.103813146025523356e-01,-3.124064562752700697e-02,7.375174876853596295e-02,3.391213417053222656e-01
3.174837655167852546e-01,3.176373483781479434e-01,3.176704423404936306e-01,-1.130725615372002880e-03,2.034131068912030545e-04,3.297923512024069216e-04,2.077451907098293304e-03
3.100632094597346455e-01,3.066016815250043881e-01,3.397580775569128408e-01,1.702037319527435972e-03,-4.295836302652117486e-04,2.132048913609561425e-04,3.171652182936668396e-02
3.630504849707528181e-01,3.450475086472992725e-01,2.537812957631086497e-01,-9.532566879533091453e-03,-1.231987429317096296e-02,-3.151403412009028127e-02,1.183386743068695068e-01
3.134876090337169185e-01,3.281915099633307964e-01,3.119895485972918325e-01,-7.636709444322917423e-04,1.192728855956887504e-03,2.567274691130990143e-03,1.631766930222511292e-02
3.554060272274594534e-01,3.587853083629090056e-01,2.531408213077102065e-01,1.102425341920842310e-03,-6.846753796097708282e-03,-2.865163020169224795e-03,1.048049703240394592e-01
3.505575864654923990e-01,3.607468716916391593e-01,2.560728011369414192e-01,-1.008914661770200349e-03,-1.103187028772665071e-02,-3.440116552752573104e-04,1.017960906028747559e-01
3.671098800656930061e-01,3.577945609161471419e-01,2.279015098750137580e-01,-4.075021074434653605e-03,-2.206645322759536940e-02,-6.613443242314684910e-03,1.407508105039596558e-01
3.185378748562126550e-01,3.191526391986588274e-01,3.169093229098354225e-01,9.009704639148742502e-04,-5.753965713345827711e-04,3.711500068090261575e-04,2.805893076583743095e-03
3.174581129434958515e-01,3.193124913831122402e-01,3.178383209384762487e-01,5.751286896414081621e-04,-4.356322929192389193e-04,9.071869515449586426e-04,2.628466812893748283e-03
3.123467410282799173e-01,3.348282796786236082e-01,3.094615157567792707e-01,-8.195029595762556417e-04,1.733750007200625561e-03,7.741505097454303612e-04,2.431951463222503662e-02
3.139623096114811940e-01,3.252694245663528272e-01,3.123830356651610685e-01,3.453711458887452710e-03,-2.544834486665640237e-03,1.151790258048419197e-03,1.440120674669742584e-02
3.144713895656960911e-01,3.252153046677008219e-01,3.154424893161862919e-01,3.524988998590071042e-04,-4.651234080608731896e-04,1.784164880908558097e-03,1.079411152750253677e-02
3.452395938099396266e-01,3.146449877038673959e-01,3.044794736714269145e-01,-2.718492870007175981e-03,-7.521415317609490836e-03,-1.714908500701804381e-02,4.923958331346511841e-02
3.432999379278751650e-01,2.901414624348496174e-01,3.127083273835030153e-01,-1.546043617892487593e-03,-4.216152767234919614e-03,-8.888687117997739334e-03,4.932536557316780090e-02
2.843847119327829187e-01,3.257785701953800905e-01,3.475456457784047992e-01,-6.361464584749437941e-03,4.639483008306898373e-04,1.516408750277225452e-03,5.672062560915946960e-02
3.262792160965725108e-01,3.377410583479500961e-01,2.861244016572510040e-01,-6.033990622739859172e-03,4.783513950120270308e-03,2.345020783877051120e-03,4.897347837686538696e-02
3.357081601249456981e-01,3.048736283437984418e-01,3.083763655143346161e-01,-1.307023030759473349e-03,-3.651676166580981181e-03,-4.467015388520727270e-03,3.098425455391407013e-02
3.165363513643525972e-01,3.269066104253365856e-01,3.200572132464807318e-01,-1.175074105271377116e-02,1.482263213501246527e-02,1.316055610968595857e-02,4.094384238123893738e-02
3.337780445988416389e-01,3.139244569930217943e-01,3.088376771868202031e-01,-3.069207571063212354e-03,-3.545955004017219223e-03,-4.987845328029082495e-03,2.572252787649631500e-02
3.398946670634547806e-01,2.810466975282695512e-01,3.398882781080536652e-01,-3.365391872571476140e-03,-4.326459861858563197e-03,-5.323493835476012480e-03,6.031466275453567505e-02
3.612733523832600269e-01,3.576528680093598034e-01,2.378372952920762839e-01,-1.300251033247889782e-03,-3.216383565658598696e-03,-9.782967517256513715e-04,1.218263059854507446e-01
3.164128349179932687e-01,3.043764403570229926e-01,3.212597671025064217e-01,-2.365797680651275658e-02,1.819709037167686200e-02,2.937660689751334792e-02,7.408214360475540161e-02
3.311112838162351135e-01,3.008672122744092126e-01,3.198045836153056709e-01,-3.680601597315969614e-03,-7.482363420116157696e-03,-3.486034022868321220e-03,3.075125627219676971e-02
3.359237559278957508e-01,3.094446650780685593e-01,3.087422265656398213e-01,-1.875551907766243292e-03,8.592409135306177358e-04,1.054722779619090764e-03,2.713560126721858978e-02
2.873753939038257155e-01,3.140978978622642193e-01,3.431558160754483722e-01,9.012532391597766548e-03,-2.466564371368132834e-04,6.413926051011139239e-04,5.079418420791625977e-02
3.487738445149693445e-01,3.416923871158782933e-01,2.684448681248358670e-01,-2.883348444909865881e-03,2.842920980819518568e-03,3.903661661762447901e-03,7.764630764722824097e-02
3.021433172016259605e-01,3.153622393031494386e-01,3.414277174292970063e-01,2.361668402841131040e-03,8.287101744384974726e-04,-3.155326652840090111e-03,3.531809151172637939e-02
3.049268677394931792e-01,3.087561542656536151e-01,3.412394464870217581e-01,3.774906378302550491e-03,1.444151160352929791e-03,-1.929879697085012773e-03,3.541744500398635864e-02
3.033028678688950985e-01,3.090789945864994004e-01,3.436700192692387912e-01,4.753951077656376305e-03,4.229946284753698864e-04,1.064470722763004263e-03,3.874843195080757141e-02
3.957242116878407767e-01,3.297274699210365756e-01,2.325829518510406924e-01,-2.381758061923369349e-02,-6.295772084137995876e-03,-6.530047147945455821e-02,1.865932643413543701e-01
3.486874192380023385e-01,3.416642205488237272e-01,2.652293007118833312e-01,1.261404143733983740e-03,-1.410367671902226392e-03,5.665249613492965436e-03,8.084222674369812012e-02
3.088581144638880005e-01,3.084498507026430802e-01,3.436714855247791078e-01,6.913090729203698499e-03,9.951972565974116867e-04,-9.155974336159679837e-04,3.708381205797195435e-02
3.195923382423693782e-01,3.002526069800431907e-01,3.300747115252932740e-01,5.371340039556633632e-03,-6.421402081289123535e-03,5.224139596506255021e-03,3.128519654273986816e-02
3.079007252173546760e-01,3.038753199080906908e-01,3.385815158944317504e-01,5.019477378497192409e-03,2.283357248732493117e-03,-1.115041420951696453e-03,3.429247811436653137e-02
3.084934485531031223e-01,3.022186683404461949e-01,3.433969042468102972e-01,4.827101760107152008e-03,9.286058497653350199e-04,-3.012191866531684840e-04,3.936238586902618408e-02
3.082858077829735421e-01,3.088140714567845224e-01,3.414076504024918801e-01,7.063265583995926265e-03,2.120523761679902770e-03,-1.942661712375309390e-03,3.541637212038040161e-02
3.081790226046116077e-01,3.026905033690954760e-01,3.408678784750564517e-01,5.026619042651792220e-03,1.602263697368015152e-03,-8.760227051316181977e-04,3.693106025457382202e-02
2.854990242069138651e-01,3.443236983716672639e-01,3.329211493719299586e-01,-9.331000097457792589e-03,-2.001596141413757371e-02,-5.006842316366303877e-03,6.676775962114334106e-02
2.601360245262986925e-01,3.410690104702591152e-01,3.554937615170352672e-01,-3.284001339723561369e-02,-9.753567597789936788e-03,-2.149096808359988835e-03,1.070528402924537659e-01
2.532862559073938424e-01,3.475915026602117153e-01,3.460962962902520701e-01,-1.993373135541193913e-02,-1.338670151551338977e-02,-7.282629538295492047e-03,1.031673029065132141e-01
3.141747910395167320e-01,3.010100077412243280e-01,3.145273092158073491e-01,-1.450500944623285549e-02,-1.453147451532571521e-02,-1.548144834292387514e-02,4.649494215846061707e-02
2.930846380740305679e-01,3.142450742933613483e-01,3.510581027605351734e-01,-1.964749693880757028e-02,-1.855567867801302326e-02,-1.609893490937447727e-02,7.450155913829803467e-02
3.157489891034697127e-01,3.150972497820194729e-01,3.224298073063810444e-01,4.925471177692381484e-03,-4.848836341075597051e-03,4.534644338557290710e-03,1.595041342079639435e-02
3.393298738510855395e-01,3.271382973520773896e-01,2.895362183914216292e-01,6.018287767811418380e-03,-2.724801259258574897e-03,4.202494262166615001e-03,4.695631191134452820e-02
3.031204670547715807e-01,3.507265267808222231e-01,3.286859977240551012e-01,-5.135584520735026609e-02,-6.051921019911783717e-02,-3.503330349998310528e-02,1.558359712362289429e-01
3.166084191031500183e-01,3.311570755673848288e-01,2.982122676164701836e-01,5.507148423286817827e-03,-6.229671712777982463e-03,3.836919603423099949e-03,3.270014375448226929e-02
3.186690824903581354e-01,3.230325247520872134e-01,3.172147646540669497e-01,3.664968555532784923e-03,-1.586016429946320722e-03,3.771425138850931745e-03,1.086341403424739838e-02
3.442107082288625164e-01,2.837889201331316169e-01,3.599160390335934823e-01,-5.419084390747515995e-02,-3.780400051283797774e-02,-4.337825137737760101e-02,1.535864025354385376e-01
3.125518913600011106e-01,3.360977752403921381e-01,3.089833847271773459e-01,2.251304586605243092e-03,-5.862591365161851824e-04,9.093240144203555177e-04,2.588210441172122955e-02
3.497743859027857560e-01,3.011295648012268233e-01,3.174784503856186713e-01,-4.002440623410363166e-04,1.086407604559966062e-03,1.649481055300435969e-02,5.156135931611061096e-02
3.484052168760275459e-01,3.158800497274767971e-01,3.023345290672833641e-01,-3.657714470798880194e-03,2.783497487871724151e-03,1.381177175553368469e-02,4.814159497618675232e-02
3.169586885213644956e-01,3.374547707754975701e-01,3.054471856294773691e-01,4.883843121524243484e-03,-1.480458783363111826e-03,1.261962335856580547e-03,2.952039055526256561e-02
2.680427191003904031e-01,3.385589310174249023e-01,3.534289860130555017e-01,3.322724274372000630e-02,-1.465253183092481669e-02,8.761704614486798617e-03,1.021213755011558533e-01
3.202411923137697958e-01,3.186386832967391114e-01,3.159142556072139230e-01,2.086833671939564497e-03,-1.990853251397150386e-03,1.572606550100552397e-03,6.835996638983488083e-03
3.197877119037600968e-01,3.276975820548468366e-01,3.084707102741031104e-01,4.901000329324261412e-03,-1.507032504319101400e-03,1.300887180221318908e-03,1.908157207071781158e-02
3.428631937949792596e-01,2.890377590299478272e-01,3.130114567742177667e-01,7.090562238894357544e-04,-3.384108490041872462e-04,8.659258098485745139e-03,4.907464608550071716e-02
3.082525565953075364e-01,3.065373580853948954e-01,3.404482799741704868e-01,1.393887338693885342e-03,-9.294382505063783235e-04,3.456434970063685394e-04,3.321908041834831238e-02
3.435578113934568134e-01,3.077440465993279695e-01,3.089658852885429630e-01,2.968729561466109963e-04,-5.012569830122282034e-04,6.945736743094595503e-03,3.723046928644180298e-02
3.198675450666486619e-01,3.226195075985743843e-01,3.113602799889357842e-01,-4.284785293147980005e-03,1.628477198718433121e-03,1.561006104003589794e-03,1.317963283509016037e-02
3.105776366818773782e-01,3.109271763151187917e-01,3.330145716657449961e-01,-5.716847390722297126e-03,4.326086143154715333e-03,3.735907141620491492e-03,2.630130760371685028e-02
3.192953293516364588e-01,3.177966351307767723e-01,3.195033286849938703e-01,-1.853082657628529143e-03,1.373550170835422055e-03,1.882081898994647246e-03,5.402725189924240112e-03
3.188542983304085143e-01,3.120915425965833934e-01,3.212094846002068738e-01,-1.105991149093761604e-03,3.017786768737403761e-03,8.933826100560905703e-04,1.002968009561300278e-02
3.436120478152456803e-01,3.008746436480321806e-01,3.167803590533280200e-01,5.141377977916287804e-04,-4.345618861307308338e-04,1.659571359544818187e-02,4.719450324773788452e-02
3.422697565060576208e-01,3.307124267003188067e-01,3.260542065515871224e-01,-4.822113434568697093e-02,5.380895803172016517e-02,4.944683503420221893e-02,1.523355543613433838e-01
3.065067956105272939e-01,3.084986024630095858e-01,3.416458953101326745e-01,9.055290072404604792e-04,-2.915370563878556722e-04,-2.521329669022797228e-04,3.422921150922775269e-02
3.648388722347760682e-01,2.532161529273812550e-01,3.209741233636795310e-01,-8.519274965813535341e-03,-6.667373756240065237e-03,-4.586797647438489028e-02,1.270832568407058716e-01
3.791914654519090710e-01,9.275419495878847731e-02,4.197021130421310087e-01,-8.933350435010008195e-02,-4.247893581063359736e-03,3.997003438264741179e-03,3.454484939575195312e-01
3.180604864788166286e-01,3.154976268107199666e-01,3.213493495719422777e-01,-2.525977946605584604e-04,1.423676159488943124e-03,6.663067454678523512e-04,5.780798848718404770e-03
3.901499699482769978e-01,1.063068970378421296e-01,3.877911818420414214e-01,4.289601252840992418e-02,-4.082548164758958292e-03,1.201425998388573743e-03,2.923652827739715576e-01
3.835563982060531396e-01,2.557539043717744764e-01,3.615878569902489237e-01,-1.280893330828057619e-02,-6.257809324524532708e-03,-4.433520738988466076e-02,1.432305127382278442e-01
3.277753538417410017e-01,3.275886505057058473e-01,3.007413186875650957e-01,-5.825644347529999184e-03,3.349610221786655708e-03,2.987381131396257914e-03,2.980056963860988617e-02
3.213834804918309640e-01,3.152197372351507876e-01,3.163292812485342664e-01,-2.088069854702947863e-03,8.789636891050117348e-04,3.770271930071726835e-04,6.943209562450647354e-03
4.056993632528007598e-01,1.289094611851656635e-01,4.198778844531629861e-01,1.368567297258730178e-02,-2.340049566771404063e-02,-8.773970378556522620e-02,3.256340920925140381e-01
3.833218707706198547e-01,2.554102604033512414e-01,3.620924785371224530e-01,-1.440017778349470846e-02,-7.188217436104405410e-03,-4.402258382355605376e-02,1.438320279121398926e-01
3.872934395910985206e-01,1.601793086810746336e-01,3.773297264720569255e-01,4.196609808158952015e-02,1.704856374483641052e-02,-6.429267088538148656e-02,2.607168257236480713e-01
3.376908981737321569e-01,3.272757505863480021e-01,2.924347377606535403e-01,-5.879476065386024519e-03,2.389830465860419157e-03,3.952528949545341085e-03,4.304592683911323547e-02
3.282886450533608613e-01,3.119779968489396760e-01,3.125556349521471100e-01,-2.558335905954612233e-03,8.176657613966416705e-04,1.102373320613759308e-03,1.679987832903862000e-02
3.907940822091899857e-01,2.303112995020322740e-01,3.792769534511505891e-01,3.107995884035431866e-02,7.058015401832024201e-03,-2.587844218093980977e-02,1.705739945173263550e-01
3.422872497113819690e-01,3.085588934420094298e-01,3.053563632757781421e-01,2.411026480352660567e-03,-2.074145604418566307e-03,3.885860302124636602e-03,3.648998960852622986e-02
3.424744743766512944e-01,3.155601813252641996e-01,3.021622881175733411e-01,3.782308819640705852e-03,-1.383938235287004862e-03,2.162616188620922284e-03,3.643036633729934692e-02
3.387147683149498989e-01,3.053542985380753860e-01,3.097622135898702722e-01,-1.147896936296281204e-03,2.553656509365982187e-03,3.643362438316382138e-03,3.238270059227943420e-02
3.427368276521404744e-01,3.013331344786878141e-01,2.996499595743009614e-01,-5.828104775088525664e-04,1.212638120865876267e-04,1.424639274251398788e-02,4.895641654729843140e-02
3.418969994239520749e-01,3.075055822473414247e-01,3.084111948756725341e-01,-1.017791730688990447e-04,6.207543359858678708e-04,7.259557184086337135e-03,3.621788322925567627e-02
3.353048988620281334e-01,3.121683019771354650e-01,3.088623051217189719e-01,-9.363860366299974185e-04,7.573136164835118271e-04,1.416453849153502097e-03,2.516130544245243073e-02
3.440101317018170457e-01,2.887953650405305495e-01,3.130064344762837347e-01,-1.396182703965318482e-03,2.001195303276818039e-03,8.808857068451352024e-03,5.048453062772750854e-02
3.415041147797714394e-01,3.024640433513921534e-01,3.150093048246237482e-01,-9.803023128486503673e-04,2.603753086294583342e-03,2.200281358892879069e-03,3.506405651569366455e-02
3.444317295411384872e-01,3.261078447774629629e-01,2.853704925944556825e-01,-2.617864029278102207e-03,1.791539156018426889e-03,5.318795353903122379e-03,5.344923213124275208e-02
3.424676108595491320e-01,3.184004448701551193e-01,3.034459650647965412e-01,-5.945700237745702409e-03,6.625188778938122941e-03,1.228459532670837621e-02,4.304932430386543274e-02
3.039604986793362773e-01,3.091254367668349601e-01,3.395642402735175591e-01,4.266095375928084799e-03,-7.487608115697197463e-04,2.220116855636294299e-03,3.437265381217002869e-02
3.433446459337033962e-01,3.032553373478981129e-01,3.087689513004725494e-01,-3.423126476950412347e-05,-4.423027549710550140e-04,4.267746431811134805e-03,3.836335614323616028e-02
3.104019452144843316e-01,3.334400119249426586e-01,3.111986551690852920e-01,3.490028792858286891e-03,-5.384675202582268894e-03,4.395218982351822498e-03,2.635358646512031555e-02
3.130217133742355662e-01,3.323702728174187659e-01,3.119490219625697947e-01,3.371137144892008726e-03,-3.863832716772841805e-03,3.729391173707683957e-03,2.273496985435485840e-02
3.415967145600266042e-01,3.101214779469792515e-01,3.060127154131249694e-01,1.517241714162490766e-03,-3.935633178600083737e-04,1.231879993373453984e-03,3.389424830675125122e-02
3.357695315109200385e-01,3.152518408777788550e-01,3.034468202227543765e-01,2.920619084757567884e-03,-1.386407685439427096e-03,1.732497163403598972e-03,2.903285995125770569e-02
3.094067773389782561e-01,3.234613145253900646e-01,3.192068845495999452e-01,1.167096650644228878e-02,-1.174280809770827418e-02,1.195046952941207670e-02,3.750456497073173523e-02
3.209497076093655310e-01,3.197570953969178231e-01,3.157440825616534830e-01,3.284944071544497034e-03,-3.701310765002636949e-04,1.086678546128972984e-03,7.657593581825494766e-03
3.101945231516961554e-01,3.256442572956813608e-01,3.087758991978759582e-01,5.855713101038853736e-03,-7.267787887310557873e-03,5.440522196184195344e-03,2.475383505225181580e-02
3.322023114625962670e-01,3.108674386677027224e-01,3.118662114856012302e-01,5.825822842042988753e-04,-2.131627241325814888e-03,6.108542392165384810e-04,2.122816070914268494e-02
3.066655711019512509e-01,3.096840917619877454e-01,3.414767301312510717e-01,1.054022679469691828e-03,-6.780347654196886703e-04,1.219093865556695631e-03,3.354132920503616333e-02
3.277198638179662504e-01,3.271609928979067328e-01,3.018266089795265672e-01,6.247760262066520166e-03,-2.047068391312587346e-03,2.012290084322410945e-03,2.825110405683517456e-02
3.178010113249324364e-01,3.256352917865947272e-01,3.151360824484426559e-01,2.997200590257364464e-03,-1.963509379663828155e-03,3.157615047512201973e-03,1.256116759032011032e-02
3.153249713873199633e-01,3.253029812155924794e-01,3.145409690660362911e-01,1.856292770948243884e-03,-4.134495660452230958e-04,3.487631592585261611e-04,1.091848500072956085e-02
1.462453136310002677e-01,3.389301718803208185e-01,3.944533059864197555e-01,-1.079559221242547967e-01,-3.984845873363431802e-03,-4.584291726418461728e-03,2.932283580303192139e-01
2.824683623187871362e-01,3.080481664351785165e-01,3.481544793358920531e-01,-2.863720498063594688e-02,-4.108180106235519852e-03,-4.044028029020758745e-03,7.647690176963806152e-02
2.569627019708027871e-01,3.386058486908047338e-01,3.761015029614058203e-01,-7.291078461888478301e-02,-2.028348954326260681e-02,-1.055044578787728109e-02,1.692599654197692871e-01
3.024855155429160281e-01,3.007488618701335548e-01,3.390673629015668600e-01,-1.349606907968946626e-02,-3.388290237754680492e-03,-3.138103264643887259e-03,4.489091038703918457e-02
3.166290800052747878e-01,3.286895765932957292e-01,3.083463479272410823e-01,3.937179613525479405e-03,-1.412473900699505241e-03,1.265582604682573232e-03,1.926778629422187805e-02
2.774105387095072150e-01,3.286438367895854196e-01,3.661024629125149144e-01,-7.394203389625723932e-02,8.325841286109315550e-03,4.289231032065779839e-03,1.503747105598449707e-01
3.318384839989221846e-01,2.955654356340736699e-01,3.116795219078519197e-01,9.503611729581817186e-03,-9.569443749886493572e-03,2.010957468624228334e-02,5.243810266256332397e-02
3.074095820271164348e-01,3.096260230413810377e-01,3.397446060004041257e-01,8.176714951756889303e-04,-4.321764594024452206e-04,1.497310764804049912e-03,3.143389150500297546e-02
2.984859485689255743e-01,3.262144085781607528e-01,3.571026259569736738e-01,-4.042832157877672417e-02,1.340442361132801290e-02,8.961555261927336979e-03,9.089963883161544800e-02
3.672631218165029465e-01,3.474679140759574514e-01,2.521707938654699221e-01,2.643578298286983815e-03,7.874874807051925746e-03,-2.947569157646701132e-02,1.190515607595443726e-01
3.200865116705545188e-01,3.186550603969121043e-01,3.165267140775480659e-01,2.130348466403379683e-03,-6.812465244018167188e-04,1.091822885226389908e-03,5.311234388500452042e-03
3.209622592580509415e-01,3.181579601942676749e-01,3.175790848201696659e-01,1.613329870353245139e-03,-8.999125582362772985e-05,6.648500324094874531e-04,4.356765188276767731e-03
3.151142960215683186e-01,3.216527427892471591e-01,3.168069114840060818e-01,-2.100428329825937933e-03,7.728059081058746751e-04,8.105694090231334217e-04,7.179645355790853500e-03
2.938444415878937455e-01,3.307914028631118164e-01,3.430287768737982912e-01,-1.336471463186549892e-02,9.236779332047872354e-03,8.397502471293647602e-03,5.450064316391944885e-02
3.266395651305043502e-01,3.351326792500932683e-01,2.957588948226587133e-01,-7.176464604491587448e-03,3.701665989675902678e-03,5.864582343966241035e-03,3.983483090996742249e-02
3.097998132408339433e-01,3.201338432912134158e-01,3.287469690975796111e-01,-1.462889993708943676e-03,1.681203669931790419e-03,3.352477234710333175e-03,1.784946024417877197e-02
3.173010972204271529e-01,3.064659950810667000e-01,3.309912569993103681e-01,-1.399961322890325936e-03,4.384918002950951785e-03,2.465367287519228037e-03,2.312899753451347351e-02
3.181692303084683870e-01,3.224843201044625962e-01,3.164623641005887555e-01,-6.301523794528642378e-03,3.968759704709934159e-03,5.065776741333509470e-03,1.650047674775123596e-02
3.177708872810336427e-01,3.179267633149276406e-01,3.180153629534714921e-01,-4.151476929528027655e-04,2.845608776150300727e-04,7.832032049930420748e-04,1.626698183827102184e-03
3.172539254209353898e-01,3.198265491156103146e-01,3.180912258398363446e-01,-5.508516062529012760e-04,2.410111522403622034e-04,6.960520146031689984e-04,2.775507513433694839e-03
3.172915403997632056e-01,3.154529757464475948e-01,3.159907927289515306e-01,-4.100691001046784245e-03,4.150565441623269361e-03,4.594646172604965016e-03,1.296694483608007431e-02
3.186850514846005233e-01,3.178148373280164640e-01,3.178599826747545154e-01,-1.743066004173147651e-04,3.265484208595117012e-04,4.097847511629776498e-05,1.065885764546692371e-03
3.115202195331956969e-01,3.116378098806310004e-01,3.252106073200307090e-01,-5.526513854941256937e-03,5.212445105672054886e-03,5.466201679125730871e-03,2.118028700351715088e-02
3.464798324254289574e-01,3.204587839266612725e-01,3.574131950420437742e-01,-6.146060106238189491e-02,5.114582679904711854e-02,6.434994832616604266e-02,1.807865649461746216e-01
7.974604816704911059e-02,4.949014446450568094e-01,4.229890009845284626e-01,3.956686859873646822e-02,5.446299274521968457e-03,-1.441173317536890292e-02,3.912534415721893311e-01
3.218818345934296166e-01,3.130325416220668400e-01,3.203150614723120349e-01,-8.741233120479975985e-03,6.754032357063638296e-03,6.520137018621707109e-03,2.367519401013851166e-02
3.095870724716682787e-01,3.174417259418023107e-01,3.277608969432974084e-01,-2.089399449792706583e-03,1.882238363841839523e-03,4.996328733421404739e-03,1.865072362124919891e-02
3.216453239544384002e-01,3.218817025536520049e-01,3.144980111098185649e-01,-2.410100377134149086e-03,9.578604575625846579e-04,9.837503516509805025e-04,8.712689392268657684e-03
2.468946992935727169e-01,3.781638680563016441e-01,4.080576595935851980e-01,6.173038881154750690e-02,-1.373597711895967882e-02,1.262599408392021949e-02,1.858105659484863281e-01
3.213492659539259333e-01,3.121482449520836533e-01,3.197182610646666645e-01,-5.973122146706904200e-04,3.465007210417848926e-03,5.721697619995614074e-04,1.050634868443012238e-02
3.227735161082023185e-01,3.240020144789826362e-01,3.210950655066883708e-01,-8.900136717622159077e-03,-8.768901026338298682e-03,-9.478520988929704447e-03,2.728064544498920441e-02
3.286086984139577893e-01,3.203238169235602673e-01,3.103013330393326608e-01,-3.588282698420355334e-03,1.536929301870758671e-03,1.565046169664511665e-03,1.746958494186401367e-02
3.165364238563082022e-01,3.158994287960354419e-01,3.198603781009906055e-01,-1.933374394009278185e-03,-1.816063900277622122e-03,-1.119573786212209061e-03,6.200015079230070114e-03
3.117573858845823498e-01,3.211808320526241545e-01,3.199720568486681405e-01,-1.387445215769916862e-03,-1.496858710703032015e-03,-4.231175896873284187e-03,1.204479020088911057e-02
2.950700342656609187e-01,4.219198968035648978e-01,2.219664356098434710e-01,-4.037918126113343442e-02,1.548441850106204165e-01,1.101688202364998065e-01,3.793959915637969971e-01
3.524990540739844080e-01,3.481693793087367039e-01,2.497382281020636974e-01,-2.935298952270986705e-03,9.352767958387005719e-04,1.196479144074985047e-02,1.029152721166610718e-01
3.522270950242174514e-01,3.407255125194475487e-01,2.727615718447597981e-01,2.753285200028033047e-03,-5.805491001823232834e-03,5.878388317929530808e-03,7.589858770370483398e-02
3.415547041125803762e-01,3.168728864956241176e-01,2.911499838968396037e-01,-6.379514623048069925e-03,3.174397845603208791e-03,6.266910185765401861e-03,4.664649441838264465e-02
3.161241162808455241e-01,3.188745272916668760e-01,3.176619038248014726e-01,-6.528316680728699041e-04,-1.175300456395631139e-03,-1.368494701583277415e-03,4.091564100235700607e-03
3.190835646556741678e-01,3.198390016447655304e-01,3.194704035137363451e-01,-1.003144387950903691e-03,-2.249777295567555787e-03,-2.239058606746620762e-03,5.802726838737726212e-03
3.410746776051629681e-01,3.150131741414627373e-01,3.009550929127592922e-01,-2.083051031341096211e-03,6.407504588133563833e-04,2.271784569482888580e-03,3.567826002836227417e-02
3.153206436113496491e-01,3.212769112142656036e-01,3.174148037614847317e-01,-6.266975918320638866e-04,-5.558903237560327984e-04,-1.917910895676781975e-03,6.366293411701917648e-03
3.446303616674075698e-01,3.146065917917192922e-01,3.011465869662809380e-01,-6.762739250478865113e-04,-2.109148335472555856e-04,2.417222224454255216e-03,3.880403190851211548e-02
2.840402709622797395e-01,3.599019018004940285e-01,2.770541319195141128e-01,-7.838989656136403222e-03,-6.067820821044413171e-02,-6.716392710978877183e-03,1.330375373363494873e-01
3.471939083999675546e-01,2.850017077290936118e-01,2.993340612457759953e-01,-5.547420259209432519e-03,6.944779108147532479e-03,3.279621536232895512e-02,8.152123540639877319e-02
3.337041359697451304e-01,3.070082886124595456e-01,3.174013882432574207e-01,-1.542030529956654739e-03,4.503218256392955282e-03,2.238483751859208018e-03,2.502468973398208618e-02
3.395168038659092669e-01,2.941725949905120707e-01,3.211899139269471237e-01,4.519034868216432674e-03,-5.275118595022132775e-03,1.502876230743951588e-02,4.881895706057548523e-02
3.414395180909180483e-01,3.142834188187203504e-01,2.986026684131113940e-01,1.012217830479997206e-03,-8.250614167391051731e-05,3.319751916213960295e-03,3.801741823554039001e-02
3.038691082394275877e-01,3.567284982688196937e-01,2.436209513095322077e-01,-1.414635880917714840e-02,-6.159161246292736702e-02,-1.646374866591824443e-02,1.496754437685012817e-01
3.321877797691082379e-01,3.472513256327514064e-01,2.757808667692303595e-01,-4.146809694207586813e-03,-1.088468941497516655e-02,-3.027580059428066402e-03,6.850441545248031616e-02
3.379818725574835758e-01,3.171790484699413271e-01,3.036926745665439742e-01,4.764268823369679183e-03,-1.885126346068009308e-03,1.307158783015847795e-03,3.129019588232040405e-02
3.214651227402135492e-01,3.472984719037274792e-01,2.935164089128470821e-01,-6.086679439202958078e-03,-7.149275215956095962e-03,-2.459312972598147375e-03,4.952903836965560913e-02
3.333797116143480954e-01,3.481567353660285913e-01,2.761127292151388524e-01,-5.103703722643696851e-03,-9.327339513582276129e-03,-4.775289626404216094e-03,6.893225014209747314e-02
3.253869493893578047e-01,3.610057681035857002e-01,2.750903210821037392e-01,-6.299167002831906198e-03,-1.905191021488239142e-02,-1.364905726088045182e-02,8.577185869216918945e-02
3.602851933054194156e-01,2.783909904529686119e-01,2.874053211333806868e-01,3.843189650924110946e-03,-5.341038677231686738e-03,7.664666963018318402e-02,1.542845517396926880e-01
1.754331609026088812e-01,4.614301869624565233e-01,3.529252434054028775e-01,5.127102107030660945e-03,-1.105994661673763285e-01,4.849446493993984225e-02,3.261384069919586182e-01
3.020479782255371393e-01,3.426250162850217884e-01,3.197583129083826359e-01,6.961053668543919909e-03,-1.270929787774694938e-02,5.262072276765821649e-03,4.421012103557586670e-02
3.184029526996607906e-01,3.185095943323001388e-01,3.178461144540390415e-01,4.461762363641756874e-05,-1.535092438192176879e-04,4.403350742271892057e-04,1.019399729557335377e-03
3.153692810049494311e-01,3.155409545100112401e-01,3.218447949482582948e-01,5.130344084616555523e-04,-2.077669122987874529e-03,9.396964619261980942e-04,7.565639913082122803e-03
3.285608193629593332e-01,3.159910573491621077e-01,3.127244238341109761e-01,2.546423048319954290e-03,-8.843699507381339205e-04,6.117455133398295389e-04,1.525294873863458633e-02
3.183623065388558326e-01,3.157470726523032845e-01,3.225691558000775561e-01,9.005462125521730265e-04,-4.205710127774277252e-04,1.011440235176423643e-03,6.447600200772285461e-03
3.204880414950773693e-01,3.156470609392851290e-01,3.146000941098167636e-01,1.577893957197594975e-03,-1.282761109742366120e-03,6.055273139837058071e-04,6.565458606928586960e-03
3.208172254101134269e-01,3.172143198369821171e-01,3.158499020048061712e-01,2.170496044329170166e-03,-4.938500467906625953e-04,2.044033737059778449e-03,6.867130286991596222e-03
3.217379471537992197e-01,3.158755453938861812e-01,3.174957933964341339e-01,9.430857628405136042e-04,3.876779342017453215e-04,-5.598783304307251895e-04,5.617287475615739822e-03
3.034035111121392014e-01,3.093625060045585018e-01,3.413023468990515896e-01,4.335722534808794659e-03,-9.040476788504036784e-04,1.701130601092721737e-03,3.624253347516059875e-02
3.196311031305780204e-01,3.173205664929465986e-01,3.188573537002501457e-01,8.865267349824673595e-04,2.013862912938833991e-07,8.335232300681355176e-04,2.931136870756745338e-03
3.203677267405765638e-01,3.185242902697584810e-01,3.187982459346203057e-01,1.989142431183978446e-03,-1.594328998969201088e-03,2.092511623356635431e-03,5.966558586806058884e-03
3.619173494080454301e-01,3.551937704864696066e-01,2.585794421450697267e-01,-2.401840491185892532e-02,-2.205325224443887774e-02,-7.493029652877969404e-02,1.733853071928024292e-01
3.412432536466324939e-01,3.531379725539390280e-01,2.527389695925186808e-01,1.473025542100795011e-03,-4.939270919153561368e-03,-6.167750821123074538e-03,9.602628648281097412e-02
3.448276049211240202e-01,3.611527903490562297e-01,2.635830806959104100e-01,-4.964977350063940267e-03,-2.990519114985813048e-02,-1.192819135878825897e-02,1.066643148660659790e-01
3.486542585583005671e-01,3.474147929071358387e-01,2.515937486088933861e-01,-6.673373880503119873e-03,-2.036127368862732795e-02,-1.565752125176510245e-02,1.068400442600250244e-01
3.501623477474733459e-01,3.592553330877749640e-01,2.568052830872019077e-01,-5.896338237249393842e-04,-9.329338184013437688e-03,-5.304048506363824578e-03,9.996834397315979004e-02
3.347330465589250514e-01,3.476528166978273826e-01,2.725799299160507339e-01,-1.652849101872225137e-03,-1.136658836335872370e-02,-9.203401581375689720e-04,7.232750952243804932e-02
3.284634882772089481e-01,3.002630895467823247e-01,3.269711161322890192e-01,3.335674795365644717e-03,-5.736520319561685434e-03,3.016939568836050477e-03,3.024587780237197876e-02
3.157439014634041419e-01,3.221601708750175264e-01,3.163729913054175724e-01,7.898053229211427113e-04,3.262175280524828272e-04,4.866363371444314394e-04,6.358374841511249542e-03
3.412728103116275946e-01,3.074120663904531536e-01,3.010298504590707691e-01,-1.211730567505981283e-03,-7.180692722023161332e-04,-5.385202820117126511e-03,3.868258371949195862e-02
3.356531862473716155e-01,3.063983327848367466e-01,3.110129437850183698e-01,-1.698027811032118591e-03,-3.495265892930204173e-03,-3.610784915554811781e-03,2.874987199902534485e-02
3.435500392060986674e-01,3.022646308055128572e-01,2.999035222181986038e-01,-1.898981254311176987e-04,9.517375836400267686e-06,-1.682375601814244115e-02,5.154380574822425842e-02
3.351809878064253567e-01,3.168496845060679856e-01,3.070699307412013135e-01,-4.255752515735206944e-03,-1.930500890971240720e-03,-1.628035848037424687e-03,2.616146393120288849e-02
3.219288014956560584e-01,3.262381078429095194e-01,3.084984393232957367e-01,5.904343787293315875e-03,-8.274020416319522245e-03,5.397701471428820001e-03,2.557709813117980957e-02
3.345249209473210583e-01,3.158998551319768811e-01,2.983030331155859249e-01,-5.871778068916260959e-03,-3.550188371346399939e-03,-6.583291378197389868e-03,3.543370217084884644e-02
3.389537870376753692e-01,3.047640281992251010e-01,3.061969889487909935e-01,-2.089219019682554430e-03,-1.880369337333770083e-03,-4.081598604436807547e-03,3.457861393690109253e-02
3.186091543769638545e-01,3.179707811596828027e-01,3.178682409887849114e-01,5.583293670035285877e-05,-3.571441296359851550e-04,7.478159828443771277e-05,9.446048643440008163e-04
3.104165416608362094e-01,3.303102381180824665e-01,3.121490541004848795e-01,-5.195203584837741403e-03,-7.871571907194027315e-03,-4.768142049465429536e-03,2.644533105194568634e-02
3.172453853694986448e-01,3.077105054972597009e-01,3.283152369205410981e-01,1.921923268673841282e-03,-3.876515333179746461e-03,1.420223113151448686e-03,1.952485181391239166e-02
1.774002411520136657e-01,3.831858998995226750e-01,3.419944643623910041e-01,1.597667171866525709e-02,-1.161822427985844258e-01,1.860141225469257725e-02,2.790458798408508301e-01
3.007805140823699430e-01,3.512147701899730468e-01,3.192491406661927544e-01,-2.986134713320650908e-03,-1.861320511325446556e-02,-9.112419758682756450e-04,5.497134849429130554e-02
3.181409356893120655e-01,3.188638765836915856e-01,3.177338520290993173e-01,3.691339259063127799e-04,-1.713823009784128538e-04,6.979141793820952235e-05,1.222360762767493725e-03
2.082282523995949708e-01,3.664686896219723211e-01,3.516918681958290382e-01,8.736467004139629108e-03,-2.582805196368738801e-02,-2.451122899068398746e-03,1.586454063653945923e-01
3.365459223172814762e-01,3.573812255008173566e-01,2.770691363346913239e-01,-3.296419459253084161e-05,-2.937433925216317160e-02,-1.598406004447889021e-03,8.835744857788085938e-02
3.128804861709967855e-01,3.398580232771876153e-01,2.913735130734363965e-01,5.480794239735246182e-03,-8.293619940997606563e-03,1.713722416066241778e-03,4.556119814515113831e-02
3.079659893516391578e-01,3.389929565963782920e-01,3.090759270674300341e-01,1.050020041956390001e-03,-5.148958341503288676e-03,2.586084773474438357e-03,3.213056176900863647e-02
3.357626956200930324e-01,3.064001021927487134e-01,3.099648548862883324e-01,1.636399409342203333e-03,-3.699401594840027660e-03,3.018805668436277956e-03,2.909688465297222137e-02
3.094444601794059113e-01,3.435199171550327724e-01,3.024853510889944919e-01,-1.756990459700099975e-03,-4.095236311469817314e-03,5.660131508935657934e-05,3.881087899208068848e-02
3.286655338805526405e-01,3.132775813797698539e-01,3.118553675391722568e-01,7.998387406756676983e-04,-9.517093777975042367e-04,-2.833561451144348074e-04,1.629644446074962616e-02
3.284483808980008246e-01,3.134632078544083988e-01,3.153728662127352478e-01,8.643763233517189146e-04,-2.420343241281988026e-03,2.728648532560171060e-04,1.481973845511674881e-02
3.145372073467447294e-01,3.437764599470095050e-01,2.884439727512683738e-01,1.870421131007010945e-03,-9.389095913831031759e-03,5.711134974157062181e-04,5.074127390980720520e-02
3.040306337149006888e-01,3.401258325797560378e-01,3.059737392427319680e-01,2.851206328114473318e-03,-5.387290262619854123e-03,3.037379273572516410e-03,3.708956763148307800e-02
3.116412263031246854e-01,3.402309297244267006e-01,3.043688586587232070e-01,3.518091686771603228e-03,-3.299561291243942492e-03,6.915927943829619593e-04,3.390280902385711670e-02
3.414993290839882789e-01,3.060279695551039181e-01,3.097123106116999591e-01,1.319582609735891251e-03,1.114413915165289549e-03,-6.974642739571580707e-03,3.599985688924789429e-02
3.430680615278409173e-01,3.129712100775725592e-01,2.876115051751831353e-01,2.222003792541066421e-04,6.762125842068595748e-04,-9.204303806488563916e-03,5.067405477166175842e-02
3.220496515472075494e-01,3.157161180227671671e-01,3.167243444232110128e-01,7.001801646321981817e-04,-6.198808791854661365e-04,-7.095685443051592605e-04,6.235263310372829437e-03
3.123386239366527928e-01,3.282386690078119007e-01,3.128757082149185020e-01,9.261896869183260453e-04,9.533303677730575949e-05,9.733870333659784199e-04,1.581149734556674957e-02
3.412058454326657442e-01,3.065618579637421903e-01,3.029860450858947729e-01,4.643476200211028859e-03,3.234783564580001429e-03,-1.169748644527887800e-02,4.293533787131309509e-02
3.218040949627160030e-01,3.243021240001553451e-01,3.100055361300378953e-01,6.105744671636418978e-03,7.902017562123624453e-03,-5.666078917160415930e-03,2.388302050530910492e-02
3.066439623494651712e-01,3.237220198545393557e-01,3.204264969576490207e-01,2.425662193018738449e-03,3.323865919050158525e-03,-5.525073281471953521e-03,1.971330679953098297e-02
2.781688179612694656e-01,3.285551586598193796e-01,3.312593464927550690e-01,1.516664145281636580e-02,-1.392664077752570236e-02,9.546505674351085657e-03,6.502071022987365723e-02
3.058832625708398090e-01,3.210016015755067786e-01,3.276725731684864140e-01,3.038902177132265896e-03,2.177678815438139487e-03,-6.216285746293532394e-03,2.306031808257102966e-02
3.328275919065623034e-01,3.104883881184550276e-01,2.838139418400039693e-01,1.038840818980568508e-02,-1.046104235674491859e-02,2.519576102816126553e-02,6.605292111635208130e-02
3.063273357137896169e-01,3.170419753514904238e-01,3.308889656590519590e-01,1.001034204382135126e-02,5.283210558114778341e-03,-6.159400191894440213e-03,3.087200224399566650e-02
3.113793556792087136e-01,3.140580251618842467e-01,3.281345551198171506e-01,1.032793081026353111e-03,1.535256750799863937e-03,-3.786278087858365241e-03,1.721362955868244171e-02
3.189673252151727922e-01,3.118207966455855407e-01,3.223658380054731931e-01,2.325905437164926728e-03,4.349164827644597803e-03,-2.688419415914178150e-03,1.347472984343767166e-02
3.214720070356421044e-01,3.140730266416819627e-01,3.209886725764294346e-01,6.723678996244712019e-03,6.570548968888061635e-03,-6.968283755457441858e-03,2.149914391338825226e-02
3.180820597585377052e-01,3.190958337789618349e-01,3.181631008835982821e-01,-1.200598763104082677e-04,4.616164184696394538e-05,2.413502642218002940e-04,1.084681367501616478e-03
3.102000427029906193e-01,3.980027938953842326e-01,2.990072946759324002e-01,2.894624515632992709e-02,8.396617903877122424e-02,-2.433741792957236361e-02,1.850915849208831787e-01
2.775258578990535963e-01,3.427243314323999979e-01,3.307392018915913945e-01,-8.659550202413645106e-03,2.441951682314214001e-02,6.520451035376371995e-03,7.585857063531875610e-02
2.613771810766960524e-01,3.347966085796268421e-01,3.165931368902334953e-01,3.716454097728089101e-02,4.653387387346880066e-02,-2.608400369598598903e-02,1.306377798318862915e-01
3.071953235952836203e-01,3.363645232098436133e-01,2.919924836193790174e-01,1.694196666058018011e-02,2.639226713614938394e-02,-1.647236795986180627e-02,7.273366302251815796e-02
3.386703452401232384e-01,3.555947094751765181e-01,2.707019614550613684e-01,1.035483620168712801e-02,3.051850348684005676e-02,-1.578552036426494540e-02,9.959824383258819580e-02
3.347347716630517112e-01,3.477187923985103346e-01,3.379923499431612410e-01,5.209702568913848059e-02,5.252423837291803066e-02,-5.243050645661828657e-02,1.574879735708236694e-01
3.424060495195643261e-01,3.085536214905103547e-01,3.077770026599231379e-01,2.417927213582088484e-03,-2.410769931755068173e-03,7.307699071906840690e-03,3.698732703924179077e-02
3.483045877545106750e-01,3.156777445514348246e-01,3.071622129409666280e-01,6.252849909210909246e-03,-6.564369212468152900e-03,1.456953465259466611e-02,4.793997481465339661e-02
3.356236307587373568e-01,3.095133182030428975e-01,3.083863722898609883e-01,6.884151212134774619e-04,-1.110230578616735499e-03,4.094915604541349784e-04,2.679675258696079254e-02
3.789373377752952576e-01,2.619345618642180407e-01,3.289710918144588825e-01,-3.696758753104307377e-02,9.608391466166564532e-03,5.235027599800296666e-02,1.514546573162078857e-01
3.390641953607368975e-01,3.017628823660692960e-01,3.054075041040431038e-01,4.731188384983403550e-03,-4.400799853913712686e-03,1.218149753548008161e-02,4.288522154092788696e-02
3.435688860626346930e-01,3.095868641121139464e-01,3.089604878106204655e-01,-1.776407818373132311e-03,1.316526416990815513e-03,6.420107915395030160e-03,3.625983372330665588e-02
3.080949220831951663e-01,3.413229389143006554e-01,3.036985003696703878e-01,9.122706476588982646e-04,3.406792246274102307e-03,5.092633544852527084e-04,3.616085648536682129e-02
3.473079782729354137e-01,2.890761715568359591e-01,3.167374100457945318e-01,3.466501461341136496e-04,-4.222275156153355163e-03,9.423706331023570110e-03,5.353116616606712341e-02
3.395336730909976897e-01,3.116447740006517697e-01,3.082690021666136260e-01,3.264054971596501778e-03,-2.193753611155120978e-03,5.996883363777407230e-03,3.221211954951286316e-02
3.397647570051473553e-01,3.119167311010488941e-01,3.106571031260025872e-01,3.520182963769713947e-03,-3.243667127174931167e-03,5.487566117401206089e-03,3.116499073803424835e-02
3.399019146458538976e-01,3.082328325205201947e-01,3.069154636812227999e-01,2.249936144333777041e-04,-7.358182217056907608e-04,6.957032882203219477e-04,3.239775076508522034e-02
3.094587097234940409e-01,3.094777000255848343e-01,3.354786989189650903e-01,-3.769285789670136070e-04,1.009188905358344990e-03,6.524683853036845893e-04,2.610181644558906555e-02
3.412540277040365111e-01,2.945102983979058786e-01,3.167595805266579800e-01,6.429722443837768316e-03,-6.335211567203157153e-03,1.666184118488572841e-02,5.212745815515518188e-02
3.222597465466719435e-01,3.169932286949825873e-01,3.125767917254523853e-01,-3.116824306658822277e-03,2.040093716326151375e-03,2.166152562858793609e-03,1.123417727649211884e-02
3.393849921169570516e-01,2.845578819725315123e-01,3.353946188153708041e-01,3.168297459585483426e-03,-7.217274690955073624e-03,6.862509062029870099e-03,5.595371499657630920e-02
3.276571943785345775e-01,3.308486411943244998e-01,2.849522908926028220e-01,-8.555007457879029720e-03,-9.250254634138907472e-03,-7.872037930544750761e-03,5.130650475621223450e-02
3.646076424217156164e-01,2.824675719457069856e-01,2.821042493989686095e-01,-7.814265010751468218e-03,-2.375307007805365841e-03,-6.142117781988468139e-02,1.352581381797790527e-01
3.342186696287446912e-01,3.190764601359686869e-01,3.001160207694973936e-01,-6.897029380426697789e-03,-3.471515174919909824e-03,-4.500851704302200051e-03,3.339943289756774902e-02
3.407007569333340147e-01,3.476417487448494326e-01,2.662125483358201983e-01,-2.530500531778465210e-03,-5.883645843292030671e-03,-5.185038486570643472e-04,7.897823303937911987e-02
3.270434397567923979e-01,3.472922779935728732e-01,2.839242835898375117e-01,-4.918424982254786422e-03,-4.163274842176564391e-03,-2.687861021621671190e-03,5.734661966562271118e-02
3.398811964584347867e-01,3.093464183593886974e-01,3.069470484446910619e-01,-4.065324222171149251e-04,-6.760404678980680947e-05,1.401699825898313238e-03,3.190294280648231506e-02
3.116613453725681770e-01,3.331191884668289194e-01,3.087024657746122447e-01,3.266676431756092725e-03,-2.839488613246236599e-03,2.082434129084110783e-03,2.453357726335525513e-02
3.132950388132410002e-01,3.113689390648950450e-01,3.554602371912893854e-01,-3.020784079180221376e-02,1.172896548362890694e-02,1.259855587560968805e-02,7.408944517374038696e-02
3.106478548178039367e-01,3.386714184372881520e-01,2.894604225823299570e-01,9.980334891796395838e-03,-2.417942808266644247e-02,9.480400888827024072e-03,6.442332267761230469e-02
3.446806244839604183e-01,3.003299533206565952e-01,3.139196676560828125e-01,3.096883748784726859e-04,1.710037404949698745e-03,3.390798298071112486e-03,3.990617021918296814e-02
3.042409205805011729e-01,3.473267658991294748e-01,2.871540753577658256e-01,1.232503698484618132e-02,-3.809569920829573852e-02,1.022854417841741193e-02,8.948735892772674561e-02
3.532283520069136595e-01,2.506647544565123731e-01,2.439062495893964400e-01,-7.861407084140516199e-02,-7.375103723983607307e-02,-1.425186069856615445e-01,3.271864354610443115e-01
2.357709458349369624e-01,3.420458763056785645e-01,3.523621903676883438e-01,3.060600082528072696e-02,-2.572293524091498126e-02,1.508844867495226505e-02,1.340720951557159424e-01
3.002491633798334281e-01,3.403962490998185264e-01,3.152196348808197768e-01,2.489000350834934348e-03,-3.535341812371414500e-03,3.787712517342911069e-03,3.652402386069297791e-02
3.142129893406467311e-01,3.328322970977838358e-01,3.145090413357837233e-01,3.977668711736316760e-03,-4.339559678616295747e-03,3.412455105467512764e-03,2.191231213510036469e-02
3.120251263885532866e-01,3.309678758683462507e-01,3.094396469585826148e-01,6.549118048108560144e-03,7.135559837525473105e-03,-5.937454333812365766e-03,2.831378020346164703e-02
2.918159201867022712e-01,3.436421522331956635e-01,3.189012311015072543e-01,8.430800304524369709e-04,-1.031173137039929216e-02,3.101958511698025677e-03,4.863987118005752563e-02
3.714487450769554111e-01,3.261607357778837923e-01,2.749972274485485424e-01,-3.400162325350035084e-03,3.414039234283296892e-02,7.134702128329002691e-02,1.605875939130783081e-01
3.090352859464063351e-01,3.280694047738575980e-01,3.201898661544578251e-01,1.078150270407532245e-03,1.569575304028190130e-03,-3.860652888059305787e-03,1.816580817103385925e-02
3.146399484106923161e-01,2.999443536011328626e-01,3.441250583723823309e-01,-2.353318033992233150e-03,5.462623677128977239e-04,2.765166856904690651e-04,3.919658437371253967e-02
3.166517190922108482e-01,2.949814921154703673e-01,3.374614786100492703e-01,-5.687940019456797988e-03,5.427311403114877184e-03,2.221689465302563189e-03,3.941864892840385437e-02
3.274174352445982650e-01,3.373619493185132101e-01,2.918582158558500894e-01,-5.480145583135236781e-03,4.062853386407759906e-03,3.285132762779425196e-03,4.346220567822456360e-02
3.054027112650459785e-01,3.090404506765054293e-01,3.388704211051999371e-01,-3.627003746867434389e-03,1.124708083276050857e-03,2.279143633493241339e-03,3.271723911166191101e-02
3.101907402232643163e-01,2.868464968501068246e-01,3.433106017484353067e-01,-1.015784305283389671e-02,5.423575031171630955e-04,2.721804296945575094e-04,5.220811441540718079e-02
2.994728524894529342e-01,3.024350948851628473e-01,3.465352041277547923e-01,-1.419349444202156613e-02,4.377775186324362605e-03,4.892818669909155226e-03,5.308398231863975525e-02
3.013283583262982845e-01,3.169010193077876347e-01,3.223954648906064979e-01,-1.498146098464053777e-02,9.323454969479064852e-03,9.904700028466406972e-03,3.983317688107490540e-02
2.713827281966581517e-01,3.163005515950738089e-01,4.026543265700724405e-01,-1.053073756800141647e-01,1.055554879305191894e-02,-7.808204941585998853e-04,2.166989296674728394e-01
3.223099442584931307e-01,3.160517279286373382e-01,3.177905520769567227e-01,-8.754365798555637911e-04,6.339537811030214898e-04,8.618252970126933938e-04,6.086044013500213623e-03
3.286768103384982154e-01,3.156022581347750489e-01,3.133532953395734566e-01,-8.771258791546987770e-04,8.357612190559697302e-04,1.111254620396306264e-03,1.461212243884801865e-02
3.138911356380100215e-01,3.323670262605228909e-01,3.124858503389636999e-01,-2.578262058211630830e-03,3.899280411828578811e-03,3.537300527350965146e-03,2.173453941941261292e-02
3.236248378704685291e-01,3.129163903831599369e-01,3.143542843361872841e-01,-2.997468153322897007e-03,-2.262224652077186263e-03,-1.810029859677606337e-03,1.238857675343751907e-02
3.129416820031393764e-01,3.319091927927412811e-01,3.095220396423541964e-01,-3.104418005715506475e-03,1.338559944169412158e-03,7.155890578416422652e-04,2.172892540693283081e-02
3.092666576956849545e-01,3.093642161099041665e-01,3.443243476751532972e-01,-6.737005066875539731e-03,1.153513105195069994e-03,1.244446267724941355e-03,3.701932355761528015e-02
3.056364824073996012e-01,3.092906169617288814e-01,3.410406630926643423e-01,-4.109786191401695529e-03,1.630535413037736622e-03,9.868066860839537664e-04,3.462665900588035583e-02
3.105704417800579376e-01,3.109020202725223392e-01,3.341125679058419284e-01,-2.447040775495598012e-03,2.634055220610247248e-03,4.288149388547032002e-03,2.530768699944019318e-02
3.109624036544349490e-01,3.236838736564579544e-01,3.200540446056563404e-01,1.635800188094828963e-03,1.289167697973080291e-03,-4.352222150568006188e-03,1.409516204148530960e-02
3.144535333182532644e-01,3.242404430197239340e-01,3.154055984804972623e-01,-8.461054581691201471e-04,5.123328615895302984e-04,1.781143778957930499e-03,9.991236962378025055e-03
3.104763968610113056e-01,3.149576009676827715e-01,3.320943400226492592e-01,-1.530114465402171615e-03,1.618280876495229847e-03,3.952536093678017150e-03,2.126711420714855194e-02
3.273021233302219057e-01,3.274299988272594830e-01,2.997497658732961034e-01,-6.463858381768798275e-03,3.442185691126981549e-03,3.059723753652389064e-03,3.084879368543624878e-02
3.286151676170253610e-01,3.091527241419398941e-01,3.200996708351006581e-01,-1.517576630421217697e-03,3.339155860970449349e-03,2.499420695614253726e-03,1.856524497270584106e-02
3.150712830750307947e-01,3.179421742468529488e-01,3.256048413167997313e-01,-1.957189830400057114e-03,2.960384266815740874e-03,2.442874908408721336e-03,1.202678214758634567e-02
3.119231764968063980e-01,3.095818153690672037e-01,3.391787219644196716e-01,-4.965767564315616209e-03,3.500431261746977420e-03,2.766126905302979978e-03,3.075470402836799622e-02
3.065992682356935006e-01,3.095768847209246499e-01,3.357404648894168897e-01,-4.604745717396714448e-03,1.116578040721928882e-03,2.931488206759984456e-03,2.940129861235618591e-02
3.173222489846697081e-01,3.175282687608690924e-01,3.208945000950488291e-01,-2.089969056680104301e-03,2.564961442636006558e-03,1.521387214632223366e-03,7.200855296105146408e-03
3.199081722536867844e-01,3.224695173542950211e-01,3.114066934695221001e-01,-4.521978996656644649e-03,1.423529749114893581e-03,1.226269415728008325e-03,1.313568651676177979e-02
3.176806539086240999e-01,3.181585377111049162e-01,3.176512458441025366e-01,-4.426930462642900046e-04,1.173848617131292155e-03,3.499290914705725612e-04,2.309184987097978592e-03
3.173213777561419424e-01,3.153105835125534218e-01,3.195169574174825389e-01,-1.459964320607197051e-03,1.952612360209972364e-03,7.235441824477457234e-04,5.716803483664989471e-03
2.892082597951517453e-01,3.309361793994075596e-01,3.287728818797715502e-01,-1.239038017805983716e-02,1.294022719155567096e-02,8.656466416343024106e-03,5.332303047180175781e-02
3.136697718132628876e-01,3.024202357858659651e-01,3.466246272240161574e-01,-1.573246232895252408e-02,4.265480429544557354e-03,2.837123014954842475e-03,4.903634637594223022e-02
3.371615901990809849e-01,3.765451975699407039e-01,2.970555483732222890e-01,-2.762182177906102182e-02,7.714908504503191489e-02,2.770168972605710836e-02,1.648820042610168457e-01
3.370633648053041886e-01,3.025260647131713387e-01,3.158740649296700731e-01,-1.272025179099102498e-03,3.997444365208697656e-03,3.070255858827805346e-03,3.148114681243896484e-02
3.516944585138265245e-01,3.526173016436578433e-01,2.699821486814951710e-01,-5.140427875947629205e-02,9.260970848726736426e-02,8.210079275414529365e-02,2.462349534034729004e-01
3.153969370233526415e-01,3.167505877735331543e-01,3.216724886402275718e-01,-7.465159345770221123e-04,1.996271967948321305e-03,7.607227366886184453e-04,6.934210192412137985e-03
3.074666287468217352e-01,3.272498343210654137e-01,3.203135536797834249e-01,-1.088971252386343371e-03,1.716653781661292393e-03,4.565528472438091373e-03,1.942152902483940125e-02
3.281468453771759775e-01,3.173212978463180178e-01,3.096692078449269081e-01,-5.385363770860348426e-03,1.639553631893007945e-03,2.459433348214409149e-03,1.928217522799968719e-02
3.285611902274555018e-01,3.204686411852038508e-01,3.003813082760776743e-01,-1.207323793196894701e-02,1.249374491088809346e-02,1.441833632800460993e-02,4.648422822356224060e-02
3.528541052854758941e-01,3.247878001868652609e-01,2.678239746855455294e-01,-4.832994615721643988e-02,9.696811773632377229e-02,7.424887974527005774e-02,2.395534366369247437e-01
3.217827183061360841e-01,3.158896801729958459e-01,3.153878681498052394e-01,-7.988676235608690437e-04,1.939820009365048753e-03,3.927686120565280093e-04,7.183521986007690430e-03
3.255572098811626569e-01,2.911151053463857385e-01,3.379318210401592859e-01,4.581405825240573125e-03,-4.639199298291076835e-03,2.503725756520264016e-03,4.372570663690567017e-02
2.492569590557764114e-01,3.247146801518527304e-01,2.927476014780222568e-01,-8.078683905779822372e-02,1.102681387510328348e-01,7.105577674001996302e-02,2.747855484485626221e-01
3.194036007712621750e-01,3.078255182651671862e-01,3.281437942614527925e-01,1.407766703898546837e-03,-4.761340972751423872e-03,1.351200587436357688e-03,1.977552473545074463e-02
3.147184599543336181e-01,3.410917382704851120e-01,2.990202637317049272e-01,2.889756961369982155e-04,-2.932258856567292443e-03,3.755012443742668975e-04,3.718150034546852112e-02
3.230729118811800360e-01,3.104474928850058935e-01,3.195584233869743773e-01,1.367063992362319881e-03,-4.324645117922075108e-03,1.461628517617114074e-03,1.398228481411933899e-02
3.084059613123394383e-01,3.412864216845607479e-01,3.068453921705980303e-01,3.809653244069992925e-04,-6.301195693208354320e-04,-7.620342046585645932e-04,3.373782709240913391e-02
3.125212367644940037e-01,3.334735172222530464e-01,3.110892833734453800e-01,2.185237014007995748e-03,-6.367919575168021163e-04,1.337592360725280236e-03,2.218019403517246246e-02
3.142281894149471233e-01,3.405991776069386412e-01,3.045944024643086889e-01,5.291135375627793389e-03,-1.111316233899192069e-02,2.778479339061759937e-03,3.898649290204048157e-02
3.112577990243534098e-01,3.334139995201405027e-01,3.122596033829850848e-01,1.263343340444245816e-03,-5.811872764998314306e-04,2.237776513709082999e-03,2.214789018034934998e-02
3.069870116734264021e-01,3.305861356880978597e-01,3.063784763136758738e-01,6.137256694269650759e-02,-6.784937256617899759e-02,4.264781538028759866e-02,1.764611750841140747e-01
3.166355325802430176e-01,3.393722065430150314e-01,2.900892369544382787e-01,7.968800100009889101e-03,-7.668647232619023660e-03,3.984703640079577912e-03,4.732652381062507629e-02
2.890730444436694913e-01,3.444282044618928729e-01,3.166296691808729302e-01,5.371048825626779412e-04,8.828021351943465822e-03,-1.175557420455932041e-03,5.036837235093116760e-02
3.036968559688155711e-01,3.417254898786814543e-01,3.151790159404699310e-01,2.627033954713208289e-02,3.112603062385523034e-02,-1.459536371054274105e-02,8.220292627811431885e-02
3.042149764398883738e-01,3.354096668293206074e-01,3.181040003840183705e-01,1.006658370348724246e-03,3.240912467678462236e-03,-3.811019445198802862e-03,2.847581729292869568e-02
3.160070370337095258e-01,3.497680642596570633e-01,3.004665142513273657e-01,5.044771000456886242e-03,1.793886318569132970e-02,-3.870189700014669393e-04,5.429719761013984680e-02
3.437898578156178830e-01,3.161258465957664798e-01,3.014476157569291326e-01,-1.198766361547944396e-04,-2.333663665329001671e-03,1.562261190974809782e-02,4.621023312211036682e-02
3.411122930924409546e-01,3.004813699050626341e-01,3.137230435477673662e-01,1.213544051780966445e-03,-2.427777423377863578e-04,2.977070710308732902e-03,3.632321953773498535e-02
3.130297742653976867e-01,3.386897770897549509e-01,3.116922538769987261e-01,5.258777708908417281e-03,6.362972449415477648e-03,-3.595225894478334787e-03,3.062268719077110291e-02
3.233612601489526117e-01,3.242428965920716721e-01,3.156299726885813395e-01,7.293411427333985550e-03,-5.432455303310916410e-03,7.483925067314843582e-03,2.198885940015316010e-02
3.477389843734204344e-01,3.269342463039250357e-01,2.838881355853759003e-01,2.964927587561661665e-03,-1.118576378880294792e-03,5.228461466425415871e-03,5.738906189799308777e-02
3.036529451201743224e-01,3.369510207061197637e-01,3.108714953443393880e-01,1.938548835130455249e-03,4.917450526742489329e-03,-4.077986907120176308e-03,3.246865049004554749e-02
3.450452556131913262e-01,3.007809822577613423e-01,3.147306865254229646e-01,1.212718131863494732e-03,-2.447276399507883771e-03,2.973561306861244747e-03,3.981648385524749756e-02
3.253038369759284620e-01,3.537477383831280631e-01,2.869138337562214258e-01,1.815118617754439556e-02,2.841233028657165482e-02,-3.601439809632877350e-03,8.260688930749893188e-02
3.126588213023507867e-01,3.373739478275914472e-01,3.068450415178647361e-01,4.967700713308238238e-03,6.767377274249503950e-03,-1.135192707089378947e-03,3.167993202805519104e-02
3.082534331763654434e-01,3.021809863422426634e-01,3.415969335128674622e-01,5.270257452504197720e-03,-1.681864296332593808e-04,-2.909477822700823612e-05,3.787551447749137878e-02
3.407765691962624244e-01,3.002163396507666060e-01,3.159548848612328542e-01,-6.447522914342798759e-04,2.544925579292540985e-03,2.853920351701388740e-03,3.604977950453758240e-02
2.494742223803547154e-01,2.741650037423048469e-01,4.630560763304183425e-01,-1.402574526100750785e-01,4.946024176791508770e-02,3.459451554232052112e-02,3.330151438713073730e-01
3.447819759826521446e-01,2.843605484256543359e-01,3.255316850630906589e-01,1.457630204772291911e-03,-5.956103274878388198e-04,5.699182586136977181e-03,5.443411692976951599e-02
2.931104462010585832e-01,3.376727285406224133e-01,3.159857505756250018e-01,2.103102730947431845e-03,9.571052582184810809e-03,-5.995229456029712613e-03,4.342364892363548279e-02
3.273760981713681462e-01,3.028883819617944062e-01,3.190677136353713972e-01,-2.684785045412887722e-03,6.394346318205019163e-03,4.230993636364961327e-03,2.575296536087989807e-02
2.227944568956660709e-01,3.623524658878350957e-01,5.277183826988519622e-01,-1.754621091462014726e-01,-2.931323470553844068e-02,-1.574096248736514894e-02,4.069182276725769043e-01
3.254999573173543714e-01,3.130386468683029055e-01,3.134164535326168788e-01,-1.719611753730234706e-03,2.974068908908062813e-03,2.266299771164173148e-03,1.419626083225011826e-02
3.146831359325113486e-01,3.138159851019330371e-01,3.236419740544871915e-01,6.748651826276392185e-04,2.105049488833820540e-03,-1.208773632858458355e-03,1.038387324661016464e-02
2.984066536230398636e-01,3.182957852303122115e-01,3.338729752586902522e-01,-5.910357506659504045e-03,3.405216684177554427e-03,6.960822166216381994e-03,3.511389717459678650e-02
3.371000801808712311e-01,2.921498458613913107e-01,3.268333678308544266e-01,-2.635532795349884369e-03,5.493515328696049575e-03,4.480097741687729188e-03,4.284887388348579407e-02
3.066196897971455448e-01,3.085021997971736929e-01,3.399164971311556815e-01,-8.197006522790866757e-04,5.788124595534861402e-04,6.720359239171478380e-05,3.244339674711227417e-02
3.423813153996864145e-01,3.082664068831444393e-01,3.084295788743005584e-01,-1.149925767043645172e-03,2.057707715575070317e-03,6.719938372498949174e-03,3.619984909892082214e-02
3.416812256280047366e-01,3.115802661754469849e-01,2.903013741977424345e-01,-4.145410573950764933e-03,3.141380073664404478e-03,9.474154730802111790e-03,4.847484827041625977e-02
3.371854800604545677e-01,3.132048289299689814e-01,2.903393585618202488e-01,-5.318956955224786974e-03,2.048115539700160088e-03,1.017932322111297395e-02,4.532708227634429932e-02
3.403239638442956405e-01,3.033317733889732137e-01,3.097995306894216760e-01,-1.785165635056047044e-03,3.056691526280552393e-03,3.209510541808355613e-03,3.520640358328819275e-02
2.382432463245728327e-01,3.621354654030505826e-01,3.638224315552225918e-01,-4.829833490121687549e-03,-9.409304848703688769e-04,1.330599171940330698e-03,1.250563114881515503e-01
3.107645978742069603e-01,3.190904937234265160e-01,3.276119222742345238e-01,-4.465786381376218384e-04,1.197149025405256023e-03,4.615382687693477155e-03,1.678352989256381989e-02
3.319016363277560999e-01,3.475660228935604223e-01,2.760031045191634336e-01,-5.916743661971523953e-03,9.384180880373694730e-03,6.092384744102499403e-03,6.874735653400421143e-02
3.315313037477858327e-01,3.092804540442623540e-01,3.130855834920035496e-01,-1.170480568746755639e-03,3.296417751026763619e-03,1.553089790999910005e-03,2.165311574935913086e-02
3.391619282615637165e-01,2.921744442645875517e-01,3.251631861051932915e-01,-2.400407533252321875e-03,5.317137211707672652e-03,4.674967024586466902e-03,4.374574869871139526e-02
3.331758685139218912e-01,3.411243892915661879e-01,1.801678376092042955e-01,-5.497207811915390957e-02,-1.182248002224003530e-01,-1.010972935521707861e-01,3.261133432388305664e-01
3.320937164859296131e-01,3.194211255705691199e-01,3.009219831720874039e-01,-7.205618149349533180e-03,2.907992856812727841e-03,4.151576136886670106e-03,3.114616684615612030e-02
3.144259855173993090e-01,3.174034422920663512e-01,3.215252845217432820e-01,-1.160882950018361521e-03,1.556874675097882519e-03,2.452505976880026313e-03,8.215005509555339813e-03
3.324703859818846086e-01,3.057355598487598858e-01,3.170184948719076967e-01,-3.593235200012767812e-03,5.137926559841042573e-03,2.459921116069456459e-03,2.600943669676780701e-02
3.200523440586978685e-01,3.045656125834205197e-01,3.275562702868206610e-01,-4.398534672882301912e-03,6.494847817933393531e-03,2.670260004504960462e-03,2.486645057797431946e-02
3.139877466418284913e-01,3.413104144804399720e-01,3.013031966873547796e-01,3.086097077447401242e-03,3.067271860640576921e-03,-8.864156582267777602e-04,3.623748570680618286e-02
3.319799093064303430e-01,2.984630798485360392e-01,3.190400687983210304e-01,-5.793752501192063649e-03,7.526294031316785316e-03,4.905903744118467885e-03,3.464039042592048645e-02
3.367979495833838821e-01,2.775372624265305399e-01,3.358864091539822683e-01,-2.534502146690145730e-02,1.930215289396028377e-02,2.037412377850490036e-02,8.802718669176101685e-02
3.159686721304029167e-01,3.009550641419345696e-01,3.417177423599965236e-01,2.509208615897103034e-03,-2.576778382440881535e-03,1.136649096863540185e-03,3.630004450678825378e-02
2.686368747197786511e-01,3.238069891098481756e-01,3.484895717199774090e-01,-1.576709665363076190e-02,1.026494560813902670e-03,-6.079341680443230015e-04,7.592619210481643677e-02
2.677201904206689687e-01,3.412881102419602630e-01,3.552079175719806692e-01,-6.469087458653969072e-03,5.324872621905892261e-04,1.845404995556546631e-03,8.225974440574645996e-02
2.623702571656895133e-01,3.571456330638246857e-01,3.485571839258557736e-01,-6.582124914885600919e-02,2.882777693799540297e-02,1.508104316333631553e-02,1.562526971101760864e-01
3.118447313364209883e-01,3.118918673485501780e-01,3.283274581440092654e-01,8.767760587337829290e-04,-1.123726385931805632e-03,2.529450910199364591e-03,1.721030101180076599e-02
2.989427806564737833e-01,3.019298333508840804e-01,3.390951517152316907e-01,1.508346083535792165e-02,-3.825470267633506588e-03,3.546786665220086170e-03,4.759592562913894653e-02
2.682213502350767054e-01,3.474035054006731071e-01,3.467186527833315823e-01,-1.149518513352045315e-02,1.510025421161892076e-02,8.141126197362047109e-03,8.657574653625488281e-02
3.415352426872301228e-01,2.611583201580283120e-01,3.519962655047856881e-01,6.389923413575792147e-03,2.905113277722073169e-03,-2.741568199111478390e-03,8.706933259963989258e-02
2.403570806162256823e-01,3.772082987684956534e-01,3.488675980537778165e-01,-2.636306386184880668e-02,2.741909291172181865e-02,6.475447255232113716e-03,1.418423056602478027e-01
2.602935588799073496e-01,3.483262718227579380e-01,3.452251244786687101e-01,-7.816121272816951848e-03,7.761800156086367045e-03,7.405106181413613139e-03,8.952593058347702026e-02
2.789616211631684717e-01,3.340163770785007369e-01,3.404207449256619888e-01,-8.662939787496725524e-03,5.660738481977688023e-03,8.693401518105381420e-03,6.302880495786666870e-02
2.880763170320141398e-01,3.466026060916753693e-01,3.311060583533463331e-01,1.435579970590171797e-02,-1.520044767636479985e-02,1.041268986383327502e-02,6.629641354084014893e-02
3.083124431087920780e-01,3.102201316354556981e-01,3.389533688729008398e-01,6.701008620089226112e-03,2.248125276131661063e-03,-3.034666182783888385e-03,3.258147835731506348e-02
3.367214615430816349e-01,2.929493567664023801e-01,3.265114601263278127e-01,2.752693696603109464e-03,-4.853920793040092212e-03,3.601717198055717599e-03,4.129962250590324402e-02
3.085762646116614327e-01,3.096336372663293646e-01,3.348402122837287331e-01,2.539625107848705009e-04,1.106053395541598244e-03,-7.022159786027013266e-04,2.585507929325103760e-02
3.408688623749869251e-01,2.722654986583686876e-01,3.264990002162493354e-01,7.023921549237048881e-03,-9.061313448951044403e-03,1.327333794906166743e-02,6.964170187711715698e-02
3.028015340438515168e-01,3.150601590098442428e-01,3.354176933222833834e-01,2.358157476632783203e-03,1.290172462675833864e-03,-3.145250192620960891e-03,2.942129597067832947e-02
3.193450320223286121e-01,3.136469151948924061e-01,3.212785170492080677e-01,1.220639614489183421e-03,-3.449197209834577432e-03,1.116462989733103990e-03,9.545908309519290924e-03
4.822920304582091200e-01,4.144916880337310428e-01,2.321289411618353282e-01,-4.478366477421973600e-03,2.760287500353129312e-03,1.350171826119823115e-01,3.240204453468322754e-01
2.916815190379606348e-01,3.144435310515889537e-01,3.444039034122692855e-01,7.461762318723667506e-03,1.240728229577734831e-03,-2.030060519202194456e-03,4.776721447706222534e-02
2.912643774952912712e-01,3.152595374160252484e-01,3.385982921286393998e-01,7.436866374057332293e-03,4.436024713838111234e-03,-6.852704288340357060e-03,4.523623362183570862e-02
3.110321116133309416e-01,3.038068224074190193e-01,3.391025574050038349e-01,3.916565538721258899e-03,3.629672726733155878e-03,-2.040669233989702777e-03,3.377879410982131958e-02
2.984360227041661373e-01,3.168203425082634639e-01,3.326376241000232881e-01,5.609223237954407033e-03,3.850038405535194906e-03,-6.280920031120975321e-03,3.370708972215652466e-02
3.088077260055343554e-01,3.128932620829157907e-01,3.356099197615862728e-01,6.769713043158179407e-04,1.026073491815636353e-03,-2.497562544065159724e-03,2.547144889831542969e-02
3.967220763483857437e-01,2.680028482376191068e-01,2.618193995849160682e-01,-9.719768849428189403e-03,-4.760877468014021799e-03,1.359358588449528504e-01,2.705363035202026367e-01
3.444303189536339627e-01,2.838687656719663943e-01,3.250128561591775767e-01,5.386143981813399815e-04,4.096451427630350486e-03,5.747523722736062879e-03,5.494636669754981995e-02
3.412938074868961391e-01,3.076533831881809178e-01,3.022152903988735706e-01,9.285444945761446925e-04,-1.260616703798077753e-04,5.498839193318037950e-03,3.791486099362373352e-02
3.484508771113808412e-01,2.752155673865848695e-01,3.333936233482309164e-01,1.699568189023726791e-02,-1.119443340052936157e-02,1.551495950465830304e-02,8.032469451427459717e-02
3.374856596124554686e-01,3.265762607929569294e-01,2.875497846890717191e-01,5.085580395992311126e-03,-2.936021839480404926e-03,4.276211354923130196e-03,4.718203097581863403e-02
3.391585507161863355e-01,3.044560223898941098e-01,3.078545070157904240e-01,1.273874169183817056e-03,-2.183829586473107903e-03,4.602438742458762368e-03,3.435989096760749817e-02
3.494713008773747687e-01,2.842445263256627164e-01,3.257796740566211713e-01,-1.204204597393974464e-04,1.486395146872516049e-03,5.801295303134598735e-03,5.812171474099159241e-02
3.545295153578818526e-01,2.529989634179043434e-01,3.521029851073815831e-01,2.760193842462844039e-03,2.740630083626012693e-05,4.185530175462858458e-03,1.007143929600715637e-01
3.423519442270646085e-01,2.932748853268263844e-01,3.166759660246933894e-01,4.627437443719909643e-03,-3.729407463192973247e-03,7.382742065993441044e-03,4.557621851563453674e-02
3.339603225999319691e-01,3.184134542244471122e-01,2.983082163540691778e-01,5.259190343876542217e-03,-3.160456540530942778e-03,5.555539907495456349e-03,3.411794081330299377e-02
2.821493405627397699e-01,3.256254315441209357e-01,3.493325755723439840e-01,-6.240050375458924825e-03,7.924725593554434854e-04,-1.072655618153962095e-03,6.004201620817184448e-02
3.065820136322842671e-01,3.091383651732039217e-01,3.401187709744485366e-01,-1.483855400699741469e-03,-2.144735515473733837e-04,-4.898146206074906195e-04,3.244966268539428711e-02
3.357130729343270059e-01,3.115298844211588092e-01,3.060452702180030404e-01,3.160441360225195971e-03,-1.267830519769125048e-03,3.481309655749614904e-03,2.861274033784866333e-02
3.296647354454389500e-01,2.710747989162117233e-01,3.481691347232357403e-01,1.355278298229954832e-02,1.786571301845250870e-03,-1.727029254852893280e-03,7.368122041225433350e-02
3.553055939264464502e-01,2.405393825702772659e-01,3.524972078695259858e-01,-3.896095168575632213e-03,1.910794383712258529e-03,1.585102464138992339e-03,1.136701032519340515e-01
3.133469518881316640e-01,2.923394613279503007e-01,3.384111810836448186e-01,-6.893035216771607222e-03,4.189561835585008803e-03,1.900890033320557383e-03,4.245121777057647705e-02
3.345626029933119749e-01,3.171492760483234918e-01,3.065984831157453905e-01,4.160103524428454720e-03,-1.656796311188248657e-03,1.914918048066641208e-03,2.587320283055305481e-02
2.704522186387214866e-01,3.545993388889584486e-01,3.283779822918256874e-01,-1.899675080875888264e-04,9.713001876935691351e-03,1.311491114188655842e-03,7.648621499538421631e-02
3.265336726981437621e-01,3.130372206442128546e-01,3.024613581243308924e-01,-3.070244910289432472e-02,3.660825678719498849e-02,4.579448835182506339e-02,1.165184974670410156e-01
2.539476094122573580e-01,3.703799342578433795e-01,3.517470659568848745e-01,-9.673655250969463715e-03,2.796751612938392154e-02,1.897483862566548898e-02,1.242643147706985474e-01
3.147248297540110040e-01,3.149006440463512635e-01,3.255445145309576183e-01,-2.642066195646081139e-03,3.210803593677060558e-03,3.464685368555755693e-03,1.425046287477016449e-02
1.730254582433219945e-01,4.276115872015804897e-01,5.232933445591672061e-01,-1.238392116536804755e-01,2.311719912095665241e-02,5.906168124377867215e-03,3.821578919887542725e-01
3.174249526464391069e-01,3.119028761214330814e-01,3.277999380185050993e-01,-2.301711173817961881e-03,5.282643539082729905e-03,1.463909621168942238e-03,1.736279949545860291e-02
2.477196710998108009e-01,3.524362786170854855e-01,3.589479152984090815e-01,-1.981949365965149368e-02,1.839494061407124029e-02,2.439318468774190687e-03,1.179035827517509460e-01
3.322905587125632443e-01,3.601703515337063566e-01,2.614080030323598924e-01,-4.537241690805636669e-03,2.330355417970129267e-02,8.051906524837046386e-03,9.830176085233688354e-02
3.089185362004889246e-01,3.057599164416779369e-01,3.414576149291910223e-01,-3.905058564046346402e-03,-1.912617183996931543e-03,-2.025139674614835801e-03,3.522177413105964661e-02
3.080497290714132030e-01,3.096019906718252002e-01,3.390282777219242316e-01,-8.781480429577401573e-04,6.713268352387529196e-04,1.300838537801105857e-03,3.037655726075172424e-02
2.457434700704378971e-01,3.507467470122115905e-01,3.427681032844610010e-01,-2.065337419514633871e-02,2.176023312443098323e-02,6.559919688559672814e-03,1.143716275691986084e-01
2.584658858612336463e-01,3.439843656215441081e-01,3.485127946936513177e-01,-9.894687063516179396e-03,7.421438586785174957e-03,5.957402000526451809e-03,9.103076905012130737e-02
2.700139802529754607e-01,3.453890685757119994e-01,3.420998455051663667e-01,-6.336785561503238164e-03,4.769904550186328945e-03,5.297844760258641969e-03,7.561229914426803589e-02
3.064581266790799008e-01,3.354808969854056189e-01,3.106988667759060796e-01,1.259360491900119328e-03,4.548658914961158616e-03,-2.877823631021659678e-03,2.879064902663230896e-02
3.201701167205108778e-01,3.238276417776792537e-01,3.098506003300698364e-01,4.634527083020660056e-03,1.365070791187098388e-03,-1.274010301169898598e-03,1.524827443063259125e-02
3.146257030117413089e-01,3.307698611611269435e-01,3.073111173423120901e-01,4.074378295526878170e-03,2.434030603667993852e-03,-1.908033802869151321e-03,2.259915508329868317e-02
3.122809945690144806e-01,3.092766220354641327e-01,3.362431405793939176e-01,6.776307859821384524e-04,-2.303806768526276728e-03,9.854781972248218957e-04,2.598875761032104492e-02
3.150207156658141328e-01,3.394917005051334979e-01,3.018469774689279683e-01,4.003778223317691967e-03,2.181225787701545227e-03,-1.219046965749276011e-03,3.408185765147209167e-02
3.097801272212301060e-01,3.337021521793464007e-01,3.114081085868465326e-01,2.711825158450434804e-03,3.010701307725648524e-03,-2.962191976543624480e-03,2.472949028015136719e-02
3.156805368412267110e-01,3.391906658417077058e-01,2.949829545119380114e-01,5.787185244319490232e-03,4.935902477560517865e-03,-3.000338228762930871e-03,4.084469377994537354e-02
3.088138453584796106e-01,3.093094933401773217e-01,3.361010095214229665e-01,1.176467268944354251e-03,-8.952547980931764571e-04,1.879812625868555135e-03,2.735814265906810760e-02
3.157273959615161107e-01,3.316779583686280120e-01,3.011290590388174260e-01,7.740505014819265561e-03,5.372087696016770476e-03,-5.989642078708475384e-03,3.277705237269401550e-02
3.157885889621033781e-01,3.221857876933189035e-01,3.129033162991179395e-01,5.245150802477400141e-03,6.878424398994709837e-03,-6.345065200812861558e-03,2.032139711081981659e-02
3.107193435698281103e-01,3.468051875719708188e-01,2.826947676299267354e-01,3.733879912770271536e-03,2.840267987905613703e-02,-4.279319738417488792e-03,7.493834197521209717e-02
3.120725309903245037e-01,3.338202385514235648e-01,3.114452363331648432e-01,4.287040753463246430e-03,4.730026466655453017e-03,-3.003860094475252398e-03,2.522545680403709412e-02
2.743934585056836406e-01,3.466005251377983210e-01,3.309157124880696133e-01,2.884145655002116632e-03,1.075659451401607056e-02,-3.097036788084555573e-03,6.876163184642791748e-02
3.077217435122462375e-01,3.338924257261920991e-01,3.171711864225341126e-01,2.037854202280586346e-03,2.124956802092726332e-03,-4.303477562534313398e-03,2.466703951358795166e-02
2.978514799036226512e-01,3.334079174891788622e-01,3.173777361297727140e-01,4.442331093786892199e-03,6.425026331764506840e-03,-6.712570396903631657e-03,3.562965616583824158e-02
3.238903864474488858e-01,3.142298021470582015e-01,3.149512617212694154e-01,2.512970278829210376e-03,-3.280787522421877312e-03,3.788181070845574039e-03,1.345973182469606400e-02
2.921411466222047504e-01,3.408907602759489452e-01,3.150449084663199395e-01,2.652129975649507396e-03,6.489092084574297342e-03,-4.432594819573756721e-03,4.461981356143951416e-02
3.134616766378721664e-01,3.117392547311873541e-01,3.324932399117604409e-01,-4.508067416544327827e-03,-3.458914647538923956e-03,-3.197547495576373577e-03,2.292336709797382355e-02
3.174901766150308724e-01,3.022947403705016356e-01,3.380806120063349907e-01,2.196883438293354470e-03,-4.432144077944132760e-03,1.570689442451841337e-03,3.238147124648094177e-02
3.147759642302856986e-01,3.216236066448933117e-01,3.318222653237891118e-01,-9.131692213420692858e-03,-8.329294671196429273e-03,-6.723104362976165330e-03,2.854180894792079926e-02
3.488185556698505385e-01,2.545053525371282488e-01,3.405957936518642648e-01,1.136716810324531451e-04,3.364679709602125084e-03,5.513796060134832505e-03,9.117174148559570312e-02
3.127467877867621260e-01,3.179271987127985644e-01,3.224602407041180507e-01,-1.523804220830004587e-03,-1.753843657361807288e-03,-3.473677333840293618e-03,1.110231038182973862e-02
3.408231451456114058e-01,2.644890557466791359e-01,3.519726352604236608e-01,4.849959937497227459e-03,-1.790206144518297852e-03,2.146081314503446927e-03,8.304389566183090210e-02
3.136981357460786879e-01,3.133824024842118416e-01,3.250032742883969816e-01,-1.854424452755788072e-03,-3.718471170305763518e-03,-1.570690479317884015e-03,1.380848325788974762e-02
2.544593171319375902e-01,3.347339341511299526e-01,3.654306996833661669e-01,4.262688482772006293e-02,-4.384498953510244847e-04,4.875771506549166426e-03,1.239900290966033936e-01
3.440893468843423397e-01,2.576021420326811695e-01,4.894702027475102968e-01,1.638732859806610875e-01,-4.750439187600104946e-02,5.267523552388112679e-02,3.699278533458709717e-01
3.480703008583200253e-01,2.518402481010463823e-01,3.424043929541017994e-01,2.583648131940780371e-03,-2.311774685417912912e-03,2.453267134433610372e-03,9.381476044654846191e-02
3.602280414679080445e-01,2.415144522084584910e-01,3.574359925354116951e-01,-4.756243841942875070e-03,-1.281125733497277385e-03,1.714750589676446862e-02,1.213431432843208313e-01
3.554671465829045696e-01,2.692771154768912600e-01,3.421047143064046558e-01,1.151882907147650133e-02,-3.314343290057767278e-03,6.378237995597717258e-03,8.371748775243759155e-02
3.405770879697901377e-01,2.724574976800066550e-01,3.393031498100790300e-01,4.444062447001677352e-03,-4.490051649337466720e-03,3.742467641961810289e-03,6.867947429418563843e-02
3.544933134251648799e-01,2.774104588634587754e-01,3.361696213052051685e-01,8.675451672874244860e-03,-4.747643331696819492e-03,2.449098180271753328e-02,8.341412991285324097e-02
3.504160429276694244e-01,2.520243745572169902e-01,3.426543937645017968e-01,1.449055931620665035e-03,-3.487899931596106715e-03,2.516746517311300828e-03,9.507512301206588745e-02
3.640149209090449145e-01,2.385323925296481407e-01,3.191720996322108816e-01,-1.664142071038242311e-03,2.053656381258111511e-03,5.144050912895261479e-02,1.417359858751296997e-01
3.789411825032066861e-01,2.370265166067067608e-01,3.790219936671703760e-01,-7.134052130865505166e-03,-5.035857196483798336e-03,3.465488009235628830e-02,1.548641175031661987e-01
3.599782463518246267e-01,2.500001357433434546e-01,3.549611590475125200e-01,-2.167066872755698918e-03,-1.137918277037254055e-04,9.304320976237978949e-03,1.088229045271873474e-01
2.848155073216379618e-01,3.271106694740117948e-01,3.485668758442465043e-01,-5.815742918961264336e-03,1.640164221774013378e-03,3.398715255149003557e-03,5.745377391576766968e-02
3.553050041705141937e-01,2.596258505002576045e-01,3.524395507962412299e-01,9.699294565183265437e-03,-3.911569403558567797e-03,9.949831846457425980e-03,9.753806889057159424e-02
3.487345203846242137e-01,3.256324520096349762e-01,2.835555783166581190e-01,-1.485293553080491722e-03,5.491826248514446217e-04,-5.464584504597078292e-03,5.808046087622642517e-02
3.360352674811203366e-01,3.089781813310519820e-01,3.080771611808952870e-01,-1.902027409041685217e-03,-9.288274335397667114e-04,-1.256150877351933006e-03,2.784693427383899689e-02
3.404897927195491558e-01,2.653474308541687865e-01,3.529090680928505530e-01,-5.700989344168178388e-03,1.421850585997575661e-03,7.918501117633377096e-04,8.269991725683212280e-02
3.225700221604242968e-01,2.855982051105836472e-01,3.478512849480692726e-01,-9.077366877395682057e-03,2.986875927357649386e-03,2.826302310326234048e-03,5.690936371684074402e-02
3.020190689078987578e-01,3.081283032526022092e-01,3.437294161179401120e-01,-4.097305392007413380e-03,2.824823287402831000e-05,9.226513949657508869e-04,3.968850523233413696e-02
3.066649168623239996e-01,3.083614509150386929e-01,3.410615792760378628e-01,-1.468108025907837377e-03,2.325667386325480515e-04,6.294878096025199789e-04,3.369674459099769592e-02
3.066674809785729927e-01,3.096048885769485115e-01,3.398784223726958320e-01,-1.721929844111002314e-03,-1.080867469957048704e-05,6.030803270678200718e-04,3.200042992830276489e-02
3.152835947305407949e-01,3.039310333791349072e-01,3.378309476009545009e-01,-2.318094942520284620e-03,3.972287076994698504e-03,7.732773817324824868e-04,3.095941990613937378e-02
3.037996740968382237e-01,3.010955222225472072e-01,3.461278351913804618e-01,-1.328188089365095297e-02,5.211111027734443256e-03,2.620842967616282201e-03,5.044547468423843384e-02
3.269710795257989577e-01,2.915672029795757236e-01,3.378038022718102829e-01,-3.646632022982756668e-03,5.813625947913000046e-03,2.038697670505498251e-03,4.368134588003158569e-02
3.601587457256084090e-01,2.377526746816475689e-01,3.605288134561729363e-01,3.301119118763135105e-03,-3.372252191317966306e-03,6.299973315252230949e-03,1.233473122119903564e-01
2.964805902877601373e-01,3.369873487332656348e-01,3.166754197264984860e-01,-2.522859570514375017e-03,-5.889007468053418862e-03,-5.421960783323735711e-03,3.797275573015213013e-02
3.140292713676050562e-01,2.894443101776977278e-01,3.426817988183845087e-01,-6.732329305555587347e-03,-6.904842054788779427e-04,-5.595754936863275852e-04,4.762511327862739563e-02
3.527169878947419290e-01,2.639725429454699013e-01,3.425882082038631538e-01,7.268903391511535601e-04,9.033154510101027660e-04,-5.940004567239985482e-03,8.478903025388717651e-02
3.262884240494290933e-01,2.916301031483939377e-01,3.394867365268213755e-01,-3.811938802237174219e-03,5.364368085443963971e-03,1.669757882160863250e-03,4.439720883965492249e-02
3.501860093738882185e-01,2.283988004715137299e-01,3.626305914928363849e-01,-2.525814838947080393e-02,-2.333395874425733905e-03,-9.070989086775595178e-03,1.366736590862274170e-01
3.150138928221749568e-01,2.892578015574138739e-01,3.438741525992582426e-01,-7.122519853805671895e-03,1.357913920762310886e-03,-1.535013905330579658e-04,4.896337166428565979e-02
3.174682349423963990e-01,3.039781686750048229e-01,3.364431602469030724e-01,-1.780707383242109134e-03,3.615694091983222280e-03,1.130527046876125905e-03,2.916452288627624512e-02
3.316281449181778807e-01,2.811496135634676818e-01,3.542658162803778432e-01,-1.629815167955580082e-02,2.552848556838398556e-04,-3.440905459853140988e-03,7.096384465694427490e-02
3.030272782331547288e-01,3.081952372361614900e-01,3.407655468934611132e-01,4.790715663891598891e-03,3.160998268304748252e-04,-1.001492409314267470e-03,3.644195944070816040e-02
3.081530367929442016e-01,3.030695611556190050e-01,3.417518345422672077e-01,-4.517908077261201076e-03,-5.385751127738715258e-04,3.539122659805337090e-05,3.725088015198707581e-02
3.095709572056291603e-01,3.081409329208433245e-01,3.397518483200013817e-01,-8.026011405564411694e-04,9.778171668217768443e-04,7.949920497945912011e-04,3.102881647646427155e-02
2.997329652303530878e-01,3.435206523917851418e-01,3.005546911713293246e-01,1.106265925918743310e-03,-1.479769490386632219e-02,1.176526607733708847e-03,5.046577751636505127e-02
3.263950390192055795e-01,3.445717505096098643e-01,2.834771246023048974e-01,6.998423502826684297e-04,5.662181700654507141e-03,-8.188182431725867958e-04,5.524589121341705322e-02
3.006245440889057097e-01,3.442184314625795771e-01,3.145653741762897693e-01,-1.241833253723957609e-04,-2.549143498640743088e-03,3.222521881637858802e-05,3.881471976637840271e-02
2.717330983982805259e-01,3.417603682545262145e-01,3.234175074847064346e-01,4.429815875392442703e-03,-1.355682534451167764e-02,7.497020885338902957e-03,6.880862265825271606e-02
3.281919956439277586e-01,3.155859088409227464e-01,3.135871975152181856e-01,2.090348962592704016e-03,7.487609850492371729e-04,-8.906443849477017048e-05,1.424495037645101547e-02
2.893349888795956337e-01,3.438314524300005726e-01,3.144040627839042035e-01,1.107521129745706132e-03,-8.237362650383401458e-03,1.933642892187373633e-03,4.950359836220741272e-02
3.479222630726913068e-01,4.013219053435597150e-01,2.649303737408746362e-01,1.675621856328500265e-03,7.264059849897205878e-02,-6.545557886191740241e-03,1.736025363206863403e-01
3.083065995159897654e-01,3.063334183185982273e-01,3.410495285499492435e-01,1.344538035006456658e-03,4.083034033405756168e-04,-3.231859662688714246e-04,3.386498615145683289e-02
3.082314109143549086e-01,3.061299406610332174e-01,3.399581571221393927e-01,1.066760510175807780e-03,-2.255861603966273949e-05,5.175689817593010682e-04,3.289216384291648865e-02
3.018734409590452805e-01,3.400767828810074001e-01,3.154146115618617907e-01,-4.808976812929231055e-04,-2.602047435781138732e-03,-3.156073666365558344e-03,3.429910913109779358e-02
2.897857489477979054e-01,3.438112078242544500e-01,3.177344785075623124e-01,-9.841754138273672327e-04,-6.636391095989681646e-03,-2.187387766929486770e-03,4.836655408143997192e-02
3.049589533694151977e-01,3.399838782251379254e-01,3.115507899955448079e-01,-7.815585798312616860e-04,-3.652313523308583013e-03,-3.634101731233989850e-03,3.347820043563842773e-02
3.285130749400726469e-01,2.679103301831913808e-01,3.493014346530290970e-01,1.179725082784036615e-02,2.291711837414093893e-03,-1.304325135968440776e-03,7.617785036563873291e-02
3.543998490459711603e-01,2.166268367521249905e-01,4.824114503969745837e-01,1.723415551810562885e-01,-3.082146514630580703e-02,2.816020967919512924e-02,3.838471472263336182e-01
3.040624286039167457e-01,3.597519119268883236e-01,3.084112480913663856e-01,8.113520864590526710e-03,-3.711537554529671656e-02,8.411491715634921221e-03,8.614201843738555908e-02
3.099284439013654802e-01,3.430702972923312943e-01,3.023880881238672491e-01,-1.628693712724099858e-03,-3.944378290892177653e-03,-5.079008590417495583e-04,3.821710124611854553e-02
3.125449275538656480e-01,3.455146777690807913e-01,2.997562366166455772e-01,-1.219760469239666162e-02,-2.606497042571617045e-02,-2.144556629101152662e-02,7.440715283155441284e-02
3.359396993575738954e-01,2.502404523081276921e-01,3.434700580189197772e-01,-1.499483569189961549e-02,-1.049912464474459482e-02,-1.160956493358264799e-02,9.724190831184387207e-02
3.414578236753888496e-01,2.643124160059117655e-01,3.488151912402863708e-01,4.840641477341257361e-03,-6.542990325751362780e-04,2.106406830175976477e-03,8.159670978784561157e-02
2.896031899400940413e-01,2.900972746295142901e-01,2.811708520967370895e-01,-1.079494903888862378e-01,-1.170747975531635510e-01,-1.043413948505692440e-01,3.298722505569458008e-01
3.604967581201402593e-01,2.139698750000125493e-01,3.849264800633951378e-01,-1.393804096615234266e-02,-4.486125926971232074e-03,-3.223450286341190268e-02,1.714844703674316406e-01
2.301156892012617972e-01,2.704414739122188438e-01,3.560568047061861141e-01,1.234715328024013903e-01,-7.559905886950656073e-02,6.246044680899545676e-02,2.949472665786743164e-01
2.886160607918337173e-01,3.368681768273520949e-01,3.265220286217176415e-01,2.331422293638106547e-03,4.722767899345182638e-03,-4.600117113253733570e-03,4.563758894801139832e-02
3.240016529894119701e-01,1.799449524085755259e-01,3.812983008021471054e-01,9.373256476416165495e-02,-3.011536950037112248e-02,4.406107229434978734e-02,2.592132985591888428e-01
3.766082505547851400e-01,2.133808197280479546e-01,3.699877026524959756e-01,-3.110828561723263941e-02,-1.882508278666282509e-02,-4.338308709214449242e-03,1.721312254667282104e-01
3.364578147869530245e-01,2.144788564813968346e-01,4.295517366480722243e-01,7.271235705617315470e-02,-5.498276699816706525e-02,9.204202462009315744e-02,2.919702529907226562e-01
3.591421298518314709e-01,2.150212826368803065e-01,3.498407543240423800e-01,-1.491903385427041998e-02,-2.823918933808892539e-03,-3.077362793353165260e-02,1.518206745386123657e-01
3.746254712358293437e-01,2.488086889230019805e-01,3.863163153746284606e-01,-4.004702299680038685e-02,-1.108452181689502380e-02,-3.083411373964854707e-02,1.595918685197830200e-01
3.214833593997449834e-01,3.207579551169156828e-01,3.120062127452806755e-01,-6.462750172034830570e-03,-6.028112546011476884e-03,-6.480780163990380524e-03,2.106620743870735168e-02
3.257954826148480310e-01,2.827635076203443565e-01,3.487701922078920158e-01,-5.134916584268977603e-03,9.761809664480098313e-04,9.786349230190286496e-05,5.873861536383628845e-02
3.220493247363172551e-01,3.234980489098747136e-01,3.150746137917187495e-01,-5.425277944420095130e-03,-4.771325865986909658e-03,-3.865173765421441032e-03,1.619463227689266205e-02
3.346151937627278028e-01,3.077466843015131404e-01,3.045850546269219805e-01,-4.998608052783876966e-03,-6.945335497438044278e-03,-1.051292751767163823e-02,3.698779642581939697e-02
3.489393067634671830e-01,2.523532010822074900e-01,3.579855445066287278e-01,9.125255917852266932e-03,-2.948866858010846907e-03,2.933108799124362412e-03,1.028890609741210938e-01
3.352345295960323934e-01,3.112488848690001531e-01,3.099352036979466929e-01,-2.923187572628965347e-03,-2.940404045675572460e-03,-2.776127843343290796e-03,2.613886073231697083e-02
3.243641948093669569e-01,3.130235701271563697e-01,3.161225200438319005e-01,-1.374063737438756998e-03,2.942334979712914536e-03,2.330513516196284704e-03,1.228817645460367203e-02
3.272916918036357092e-01,3.201455694040200584e-01,3.050599861921067801e-01,-5.950499812776025889e-03,-2.354334661426430580e-03,-3.098506086218795995e-03,2.319701574742794037e-02
4.821966217589239156e-01,1.861787170964558924e-01,4.322367746581626813e-01,-4.042224605750207450e-02,-2.001541002246328901e-03,-1.007674894701202362e-01,3.327307105064392090e-01
3.089967110652682702e-01,3.032037218160976155e-01,3.440089898322628570e-01,-4.378406718588066272e-03,1.128781741270906127e-03,-1.524088213650195389e-05,3.903304412961006165e-02
3.297139256488086922e-01,3.108341611482347000e-01,3.103057149805492632e-01,-5.811858787646188330e-03,-5.248316299078129715e-03,-6.669897045316881476e-03,2.615591511130332947e-02
3.297017721402309975e-01,3.061104302908681518e-01,3.147848548892984710e-01,-2.692399523651646184e-03,-4.328396817170729501e-03,-1.568682021468341707e-03,2.263824455440044403e-02
3.246471315056070894e-01,3.149545293777724631e-01,3.139227923577278534e-01,-3.321538487697564806e-03,2.516994896527249836e-03,3.204234671855517216e-03,1.370825432240962982e-02
3.757358548078434946e-01,3.465689647190739464e-01,2.514262589651530266e-01,6.152146232018747794e-03,-1.330562214854558514e-02,4.401917906099204331e-02,1.383314430713653564e-01
2.871712204242227173e-01,3.136758786888302342e-01,3.487379483372939903e-01,-8.134857325575348477e-03,9.345448276179984821e-04,1.230059398759401077e-03,5.537906289100646973e-02
2.909114527799372407e-01,3.514359342366864536e-01,3.341994041416673777e-01,-1.732258151925950701e-02,6.450145399497787813e-02,1.899030834478501045e-02,1.318351328372955322e-01
3.146586187962048253e-01,3.007449161701982732e-01,3.436444319767032463e-01,-2.917349768651465898e-03,1.109331410230271053e-03,1.343998249277132684e-04,3.829291462898254395e-02
3.121996583080171583e-01,3.149409597661522175e-01,3.322255249648499720e-01,-3.902329613046187987e-03,3.493280572109542115e-03,3.970199491186808018e-03,2.198258787393569946e-02
3.055830741654949612e-01,3.177570787971505384e-01,3.042976024541360625e-01,-2.325028493135190139e-02,2.838968924213957842e-02,2.219352718522996093e-02,7.538446038961410522e-02
3.006620463494084627e-01,3.150777031294955677e-01,3.448356202783752211e-01,-3.473277726584426614e-03,9.945028848724496190e-05,-7.081719309519462352e-04,3.949746862053871155e-02
3.034276183745756583e-01,3.080706853794453748e-01,3.410829822827311508e-01,-4.677022735187352266e-03,-9.916784604870132816e-04,-1.535227966441213851e-03,3.661001101136207581e-02
3.112640114533444802e-01,3.216899491148191292e-01,3.184609315821971820e-01,-3.158492396834923586e-03,2.210144272560653558e-03,3.461807434136056003e-03,1.288394164294004440e-02
3.349680406468887317e-01,3.847042426151222050e-01,2.897830253331303840e-01,-2.220686210573114688e-02,-6.744457673827039534e-02,-2.960370836160730601e-02,1.565809398889541626e-01
3.541610163354999563e-01,2.493149694026616792e-01,3.489262297358962650e-01,-7.783128534958220568e-04,-2.461045311150666676e-03,-9.768230141270510189e-03,1.038146987557411194e-01
3.178377338635313687e-01,3.044682804109378749e-01,3.358475400215032436e-01,2.562803972221468045e-03,3.786316656592829226e-03,-1.295895712894523395e-03,2.848907187581062317e-02
3.174049465065444386e-01,3.144296323231938750e-01,3.228128515896614981e-01,-3.585748161741090720e-03,4.283692888748791110e-03,3.815521770879347005e-03,1.383783295750617981e-02
3.114399901876345744e-01,3.126111996963127360e-01,3.278726086373562332e-01,9.135842562029981070e-04,2.605161498200463457e-03,-1.104133337799867269e-03,1.669366657733917236e-02
3.237836930131163249e-01,3.164806545702807394e-01,3.136686652051007829e-01,-2.997284394169462494e-03,-1.902777037053569441e-03,-1.920448317069375910e-03,1.143043767660856247e-02
3.281736969687417682e-01,3.118313195767750678e-01,3.142233034981360418e-01,-1.930934355439790917e-03,-2.898409365286673967e-03,-2.144084827122690745e-03,1.684883795678615570e-02
3.730983478502430395e-01,3.625746516380221052e-01,2.777790608683660123e-01,-3.567177325530111048e-02,-4.890230536827626373e-02,-6.436688323299272207e-02,1.778044551610946655e-01
3.020784860362960567e-01,3.413667028246293866e-01,3.150277598487420394e-01,1.094682103634749036e-03,2.082561802506160183e-03,-2.871320531776390406e-03,3.526802361011505127e-02
3.307336128585890989e-01,3.308955462410882453e-01,2.956357041902382687e-01,-9.133284077378322693e-03,-1.341234840694466128e-02,-1.545200166773667491e-02,5.238119885325431824e-02
2.944748229863180522e-01,3.244877519448835512e-01,3.450275463835511536e-01,1.220732439379191951e-02,1.265418813301799096e-03,-1.926246232656230167e-03,4.901132360100746155e-02
3.279056236683216552e-01,3.035052630464283863e-01,3.197984258022631421e-01,-2.894739425770393240e-03,-7.051697799707626509e-03,-4.081915291374429988e-03,2.622193098068237305e-02
3.333383206527449905e-01,3.072405613288996529e-01,3.084270465267580086e-01,-1.529454004996021145e-03,-3.594211139582591079e-03,-4.809304588893719735e-03,2.768929675221443176e-02
2.981641309620605140e-01,3.389417719025951681e-01,3.186899442768457713e-01,-4.353786537004439988e-02,-6.842555623822699218e-02,-2.575980656486877990e-02,1.515606790781021118e-01
3.293714488518739714e-01,2.699658532561441393e-01,3.485098987237852941e-01,1.101031057218393970e-02,-2.571355218141212987e-03,1.410209260172640752e-03,7.363232225179672241e-02
3.239165856738080995e-01,3.117578632826970009e-01,3.186828084286918439e-01,-1.977030458052987747e-03,-4.013047583143248588e-03,-1.507600058979019150e-03,1.335848402231931686e-02
3.413133916786028621e-01,2.568590750397291012e-01,3.529508689926883491e-01,6.116655254174777068e-03,1.197367880194916048e-03,-1.423396949464594136e-03,9.150637686252593994e-02
3.214979805510806421e-01,3.055589131406141745e-01,3.195598654387084014e-01,-3.485443826483642770e-03,-6.860589590929255452e-03,-4.104197622890549436e-03,2.133306674659252167e-02
3.427568630574688857e-01,3.070678106853125255e-01,3.085985051128146139e-01,-2.226438651932976208e-03,2.445366365020270986e-03,-4.041358717791430563e-03,3.610028699040412903e-02
3.542872097543463550e-01,2.449815101172679865e-01,3.545700663382157503e-01,2.152104020738097607e-03,6.034106167724081820e-04,-2.758799039444631302e-03,1.096200421452522278e-01
3.341073770890262140e-01,2.882417827874569349e-01,3.350428260043419870e-01,6.635907737554477479e-03,-5.957462077393874469e-03,6.600304856988460644e-03,5.016676709055900574e-02
3.432128814678065964e-01,2.872950485638872120e-01,3.098853844201370777e-01,2.275414290593870951e-05,4.865536221226006430e-04,-1.027748327556432008e-02,5.187982693314552307e-02
3.409215502602284675e-01,3.072761600823684658e-01,3.035122255525726787e-01,4.777913506776477071e-04,-4.024639353124809878e-04,-3.162445641926838347e-03,3.611083701252937317e-02
3.424895088402645227e-01,3.050950383388851272e-01,3.068134092035125216e-01,9.995224918993709292e-04,-7.880697358107395609e-04,-3.695457403260164926e-03,3.718697652220726013e-02
3.269854834733968429e-01,2.927768669844323379e-01,3.388885620208270666e-01,4.514026770741316232e-03,5.097324163154779916e-03,-1.787972968014324166e-03,4.321768879890441895e-02
3.513173965054099401e-01,3.007392920060570907e-01,3.173993028789664494e-01,-2.427290813758213508e-03,-3.520402260085082977e-03,-1.734181362525888045e-02,5.431518331170082092e-02
3.302330008392029281e-01,3.125224152835893165e-01,3.185731122775426472e-01,-5.483483331675064083e-03,-6.514161414867443434e-03,-9.884275286614268435e-03,2.745395712554454803e-02
3.439999123072074450e-01,2.873038176472734739e-01,3.131988951152225309e-01,-2.450164635901731672e-04,-2.293622149627721173e-03,-1.085631198207671726e-02,5.278629809617996216e-02
3.383883341559168478e-01,2.909055075012768610e-01,3.182346246412309787e-01,-6.034904953895283732e-03,-1.073180851907664692e-02,-9.689841618254289163e-03,4.939929395914077759e-02
3.407963913407969225e-01,3.098774582780592368e-01,3.077837728227607039e-01,1.262502233497825224e-03,7.902572078265399872e-04,-5.088610541092508177e-04,3.213301301002502441e-02
3.412996246555880520e-01,2.699839102259975476e-01,3.421836221926308208e-01,7.007132100193885424e-03,5.840255931935597195e-03,-8.068763971098676796e-03,7.479769736528396606e-02
2.779843010626465438e-01,3.289935322904996018e-01,3.483878811353086635e-01,-2.311534174741273345e-02,3.733114952505737529e-03,1.018816156176204210e-03,7.493498921394348145e-02
3.197053789281450453e-01,3.423586183883635670e-01,3.021395966222545915e-01,-4.741068559841789438e-03,-1.427034033572085504e-02,-6.855665922384492940e-03,4.515539109706878662e-02
2.613114642387377451e-01,3.419465521296247146e-01,3.973670195486181389e-01,-6.990215670237343026e-02,-5.502095900797719652e-03,-2.925965436652389149e-03,1.697578132152557373e-01
3.518265063371681656e-01,2.569663738670230346e-01,3.486886848689101370e-01,6.806889143958091970e-03,4.691186969308415618e-03,-9.905576304131101517e-03,9.596884995698928833e-02
3.408359396207775172e-01,3.163083069474340037e-01,2.999683777612848212e-01,-2.035227006230867514e-03,-7.586746457160955907e-04,-3.058557444916204515e-03,3.621595352888107300e-02
3.523409926278765480e-01,2.447134207411092166e-01,3.529261644772148654e-01,2.561519590032211840e-03,2.231918814693587601e-03,-3.099878168618115919e-03,1.082149446010589600e-01
4.584495383316332662e-01,1.509712642383648218e-01,4.804082552884380020e-01,5.149904837275088437e-02,-1.454034689212704498e-02,4.345043297999930804e-02,3.406338989734649658e-01
3.412317562042885277e-01,2.802752793077322169e-01,3.266270880840431157e-01,-3.408444275887605353e-03,-7.121429314768229143e-03,-4.331597203750068431e-03,5.728895217180252075e-02
3.361653784059298045e-01,3.143280387169443135e-01,3.053158155447542876e-01,-3.713425975545119745e-03,-1.805666782074201449e-03,-3.000911733772255400e-03,2.886275947093963623e-02
3.309894535583882691e-01,3.312027689678675446e-01,3.079229052770832697e-01,-9.004910373783451757e-03,-9.282088330236071966e-03,-1.082614469687379760e-02,3.728786110877990723e-02
2.575256532787666419e-01,3.438617775647800912e-01,3.879072960470432152e-01,-6.353671971468909108e-02,3.454234309202414838e-02,1.403644568192362330e-02,1.716915369033813477e-01
3.206669083480460092e-01,2.621500516360890654e-01,2.999334487302596775e-01,-9.917142800637793187e-02,9.524421841681934842e-02,1.207220044501841061e-01,3.210631608963012695e-01
3.662249258786305361e-01,1.450557670435175806e-01,4.777306156146553517e-01,7.641995930748067545e-02,-1.065082334114284511e-02,4.012857944255600329e-02,3.297001719474792480e-01
2.171610553009253874e-01,3.509718410092389496e-01,3.721459720585892361e-01,-3.043562039921371420e-02,2.413589113713043507e-02,5.078561345975115410e-03,1.605957001447677612e-01
3.258148584164026196e-01,2.956686257582172295e-01,3.308633245678944679e-01,-3.584904613278653424e-03,-7.171533588253811015e-03,-5.369920158721347946e-03,3.695713728666305542e-02
3.073125058403404219e-01,3.077536765747637681e-01,3.329955591126659842e-01,-8.519956260136784046e-03,-5.620550773522882231e-03,-5.282424328418359322e-03,3.232237696647644043e-02
3.192559202550335207e-01,3.054445951543020565e-01,3.248805479607838609e-01,-4.534409151033136180e-03,-6.380814435613558523e-03,-2.893993566943510020e-03,2.256158925592899323e-02
3.489827493888678078e-01,3.255465986495582054e-01,2.816325603964207058e-01,1.292912851425918712e-03,1.350195574425093427e-03,-5.816105769020377125e-03,6.015677005052566528e-02
3.088148614722238117e-01,3.090215098831382012e-01,3.358822983187172428e-01,-1.057142212958502459e-03,-8.989813321798767898e-04,-2.037125423476577029e-03,2.730058878660202026e-02
3.254708965501196261e-01,2.827366337911701444e-01,3.487459289126925155e-01,-6.066488605862007354e-03,-3.121849946953017627e-03,-1.613364853073249788e-03,5.924558266997337341e-02
3.065037243347477069e-01,3.114699696241899352e-01,3.358893201665389405e-01,-2.995516781290153818e-03,-1.288435706933437671e-03,-2.877166982995288912e-03,2.826613932847976685e-02
3.116837078102345227e-01,3.145525168755521905e-01,3.283752595806265218e-01,-1.205210937939759893e-03,-1.497630971828937214e-03,-3.529145527836246091e-03,1.695299334824085236e-02
3.042294754832607362e-01,3.177423889461980511e-01,3.360910255710276573e-01,-1.999161587102625363e-03,-8.715649901922464674e-04,-3.703952623108820556e-03,2.868172712624073029e-02
2.965610846225034125e-01,3.270279477398492229e-01,3.283133314604304576e-01,2.438112289043061712e-03,1.613862034483359289e-03,-6.566265470312642079e-03,3.352667391300201416e-02
3.006539203967741325e-01,3.322554259093771223e-01,3.181347426349093732e-01,-4.221382250052777181e-03,-7.150096287223867836e-03,-6.838942685106559789e-03,3.315055370330810547e-02
3.016013048197219160e-01,3.155474879720254755e-01,3.381596737710775291e-01,-2.270756440279741561e-03,-1.225249046730460083e-03,-4.055397352288533062e-03,3.302229568362236023e-02
3.168273564730639258e-01,3.043531758343445692e-01,3.380589032510443737e-01,-1.895447806956683957e-03,-4.455439388718757110e-03,-2.084560302935497926e-03,3.089655376970767975e-02
3.031949366412621805e-01,3.165900010100196615e-01,3.287129088143287414e-01,-2.658948785606852962e-03,-4.028361046600523838e-04,-4.838952862223375694e-03,2.409819513559341431e-02
3.037642411697000222e-01,3.171280229199220368e-01,3.378899622719500062e-01,-2.598719665051185766e-03,-2.208531069272933866e-03,-4.953293084723892070e-03,3.155320882797241211e-02
3.039734258712797899e-01,3.188938268605490123e-01,3.277601439346942147e-01,-4.575696257081218916e-03,-2.780118948370310060e-03,-6.126462064025810748e-03,2.514195255935192108e-02
3.044230230068381005e-01,3.109158891128415703e-01,3.380700623580733533e-01,-4.067175002762800536e-03,-1.610480665494797578e-03,-3.289586671440251648e-03,3.233706206083297729e-02
3.220861783201405815e-01,3.181276617054054623e-01,3.159307559508388041e-01,1.750898324123454936e-03,7.541460025028701164e-04,-5.686200876919524820e-04,6.408265326172113419e-03
3.191352450556357856e-01,3.166398090946585531e-01,3.180695796330499925e-01,1.241374245069003452e-03,1.313311411621929199e-03,-6.365015183498961377e-04,3.964383620768785477e-03
3.387072975282259812e-01,2.785156989856878429e-01,3.387809561512410972e-01,4.464211433541963661e-03,5.141096375631239168e-03,-4.961824035517965401e-03,6.197101622819900513e-02
3.171140904423910278e-01,3.137136608190441711e-01,3.217272132978037380e-01,2.988599964419370956e-03,3.544845313981746012e-03,-1.501556301512536320e-03,1.094474364072084427e-02
3.218909444457849212e-01,3.196320969113692345e-01,3.107778580644958710e-01,3.441741994664830433e-03,1.358574908649291639e-03,-1.742094104359221372e-03,1.239673048257827759e-02
3.116555922030836423e-01,3.092771905222162498e-01,3.349770885874533422e-01,1.469038542894838661e-03,9.853902790197747834e-04,-8.223540708886795505e-04,2.482806704938411713e-02
3.168819048792853033e-01,3.129548911693736390e-01,3.183511484203582764e-01,-4.998508725908170844e-03,-5.372936838345019304e-03,-5.564947459106494784e-03,1.666782423853874207e-02
2.949263260902855177e-01,3.178516876347436404e-01,3.379467987001609774e-01,-4.211756707987395799e-03,-2.667386481499787847e-03,-5.498565387834213926e-03,3.943776711821556091e-02
3.150893817114241990e-01,2.922716244821390585e-01,3.457119015672442397e-01,-7.113344191317102529e-03,-4.141690881171377139e-03,-2.515652260643070227e-03,4.877879843115806580e-02
3.180935937793038515e-01,2.977469235517175572e-01,3.305037861468966831e-01,-5.272630531284050980e-03,-8.123039806325203088e-03,-5.957003175194926919e-03,3.476085141301155090e-02
3.018375182649253308e-01,3.159032790391489431e-01,3.430326323188065407e-01,-1.371608008682854984e-02,-6.599104676516602021e-03,-4.733851423768677992e-03,4.558187723159790039e-02
3.359176711057863529e-01,3.262772215194327252e-01,3.504825797820612099e-01,-5.339804569449500132e-02,-4.776361117327641848e-02,-4.146583512749849737e-02,1.449202299118041992e-01
3.029902707118799499e-01,3.175866561807307864e-01,3.485630449471771031e-01,-3.647515381915105576e-02,-4.430976637575706478e-02,-4.227330834660587150e-02,1.298738121986389160e-01
2.575341322804214350e-01,3.529545766546055563e-01,3.519097254619051318e-01,5.553160534523139853e-03,-1.005214624750442633e-02,3.939757660643433516e-03,9.720425307750701904e-02
2.732307432542308567e-01,3.361555613068422654e-01,3.447904589197409164e-01,4.131773443391849321e-02,-5.476104330052544017e-02,1.994235564961555768e-02,1.410259455442428589e-01
2.754097556412554715e-01,3.843301094937471296e-01,3.473905956275267215e-01,3.250150420080095276e-02,-5.513451996231321511e-02,2.138677922123807806e-02,1.512130200862884521e-01
3.355028110900109550e-01,3.129741513535953534e-01,3.088301810390067237e-01,2.403067203346871510e-03,7.387194886627018687e-04,-1.158444308513595974e-03,2.531913109123706818e-02
2.746813908904853219e-01,3.527601263462663006e-01,3.306393404452621643e-01,3.846147829454121120e-03,-1.226120655707284464e-02,1.316681396149542091e-03,7.320550829172134399e-02
3.187120266866120821e-01,2.615823035221869208e-01,3.244695401397187373e-01,9.157933151198828503e-02,6.382458287724945833e-02,-8.938535348274123660e-02,2.549042105674743652e-01
3.422498599156886812e-01,2.179611153162845372e-01,3.684766825442509774e-01,-6.493490976678933935e-02,9.098655131125992640e-03,2.541169493698840556e-02,1.850148141384124756e-01
4.632833686250407701e-01,1.216913404193951664e-01,4.661580007813493354e-01,1.479195615808545812e-02,-7.573192361052498087e-03,5.467213209546478714e-02,3.570306897163391113e-01
3.157324878015201897e-01,2.903209827051108638e-01,3.638402792342791403e-01,-4.423556847488773619e-02,9.566346611287071186e-03,-5.954069027212909862e-04,1.016295254230499268e-01
3.820923806850702320e-01,2.016039890415908531e-01,3.904675559218100389e-01,2.173869772907269932e-02,1.030294836699076864e-02,-3.403508805905768042e-02,1.984166055917739868e-01
3.388697208475634493e-01,2.947907080032343696e-01,3.261110715213558220e-01,2.361669375503509197e-03,5.592456413804226117e-03,-5.033423003879110985e-03,4.159229621291160583e-02
3.290690599491928880e-01,3.042489475560889445e-01,3.271016386331523362e-01,2.034661609056628156e-03,5.483923638504860885e-03,-2.947347852462857583e-03,2.645330689847469330e-02
3.040421174512267788e-01,3.293176039222290852e-01,3.107625876533857134e-01,3.982960415839312956e-02,4.159888757883562632e-02,-3.102867976408452133e-02,1.155555397272109985e-01
3.300407380986167261e-01,2.855512474005285073e-01,3.417641518181827043e-01,-1.858953243430258931e-02,6.273520994055151873e-03,7.427644526324935631e-03,6.291752308607101440e-02
3.420609516105909687e-01,2.813543829913601746e-01,3.422966118778543732e-01,-3.480495650794686920e-03,-6.369062135679202236e-03,-5.183475949183455680e-03,6.275580078363418579e-02
3.372096083072977923e-01,2.929937479438620707e-01,3.189799183529791748e-01,8.852973425455384340e-04,4.913954195991479881e-03,-6.667975620958532454e-03,4.110353067517280579e-02
3.254138053470105318e-01,2.928283630117681224e-01,3.379177346657364911e-01,-4.233391905633954524e-03,-4.381792604586845670e-03,-3.036430869672785294e-03,4.200750216841697693e-02
3.380993854426490031e-01,3.199333180537553556e-01,3.155446203133632221e-01,1.624809715651186204e-02,2.764915330332502752e-02,-2.536837355950165990e-02,7.379081100225448608e-02
3.321496957197703215e-01,2.711503816655213006e-01,3.434279948005488636e-01,9.344660806988055665e-03,8.287006472659189105e-03,-8.743695620754042899e-03,7.234247028827667236e-02
3.342442741807568063e-01,2.688832971470636046e-01,3.450682373019079985e-01,1.987495913506551540e-02,6.499072949060436845e-03,-1.929446441976826604e-02,8.674828708171844482e-02
3.246735019966605629e-01,2.765934561434388872e-01,3.687609523626901309e-01,5.813149671691807824e-02,1.438572569006297576e-02,-4.646544956416381184e-02,1.536583751440048218e-01
3.222519817817984245e-01,3.214341087356922255e-01,3.137430819418230987e-01,-2.570796154141033896e-03,-1.375367630739392742e-03,-1.592079332184660788e-03,9.960779920220375061e-03
3.391738089173426118e-01,2.685996394977753221e-01,2.990976445238509029e-01,3.827585185758127645e-02,3.077809670311040108e-02,-6.358467522708945163e-02,1.520674228668212891e-01
3.125739080381794710e-01,3.092010165223728069e-01,3.357451224251707389e-01,-7.467735015095076966e-04,-2.245657558961476792e-03,-8.874954973199092930e-04,2.540866844356060028e-02
3.344149370382252795e-01,2.894495386274306692e-01,3.282446161515242822e-01,1.102903790793747542e-02,6.424891602443483403e-03,-3.031796907738478365e-03,4.794622957706451416e-02
3.209247518935962051e-01,3.092243828679467343e-01,3.300124983003208112e-01,1.000811858188101373e-02,-6.685715640701289826e-03,7.095479320537933024e-03,3.019001334905624390e-02
2.686015922671133316e-01,2.884863742578336887e-01,3.510760637207220869e-01,-6.014990451096342838e-02,2.206259351518833831e-02,2.139719261561021449e-02,1.387273669242858887e-01
3.256352891843460884e-01,2.887445726906893717e-01,3.459953554785917262e-01,-4.508603667634565604e-03,-4.779854271993752221e-03,-3.336949355861854819e-03,5.186023563146591187e-02
3.194759063042155733e-01,3.090771287806244327e-01,3.280245785624604782e-01,-8.433773909853462848e-04,-5.305753476747314228e-03,-1.096253285389076244e-03,1.898163184523582458e-02
3.142718753092059170e-01,3.154249673168250667e-01,3.243568959472282742e-01,-4.634401822036104566e-04,-5.793570028706549564e-04,-1.906069488642795316e-03,1.019602362066507339e-02
3.157295467432572611e-01,3.013665730254305730e-01,3.446323903043219117e-01,1.561993743685039654e-02,-4.006828541983645069e-03,1.436622727001335247e-03,4.736141115427017212e-02
3.171702099892398929e-01,2.944340486454402050e-01,3.426428428695821315e-01,1.111674697566907358e-02,-4.804544755178621245e-04,4.938853207446110630e-03,4.679266363382339478e-02
3.136738294409645023e-01,3.075598680770935123e-01,3.362934327341559060e-01,2.024377045035721627e-03,-2.659970145131315168e-03,1.712021999835012945e-03,2.701177634298801422e-02
3.148962454664793187e-01,3.128358059617266651e-01,3.284288135447578916e-01,1.313884524305136605e-03,8.148188315928519025e-04,-1.145518398199043934e-03,1.504546962678432465e-02
3.190740093321918769e-01,3.231310200942641431e-01,3.175807595964457719e-01,3.650682219327685066e-03,3.305593984737769525e-03,-3.992796977700109953e-03,1.205561496317386627e-02
3.439956945970829016e-01,2.536558315257634311e-01,3.798910164707142711e-01,-6.566573047420587450e-02,-7.609671888803740819e-03,-2.381941542996610442e-02,1.658442765474319458e-01
3.437764469782162990e-01,2.124997093630352496e-01,4.090804635033380432e-01,-6.561634052629441993e-02,8.033666857506064490e-03,2.419871958158713657e-02,2.119857519865036011e-01
3.154315465180441147e-01,3.225786662379686587e-01,3.164516345576774969e-01,8.725453025492876675e-04,-3.802665455365071708e-04,-3.703139702296444997e-04,6.925346329808235168e-03
3.105727203417786852e-01,3.125734123777534346e-01,3.281909626337761177e-01,-5.289353356263625787e-06,1.060654917305085907e-03,-9.884275330445239406e-04,1.689563691616058350e-02
3.711676846335835722e-01,2.488913730705941407e-01,3.515021073061613266e-01,5.835551700694693693e-03,-1.890982893467324510e-02,-3.573573870987369755e-02,1.339389085769653320e-01
3.506266788759864750e-01,2.401674076513049538e-01,3.788918397168770658e-01,-2.781678945860121058e-02,2.495329657135669571e-05,-2.141725670804120116e-02,1.407825946807861328e-01
2.999409626827005959e-01,3.152707456961287291e-01,3.438085220182780510e-01,2.730137803154845250e-03,1.759503100136686476e-04,5.680652345121868811e-04,3.886266425251960754e-02
3.405464237942577022e-01,1.931270733122412708e-01,3.780321388765395252e-01,-7.070953181090347539e-02,2.570049438300819715e-03,2.941259405052180920e-03,2.090670913457870483e-01
3.407601686935963770e-01,3.050794806244034874e-01,3.101416655607280304e-01,4.304690911859906173e-04,1.281288367783221197e-03,-7.150592344455176073e-03,3.573498129844665527e-02
3.194509585152531250e-01,3.233631902962855742e-01,3.107964404786546231e-01,5.204628151886857464e-03,5.770383969866562518e-03,-5.204868522900515070e-03,1.965942978858947754e-02
3.281946131999761707e-01,3.181489554884251447e-01,3.110529930147889477e-01,3.713178353883361121e-03,1.610117213535118075e-03,-9.652567363724730374e-04,1.656765490770339966e-02
3.219094928671472067e-01,3.023823588192744438e-01,3.288223322212712185e-01,2.626594267057156228e-03,6.832370344709338267e-03,-3.084842924218723220e-03,2.744765765964984894e-02
3.422149829654884678e-01,3.052821934793951142e-01,3.145971932219001066e-01,5.135706458540281565e-03,3.933027379565215594e-03,-1.382431283979306154e-02,4.249280691146850586e-02
3.481986222168726997e-01,3.150419424580245265e-01,2.874136355353316685e-01,3.643083862570444843e-03,1.947956535178322918e-03,-9.109572342222876581e-03,5.548787489533424377e-02
4.802237237578727003e-01,2.687695539609111228e-01,2.032311312642112178e-01,4.081860198233219425e-03,4.138432358306767117e-02,-1.531808494056487446e-01,3.720854818820953369e-01
3.420287736638074616e-01,3.063861544826965710e-01,3.122283182866577578e-01,2.224940532619384265e-03,2.210083685449921054e-03,-5.658714616640176873e-03,3.495518118143081665e-02
3.583169159173206775e-01,2.857285088937780992e-01,3.338324359655024387e-01,-1.101340436297903146e-02,-9.558750120184407104e-03,-2.533469624732397410e-02,8.157703280448913574e-02
3.360968869655303615e-01,3.087885733868005467e-01,3.077491260491909131e-01,2.145058709366715142e-03,3.938398779619666640e-03,-1.696211024825092705e-03,2.905474416911602020e-02
3.356944853688413888e-01,3.063539546468397878e-01,3.117517311113240930e-01,1.966892545633429096e-03,3.610067798604413292e-03,-3.168007488130597168e-03,2.850336208939552307e-02
3.439773098724351330e-01,2.856132338569656315e-01,3.259024631049182719e-01,5.024102505675219271e-04,4.121188356666380045e-03,-5.360105936207164301e-03,5.306642875075340271e-02
3.439225833735326532e-01,2.963970781478755812e-01,3.141273246930596508e-01,2.923237122618602092e-04,1.336072707830937524e-03,-3.136156012698093631e-03,4.201802611351013184e-02
3.376949242257414330e-01,2.947393985398326088e-01,3.264672990761788851e-01,2.616705291608380658e-03,5.959652168681296540e-03,-4.944550772633371158e-03,4.110216349363327026e-02
3.353909441114585888e-01,3.096137757300802540e-01,3.086310744099525216e-01,8.564050049756803196e-04,7.243720903995046504e-04,-4.436526569227721480e-04,2.636520937085151672e-02
3.337622409283831360e-01,3.034620464869713929e-01,3.142080018749059400e-01,-2.179102514956179210e-02,2.398616227256539571e-02,2.984211601882918313e-02,8.080954849720001221e-02
3.415326888458284915e-01,3.084719528470246108e-01,3.079627003907133842e-01,1.224183884833416171e-03,7.368803245118597453e-04,-2.385119572311151809e-03,3.366450965404510498e-02
3.151922655267708762e-01,3.485985439292111909e-01,2.828042851647449285e-01,-1.421769743125345098e-02,5.467489870198111862e-02,2.410864066318063603e-02,1.206858083605766296e-01
3.156025072434739398e-01,3.009842191517779764e-01,3.392029758429168096e-01,2.429246437445515498e-03,3.371663644853676537e-03,-1.882697316895097853e-03,3.432370349764823914e-02
3.187239515786602917e-01,3.038930792867070574e-01,3.251841763164573518e-01,5.599033712677340541e-03,-6.583525365624155745e-03,4.149382717295496507e-03,2.516402490437030792e-02
3.155829433600869649e-01,2.954923995728352959e-01,3.340965093745531522e-01,7.781654698091318087e-03,-6.029400835210546421e-03,3.358363683956939322e-03,3.798537701368331909e-02
3.161515843931894665e-01,3.184812143135411500e-01,3.221458322094212234e-01,4.597043177819376070e-04,9.552082083114667426e-04,-1.437802744985370012e-03,6.080039776861667633e-03
3.140310839359719552e-01,3.143629170700781850e-01,3.318048142029360048e-01,-3.116130632983974205e-03,-4.299824570490811543e-03,-3.704098881293361491e-03,2.087762020528316498e-02
4.835497452792644757e-01,4.056980212573940703e-01,2.240238421550504455e-01,-1.961535173812430782e-02,-1.617586995012319090e-02,-1.583367593356887759e-01,3.610552549362182617e-01
3.423256106292119072e-01,3.091011766126975369e-01,3.095635082025100515e-01,1.493400929645558430e-03,9.196367225317299103e-04,-5.414680504732501294e-03,3.443690389394760132e-02
3.360564696960028352e-01,3.082590060627160566e-01,3.120438976375783935e-01,-6.125744058672356060e-04,-2.234428382302183075e-03,-6.186043420748861326e-04,2.643985114991664886e-02
3.186578144571984850e-01,3.343422059674799329e-01,2.977194139759221092e-01,-6.780893352772211259e-03,-5.872731594547564785e-03,-2.739719723076582385e-03,3.573163226246833801e-02
3.392457661049581574e-01,3.098899684012362266e-01,3.082303836974608635e-01,1.634053441773305332e-03,-6.447181930604865049e-05,-8.939926612676419096e-04,3.039170987904071808e-02
3.410284002144028381e-01,3.026558341903868854e-01,3.083843347850075411e-01,6.956967123240538967e-04,1.449840206922142381e-03,-3.264624316732248326e-03,3.640307113528251648e-02
3.462610886903885188e-01,3.010319788260555907e-01,3.062916830473287333e-01,-7.465519369250225119e-04,-6.045167496971219981e-03,-1.833803149398730362e-02,5.436542630195617676e-02
3.166322054771861794e-01,3.252947641489969399e-01,3.139540460422903800e-01,-2.989950155198143732e-03,-2.719511748432994810e-03,-2.972423227670310201e-03,1.345082558691501617e-02
3.282476577557206787e-01,3.097330008927833833e-01,3.202055236543822070e-01,-9.434943524651222095e-04,-5.092199605829881431e-03,-1.129539084806697839e-03,1.851649768650531769e-02
3.165175308652617425e-01,3.089059344713979693e-01,3.280121802940911824e-01,-1.543867190333756334e-03,-3.983929887425703004e-03,-1.132543966023241613e-03,1.833492890000343323e-02
3.405765419103545799e-01,3.145578996393148530e-01,3.011127916954192130e-01,-4.761087515951726440e-03,-2.157100105795812118e-03,-2.758271585984846223e-03,3.622639179229736328e-02
3.109116064342767327e-01,3.113851712075303424e-01,3.333553202592823839e-01,-5.295761011538504051e-03,-3.706178500804636552e-03,-3.367688693711673800e-03,2.554765157401561737e-02
3.073404868537788492e-01,2.567139883353272145e-01,3.509389565711843462e-01,-9.712819048451687420e-02,5.289524989059198740e-02,6.976774011427683275e-02,2.407677322626113892e-01
2.893789185535810549e-01,2.506665547169799613e-01,3.871245639649219528e-01,-1.095711639665667009e-01,3.105270488251338917e-02,4.375004245976513856e-02,2.439043968915939331e-01
3.180434725044169464e-01,3.177321216690374150e-01,3.200842392679056903e-01,-2.791733235870482344e-04,-1.078016017936594701e-03,-5.919802970890541841e-04,3.109429730102419853e-03
3.146184111268711114e-01,3.197288795537829298e-01,3.200477536208040652e-01,-7.595172118741014061e-04,-1.240052942854804165e-03,-3.972784187184957676e-03,9.030005894601345062e-03
3.619542218139128464e-01,1.952693112390286867e-01,3.560131937732092799e-01,-7.079049353993845106e-02,3.401945779937524950e-02,8.279789721889130316e-02,2.567122876644134521e-01
3.468546284870748786e-01,1.172468518226330858e-01,4.786286688115055643e-01,-1.012994866868139193e-01,-2.201197035487787584e-02,2.078916449009428347e-02,3.658898472785949707e-01
3.029373903670347645e-01,3.169067532903219186e-01,3.358668438218415653e-01,1.926162841633266478e-03,1.373230068262179136e-03,-4.168788692248604454e-03,2.980624884366989136e-02
3.147118822343217825e-01,3.162440374972730339e-01,3.217337385217489687e-01,1.066278265845242018e-03,2.495409252900335738e-03,-9.769451197132192691e-04,8.114844560623168945e-03
3.545799669957512834e-01,2.429364902644678970e-01,3.841038374491140273e-01,-2.610386236565058471e-02,6.488345423442651349e-04,1.385353972441253148e-02,1.387563794851303101e-01
3.158650463337247527e-01,2.980010174175469762e-01,3.495640764679095458e-01,-1.426430042729402367e-02,-1.249325737374145815e-03,-6.676436578155564225e-03,5.296759679913520813e-02
3.218205224087472005e-01,3.154975771180995592e-01,3.152282673337867269e-01,1.046204359409362312e-03,2.095211623396360176e-03,-1.131510603463703121e-03,7.877138443291187286e-03
3.026479897568103983e-01,3.054978143090885667e-01,3.633751007756365059e-01,-3.808913071486071111e-02,8.283654372971870072e-03,1.288701875053230653e-02,9.262435138225555420e-02
3.200933633778267895e-01,3.214814683205422519e-01,3.107818375039896885e-01,3.465616393179731750e-03,6.894754648593334756e-04,-1.054036137941765814e-03,1.193093974143266678e-02
3.183193099384233338e-01,3.164985268090435566e-01,3.227196127871599929e-01,1.063230474690785238e-03,4.481393250756124380e-04,-9.748735128162235291e-04,6.126574240624904633e-03
2.873865972454335282e-01,3.136047386509143164e-01,3.434699247297102187e-01,-8.683119339973410095e-03,-1.156130441394650110e-04,7.034580258471617720e-04,5.089247599244117737e-02
3.032357568740186582e-01,3.087284558383568966e-01,3.439792371741376975e-01,-4.169213782709783010e-03,-7.939328527334814703e-05,-3.705837748235124920e-04,3.897418454289436340e-02
3.001300440200002084e-01,3.150052598528374492e-01,3.441334987721776928e-01,-2.397687275168080504e-03,-4.493877167036015082e-04,3.670818772203781016e-04,3.900348767638206482e-02
3.058758003610418386e-01,2.662077188584680565e-01,3.634943816665245908e-01,-7.207118737141020304e-02,-6.287952005216976455e-03,-1.846118288181409399e-03,1.512966752052307129e-01
3.107910001842718040e-01,3.112251182477608902e-01,3.384033826060713901e-01,-4.864358290462033815e-03,-3.234691423670910462e-03,-3.345948341149192293e-03,2.977594360709190369e-02
3.243491148739480745e-01,2.734672155969691265e-01,3.407628578771099148e-01,1.349860167304680302e-02,7.658483746471624748e-03,-4.841656660734784332e-03,6.698103994131088257e-02
3.171852747737459732e-01,3.182343002954033384e-01,3.227157310543639079e-01,-1.960834315318640830e-03,-2.635117497202893629e-03,-3.371074808817224079e-03,9.609547443687915802e-03
3.367840649262469066e-01,3.182800464728733347e-01,2.928612722907258381e-01,5.827598729277846251e-03,1.846673652939626476e-03,-6.777085785600843459e-03,4.133717715740203857e-02
3.539110896205517331e-01,1.814185569562686284e-01,3.406493728330176607e-01,-1.086858702411414024e-01,5.362602431320297180e-02,1.015347614617492372e-01,3.203670382499694824e-01
3.278606771553631560e-01,3.138398291667792162e-01,3.116975953021991486e-01,8.502020712420348299e-04,2.602115806857254951e-03,-9.399361467548848770e-04,1.601066067814826965e-02
2.973434518880881394e-01,3.179392096247665722e-01,3.366698711409041866e-01,-4.506548849544830294e-03,-2.058466900110074264e-03,-5.704286296075426581e-03,3.649726882576942444e-02
3.413835561457456702e-01,3.086249276406058395e-01,3.047631897285181246e-01,1.064902665638151969e-03,1.306851207633630491e-03,-2.542020368406370818e-03,3.524850681424140930e-02
2.816080175208733327e-01,3.394802534082126955e-01,3.317603551190893008e-01,3.973754238263607977e-03,7.091841097207235087e-03,-7.713523238533252085e-03,5.778213217854499817e-02
2.853217633311178614e-01,3.590125361915489921e-01,3.290669799729819545e-01,8.671381399077896304e-03,2.673724981620874755e-02,-8.708854585828396458e-03,8.196406066417694092e-02
3.375494849841308431e-01,3.037242158063447328e-01,3.146963578685014196e-01,1.942040699692947590e-03,4.229979314742058835e-03,-3.555498935184465709e-03,3.156451508402824402e-02
3.357312086762399561e-01,3.087853529955541521e-01,3.101035963100864934e-01,7.674695759685774181e-04,1.495086591766682819e-03,-1.544628383361194932e-03,2.660688385367393494e-02
3.296657578396506860e-01,2.709146857261796604e-01,3.547076102015735422e-01,-1.102153135760398396e-02,6.396691835167647364e-05,6.041688874543361260e-04,7.691260427236557007e-02
3.172860289279444967e-01,3.157334021057340290e-01,3.169237608456935695e-01,2.158962972266520713e-03,3.599682511833176418e-03,-1.764234641755301836e-03,8.010836318135261536e-03
3.232003912443950355e-01,3.146265959758029473e-01,3.114044559965791770e-01,6.300797599055241519e-03,7.049361503939818342e-03,-6.172047304153330943e-03,2.222568914294242859e-02
3.032694505746214020e-01,3.410101465781829599e-01,3.088145754250611885e-01,-8.272907003503950302e-04,4.143196806486102758e-03,1.470439877789420395e-03,3.613682091236114502e-02
3.029507235570095824e-01,3.434996399535507616e-01,3.090714076186715786e-01,-2.497320823435843305e-04,4.208934033467077312e-03,7.363493979435914568e-04,3.858042880892753601e-02
3.108999976362732953e-01,3.397146509079123078e-01,3.089365304020070813e-01,-2.261198491776558999e-03,6.339803202702071899e-03,2.006097493422485251e-03,3.222898766398429871e-02
3.409761567968822571e-01,3.178775733548036553e-01,2.973189849052298994e-01,3.561430829737076767e-03,5.766661044022615597e-03,-9.459435668008650544e-03,4.286410659551620483e-02
3.149923810497729515e-01,3.183197760760524964e-01,3.003807639062185952e-01,1.414375354192757769e-02,1.357963668798634754e-02,-1.349509057648056939e-02,4.441732540726661682e-02
3.278691899850816327e-01,3.109706075540632497e-01,3.139439534202581594e-01,-1.300147522224136742e-03,-3.185862114809718832e-03,-1.740137645941367342e-03,1.699300110340118408e-02
3.379142169262388529e-01,3.027414452584138438e-01,3.179400081296205882e-01,-2.049854985788900422e-03,-5.265185933262471994e-03,-2.010534184828882253e-03,3.227140381932258606e-02
3.161436045393836713e-01,3.504378660449233296e-01,3.029690343571580513e-01,-1.530663516705481602e-03,1.649949524016635152e-02,1.718237768865868171e-03,5.132313072681427002e-02
3.168518507684783270e-01,3.122439008954950301e-01,3.281358567963478245e-01,1.592877621115102414e-03,3.476680480853996166e-03,-1.319127426723056429e-03,1.580038294196128845e-02
3.359162382996950247e-01,3.180923648682588145e-01,2.964976372763582502e-01,-4.065034990295162201e-03,-1.314604918010727798e-03,-2.846427835479863142e-03,3.532688692212104797e-02
3.162138258243644140e-01,3.185253252806980462e-01,3.197059884347205339e-01,-8.000570541033527258e-04,-1.038149806585332308e-03,-2.093712381477067126e-03,5.269775167107582092e-03
2.626984553638275766e-01,3.497692148768860587e-01,3.463384316761065063e-01,-5.490389602991595924e-02,3.103850741005811931e-02,2.199703186169436192e-02,1.438035219907760620e-01
2.992736246949515011e-01,3.436208501358246625e-01,3.151343877575626951e-01,-1.717406621194413660e-04,1.433091780579117194e-02,-5.035495063358787693e-04,4.617178812623023987e-02
3.400668948015508342e-01,3.161884936945172364e-01,2.986345372399127340e-01,-4.261844176036983477e-03,6.152703758411530227e-04,-1.946552796043334813e-03,3.693876788020133972e-02
3.358828938621844507e-01,3.024094594047425644e-01,3.143900177354623238e-01,-1.686543205164972451e-03,-2.778132022581974916e-03,-2.690885412834964196e-03,3.027183562517166138e-02
3.279956891016378995e-01,3.095775538388437775e-01,3.177639424326196838e-01,-9.437225003080490331e-04,-3.894590334100898714e-03,-1.130777776066393134e-03,1.753504946827888489e-02
3.219615703770847270e-01,3.132842653148921186e-01,3.200542247630014381e-01,-3.294147643100013979e-04,-3.914981819905064518e-03,-1.614342771015704625e-04,1.042918674647808075e-02
3.188448150254618030e-01,3.415687272417677334e-01,3.006034596938589321e-01,-4.342477875454789360e-03,1.393559044493502923e-02,3.549397038130861458e-03,4.405231401324272156e-02
3.122936233960855734e-01,3.427733484493613036e-01,2.854669742417532130e-01,8.148098190610279833e-04,9.573093727660447055e-03,-3.216652013888511292e-04,5.237925425171852112e-02
3.445898144052199075e-01,3.521632174657365333e-01,3.992236728203820695e-01,1.191668358685118029e-01,9.066305182343240010e-02,-8.426533927305554506e-02,3.019800782203674316e-01
3.180668770959494962e-01,3.165004420477405267e-01,3.217354328587061496e-01,1.055494453807106668e-04,-1.539135056545393870e-03,-5.190994521615773568e-04,5.441249813884496689e-03
3.224045894736263240e-01,3.183463017055304656e-01,3.166142852258754248e-01,-2.239363420601970535e-04,-1.067840053984950863e-03,-1.039721075430416865e-03,5.771737080067396164e-03
4.678591302381219785e-01,3.149065086181782047e-01,2.100206717757429065e-01,-5.902245951713569472e-02,-9.795539806144115680e-03,-1.484905522634578645e-01,3.568266332149505615e-01
4.683207330400115387e-01,1.506847304732665815e-01,4.770851158416517523e-01,-4.800270241029174628e-02,1.906663852579477611e-02,4.830532726619544276e-02,3.446112871170043945e-01
3.084837039026188110e-01,3.418154645109351963e-01,3.083407834118190305e-01,-1.914117920251268536e-04,6.527088064096361365e-03,-5.846017961383273781e-04,3.528079390525817871e-02
3.086833909412582400e-01,3.437915497757016436e-01,3.093026831325575432e-01,-5.518364091779825054e-04,6.169312645846870488e-03,7.437034688191275804e-04,3.644143417477607727e-02
3.217779565332626879e-01,3.194366812181528292e-01,3.147098036847942870e-01,3.565794961034892026e-03,5.061032768153937841e-04,-8.703579637101908472e-04,8.948605507612228394e-03
3.287204670306261844e-01,3.123577339935137975e-01,3.133367509791758487e-01,1.116511127478707864e-03,8.167315822688488158e-04,1.367330503407827511e-04,1.607716269791126251e-02
3.206536397012491046e-01,3.402512350002882546e-01,2.941581721390874038e-01,6.423526135708358328e-03,1.226418881591027042e-02,-4.797882948924963621e-03,4.742781817913055420e-02
3.200470926892407530e-01,3.279555701313270344e-01,3.089827754368761337e-01,4.906401469743960214e-03,1.054145511550768580e-03,-1.195379011448303129e-03,1.876975782215595245e-02
2.996905588661546438e-01,3.435935192579856468e-01,3.142559296473305674e-01,-5.044403233386412231e-04,2.103568448131821252e-03,2.256986393992742833e-04,3.891462832689285278e-02
3.955284482980068184e-01,3.073161060949604617e-01,2.917939240311172577e-01,2.431916041205040360e-03,2.126913342230888834e-02,-8.740823999972317793e-02,1.835403889417648315e-01
3.145195250719467484e-01,3.199062410504269205e-01,3.200414515657130088e-01,1.734082176211280231e-03,1.340457735328735595e-03,-4.403316898542530312e-03,1.011644862592220306e-02
3.169042117294869620e-01,3.220462570819155879e-01,3.179212420269973416e-01,8.909513097359581966e-04,3.212375048671544720e-04,-3.655001712751935116e-04,5.033596884459257126e-03
2.685169397347413334e-01,3.489733432626583309e-01,3.342425556015672927e-01,8.411781402725243897e-03,1.803739003302670674e-02,-7.894766932648114230e-03,8.294782042503356934e-02
3.065409023289432100e-01,3.411315097881042480e-01,3.082961755191845343e-01,1.173565831051784467e-04,1.502312922649168443e-03,-6.092667062185864492e-04,3.386444970965385437e-02
3.041714751005471506e-01,3.396577007348293153e-01,3.114640483520531022e-01,-1.648078299599643141e-03,3.376132485571852696e-03,3.454122720061154374e-03,3.364229574799537659e-02
3.080320096822256604e-01,3.394969793384475798e-01,3.067641055863284949e-01,3.196528510814295289e-04,7.589020487730227223e-04,-4.101097809523259461e-04,3.215719759464263916e-02
3.175211186338556812e-01,3.411558993378410731e-01,2.935768072147421637e-01,-4.407631961791119365e-03,4.635008219041030463e-03,2.444615719372123311e-03,4.287786781787872314e-02
2.957594790443087707e-01,3.409172471719547626e-01,3.146107837241856608e-01,-3.254054512844934636e-04,3.141922206552113638e-03,-2.141085655057526922e-03,3.983714804053306580e-02
2.894001806056090698e-01,3.480162117705760672e-01,3.145675186952616165e-01,1.375757880408900265e-04,7.013069790952375024e-03,2.134739903005088320e-03,5.249097198247909546e-02
3.052438289409327710e-01,3.277509599828752340e-01,3.204575863901417687e-01,1.835655257806139123e-03,2.902603356552616986e-03,-5.869046210138394691e-03,2.311563678085803986e-02
3.405396819820824539e-01,2.962109570398395175e-01,3.144481951365170613e-01,-6.618868611836242885e-04,2.709467286188458907e-03,-3.283494117542571245e-03,3.930497542023658752e-02
3.806294757372640225e-01,3.719584952027242819e-01,2.266633622009588955e-01,2.206157123650332418e-03,4.378828110351430658e-02,-5.436923773237336416e-02,1.925632357597351074e-01
3.067534008859808536e-01,3.409886482457963885e-01,3.099437559955200983e-01,-3.704703156559383133e-04,8.144605612558787188e-04,1.311535276880582222e-03,3.287202492356300354e-02
2.910599537419066851e-01,3.391606306820511008e-01,3.141222158373788709e-01,-1.527486651942622491e-03,6.948326482339380571e-03,3.415547629637590878e-03,4.385279864072799683e-02
2.488225180422018179e-01,4.215327275407038665e-01,2.676821036764124306e-01,4.047006848356996672e-02,1.491144376600729293e-01,-2.759109571997990853e-02,3.175372183322906494e-01
3.247152699100985251e-01,3.680784498675617744e-01,3.252272838655048126e-01,4.447943023202304696e-02,-8.148043580036408440e-02,4.455402703077681464e-02,1.834831088781356812e-01
3.048396172790409087e-01,3.368856174543121140e-01,3.063287766729930195e-01,3.652214356295375129e-03,4.143192986318237556e-03,-2.000526410624726362e-03,3.293877094984054565e-02
2.863801779894311061e-01,3.506924381357998111e-01,3.148654113304862889e-01,-9.028872995609667912e-03,3.250365160293074845e-02,8.620836671070296331e-03,8.217363059520721436e-02
4.540028091336589799e-01,3.199672185825300774e-01,2.220019607835483910e-01,-5.029980312767088485e-02,3.164394132576478502e-03,1.374737348257569214e-01,3.240538537502288818e-01
3.082828759590920398e-01,3.388119632634596923e-01,3.080727369233605684e-01,-1.440576879107286368e-03,4.064118955892004250e-04,4.798438790617585862e-04,3.075543418526649475e-02
3.288996457284809605e-01,3.309160903942663379e-01,2.871414825905617141e-01,1.108316289092715380e-02,-8.433580023655112140e-03,9.854469668948517488e-03,5.201182886958122253e-02
3.493537885083514150e-01,3.166717669641964106e-01,2.993532419279775203e-01,2.487959524905697991e-03,2.561424187067643573e-04,1.346383389423568694e-02,4.996640235185623169e-02
3.041233901191242039e-01,3.387551301173152285e-01,3.100976189543779848e-01,-1.126327584225162923e-03,4.089545496140359684e-03,1.826771212570376269e-03,3.304756060242652893e-02
3.284087105139115725e-01,3.126983367051595630e-01,3.126290247869932259e-01,-9.011900076268000801e-04,2.251607027248280976e-03,1.340136362012794759e-03,1.646034978330135345e-02
3.425667726527074630e-01,3.312744639766651567e-01,2.681107552229620161e-01,1.307882033941069368e-02,-2.095856200886502332e-02,3.772865756040016255e-02,1.045549586415290833e-01
3.411138645706415784e-01,3.481067203779097952e-01,2.782398655226371309e-01,3.601550779431819671e-03,1.155684210953238956e-02,-4.551012025457738461e-03,7.030959427356719971e-02
3.393113813088634578e-01,3.323822319121012558e-01,2.837359798171179004e-01,7.701812830519107200e-03,-3.536645109915961035e-03,8.875733705692848141e-03,5.659824609756469727e-02
3.417604213928696621e-01,3.023008822868881174e-01,3.003987517046121658e-01,2.231157418316184315e-03,-2.243185986055139854e-03,1.346842967355397352e-02,4.701017215847969055e-02
3.283161224136368350e-01,3.101104915108987559e-01,3.134110726849468898e-01,-1.669663944776240147e-03,3.044960103598673244e-03,2.195525180031772296e-03,1.824525557458400726e-02
3.246396485647528030e-01,3.146139261996913072e-01,3.125711541642121616e-01,-3.296221202557704771e-03,2.066988256339902501e-03,2.044159948771702949e-03,1.353205833584070206e-02
3.108917814491290454e-01,3.226162264140932101e-01,3.356721030099412140e-01,-9.831976598864514486e-03,7.850563828682587467e-03,9.091447870168677461e-03,3.440715000033378601e-02
3.430463357718182005e-01,3.323300551073889997e-01,2.731569626894133074e-01,1.092109386651333829e-02,-7.495543312379717923e-03,1.140938307301743275e-02,7.188387215137481689e-02
2.927198648772303402e-01,3.200261473980595683e-01,3.408566793865470679e-01,2.030386097433742321e-02,-1.476912813109227535e-02,1.742675481234115184e-02,6.745773553848266602e-02
3.036269363296951740e-01,3.113957825459959805e-01,3.395700113694606892e-01,3.747698218577965451e-03,-1.852793059512788942e-03,3.541824917022466917e-03,3.410412371158599854e-02
3.113405509621370859e-01,3.280814175771140651e-01,3.129562831735904771e-01,-2.731056899962229674e-03,8.736260945994710116e-04,7.512265069234939788e-04,1.679812930524349213e-02
3.174635922018009815e-01,3.189238033747341383e-01,3.181198001517303586e-01,-4.709727835408319919e-04,5.926827769195239150e-04,7.853437730428659185e-04,2.274682978168129921e-03
3.080670369582219070e-01,3.142327176100400687e-01,3.308156525492100264e-01,2.701412718044924124e-03,-2.090259723260453392e-03,3.744111128568397735e-03,2.218805998563766479e-02
3.201799421449962879e-01,3.284111688160795683e-01,3.104025813981066140e-01,-3.818288702727225779e-03,1.770166761268236917e-03,1.358067818640068839e-03,1.739255711436271667e-02
3.617068939388248805e-01,3.408616856046715049e-01,2.652060302168197659e-01,1.137506963826036416e-01,-8.029452662997010881e-02,9.665414729979675268e-02,3.064648807048797607e-01
3.194244437659247149e-01,3.170253776159521752e-01,3.176847215024673488e-01,-1.632369897485921189e-04,1.179569374024459511e-03,3.557542913405068504e-04,3.040101611986756325e-03
3.376777008549758929e-01,3.496962516078130356e-01,2.704321347890237814e-01,1.113056161459755229e-02,-3.174627703033246207e-02,2.422594219311768882e-02,1.031040325760841370e-01
3.176118407182857983e-01,3.187827574710573320e-01,3.186740122530707375e-01,-1.842889944084554789e-03,2.378538018577468043e-03,1.909182562922340839e-03,6.273080129176378250e-03
3.202277919040522614e-01,3.140193586465214182e-01,3.199041185613256677e-01,-1.588829725764777422e-03,3.964406866626290875e-03,1.513254991738298590e-03,9.911227971315383911e-03
3.150073274167408677e-01,3.217053883510680445e-01,3.163029825572531983e-01,-2.184887701724421132e-03,3.276528237910067095e-04,6.990756710292823353e-04,7.346683647483587265e-03
3.190353624416245037e-01,3.272530777553863679e-01,3.030548231590666219e-01,-6.321988981375350515e-03,4.959915389850842217e-03,2.796081286741765055e-03,2.591121569275856018e-02
3.441209422515866256e-01,2.964339930920801836e-01,3.145214493915130527e-01,-5.667501405284717598e-04,-2.377303576542169356e-03,-2.644640279940301594e-03,4.216119274497032166e-02
3.279111196128604022e-01,3.194507663669745590e-01,3.088023521588964537e-01,4.786264938226039538e-03,1.316640268398654645e-03,-1.732875841934833090e-03,1.892061904072761536e-02
3.184824288308554796e-01,3.341409131099234431e-01,3.061605935861895778e-01,-6.329606195225350417e-03,1.106041039683896936e-02,6.586993671509156628e-03,3.474639728665351868e-02
3.103932388938198672e-01,3.322718908315079878e-01,3.092337837971849690e-01,-3.326180486464073646e-03,3.089595322377298135e-03,1.621839157023378811e-03,2.398135513067245483e-02
3.241878148940121607e-01,3.221161107789131672e-01,3.121651511817689073e-01,-8.039311870731744025e-03,6.463955354901667477e-03,8.704578743831077603e-03,2.589358761906623840e-02
3.069740748094674787e-01,3.372351683514215326e-01,3.033087765836573468e-01,-7.691817090190070788e-03,1.177957476299099082e-02,7.125588005599766718e-03,4.226314648985862732e-02
3.195229403010233504e-01,1.651771280187135649e-01,3.914498420214775898e-01,1.215230983155173583e-01,-2.480811382395140680e-02,3.699615446741075231e-02,3.005890846252441406e-01
3.191548505742984876e-01,3.255956705199171131e-01,3.104843802541731312e-01,-4.341868119638694380e-03,5.702160629363957171e-03,8.742274161924742243e-03,2.357726916670799255e-02
3.225502336809055737e-01,3.158947775866425278e-01,3.155164912324999182e-01,6.929931072695415945e-04,5.730418560833273195e-04,1.164002332219534279e-05,7.027241401374340057e-03
2.723712213889861178e-01,4.202541766100709730e-01,2.568551399779167577e-01,3.548482074147844834e-02,-1.513731974142439318e-01,1.077269885098008917e-01,3.629587292671203613e-01
3.397477127983088430e-01,3.059809834576191490e-01,3.095150621973934979e-01,-6.789869875539570070e-05,-5.297094942746965367e-04,-1.153426845377977404e-03,3.222102299332618713e-02
3.311564489379609788e-01,3.132975097781199869e-01,3.089107229102032171e-01,3.878969257162430580e-03,1.857902501818738724e-03,-2.373581975219766962e-03,2.211165428161621094e-02
4.475856798069612896e-01,4.446754380439859600e-01,1.730237835442885175e-01,4.907432440425464615e-02,1.033669203517727508e-01,-1.074556012924852699e-01,3.853735923767089844e-01
3.415031388037074178e-01,3.014620774879598897e-01,3.163759893683070201e-01,-5.690572982683272290e-04,-1.792625154898884032e-03,-3.992160139346619119e-03,3.587431460618972778e-02
3.451352750567330263e-01,3.158150031807799296e-01,3.025956038123689962e-01,3.398955123585523704e-03,1.046886096691828499e-03,-2.669290627392277831e-03,3.848829865455627441e-02
3.175537438560959713e-01,3.225161373719869218e-01,3.117334593467351866e-01,-3.526817596111452100e-03,1.559914829405184208e-03,1.941617075281034527e-03,1.197115518152713776e-02
2.915569720475209570e-01,3.372611625229390286e-01,3.121012732109024190e-01,1.184806022506560384e-02,-2.245726890615550031e-02,1.146501396985287295e-02,6.245347484946250916e-02
2.966137679914267467e-01,3.371170417874000957e-01,3.169906358916861344e-01,2.445595060367745151e-03,-5.278927783412099180e-03,5.507828310288439243e-03,3.772206977009773254e-02
3.082699426017618816e-01,3.307569532445762683e-01,3.141236229010527792e-01,2.365830073635256936e-03,-2.272158369501677769e-03,3.732096175211611563e-03,2.196280099451541901e-02
3.314472730409559476e-01,3.213259790858850051e-01,3.115645671239232195e-01,8.102798414462146492e-03,-9.033226733544345161e-03,9.901162390916578432e-03,3.213077038526535034e-02
2.767510511742460877e-01,3.461251062958420888e-01,3.320803885725848170e-01,1.462532286578242802e-02,-1.453289336985330062e-02,1.118813638713718125e-02,7.540897279977798462e-02
3.084391109949376486e-01,3.406939766750347043e-01,3.066800238985826765e-01,3.257268100520567685e-04,5.152988172427226850e-03,-2.957608933282724131e-03,3.473370522260665894e-02
2.965138473315599432e-01,3.387216691274520519e-01,3.166863843522855215e-01,-7.223710133523250990e-03,1.675060076228121128e-02,5.590465014734013680e-03,4.928535595536231995e-02
3.479984507264407001e-01,3.222811972788675594e-01,2.549297367865409614e-01,3.092701782173179481e-02,6.322992838259827719e-02,-8.156218231565830201e-02,2.043290734291076660e-01
3.408000175093648942e-01,3.137144150584213476e-01,3.022047488184129160e-01,5.313262989245062838e-04,-1.837932858180870530e-05,-3.133988044235461092e-03,3.475862741470336914e-02
3.216031630357821802e-01,3.300338022856915132e-01,3.098596435846209807e-01,5.972997689029434058e-03,-8.822242091086977475e-03,7.873231316254622816e-03,2.888737805187702179e-02
2.980917137884898649e-01,3.303797352706245860e-01,3.167444867751239568e-01,2.939962288441396159e-03,-5.557111206993796231e-03,5.260871590052828943e-03,3.146086633205413818e-02
3.267455848764367343e-01,3.389594738826246512e-01,2.918386525236649209e-01,5.713120276033985083e-03,3.900770673567787068e-03,-2.734352485115808425e-03,4.427210986614227295e-02
3.099674179331861623e-01,3.356920958587117920e-01,3.058272130032239633e-01,2.987746766310098168e-03,-4.477189107398638936e-03,1.234848012125377937e-03,2.961242757737636566e-02
3.177540182201101238e-01,3.222655765223784163e-01,3.175742764535322005e-01,2.761815464206399378e-03,-2.230333969126147529e-03,2.737721736863307602e-03,9.027114138007164001e-03
3.023822419941820105e-01,3.394151956637836420e-01,3.156301044545109513e-01,4.627177711901180913e-03,-1.416637110767102019e-02,3.467685954013493069e-03,4.193689301609992981e-02
3.134476286768119735e-01,3.310379129630793837e-01,3.143959193527366969e-01,3.822071534458693250e-03,-2.799769850727090031e-03,3.766714408930414704e-03,2.008835226297378540e-02
3.174707600239775052e-01,3.362500503270957619e-01,3.002966034769236625e-01,-3.825463450511541567e-03,3.254905800224846234e-03,1.278966739715237935e-03,3.241488710045814514e-02
3.155720143077829776e-01,3.417125070670972709e-01,2.938333958713033600e-01,-1.833591059763503908e-03,4.708073741400932086e-03,8.483291550195456911e-04,4.246050119400024414e-02
3.117176939357697574e-01,3.324090986512752144e-01,3.227245299857123273e-01,7.075407464403884843e-03,-8.667964980000792546e-03,7.629802361008807682e-03,2.952565811574459076e-02
3.111826456378256056e-01,3.311164840444420498e-01,3.180891023523700900e-01,6.381911999371825406e-03,-9.606585669842645711e-03,4.972825700430545323e-03,2.793953754007816315e-02
3.196698561351154488e-01,3.307969371146722848e-01,2.986722885443128250e-01,5.744689719314128099e-03,-3.959238273926214517e-03,5.478367521018768539e-03,3.216240182518959045e-02
2.977634956920121589e-01,3.143539933844016754e-01,3.449830079060658417e-01,3.037287561586228968e-03,-1.128196226352379044e-03,2.770219831197429441e-03,4.214318469166755676e-02
3.530523693989938705e-01,3.547761790033931995e-01,2.497868183550990273e-01,2.220409665110904623e-04,1.184582771924644513e-02,-9.262168716248732944e-04,1.061529442667961121e-01
3.315565435495659297e-01,3.470915610949178998e-01,2.815025383388357061e-01,-2.003700624377604406e-02,2.943300949135779082e-02,1.982336872917956488e-02,9.223111718893051147e-02
3.385445927182987313e-01,3.514059421245216974e-01,2.734177636280601398e-01,-9.493617327343075590e-03,1.426614810834260678e-02,4.096664529280207197e-03,7.858651131391525269e-02
3.090926800149868536e-01,3.213990972980306782e-01,3.200850407350339655e-01,-2.030005928774672279e-03,1.753852180340031075e-03,4.491178157438646505e-03,1.480223424732685089e-02
3.139955858824675650e-01,3.005945746208669167e-01,3.446767335722289438e-01,3.369661021276389428e-03,-1.299605410948794209e-03,1.450552183770721486e-04,3.963927552103996277e-02
3.480406734965050819e-01,3.523471469713005955e-01,2.514395966986169295e-01,-3.992613486577238462e-03,1.241407225841106333e-02,3.213294117435206744e-03,1.015256121754646301e-01
3.363150255892684570e-01,3.100891764087687075e-01,3.098371093674009424e-01,-6.814644356798144975e-04,1.646456149578636721e-03,1.724988902211490194e-03,2.670059539377689362e-02
3.549698711934096140e-01,3.469085935420554434e-01,2.517456828438153771e-01,-3.570344724258936280e-03,2.709200774541367391e-03,1.241466189642847183e-02,1.020329892635345459e-01
3.218012068370554313e-01,3.219590867528345224e-01,3.141986630380964041e-01,-2.604346998342508060e-03,7.139805552004338226e-04,6.956694096938929569e-04,9.074851870536804199e-03
3.481157354443686347e-01,3.632784174533921773e-01,2.703849716155322103e-01,2.430670202273218800e-03,2.899635683388661345e-02,-1.520975518433257193e-02,1.033667549490928650e-01
3.035611501165635384e-01,3.454709566081609062e-01,3.043636874668161352e-01,6.645725227160734563e-03,1.732373292831150893e-02,-1.013059095743046485e-02,5.535485967993736267e-02
3.339746786629988473e-01,3.618065920389944012e-01,2.792499244344883169e-01,-1.010215729556297607e-03,2.727887309352498499e-02,2.799077433427369591e-03,8.689928799867630005e-02
3.301693319473497090e-01,3.141464836548512052e-01,2.955700740651902581e-01,2.982095661407102583e-02,-3.193670154475841683e-02,6.994844059892038612e-02,1.459641754627227783e-01
3.199239860214421749e-01,3.201875348841081714e-01,3.139929262559486567e-01,-4.232908495327983994e-03,1.135463407829728506e-03,1.090675646256619334e-03,9.899451397359371185e-03
1.482898502065466417e-01,3.786387013582488414e-01,4.515613258559512122e-01,-6.046682676485822666e-02,-3.645653493112246957e-02,-3.377435223993240088e-02,3.058660030364990234e-01
3.220456875636510397e-01,3.142345760784945874e-01,3.218969336586108287e-01,-1.183410466054894737e-03,2.263958596784768247e-03,1.064171539725267991e-03,9.102139621973037720e-03
3.171898467957589007e-01,3.222593039030517414e-01,3.154474127449662380e-01,-4.923074146774779987e-04,-4.785887594485278883e-04,7.831405859826973560e-04,6.389275193214416504e-03
3.316623030318227028e-01,3.113186596619381130e-01,3.127350016526236343e-01,3.353424455209884033e-04,1.785817724448291160e-03,7.891709079374368847e-04,1.997071504592895508e-02
3.376572195323322978e-01,3.272776223027620834e-01,2.861360844677817150e-01,-6.587454465134404483e-03,1.583415333004622918e-03,5.822212053002532271e-03,4.966683685779571533e-02
8.064471202491263480e-02,3.877109887716967407e-01,3.920338174252003816e-01,8.660002315018259719e-03,1.546249818503447893e-02,-1.539331313883889431e-04,3.107701838016510010e-01
2.717472202408617310e-01,3.515334555995085486e-01,3.421233719469889412e-01,7.019941621811741882e-03,-6.077070619402403888e-03,1.815405602030357394e-03,7.727947086095809937e-02
3.500922845941105144e-01,2.826925386623694303e-01,3.275330363376490195e-01,3.073817710027659019e-03,4.314552257949907238e-03,-4.331426003057458132e-03,6.059399992227554321e-02
3.484613688222113481e-01,2.772160265593216488e-01,3.265540319594505414e-01,-1.921636518826860384e-03,-5.175094539385611571e-03,-1.057807757675759130e-02,6.649920344352722168e-02
3.266641797695311045e-01,3.279168301799668672e-01,3.015376751333280203e-01,5.430821362299374268e-03,2.544988661910513143e-03,-2.982391818334028180e-03,2.826626040041446686e-02
2.726933413224699176e-01,3.507504197202684360e-01,3.298488009199003201e-01,4.019908243034893414e-03,-1.349489022991331999e-02,-7.093985826198376558e-04,7.412550598382949829e-02
3.279352157846845972e-01,3.270648867642437785e-01,3.015626767704818190e-01,5.617147750740450994e-03,2.576770063641940171e-03,-3.006143027992558107e-03,2.854824811220169067e-02
2.859758655412442674e-01,3.457031239286366686e-01,3.206483343260539964e-01,-8.622175176696552507e-03,-3.697482863617500976e-02,-1.844406257220510340e-02,8.968625217676162720e-02
2.892034744284783243e-01,3.288738595967708456e-01,3.362550806359712596e-01,8.723691203055617890e-03,1.161037727117734605e-02,-7.892629316504633230e-03,5.235102027654647827e-02
3.135339427262009981e-01,3.287638845933089637e-01,3.123978493807140211e-01,3.372865478678644096e-03,2.184203463208151969e-03,-2.831976988117826648e-03,1.797347143292427063e-02
3.311930441057346908e-01,3.104936351262742589e-01,3.124449646462497121e-01,9.509912551123262184e-04,2.342531635078142545e-03,-9.649259598373644779e-04,2.034331858158111572e-02
3.408370197423896686e-01,3.087617446936163912e-01,3.071330636922383617e-01,-2.852870107115528658e-03,-3.426737204642078035e-03,-7.060791882757516680e-03,3.595726191997528076e-02
2.688323112236623569e-01,3.489586924034113191e-01,3.316431005140474952e-01,8.105023796205871895e-04,-1.174086186152018159e-02,2.722118683962630823e-03,7.596298307180404663e-02
2.958320522118474960e-01,3.450495442625308162e-01,2.617521477184655554e-01,3.120511303609752041e-02,6.908910882980098811e-02,-3.869559007846558318e-02,1.642996221780776978e-01
2.578058035803913461e-01,3.520823530344077135e-01,3.476996772925229351e-01,5.001932653754841661e-03,-9.850643960845303568e-03,4.136885452451216118e-03,9.440125524997711182e-02
2.510449797914595660e-01,3.529794678846348011e-01,3.487647375044622966e-01,-5.815225205691923940e-07,-7.446718291607703002e-03,-1.362455875914555994e-03,1.007507145404815674e-01
3.302110632227678866e-01,3.619870902461432838e-01,4.109634327133077636e-01,-1.422286627064759945e-01,-1.072858630129700092e-01,-8.802554307130439071e-02,3.513230681419372559e-01
3.074623685283623953e-01,3.096472763006028472e-01,3.397659533417926037e-01,6.432172867344402786e-03,-1.195713078935539252e-03,2.177414464529074407e-03,3.347157314419746399e-02
2.538017363821487571e-01,3.536161628375050214e-01,3.524152978812981063e-01,-2.979308307945144167e-03,-9.921098474811535298e-03,-2.994558171970498200e-03,1.009619385004043579e-01
2.475731109360455595e-01,3.534223657191381540e-01,3.529379079750136761e-01,3.751306216683914993e-03,3.381093485442918448e-03,-1.208594808590715336e-03,1.059901639819145203e-01
3.147616945758721085e-01,3.040486639266948843e-01,3.437743523119218825e-01,1.454142727182860736e-02,2.433804635398396140e-03,-1.980210494524318673e-03,4.394553601741790771e-02
3.344596150455419470e-01,3.177867481336179578e-01,3.062932806169549882e-01,4.732496851902143545e-03,2.202121767411459492e-03,-2.422618649242507492e-03,2.647750265896320343e-02
3.037150110886806531e-01,3.096883048965234364e-01,3.442922282092640840e-01,4.070007628776114994e-03,1.955021130032830678e-04,1.094782443678203859e-03,3.864215686917304993e-02
3.654708266575301678e-01,3.678320849522720981e-01,2.563934983982288918e-01,2.971279209516002051e-02,-5.839777355301450229e-02,5.256203820500015417e-02,1.825616359710693359e-01
3.397946561036467861e-01,3.408993385812781884e-01,2.785137772777127041e-01,5.347094904171947535e-03,4.934411537297979204e-03,-4.036095993906212501e-03,6.349765509366989136e-02
2.721071584544848543e-01,2.851161732071691435e-01,3.592399756029532321e-01,6.236618926961812193e-02,-5.370430585503691359e-03,5.314587512609755815e-03,1.358960419893264771e-01
3.102392237300035660e-01,3.549059782172330202e-01,2.881832336655122395e-01,2.607540902112404513e-03,3.300843988706388121e-02,-1.753555720033344797e-02,8.762597292661666870e-02
3.138553589061711668e-01,2.498264693557371574e-01,3.582109422923333009e-01,5.985875766525694530e-02,1.019799238114680977e-02,-1.668752610189803282e-02,1.442351788282394409e-01
3.054320189271144126e-01,3.043506820624036768e-01,3.419218519555548563e-01,6.533962110342380128e-03,-2.391452736966290585e-03,4.936147362577529736e-04,3.896281495690345764e-02
3.199515845016840943e-01,3.291721508517613248e-01,3.095554045707402113e-01,-3.265869077252810723e-03,-2.240285827082837827e-03,-1.906886932816794292e-03,1.862581633031368256e-02
3.145946437649235206e-01,2.985065347738659614e-01,3.358362280681949086e-01,5.361468138437228137e-03,-5.711931810751066929e-03,3.876848909037078697e-03,3.579068928956985474e-02
3.405785739011065183e-01,3.483388742553477635e-01,2.655507239839628997e-01,-2.995569847004876402e-03,4.605096300334454718e-03,1.952776155864499076e-03,7.983495295047760010e-02
3.075968720751470764e-01,3.102007627100690224e-01,3.444096826201966666e-01,6.347467982544665287e-03,-8.966785805473052526e-04,1.110070343253022037e-03,3.732407465577125549e-02
3.323093756988986791e-01,3.140523385466022499e-01,3.105177830658312765e-01,-2.695914394671249884e-03,2.116041129284063852e-03,4.710874455211181561e-03,2.263088151812553406e-02
3.315692537922471095e-01,3.368286731712938353e-01,2.761552784676556405e-01,-2.202226950957771393e-02,3.500755474586043220e-02,3.997994303738194172e-02,1.153972744941711426e-01
3.325577048030554095e-01,3.438822122644383250e-01,2.679336304234116728e-01,-6.941897080959404803e-03,1.871374193894190241e-02,1.630646859000072640e-02,8.384054154157638550e-02
3.244836052308488483e-01,3.151632572789366260e-01,3.162376242446061081e-01,-3.215748340626040005e-03,3.016373093225094455e-03,2.403699773440631012e-03,1.239603292196989059e-02
3.422795920491216726e-01,3.082147497722514951e-01,3.064233746591603080e-01,-1.151087099414339248e-03,2.161818705751748955e-03,3.676697141769332856e-03,3.582171350717544556e-02
3.405662938846476528e-01,3.031734970825791242e-01,3.087071042657252296e-01,-1.044906668367767558e-03,1.747452178039177618e-03,4.315532734345498000e-03,3.591981157660484314e-02
1.420741428061536304e-01,3.779847596406741839e-01,3.784631034281261686e-01,-5.062111951256995784e-02,-5.717320731971244768e-02,-1.778241880099322436e-02,2.724139392375946045e-01
3.281871131940427011e-01,3.278138361872120488e-01,2.998259013958025077e-01,-5.894528183009352905e-03,3.398759617998322550e-03,3.041981464799809343e-03,3.099295310676097870e-02
2.277768879034533234e-01,3.553790455970282647e-01,3.846011104009532389e-01,-3.560216647361103687e-02,9.208159866235913343e-03,1.278236455760498221e-02,1.594117879867553711e-01
3.318944069679927722e-01,3.979532557299296225e-01,2.086055393421369364e-01,3.393448210270109955e-02,1.181427526327422511e-01,-6.735772815021062732e-02,2.943589687347412109e-01
3.289571034803203675e-01,3.204604345834394796e-01,3.098980809749942167e-01,-3.620451127327749263e-03,1.486095582426348030e-03,1.724090742230252691e-03,1.812091097235679626e-02
3.701493052974146325e-01,3.316887451951306409e-01,2.678268957252234461e-01,1.097842461014316567e-02,-2.116137152412544964e-02,4.228095844636762385e-02,1.228077337145805359e-01
2.030141202247209842e-01,3.222487652318230533e-01,3.810756185203409974e-01,-1.012053025196998635e-01,-4.593222231875745271e-02,-2.884257653849346334e-02,2.534644603729248047e-01
2.015138187602210640e-01,3.016842568965767413e-01,3.789620799077568214e-01,-1.218969580111488038e-01,5.201055982562957647e-02,3.822474131055198648e-02,2.842924892902374268e-01
2.439322981324058559e-01,3.383913345432725261e-01,3.783655618074206473e-01,-6.591341757979614357e-02,1.525698585392106649e-02,-9.045162372763961012e-03,1.681483983993530273e-01
2.660203283702390342e-01,3.258117443911475175e-01,3.458340723670804140e-01,2.257884228330117246e-02,9.455584615687356517e-03,-1.054842657968655881e-02,8.546645194292068481e-02
3.407232861845672645e-01,3.064938882086932770e-01,3.086294345509243420e-01,-3.596060051910803662e-04,3.467575847994388010e-04,1.173649515456031940e-03,3.328655660152435303e-02
2.195981992272956762e-01,3.475154797233963588e-01,3.566730282830275489e-01,3.894031154896332447e-02,1.158742281862457091e-02,-4.720329977709565757e-03,1.504552811384201050e-01
2.452688946517901092e-01,3.417380453985190969e-01,3.497095350433829797e-01,1.400207616096411749e-02,-1.041437464450302094e-03,-2.969216741110583275e-03,1.037146151065826416e-01
2.675464692302232939e-01,3.405786451057336572e-01,3.498290674818964607e-01,5.162589284000381785e-03,5.269048921863495397e-03,-1.685727811707439256e-03,7.916197180747985840e-02
3.360600804900342187e-01,3.047361072855888642e-01,3.100436576428199364e-01,-1.770496335035755091e-03,2.736594273822733330e-03,4.010701772310478787e-03,3.038479574024677277e-02
2.901717938009183984e-01,3.276685368278514643e-01,3.464032455790065357e-01,5.247587356645935612e-03,1.259874761968342478e-02,-4.809209888778037331e-03,5.556678771972656250e-02
2.655762208962599846e-01,3.159349035215524570e-01,3.473066348202248355e-01,2.585935887888928322e-02,4.914334864422611852e-03,-4.685503208353992630e-03,8.511435985565185547e-02
2.779992992244708083e-01,3.413776177754487828e-01,3.479577681508846942e-01,4.568325882557530346e-03,2.834419720119149121e-03,-4.335137545636170986e-03,6.797233968973159790e-02
3.369283335832438664e-01,3.269452520381008198e-01,3.020551143041085851e-01,-1.081962158635342390e-02,4.145704127838931337e-03,1.091962086363015491e-02,4.157076776027679443e-02
4.691053072979243788e-01,4.045241557962468426e-01,1.921502087963389005e-01,2.680734286523791046e-02,-7.059418962236016504e-02,1.534763762961802447e-01,3.882786333560943604e-01
3.225092967129091215e-01,3.173387399199725789e-01,3.168890680194613174e-01,-3.092361283391227653e-03,2.688994927076166809e-03,3.610540937828968754e-03,1.089725270867347717e-02
3.036617466216133820e-01,3.197326498047894372e-01,3.271433978005401921e-01,3.941272938314684636e-03,-2.237708001546949346e-03,5.934828481264902561e-03,2.448632195591926575e-02
3.153328527666667269e-01,3.127203148637601737e-01,3.279653330232417119e-01,1.881893978810053071e-04,-3.169051605139190913e-03,9.751474303641535953e-04,1.524779945611953735e-02
3.284603370744363371e-01,3.104676662602298132e-01,3.200702464335997699e-01,-1.181887825179813107e-03,-3.750020982320603075e-03,-1.437524384343641035e-03,1.719731464982032776e-02
3.051786662246400161e-01,3.195918929630899852e-01,3.210600010455751940e-01,4.385547008030212836e-03,-3.331116102713005487e-03,5.386860708474502414e-03,2.022620849311351776e-02
3.384167403775687477e-01,2.950679694312869916e-01,3.257541516065184939e-01,-3.144599262096258417e-03,-5.474581640384473813e-03,-4.708208013083156271e-03,4.094666987657546997e-02
3.123044340500943927e-01,3.180206176724719724e-01,3.226572984564290980e-01,2.192663939741653061e-03,-2.452219043124584472e-03,3.578234301404594440e-03,1.231066323816776276e-02
3.133968158480927579e-01,3.077818526318941150e-01,3.262505707673995503e-01,2.785692178714774519e-03,-4.610245493515143476e-03,3.538350042010724329e-03,1.983742043375968933e-02
3.375111435526249037e-01,3.250595449660272918e-01,2.894051970368125559e-01,4.658156424064197922e-03,3.342332146526802786e-03,-4.820903205240891637e-03,4.515042155981063843e-02
3.728368511155701892e-01,3.377448124698024801e-01,2.205323681069419617e-01,1.800105406846920150e-02,4.826000803792900029e-02,-6.468428688961690154e-02,1.989844292402267456e-01
3.160151680228640569e-01,3.150660554562729754e-01,3.166838506907033723e-01,5.376500787530350163e-03,-4.102695324071356509e-03,4.327178151943056328e-03,1.397757604718208313e-02
4.016103494833633825e-01,2.963039055421397561e-01,1.936273784176896495e-01,-3.081003525460070808e-02,-4.999500570614080763e-02,-1.316438153630858088e-01,3.078652024269104004e-01
3.411566897022648703e-01,3.158930859969110161e-01,3.031250594007880439e-01,-6.168352210659794506e-03,-8.366935053433596781e-03,-1.368426351105361469e-02,4.483054950833320618e-02
3.378984053130259513e-01,3.145185816027325498e-01,3.031527845652150499e-01,-3.579154329153891832e-03,-4.250017192235406877e-04,-2.231230856461530881e-03,3.155053034424781799e-02
2.997757944981501166e-01,3.196470328564701702e-01,3.405052534682004861e-01,8.616706152935891400e-03,-4.945300607576364783e-03,6.389069925430630389e-03,4.077967256307601929e-02
2.014685455245124046e-01,4.831623738679740043e-01,3.957564521450234740e-01,-1.424454088994259703e-02,1.252657482493620134e-01,6.962473921494705467e-03,3.319610953330993652e-01
3.675687982123779785e-01,3.158606062951486160e-01,3.068041966268468812e-01,-4.035555797934518851e-02,-4.436934801959997038e-02,-7.323623835062338661e-02,1.735117137432098389e-01
3.583802894247378745e-01,2.082097364025724540e-01,3.325859848945734165e-01,-6.802747182137708348e-02,-4.004984291917453032e-02,-9.424762443474317408e-02,2.543344795703887939e-01
3.016220000187415096e-01,3.409573058493626796e-01,3.096118802643200163e-01,5.125900099627504021e-04,4.323600898877060818e-03,-1.171277333369779780e-03,3.684839978814125061e-02
2.667271561606531782e-01,3.484135881136347646e-01,3.410427290929968769e-01,4.493276435549113310e-03,4.552113496285081599e-03,-5.752236156753561501e-03,7.966744899749755859e-02
3.620743364916343410e-01,2.564902630607999168e-01,3.345107694564759537e-01,-5.819374863677309563e-04,2.608683163663375916e-03,-4.273843312653457377e-02,1.204102411866188049e-01
3.970226454900693258e-01,2.840731661237177463e-01,3.457315610116304949e-01,-1.347866122498394756e-02,3.334823330832718639e-05,-6.980969716885429555e-02,1.573539525270462036e-01
4.042882743963697734e-01,3.353218431378444664e-01,2.800219119667406442e-01,-1.523402849084191241e-02,-2.499028587412054428e-02,-7.798242050326117947e-02,1.801161617040634155e-01
3.172942490539224503e-01,3.324933224349143623e-01,3.066660320968171982e-01,-4.526973681551554017e-03,1.937895373309446098e-03,1.018463561444398185e-03,2.411158382892608643e-02
3.275343607083072706e-01,3.198771352328150241e-01,3.038785621165268624e-01,-6.575588468623887357e-03,2.935113726344745679e-03,3.878290639292422334e-03,2.525421418249607086e-02
3.327331723539964092e-01,3.271795803947818437e-01,2.956599012125699089e-01,-7.174712928565462125e-03,5.039036721621465917e-03,3.380610719236920927e-03,3.826579079031944275e-02
3.310808859621983680e-01,3.278807072129606981e-01,2.869175153407382273e-01,-8.872599840555529804e-03,8.209600748863165112e-03,8.536337849848245340e-03,4.976226016879081726e-02
3.288905322468967385e-01,3.365784273548475536e-01,2.730210825653526796e-01,1.914129159627848964e-02,-5.117042053405734814e-02,4.181539172572242002e-02,1.334541141986846924e-01
3.381234219995009060e-01,3.483192376405301327e-01,2.846095834561938598e-01,-1.839337560820112055e-03,-2.688341965605198225e-02,-3.313290772398373111e-03,7.566069811582565308e-02
3.308261135382235540e-01,3.467894108662522012e-01,2.879408391561529834e-01,-4.515168251543432570e-02,6.745388472443897276e-02,6.643771636500882261e-02,1.891734004020690918e-01
3.418376339848157031e-01,3.389864152453971879e-01,2.825356209511612482e-01,-5.625325945968913041e-03,3.666369177651455230e-03,5.509824552668340751e-03,5.985072627663612366e-02
3.374844282783341365e-01,3.103331712530558728e-01,3.170860190380502819e-01,-6.907083445112397954e-03,5.687322709723241845e-03,1.085538018590953731e-02,3.454159200191497803e-02
3.266855608804472566e-01,3.440337324827953402e-01,2.801811698429048647e-01,-2.568381659476045610e-03,-6.564516844442092047e-03,4.190262183908060050e-04,5.848058313131332397e-02
3.410494625917044886e-01,3.410733439755020968e-01,2.826241478229298831e-01,-5.042095627903469580e-03,3.969883303134582112e-03,4.785170104923798864e-03,6.005959585309028625e-02
2.655970458886357521e-01,3.387252695520869272e-01,3.295350458450081454e-01,-2.426771838099007345e-02,3.437256463976647025e-02,1.596508609534051312e-02,1.040959656238555908e-01
3.398884832233224351e-01,3.260355844597769837e-01,2.876682977961998455e-01,5.919434628903851199e-03,-2.436846640762240900e-03,4.138304308267629072e-03,4.868018254637718201e-02
3.356131529956793424e-01,3.092291579967860193e-01,3.091974851587224182e-01,-2.081330878009653423e-03,7.555037951128961305e-04,1.304565579571608739e-03,2.677248045802116394e-02
3.358039671687184646e-01,3.174761111211774067e-01,3.047157668911701922e-01,-4.168497952089005899e-03,1.319197527936180267e-03,3.243920975747099401e-03,2.866226620972156525e-02
3.506657374210868650e-01,3.008051927662841463e-01,3.017541776581845747e-01,-1.479042439837356280e-03,2.575158414565095494e-04,1.348404847932079334e-02,5.469806119799613953e-02
3.174549816797287982e-01,3.376907026611991602e-01,2.940086968158706626e-01,-5.788794275223337060e-03,5.329555782807643936e-03,2.571096628690387655e-03,4.048752412199974060e-02
3.322505966024993374e-01,3.090999949903466826e-01,3.090715771864262496e-01,-3.857481364646822564e-03,4.770791538839519799e-03,4.240465767182783133e-03,2.652311325073242188e-02
3.449673638681634569e-01,2.782194833152900615e-01,3.098551240782977390e-01,-6.412518233402450876e-03,5.721215212175941728e-03,2.907574452483896454e-02,7.811681181192398071e-02
3.244946426986393684e-01,3.115919754250795481e-01,3.200051053179926996e-01,-7.697979008083969668e-04,4.147105602402103783e-03,1.695869018445819113e-03,1.380973961204290390e-02
3.283806807472026135e-01,3.129713784850651215e-01,3.054374674872969431e-01,-1.508127888859511073e-02,1.982563536057167092e-02,1.997885161091847439e-02,5.890046432614326477e-02
3.405803768195699854e-01,3.130054449644257830e-01,3.072900166546709833e-01,-4.237930447581042537e-03,4.755590152145913567e-03,1.113521648509656868e-02,3.800462931394577026e-02
3.439525487826958217e-01,3.200418234876226675e-01,2.919170400382135599e-01,-1.917570790735337403e-03,-4.799053223870871666e-04,-1.047769025700663777e-02,4.874708503484725952e-02
3.369046527321822304e-01,2.972053258877785931e-01,3.178847219821074321e-01,-2.263858357288228186e-03,6.361697691987383552e-03,8.710059554404561352e-03,3.933319076895713806e-02
3.439501055342997771e-01,3.136783521390701934e-01,2.983249204968965174e-01,-1.584901861201942330e-03,-3.383786660699296444e-04,-4.120210442992345949e-03,4.093519225716590881e-02
2.414578225626003438e-01,3.526555215022769141e-01,3.714482473233284288e-01,2.715235632413470768e-02,-3.474073155041657295e-03,-8.703104120788348209e-04,1.306064128875732422e-01
3.383062453527613256e-01,3.091139307524223834e-01,3.030333028274948548e-01,2.999099518788240961e-03,1.663094702235037208e-03,-4.522705996879333550e-03,3.410746157169342041e-02
3.652158003770745176e-01,2.731825931064556512e-01,2.611662682669407265e-01,-5.790852832858066346e-02,6.249093766939241290e-02,1.186696479890706479e-01,2.715573608875274658e-01
3.497748196866520276e-01,2.922931010448746036e-01,3.126572340468431466e-01,-5.099695990179718176e-03,-1.273088883450639811e-03,-1.152932384071117880e-02,5.504488572478294373e-02
3.300602836573531818e-01,3.241204111337303018e-01,3.146137842527219619e-01,-2.528128573148671898e-02,2.353912977167128828e-02,2.805916747981360149e-02,7.825458049774169922e-02
3.321625705540088846e-01,3.305207723049258250e-01,2.977642417909713846e-01,-1.025313932760727256e-02,1.464406562999715292e-02,1.176968486730189771e-02,5.003767088055610657e-02
3.414758483023232483e-01,3.144498308642747486e-01,2.982211266273430694e-01,-2.347528406872767884e-03,-1.268489574505268910e-04,-4.198149634893265543e-03,3.875342756509780884e-02
3.209648305606062069e-01,3.573373167451717736e-01,3.026703955253997047e-01,-4.226562475133894409e-02,7.050516103315275507e-02,5.286898167954388883e-02,1.760128587484359741e-01
2.935560369937768033e-01,3.172924553919753698e-01,3.366164032831470143e-01,-9.968747938789164487e-03,4.553136974937622983e-03,9.603725098234653507e-03,4.508358240127563477e-02
3.446466519894543223e-01,3.267162773969621292e-01,2.813856051558003557e-01,1.351768130755433327e-03,-5.965250338517399725e-04,-4.524854069552109760e-03,5.707132816314697266e-02
2.934276992838051878e-01,3.087991254664797514e-01,3.388500037804506038e-01,-9.672780186714094453e-03,3.686213816651901301e-03,5.726781325791028936e-03,4.495666176080703735e-02
3.551217988537372916e-01,3.520827206260395137e-01,2.393232443933349662e-01,-4.696977640994201694e-04,1.046615531609682579e-03,2.082706033783560725e-03,1.143834814429283142e-01
3.108115711244480717e-01,3.080124792895223562e-01,3.416668073797630156e-01,-6.131285704135749047e-03,2.926040596312596068e-03,2.957663090112584627e-03,3.479875996708869934e-02
3.205263625661849414e-01,3.372368604494591082e-01,2.963074501230562596e-01,-6.845859234223539147e-03,6.229827775567270409e-03,2.519214018986856880e-03,3.932652249932289124e-02
3.237469720751288138e-01,4.003956469984761846e-01,2.849627994010351939e-01,-1.299119470728574231e-03,-7.378101908335715775e-02,-4.749654803356699378e-04,1.633665859699249268e-01
3.496645586734826727e-01,3.402063696110391167e-01,2.647688126759479843e-01,6.941318693338503071e-04,2.679762759503639697e-03,-5.673389075691791412e-03,8.132241666316986084e-02
3.101059990403875477e-01,3.079172152317236621e-01,3.329373787446102684e-01,-3.777806552451985940e-03,4.429616456961852841e-03,1.878835079928522708e-03,2.623558044433593750e-02
3.316717587211961416e-01,3.068093699723274947e-01,3.108016490458951342e-01,-7.062596065071215321e-04,-4.424565125187370981e-03,-3.806742931827654212e-03,2.526894770562648773e-02
3.104159698974540693e-01,3.178754213852413857e-01,3.315569015230447891e-01,-8.730612720061176057e-03,6.654095794839007608e-03,5.067246995863880152e-03,2.798955887556076050e-02
3.441750804241767714e-01,3.278290793455014285e-01,2.805052426172208180e-01,-2.505411954588630721e-03,-1.480457536109264802e-04,6.089710744395378586e-03,5.839900299906730652e-02
4.504031486184646993e-01,3.317866106990164377e-01,3.082477313183051848e-01,6.295271534149678161e-02,-6.793063066707062669e-02,1.450812608739747989e-01,3.260285556316375732e-01
3.360960570842365103e-01,3.309803172093429557e-01,3.044625088409471103e-01,1.485656012273351215e-02,-2.432751940140655961e-02,1.093060142429558290e-02,6.050697341561317444e-02
3.015926821100283761e-01,3.161846907666763795e-01,3.393106010074757872e-01,-2.701588886521055777e-03,1.588318864381094500e-03,3.461078241851437125e-03,3.392033651471138000e-02
2.395536960437935070e-01,3.464793385528888159e-01,3.637574874894083377e-01,-3.002188020073690705e-02,5.323621362009678046e-03,4.913683353946820924e-03,1.282205134630203247e-01
1.672066789327858460e-01,4.178574015010857456e-01,4.255136340366334480e-01,-1.225883528236676456e-01,-4.140891518085876299e-02,3.272569177705654531e-02,3.438664972782135010e-01
2.286650408326915129e-01,3.739793819399941377e-01,3.823860777355039819e-01,-3.487683816445775326e-02,2.958066884452794504e-02,7.055621665934550327e-04,1.693643033504486084e-01
2.707514878384564283e-01,3.487725646627596876e-01,3.308646561569640321e-01,-1.723633955882451476e-05,-1.327074224423336647e-02,-2.240347827490483858e-03,7.452639192342758179e-02
3.665148773962834672e-01,3.979776607346348638e-01,1.512146248544675442e-01,2.632647954307661478e-02,9.304889660649232064e-02,-5.301334790135860120e-02,3.010030388832092285e-01
1.416448719546697377e-01,3.860985300884812732e-01,4.051774110543234220e-01,-9.877301630206533622e-02,1.336888282335045803e-03,-2.492131125490749596e-03,3.067210614681243896e-01
3.462895635073076628e-01,3.006364909090908366e-01,2.992196093982880112e-01,2.019030294030026151e-02,-4.235002955090042681e-02,6.775844447108379798e-02,1.500934213399887085e-01
3.068586341862407640e-01,3.358144411130986606e-01,3.112912317905000559e-01,-1.628572738730140433e-03,-3.201745405810446209e-03,-2.835364925156421464e-03,2.815253846347332001e-02
1.638136891296315401e-01,3.790950700660069561e-01,4.025264060160811397e-01,-8.683446316584142455e-02,4.819207736722236346e-02,4.661918579919614031e-02,2.967281341552734375e-01
3.916249425855113930e-01,2.200457481174157293e-01,2.571202180527890624e-01,-2.917776436915358804e-02,3.250759814977180473e-02,1.428108622251833826e-01,3.022611737251281738e-01
3.530806135939947299e-01,2.619618150038725557e-01,2.776998118024873730e-01,-7.194772971856347454e-02,7.964929398737183308e-02,1.240881437690566358e-01,2.964310348033905029e-01
3.551681612397873389e-01,3.439868016125697814e-01,2.594979096256280204e-01,4.980536549864453266e-04,4.175100602454963144e-04,6.715602925357290996e-03,9.134911745786666870e-02
3.162309777576371439e-01,3.481865325980680326e-01,3.039977690507829622e-01,2.914593635968116322e-03,1.585377844639591222e-02,-2.442194180931659374e-03,4.857089743018150330e-02
3.087229139733539962e-01,3.414311981358612025e-01,3.096975476427881180e-01,2.467488493917969778e-03,6.261679638729901465e-03,-1.835503914255026767e-03,3.442240133881568909e-02
3.411555239644167292e-01,3.083087920018183214e-01,3.069617194792091941e-01,-3.005705387700427977e-04,2.252763101236579307e-04,1.158026428548060253e-03,3.360677883028984070e-02
3.359885550612662919e-01,3.088772172878292976e-01,3.120232401172902126e-01,9.512574475445477028e-04,-2.327690699188798753e-03,3.467687389626212483e-04,2.605684287846088409e-02
3.444773694496643945e-01,3.138562783386407706e-01,3.009993661547182286e-01,-6.943929383577609072e-04,-3.253883030671986926e-04,2.758343966282001802e-03,3.900299593806266785e-02
3.410466250990443760e-01,3.271625709552017924e-01,2.804816907658205238e-01,-7.722915237605525868e-03,1.168155690339842080e-03,4.524255520414826280e-03,5.713512003421783447e-02
3.121949725713312751e-01,3.319255891482684184e-01,3.137748851397270111e-01,3.131834530002863218e-03,3.447193248214526062e-03,-2.894383332011678939e-03,2.123270183801651001e-02
3.219442309982814554e-01,3.237692744900434461e-01,3.098826847431515041e-01,9.245316321014983643e-03,-8.480628184836351557e-03,9.617840416757608354e-03,3.034013696014881134e-02
3.097268779207354994e-01,3.354110167226737049e-01,3.095805181679352480e-01,1.027087196142458490e-03,8.139948880183959178e-05,-7.808685011586476675e-04,2.585477568209171295e-02
2.899686061799169878e-01,3.442099008344380873e-01,3.144229695247697243e-01,-1.185692507753136320e-03,7.327647745930787257e-03,2.339724094719322720e-03,4.894304275512695312e-02
3.380751199176800226e-01,3.000026110034393900e-01,3.021699819325177616e-01,4.675742196216514483e-03,3.836413410796410232e-03,-1.438000286772964792e-02,4.584529995918273926e-02
3.421093645680386430e-01,3.155910014994302570e-01,3.017164997801059512e-01,3.239325344429799282e-03,-6.683068946220179808e-04,-2.832862181214490255e-03,3.633936494588851929e-02
4.027857075638266449e-01,3.275520216685863795e-01,2.446690518428464300e-01,-2.149736840432574236e-02,2.649069049707013929e-02,-1.697783076232250443e-01,3.297438323497772217e-01
3.399451675485932189e-01,3.172613004798265912e-01,2.999870874283958044e-01,1.010871282569082187e-02,2.692723258160025206e-03,-1.182018342492718345e-02,4.418442025780677795e-02
3.352454554817970167e-01,3.091600156841537439e-01,3.120463549692155114e-01,-7.525603529734733576e-04,-8.146657484174057474e-04,-1.819901269323763015e-03,2.504228241741657257e-02
3.070303599437324560e-01,3.309633996945924861e-01,3.099630768476341336e-01,3.139884997643072745e-02,2.802659831466545320e-02,-3.006447288820195823e-02,9.239564090967178345e-02
3.205821528779821405e-01,3.199382541863960983e-01,3.076260311260969882e-01,-7.032790982424870323e-03,-2.730751769172813127e-03,-3.900241579263059866e-03,1.939897798001766205e-02
3.587592448587622052e-01,3.290224445738475501e-01,2.926782008473021168e-01,-8.826657640481405664e-03,-1.436885930202556720e-02,-3.200599250619819841e-02,8.492476493120193481e-02
3.335299266603470869e-01,3.154252957264103707e-01,2.973097314184994233e-01,7.218898796078074623e-03,4.770418062250515734e-03,-7.713352849859956423e-03,3.724275156855583191e-02
3.384089225425906955e-01,3.043779957680593506e-01,3.121065505651304250e-01,1.530238582517093760e-03,3.258100345019505472e-03,-3.354826873859507747e-03,3.205401450395584106e-02
2.823327040796447807e-01,3.438404426786629275e-01,3.256747695405535770e-01,-1.669216333623537492e-03,-4.248851834221720886e-03,-1.224753494547412870e-03,5.534330382943153381e-02
3.160329201066672811e-01,3.055324732879990957e-01,3.367401861291967058e-01,-3.127124894971638688e-03,-4.121270939086566984e-03,-1.307220004435731510e-03,2.901557460427284241e-02
3.382251643153724174e-01,2.922696526184572763e-01,3.176284324717915664e-01,2.101958886373830361e-03,4.456979586311490479e-03,-5.440322390711345261e-03,4.184783250093460083e-02
3.519324426903021608e-01,3.529793507688436804e-01,2.444270226062924545e-01,-7.017629000185321214e-04,-2.456420078127801929e-03,-2.349306440036359571e-03,1.081997975707054138e-01
3.384223413037930617e-01,3.024128557861370803e-01,3.143296562307166253e-01,1.495891164458589603e-03,3.338159308836272359e-03,-1.937129973568756536e-03,3.257262334227561951e-02
3.294409476530664183e-01,3.105596348008561880e-01,3.098968721470498622e-01,6.428722875518245138e-03,5.617167516898601345e-03,-6.512429664777243804e-03,2.674575522541999817e-02
3.294655483742668367e-01,2.996698977783730511e-01,3.187833799191386874e-01,3.748426747602346364e-03,7.445008501794450964e-03,-4.482598805376655088e-03,3.085976280272006989e-02
3.151494501506907908e-01,3.099163671669539766e-01,3.290573441383731201e-01,-2.352880287028833329e-03,-8.766517758960688496e-04,-1.337076139708153226e-03,1.782898977398872375e-02
3.269244153961627930e-01,3.269862426652833665e-01,3.032003752400913577e-01,-6.431520309619918711e-03,-2.489430266729742835e-03,-2.596250961908022886e-03,2.696678414940834045e-02
2.283624412625753497e-01,2.895764437479744768e-01,3.371700534720996068e-01,-1.292264350949218488e-01,-7.700892781932526521e-02,-6.163130581222778237e-02,2.970025241374969482e-01
3.330979371591031857e-01,3.098811455784101221e-01,3.089619903340549145e-01,4.896068124927089454e-03,-2.063708407649216068e-03,2.741489910726203818e-03,2.585425600409507751e-02
3.410257847652831131e-01,3.107562966803128490e-01,3.051404417355427223e-01,2.976262834485112006e-03,-1.212308589464867591e-03,3.310223359522117530e-03,3.437477350234985352e-02
3.407909496997171273e-01,3.018049530539427261e-01,3.145436203024062349e-01,1.409139060985099140e-03,-3.452437868548682235e-03,2.475305660395442017e-03,3.529374301433563232e-02
3.522900813981419965e-01,3.576528571877055640e-01,2.503041985859460472e-01,2.104594982027332712e-03,-4.868404701559462221e-03,1.422524960473502045e-03,1.052010953426361084e-01
3.375655887672110445e-01,3.801467014807586864e-01,2.669464022538266534e-01,-2.363379156230565117e-02,-5.206949483119768102e-02,-4.760475947222654602e-02,1.625277549028396606e-01
3.394670416720142470e-01,3.095388149164998715e-01,3.049765755193240002e-01,1.748277845187257542e-03,-1.249359218461482861e-03,3.281955908277952010e-03,3.315446153283119202e-02
2.453435724568011622e-01,3.081327081620658936e-01,3.435419579266019152e-01,-1.082445365108063717e-01,7.709435622041453662e-02,6.637903059746366741e-02,2.713289260864257812e-01
3.680353003578042403e-01,3.874995145249172102e-01,8.743067102653520606e-02,-1.031968131378195770e-02,7.674073920038090857e-02,3.852130939604060667e-02,3.271362781524658203e-01
3.409226405292264395e-01,3.029821247955592489e-01,3.073117705422401258e-01,6.673638648443434114e-04,-1.339076520737234174e-03,4.163378507106397369e-03,3.677874803543090820e-02
3.195345524419574978e-01,3.162879497229705295e-01,3.176704895897300429e-01,-1.222444783668318871e-03,-2.436898947480141062e-03,-1.068762220889041444e-03,5.804187152534723282e-03
3.842204500099596909e-01,3.678348752791517629e-01,3.043609846872353808e-01,8.993016351628564664e-02,-1.135875333181349117e-01,1.243198660242699205e-01,3.386332094669342041e-01
3.356165676846811219e-01,3.086865276007468850e-01,3.090719903743647801e-01,9.519486288098592038e-04,-8.467954253932363827e-04,3.469068551018292040e-04,2.683702483773231506e-02
3.433432318179933107e-01,3.144402672842033786e-01,2.995057104655695079e-01,-7.123281546187870943e-04,1.092423344549901332e-03,2.454442198713142984e-03,3.890052065253257751e-02
3.407521150851387515e-01,2.895245610673123360e-01,3.120823010739315340e-01,-1.927739479714601304e-03,3.556905321015093810e-03,9.258448952771268850e-03,4.778907820582389832e-02
3.418601396597102937e-01,3.067079807662504987e-01,3.084788586354971773e-01,-9.181752656577543096e-05,3.700468757719492779e-04,1.030243968455344262e-03,3.435375541448593140e-02
3.988045559648275562e-01,3.634026569784752358e-01,1.276481207857420308e-01,1.121429474215684258e-03,-1.018787357583332207e-02,6.038332427581381834e-02,2.764656245708465576e-01
3.512497042745863496e-01,3.427123622642073153e-01,2.520373119944629980e-01,2.644760475821710498e-03,-1.291610765130109554e-03,4.467601716101933691e-03,9.568093717098236084e-02
3.409140568992485854e-01,3.518470872293659180e-01,2.467388760498765987e-01,7.068703452248114791e-04,-4.783948423838854311e-03,7.203205712633276893e-03,1.012123078107833862e-01
3.407935928781277157e-01,3.717551863531513567e-01,1.808853283494095687e-01,-3.315127181309346360e-02,9.790360300810622973e-02,7.228680974983156537e-02,2.814405858516693115e-01
3.394116435455574177e-01,3.100744225644068708e-01,3.074040408708634819e-01,1.788475213562707757e-03,-4.657832552231922938e-04,1.019464687878691165e-03,3.097595460712909698e-02
3.440126665175017306e-01,3.143125360339752983e-01,3.008839431989496771e-01,2.589855550542625659e-03,-1.024034725234752082e-03,2.244092438412576690e-03,3.872507810592651367e-02
3.487703265645092920e-01,3.271788528594118950e-01,2.812743646909198758e-01,1.452794223946613948e-03,-6.664281135353652963e-04,5.457072001792633194e-03,6.051084399223327637e-02
3.401648475000552674e-01,3.082971487635371988e-01,3.058222727745026903e-01,6.489125141098222834e-05,-5.406643509030228381e-04,1.043862711469243114e-03,3.323706239461898804e-02
3.302601790714811414e-01,3.009270787228570665e-01,3.302790284461192827e-01,-1.593276136959504916e-02,-9.929344251903116092e-03,-1.566122492093278279e-02,5.151834711432456970e-02
3.435022188224323703e-01,2.916520134567017197e-01,3.575500200592551248e-01,-1.384443459478736371e-01,-3.627713101364662268e-02,-7.394066505353953656e-02,2.854197621345520020e-01
3.408295888444489163e-01,3.136272720114404167e-01,3.006501253537349760e-01,8.635881535520330537e-04,-1.140082879671407276e-03,2.228107306820228516e-03,3.581076487898826599e-02
3.434169943462771490e-01,3.106265793539049747e-01,3.081110200826355228e-01,1.593023695723747545e-03,-1.115528265133889198e-03,5.699576691235238787e-03,3.567670658230781555e-02
3.314384588020827249e-01,2.766085390351930573e-01,3.371589429142040628e-01,-4.086280405629071077e-02,-2.246843336066554897e-02,-5.862594638252179025e-02,1.420827209949493408e-01
3.377441194391079815e-01,3.170014689201220981e-01,3.025221070489589326e-01,5.280852164094649269e-03,-1.708700866664874694e-03,2.483628022538446247e-03,3.242184594273567200e-02
2.777620333065700109e-01,3.471265427659360747e-01,3.096432426291420570e-01,5.927833857243556062e-03,3.031571695989151993e-02,-6.698106785434579900e-03,8.132380992174148560e-02
3.478828602729775454e-01,3.017085952303559804e-01,3.161146648931357217e-01,-4.529933326973498717e-04,-2.007048818871106765e-03,-1.643267915141502500e-02,4.997206479310989380e-02
3.195898328719414261e-01,3.159612496409093252e-01,3.138288119246858687e-01,-4.652787295683256767e-03,-2.812426589757704726e-03,-3.029254942458649204e-03,1.190190389752388000e-02
3.173535126364930292e-01,3.179602130263816662e-01,3.183610745482350901e-01,-2.402610422439711586e-03,-2.265782825518921056e-03,-2.706043551469103879e-03,7.447074633091688156e-03
2.727627167199205283e-01,2.734719750850388986e-01,3.378182527779949318e-01,-1.110467416167526256e-01,-7.467815872077245010e-02,-6.208611177899850397e-02,2.635816037654876709e-01
3.027227178755448889e-01,3.088509867893652894e-01,3.412084062712517074e-01,4.899760425509033790e-03,-7.430528906220522497e-04,1.457074242893048165e-03,3.691750019788742065e-02
3.190412889552965980e-01,2.936236663838694971e-01,3.485023524892126856e-01,1.666438461601627702e-02,2.069047275100030503e-03,-1.834734616233404773e-03,5.584699288010597229e-02
2.970886390023537715e-01,3.125910454889997414e-01,3.536283298567777234e-01,3.222260249875125854e-02,1.561513464235919288e-02,-3.211280216781574846e-03,8.023642003536224365e-02
3.281351577731887459e-01,3.164169090948486529e-01,3.139620470104037553e-01,-5.509551893130665247e-04,-1.206396045133034667e-03,-7.499603225439692173e-04,1.338187325745820999e-02
3.167834608461230217e-01,2.897414656287799484e-01,3.467903941529886791e-01,9.183472476476375532e-03,8.536798354842976139e-04,2.097494227880627657e-03,5.207231640815734863e-02
3.419265536635629488e-01,3.535061241442497559e-01,2.667095352157005661e-01,6.626950258178772790e-04,-5.672646076790919915e-03,7.601720214040711548e-04,8.223292976617813110e-02
3.165739451688279193e-01,2.894638971225618751e-01,3.432468209642436929e-01,6.475676289234521404e-03,-6.931463085312075884e-04,-9.322513640104101822e-05,4.792463406920433044e-02
3.075143985373668953e-01,3.323309535445880813e-01,3.140030135019746815e-01,-2.934228951578439840e-03,-2.878423357322880665e-03,-4.320126167414857672e-03,2.456855773925781250e-02
3.494622180976773018e-01,3.519675309692594234e-01,2.605038127690821881e-01,1.454988308177857740e-03,-4.582940938835097962e-03,3.040578517971008043e-03,9.077356010675430298e-02
3.084928689281007941e-01,3.081738686042415076e-01,3.418896898735088730e-01,7.315709595924767966e-03,-1.314206342461510268e-04,-4.187162592362911459e-04,3.587812185287475586e-02
3.168340004068077587e-01,3.272885742632808959e-01,3.092662937543907420e-01,-5.501657602000658599e-03,-2.882826006499021165e-03,-2.274839320950937556e-03,1.941511966288089752e-02
2.961668439349808835e-01,3.169859764915173850e-01,3.438276857370874962e-01,1.763717604310405598e-02,1.396686737399181711e-03,1.155600322553467993e-03,5.153448507189750671e-02
4.543157460608678866e-01,2.152647164256858148e-01,3.217477932602526014e-01,3.766489321245843763e-03,-5.050060067911996131e-02,-1.348174135415939612e-01,3.244223296642303467e-01
3.275881300588621703e-01,3.275421437919777690e-01,3.032734115590732249e-01,-5.885166869685886509e-03,-2.375557368608045058e-03,-2.502624510375582676e-03,2.701322361826896667e-02
3.107049805101039786e-01,3.117858171697591163e-01,3.400944144333368224e-01,5.461045311854603214e-03,-3.804291626226211087e-03,3.488436823921723089e-03,3.166285529732704163e-02
3.122475878818533057e-01,3.162112341212642286e-01,3.291598878304952680e-01,-1.020218325856779747e-03,-1.288263509780009216e-03,-2.731800393704370260e-03,1.628470420837402344e-02
3.649880332968497565e-01,2.461579082216048264e-01,4.620436203020690247e-01,-1.530350281940841273e-01,-3.658673881599174005e-02,-3.877090099900578485e-02,3.374284803867340088e-01
3.156670162255465484e-01,3.371867796545463536e-01,3.002454289544588817e-01,-4.214013066704480441e-03,3.354344982600517000e-03,1.225317648260581139e-03,3.353099152445793152e-02
3.182099731524872244e-01,3.012297271448244329e-01,3.492238583183432943e-01,1.482668317477870909e-02,3.937689571318077342e-03,-4.702909015790667294e-03,5.048933625221252441e-02
2.918464561686042735e-01,3.128808956543897013e-01,3.408167911409244466e-01,8.040171401100153561e-03,1.844215440918369267e-03,-4.177022794378509006e-03,4.546379670500755310e-02
3.291422393582897343e-01,3.230022460280113639e-01,3.329554051664811998e-01,-6.917087154821069395e-02,-5.946519511169950228e-02,-6.487607661354229116e-02,1.940734982490539551e-01
3.517327001624435123e-01,3.525194985235262091e-01,2.527798999549821790e-01,-2.010214970643400855e-04,-1.159091235739772652e-03,4.236597784142829594e-03,9.963999688625335693e-02
3.266864876643826854e-01,3.398468631787998073e-01,2.846586028804666268e-01,-5.053195643886234170e-03,-4.216910067778912620e-03,-2.354148221623717559e-03,5.137332528829574585e-02
3.089849509223138169e-01,3.088461625725974491e-01,3.417449613392889995e-01,7.869119591739680633e-03,-1.398646654495319837e-03,2.347045385699424516e-03,3.586011379957199097e-02
3.096668572598563207e-01,3.044799848496456129e-01,3.391534935200072876e-01,4.208628337661981557e-03,-2.603551150232256712e-03,1.078111489030528182e-03,3.355992957949638367e-02
3.097107084214755224e-01,3.089749223179747983e-01,3.393537762109649636e-01,7.193054645139538954e-03,-2.671345007606233234e-03,2.177928435044440125e-03,3.304424881935119629e-02
3.062016625285202687e-01,3.093863995805479772e-01,3.400183163481605431e-01,1.565568439847583740e-03,-1.112595226007450069e-05,5.293993404206829125e-04,3.246853500604629517e-02
2.907282387513512867e-01,3.171701703672588080e-01,3.435893556892672951e-01,6.518473611739377359e-03,-1.508168411315640887e-03,2.503719116690501182e-03,4.742177203297615051e-02
2.903927982482643055e-01,3.260726076885153701e-01,3.399576414926712697e-01,3.936033899920482124e-03,-1.833225915278683098e-03,5.102366233024287906e-03,4.578121751546859741e-02
2.986747438115412434e-01,3.372218551516976692e-01,3.185483221704697998e-01,-1.913400217622658606e-03,-6.633860500528897947e-03,-5.767595420678995471e-03,3.684525564312934875e-02
3.264270205741258701e-01,3.496314056700874362e-01,2.859330870471720187e-01,1.728992906378656966e-03,-5.607557865111046161e-03,1.564479368744141471e-03,5.681975185871124268e-02
3.095451931617160257e-01,3.411983652429486091e-01,3.064020234948611754e-01,1.103381264222296886e-03,-1.162909556453626181e-03,4.043266307824206992e-04,3.345884010195732117e-02
3.062301685023274267e-01,3.085179369710410180e-01,3.413616498140076838e-01,1.427258750164760214e-03,-2.150136874614610853e-04,3.170486036410135352e-04,3.414137661457061768e-02
3.410911171353309679e-01,3.407046156726634134e-01,2.674866451036471693e-01,4.401451101579949114e-03,-4.713072096656379523e-03,4.524325535339396992e-03,7.466917484998703003e-02
3.262778918896405700e-01,3.086452358082827918e-01,3.203597275556074875e-01,-6.285926127141122123e-03,5.135669778993118967e-03,6.569898258221428845e-03,2.384820580482482910e-02
3.512054412564868944e-01,2.434650327366394973e-01,3.490282073955707776e-01,-1.239673009299914822e-02,4.472034614207403419e-03,2.103173651221064075e-02,1.150051951408386230e-01
3.095615582879300276e-01,3.203903672415264192e-01,3.286526459274926038e-01,1.588175762872031434e-03,-1.461000353812062389e-03,3.655537274546334821e-03,1.813996396958827972e-02
3.757925816460792046e-01,2.147042910283524508e-01,3.227387217600464764e-01,3.723643337269060688e-02,-3.279621067124186690e-02,1.008071844301911824e-01,2.410196810960769653e-01
3.363075845447258683e-01,3.126922038098254863e-01,3.086088687119847851e-01,2.409633797788277281e-03,-1.109205292327710693e-03,4.093284917647301013e-04,2.631353214383125305e-02
2.416562671410953378e-01,3.919304529165640871e-01,3.599471836847067951e-01,1.378978644604220705e-01,-7.418319677703415216e-02,4.778758771946704093e-02,3.149712085723876953e-01
3.731772504453244599e-01,1.712651141251365638e-01,4.070485695492063738e-01,6.060676068886892975e-02,3.767338561992883937e-03,1.856755485858615010e-02,2.466803342103958130e-01
3.212795445492649948e-01,3.159312683120196197e-01,3.179546102151001863e-01,1.378721938755915087e-03,-2.932824503482573449e-03,9.643683336094956669e-04,7.494905032217502594e-03
3.264259221828103574e-01,3.276218001380379330e-01,3.029528990173810943e-01,6.356118524731467490e-03,-2.791518292017250002e-03,1.924249018992281544e-03,2.713246084749698639e-02
3.411547984983498427e-01,3.144020120357554626e-01,3.008307836818538972e-01,-1.935690915916701317e-03,-3.248390140765335565e-04,2.759490494426720779e-03,3.601887822151184082e-02
3.360526123711853885e-01,3.139377765933341613e-01,3.022407784484549276e-01,3.161967601891503988e-03,-1.818534663608060119e-03,2.278330859695104453e-03,3.066024556756019592e-02
3.474338927250708031e-01,2.727588229517576845e-01,3.845438579687100455e-01,1.477477661110481455e-01,-3.450913382304920257e-02,7.059804440594105723e-02,3.061662912368774414e-01
3.235447656189069932e-01,3.120798822194553734e-01,3.177633373515310611e-01,2.227370649053527288e-03,-3.940865587004156213e-03,2.069834583955436954e-03,1.314962003380060196e-02
3.277186500482602294e-01,3.196229513677414369e-01,3.080802770052683548e-01,5.097506538790475689e-03,-1.413973364693641398e-03,4.986134093774423912e-04,1.941435597836971283e-02
3.491924451123437079e-01,2.811438660869450268e-01,3.350057268169138180e-01,5.042206908709046843e-03,-4.183391879602446281e-03,2.490262012116302437e-02,7.652242481708526611e-02
3.152611970241017136e-01,3.164378599158874095e-01,3.221542909399144339e-01,-3.524333089225011105e-04,-8.317785735901583660e-04,4.962855219984206806e-04,6.631404161453247070e-03
3.928156487363625993e-01,2.516392840366210581e-01,3.448962618320222662e-01,-3.737732374399800606e-02,2.990518788132702499e-02,4.860087987741922716e-02,1.715291142463684082e-01
3.997325013551040751e-01,2.168580541503453141e-01,3.888732012742595057e-01,6.162224017726501690e-03,-7.105302784791397205e-04,2.918958172674553445e-02,1.850584447383880615e-01
3.143244421785311715e-01,3.173895408684827557e-01,3.215001361524729706e-01,-1.913318957121021985e-03,-1.456386358283231694e-03,-2.534191331434778368e-03,8.689253591001033783e-03
3.272962987644978949e-01,3.165069099386630946e-01,3.088098221335425220e-01,-5.606983332164289409e-03,-2.069365816747650941e-03,-2.363685712798476411e-03,1.956081762909889221e-02
3.222473396427672498e-01,3.215876296268572188e-01,3.147853425117210779e-01,-2.087745637273397039e-03,-5.906361254352384370e-04,-8.353431777241437798e-04,8.210350759327411652e-03
3.275090585836026857e-01,3.191852842722607830e-01,3.089748114271597679e-01,-4.313207631723679769e-03,-2.068368032057735922e-03,-2.423246021662095288e-03,1.856854185461997986e-02
3.799526287381920775e-01,4.304391947707603139e-01,2.691500978768029961e-01,6.602864321468493447e-02,-1.316719224246956643e-01,1.084756762592122559e-01,3.475814759731292725e-01
3.129972255834315709e-01,3.156593597330829004e-01,3.271845869442172594e-01,-2.215203588634519390e-03,-2.664340018846545702e-03,-3.290528826487089734e-03,1.546285115182399750e-02
3.043029958978687444e-01,3.208736765335420960e-01,3.273142042370468241e-01,-5.837183512174638766e-03,-1.864471369177585561e-03,-7.327085093541111163e-03,2.639123424887657166e-02
2.811520595037856896e-01,3.414635350841825900e-01,3.300829994282042379e-01,1.120720448244557493e-02,-2.423063551665215892e-02,7.849289470456231876e-03,7.350934296846389771e-02
2.780388550347982490e-01,3.555711045231144118e-01,3.502734210956753858e-01,4.819164208264651444e-02,-5.099676674334206045e-02,2.833457222940304054e-02,1.510179787874221802e-01
2.974174301950718302e-01,3.445926597619069498e-01,3.410233642322725300e-01,6.855288474637938334e-02,-7.391045703299332914e-02,3.871340880203318069e-02,1.924910545349121094e-01
2.649770100771989823e-01,3.372892508688560831e-01,3.513538917756944269e-01,1.034616017603746246e-01,-8.151134658163877722e-02,6.743863988882727034e-02,2.685759365558624268e-01
3.138970946515897142e-01,3.317097244360346919e-01,3.149668773634917152e-01,-3.184481366889996105e-03,-4.886892341900959252e-03,-3.970241902834593765e-03,2.118336409330368042e-02
3.147466659143134948e-01,4.070018904610845367e-01,2.896719457338761128e-01,3.527115058427551797e-02,-1.509692852814059072e-01,9.280679079196484105e-02,3.307562172412872314e-01
3.060114338864967642e-01,3.413980314198453159e-01,3.078223795409667507e-01,-2.951230230753836611e-03,-6.771158431850318737e-03,7.532302818392361092e-04,3.683456033468246460e-02
3.129977824768145900e-01,3.284573021055380293e-01,3.125405196226500593e-01,-1.063274170254682217e-03,-2.842842400244604216e-04,-8.704600774959315307e-04,1.588024199008941650e-02
2.791427725861287401e-01,3.509145179000881520e-01,2.759269364350557252e-01,7.862104211269330123e-02,-1.389710747238556976e-01,6.978010767702429173e-02,3.106168210506439209e-01
2.664748391604215283e-01,3.422780457105843444e-01,3.456219340375569216e-01,4.906805976294295601e-03,-5.639747938664818258e-03,5.413114944187406331e-03,7.916022092103958130e-02
3.021631337658857164e-01,3.400330700432056541e-01,3.195438718130628186e-01,-4.763506371877480015e-03,-1.437769345962571291e-02,-2.775318041464041544e-03,4.230069741606712341e-02
3.539950324219110489e-01,3.450638339545700761e-01,2.531257619513483381e-01,-5.790981422953616307e-03,-2.274008745324735195e-03,-1.314036449150825410e-02,9.993807971477508545e-02
3.136262404010949356e-01,3.014913781303619200e-01,3.449945370169867909e-01,-2.771300572741899025e-03,-1.712982755100068673e-03,7.418949491710719220e-04,3.931118547916412354e-02
3.193992689072896463e-01,3.263984549688839776e-01,3.124654991963181083e-01,4.783015658086628430e-03,-1.427988200113054426e-03,1.671947366971056207e-03,1.512388512492179871e-02
3.753768589548688861e-01,2.708156935431992873e-01,3.527511036615973983e-01,-3.400651437798621335e-02,-2.343453360425732865e-02,-6.182549332619952098e-02,1.601974517107009888e-01
3.259908509241780661e-01,3.376606628797246268e-01,2.900445822583208044e-01,4.836670453952811484e-03,-3.599343890560485672e-03,3.172453792103747169e-03,4.457627609372138977e-02
3.124713269116626280e-01,3.248652122253835595e-01,3.147883511257091316e-01,1.308888250057681397e-03,-1.757749263902687320e-03,3.216912230079264825e-03,1.325572468340396881e-02
3.236938283794648652e-01,3.176717370989366462e-01,3.123678600924196247e-01,3.185672278953641506e-03,-1.651631084857790041e-03,1.910752658914044791e-03,1.207970362156629562e-02
3.231693688723181190e-01,3.195257336945839799e-01,3.108532004920953606e-01,4.001912139838231103e-03,-6.226275703773636672e-04,1.598645067492625521e-03,1.330279465764760971e-02
3.061207624464449273e-01,3.183963398120847055e-01,3.252781326435092990e-01,-4.342314186189478661e-03,2.593347736110046802e-03,5.367901593406531821e-03,2.111192606389522552e-02
3.137145675225457286e-01,3.174778231014200314e-01,3.249563287426782132e-01,-8.736292590629659649e-04,1.103327880748747889e-03,2.890615213098423047e-03,1.136847957968711853e-02
3.274602464982791505e-01,3.442747374435723429e-01,2.856507233078983687e-01,-2.060326510142004830e-04,-5.646761432385264019e-03,1.713141867428657822e-03,5.327625200152397156e-02
3.169099376166763515e-01,3.133584303003225657e-01,3.227276198106439065e-01,-1.561531065494358101e-03,2.966658867289621252e-03,1.264222105893785669e-03,1.027780491858720779e-02
3.050701012940850720e-01,3.178323698140583797e-01,3.272509943552340816e-01,-3.540383054486609914e-03,2.109146187237819110e-03,5.534005683975056974e-03,2.268508449196815491e-02
3.172283242050393803e-01,3.179163421460169392e-01,3.229902104028294363e-01,-2.109971279695451677e-03,2.757500125956151727e-03,2.291478564060076863e-03,9.034843184053897858e-03
3.156083948265703265e-01,3.138920508511240381e-01,3.282927427063124237e-01,-1.073231840374006723e-03,8.428557830349286658e-04,1.003698949937447413e-03,1.393621694296598434e-02
3.121435370166913970e-01,3.136805927155890683e-01,3.279901276966086798e-01,-6.211951155853399692e-04,2.522644175932595850e-03,9.905448724081974358e-04,1.588433980941772461e-02
3.322640941598775655e-01,3.125703175049724392e-01,3.105312723026399935e-01,2.093117459378479074e-03,-1.633530270946206072e-04,7.279272080939516417e-04,2.114171534776687622e-02
3.088970448425898963e-01,3.074362295682498414e-01,3.415390098489153869e-01,-6.679217391937605948e-03,-1.928422520031305726e-03,-2.777755572536083888e-03,3.582535311579704285e-02
3.185524488579404290e-01,3.173102819503447192e-01,3.178289480666255939e-01,3.752463757607715973e-04,-6.605331426300779275e-04,3.781141945517684996e-04,1.824274077080190182e-03
3.231299486136774424e-01,3.308609572116354425e-01,3.003789209370723023e-01,-6.931624497244905786e-03,1.120784604327878554e-02,9.238027775312761258e-03,3.911878541111946106e-02
2.268417064217907453e-01,3.409213706549734102e-01,3.607039169090114350e-01,-5.304507802014639395e-02,-3.111220805103678128e-02,-2.133878765135456546e-02,1.684446036815643311e-01
2.934888424537248630e-01,3.490934172243667644e-01,3.707109708510966661e-01,-4.929174643509939835e-02,-5.594006575305949386e-02,-3.509493375862775960e-02,1.585341840982437134e-01
3.048068166933484147e-01,3.501390416691072538e-01,3.507152790371624307e-01,-5.375479557495951854e-02,-5.143291876275185581e-02,-3.524832147453058756e-02,1.497116088867187500e-01
3.248194274891771927e-01,3.140713893931219025e-01,3.140080892978522331e-01,-3.005120406502260252e-03,-3.094414857647633660e-03,-3.273497958107080864e-03,1.428882405161857605e-02
2.855722867487101024e-01,3.267469182981743159e-01,3.391039263427271799e-01,-7.776410825017343598e-03,-4.759002367706086090e-03,-8.316546024047055327e-03,5.304430052638053894e-02
3.093021062854953707e-01,3.365737678195483973e-01,3.127765325067841662e-01,-1.196454863860467758e-03,8.244781517691271216e-04,2.300611258694726814e-03,2.613951079547405243e-02
3.195839494776174239e-01,3.177918957393571775e-01,3.168913949327781809e-01,-1.356222438424459090e-03,-6.161818721315054023e-04,-3.550172077674301112e-04,3.559673205018043518e-03
2.861256259831288506e-01,3.267111204041454053e-01,3.427156421206475900e-01,-4.508057202050959507e-03,-4.372197976901767355e-03,-6.127785594747118050e-03,5.276214331388473511e-02
3.295713815393468415e-01,2.848394820921841819e-01,3.292445074483522638e-01,-9.374047975807752245e-03,-9.968925181544742789e-03,-9.033925439113717551e-03,5.284903198480606079e-02
3.178943973176433513e-01,4.580423020569227566e-01,2.743928102742358988e-01,-3.941227465652073769e-02,1.846215814304815184e-01,5.733172550059369155e-02,3.800087273120880127e-01
3.125487465323439351e-01,3.289099924026860911e-01,3.119682205875059511e-01,-2.225347654655583565e-03,-7.245192997773731384e-04,-8.903640235770847716e-04,1.721438579261302948e-02
2.748519401099041026e-01,3.304457770976818587e-01,3.556509840126189093e-01,-2.225212212063108416e-02,-7.475975772729384974e-03,-3.050788310876474761e-03,8.251239359378814697e-02
3.153400303408851468e-01,3.259892422471196149e-01,3.136779451006301289e-01,-1.759358123094272985e-03,-4.745260847627668635e-04,-4.742247950856206921e-04,1.202099677175283432e-02
2.825870642494488494e-01,2.894334316347582647e-01,3.668563518102385679e-01,-5.605937031240457863e-02,-3.426172093084756815e-03,-1.496538806505869849e-03,1.266536265611648560e-01
3.312197689903843001e-01,3.007055679485836075e-01,3.187456748104088855e-01,3.065864650418908578e-03,-7.731725741719536540e-03,4.950926252480804951e-03,3.141902014613151550e-02
3.281065700766040427e-01,3.020108635913562045e-01,3.183259064699830998e-01,3.007781641685827040e-03,-6.777196794049684600e-03,4.996692112749492529e-03,2.759069018065929413e-02
3.056655784207874538e-01,3.043955799963573572e-01,3.401685378945517590e-01,1.139063009311037933e-02,-7.820199626322844183e-03,6.617263687237245375e-03,4.404493421316146851e-02
3.239991781855321440e-01,3.122113941517505875e-01,3.146421980977962551e-01,1.529441948567439964e-03,-3.299081823695015989e-03,2.756165552531425651e-03,1.336658559739589691e-02
3.211025363308062097e-01,3.039710064247633237e-01,3.181381225765631537e-01,4.417950568936043591e-03,-6.715452045119448335e-03,5.427648665400673124e-03,2.310231514275074005e-02
3.221446657308549844e-01,3.162981921489653736e-01,3.196073482343106953e-01,6.291750384064486411e-03,-6.128568406935893005e-03,8.561741840921044053e-03,2.184334211051464081e-02
3.147240420296016361e-01,3.443062755988099410e-01,2.992155908073430570e-01,1.726484158225002029e-03,-2.973767461913038191e-03,1.121177552641901319e-03,4.017011821269989014e-02
3.900554791543437982e-01,2.623489712275930419e-01,2.031170853114669939e-01,1.645687613227946738e-02,-2.767691320669871460e-02,1.477849996644978181e-01,3.098602890968322754e-01
3.172805861293104823e-01,3.287102391239218324e-01,2.995243182395193049e-01,1.061418956759755186e-02,-1.523372196509934981e-02,1.288798681715477325e-02,4.670495167374610901e-02
3.375908826013212516e-01,3.156091623534916235e-01,2.957035182890013214e-01,-5.628644946710843755e-03,-2.282041747524652265e-03,-5.479419686774236568e-03,3.895806893706321716e-02
3.363332582874294374e-01,3.254812918403274802e-01,3.127202481222711716e-01,5.008766096760088743e-02,-9.886036443443460553e-02,1.367854957287131523e-01,3.056081533432006836e-01
3.076414759979874125e-01,3.215144625466559991e-01,3.311753964410178441e-01,1.030674702928951851e-02,-5.578603111367641358e-03,5.703482269949407615e-03,3.048701398074626923e-02
3.537064270759038842e-01,3.158872039572195312e-01,3.042139643511474478e-01,1.309170636724198665e-02,-1.129524928440307427e-02,3.267615889938861595e-02,7.815466076135635376e-02
3.227299189464001850e-01,3.353053733867044639e-01,3.077907144569619335e-01,-4.498562000327195089e-03,-9.497952966839280989e-03,-7.628312348620916797e-03,3.278882801532745361e-02
2.706038813568075740e-01,2.829940512962541010e-01,3.635411724429117863e-01,-6.652755766335517740e-02,8.460269959197300876e-03,1.034945590157819797e-02,1.464689671993255615e-01
3.152107798108861325e-01,3.409085488787997886e-01,3.006891141032098647e-01,-1.947103876877844149e-03,-2.210708276240321447e-03,-7.958099750141569466e-04,3.567020967602729797e-02
3.254447499691910384e-01,2.876370695888166851e-01,2.800472342736228248e-01,7.262333157583122922e-02,-6.905731668249748267e-02,1.028362826095928356e-01,2.522480189800262451e-01
3.530260281717130799e-01,3.370403305648472236e-01,2.760054186163654610e-01,1.152478670105384212e-02,-1.131811351042707504e-02,3.309018082634361535e-02,9.499542415142059326e-02
3.579121921775507142e-01,2.672986156932343760e-01,3.311952678536124184e-01,1.358055019165842680e-03,5.536661880256828379e-03,-1.628040164580259533e-02,8.600202947854995728e-02
3.099000246080308441e-01,3.392505451504201353e-01,3.081845018569491779e-01,2.605447399803855705e-03,-6.326843540442418645e-03,2.260596707324505957e-03,3.271896019577980042e-02
2.599286430125041791e-01,3.482610294720673294e-01,3.536514093899336686e-01,-7.411695689336203832e-03,9.137207906794125520e-03,7.496882333073905114e-03,9.429574012756347656e-02
3.313392321967069121e-01,3.135487971894411752e-01,3.122200876088066512e-01,3.850505996976987672e-03,2.990992091550859818e-03,-3.576681975614141081e-03,2.125084958970546722e-02
3.440046617830045950e-01,2.999616670678808550e-01,3.142127121253577293e-01,-9.431334791928905250e-04,7.329417266762078970e-04,-1.817615884150264316e-02,5.010605975985527039e-02
3.406737990746760980e-01,2.814428180436449600e-01,3.288306552688110562e-01,1.647594189287114033e-03,7.909378229735411145e-03,-3.499323496275617319e-03,5.638831853866577148e-02
3.383240794101269322e-01,3.097137531867428240e-01,3.093161414085654481e-01,3.274598769774811260e-03,1.963115736016263213e-03,-6.529166461940702146e-03,3.164972737431526184e-02
3.356551979158490795e-01,3.076861631133215313e-01,3.121646276742549575e-01,1.227484845695867108e-03,2.950448146896392666e-03,-2.938681634258455064e-03,2.708520554006099701e-02
3.176191333562850549e-01,3.188121853925754978e-01,3.183450738902084409e-01,3.358272839792170086e-04,2.579378262448759240e-04,-2.178352771693463027e-04,1.328371232375502586e-03
3.179191870857330793e-01,3.187996980111031387e-01,3.178166404827300617e-01,3.780920195642782145e-04,1.563109590796306000e-04,-1.756193119174703820e-04,1.212763483636081219e-03
3.068557578913274630e-01,3.359950830985246606e-01,3.117733826531209895e-01,1.534958561607344509e-03,-2.497134688149029759e-03,3.318777878059138604e-03,2.808567695319652557e-02
3.198342326284444592e-01,3.260704133416101325e-01,3.066818823609747113e-01,6.349474661436484493e-03,-3.849400978013934813e-03,3.257384078719759331e-03,2.216139622032642365e-02
3.242159037129341836e-01,3.153977593917555167e-01,3.142018323613987585e-01,1.337463638308717838e-03,6.031365015946788715e-04,-4.667874997812284212e-04,9.841096587479114532e-03
3.242686397835476964e-01,3.144539448303220186e-01,3.153057771109868956e-01,4.196744363406885504e-04,1.523207983962326711e-03,-5.591380722786673573e-04,9.854955598711967468e-03
3.242490800984162980e-01,3.132758442545097721e-01,3.156011913478428688e-01,1.744584203914713869e-03,4.208574284814450318e-03,-1.615594157098256423e-03,1.305373571813106537e-02
3.220409218417933928e-01,3.137385374985360298e-01,3.210645198482438567e-01,1.772353775147826301e-03,3.329798883329387199e-03,-2.563245792156158397e-03,1.114331930875778198e-02
3.037755714022069564e-01,3.084903061199574803e-01,3.389990539610039377e-01,4.843022943862251156e-03,-9.455876889573422515e-04,2.250020348110938657e-03,3.442510589957237244e-02
3.178980048756531174e-01,3.179740798953876735e-01,3.186395075745299121e-01,5.584578575294477023e-05,-3.838966557203284027e-04,7.476219467811515422e-05,9.835945675149559975e-04
3.211362228291888554e-01,3.176904643231068248e-01,3.157558368868479959e-01,2.280880420250317071e-03,-1.259951809704827315e-03,1.053845257332720105e-03,6.781131494790315628e-03
3.188822116538218565e-01,3.178350963991086742e-01,3.190689002739637292e-01,5.623985741578976360e-04,-8.453079386819775410e-08,-5.515877502642120610e-04,1.785612199455499649e-03
3.211271149462059937e-01,3.195693145167196048e-01,3.137102532337113781e-01,3.345670475520937104e-03,-2.072766871496877351e-04,9.567796675284273317e-04,9.074045345187187195e-03
3.168532363424569898e-01,3.127013266055467811e-01,3.244360227005897435e-01,2.162701663869681830e-03,4.353636745382388762e-03,-1.585918032757560082e-03,1.358895655721426010e-02
3.096730632942114592e-01,3.383726390872945355e-01,3.126793829274743808e-01,-8.803974261077094840e-03,-8.015852425269094639e-03,-6.786708440711046453e-03,3.619244694709777832e-02
3.118610746958955238e-01,3.271032046457661435e-01,3.203860387277740474e-01,1.922891411715781616e-03,2.119873348206802784e-03,-4.574942219168745897e-03,1.619948633015155792e-02
2.867941025092708429e-01,3.267013631767912707e-01,3.339759550426483203e-01,8.967580280144637692e-03,8.902607206589264674e-03,-6.967809278019900660e-03,5.060129612684249878e-02
3.160472106238642054e-01,3.161698435512508842e-01,3.225790711767574925e-01,-9.218446479729975294e-05,8.216729082135246394e-04,-6.024283079872845602e-04,6.709613371640443802e-03
3.614348495512260673e-01,2.289644206752583511e-01,3.588315689805409159e-01,2.887816252573427792e-02,-1.164957901225199127e-02,7.882769482003103637e-03,1.424981802701950073e-01
2.873495501400948338e-01,2.969132472869199790e-01,3.484240521359759923e-01,3.189772887246718897e-02,-2.045785242950297952e-03,2.457672481406922727e-03,7.950177788734436035e-02
3.080228733979722411e-01,3.386905914429387821e-01,3.102836899772283830e-01,-4.268401715061551972e-04,-6.677987193781889002e-04,-1.339432016015467807e-03,2.972461655735969543e-02
3.151119610782260327e-01,3.211794450293831704e-01,3.143642510919897881e-01,-2.410053267338477852e-03,-8.241054350607960894e-04,-8.587967850060112531e-04,7.974036969244480133e-03
3.179289641371335073e-01,3.225092557003269023e-01,3.145925235089639949e-01,-5.600549343346418159e-04,-1.925746748456137226e-03,-1.329290220088968216e-03,8.047378621995449066e-03
3.178248299123416221e-01,3.177288213088265700e-01,3.175000516951350660e-01,-1.010222339870577284e-03,-3.635031309994952065e-04,-1.828240148509289683e-04,1.908361096866428852e-03
3.837616695658040422e-01,2.179133993722123797e-01,3.667177151158781401e-01,3.111781765861644511e-02,-1.049735202823654651e-02,1.094863824256838911e-02,1.690106242895126343e-01
3.084734159489156968e-01,3.064633025006315847e-01,3.405993065794399310e-01,-1.047058206025246359e-03,-4.875589156991142143e-04,-4.162812361850392532e-04,3.324472904205322266e-02
3.146261199632123251e-01,3.215130563339541059e-01,3.188610223448184455e-01,-1.280967632826308326e-03,-1.011418684614707629e-03,-2.548430427513258701e-03,7.979587651789188385e-03
3.552702233741216742e-01,2.379059153663212745e-01,3.621791561408321813e-01,1.864922736770639744e-02,2.318497028541771469e-03,9.850066814305181648e-03,1.264260858297348022e-01
3.086953400982909157e-01,3.409319401676940697e-01,3.077244330402683081e-01,2.230515796383506055e-05,-9.710733688198260570e-04,-1.851185419984895857e-04,3.277762979269027710e-02
3.616074068599497982e-01,1.134846764702711341e-01,3.912667467852357639e-01,8.286286950559663966e-02,9.528260094081483745e-05,-2.479428879482850796e-03,3.007007837295532227e-01
3.296403155353640479e-01,1.374658965516420417e-01,3.903446828851271366e-01,1.024844361808622539e-01,1.332952217841419477e-02,-2.376643712611243436e-02,2.932892739772796631e-01
3.088173585900327867e-01,3.360651335088541969e-01,3.105088392029040079e-01,-2.343114959681977857e-03,-1.642572927420623934e-03,-1.074376361823100061e-03,2.696740254759788513e-02
3.394918014851173171e-01,1.960346502723527840e-01,3.821726734917044732e-01,1.081908930289568749e-01,-3.065037393566565072e-02,4.287590016710012691e-02,2.682790756225585938e-01
3.014019744303068626e-01,3.279252005768640288e-01,3.804737851244308633e-01,-6.207032367118846261e-02,3.060248093512988460e-02,3.475604360764449757e-02,1.511629968881607056e-01
3.088213481303491714e-01,3.354333813848006662e-01,3.122292871701115580e-01,8.405449077705374854e-04,-1.556358087328609278e-03,8.656067997184150719e-04,2.531316503882408142e-02
3.088672386843475670e-01,3.397620265270556716e-01,3.076659040742972251e-01,-4.230450258526196185e-04,-9.767778810135850729e-04,-1.585408219824966454e-04,3.156771510839462280e-02
3.675358243126050084e-01,3.830211296801503407e-01,9.058814121222730220e-02,-1.267240313814705331e-02,7.648487868622071140e-02,4.222636460317247264e-02,3.234334588050842285e-01
1.973998974010792162e-01,3.007533270196221520e-01,3.924860019803506628e-01,-1.244498091711979948e-01,2.408132488112706138e-02,1.233435251453344345e-02,2.779156565666198730e-01
1.487588280064047197e-01,3.696598827472844517e-01,4.758965201257195354e-01,-8.702006544256918330e-02,4.970377307754558077e-02,2.469160964721894141e-02,3.398664295673370361e-01
3.129609020028040756e-01,3.192713584315308717e-01,3.215279970542851418e-01,-9.743295376961154039e-04,-1.173866007508573596e-03,-3.101193731918588155e-03,9.746217168867588043e-03
2.339137249266011187e-01,2.987917660539751163e-01,3.835308511381724794e-01,-1.199596923612934046e-01,5.900109816277709224e-02,3.839349755224211180e-02,2.737227380275726318e-01
2.922958424738867911e-01,3.324854048168638387e-01,3.845706347314257201e-01,-6.641724035494041278e-02,3.166882310005557366e-02,2.997009452263855317e-02,1.592434197664260864e-01
3.134116084786372491e-01,3.144580067034489224e-01,3.311033703595266386e-01,3.743619941113151064e-03,-3.767110721307335638e-03,3.802366343461398811e-03,2.058086916804313660e-02
3.085589449843060827e-01,3.400186179338645087e-01,3.062754487097148481e-01,1.372102899570772517e-04,-1.030553727381965448e-03,5.702260582387511274e-04,3.272585198283195496e-02
3.050642169128947589e-01,3.361900146265972000e-01,3.174167624699861245e-01,1.383807391184803436e-03,-1.836574221470474010e-03,3.613932443877952011e-03,2.814183942973613739e-02
3.113913581976069378e-01,3.149302517683691960e-01,3.249893400690449519e-01,2.169708725926934676e-03,-1.167713089624445580e-03,3.356686420791855571e-03,1.418882235884666443e-02
3.106705844083213486e-01,3.147334964311540029e-01,3.284138296438596782e-01,1.607558483134188939e-03,-1.558833118296330551e-03,3.468559974006329115e-03,1.761749386787414551e-02
3.116626156788249169e-01,3.281343172710495804e-01,3.145651673213127886e-01,1.558416657389242836e-03,-1.148309542873312411e-03,3.482855615105423606e-03,1.672018133103847504e-02
3.104384241249780740e-01,3.120447300290865034e-01,3.324376503601965127e-01,6.157208118110593957e-04,-9.396543675447644253e-04,2.142659890212428395e-03,2.165104635059833527e-02
3.134127922907739006e-01,3.143783334681096719e-01,3.254503661568846629e-01,4.054811633325286491e-03,-4.002754195471768840e-03,4.233520294041472759e-03,1.689293794333934784e-02
3.139572758735333924e-01,3.319407331805702688e-01,3.164790924205662659e-01,-2.859804181655256020e-03,4.452274471334901652e-03,4.954467263310743594e-03,2.102515660226345062e-02
3.173389733718851025e-01,3.378635454306419539e-01,3.029284173119742296e-01,5.123756304596023027e-03,-1.644162751584108328e-03,1.745106280421951676e-03,3.194835409522056580e-02
3.079064083123609352e-01,3.315574344448817823e-01,3.156280720852874255e-01,-2.154464037003399075e-03,2.438822010062265903e-03,5.084915588705926637e-03,2.336038649082183838e-02
3.173850882411098362e-01,3.179609832337781938e-01,3.228603875428011083e-01,-2.944949411011079429e-03,3.147282712046014109e-03,3.457969199321057029e-03,1.089790649712085724e-02
3.177125219278017498e-01,3.177828786906692904e-01,3.175956902011580762e-01,4.393729079597088766e-04,-4.590953114827772555e-04,9.830818912271567598e-04,2.034114208072423935e-03
3.136245360826453443e-01,3.251355907817688462e-01,3.172221861918148034e-01,-3.036158083048455438e-03,2.740098866660085550e-03,2.830763211723642120e-03,1.335116382688283920e-02
2.996730733847198791e-01,3.300964561590377655e-01,3.169325791189609443e-01,-4.500437827188830814e-03,5.701478708097978965e-03,5.045403739074975219e-03,3.054555505514144897e-02
3.105982051447105929e-01,3.198099233049037093e-01,3.220396247103731735e-01,-1.197084134198873537e-03,1.221574695087714827e-03,3.894708286356691161e-03,1.283155195415019989e-02
3.043776052570852375e-01,3.075674921364379144e-01,3.389026249354398224e-01,-4.445085018478355660e-03,-1.132576478621317214e-03,-2.555833331718338104e-03,3.427452221512794495e-02
3.083924531969828298e-01,3.027210042170432880e-01,3.411727663548895229e-01,-4.894354091927926274e-03,-1.197799881914508044e-03,-3.878221882248982476e-04,3.700331971049308777e-02
3.078543185352891620e-01,3.091546581744849531e-01,3.391500250965646113e-01,-6.981862956342748186e-04,-6.460055348563623848e-04,-1.506029779351131248e-03,3.082102909684181213e-02
3.086460025833415721e-01,3.088458253097743911e-01,3.442496744090322025e-01,-6.725419748450521887e-03,-1.020807201826397920e-03,-4.056885151763744567e-04,3.741471096873283386e-02
3.151282248963598875e-01,3.214846020704953955e-01,3.178320402560084745e-01,-9.480313362969232556e-04,-3.731070579648223043e-04,-1.541630643710273016e-03,6.385254207998514175e-03
3.108573560567991501e-01,3.312068943664733256e-01,3.125755725548016728e-01,-1.614708442411662281e-03,-7.370196057201463483e-04,-1.503615389031304162e-03,1.995808258652687073e-02
3.217475582980786619e-01,3.148138157736001808e-01,3.216763468147352256e-01,-1.075756381371244241e-03,-2.269395353327422881e-03,-1.001396971695920225e-03,8.337787352502346039e-03
3.395837481115413503e-01,4.034743409408079740e-01,1.791405302412946987e-01,-3.638110130736467440e-02,-1.087269432739211561e-01,-3.268063578393657492e-02,2.876009643077850342e-01
4.216504864406638853e-01,4.069603325735507426e-01,1.617694828405342178e-01,-2.081918874703843347e-02,-1.232823076946717444e-01,-4.216240979511915593e-02,3.408300876617431641e-01
3.168347170921354539e-01,3.359659419432299843e-01,3.004868192194031784e-01,-4.636845392610967724e-03,-3.691835975079434812e-03,-9.593416823316200815e-04,3.246789053082466125e-02
3.523281114881041676e-01,3.748949180698057382e-01,2.144660701893105204e-01,-1.664932716521590889e-02,-3.941050707359242816e-02,-3.884790344867465692e-03,1.678176075220108032e-01
3.091202603704069629e-01,3.284129895520369047e-01,3.172907077801399578e-01,-1.530150757271125234e-03,-1.682846047624677417e-03,-3.804888808809802313e-03,1.844686642289161682e-02
3.616033347466015568e-01,3.521512816142640112e-01,2.245135013723814632e-01,-4.893108824273901918e-03,-1.183476381519104649e-02,-1.816274674234522393e-02,1.380900144577026367e-01
3.005890728407065726e-01,3.171421820997198937e-01,3.409925373556356165e-01,-1.554834768620273061e-02,-4.817039431579232811e-03,-3.371954525418064015e-03,4.546006768941879272e-02
3.007028760851978011e-01,3.442303085985639610e-01,3.155859870129764100e-01,-1.807220045507502287e-03,-2.745901082645575524e-03,-3.005665899009522454e-03,3.908760473132133484e-02
3.128441921694434802e-01,3.353466048526536625e-01,3.106980084867992375e-01,-8.674151244320615125e-04,-1.638627784225300072e-03,-1.073004744776859991e-03,2.393795177340507507e-02
3.950123944914278318e-01,3.934878574141452146e-01,2.190727946513185143e-01,1.489967442990433859e-03,3.465960518460250300e-02,3.769452007132163308e-03,1.853159219026565552e-01
3.004411742093424098e-01,3.413229884672521752e-01,3.150190473396356494e-01,5.508361379117949087e-04,-3.013647540199602438e-03,1.806552357847678904e-03,3.641173616051673889e-02
3.115602274634075575e-01,3.220502636249484851e-01,3.197882678850064164e-01,9.469211698863537734e-04,-1.212778213982656107e-03,4.097667848917681092e-03,1.220262981951236725e-02
3.095450322650720731e-01,3.066299628930462262e-01,3.408016239936370595e-01,-7.547354883477448142e-04,1.026622221281266352e-03,5.606312851418034180e-04,3.289986401796340942e-02
3.286701659279869236e-01,3.071954900806495026e-01,3.196852095778267011e-01,-8.802157724978653189e-03,-1.173886860499355825e-02,-1.442394778812876310e-02,4.023592919111251831e-02
2.965909320471656896e-01,3.399555701087390580e-01,3.271206512349189577e-01,-2.230127962616167484e-03,-3.508324006324952012e-03,-6.306133480638903901e-03,4.074055328965187073e-02
2.498337325700354938e-01,3.481722226008487908e-01,3.547776922599414906e-01,2.098570077839269701e-02,-7.317352667785927307e-03,1.834039287105261855e-03,1.088833510875701904e-01
3.093327565377293475e-01,3.351409289788755963e-01,3.101540161584011024e-01,-1.426781579631657354e-03,1.569701977983172859e-04,-5.157531256239078488e-04,2.554447203874588013e-02
3.810760720161645576e-01,1.681237003953816311e-01,3.187761039434346966e-01,-3.854804913573030983e-02,-2.357454821867229280e-02,-1.164883581894232967e-01,2.877443730831146240e-01
2.963508407639124931e-01,3.374697789814494753e-01,3.257743385583082851e-01,-2.270980815794371426e-03,-3.492386997516126225e-03,-4.600626802774333141e-03,3.823880106210708618e-02
3.108575718734593041e-01,3.359815994851924614e-01,3.067903367451901286e-01,-3.713064001026014638e-03,-4.734774106852117186e-03,-1.759733521567377916e-03,2.945928089320659637e-02
2.318309317863462837e-01,3.422959655889083463e-01,3.376941776996388311e-01,7.078333122723455550e-02,-7.201386694554032242e-02,3.930037193682101027e-02,2.166512161493301392e-01
2.121273288247420008e-01,3.910110678756190117e-01,3.784646343669104129e-01,1.500815755979987287e-01,-5.347880153124848213e-02,4.929296215421017507e-02,3.366826772689819336e-01
3.089712610463194453e-01,3.415981204125587145e-01,3.048937644458274421e-01,1.501138723825298695e-03,-4.133994110898661124e-03,1.662328132860589310e-03,3.578398749232292175e-02
1.994455208830425708e-01,3.542873847962770273e-01,3.729725517539890234e-01,3.745127976736870729e-02,-1.068194068873505077e-02,5.841950235104876807e-03,1.785241663455963135e-01
2.569388922481340432e-01,4.386619169450592937e-01,3.992564872068038451e-01,-7.321623330975852995e-02,-1.219571882374658883e-01,-5.153257035489845067e-02,3.099749982357025146e-01
2.474481197485442763e-01,3.758388093022548837e-01,3.857607407276780198e-01,5.876274574256383498e-02,-2.446974380796025639e-02,7.816667388725290905e-03,1.737679094076156616e-01
3.078785278505897782e-01,3.411391922789004938e-01,3.025128299322023540e-01,1.925930729381641795e-04,-4.861220020558321836e-03,1.968568067180161737e-04,3.721090033650398254e-02
2.205956400023179054e-01,3.693767710416954175e-01,4.066327369121719437e-01,1.474996005320365899e-01,-8.080189047953258152e-02,1.487325825137674785e-02,3.385050892829895020e-01
1.951587389792878990e-01,3.854538115685267607e-01,3.745868219153926093e-01,2.777787918142468268e-02,-2.865449478220610455e-02,-1.114234651731719865e-02,1.985268294811248779e-01
3.158942913441086797e-01,3.281432100683842057e-01,3.130705235376080031e-01,2.466233897596573858e-03,-3.340558580154663333e-04,1.008064554337991664e-03,1.463653240352869034e-02
2.428136764702281125e-01,3.531371941025061023e-01,3.523139042341412730e-01,-6.040231891589890097e-04,-1.987259436801396602e-03,1.866784377015181032e-03,1.100205630064010620e-01
3.049979530683258333e-01,3.374332041380444513e-01,3.150525772699856453e-01,1.058738781769018051e-03,-2.414716637306411114e-03,4.115403060542946641e-03,2.997802011668682098e-02
3.046481275254134258e-01,3.384030554668148172e-01,3.077890650525135774e-01,-6.971057252850539673e-04,-3.828455736919075814e-03,-1.456562054807657115e-03,3.309127315878868103e-02
3.371253183773675888e-01,2.899319753692261026e-01,3.143928938980199428e-01,-1.682447988908210203e-03,-4.914321251268241597e-03,-9.262539773940692972e-03,4.482726007699966431e-02
3.407319237458873995e-01,3.176088419272058982e-01,3.015651500976885280e-01,-4.449443721974784619e-03,-4.125348510497908738e-03,-1.619060385980630040e-02,4.538625106215476990e-02
3.334496398554551710e-01,3.133358187953709240e-01,3.086731746178562052e-01,-3.452490282551549765e-03,-1.422079099987360110e-03,-1.906603742813687934e-03,2.393368072807788849e-02
3.095033936274500519e-01,3.391975595772961927e-01,3.076997141400642510e-01,1.486534934536728027e-03,-9.049191842526499354e-04,7.332099229896420385e-04,3.080997057259082794e-02
3.122447158055807193e-01,3.204376622741991754e-01,3.216564847592053855e-01,7.569626725810678358e-03,-8.020211399449297604e-03,5.503112788183213248e-03,2.311530895531177521e-02
3.334511066391884770e-01,3.113187744317552075e-01,3.120684988178152319e-01,-9.034008009050460090e-04,-2.165842987435852990e-03,-6.851850587537257819e-04,2.217517793178558350e-02
3.305737275723603652e-01,3.582712521587388399e-01,2.693369696409107505e-01,-4.672374811563702497e-03,-1.709903997301035969e-02,1.696749698516050774e-03,8.464314043521881104e-02
3.124804061741019434e-01,3.280442779056352842e-01,3.120157669190452010e-01,1.084284967046870779e-03,-7.412484459182543768e-04,2.466981413177665294e-03,1.652618870139122009e-02
3.553181935094674726e-01,3.644778332107576069e-01,2.461715051292920342e-01,-1.640307916692358443e-03,1.689509243919825113e-02,5.418370554004397523e-03,1.181064099073410034e-01
3.394267650904221334e-01,3.078199746195711684e-01,3.038518342200270950e-01,-1.975341124601278763e-03,-1.302651859510690208e-03,-4.446193222829192791e-03,3.487488999962806702e-02
3.157400104217121251e-01,3.240627522660699533e-01,3.143958974708545018e-01,1.886499450560424722e-03,-7.704612316323079064e-04,5.203439275659729659e-04,9.774002246558666229e-03
3.107635933346257762e-01,3.278611768018989681e-01,3.172673182727963059e-01,1.612785400946414351e-03,-2.150442226945354241e-03,5.047866557043881319e-03,1.793173514306545258e-02
3.170933689081316120e-01,3.196697310053772112e-01,3.176651376921112990e-01,-1.251041646618653198e-04,-3.078258945968829693e-04,8.317011987493027258e-04,2.810317091643810272e-03
2.680549525073344097e-01,2.860811649451983074e-01,4.882960782372153252e-01,1.918260663615272976e-01,-5.288937355827921100e-02,4.994454731303833717e-02,4.136761128902435303e-01
3.357194709438641178e-01,3.122510255569259097e-01,3.082457856360009130e-01,-5.818313190519272321e-04,-8.121435993052977505e-04,-2.024246349329040032e-03,2.600180171430110931e-02
3.396668840642673715e-01,3.091575422916617577e-01,3.075659493917045073e-01,-7.147890549017727607e-04,-7.007660661352024768e-04,-6.421442579239476992e-04,3.140309825539588928e-02
3.212475349703427518e-01,3.136618771366710412e-01,3.196330814695691469e-01,7.476820540979337622e-04,-3.563940018156263635e-03,7.020111795576338418e-04,9.442591108381748199e-03
2.982439758176584910e-01,3.191240475744559491e-01,3.500796161729493039e-01,1.558183011547478042e-02,-4.399129360273120251e-03,4.052347137082784774e-03,5.363097041845321655e-02
3.162907041833840083e-01,3.133854533340457160e-01,3.250076674303656876e-01,1.079891949264663977e-03,-3.294010006845291688e-03,1.176976133670804611e-03,1.224568206816911697e-02
3.186585876071449386e-01,3.239736560663130094e-01,3.151675349357467293e-01,-5.036064501248179934e-03,-3.464631137702122408e-03,-3.306480181101307224e-03,1.427893061190843582e-02
3.134812969399962679e-01,3.159796202147969746e-01,3.237795473295104198e-01,-1.278751990581177911e-03,-1.588680759369006344e-03,-2.196139608507662825e-03,1.065427809953689575e-02
3.129993484402654458e-01,3.214860788140082026e-01,3.199888295038486596e-01,-4.319435477356566434e-04,-7.823105667290342893e-04,-3.402111242182461349e-03,9.933701716363430023e-03
3.167357770324035204e-01,3.122382554339124816e-01,3.243410837823997861e-01,-1.675944399740768222e-03,-3.029878226471816299e-03,-1.217255842799209314e-03,1.235659420490264893e-02
3.300538736159991382e-01,3.076872740812560680e-01,3.145999373885080552e-01,2.000665730834762061e-03,-4.369839558573210617e-03,3.436787662001236990e-03,2.231963165104389191e-02
3.201795435202461904e-01,3.106728789802723489e-01,3.093662564114779134e-01,-6.435071454471404627e-03,-7.199025025749759485e-03,-6.929691160989473464e-03,2.298424951732158661e-02
3.482434626322563065e-01,3.256596014348065449e-01,2.871426199250717848e-01,-2.827131572395630114e-03,-3.844725155751258470e-03,-5.621241416010059645e-03,5.501426756381988525e-02
3.067942844833561611e-01,3.123764515351505344e-01,3.233815134674268288e-01,-1.501689940371287585e-02,-1.138340414957305161e-02,-1.084050499017880781e-02,4.039209336042404175e-02
3.273742685531937369e-01,3.476661075950610025e-01,2.804613660823943588e-01,-6.226554526692506695e-04,-6.657268057945088004e-03,-3.310595724469262086e-04,6.081922352313995361e-02
2.909823778083590051e-01,3.252978330993114287e-01,3.376671057973469892e-01,-4.447077928670710445e-03,-3.472355044426794594e-03,-4.567254588954677320e-03,4.373885318636894226e-02
3.221820899083534528e-01,3.197486022475616307e-01,3.154266812173698864e-01,-1.456476992640644112e-03,-1.173832365351537088e-03,-4.023285016262974400e-04,6.789803504943847656e-03
2.871598563487932632e-01,3.613584423353391473e-01,3.045849634596794475e-01,-1.430872047076588681e-02,-2.809047712521202736e-02,-9.803678067410477939e-03,8.823788911104202271e-02
3.208855265225390996e-01,3.272779498734784132e-01,3.049835102177675394e-01,-5.794964972227457066e-03,-3.213858326359119409e-03,-2.550334014894668853e-03,2.338019944727420807e-02
2.999963069536931703e-01,3.274004970270970039e-01,3.274321299832058663e-01,-2.581500948360863391e-03,-2.293465228769325705e-03,-6.397906689748710483e-03,3.017332404851913452e-02
3.107056069113478536e-01,3.408790796691348324e-01,3.046153914648402905e-01,-1.489226103436811595e-03,-2.566871325477366062e-03,-1.191495909875580142e-03,3.408769518136978149e-02
3.030684847098582546e-01,3.373843454053830349e-01,3.174576631916632974e-01,-1.326690040411816198e-03,-2.740959343101403035e-03,-4.588168198808785514e-03,3.133404627442359924e-02
3.769237590316895647e-01,2.236224018328658858e-01,4.809964332562127742e-01,-1.519053608330750704e-01,2.032965884833271009e-02,2.432571984096578918e-02,3.500396013259887695e-01
3.344115289922429679e-01,3.109883820105443508e-01,3.121669207620014763e-01,3.536817420228607813e-03,3.968358883301463177e-03,-4.691015547967218244e-03,2.594639547169208527e-02
3.056113227810542954e-01,3.326101745761064210e-01,3.173312367117336885e-01,-3.194520154070434968e-03,-2.492937747827380941e-03,-5.140935479569348765e-03,2.604643814265727997e-02
3.216132132971850077e-01,3.231517289785149072e-01,3.083794228819060623e-01,-5.412247336402973424e-03,-1.689883439547701502e-03,-2.328511445820555942e-03,1.762302219867706299e-02
3.102231659690782295e-01,3.060302874417828445e-01,3.361582439037079095e-01,-2.807147070463764452e-03,-2.914910634636499326e-03,-1.594977693361189454e-03,2.925257757306098938e-02
3.065019178960812773e-01,3.520068147881275644e-01,3.254615170428177828e-01,-5.459429304169323427e-02,-7.326422066214431650e-02,-6.202962759117523761e-02,1.953330039978027344e-01
3.343147507210630920e-01,3.108324266668947011e-01,3.090030695128078153e-01,3.486842450663372051e-03,2.978596530412952297e-03,-3.465604484827769678e-03,2.639782615005970001e-02
2.898697137487577513e-01,3.155255000329892368e-01,3.436814490809033118e-01,-7.596529927805408325e-03,-1.224266717095316617e-03,-1.899786410600055354e-03,4.859820753335952759e-02
3.440274318554640831e-01,2.756467438350571619e-01,3.297971163674043305e-01,8.107237324138028695e-03,4.717435234623854924e-03,-1.549381630447058122e-02,6.992468237876892090e-02
3.099627542230231625e-01,3.212366145964228870e-01,3.198126625243778443e-01,-2.039323044430600262e-03,-1.973488811886845318e-03,-4.717646799178499238e-03,1.428296882659196854e-02
2.981283586176349809e-01,3.443420144283076412e-01,3.155018128422767965e-01,-3.119462786423010843e-04,2.505617530484633131e-03,3.820785054813502848e-03,4.120157286524772644e-02
3.135791380516294025e-01,3.435606847534896646e-01,3.011332006287222307e-01,1.775543752177980632e-04,2.027554160030666224e-03,3.113502621443193326e-04,3.794286772608757019e-02
2.993426795276474262e-01,3.048322760617470650e-01,3.400377022297095264e-01,-1.333103956949388373e-02,-4.468551332128960045e-03,-5.312055759895378815e-03,4.626584798097610474e-02
3.119305749019922192e-01,2.919347433047157492e-01,3.394632911410252474e-01,-9.254087035409773454e-03,-3.911738768752618528e-03,-2.803116159295666529e-03,4.510892555117607117e-02
3.006842598902633168e-01,3.206043382545996634e-01,3.435917590582031611e-01,-1.442287952031035339e-02,-5.857449251001709684e-03,-6.060000344449281880e-03,4.712006449699401855e-02
3.092703665042077499e-01,3.281598954851946415e-01,3.201518432204343290e-01,-1.559471057635654920e-03,-1.885323259515335817e-03,-4.964586910942938268e-03,1.901513710618019104e-02
3.161911195025836618e-01,3.001966801973731669e-01,3.433068586988289317e-01,-1.574876425961945284e-02,-7.882296900838745837e-04,-1.198005172376239252e-05,4.659100249409675598e-02
2.845032015058969188e-01,3.590948577534367470e-01,3.272780945738936187e-01,-3.794878755469735174e-03,2.732602346997149365e-02,1.386052969219773914e-03,8.057330548763275146e-02
2.690379545400168881e-01,3.867576852956792766e-01,3.597894085061983382e-01,8.583743613371469516e-03,6.138464620963687834e-02,3.497739472029034492e-03,1.515667885541915894e-01
3.483166302192577390e-01,3.411154322174262954e-01,2.673038495225605327e-01,-2.676391266861325325e-03,-1.831872437802524282e-03,-5.528921543211694385e-03,7.845254987478256226e-02
2.640090341107303451e-01,3.275423788661158686e-01,3.490934532836069693e-01,2.501235768310089772e-02,-4.652618641174093711e-03,4.628462317113985099e-03,8.874800801277160645e-02
2.908324040674711841e-01,3.423582496601726977e-01,3.170988038293257594e-01,3.055614676094955528e-03,-6.021626620423224489e-03,6.671007564588844925e-03,4.755770415067672729e-02
2.891165812600176577e-01,3.158612202170448802e-01,3.490675259548485787e-01,-7.712651929058629563e-03,2.781550955441325514e-05,-9.755484460525704407e-04,5.373395234346389771e-02
3.097994179593588915e-01,3.030644931484974269e-01,3.430857396806792359e-01,-3.341886557588134594e-03,-1.397546647462797730e-03,-1.649389832107381662e-04,3.764259442687034607e-02
3.070882070682295351e-01,3.228464569572558895e-01,3.207853197480076690e-01,-1.948065520902253749e-03,3.366210952682781744e-03,5.128142147446680330e-03,1.855702884495258331e-02
2.783074417266281353e-01,3.850356673149543107e-01,3.434377630808902460e-01,-3.580937343727295941e-02,5.655042819904546048e-02,1.413463494785514515e-02,1.507374495267868042e-01
3.087758131265365136e-01,3.220273799394376968e-01,3.221374506207556054e-01,1.246241947925865552e-03,-1.406515261819597361e-03,4.396284265445661414e-03,1.567325368523597717e-02
3.109578468784733318e-01,3.283892671617896775e-01,3.201039581052823602e-01,1.523015086485783771e-03,-1.483819189745543650e-03,3.544747948869462605e-03,1.671333797276020050e-02
3.171414554544774167e-01,3.280104795209179969e-01,3.092898719035318544e-01,4.005248159111788296e-03,-1.956834023321505061e-03,9.612862793738274556e-04,1.809718087315559387e-02
3.173438736464969101e-01,3.335983322611245083e-01,3.073141303124091173e-01,4.544550138521800432e-03,-2.226351773164656541e-03,1.796530877830093513e-03,2.478593401610851288e-02
2.995123315095704064e-01,3.278357991016586648e-01,3.279232448655454157e-01,3.161876241364657957e-03,-2.835234366860301530e-03,5.910237782242770167e-03,3.104197233915328979e-02
3.344315778835994513e-01,3.204378574151346415e-01,3.019311304833408038e-01,6.597526116540249931e-03,-5.497570884903223848e-03,7.082791184379838394e-03,3.419138491153717041e-02
2.612167828759776600e-01,3.551774294424294154e-01,3.320938543072392002e-01,5.936625726397929065e-04,2.308439184886570614e-02,4.613302943991110655e-03,9.410674124956130981e-02
3.166030547992326194e-01,3.196437921751861810e-01,3.176715177704985127e-01,1.946196110611490750e-03,-9.397347174986039452e-04,1.226736013792554094e-03,5.066139157861471176e-03
2.874868598695040078e-01,3.290314396491862969e-01,3.304881598421631206e-01,-8.721521869206350433e-03,7.605389902656786716e-03,8.660967178703370128e-03,4.914621636271476746e-02
3.063264048524423355e-01,3.380231965121605620e-01,3.187172442037776721e-01,-7.618211964320555432e-03,1.214268190497755882e-02,7.958421245560816717e-03,3.964750468730926514e-02
3.133642261878885060e-01,3.242149581234861078e-01,3.152909870783028312e-01,-2.063824936092977565e-03,2.283910650792742286e-03,4.140699195627299371e-03,1.343156956136226654e-02
3.120182613353101320e-01,3.124275487579811772e-01,3.284933337693664024e-01,6.481995295723287707e-05,-9.269627532024482530e-04,1.032001214663235376e-03,1.645107753574848175e-02
3.154015225373886788e-01,3.126168718067504626e-01,3.284742224461510984e-01,4.345106129713236409e-04,-2.424725122479323095e-03,1.053883637874068920e-03,1.538144797086715698e-02
3.134131442085645314e-01,3.201142219797138977e-01,3.197833742008697189e-01,9.840920699903323195e-04,-1.093137889168287928e-03,3.977663016451557336e-03,9.836281649768352509e-03
2.914387855752846868e-01,3.428421028254288183e-01,3.171951145429115493e-01,-2.866191386185467857e-03,5.605078052433531792e-03,6.436469859250852112e-03,4.716894030570983887e-02
3.389277208653916351e-01,3.082191447395681849e-01,3.096113074617414251e-01,1.256614561938228182e-04,1.426928625822002994e-03,-6.473259057519060132e-04,3.015984594821929932e-02
2.884593610066957803e-01,3.499647777168427565e-01,3.094567171547370488e-01,-1.719919669612819278e-03,2.470945661237909652e-02,-1.102895813097153196e-03,6.911258399486541748e-02
3.329339717999423298e-01,3.080963420359583149e-01,4.546654285690131525e-01,-1.686047691622851175e-01,-5.365444893314306324e-02,-5.199933607836055433e-02,3.471165001392364502e-01
2.999867259709756429e-01,3.280181276322269301e-01,3.266553376918848173e-01,-2.594448573269421583e-03,-2.310560020885229007e-03,-6.326809473599438391e-03,3.009503148496150970e-02
3.377088533318718389e-01,3.258766952088386626e-01,2.893553239548550260e-01,4.730439894061942881e-03,-3.038205382193152112e-03,3.972008766543026932e-03,4.525583982467651367e-02
3.090736687812715155e-01,3.356226400098448748e-01,3.097664427663616715e-01,-1.372098377182723620e-03,1.776638381730805257e-04,5.364073699773856717e-04,2.633517049252986908e-02
4.188107114485689064e-01,1.908154760701163410e-01,4.592914832655736190e-01,-9.779834513900391435e-02,-2.551074432361652780e-02,-5.556597791433074557e-02,3.205598592758178711e-01
3.125064056693163117e-01,2.551401241977857004e-01,3.602184601445979073e-01,4.746340153434056019e-02,7.483427291257322908e-03,-8.818304544872600931e-03,1.243543699383735657e-01
3.003305292842590180e-01,3.162188639661868139e-01,3.411380534070401205e-01,-3.375899518466960684e-03,5.840594753121619706e-04,1.985771499018453620e-03,3.628185391426086426e-02
3.025127881849761224e-01,3.078794214555539144e-01,3.408378013815537289e-01,-4.305220856539053453e-03,8.241304866304273186e-04,1.468996782265434261e-03,3.682454675436019897e-02
2.899150557966562181e-01,3.429468019754410291e-01,3.314229712493937940e-01,-3.397673872158773339e-02,-3.117131557433979600e-02,-2.014795997751497869e-02,9.964971244335174561e-02
3.646639098316842853e-01,2.072375817367761996e-01,3.763840362970991005e-01,6.962689394679168675e-04,1.622860273204211915e-03,-3.660514219766573818e-02,1.754839867353439331e-01
2.435939988418527880e-01,3.532533681461853536e-01,3.529342181252460575e-01,-2.255419530273753553e-03,8.645193488561796289e-04,1.723773013350896402e-03,1.096207052469253540e-01
3.145458852861683918e-01,3.379969678165412605e-01,3.032460660398372809e-01,-4.205736318709703443e-03,2.515473432350583561e-03,9.937980250708335940e-04,3.190051019191741943e-02
3.045091199559405992e-01,3.162672806721120167e-01,3.378953976168367901e-01,-2.566547467686283984e-03,9.201853342056061282e-04,3.324100406156686813e-03,3.026197850704193115e-02
3.669080854768568267e-01,2.563550319886728213e-01,3.374533754183494660e-01,4.336790928539141499e-02,1.607675613337591902e-02,-3.250749914294010640e-02,1.393598765134811401e-01
3.036840821627058151e-01,3.276566154132437014e-01,3.203589583367342231e-01,2.898455965749091243e-03,-3.926579464387075155e-03,6.339000730122247400e-03,2.539686672389507294e-02
4.174103426840923836e-01,3.645006290292753248e-01,2.778730430018100384e-01,-7.687377834333833371e-02,1.197104211072372582e-01,1.577706193205920260e-01,3.876627385616302490e-01
2.859573040634620922e-01,3.424024053194526518e-01,4.731172502676777580e-01,-1.701728603862669442e-01,5.274931135294080864e-02,3.780144557992342474e-02,3.565969169139862061e-01
3.566552306485424317e-01,2.613041210974587081e-01,3.807364072663449450e-01,5.000939437080704347e-02,1.063819197234358582e-02,-2.286402630329307725e-02,1.462139785289764404e-01
3.996608619740139590e-01,3.708868902821946811e-01,1.273927121449766608e-01,5.117680326642344568e-03,8.241037538619698857e-03,-8.037145760287318919e-02,2.945924103260040283e-01
3.807244157233974913e-01,3.622347775397186664e-01,2.284733909680790043e-01,1.541718071480567553e-02,5.764537757884174822e-03,-4.057413382598574342e-02,1.626613438129425049e-01
2.144426894563355723e-01,3.787998495880254834e-01,4.789438755589994212e-01,-1.648836892447142488e-01,-9.254621018876965297e-03,-6.615027543125239114e-03,3.680347800254821777e-01
3.519136664586325347e-01,3.552350650008686550e-01,2.445929476346162812e-01,3.132339473549012330e-04,-2.462157524628453067e-03,-2.209763368609456331e-03,1.091712117195129395e-01
2.934183869281736246e-01,3.374738470163441972e-01,3.273158798705981809e-01,2.198951351667462282e-03,-3.499485895431262653e-03,6.030561763140490292e-03,4.191542044281959534e-02
3.567132579686947413e-01,3.492878756408130392e-01,2.517130605962115686e-01,-9.037749396036161417e-04,-3.537150909918977161e-03,-2.677545820769301754e-02,1.117643564939498901e-01
3.683919757799468675e-01,3.701945817297431773e-01,1.736034833029106439e-01,-2.111819823603575466e-02,-6.888741011466879838e-02,-5.452490379815638777e-02,2.505797147750854492e-01
3.139482583071887545e-01,3.152184493492113382e-01,3.251647568720890114e-01,-4.242378450795161824e-04,1.452909436971486180e-03,1.836992444880799699e-03,1.140931714326143265e-02
3.357880825552815862e-01,3.097392281975169248e-01,3.090844757936796472e-01,8.759184890040174528e-04,1.007768700392865481e-03,-1.657141802025001041e-04,2.648505195975303650e-02
3.748333982194476111e-01,3.690323797328617372e-01,1.983170745923569789e-01,-4.180642894957165012e-02,-5.680768892783766982e-02,-8.429479502487796649e-02,2.576998174190521240e-01
2.736270844395240487e-01,3.443234829104647732e-01,3.505239636494899003e-01,-1.372167436055042079e-02,-3.775214610277238293e-03,-6.068154862196222053e-04,7.799674570560455322e-02
2.852810802928249512e-01,3.494537816951311937e-01,3.261357620222953835e-01,-6.682464667124903219e-04,-5.741264536082131206e-03,1.081815103965289796e-03,5.717711523175239563e-02
2.464129543967477076e-01,3.475198224160868099e-01,3.560885336680759683e-01,-1.122053650845771834e-02,-3.675634419957356323e-03,-4.271651360115967869e-03,1.078672781586647034e-01
2.588718583793841455e-01,3.461147807836270074e-01,3.520823447722523647e-01,-9.220685951964758056e-03,-8.960328406682179295e-03,-6.503904371815088722e-03,9.375710785388946533e-02
2.521072407466249388e-01,3.476163853143173776e-01,3.522407561632038830e-01,-9.535123916606495081e-03,-2.512323054922140954e-03,-2.499556053714553638e-03,9.947605431079864502e-02
2.306025760374711686e-01,3.639443751429268792e-01,3.871223885183190383e-01,-6.265822439759469176e-02,-3.903518139290262923e-02,2.092850785359732374e-03,1.943460553884506226e-01
3.364390415400494438e-01,3.125682566848186350e-01,3.092849206626984149e-01,2.425786420551514708e-03,8.902509256069345055e-04,-8.130798888564108639e-04,2.609568461775779724e-02
2.732043022152550460e-01,3.296257023360807947e-01,3.425998058259039913e-01,-2.279892489413875775e-02,-1.089224778247124131e-02,-6.456189573706912904e-03,7.825638353824615479e-02
2.684701552867645447e-01,3.237456360965935143e-01,3.474333697858871250e-01,-1.577509053051944637e-02,2.641489145494457964e-03,-4.851618236710703806e-04,7.545884698629379272e-02
3.301450952884941170e-01,3.194319947464973053e-01,2.985592287508120335e-01,-6.679987727554325024e-03,-5.487189914169993132e-03,-4.875364702474908191e-03,3.270408138632774353e-02
3.883586619682632968e-01,3.542726636423434439e-01,2.641008819934493324e-01,-1.867173635856957462e-02,3.751214574131737922e-02,5.534449689815921364e-02,1.637767553329467773e-01
2.779037168094506405e-01,3.402614739899304519e-01,3.418422604778086904e-01,3.659930140233636810e-03,-3.522962085963746680e-03,4.371468042179461194e-03,6.422080099582672119e-02
2.621565821832193555e-01,3.534805083971445661e-01,3.412962011253395933e-01,8.993531374751736942e-04,-4.911983206805243043e-03,1.375584236877622343e-03,8.634977787733078003e-02
3.921400564918701148e-01,2.558145570616618958e-01,2.217587636147139996e-01,7.375812983265439375e-03,-7.697380870881847734e-03,1.503606691336596968e-01,3.042253553867340088e-01
3.093480831513606977e-01,3.174647529416432801e-01,3.278900613555002508e-01,2.273297837046771817e-03,-1.605713365358144495e-03,5.304328904536669172e-03,1.915287226438522339e-02
3.488859959694516899e-01,2.730153741010363788e-01,3.287128144531616947e-01,2.161204188971505014e-03,-4.170069913589613021e-03,1.182648907609604866e-02,7.154393941164016724e-02
3.175128370860571536e-01,3.061020919224084480e-01,3.347178389509899987e-01,2.199438008131781447e-03,-4.431524556923979209e-03,1.766844147639993817e-03,2.655809000134468079e-02
3.194852922203821888e-01,3.118333524815949942e-01,3.256382680514975370e-01,1.720436236427379077e-03,-4.448018341151173047e-03,2.017856679109935984e-03,1.496472675353288651e-02
3.092974981640868037e-01,3.090564512762596916e-01,3.353956031594033660e-01,2.505360954970089972e-04,-5.971344381383432388e-04,1.087446561032981516e-03,2.631094306707382202e-02
3.511637122795029375e-01,3.021557900744936687e-01,3.142976253249200047e-01,-1.117935299759465319e-03,9.878051350783862133e-04,1.627627885585663375e-02,5.249364674091339111e-02
3.088980121215295638e-01,3.047350876888198501e-01,3.415413227548358410e-01,4.731505245884205790e-03,-1.376431683204311276e-03,1.709769366971495164e-03,3.606136888265609741e-02
3.360799155499149538e-01,3.096093103479659603e-01,3.050293032804041737e-01,2.976909742723278084e-03,1.146622375878315371e-03,-5.534671169424502761e-03,3.106980770826339722e-02
2.912317161326915538e-01,3.275808576739850930e-01,3.393704207936376060e-01,-4.806168268735691237e-03,-3.205021273087451262e-03,-6.346239605120937780e-03,4.593182727694511414e-02
2.889008540614815268e-01,3.147770999960958216e-01,3.433646495881915728e-01,-8.172038462063480752e-03,1.099153717145418202e-03,1.002299901769016129e-03,4.933103919029235840e-02
3.186585171460277754e-01,3.034755366824782308e-01,3.423147048424989292e-01,-1.427002505488560863e-02,5.694020529480355551e-03,4.996023730424166941e-03,4.395857825875282288e-02
3.383635438791000039e-01,3.043379284871825519e-01,3.081546645455828792e-01,1.172532102698661425e-03,2.126758039542363601e-03,-3.538861525379965577e-03,3.313167020678520203e-02
3.121103997767734617e-01,3.020501240026060574e-01,3.309946052295590357e-01,-1.806855541041037239e-02,1.253522798242567675e-02,1.329667965954903046e-02,5.127398669719696045e-02
3.042971236132483992e-01,3.269664896313612124e-01,3.269202360453293266e-01,-1.932613923086888303e-03,2.373889672588320662e-03,6.496976574670017095e-03,2.583789639174938202e-02
3.161928424437539520e-01,2.968042776162589935e-01,3.420254632509844850e-01,-1.064624065834837360e-02,5.594593708713993009e-03,4.887302670249065936e-03,4.527340456843376160e-02
3.725278566744905095e-01,3.228015505472571767e-01,2.708167794638006165e-01,-2.404152983003853342e-02,1.438676883561721721e-02,5.874047385309068975e-02,1.430607736110687256e-01
2.953113357716716791e-01,2.813697597752550794e-01,3.471491988146083174e-01,-5.396417668810574858e-02,2.527502368203988353e-02,2.574450067388162761e-02,1.274576336145401001e-01
3.182850397138284326e-01,3.173075577482645793e-01,3.178794011699871969e-01,2.089845483423139957e-03,-1.964001117945055139e-03,1.470421610638302694e-03,5.646608769893646240e-03
3.186085305506559662e-01,3.181097412166916660e-01,3.177181010966762531e-01,2.416074138030034927e-04,-1.713651031840655501e-04,6.980685805109092929e-05,9.356057271361351013e-04
3.464669857024397226e-01,1.287929239133061565e-01,4.945404291240420580e-01,-1.098971579884390204e-01,3.405650340665061088e-02,-6.447004202226833472e-03,3.759998381137847900e-01
3.097986364114315161e-01,3.036557530533824378e-01,3.405273434007148325e-01,-2.970662628282763704e-03,-1.226743241012029752e-03,-8.475048370647540004e-04,3.469719365239143372e-02
3.178336093126847284e-01,3.188992518520644692e-01,3.186867031119587912e-01,4.388402691447096317e-04,-4.585554825847667744e-04,-5.482769029175473501e-08,1.470656949095427990e-03
3.185688184675937729e-01,3.180702106807025697e-01,3.170347618198542938e-01,5.708170701617271700e-04,-4.933697896576511293e-04,3.989877953076448889e-04,2.005581744015216827e-03
3.511552325064410951e-01,2.271940526349196798e-01,4.770519280809842888e-01,-1.610625188031299670e-01,3.822596860563980820e-02,3.993114962536008922e-02,3.658049106597900391e-01
2.171431424232333485e-01,3.812316413586090968e-01,3.509077333797955833e-01,1.642862246708843774e-02,-7.597972420454607301e-02,4.653348698303804397e-03,2.026380598545074463e-01
2.657390329834843357e-01,3.418937357916735365e-01,3.533938730701499109e-01,-5.758051704956895951e-03,-8.206773192221309505e-04,1.742987909259847035e-04,8.312135189771652222e-02
2.840918286346128530e-01,3.251169978107095737e-01,3.436701746708534233e-01,-6.452452305461918794e-03,1.191698969409087658e-03,3.554588072729933206e-03,5.436451360583305359e-02
2.722706467401356245e-01,3.421890938343156163e-01,3.391771881496080110e-01,-4.610242022369738513e-03,-4.518213331223606792e-03,-5.137105659513667086e-03,6.993746012449264526e-02
3.577883609472484738e-01,2.958231573569649608e-01,2.745107350729116269e-01,-4.235159406232518603e-02,6.462306164201310488e-02,1.232643009482349838e-01,2.628805637359619141e-01
3.081957811122325031e-01,3.408721253686802788e-01,3.069889477476890893e-01,-3.472993467962267960e-04,1.179506500864340108e-03,2.867938230485979475e-04,3.336790576577186584e-02
3.168803523526408372e-01,3.178432055028124759e-01,3.195304424309987623e-01,3.166199349581403939e-04,3.179546723581915007e-05,8.602531478718326765e-04,2.814657986164093018e-03
3.181504560055548048e-01,3.196950934273842249e-01,3.170750707062229834e-01,7.133609068478931250e-04,-5.155578513378080135e-04,-6.831591774405788888e-06,2.743652556091547012e-03
3.520399504202379459e-01,2.622504812271472807e-01,3.397839150776198469e-01,-8.066006731480623165e-03,-2.526863332612912759e-03,-1.459727168901673450e-02,8.924950659275054932e-02
3.491803076613665957e-01,2.775613730273723267e-01,3.410995679635580036e-01,-2.004143855948368504e-03,-3.909597781195210849e-03,-6.581934738476320247e-03,6.930877268314361572e-02
3.176021689630731393e-01,4.671477862116129032e-01,3.035657536122884914e-01,-1.686025128228991338e-02,-1.522601001253237885e-01,-2.334054554249874805e-02,3.109607100486755371e-01
3.539743459492010746e-01,2.454041678381560510e-01,3.521126577074059072e-01,-7.907017094560711383e-04,-9.247168305946812644e-04,-1.365535207243669460e-02,1.102391630411148071e-01
3.878768210593045440e-01,2.191236772592440318e-01,3.494821845805808347e-01,-5.449002349888244778e-03,-3.178203187337736574e-04,-2.800303645838485289e-02,1.609796434640884399e-01
3.928403606701931783e-01,2.527268123353999529e-01,3.677633796092203977e-01,2.137050533912329686e-02,7.565229359460317118e-03,-4.762498885925263437e-02,1.584084928035736084e-01
3.546783391222866899e-01,2.144277013855436231e-01,3.486105306659033065e-01,-1.383751905263496534e-02,-6.301003609109239074e-03,-3.040860264689175529e-02,1.494109630584716797e-01
2.994553698951626930e-01,3.152498753917565288e-01,3.439119691244036381e-01,3.011052444650989812e-03,-1.981247807913200017e-05,8.738551340517145948e-04,3.941036760807037354e-02
3.114174185350853108e-01,3.130549958160893098e-01,3.320440133709471331e-01,-8.849471131492165276e-04,9.972172323300311936e-04,2.612995109839629047e-03,2.049820497632026672e-02
3.120282676365053187e-01,3.394689202207522571e-01,3.043840652079016773e-01,4.320335946417487583e-03,4.004707895893438140e-03,-1.061012858449588390e-03,3.359570354223251343e-02
2.958392525495961989e-01,3.188542080626409203e-01,3.369291367118258940e-01,-5.284749565544981549e-03,1.991499682060418001e-03,5.728435197983022809e-03,3.829508647322654724e-02
3.422996165340712049e-01,3.527671958724436507e-01,2.679180975406811327e-01,-1.954081661608883763e-04,-6.788115348390886400e-03,-1.189622489023544954e-03,8.101463317871093750e-02
3.156277810139518913e-01,2.993921182228323485e-01,3.442486944290553685e-01,3.158553936995341701e-03,6.026032693831010617e-04,-2.880304199297403458e-05,3.972976282238960266e-02
3.031464226108320226e-01,3.041592392785319454e-01,3.406779859698693680e-01,-1.116451413826475766e-02,4.406215552276731076e-03,2.861737012107718955e-03,4.275960102677345276e-02
3.226505346535460950e-01,3.137704810663481392e-01,3.324602091330492448e-01,-8.702649792325116776e-03,7.625625259618419235e-03,6.954479332470558418e-03,2.844202332198619843e-02
2.900178500880892796e-01,3.130970327984024526e-01,3.404844197144780704e-01,-8.865997236645101545e-03,1.978710719048888851e-03,3.109735053017468644e-03,4.681208357214927673e-02
3.094755743356779609e-01,3.062766939047641412e-01,3.412285547675312225e-01,1.192959491628764338e-03,-1.144356218622077492e-03,3.849017313394491172e-04,3.359614685177803040e-02
3.157120726372900643e-01,3.020678181712932453e-01,3.360543388117885333e-01,2.591261028150062228e-03,-2.736561029070008321e-03,1.112853191014720336e-03,3.039496764540672302e-02
2.281780585161826136e-01,3.820584409448855023e-01,3.635324108213735528e-01,3.315653340085177730e-02,-6.041538695598232603e-03,4.725767226444057591e-03,1.569909602403640747e-01
2.490267861345609735e-01,3.587602849384257109e-01,3.534362786988584637e-01,-7.072522183756948383e-03,2.473716242056861470e-03,-3.652768075857486854e-05,1.079536378383636475e-01
3.499868328184597699e-01,2.636465737492355021e-01,3.406790095895498305e-01,6.841916908081151476e-04,2.995928920741331401e-03,-5.918512183988716528e-03,8.289182186126708984e-02
2.560254882724136150e-01,3.507782407049909734e-01,3.524221506321653652e-01,1.043365715360972156e-03,3.606364270605552647e-03,-1.087788522825911377e-03,9.582476317882537842e-02
2.549604277097122784e-01,3.411702512476025295e-01,3.582397104872763749e-01,1.268846946420825079e-02,7.562071900955221956e-03,-2.521727101533233293e-03,9.934122860431671143e-02
2.346632473892529547e-01,3.486932004626272508e-01,3.624497362957459501e-01,2.367537211929024096e-02,-8.725234294198715851e-03,2.426415309925687887e-03,1.291833966970443726e-01
3.049310804417690868e-01,3.156566457284924465e-01,3.379987361972646709e-01,2.596557250351818908e-03,-9.839571281441124393e-04,3.792362650981520936e-03,3.033339977264404297e-02
3.030605405983217149e-01,3.079908997514382851e-01,3.416216572318466760e-01,4.417487303268424585e-03,7.357921592644471489e-05,-4.599743123488447437e-04,3.715294972062110901e-02
3.529104905606148535e-01,3.418885810098742928e-01,2.655445203056225889e-01,-7.920562958482331396e-04,-7.526486754012493268e-04,4.990479798488864360e-03,8.288335800170898438e-02
3.215234385588764954e-01,3.196921155028338291e-01,3.154209902185066694e-01,1.576142929671861884e-02,1.169611228280790366e-02,-1.760497669319257760e-02,4.598791897296905518e-02
2.066078052171106683e-01,3.562949650305912153e-01,3.615092807594768587e-01,1.166685841425709261e-02,-7.090795652574578140e-03,3.808294771265325306e-03,1.543264240026473999e-01
2.873216860680782303e-01,3.300119320419826474e-01,3.401582725891012515e-01,2.163990223587905146e-02,1.069053922087091942e-02,-9.505888810642229222e-03,6.616161763668060303e-02
3.361964202028108195e-01,3.547945720239615297e-01,2.707278188669599017e-01,-3.747884039926341359e-05,2.307048359361347015e-02,-8.357799838649948923e-03,8.749815821647644043e-02
2.868083079203877506e-01,3.257117106510830640e-01,3.440239279485640123e-01,-4.856005071046888034e-03,-1.934133765626497737e-03,-2.230286392369972381e-05,5.141192674636840820e-02
3.303846743389437512e-01,2.956985977892311879e-01,3.429428141233585858e-01,2.343073343706380054e-02,5.383539454286209898e-03,-1.052663848410714635e-02,6.215142086148262024e-02
3.314794076062520523e-01,2.878569273963367814e-01,3.314846850097150077e-01,7.737766254147168676e-03,8.732531514063900796e-03,-9.463231644932387776e-03,5.079566687345504761e-02
2.863948540565842138e-01,3.431027615548095655e-01,3.265296693577967035e-01,4.663083924285689810e-03,-4.863075375999122152e-03,5.514317486197238202e-03,5.270705372095108032e-02
3.332874146408709715e-01,2.736075278786980758e-01,3.460304397863391279e-01,1.697187897245719737e-02,7.440253593902193888e-03,-1.835621427211856990e-02,8.078139275312423706e-02
2.872178485261681069e-01,3.257839136628489785e-01,3.502579335305979202e-01,-4.840552920302496238e-03,-1.719166923123066322e-03,-2.843655052942713635e-03,5.597860366106033325e-02
2.698087607160365997e-01,3.910138490150555368e-01,3.385367424627042099e-01,2.438766034445340181e-02,-5.732245306376016619e-02,1.472298230127672830e-02,1.528927385807037354e-01
3.136209424111353616e-01,3.439319248245859550e-01,3.014706795431008057e-01,-1.029947481978589876e-03,2.631663295532353161e-03,-6.712014973725611731e-05,3.819219395518302917e-02
1.172020103253786361e-01,3.625368959250860890e-01,3.892304796555095536e-01,-8.006022935913591210e-02,-3.385247568567551521e-04,-1.022226879295335539e-03,2.944197952747344971e-01
3.624144336190275317e-01,2.280308021316043154e-01,3.948387052646137318e-01,-6.814501663094782447e-02,4.481122134703058313e-02,1.237686566956719691e-01,2.989631891250610352e-01
2.966783981804454462e-01,3.375126098341916236e-01,3.171000418819205358e-01,-2.552220197910099343e-03,5.186661440864392264e-03,5.631171364658720674e-03,3.802565857768058777e-02
2.716486241174631000e-01,3.429514736993067858e-01,3.301188710396190107e-01,7.046147594741132211e-03,-1.148582077981369354e-02,1.136942745096662308e-02,7.256913185119628906e-02
2.876486582323571906e-01,3.465278241217614741e-01,3.357118571888332292e-01,1.478034538491689379e-02,-1.748785266945145078e-02,1.210802729853835760e-02,7.042421400547027588e-02
2.593005326352456619e-01,3.627247220541159334e-01,3.343678287896468815e-01,7.981020477229296139e-03,-5.192749906907066781e-02,2.265724734909512275e-02,1.356039345264434814e-01
2.564073386306240376e-01,3.412586351650160332e-01,3.495778055285840291e-01,-4.594656300805502816e-03,-3.113974417572186286e-03,-1.304392246665937597e-03,8.984637260437011719e-02
2.568579635900130054e-01,3.443341493118726726e-01,3.466739506968314899e-01,7.045535560344257445e-03,-1.034029633857291505e-02,8.149966375931799387e-03,9.236440807580947876e-02
3.263806210297470201e-01,3.280235691658640595e-01,3.023392532958008028e-01,5.798255916565413400e-03,3.100233990882791165e-03,-2.426523600682902598e-03,2.770456857979297638e-02
3.238662078561364566e-01,3.180191544234864387e-01,3.180956922162725964e-01,2.990818792865630044e-03,-3.959105988105542789e-03,2.232455416081342934e-03,1.107052341103553772e-02
3.127394950504343574e-01,3.358758747078490758e-01,3.096078977215419026e-01,2.516823943830258370e-03,6.307670403889818322e-04,-9.241652966902071369e-04,2.530438452959060669e-02
2.859107710442983508e-01,3.260442444005849927e-01,3.437870094268365984e-01,4.348142092972097188e-03,-1.288212463972801753e-03,2.896407065478004677e-03,5.219621956348419189e-02
3.326163886371681921e-01,3.140620033743025119e-01,3.087254340940534525e-01,4.047530012417789591e-03,-1.139825067910108219e-03,1.811278321670536495e-03,2.312246151268482208e-02
2.429973950959159468e-01,3.540730260872372304e-01,3.538621332030152389e-01,-2.925736160593353464e-04,-2.529111257661273513e-03,7.389501308156982712e-04,1.110652908682823181e-01
2.788990686522111462e-01,3.409878377423151141e-01,3.394785053922620977e-01,4.937438880112496493e-03,4.284916088068494062e-03,-4.910516844850091114e-03,6.296139210462570190e-02
3.135368032646758119e-01,3.175606000246734562e-01,3.299301672030348631e-01,2.247833850592115615e-02,2.013650341261205914e-02,-2.824369528496640039e-02,7.310507446527481079e-02
3.281040071000652647e-01,3.141680473288870901e-01,3.097617662197904020e-01,3.587359862572620135e-03,-1.767308708132810189e-03,2.407893030352741513e-03,1.845002733170986176e-02
3.242128184951299508e-01,3.156935067976118225e-01,3.141512327515369463e-01,1.803288665399844278e-03,-8.032672412168543035e-04,3.935385343444723952e-04,1.001260615885257721e-02
3.344442922050422373e-01,3.219146238745132504e-01,3.035830664848984117e-01,6.445513531585948808e-03,-5.858686001989057458e-03,8.938643252979289883e-03,3.449683263897895813e-02
3.159550103541621247e-01,2.981951074527898204e-01,3.441805324240691522e-01,2.990865599537988802e-03,-2.088109149644593043e-03,9.753390716969517413e-04,4.069578647613525391e-02
3.436955469758462001e-01,2.872773689758131854e-01,3.027487904146713982e-01,8.077514915190233541e-03,-7.907140643442207503e-03,2.946485465242139334e-02,7.441335171461105347e-02
2.973848736090368705e-01,2.852145611532590497e-01,3.512348866096542399e-01,5.438896272265393572e-02,-2.723470667787303637e-02,2.317896854071293394e-02,1.281201392412185669e-01
3.119551209764276356e-01,3.142201259140575687e-01,3.404383549362916539e-01,3.355030602018609781e-02,-1.715891180757819767e-02,9.567520986174901654e-03,7.270953804254531860e-02
2.665425439610689118e-01,3.406768091833569101e-01,3.527892784441341578e-01,4.972614567845148707e-03,-5.865320362737270381e-04,9.524071456956057034e-04,8.135406672954559326e-02
2.765341274433828489e-01,3.409195127992832863e-01,3.478170671226948896e-01,4.779362929817573304e-03,1.099418471748766796e-03,-1.219533433711548305e-03,6.865690648555755615e-02
3.091436280766590161e-01,3.063072362807278126e-01,3.397754785698796076e-01,1.477663030749539787e-03,6.038138232956810061e-04,-1.297580232588919371e-04,3.226350992918014526e-02
3.497653366646611417e-01,3.494190539925049466e-01,2.732644043136804313e-01,1.521541517751466869e-03,-6.713252952034298032e-03,1.223277683841779949e-02,8.010675758123397827e-02
2.880252303482850884e-01,3.607539027536493248e-01,2.917875275917279909e-01,7.776355324655636128e-03,-5.138540278002974582e-02,4.837047834697562505e-03,1.149041876196861267e-01
2.822504802348471120e-01,3.307317947459221807e-01,3.397963764145033316e-01,7.776531184107125100e-03,-3.320125944113907004e-03,7.193754360460789810e-03,5.693690106272697449e-02
3.482222220725046391e-01,3.604398700112778076e-01,2.706600351298741325e-01,9.825166898859878650e-04,-1.740306928289700461e-02,1.817802195387621753e-03,8.963370323181152344e-02
2.996126395305221957e-01,3.362090099646858898e-01,3.151297675713701785e-01,-1.408139835466883701e-03,3.148356274463886238e-03,3.457494370039363059e-03,3.292040154337882996e-02
3.156093900842955047e-01,2.991965169024038973e-01,3.410596069093145277e-01,3.127198183776362488e-03,2.036878599308829772e-03,-6.567455018931690888e-04,3.711988404393196106e-02
4.427505166915789991e-01,1.800660276309196117e-01,3.994161029519515127e-01,-3.346648787745657577e-02,2.796870319820560224e-02,5.312511610321612315e-02,2.714246213436126709e-01
3.418948998204672240e-01,3.359733796952439344e-01,2.728786520758988421e-01,1.076839200041414778e-02,-6.423283713279071341e-03,1.193470750909498244e-02,7.272268086671829224e-02
2.781932792612068495e-01,3.330691447627198154e-01,4.001656790204125014e-01,-7.323936915731257824e-02,1.268054508320093279e-03,-6.695654368168125863e-03,1.656098514795303345e-01
3.147116799858323821e-01,3.004731269616026101e-01,3.443907916392144886e-01,-2.277826897834135320e-03,2.901413035852011286e-03,1.395074727824178800e-03,3.940599411725997925e-02
4.596622577601663373e-01,3.053197914804325896e-01,3.466453197783477824e-01,-2.926162809180784044e-02,3.756489172069518712e-02,1.506900186477489745e-01,3.067175447940826416e-01
3.737773591589211852e-01,3.275166140785357172e-01,2.249542873284114397e-01,1.017008613570585633e-02,-3.931902250106372038e-02,6.162762185879112897e-02,1.837003976106643677e-01
3.583410264123911282e-01,3.486925544145728639e-01,2.683864128970805951e-01,1.012491630481951064e-03,-2.900460165073786341e-03,1.395789176796343248e-02,8.904932439327239990e-02
3.529538655111345569e-01,3.127982757917238676e-01,3.099167176308627591e-01,-1.323887977319266641e-02,1.392395969744489835e-02,3.033656851745310246e-02,7.486549019813537598e-02
3.568642175955576423e-01,3.439712374526279759e-01,2.574010018328072302e-01,3.431677603539392239e-03,4.334421520484695901e-03,5.980652113161063349e-03,9.474058449268341064e-02
3.004455092250068460e-01,3.152680165391298361e-01,3.439756393334861828e-01,-3.620474979782899606e-03,-5.193831319072072275e-05,1.143172820048074826e-03,3.889222815632820129e-02
3.044192478263075818e-01,3.278793169939979157e-01,3.280422523006126800e-01,-1.706524626166556384e-03,2.089080651458012639e-03,5.586079806752002747e-03,2.587790973484516144e-02
3.044963422641009387e-01,3.176376575044098649e-01,3.363151534868243364e-01,-2.219746259099494336e-03,1.313494048427552669e-03,3.418016468196440668e-03,2.867047302424907684e-02
3.499496672402510611e-01,3.430086918766500625e-01,2.598953034211159419e-01,3.375238172102201870e-03,-5.086733788335270727e-03,3.856874321796893539e-03,8.768881112337112427e-02
3.498348673859582592e-01,3.544253681245278509e-01,2.482246854193156937e-01,4.879622711754379519e-03,-9.087006909568384055e-03,4.696018396466009916e-03,1.058180257678031921e-01
3.221847845174732883e-01,3.102328274945267972e-01,3.293076090009190993e-01,7.582446575757762278e-03,6.844347928592125693e-03,-6.826206479519076817e-03,2.704667486250400543e-02
3.789557907030585149e-01,3.120934419956038486e-01,2.275874442577693613e-01,1.556561466739159530e-02,-7.858813924690979252e-03,6.104415662988782465e-02,1.713284105062484741e-01
3.060611376952068752e-01,3.174436384064310834e-01,3.313054741067498754e-01,-1.652362849618846949e-03,1.872935822147598316e-03,4.561397251938588936e-03,2.367758005857467651e-02
2.945433892172932278e-01,3.254454211959022514e-01,3.396450336249031698e-01,-4.643615739928156315e-03,1.711163215772009555e-03,5.161807676600785842e-03,4.181827232241630554e-02
2.526439903219679373e-01,3.531701043020972763e-01,3.424521667196309682e-01,-1.785780651938768861e-03,5.395338228449999760e-03,6.092370491517180636e-04,9.612986445426940918e-02
3.765479813254337671e-01,3.810890903830481680e-01,2.281000395814912207e-01,1.731493583026270933e-02,-4.407732906552416091e-02,4.031315324235090064e-02,1.852966099977493286e-01
3.177915514281415832e-01,3.373960822874248477e-01,3.048799962032011646e-01,5.301090077929260756e-03,1.479726340679172591e-03,-1.658579125503719266e-03,3.005489893257617950e-02
2.890290837267313617e-01,3.308611928223931797e-01,3.298700285464993831e-01,5.944321484899489291e-03,-6.988798744152676171e-03,8.755351820079299366e-03,4.681825265288352966e-02
3.264676467750668998e-01,3.271074105472775995e-01,3.006343992976849844e-01,-6.628148487785217105e-03,3.420764233594598275e-03,3.011508934755562431e-03,2.963785827159881592e-02
3.865473704729324167e-01,1.621807094445809061e-01,3.921551613057051577e-01,-9.198939580288011814e-03,1.968973799574722568e-03,6.326260978219580555e-02,2.527884840965270996e-01
3.134032028321506735e-01,3.412274107096774367e-01,3.003536483368250409e-01,7.487707618363125157e-04,2.601660628053237018e-03,-1.076102697193165401e-03,3.651072084903717041e-02
3.721897796478376708e-01,2.144588061500096177e-01,3.636883983927338693e-01,-3.076019085287760163e-02,8.891947236311583888e-03,2.946690220600043948e-03,1.634387373924255371e-01
2.252561268305801889e-01,3.502866591528637219e-01,3.826030255164952765e-01,4.066513152650184232e-02,2.659000704692158264e-03,-1.036948943916398032e-02,1.613141745328903198e-01
2.650652126021167954e-01,4.049700718214085393e-01,2.370756167265188896e-01,-2.873098181363287207e-02,1.367781499780201526e-01,1.068307489475574766e-02,2.884722650051116943e-01
3.534686586716310752e-01,2.346536185147757303e-01,3.627830091139959134e-01,-2.330598383996850681e-02,3.204995448346700023e-03,7.247973991526995060e-04,1.302779912948608398e-01
2.505306054414058181e-01,3.506407912712164454e-01,3.547849129994370410e-01,1.866292112052109209e-03,2.064853890450988293e-03,-2.317136050313018422e-04,1.023596227169036865e-01
3.556379957689536631e-01,2.511727101237730131e-01,3.634294792738780866e-01,-8.000117291182674492e-03,1.643468579862597534e-03,5.918414691894347684e-04,1.094933897256851196e-01
2.523409006062559690e-01,3.498248926657612223e-01,3.414910107952945917e-01,-9.568501627563706386e-04,5.203392281403905646e-03,2.563119264220771985e-03,9.414798766374588013e-02
2.852497596245096023e-01,3.354888321885478031e-01,3.105705150570454709e-01,1.217815034267829416e-02,2.582058244460756075e-02,-1.319759049407782762e-02,6.971780955791473389e-02
3.157130467006264984e-01,3.044535022622844034e-01,3.377184953278550283e-01,2.949793144450132010e-03,3.899423313023783061e-03,-9.518899591834013591e-04,3.054876625537872314e-02
3.613909207772546539e-01,2.385112629723131761e-01,3.632755652513268152e-01,-3.722851044111828885e-03,3.499178816464161394e-03,3.427118368978130866e-03,1.242903620004653931e-01
3.000240669159469076e-01,3.151145873814806264e-01,3.409566490462555000e-01,3.227074619932712718e-03,6.049644155812360265e-04,-4.194083905758263131e-04,3.630941733717918396e-02
2.769996266055985146e-01,3.416365389528255303e-01,3.538069098857605232e-01,4.628706727853358106e-03,3.375209973249360118e-03,-4.214062866198376237e-03,7.255639135837554932e-02
3.155529335431473958e-01,3.285233268710544552e-01,3.126671747551529879e-01,2.316915145020597214e-03,1.379059857868369140e-04,-7.073898949345611359e-04,1.522007491439580917e-02
3.011676825378834521e-01,3.017386217766185319e-01,3.407334588130807584e-01,1.340926794113490861e-02,3.759751796323496272e-03,-3.693888856359035973e-03,4.653980955481529236e-02
3.119393488827492678e-01,3.545989916094834382e-01,3.101645748715335382e-01,2.108931661978765901e-02,3.712211231000791395e-02,-2.322605054176917275e-02,9.479179978370666504e-02
2.119383529840396241e-01,3.620444199820919140e-01,3.568059875369167244e-01,3.330103616201185619e-03,2.113430266659481818e-02,-1.004776350227428415e-03,1.521486937999725342e-01
1.609432632681647435e-01,3.830182691220845870e-01,3.642699866326639668e-01,7.313119540262091878e-02,7.169477575251152757e-02,-2.146418048251515220e-02,2.799149155616760254e-01
3.591304695371463351e-01,2.196408298360847389e-01,2.985489723528343964e-01,-6.944513514044356461e-02,4.922493062602277536e-02,1.178339253460793656e-01,2.794076800346374512e-01
3.649781156165615159e-01,2.731206140987577080e-01,3.348095777454119792e-01,4.395092642046233289e-02,8.130532628844505325e-03,-4.903151961961998290e-02,1.406498253345489502e-01
3.866487419132940140e-01,2.328337066471418415e-01,3.503526108162583474e-01,-7.881401322914889608e-04,-1.415470279457364203e-03,-2.345673337172201819e-02,1.450934559106826782e-01
3.075019815591044092e-01,3.098045396838935428e-01,3.388790299270034723e-01,9.823754041176321113e-04,4.887484329743907192e-04,-1.677657604911041980e-03,3.048981539905071259e-02
4.006789851121722035e-01,7.703403208158382531e-02,3.877878939395739133e-01,1.065237929948282397e-02,-5.562971338492090148e-03,4.659713039078875775e-03,3.181799650192260742e-01
3.498607861098848582e-01,2.184582600592589463e-01,3.477786872959791054e-01,7.115196239647778031e-02,4.955808229524548414e-02,-8.892131924337073889e-02,2.515436112880706787e-01
3.097944799438357433e-01,3.127575289432903971e-01,3.322453440019634274e-01,8.099444806159051971e-04,6.514608782159822227e-04,-2.314116924491215529e-03,2.157787233591079712e-02
4.510750266368744876e-01,2.034159362665913240e-01,3.517927973697886346e-01,6.441685249407939906e-02,3.977985140892217886e-02,-9.149977114701535186e-02,2.981884777545928955e-01
3.268901439637827422e-01,2.844798372278800058e-01,3.489417809554984928e-01,-4.945518858795195857e-03,2.558253750682636628e-03,1.754891729380314569e-03,5.764002725481987000e-02
4.024444380206519400e-01,2.726791040332077753e-01,3.459416273809342024e-01,9.997007889013120527e-03,-1.457217099641435094e-03,-6.421349427256017872e-02,1.592978686094284058e-01
3.574292909092578463e-01,2.490708962724390851e-01,3.388857807882809103e-01,-9.802910158309443428e-03,-4.510500442977244916e-03,-2.858150895310889589e-02,1.134728640317916870e-01
3.838876680755761717e-01,1.541098394247245873e-01,3.348442576998509335e-01,1.332186585938853170e-03,1.772590171539254258e-03,-9.156159303163073637e-02,2.628675401210784912e-01
3.636560427067360157e-01,2.802153139696763606e-01,3.337886614124792040e-01,-5.211577887258535095e-03,-2.324123597979688757e-03,-2.822973184557956913e-02,8.860417455434799194e-02
4.412286843756182408e-01,3.620825383685318255e-01,2.786224450487851390e-01,-5.056500304630577591e-02,7.552861729690364678e-02,1.602083962813844187e-01,3.487400412559509277e-01
3.126072346024046378e-01,3.153345765876303664e-01,3.284072866796453605e-01,1.442807833438436048e-03,1.019044543534164274e-03,-8.448656929298477064e-04,1.501631550490856171e-02
3.100417049324868946e-01,3.100022952227042827e-01,3.326653291182644079e-01,4.739906063278560670e-03,3.230443010706976047e-03,-3.476064213018355189e-03,2.544951811432838440e-02
3.614086159759192229e-01,2.724223881576965933e-01,3.306508379921656582e-01,-1.603006026558182221e-03,-4.347988468028665850e-03,-2.385103989495218971e-02,8.887413144111633301e-02
3.024389579438460096e-01,3.244885422335777037e-01,2.083354136708828186e-01,8.056115140914377193e-02,1.289736256380154822e-01,-1.107938895853996103e-01,3.429509401321411133e-01
3.034369699733479031e-01,3.336082513802489657e-01,3.547757155969659681e-01,1.006434544083346233e-01,1.317333833424942369e-01,-5.932967253110366795e-02,3.082294762134552002e-01
2.377399440879424120e-01,3.261141153018060623e-01,3.444436835890377080e-01,8.813615762571046230e-02,9.673918939613555812e-02,-6.860140282602041062e-02,2.743422091007232666e-01
3.343755887379732950e-01,2.926547510783094608e-01,3.177890014703552146e-01,-1.805942429889621087e-02,2.041391781248119014e-02,1.989596586033173103e-02,6.884691864252090454e-02
3.419871992203687427e-01,3.552187127998472915e-01,2.506224042837059129e-01,-5.170344470309581539e-03,5.091574695872545103e-03,-3.561799073029737247e-03,9.963694959878921509e-02
3.556710757503874776e-01,3.707571391793579862e-01,2.107889447514700865e-01,-7.648033055167027458e-03,2.921507918731746853e-02,8.631975376959951166e-03,1.623690128326416016e-01
3.046955516164577826e-01,3.357115685931565396e-01,3.182803497177105201e-01,-1.696620919363910117e-03,1.723083035538877216e-03,3.819002225911217845e-03,2.804444171488285065e-02
3.903083065379694960e-01,4.358955086688970360e-01,2.263510879186092228e-01,-6.906929709261415418e-02,1.525493046584031065e-01,1.055613865040099797e-01,3.924152255058288574e-01
2.507918368754801786e-01,3.548192608519808444e-01,3.522743565215079586e-01,3.586233258810394859e-03,-2.421989105499343462e-03,8.837862578033295856e-04,1.030629202723503113e-01
3.076293421816282958e-01,3.109252051100009351e-01,3.328400960008109921e-01,-3.185772831756573682e-03,1.391447575569541980e-03,3.655331410040542697e-03,2.529216930270195007e-02
3.614429891266363604e-01,2.255162175503948041e-01,3.587135186540547638e-01,7.910029925397956893e-03,5.616829932299970997e-03,2.329000363741839247e-02,1.414996534585952759e-01
2.002152088779091677e-01,4.151618648890809116e-01,2.572880073338569829e-01,-1.528800852339538829e-02,1.466970481458209630e-01,1.090210394830594051e-02,3.206393122673034668e-01
3.182066207740385511e-01,4.051686623876398219e-01,1.913246614381507726e-01,-1.059206379927137183e-02,1.191983356959071538e-01,-1.082344551765711087e-03,2.786757349967956543e-01
3.100925360681200948e-01,4.543853592822580945e-01,2.229766267838934612e-01,6.168071742025664495e-02,1.196786556137566238e-01,-8.053450712707592440e-02,3.388505578041076660e-01
3.283429341385558087e-01,3.446418051932307880e-01,2.697443141078308404e-01,8.254871214447258992e-03,2.183151985496367686e-02,-6.273391437093921510e-03,8.004301041364669800e-02
3.083124263814661092e-01,3.380464918199556634e-01,3.043651836947978695e-01,2.295657357793311031e-03,4.490497959503052944e-03,-7.058812706064485987e-04,3.308869153261184692e-02
3.651941105886157279e-01,3.819391444494474319e-01,2.472041674127968824e-01,-3.728562116338593468e-02,-6.597017130600052459e-02,-5.298949861751959395e-02,2.045196145772933960e-01
3.336398463536259795e-01,3.406175340854239453e-01,2.874910898058924968e-01,-7.340847936703734714e-03,-9.169877615508166893e-03,-7.685018058763279022e-03,5.560135096311569214e-02
3.448706219962003328e-01,3.442578801783683917e-01,2.540993624169178844e-01,-7.038700750279838422e-03,-6.915747156496558634e-03,-1.135904185394863951e-02,9.414549171924591064e-02
4.045794721576372321e-01,2.840556186362082070e-01,3.314516898409552437e-01,9.175650620482646638e-03,1.708408422073918673e-02,1.695282881780350026e-01,3.137000501155853271e-01
3.155414048618204736e-01,2.985700340694765753e-01,3.435548616317434245e-01,2.759335287538351115e-03,1.659920441198904997e-04,-7.108530883167493188e-04,3.965663164854049683e-02
3.406768409042223444e-01,3.307908446630111188e-01,2.798445125839456593e-01,-9.425038386870962515e-03,-3.963040838670449199e-03,-1.022665434444177714e-02,6.184077635407447815e-02
2.982607756274160415e-01,3.271564186621093717e-01,3.179661440318312104e-01,2.775180788339454835e-03,7.367847003117284493e-03,-6.968771433493037813e-03,3.139286860823631287e-02
2.789034370136050933e-01,3.397989241856598785e-01,3.407343159990651738e-01,4.954820166047273558e-03,4.299377900984836277e-03,-4.939757195945143273e-03,6.299527734518051147e-02
3.452957431408648636e-01,3.410465398489485600e-01,2.690194970867445523e-01,-5.735955551031954487e-03,-6.140240375318975485e-03,-4.931868756212142227e-03,7.613664865493774414e-02
3.482976628085430182e-01,3.154155422672642040e-01,2.864040353673119599e-01,-2.159847197620418623e-03,2.171555867230226685e-04,-1.803601715012221815e-02,6.218433380126953125e-02
3.837995257987525943e-01,2.181404132264984086e-01,4.107635979065898391e-01,-5.539779472233925806e-02,9.787297400269170597e-03,2.402152268366586005e-02,2.094327360391616821e-01
3.508676884233337123e-01,1.943218675593882117e-01,4.496313480349872771e-01,-8.399193623419357047e-02,-8.918741679806775971e-03,-2.057650295184905095e-02,2.690625190734863281e-01
3.651229094336133074e-01,1.833635908414596449e-01,4.541964517173539551e-01,-1.188894171504233377e-01,-2.626904204484236532e-02,-1.879013284165870559e-02,3.204590082168579102e-01
2.970625659891441006e-01,3.274661445932448012e-01,3.361103897426768183e-01,2.567657450662151793e-03,2.554476124406079157e-03,-4.060141825895130681e-03,3.675221651792526245e-02
2.973024219656394962e-01,3.276794350935765543e-01,3.397189075833587646e-01,2.566631937144057442e-03,2.538383859347994199e-03,-5.760880229981046700e-03,3.964960575103759766e-02
2.927471828568383172e-01,3.273745354619065351e-01,3.277567458184189042e-01,2.930587614463041335e-03,4.494389649926100461e-03,-6.656374017739249797e-03,3.783807903528213501e-02
3.906791773947992930e-01,2.133264311588840556e-01,3.956211453639076336e-01,-4.770104351618564137e-02,1.352070502498957903e-02,3.975887232524270842e-02,2.108833640813827515e-01
3.177145014993562055e-01,3.224899531965915167e-01,3.169970614978210310e-01,-5.689611729961237090e-04,8.518076995476880041e-04,8.311185403726214799e-04,5.653840489685535431e-03
3.731262024715012449e-01,2.218946503206634113e-01,3.816400309518711564e-01,-3.888381019281068884e-02,7.876785721183568456e-03,8.777548650997947857e-03,1.708336770534515381e-01
3.125119734324393606e-01,3.086266217850576199e-01,3.282676527207918915e-01,-5.252271297253962093e-03,4.068364330761920986e-03,1.492907505663759260e-03,2.153262309730052948e-02
4.783496331951043734e-01,1.243148874655367053e-01,4.075198989130562888e-01,-6.151741850816828949e-02,5.222321406560678086e-02,6.461846475464529116e-02,3.705979883670806885e-01
2.668390216539691107e-01,3.785245767157308094e-01,3.639262922830210911e-01,-1.609846448354631740e-02,4.448350750140778881e-02,1.310970918281328425e-02,1.352249234914779663e-01
2.139359318793893905e-01,4.617599358905510321e-01,3.276976991581679322e-01,-3.922344350627265941e-02,1.197242693365569294e-01,3.051084624590246624e-02,3.107659220695495605e-01
3.694186528574650019e-01,2.425781425105801026e-01,3.348373652673297673e-01,1.216527382943018848e-02,1.025461142682147428e-02,7.107689547372021688e-02,1.697448045015335083e-01
2.950808409071271066e-01,3.865536705352329294e-01,3.326919902308050347e-01,-2.943900300716510016e-02,7.409462455393628355e-02,1.494455174589297969e-02,1.614976823329925537e-01
2.801048886905568303e-01,3.317451693956415260e-01,3.254548849719473558e-01,-1.746231659783973114e-02,2.616980617602312695e-02,1.486759209951128355e-02,7.754974812269210815e-02
3.128802857233129453e-01,3.198221515138425786e-01,3.199891545855240715e-01,-1.342526817011961693e-03,1.118619708053321870e-03,4.039165286381252856e-03,1.036736927926540375e-02
3.488698393365929906e-01,3.262491733256793203e-01,2.849504962325445923e-01,3.791164226564862870e-03,-1.772237578830645382e-03,5.453236639424135362e-03,5.738670006394386292e-02
2.937467439364604416e-01,3.378546058316107548e-01,3.418393750491154348e-01,-3.648563131061569043e-02,5.580040157217130287e-02,2.584853025264143359e-02,1.321977227926254272e-01
2.111504165046556858e-01,3.694258990538018539e-01,3.355015874507387696e-01,-1.347171165733510902e-02,6.099064739227687271e-02,6.099984683995864423e-03,1.806883215904235840e-01
2.936487551182052069e-01,3.393562113968157101e-01,3.258612794804896517e-01,-2.065681903654380258e-03,3.769648934481766717e-03,5.746360927780981218e-03,4.253186658024787903e-02
3.335503708670197742e-01,3.537276044379989992e-01,2.581461913534080499e-01,4.847088561232740884e-04,-2.200682987280697112e-02,1.100751138022348918e-02,9.711571037769317627e-02
3.103265175600821713e-01,3.356054969836024804e-01,3.059452172534360415e-01,-2.845340735839281890e-03,3.749552087398314894e-03,1.550147665047244688e-03,2.902846224606037140e-02
3.236059886346235870e-01,3.136570268547064222e-01,3.155118314722165640e-01,3.307408397422947378e-03,-4.223563285951862506e-03,4.435626732244286712e-03,1.514349412173032761e-02
2.644018587376732454e-01,3.880364084015778259e-01,3.051612996326446003e-01,-5.014194712323226909e-03,7.395826438066598063e-02,1.080975314536176263e-02,1.695376485586166382e-01
3.319517900580181147e-01,3.077324768519650311e-01,3.103253284897360964e-01,1.396345177069823655e-03,-3.876664362727120193e-03,4.029510439583023663e-03,2.510272338986396790e-02
3.282353170295909672e-01,3.107520180555296552e-01,3.159156475081685289e-01,1.414626726527550785e-03,-3.201166407232659133e-03,1.675093201535474184e-03,1.694742590188980103e-02
3.323078273112068937e-01,3.126922511763164936e-01,3.106896559181167028e-01,1.923442093240056768e-03,-8.344606257208766727e-04,8.887344650250006764e-04,2.106230519711971283e-02
3.031109721444800176e-01,3.355163874393418122e-01,3.147553834430613096e-01,1.180339811862192358e-03,2.164609075526514794e-03,-3.033012358863174281e-03,2.922661416232585907e-02
3.117800097601445830e-01,3.310728825256054053e-01,3.072966048574246600e-01,3.096057145925216070e-03,3.575560744172374527e-03,-8.112098604070551921e-04,2.340723015367984772e-02
3.628527273361232264e-01,3.481849862290063990e-01,2.507316949327034750e-01,-9.755877328967877283e-04,-9.512280134924742080e-04,1.119490815048590840e-02,1.073464229702949524e-01
2.966602650875866387e-01,3.426129911465837785e-01,3.169307447030815239e-01,2.934432131521973186e-02,-2.631675773434365151e-02,9.084864041751577676e-03,8.062040060758590698e-02
3.754910410657699149e-01,3.573268047836136718e-01,2.540205498312048116e-01,6.636599234062645972e-03,-1.840224575480225999e-02,6.496846350932396208e-02,1.633688062429428101e-01
2.846819234800978538e-01,3.438301271900122691e-01,3.255213560353094615e-01,6.492928983928021982e-04,5.301666030260104336e-03,-1.351894558215091524e-03,5.330910533666610718e-02
3.086760848019154957e-01,3.434788538177979134e-01,3.043562159249043608e-01,1.188147517613205627e-03,4.147921602759999625e-03,8.174480393612109297e-04,3.792219609022140503e-02
3.859112706402960113e-01,3.569663271988455788e-01,2.353575242030997994e-01,1.148268910752427152e-02,4.673293847341386531e-03,2.979868536117494943e-02,1.492361575365066528e-01
3.159895054035538609e-01,3.369213667311934945e-01,2.970955304222452353e-01,6.082694533031347828e-03,5.737276301528039871e-03,-2.430560657236289709e-03,3.765740990638732910e-02
3.151364773961949917e-01,3.245170681024470150e-01,3.143391034071785772e-01,-1.614641309686347956e-03,9.266610868575621957e-05,-2.895244407224503843e-04,1.020830869674682617e-02
3.432327707950257878e-01,3.571440002158845495e-01,2.619558669414306928e-01,7.047870525457882633e-04,6.753584882633956350e-03,1.674085464601594462e-03,8.987129479646682739e-02
3.188906755574384966e-01,3.175455720002701154e-01,3.156922950668900052e-01,-1.936766869709401640e-03,5.827501847491743355e-04,1.485844706473119208e-03,5.160618573427200317e-03
3.129380473651732775e-01,3.182296900797043637e-01,3.263112712577428409e-01,2.380181822750920655e-03,1.477603741473910125e-03,-5.207626281524899668e-03,1.552359946072101593e-02
3.189950995972565817e-01,3.171817442343393134e-01,3.178423003488562437e-01,-6.787873641176195511e-04,8.788624809461409882e-04,3.290620849042018075e-04,2.559505635872483253e-03
3.180261057510422318e-01,3.168256397677988723e-01,3.193971011412773398e-01,-5.867539053764510813e-04,1.089897270291249280e-03,3.882960105550226190e-04,3.164706984534859657e-03
3.199705260537776264e-01,3.089570586059781077e-01,3.218766895936071570e-01,1.485875982392432376e-03,4.626630971061859027e-03,-1.680650410838356069e-03,1.500792335718870163e-02
2.950667750963842928e-01,3.347908862873284486e-01,3.374461242501705094e-01,1.905928726111948135e-02,1.654078121328475537e-02,-1.091386204189422234e-02,6.291606277227401733e-02
3.188040500970893976e-01,3.305832686571082424e-01,3.022739632792557085e-01,5.938834290202511801e-03,3.001524676094456234e-03,-3.038795682967554423e-03,2.769918367266654968e-02
3.187427273183308651e-01,3.189171632851762750e-01,3.178094418495124862e-01,1.045687769161726961e-07,5.566053994172620156e-04,6.895134669125292529e-04,1.849314314313232899e-03
3.170992913885585796e-01,3.193507450262486058e-01,3.186827493326462868e-01,-1.817180514792007037e-03,1.829421361656603882e-03,1.358656740070143592e-03,5.431015510112047195e-03
3.180442874084082328e-01,3.178273471152307517e-01,3.187284674750298086e-01,-1.088219115346078660e-04,4.278938178772765289e-04,-4.485476636892114446e-05,1.120014931075274944e-03
3.654897509224445673e-01,2.292918675930852024e-01,3.539922350375742655e-01,1.618120116766904454e-02,5.686870840153223153e-03,-1.570937033006331723e-02,1.368904262781143188e-01
3.669872660176849988e-01,2.137800378362350595e-01,3.707445344946546095e-01,3.652002532260117951e-02,-8.454922605973344552e-03,-1.166066524708313408e-02,1.693685948848724365e-01
3.641921868038363597e-01,2.268933415953964250e-01,3.596175914920883288e-01,2.506831047118795661e-02,-9.336732592787954504e-03,2.188319549573426032e-02,1.477403789758682251e-01
3.722492627976176083e-01,2.147888996371386805e-01,3.686182239423178020e-01,2.602405075144281765e-02,-3.922233673361972747e-03,-3.241045752120233492e-02,1.716520488262176514e-01
2.829482342183664012e-01,3.305371123605937433e-01,3.658895473913332252e-01,3.716684871728070244e-02,3.890361247166116516e-04,2.731595535383579340e-03,9.676694124937057495e-02
3.163601704440098805e-01,3.216565479731651189e-01,3.155206595876207110e-01,-9.191099303730537566e-04,7.493075845900219528e-04,2.014823292734259797e-03,7.042724639177322388e-03
3.153806314829070701e-01,3.150667699943128230e-01,3.209930349409181871e-01,-5.618971995055086887e-04,8.754901461835408938e-04,2.112163609033069437e-03,7.070321124047040939e-03
3.147187017635044715e-01,3.224668111051923747e-01,3.136274555027293576e-01,-4.967617640466945664e-03,5.044244351607474718e-03,4.646912708874487326e-03,1.687677018344402313e-02
3.039540329690545439e-01,3.281128141191843040e-01,3.199598793328631285e-01,-1.958476736137429019e-03,2.948780500541830878e-03,4.023850524972521006e-03,2.322324365377426147e-02
3.130603089814966711e-01,3.217870291252191706e-01,3.212302847865882161e-01,-1.340141277962184291e-03,1.116704407897742973e-03,2.607216712260523005e-03,1.005628239363431931e-02
3.136742204886290852e-01,3.134766073767883965e-01,3.267018578264039297e-01,-2.999212020404525090e-03,4.033785968169012644e-03,2.629142831673816731e-03,1.639725826680660248e-02
3.314631491964162291e-01,3.109178356375965069e-01,3.122918559860713983e-01,-5.658683840726548347e-04,1.983977968375202124e-03,9.136073137753764322e-04,2.027415484189987183e-02
3.150127923315259593e-01,3.174324672587376384e-01,3.217240088339959336e-01,-4.140453999482015916e-03,4.961488051443546481e-03,4.908560837125376143e-03,1.523867994546890259e-02
3.166912004959062110e-01,3.179200455847627782e-01,3.193514752303943105e-01,-7.000905968218881347e-04,1.034403291337003495e-03,2.201113914220708453e-03,4.953091498464345932e-03
3.243656501790570523e-01,3.149949495800580257e-01,3.131953573294955495e-01,-3.614112283412052561e-03,2.400818952822648782e-03,3.053302169122676726e-03,1.386928930878639221e-02
3.098612284770178027e-01,3.281761144486237680e-01,3.153018060885456331e-01,-1.958440284990255447e-03,2.028048190456035668e-03,4.024829256683732162e-03,1.838027499616146088e-02
3.121531070462692514e-01,3.283589565245589315e-01,3.125545363759380524e-01,-2.290256870830106439e-03,5.767509935311463569e-04,6.587110427161492780e-04,1.656262762844562531e-02
3.019057951210271096e-01,3.433590633260378278e-01,3.190142691722246959e-01,-6.747806592402484996e-03,1.315858389993559280e-02,6.177232824706593330e-03,4.552350565791130066e-02
3.171992049465660046e-01,3.275113662089648159e-01,3.099423580430463177e-01,-5.298442038208650215e-03,2.710603432162418062e-03,1.778608068816297377e-03,1.869730465114116669e-02
3.109243835180136029e-01,3.324260133780454485e-01,3.117464179295204030e-01,-3.129768626619925005e-03,5.712015712689826399e-03,4.368344037387479964e-03,2.509652823209762573e-02
3.085364410153312864e-01,3.414631450832272819e-01,3.089220479277235420e-01,-1.653368519625439360e-03,6.720475422181155546e-03,1.511108963166409198e-03,3.495948016643524170e-02
3.046410290461595283e-01,3.378124458870057634e-01,3.152539226085581126e-01,-1.158890944850796004e-03,2.469990694778751491e-03,4.232684629906188420e-03,3.061062283813953400e-02
3.077282708428207836e-01,3.319087489667195690e-01,3.120091274632579292e-01,-1.741197809436094424e-03,2.844123604756585138e-03,3.666867659122645222e-03,2.394176833331584930e-02
3.089166636038312430e-01,3.354794100387074596e-01,3.094999586396018909e-01,-9.197072224294442974e-04,8.914753456404564402e-04,1.655235234100893094e-03,2.652483806014060974e-02
3.156394520626037425e-01,3.479889399657910554e-01,2.860691624999533444e-01,-3.217728635926117749e-03,8.142139752862631238e-03,2.379152773079957085e-03,5.589634180068969727e-02
3.064997167395077660e-01,3.354792034302800374e-01,3.118914749242846507e-01,-1.923067268071556798e-03,2.262093312175038166e-03,3.374565117809589718e-03,2.780719660222530365e-02
3.280766475598739240e-01,3.119219502360432439e-01,3.177185886307652973e-01,1.840659689268450173e-03,4.611101323676620491e-03,-1.690605515655656168e-03,1.683619990944862366e-02
3.064309061374586585e-01,3.411490201717448101e-01,3.085198701434354596e-01,-2.664387090121850352e-04,1.036637003158574506e-03,2.687704438004437585e-04,3.377632051706314087e-02
3.423669462515817052e-01,3.055185377635708521e-01,3.187790244217675317e-01,5.075855858413465954e-03,5.495612706271499164e-03,-1.342139101979315276e-02,4.187263175845146179e-02
3.004135309315825730e-01,3.447006798502174063e-01,3.143614332017355961e-01,3.100763034346143529e-04,2.719686083742383492e-03,8.421974352862371090e-04,3.953212872147560120e-02
3.416150524172748559e-01,2.923937799742845067e-01,3.142931687853818823e-01,1.833939227020928240e-03,3.776737291499630486e-03,-8.996824227187090808e-03,4.604466259479522705e-02
3.065646318048447228e-01,3.411811806081980203e-01,3.097332532205446243e-01,3.812764674026320605e-04,1.115182905316037566e-03,-1.347501989100878973e-03,3.329073637723922729e-02
2.994382284292514962e-01,3.440284548450463498e-01,3.150316822567810204e-01,1.105453399464310319e-03,2.421073758833053400e-03,-2.531014883703552876e-03,3.970639035105705261e-02
2.991994431074250227e-01,3.410349547136373172e-01,3.140841440737178747e-01,4.053777447750387384e-04,2.604808671256485849e-03,-7.718730383533190702e-04,3.703634440898895264e-02
3.548705222720228702e-01,3.390294467756819752e-01,2.931847693459253001e-01,1.578756117024008102e-02,2.455320423013702610e-02,-3.307298439785121696e-02,9.442823380231857300e-02
3.037064879619623126e-01,3.408197321959113846e-01,3.019802260267825944e-01,4.123125828420553564e-03,1.193476106805892341e-02,-3.488072946817677260e-03,4.426348581910133362e-02
3.099213303018760191e-01,3.357516522477272947e-01,3.126282539342660760e-01,9.850006631244502976e-04,7.839710943961194535e-04,-2.289557043686601435e-03,2.500185929238796234e-02
3.372665421666133923e-01,2.972629961862558456e-01,3.153458505505907228e-01,2.775205827165768812e-03,5.505336041288024646e-03,-7.922607933235811459e-03,3.881017491221427917e-02
3.277205245493853836e-01,2.992466887517660767e-01,3.135414844737676732e-01,6.310044121936642970e-03,9.369992925163911357e-03,-8.355529292306561329e-03,3.464617952704429626e-02
3.083904010571582033e-01,3.320987060717929817e-01,3.117452453664978362e-01,1.620063577697585227e-03,-2.979670982479368929e-03,3.677992677573173504e-03,2.385147847235202789e-02
3.033457542576878385e-01,3.371250135004055792e-01,3.171086383324591140e-01,1.531517758108834858e-03,1.628943497580783968e-03,-4.798352036081640799e-03,3.081598319113254547e-02
3.124681399353925748e-01,3.322875671167728195e-01,3.111053042856763429e-01,2.230731068550135740e-03,-8.437838318349121175e-04,8.800620014586179804e-04,2.100156061351299286e-02
3.128075550872820854e-01,3.278445974013775022e-01,3.158411842145106840e-01,8.592535640516494981e-04,2.338156049192571654e-04,-2.098479647384886900e-03,1.432789396494626999e-02
3.127350559048333034e-01,3.154829778337633894e-01,3.327094800946288067e-01,7.838966192051693288e-03,7.419067684455367059e-03,-3.371236691271146772e-03,2.711479552090167999e-02
3.096255510431971669e-01,3.277352506124299181e-01,3.169327550062111531e-01,1.373127649946774163e-03,1.959901149628709600e-03,-3.973423072838873187e-03,1.770789362490177155e-02
3.173107890640388673e-01,3.249781100863241567e-01,3.136277299562545418e-01,3.464784961809653455e-03,-8.759101040006747520e-04,1.269149153807062804e-03,1.198916230350732803e-02
3.124430754929040654e-01,3.219592846934928310e-01,3.171948299803331595e-01,1.500041670386854887e-03,-1.567099607766086339e-03,2.994430713682593673e-03,1.043725758790969849e-02
3.126909293969204473e-01,3.283899084339141350e-01,3.154208736106470790e-01,1.103566537360037379e-03,-1.184956900648756559e-03,7.936223110932704057e-04,1.485963165760040283e-02
3.141632888508277266e-01,3.240171538854761391e-01,3.152579959868383463e-01,6.259288759173164225e-04,-4.497701340550293910e-04,1.781392616225157405e-03,9.940436109900474548e-03
3.558420595638579487e-01,2.585680090564467792e-01,3.432102379482096510e-01,1.179725355339228052e-02,1.915655858064485399e-03,-7.512017612999542793e-03,9.482026100158691406e-02
3.150504563768062316e-01,3.201374407044528803e-01,3.329883187845633641e-01,1.068801139454484024e-02,5.443254679356621974e-03,-6.536057690515410107e-03,2.856821008026599884e-02
3.320013234748754316e-01,2.846107760014950916e-01,3.387423625150719486e-01,6.924542977125806159e-03,7.212997100489273658e-03,-3.600938108899570927e-03,5.431019514799118042e-02
3.180080227637340218e-01,3.216788102063889987e-01,3.165444644169585486e-01,1.618329084987482494e-03,2.408938657887035330e-04,-6.179043320643209849e-04,5.492318887263536453e-03
3.121428768472037096e-01,3.196967802519442015e-01,3.219962617183177445e-01,1.587787668713437498e-03,1.782597376880441483e-03,-3.345455161334778219e-03,1.141891069710254669e-02
3.108114331199537395e-01,3.102410168416924741e-01,3.327952346567198405e-01,-6.229706622226030902e-03,-4.507583239983078451e-03,-4.268820001669463605e-03,2.698525413870811462e-02
3.211375126896047205e-01,3.068935980870677871e-01,3.270916894495636829e-01,2.483121065481093555e-04,5.685528697922182309e-03,2.756874647554212812e-03,2.105027064681053162e-02
3.039807259122894179e-01,3.914617510125131261e-01,1.636155346309126901e-01,4.386065942288522312e-02,-1.360506625079479781e-01,5.797428983156963089e-02,3.331940472126007080e-01
2.637417124877151076e-01,3.424295556469127422e-01,3.531456889055666903e-01,5.629192825787358509e-03,7.139804558065860696e-04,-7.136192219838351485e-04,8.513496071100234985e-02
2.976748520526368291e-01,3.327271479522994624e-01,3.196129290694604830e-01,1.249401029546091599e-02,-1.418307459352390228e-02,1.219929870793101841e-02,4.959043487906455994e-02
3.301097578956019851e-01,1.742544916808116962e-01,4.569072595377772772e-01,9.762016027386009875e-02,1.657187775216894393e-02,-6.550446743548433981e-02,3.200249969959259033e-01
3.258315309470096177e-01,2.851545671791619885e-01,3.499576726421844142e-01,3.883976414067809475e-03,1.061347005120981575e-03,-2.352525848753259899e-04,5.715649947524070740e-02
2.475628912553824446e-01,3.533311189883355796e-01,3.523030407889019000e-01,-3.614498508014389513e-03,-2.864320752545352917e-03,-1.448805021412348515e-03,1.055904403328895569e-01
3.217295123591966677e-01,3.122121285741238372e-01,3.220086900153167342e-01,1.136210411773573049e-03,-2.663756973084558874e-03,1.742877958878404727e-03,1.129549369215965271e-02
3.119665470814801389e-01,2.532569004919826283e-01,3.418349363982493561e-01,4.994486548735541098e-02,2.685946802593474833e-02,-3.165485528500070617e-02,1.369173377752304077e-01
4.524111484295451069e-01,1.373678108821007327e-01,3.705394272790447086e-01,2.099404457493140447e-02,3.558060933389246144e-02,8.887422373144801546e-02,3.301184773445129395e-01
4.001417907292290632e-01,1.276400939892157471e-01,4.640285790205561089e-01,1.660106030827104926e-03,-2.655034361907585710e-02,6.073793493860688009e-02,3.300579786300659180e-01
3.596588741273436529e-01,3.509131645673194133e-01,2.480860631203493649e-01,-6.813269847980152187e-05,-2.120870929126031715e-03,-1.469211813109505549e-02,1.105001345276832581e-01
3.780562659413538862e-01,3.703348048339095699e-01,1.436114275632009440e-01,1.355129713023768383e-02,-4.642065788740846327e-02,7.213070328813138421e-02,2.753866612911224365e-01
3.264915731478918448e-01,2.880308187384348906e-01,3.379712483072058182e-01,-5.693592103496435304e-03,4.679955653977841031e-03,1.476619305603506238e-03,4.713838919997215271e-02
3.250200356029049331e-01,3.129470979180021817e-01,3.181333416341233233e-01,-1.511071738970889370e-03,4.076018112891205761e-03,2.396579730330015024e-03,1.356327068060636520e-02
3.523815201932871677e-01,3.404786361689852159e-01,2.675432323728009765e-01,-1.133604356931005664e-03,-5.103903673396838420e-04,-5.799541807359326166e-03,8.021803945302963257e-02
2.934831954993817327e-01,3.390886714295155979e-01,3.267315642974062406e-01,1.840170796195480119e-03,-3.645207236088429323e-03,5.568073227632757034e-03,4.256803169846534729e-02
2.394063682780505353e-01,3.914924660847499682e-01,4.575908827403659118e-01,-1.475072396834556654e-01,-3.391562222885157601e-02,-2.592382760983244147e-02,3.290804326534271240e-01
1.359033099409429068e-01,3.896487434213165568e-01,3.684512478179287065e-01,-5.331018834709951720e-02,6.412931229623947127e-02,1.221080724372139263e-02,2.841975688934326172e-01
3.550364069924478727e-01,2.377099099954947115e-01,4.895174929981127021e-01,1.625187078126764106e-01,-1.026194725530698605e-02,9.694214421192785119e-03,3.570206165313720703e-01
3.435946705998162432e-01,2.838461178281428410e-01,3.296847030768215170e-01,-1.023006138880615777e-02,8.852158097578343571e-03,1.279999390481701207e-02,6.303047388792037964e-02
2.992225438291095108e-01,3.080019936623658028e-01,3.624607963894521667e-01,4.137808207419052531e-02,1.872686464214895615e-03,-4.777181573273439272e-03,9.346860647201538086e-02
3.540213342243119232e-01,1.960466961720012946e-01,3.783348950279344924e-01,6.495563207190062360e-02,-4.122034754722544297e-02,9.588138661264671014e-02,2.733547687530517578e-01
2.408303635053902769e-01,3.936498287258254347e-01,3.817720443408271214e-01,3.009711270169553726e-02,2.844911946925576113e-02,-4.161774085189224627e-03,1.639427989721298218e-01
3.995494057115299147e-01,1.417901452117916461e-01,4.991283611926168318e-01,2.883488042648553809e-02,1.808283099410270059e-02,-4.896528864692778482e-02,3.356952667236328125e-01
2.438665775618126252e-01,3.551565452908028164e-01,3.547000787209933503e-01,-2.697553799130534419e-03,1.272576101937888341e-03,5.950315585421245951e-05,1.111825704574584961e-01
3.509123057590961547e-01,3.591394289688118469e-01,3.763246819736700277e-01,-1.143017499292429129e-01,9.680933675686087536e-02,1.067362615440400203e-01,3.193635940551757812e-01
3.288857266091376741e-01,2.923170497837827564e-01,3.391761204489499582e-01,-6.358540313136144817e-03,6.078556185908602465e-03,3.337076014494744832e-03,4.566195607185363770e-02
3.272848903097748119e-01,2.844938705144821611e-01,3.487279842980711142e-01,-4.522478489602558931e-03,-1.449916194419390838e-03,-4.079061442450014353e-05,5.723739787936210632e-02
3.167666662491083751e-01,3.137832034170073281e-01,3.211882006933484690e-01,-2.084239024889945457e-03,2.476957331650357468e-03,1.192751938714897838e-03,8.794804103672504425e-03
3.326502922764628112e-01,1.937798369843451995e-01,3.816488520025065334e-01,9.425939057032685364e-02,3.746420355881197040e-02,-6.693735412909464222e-02,2.698098123073577881e-01
3.447600966020300528e-01,2.040014153684194531e-01,4.825809157689060491e-01,1.063800366036198181e-01,-1.995238483072763608e-02,2.516606073224141385e-02,3.086283802986145020e-01
3.541544889943519792e-01,3.409745034036137379e-01,2.651388623575364756e-01,3.060799669956659492e-03,2.084631735122916083e-03,-5.736564590790894924e-03,8.404841274023056030e-02
3.441779402533540200e-01,3.121396710646153760e-01,2.920925919425048090e-01,6.341402042060346848e-03,1.076822945282659809e-02,-2.274287743667234227e-02,6.395959109067916870e-02
3.390396323130396294e-01,3.114674153502440812e-01,3.070053520587093798e-01,-2.362518672839196334e-03,-1.857526981675776661e-03,-5.667559221171668618e-03,3.204099833965301514e-02
2.760368773029049372e-01,4.061419457627957197e-01,4.106617026853754959e-01,-1.362075136831399913e-01,1.043284748936732370e-01,6.979139545861705318e-02,3.470721244812011719e-01
3.505509650618194861e-01,2.502460487738983885e-01,3.531300831138233232e-01,-8.103676528152230912e-03,-9.607225255407209757e-04,-1.868661531001989101e-03,1.026483327150344849e-01
3.284997892422257815e-01,3.192926198601258592e-01,2.970425927299822355e-01,9.347920432456269593e-03,7.518983104400349393e-03,-6.350912178925943730e-03,3.657121583819389343e-02
3.412566615840675333e-01,3.065168840534666095e-01,3.088856363903972335e-01,1.013425747503843364e-04,2.530771949861775299e-04,-7.981412485782921062e-04,3.364977240562438965e-02
2.429020349980883786e-01,3.528552040915461929e-01,3.538038240547897728e-01,-3.718291286950982594e-04,-2.732006317886325267e-03,-7.657872479237905249e-04,1.105417087674140930e-01
3.397236726857315037e-01,3.083067740838350557e-01,3.068549287150523219e-01,3.795266754316847422e-04,3.628927288769825542e-04,-9.154755553292281446e-04,3.221930190920829773e-02
3.092754303598411747e-01,3.087023870472054288e-01,3.362679084195212553e-01,-1.048702877201184184e-03,1.940571076903970914e-03,8.633105355458772301e-04,2.759026736021041870e-02
3.495624744188856603e-01,2.597888907986414253e-01,3.559568358724914949e-01,2.704814898618086369e-02,-1.918964332067349746e-03,-1.840478673889488475e-03,1.043563410639762878e-01
3.724651470311143298e-01,3.705478136254157784e-01,2.242733315292594898e-01,-2.533077547554152958e-03,4.334397638800678403e-03,-4.002968576908837173e-02,1.629818826913833618e-01
1.525089449522908369e-01,3.704906278117131024e-01,3.864255345372015760e-01,-8.141104813936456130e-02,4.416364456990409110e-02,2.488436155622040374e-02,2.807769775390625000e-01
3.408487076205805044e-01,3.099132193886172115e-01,3.070141801078139498e-01,1.597331799207427029e-03,3.478274048685515421e-04,-9.366177116899062748e-04,3.264569118618965149e-02
3.411168943006526177e-01,3.064979284987534580e-01,3.061733926273519923e-01,3.303692557000838899e-04,5.037405548978398338e-04,-1.990606471846936322e-03,3.496840596199035645e-02
3.439617396565650687e-01,3.011723829173437172e-01,3.131239111829668409e-01,-1.682143132417632020e-04,6.972692424808681023e-04,-2.501896474985101145e-03,3.850573673844337463e-02
3.398571235023643555e-01,3.103767454312240659e-01,3.073331484716699813e-01,-5.094852123592504695e-04,-8.790730538964358349e-05,-2.131629711447254310e-03,3.134511038661003113e-02
2.984057337117660413e-01,2.495324392210256925e-01,4.328482394573838210e-01,1.307183299409959976e-01,-4.581488582568311180e-03,-6.900787942260035168e-02,3.043766021728515625e-01
3.462479539636537651e-01,2.672106817744378526e-01,3.675796945268228200e-01,-9.302126378410209562e-02,1.051244601044551003e-01,9.330895991803123124e-02,3.059737682342529297e-01
3.059044734242762908e-01,3.202045645843807908e-01,3.410052328787217535e-01,1.287248818951546893e-02,-7.521827798572298593e-03,7.583343792435116859e-03,4.211851954460144043e-02
1.916392759710512372e-01,3.262277317986823633e-01,3.730519421003649638e-01,-9.185510575002733824e-02,-6.036393403410261760e-02,-2.836615592727910126e-02,2.554720640182495117e-01
3.212751730192781041e-01,3.006064502585364395e-01,3.847157004821023518e-01,7.475023951626359742e-02,1.742660526795891673e-02,-2.129317338401698345e-02,1.574712097644805908e-01
2.269170194345856428e-01,3.256743466735430026e-01,3.728958388385180123e-01,5.885291041418520830e-02,8.833128454742007057e-03,-3.520108746165239496e-03,1.652531027793884277e-01
3.357650313452674173e-01,3.166658545039797712e-01,3.031527043827584311e-01,-3.573693164281846121e-03,-3.663376678900355401e-04,-2.288908747723203754e-03,2.932418137788772583e-02
2.429533887818037807e-01,3.430245360036260349e-01,3.591303933464626286e-01,-9.672224061474091195e-02,-9.626622444170575277e-02,-5.631279472713868889e-02,2.779674232006072998e-01
3.298486778021900712e-01,3.058237853899124503e-01,3.179402017725492247e-01,-2.437316974332069154e-03,-4.831967734807458316e-03,-1.865663927766243648e-03,2.304809726774692535e-02
3.462889738877558132e-01,3.017070888916461580e-01,3.006515967124460675e-01,1.709283176024508364e-04,1.773645227672103085e-03,-1.137954188217454518e-02,4.933276027441024780e-02
3.868887826931475260e-01,3.150406149755840546e-01,3.079578937073603195e-01,-2.480297213831914732e-02,-2.565852352477061837e-02,-6.995406893182874730e-02,1.556359976530075073e-01
3.847128985976850934e-01,1.940383185677825861e-01,3.208227889128544841e-01,4.600342291307903120e-02,2.921630359368541929e-02,-1.167917102066052537e-01,2.794407904148101807e-01
3.948613212465111322e-01,4.025425516469015585e-01,1.818124035854727372e-01,6.973557022165367825e-02,-1.147936566954778775e-01,6.315150640591199460e-02,3.364098072052001953e-01
2.805457698538287858e-01,3.333389475599677909e-01,4.060549092031802143e-01,6.936563835114090137e-02,-3.438568103556363057e-03,4.121108613552879572e-03,1.625879257917404175e-01
3.111722759438695363e-01,3.112651058747446520e-01,2.467743990528332154e-01,9.244810716283254071e-02,-1.103361209030981477e-01,1.270976004513143520e-01,3.387869596481323242e-01
3.141009800259442208e-01,3.379177660420257245e-01,3.009180282120621497e-01,-7.458191003297500593e-03,-8.661900675638507102e-03,-4.666984752813295098e-03,3.888838738203048706e-02
3.262286610655000252e-01,2.842846929284260082e-01,3.444879102125215087e-01,4.977884812770476050e-03,-3.858339863215612398e-03,7.344198940324680016e-04,5.458185076713562012e-02
3.247965582152924635e-01,3.129804202385473300e-01,3.160905622308772256e-01,2.199310021980424319e-03,-3.139314869102866317e-03,2.415956869474990623e-03,1.319589186459779739e-02
3.142683845780233076e-01,3.255439270182542422e-01,3.166019191367205887e-01,3.314564698844264887e-03,-3.088915668985376447e-03,3.293985031639373121e-03,1.415646821260452271e-02
3.830453909640641474e-01,2.168332228968530007e-01,3.834982100512527858e-01,4.743278619405103674e-02,9.176586755126545092e-03,-6.988049780881496267e-03,1.866833865642547607e-01
2.249941454826843157e-01,3.695526336757070096e-01,3.657743730826482076e-01,-1.055870413967053938e-02,3.108555125595133944e-02,8.621146304752047920e-03,1.543425321578979492e-01
3.019091089894020974e-01,2.018996016658275994e-01,3.992096425017120920e-01,1.254360576904333391e-01,1.696913750422395645e-02,-2.221388514478762205e-02,2.806191444396972656e-01
3.647571072926723557e-01,2.668911649807062525e-01,3.246730544909631200e-01,4.622413583074286986e-02,-1.821177353282741121e-02,6.567672702785841421e-02,1.661533266305923462e-01
4.714881677901202606e-01,1.273788721231881860e-01,4.526627756987079421e-01,-1.332229747940405842e-02,-1.339699779186107314e-04,6.533568448702122000e-02,3.544380962848663330e-01
3.313870741475272719e-01,3.108515028584971085e-01,3.200809944241403970e-01,-7.366296163441907185e-03,6.821125537776717186e-03,9.272216016250466042e-03,2.962519973516464233e-02
2.960719054572485409e-01,3.014558670198977941e-01,3.439882100663519959e-01,1.557936359486560701e-02,-9.013847366311787722e-04,1.607821985604997953e-03,5.296529084444046021e-02
3.805641765674765975e-01,1.950877909273270872e-01,3.758515546255246087e-01,-6.922196644878362767e-03,1.792623242751556836e-02,2.856002590769793695e-02,1.926251351833343506e-01
4.551843422856399757e-01,1.494288516900376118e-01,4.539636097879146681e-01,-4.083082241564769260e-02,3.539545533038568857e-03,5.986520747727905323e-02,3.300079405307769775e-01
3.359301455343109422e-01,3.114926390011533708e-01,3.068081379784537988e-01,-3.364472745589244286e-03,1.553887763896977898e-03,2.657840716637492693e-03,2.821362949907779694e-02
4.794814693787118332e-01,1.567116287253746132e-01,4.811209151365125614e-01,6.161870956420699430e-02,-4.750302622339648215e-03,3.226753061666918360e-02,3.453897833824157715e-01
2.479585193524800335e-01,3.554731391336998225e-01,3.554314399874209385e-01,-3.041642220161939678e-03,-1.997907047131501114e-03,9.357217308532360389e-04,1.076906174421310425e-01
3.265922134061580162e-01,3.373106462675656281e-01,2.928312070203708539e-01,4.728180777887244432e-03,-3.718562186790118004e-03,2.362143857252198623e-03,4.173541441559791565e-02
4.602842921850920366e-01,1.312288430715486676e-01,4.165695409287605844e-01,5.963236496487974575e-02,-3.505689209414945828e-02,-5.462029203552136274e-03,3.320367634296417236e-01
3.644225348033259815e-01,3.227891031301234892e-01,2.521794198479092031e-01,-1.022321504709876490e-02,-1.795488947216383920e-03,4.568866630018986880e-02,1.274534016847610474e-01
3.264805353066987381e-01,2.942055800077725269e-01,3.394849639912115302e-01,4.112033400363332078e-03,-4.801405394726870023e-03,1.606369135441187632e-03,4.193010181188583374e-02
4.671335248031277532e-01,1.560002200287303187e-01,4.763698127881391686e-01,6.571341160132741777e-02,-2.042957295546818722e-02,3.072752140485487601e-02,3.417636156082153320e-01
3.426238227116750190e-01,3.062127348104113356e-01,3.181545411067842055e-01,-7.666306004518605444e-03,5.466687453281991391e-03,1.318124870894943346e-02,4.267044365406036377e-02
3.406216141113152518e-01,2.918609268668190260e-01,3.096320992907621861e-01,-1.289709079729257912e-02,1.062906945135897764e-02,2.353681169919463745e-02,6.577815115451812744e-02
3.918975920979279048e-01,1.239970704971333493e-01,3.850697077634550602e-01,2.826022894617500128e-02,1.381389694508561566e-03,4.585723029203920414e-02,2.805323898792266846e-01
3.323324699755119682e-01,3.481406712937433201e-01,2.891683042317445551e-01,-5.151895157752140429e-03,-2.232530192528385526e-02,-1.533470170040959063e-02,7.124419510364532471e-02
3.337318066012152085e-01,3.809179465374141205e-01,2.790518831863495475e-01,1.226294633512226839e-01,-1.278834102838203035e-01,8.375568798218248345e-02,3.507393002510070801e-01
2.996372154219180128e-01,3.160945276632222134e-01,3.276925642263660565e-01,-8.413194997699699473e-03,-4.960959496135230150e-03,-9.798509935880913083e-03,3.421171382069587708e-02
3.502763326872000427e-01,2.545814800127698119e-01,3.525799461994021389e-01,9.942684780021903215e-03,-3.075734287278083373e-03,3.147146378962859328e-03,9.868089854717254639e-02
3.273137656177655952e-01,3.447385976785487527e-01,2.827182885267038315e-01,-2.752078248831438777e-03,-5.623996639858156073e-03,-1.075737947548724600e-03,5.648478865623474121e-02
3.089560555597766212e-01,3.397649808859127263e-01,3.080967106794880173e-01,-2.729544793585406029e-04,-8.573094031270578862e-04,-3.423244802702066583e-04,3.129191324114799500e-02
2.075046590890522735e-01,3.797458435407733424e-01,3.463815676797111220e-01,8.435252362063623555e-02,-1.041337192675112489e-01,2.817636346638510703e-02,2.851188480854034424e-01
3.071633742929346655e-01,3.390427618639527685e-01,3.040210685938071200e-01,1.531700183378473636e-03,-3.586635795528877492e-03,5.669061887250371676e-04,3.424819186329841614e-02
4.675867994146286066e-01,4.255508280910391128e-01,1.684894483638025020e-01,1.232597659248178996e-02,-1.314933117198595347e-02,1.104574000931656946e-01,3.409258127212524414e-01
3.016449681942852123e-01,3.201668848007486190e-01,3.305406331621273952e-01,4.661956299010862163e-03,-2.058402708510972522e-03,7.267219661320713578e-03,2.965076267719268799e-02
3.887493074053830489e-01,2.288255507028265356e-01,3.986598977758967211e-01,3.840419728727675203e-02,-2.478000949227677965e-03,6.962221773518522012e-03,1.784579902887344360e-01
3.506208816145604534e-01,1.249758139834035164e-01,3.934571682123066960e-01,9.844630991693142930e-02,-1.157136267959726905e-02,2.603534663302330132e-02,3.064745962619781494e-01
3.998591092725788387e-01,2.142208523905028417e-01,3.998571213679877889e-01,8.819423224558437663e-03,6.593003590802211031e-04,1.678651877215110028e-02,1.885237544775009155e-01
3.219776522570515498e-01,3.004669650850885776e-01,3.994211297652157655e-01,7.573380290791070779e-02,6.598004918589145049e-03,-9.184160939675474825e-03,1.603637635707855225e-01
4.618588473450635501e-01,4.516138092326181241e-01,1.578963933894937388e-01,1.561503690982860362e-02,-3.725929176167757512e-02,7.534583786975572461e-02,3.336334228515625000e-01
3.074837116567797901e-01,3.111348545051151882e-01,3.320530192537123337e-01,3.775585582984583924e-03,-1.580031362779106422e-03,4.498392598355757666e-03,2.526335045695304871e-02
3.270498258703040118e-01,3.375495325528505286e-01,2.928707318215507116e-01,-5.728358474339278160e-03,-3.561221484103156264e-03,-2.038623778915581164e-03,4.226442798972129822e-02
3.620492170622460204e-01,2.074202566536743619e-01,3.988220744536702389e-01,2.031496814643116849e-02,4.167224601765688249e-03,1.676933489209258415e-02,1.818854808807373047e-01
2.632394907862972144e-01,3.626143313188355810e-01,3.798968127785328219e-01,-4.220904300968951472e-02,-3.089056213834105724e-02,-1.300644298287082640e-02,1.435495764017105103e-01
3.313477736333841905e-01,3.315888755923597775e-01,2.987949151584079477e-01,9.434725419656576559e-03,-1.071287880152355619e-02,1.152692407145359046e-02,4.558008909225463867e-02
3.527997261790732364e-01,3.104115618801308041e-01,3.080468686352246244e-01,3.520509201594297036e-03,6.340759952473056654e-03,-3.697056036927837130e-02,7.849106937646865845e-02
2.470695019705930195e-01,3.455075289508074410e-01,3.412329056548727979e-01,-2.821183923141243680e-02,-3.359092149403235944e-02,-1.240193948182879806e-02,1.245862320065498352e-01
4.036190002121320397e-01,1.977362892030036512e-01,3.687132845376980272e-01,-1.045586530014558507e-01,-5.732976967962215287e-02,-6.290009855733633137e-02,3.015734255313873291e-01
3.073660147076376914e-01,3.032758041206785604e-01,3.402477940125587796e-01,4.701331882361829868e-03,-1.656900050044400694e-03,6.953454746525851307e-04,3.617220744490623474e-02
3.060880559030489945e-01,3.071231901604710157e-01,3.400832769771567343e-01,-5.101075763218600352e-03,-2.406772891783297546e-03,-8.247864843133167600e-04,3.491472825407981873e-02
2.647856049366844600e-01,3.397891713992745588e-01,3.492034173339404468e-01,-6.098288131551882554e-03,-1.981536921685632217e-03,-3.163780360723698025e-03,8.107799291610717773e-02
2.651042588026535918e-01,3.410166784140458707e-01,3.525125384571232146e-01,-5.853645348483437622e-03,-1.246573830451700848e-03,-1.117652120181854281e-03,8.293813467025756836e-02
3.442675341205407857e-01,2.595559070473386631e-01,3.457019988633986407e-01,-8.202215834779433626e-03,8.852122179834257323e-03,8.290169853611306650e-03,8.912196010351181030e-02
2.868219633985912287e-01,3.260712383240985113e-01,3.309294540129123496e-01,-8.980350328461162573e-03,-8.418665135574255470e-03,-9.999577584107242553e-03,5.009317025542259216e-02
2.559474805820211030e-01,4.305250936022829711e-01,3.872442651550048187e-01,-1.012080842794080421e-01,-1.108543612179005988e-01,-5.160603334546978727e-02,3.168273270130157471e-01
2.725854173476911502e-01,3.405884132052140467e-01,3.431818556856103264e-01,-3.340654761628457370e-02,-2.749337492963219859e-02,-1.182301202333599713e-02,1.041273027658462524e-01
3.302059665136398148e-01,3.078370165303602191e-01,3.113667812362579390e-01,2.428287994885587001e-03,4.607106713077186409e-03,-3.006916431033547932e-03,2.328868210315704346e-02
3.431084548257088973e-01,3.499745605703480367e-01,3.206051041972028948e-01,-3.986224463947722618e-02,-5.056917698096382446e-02,-3.976691746275519412e-02,1.337572336196899414e-01
3.760873539094586882e-01,3.648329989286075437e-01,2.181220304785652375e-01,1.166656015652682045e-02,5.349593427709755517e-02,-1.654749402603086436e-02,1.819811463356018066e-01
2.456647479157441638e-01,3.284459032781119614e-01,3.550195117182974869e-01,-4.462048198249180669e-02,-8.887356201398974656e-03,-6.233644032877055235e-03,1.268272995948791504e-01
3.543995879438638363e-01,2.619326073112998032e-01,3.419672594880760474e-01,-2.851247730403802874e-03,-4.993530002037391453e-03,-5.202918099580303157e-03,8.795186877250671387e-02
4.853154425287315998e-01,2.798536479444159730e-01,3.011460220609468719e-01,1.590774855523556519e-02,7.472189645710641814e-03,-1.691938606518674504e-01,3.536940813064575195e-01
3.272629144688369296e-01,3.416025547072114033e-01,2.849731185408258538e-01,-5.826515156590173113e-03,-4.797705771749282734e-03,-4.945265334089984748e-03,5.333608761429786682e-02
3.163206199185258916e-01,3.098663318646088793e-01,3.700714211600295567e-01,-1.702074356880383388e-01,-8.301911299978131931e-02,-4.851828933492528806e-02,3.434065282344818115e-01
3.430052788338454062e-01,3.525762234155765951e-01,2.619953052024750484e-01,-9.943294047571821573e-04,7.072844878247958739e-03,1.098093780832915759e-03,8.709890395402908325e-02
2.733857090018863567e-01,4.593220537237751033e-01,3.646201377191751747e-01,7.352190080481721401e-02,-1.412699655817779565e-01,5.072399840627397904e-02,3.312688469886779785e-01
2.868345642456596734e-01,3.329760484559963762e-01,3.453877181595265133e-01,-2.073926953170851517e-02,-1.825479524820266750e-02,-6.943735388784090350e-03,7.273575663566589355e-02
2.072375025368886625e-01,4.167867138592429854e-01,4.794041938587614293e-01,-1.361205864524821507e-01,4.356999884768077147e-02,2.569517966577198123e-02,3.524421453475952148e-01
3.011306006813450065e-01,2.785836578871966895e-01,3.462315157711136071e-01,-3.278069673481778801e-02,-5.685517099899816025e-03,-4.662365794838256756e-03,8.333820104598999023e-02
3.396448662631617044e-01,3.270668487211173536e-01,2.896648867650642445e-01,6.507871789980786657e-03,3.786484274195213093e-03,-4.400401455006636500e-03,4.749437794089317322e-02
3.573022425527239143e-01,2.444770310487082710e-01,3.609181633994384408e-01,6.215338147861017293e-02,9.926172723509634616e-03,-2.499891706769329786e-02,1.640430539846420288e-01
3.149068850094201011e-01,3.049619174486438711e-01,3.332095718176562027e-01,-4.508479288956418821e-03,-6.166515050486738071e-03,-3.831285750464994214e-03,2.889642678201198578e-02
2.945372417412389088e-01,3.270459187338631279e-01,3.379424997876892545e-01,-4.278032539237736250e-03,2.096271587137711091e-03,5.207664803324229055e-03,4.097840934991836548e-02
2.459007807734667206e-01,3.590047622656562520e-01,3.549692399883221383e-01,3.946454987016007943e-04,1.395163462101583823e-03,4.499317512793030768e-04,1.111722812056541443e-01
2.609210083211616626e-01,3.504355809484456796e-01,3.404041904060920998e-01,2.080250099419844387e-03,6.657750302182044617e-03,-2.130450299395408951e-03,8.587844669818878174e-02
3.524647634122307083e-01,3.611134113474759877e-01,2.531456377133105562e-01,-2.032995715978643675e-03,1.331289601943446560e-02,-4.941370201801381645e-03,1.068429425358772278e-01
2.709783635086259745e-01,4.008542961380923697e-01,4.452462914621890810e-01,-1.426508361840101713e-01,9.493522972759249612e-02,5.758121084460834233e-02,3.501949906349182129e-01
2.314601344052509835e-01,3.862849932861565083e-01,3.919243166952425250e-01,-3.005437442455105579e-02,6.988269441863913592e-03,5.861907178461114886e-05,1.665291637182235718e-01
2.945404079801514641e-01,3.307078864981338739e-01,3.454760686218046883e-01,-1.491932408482265007e-02,1.050060104655819830e-02,6.591942877567572370e-03,5.647319182753562927e-02
3.613796614101120741e-01,3.632824160846480632e-01,2.485393939587424439e-01,3.004938822370322848e-03,-5.395254685203127246e-03,-1.041898411965885840e-02,1.157209351658821106e-01
4.223670975956623219e-01,2.576786705644370512e-01,3.742532539571472028e-01,-8.111598447988979665e-02,-5.573901713020932430e-02,-1.354838084207324322e-01,3.250245153903961182e-01
3.446714783871090426e-01,3.476374860707056036e-01,2.557045557183095230e-01,-8.120145745612433394e-03,-1.015153343957550698e-02,-7.175935104589074853e-03,9.407040476799011230e-02
3.636265772357745729e-01,3.619125804834780746e-01,2.491199958979713192e-01,-2.284099565733554993e-03,1.328166157152596387e-02,1.945811692479067993e-03,1.160803511738777161e-01
3.906744531223851902e-01,3.661923255032682456e-01,2.244664312548574903e-01,-1.013038715617202608e-03,-5.803044318026194179e-03,1.614566299741751476e-02,1.582450866699218750e-01
3.848916128233660361e-01,3.876062257277538281e-01,1.819806650348996524e-01,-4.779054188711092353e-03,-1.891254975903688962e-02,-1.872641188241097945e-02,2.095820903778076172e-01
3.132820559752287348e-01,2.922508413755843248e-01,3.477314600533643052e-01,-9.022406645984446666e-03,-1.294445663143270952e-03,-2.473714934708666057e-03,5.119748413562774658e-02
1.599526344429387514e-01,4.636521817112220778e-01,4.682861035382306358e-01,-4.292993371597937646e-02,-3.190456011470698544e-02,2.232499241651636403e-03,3.197808563709259033e-01
2.618639262323831929e-01,3.491012530035573769e-01,3.415137227900207351e-01,5.925773611159566379e-04,-4.948731198001284255e-03,3.256034099381914688e-03,8.433465659618377686e-02
3.579664217918201996e-01,3.673386757698423599e-01,2.060968602259777571e-01,5.986668863377592187e-03,2.686473603151206049e-02,-5.479907411117741420e-03,1.641289591789245605e-01
4.019070439060213329e-01,2.004857970255333743e-01,3.673008076624615370e-01,-4.326203819053891370e-03,2.973201424589122510e-03,-7.436186740136349789e-03,1.872064024209976196e-01
2.662297341922704730e-01,3.400532164958227632e-01,3.489493781023401686e-01,5.087693584466253943e-03,-1.582670357170241513e-03,2.963819214972235674e-03,7.935561984777450562e-02
3.569547596643326548e-01,2.587379837558816398e-01,3.574631958709608703e-01,8.104552616464122047e-03,2.312420218373621196e-03,-7.325785758386176363e-03,1.003535017371177673e-01
2.506886423751404358e-01,3.543826613192384012e-01,3.531909196778873494e-01,2.306155092108182897e-03,2.272238702678671535e-03,-1.199911404010561020e-03,1.032766029238700867e-01
2.766469590769485287e-01,3.294062899009926326e-01,3.416592017115741009e-01,-1.072798140480437507e-02,5.556399206785650295e-03,8.912433238888234702e-03,6.524048000574111938e-02
2.814193749481709306e-01,3.235703570455478739e-01,3.516533569505401746e-01,-2.911272689216302251e-02,4.539165424379904001e-03,1.314836078839749095e-02,8.289866894483566284e-02
3.264793882911928291e-01,3.410748168082348153e-01,2.902914592863872212e-01,6.580072184848040698e-03,-3.654752771759194573e-03,2.501055700759624231e-03,4.732336103916168213e-02
2.651650848494176982e-01,3.420828611592726665e-01,3.576275679331683000e-01,-5.897480793334080804e-03,4.437133715906105454e-03,-2.842831036043421810e-03,8.684063702821731567e-02
2.494259290634824322e-01,3.623388335569763252e-01,3.587843453918015402e-01,3.391300038684562368e-03,6.531008521660690812e-03,1.606373409331258691e-03,1.119411289691925049e-01
3.948480669801572307e-01,3.772772745886243673e-01,1.657915427820768894e-01,3.450064880216347808e-03,-9.408022987917848481e-03,-1.068804460306235216e-01,2.886562943458557129e-01
2.887722474101286352e-01,3.434662927657029519e-01,3.137559349598377234e-01,4.236179362166364354e-04,7.724351568675142526e-03,-1.855011291980289065e-03,4.938646405935287476e-02
2.850048390013315558e-01,3.474463035471684891e-01,3.268984674429944448e-01,1.459731938452620654e-03,5.028313049226953643e-03,-3.586617173457324302e-03,5.620452761650085449e-02
3.078584781158035799e-01,3.055696903085758365e-01,3.400212552511716613e-01,-2.782839666026916837e-03,-1.423023004028151116e-03,-1.218618525204517118e-03,3.386826440691947937e-02
3.541332554667830368e-01,2.418775626875725726e-01,3.590042065990712850e-01,-1.974546715076313033e-04,-3.985260541363165251e-03,-4.525602255035109447e-03,1.152435094118118286e-01
2.784782358814722469e-01,4.381138621667989286e-01,3.647823284582307757e-01,-8.673230691169017681e-02,1.370350789296093663e-01,4.905552352724619480e-02,3.244647383689880371e-01
3.265144100541199079e-01,3.484599702196920501e-01,2.791495435565892191e-01,3.371806716779227314e-03,6.121648202227279560e-03,-1.750068990894174245e-03,6.261155009269714355e-02
3.620964438774246785e-01,2.542277789876511429e-01,3.599849884532630995e-01,-8.899912965356908401e-03,-1.832689523875349544e-03,-7.233112278517009677e-03,1.087060347199440002e-01
2.712866922245558698e-01,3.422519014019496097e-01,3.251524103124751042e-01,-4.623800692668713144e-03,1.271829207877600912e-02,7.353469891243380810e-03,6.947379559278488159e-02
3.897534947018095330e-01,2.447654826938547301e-01,3.675355934942396430e-01,-5.206396915274917776e-04,-3.031420580705036089e-03,-4.805764307757218190e-02,1.589050740003585815e-01
3.596973200849478136e-01,2.072070890605692828e-01,3.535991546986300693e-01,-1.391380068423637810e-02,-3.803448504183376544e-03,-2.143474373918991677e-02,1.560867428779602051e-01
3.076659204426018257e-01,3.097240748367002250e-01,3.405705977308667864e-01,-7.136214850682488092e-04,-5.368817730975423757e-04,-9.823109333425134298e-04,3.200809657573699951e-02
4.521517663611447913e-01,4.448629079616854831e-01,2.052819093736358846e-01,-4.498813228684180737e-02,1.118108742394611083e-01,7.771285288898924226e-02,3.476969003677368164e-01
1.690342978378083783e-01,4.600123148202446277e-01,3.520101427635363711e-01,-1.864225467543787970e-02,1.362720855677051479e-01,-3.269246530315697563e-02,3.533633351325988770e-01
3.598749917045119262e-01,3.529817742367885591e-01,2.531225927828667510e-01,-1.227594562317297581e-03,8.358102175565743433e-03,2.920524803639242255e-03,1.046298518776893616e-01
3.585994796169785781e-01,3.938115915563908942e-01,2.018369280285173817e-01,2.015658050635709200e-03,2.912628002497889487e-02,-5.698371796296966552e-03,1.843609362840652466e-01
3.176217798299786899e-01,3.031439881029754924e-01,3.371347665037301433e-01,2.364281299976927608e-03,5.055474442561892420e-03,-1.756634333630364194e-03,3.123408928513526917e-02
3.836759987754145285e-01,1.332667014118665005e-01,4.097797951446111031e-01,-6.799482266861711643e-02,1.765085107077932550e-02,4.538348521993281620e-02,3.015068471431732178e-01
3.350696269588460674e-01,3.101910735565887034e-01,3.128666315233342154e-01,-6.810081817344925629e-04,8.508491584910590202e-04,1.722385557151064972e-03,2.391652204096317291e-02
3.241743270028931145e-01,3.122917332160630721e-01,3.132267332207555044e-01,-4.600600963706729697e-03,4.401402742588541445e-03,5.026193061493843851e-03,1.812074892222881317e-02
3.435364060173848877e-01,3.146230688151102073e-01,2.905221899306656419e-01,2.463506603036839937e-03,-9.235456832644649804e-04,8.370622160919176727e-03,4.842145740985870361e-02
3.075363839996650972e-01,3.083338768262121610e-01,3.397354787014041366e-01,-7.407639652556064240e-04,-5.217870563374611822e-04,9.780460964489663878e-06,3.184654563665390015e-02
4.612922563967764567e-01,2.269342583806120417e-01,3.520350062297837868e-01,5.666654409841780093e-02,-4.106889380665598721e-02,1.674852157419841336e-01,3.743028938770294189e-01
3.292906966381270450e-01,2.956570058884309127e-01,3.132680882099141972e-01,1.442396708076430084e-02,-1.545102643430639605e-02,2.056052774358687468e-02,5.880144983530044556e-02
3.554968353030773520e-01,2.551404805213517424e-01,3.429170737583605577e-01,-1.141035139775426789e-03,-7.119474727064671691e-04,5.876477409612874611e-03,9.526917338371276855e-02
3.578604612673425001e-01,3.524843000113641045e-01,2.456070400979269985e-01,-2.515924579804326190e-03,-5.964099355322333672e-03,2.966132998039667634e-03,1.103554964065551758e-01
3.673140852222367414e-01,2.098746207945436648e-01,3.435998303469903759e-01,5.061706397231383742e-02,-3.096743090332720882e-02,7.979116857486032166e-02,2.264488637447357178e-01
3.397575323770937739e-01,3.428762514169141906e-01,2.675402005644629266e-01,4.776473308188159718e-03,-5.089761556751826871e-03,5.100907477908358731e-03,7.532937079668045044e-02
3.779755583245484885e-01,2.928301958110043346e-01,4.092921525497320023e-01,1.240880554034818617e-01,-6.065102702548792052e-02,9.614895131524286986e-02,3.096126019954681396e-01
2.491381778459383356e-01,3.459082183395060794e-01,3.496447489359562066e-01,-1.288004940779841935e-02,2.530774382992920322e-03,3.217452093773514547e-03,1.014294996857643127e-01
3.461571899075380210e-01,2.891748190979214761e-01,3.253834575457123512e-01,-2.610292793036223663e-03,5.231985714544236041e-03,4.613653365981279682e-03,5.158702656626701355e-02
3.391885915959960696e-01,2.726144873614220754e-01,3.430713723300703455e-01,4.744636634057365632e-03,-5.555943317663075351e-03,4.461220134240163372e-03,7.018210738897323608e-02
3.555555660887124714e-01,2.407366428056023633e-01,3.548802949439478494e-01,-3.892996859830774418e-03,7.155264730825561682e-04,1.586480878832914349e-03,1.147207915782928467e-01
3.523613743496770145e-01,2.292754472687454359e-01,3.373292214269754119e-01,1.518012383488601472e-02,-8.792308046245731618e-03,3.273619433671616508e-02,1.329062134027481079e-01
3.332039697010560353e-01,2.614836210080522805e-01,3.599730153154068191e-01,4.034476651152204413e-02,-1.766138206120017318e-02,4.983968669030170578e-02,1.450900882482528687e-01
3.522858429755667542e-01,4.202172052602251573e-01,2.405151539634664826e-01,7.731535348102991367e-02,-1.330305174714424277e-01,2.111839323209798239e-02,3.115483820438385010e-01
2.807531702515660421e-01,3.460680674627216735e-01,3.257221646354370170e-01,2.900719571466362032e-03,-7.112809899575229730e-03,2.557053602205225026e-03,5.956286936998367310e-02
3.222059888432621810e-01,3.106963510346882895e-01,3.215492192084778988e-01,-5.838927299654093905e-03,-6.111590366850898695e-03,-8.302181953975829379e-03,2.337640710175037384e-02
3.401408367726204141e-01,3.384108478667724462e-01,2.753253256778809277e-01,5.293676587938977648e-03,4.702600558919133554e-03,-4.928721231065209991e-03,6.569020450115203857e-02
2.587001516791231914e-01,3.475531853000114468e-01,3.479154432043053968e-01,-8.781435190422178655e-03,-9.286847038081143257e-03,-4.944744192253130999e-03,9.214450418949127197e-02
3.530180577450085511e-01,2.558232429662084528e-01,3.496552501451041794e-01,-6.642311908457353316e-03,3.165871920634064866e-03,1.010592471754919938e-02,9.798015654087066650e-02
3.278002152930755142e-01,3.037877531583191848e-01,3.205416374065105378e-01,1.642758734876119397e-03,4.727195464858246522e-03,-2.298592481908727676e-03,2.336610108613967896e-02
3.410158972468569916e-01,2.565866631043104973e-01,3.493695083710503524e-01,6.106856011042192250e-03,2.954638603392449603e-03,-9.010008257057327370e-04,8.968764543533325195e-02
3.768883555932897034e-01,2.387795365460071151e-01,4.607934744627278922e-01,1.486116896962000611e-01,3.739565256442343999e-02,-4.985417643351227474e-02,3.400148153305053711e-01
3.577911146840915824e-01,2.452739481130826182e-01,3.551803328807482396e-01,-1.010313780766393388e-02,-1.529105354343984714e-03,1.854399685144993148e-02,1.171240583062171936e-01
3.530625117078559638e-01,2.656382819515706872e-01,3.413275732086679670e-01,-6.406635803235264694e-03,3.413160455773363647e-03,5.429763950120310330e-03,8.367387950420379639e-02
4.483871261026557420e-01,2.165533535046427482e-01,3.912058337529090712e-01,7.653838136070786891e-02,-3.608064265891026273e-02,1.322777540755749048e-01,3.431210517883300781e-01
3.146813709231558454e-01,2.870753327572025393e-01,3.469706507127470196e-01,-9.687228151532924214e-03,-4.870972017089665942e-03,-1.418478055553274580e-03,5.527035892009735107e-02
3.746418744402773560e-01,3.053882028499654289e-01,2.963688952161069312e-01,-3.674577063935006299e-02,1.940554527053162115e-02,5.435886643675691410e-02,1.398112326860427856e-01
2.423975816688125895e-01,3.610567730654369312e-01,3.275273923095919915e-01,1.835948888699730913e-02,4.609838923730848886e-02,-5.375955259110494315e-03,1.367433816194534302e-01
3.483518182437518873e-01,2.724207076988945375e-01,3.286309453545045445e-01,2.669747522953743769e-03,-4.734681461561055134e-03,1.232592136747761614e-02,7.212099432945251465e-02
2.755439646221290451e-01,3.269406370210782842e-01,3.470968026967720110e-01,6.222861639166761723e-03,1.526579621479537017e-03,-3.206881787704619381e-03,6.509888172149658203e-02
3.202853944409327358e-01,3.082569768663189214e-01,3.283734073889412741e-01,1.308334076397596555e-03,5.077600661851453673e-03,-1.515451927997476514e-03,1.991873234510421753e-02
2.701201012307744564e-01,3.308037624165368618e-01,3.500653461699280156e-01,1.349409032112476418e-02,1.032622166018007685e-03,-1.419597819224664053e-04,7.597308605909347534e-02
2.776924461010931711e-01,3.389795641628856049e-01,3.399840377010784898e-01,3.921714623668475994e-03,-3.917034618330852459e-03,5.785433758237572971e-03,6.333453953266143799e-02
2.903195069657669714e-01,3.270225313941603207e-01,3.378437268526568449e-01,3.794577691730353919e-03,-2.123298268025154614e-03,5.625477820809259358e-03,4.486691951751708984e-02
3.276143684721570248e-01,2.913472920539667554e-01,3.395747097568425077e-01,4.628757257918396546e-03,-6.290334330700322885e-03,2.461145265752075813e-03,4.575226828455924988e-02
3.227832234027953051e-01,2.322370252118883538e-01,3.556346857166905462e-01,5.333579153189235700e-02,-3.598169562589435128e-03,3.113357677262979396e-03,1.444106847047805786e-01
3.543290745614633419e-01,3.616187960745932406e-01,2.368280135571991796e-01,-1.449472369923207778e-03,2.902642367259787668e-03,3.783939184436265792e-03,1.216171160340309143e-01
3.639145275450614836e-01,3.648132660418264006e-01,2.296264011031318719e-01,-3.966957382131353592e-03,-6.495951713355317333e-03,1.642690416798323755e-02,1.383406370878219604e-01
3.551568509905039805e-01,3.671103311966833482e-01,2.533361834484806341e-01,5.557949992525581216e-03,2.745350256833355151e-02,8.957202419454791259e-03,1.196741238236427307e-01
3.803358305312170562e-01,4.063322120263947457e-01,2.285027335772046586e-01,3.071334758916739564e-03,4.964655125126818391e-02,-3.250180138661163147e-04,1.873477250337600708e-01
3.837504025167740584e-01,3.592921082039247649e-01,1.719821651358385550e-01,2.397431379311025512e-02,5.805573736311470806e-02,-9.737245801473019824e-02,2.838034629821777344e-01
2.641317478964940735e-01,3.471880623837391155e-01,3.408645109760456982e-01,2.212379731534436754e-03,5.906424884172509042e-03,-3.475042341536133811e-03,8.104749768972396851e-02
2.410691199841885624e-01,3.535022731744955626e-01,3.538441163124340649e-01,-8.871641569804362103e-04,3.491623021459779822e-03,1.409006966272934903e-03,1.128036230802536011e-01
3.553798251359321925e-01,2.464689277461857009e-01,3.485767733753603048e-01,-1.594040435824266126e-03,-6.673934805772420214e-05,9.926945816180173313e-03,1.070990562438964844e-01
3.728366064719020323e-01,3.807422448884003052e-01,2.324941196604571880e-01,5.662340366819954701e-03,-1.695085422117017029e-02,3.121563004969819637e-03,1.478357911109924316e-01
3.549779332677315824e-01,3.637434855530997102e-01,2.009141638432163646e-01,-3.985017604105193373e-03,2.080055636046075282e-02,1.798532239297621904e-02,1.657678484916687012e-01
3.574350142096817118e-01,3.929061036864003320e-01,1.844263324103309343e-01,1.358768578145451954e-02,1.005706177947403301e-01,-3.107416506330575035e-02,2.666852772235870361e-01
3.156489360799701327e-01,3.163991306267379122e-01,3.223258505590259060e-01,2.910911636723543649e-04,-7.260786162177550011e-04,-4.641766185791503137e-04,6.528181023895740509e-03
3.541415402078808006e-01,2.430376075062042895e-01,3.544814088103873662e-01,-1.191359957094809780e-03,-1.450827416924550676e-03,-3.385318898929541923e-03,1.114760711789131165e-01
3.080409712621494656e-01,3.115035227587539257e-01,3.322048119995651416e-01,-3.528239338917264767e-03,-1.426800609034036948e-03,-3.124444499376261789e-03,2.418576180934906006e-02
3.488227203003719801e-01,2.847007724067592838e-01,3.267340058635522237e-01,1.293519787051261539e-03,-2.944068732056281251e-03,5.730960837962557203e-03,5.755621567368507385e-02
3.365687395770158297e-01,2.972679351713413687e-01,3.192028312900521136e-01,2.322371548986814499e-03,-5.785924316868389615e-03,6.707632980784483841e-03,3.761943429708480835e-02
3.587275925858410264e-01,2.464880789021359764e-01,3.552851926937113380e-01,2.940964270812027655e-03,-2.765651958109588025e-04,3.988524945306212016e-03,1.108922362327575684e-01
3.316222334413828077e-01,3.385728954700542026e-01,2.846537098559360768e-01,-7.816442700985748449e-03,7.946858192312717187e-03,4.994191465277396727e-03,5.503081157803535461e-02
3.519301923405782628e-01,2.572812252155960433e-01,3.412007039269521758e-01,-9.915609004077929542e-03,6.278451372551690883e-03,3.155020044911233112e-02,1.070395931601524353e-01
3.452258158308770253e-01,2.457417090380732416e-01,3.539264480594104256e-01,-1.356254110858165496e-02,1.655785918178232126e-03,5.968009504401064784e-04,1.067683696746826172e-01
4.559295147491921329e-01,1.508852898094928952e-01,4.675578431739960683e-01,4.769691647464929796e-02,-9.134137803595447636e-03,4.878833585735090766e-02,3.330923914909362793e-01
3.308046887078768261e-01,2.776490572413532476e-01,3.423243171831941711e-01,-3.545385293232907603e-02,-1.934823918215378483e-02,-2.451355465836776992e-02,1.013276353478431702e-01
4.133830093204852729e-01,1.282865277420091044e-01,3.509720537944574503e-01,-6.957040898040622173e-03,2.422418901878394329e-02,1.074674986173339841e-01,3.223901689052581787e-01
4.380387700333003287e-01,2.681944471934040730e-01,3.602511660984856201e-01,-8.908931077675578958e-02,6.070219990776259955e-02,1.399843125217533901e-01,3.396145403385162354e-01
3.448105208488061457e-01,2.008992418487026699e-01,3.702308878343693599e-01,8.142277122501728748e-02,2.828886155285737988e-02,-6.519694850732199454e-02,2.450645565986633301e-01
3.037965816247010786e-01,3.148273414733261388e-01,3.358622030966915140e-01,-2.935139398482225753e-03,9.317073007872322954e-04,3.295526060826428107e-03,2.927805297076702118e-02
2.456071950832882100e-01,3.708533548116118572e-01,3.542388535928311932e-01,-6.231724273611607447e-03,1.849220078939770376e-02,6.260856924696626968e-03,1.230517029762268066e-01
3.300065829668903938e-01,2.727638446933999261e-01,3.575005412463790888e-01,-3.007524972455603851e-02,3.924830924393740185e-03,-2.776197088852705355e-03,9.159353375434875488e-02
2.908862730700536581e-01,3.268250664130635808e-01,3.391036479332223963e-01,-3.967300600193737585e-03,2.104027689016474585e-03,5.917749816743696038e-03,4.526805132627487183e-02
3.584060149299809761e-01,2.482697540840260730e-01,3.484165572773616493e-01,2.789621022564112846e-03,-2.154536121110656524e-03,9.863883335379635894e-03,1.070455238223075867e-01
3.510431520419389773e-01,2.529737283222444066e-01,3.552123989941755045e-01,2.127873582037697296e-03,1.971079802970457633e-04,3.608843121099027974e-03,1.004820466041564941e-01
3.375584107854235349e-01,2.868997603663058782e-01,3.264635717451083163e-01,-1.622840574331165702e-03,-5.074784832642917874e-03,-5.085990696492220103e-03,4.785507172346115112e-02
3.418854779102452057e-01,2.842733605185821522e-01,3.276374427425816083e-01,-1.362284404093834413e-03,-7.676873919095010892e-03,-6.537246340549001354e-03,5.488060042262077332e-02
3.305592177053229830e-01,2.737214965992825211e-01,3.645482275098086977e-01,-3.028463443062084925e-02,2.937017861061241505e-03,-1.105172588570644881e-03,9.538687765598297119e-02
3.467940058550429416e-01,2.837902775957322765e-01,3.301047382577801947e-01,-1.493451176435172181e-02,-4.083644276033986456e-03,-2.345317103140477297e-02,7.460439950227737427e-02
3.345460488673953070e-01,2.846991032095209651e-01,3.410119647021887523e-01,-5.960369241092840220e-02,-2.375323888805857750e-02,-2.837273348926550379e-02,1.327189356088638306e-01
2.815353261866758161e-01,3.441221570791064832e-01,3.272714260539228981e-01,-7.282548930982788171e-06,4.901350651448996808e-03,1.093696172257518700e-03,5.676339566707611084e-02
2.757556767261013508e-01,3.852366727300060578e-01,2.980371739992396796e-01,-2.091284869805036181e-02,5.362505223475627636e-02,1.079035384921821390e-02,1.425883173942565918e-01
3.199068245520503839e-01,3.642502922561705048e-01,3.300484634982097099e-01,4.579224218241900041e-02,6.485141186552406678e-02,-5.422577119665251966e-02,1.713145822286605835e-01
2.226203148286430844e-01,3.214760132887117261e-01,4.237612296750832841e-01,-1.164816712447042102e-01,7.854954396600642708e-02,1.745979435778502106e-02,3.007902204990386963e-01
3.340455252503520267e-01,2.596254761312183912e-01,3.464944030441368117e-01,-3.627524927584199060e-02,-1.379177402744191996e-02,-1.750789364472428097e-02,1.098073944449424744e-01
4.588340817864403620e-01,3.422605685072082071e-01,2.882262001123707118e-01,-5.085933141772640970e-02,5.526824709875122893e-02,1.639649995710847907e-01,3.469659686088562012e-01
3.517519934360400224e-01,2.405492758677103826e-01,3.419195170672321704e-01,-2.057386979179319508e-02,-7.243167672745296978e-03,-2.587233310930215149e-02,1.216745674610137939e-01
3.369197689907870719e-01,3.026939457353961527e-01,3.264786486467697313e-01,-4.334969770848714869e-03,-1.110176249837416772e-02,-1.103677105426141558e-02,4.140799865126609802e-02
3.697103660033003170e-01,2.281287726109592628e-01,3.744212649694090844e-01,2.445097260526139446e-02,-1.533490615156058237e-02,2.641589698362669172e-02,1.591444164514541626e-01
3.084883667960135467e-01,3.074001953898515271e-01,3.418828981614087104e-01,-6.413829222194550317e-03,5.519859939959182978e-04,-1.003757361706628928e-03,3.577801212668418884e-02
2.924687464976073459e-01,3.581755371556906153e-01,2.619634817515683056e-01,-7.595052733275503565e-02,1.097743046074149548e-01,7.297476431256977314e-02,2.769204676151275635e-01
3.267767197880518393e-01,3.486590536361293680e-01,2.865549278773105724e-01,-1.585391444337932131e-03,5.340776010971707254e-03,-5.713387489591470990e-04,5.541540309786796570e-02
4.104482265729658685e-01,1.404941201750442292e-01,4.232430874449876756e-01,7.054245380430120005e-02,-6.899700977772935118e-02,3.820228372957240603e-02,3.317855894565582275e-01
3.543523521783485952e-01,2.407216104826818137e-01,3.599977467196922021e-01,2.725903361547943500e-03,1.235674256588287917e-03,-2.692927606295027979e-03,1.167644411325454712e-01
3.154621258143260332e-01,3.016759693054998914e-01,3.442572700073355252e-01,-1.820456093331845188e-02,3.084543648403950488e-05,1.627847241077793553e-03,4.917686060070991516e-02
3.414751151229099557e-01,3.279912023577571945e-01,2.864214141013398107e-01,-4.547345056621124836e-03,2.345861566821515372e-03,5.914989574126462354e-03,5.151594057679176331e-02
3.611327632432310142e-01,2.883257310251408634e-01,3.266681556807043418e-01,6.948371845115453374e-03,1.031014075941350146e-02,8.358798050480654995e-02,1.593863070011138916e-01
3.302749351281742407e-01,2.913733405182389324e-01,3.368021356192358873e-01,-1.660272565472460660e-02,1.175744167575485527e-02,1.523487045417823774e-02,6.121947988867759705e-02
3.269166301186116619e-01,3.386877642372488340e-01,2.919100624890938467e-01,-5.109596266065930675e-03,4.083824152014286363e-03,3.232005070386372112e-03,4.399750754237174988e-02
3.205889589122069561e-01,3.121177275801901851e-01,3.283541574466420365e-01,-1.557791821250670977e-03,3.622455580351425022e-03,1.372485709230492155e-03,1.581577397882938385e-02
3.110773624425654527e-01,3.111267262920272558e-01,3.331827542894045258e-01,-4.307300294268039207e-04,1.917375708107517309e-03,6.819334689715114911e-04,2.237275615334510803e-02
3.457599472532449925e-01,2.251967508582278787e-01,3.634362932491241871e-01,2.718178182247425745e-02,3.181278587075057028e-03,-6.998488123362079857e-03,1.391865611076354980e-01
3.852531549178420667e-01,1.257858412546250249e-01,3.727361580290981524e-01,5.393577551587881713e-02,-1.302027112015410881e-02,5.717563840983960061e-02,2.885743677616119385e-01
4.313737398223302377e-01,2.266272669386047989e-01,3.255175121579512165e-01,-3.252315995799656689e-02,-2.762826532902323134e-02,1.499690035482414419e-01,3.230918049812316895e-01
4.025154639989959593e-01,1.980049158685902033e-01,3.993626159681168963e-01,-2.329097726511276945e-03,3.159955523600862203e-03,-1.731111450234397095e-03,2.030884921550750732e-01
4.945813089700914489e-01,1.412439730845893859e-01,4.517293040937625515e-01,-7.328528204447901095e-02,2.213245279455948802e-02,1.015900406324314192e-01,4.001071155071258545e-01
4.716297766042159001e-01,3.400653268283408970e-01,2.819523763156445706e-01,-3.343222397667933166e-02,2.985167888148933940e-02,1.679056017746366203e-01,3.448699712753295898e-01
4.042714242941441438e-01,9.167538162222876874e-02,5.001457793993270284e-01,-9.829651806380360068e-03,-1.836903218491028195e-02,-5.279838123732780858e-02,3.828096985816955566e-01
3.728861082277420413e-01,1.239578256181428362e-01,4.049583809211889096e-01,7.442220768750179571e-02,7.601799726302382182e-03,-6.257243498774156965e-04,2.962568998336791992e-01
3.154781633627928850e-01,3.125230576294966145e-01,3.288390062028739291e-01,-2.287592450190480131e-02,-2.953231251509510352e-02,-2.318687579689968081e-02,7.762742787599563599e-02
4.717149788381762576e-01,1.354412352471286163e-01,3.881899763896041744e-01,3.662539507833354607e-02,1.241316050526497690e-02,-3.932526774134844499e-02,3.179546296596527100e-01
2.798808496335695173e-01,4.030883788801106760e-01,3.997668076859493547e-01,1.198892793007326069e-01,-1.088639836781378628e-01,6.179006381389760133e-02,3.238986432552337646e-01
2.442001562580435048e-01,3.463260491259539942e-01,3.692755541946479703e-01,3.006864942267681307e-02,1.049155183377794773e-02,-1.946855681198055368e-03,1.278830617666244507e-01
3.274730028250896763e-01,3.002761053734002150e-01,3.281763290539984057e-01,3.311970028600853041e-03,-5.832189290562338722e-03,2.986266300659599655e-03,3.034795261919498444e-02
3.376342229867771438e-01,3.204387471122672193e-01,2.968239935974713584e-01,6.024749336355057772e-03,-2.110127804107891220e-03,6.664106388269792555e-03,3.892158344388008118e-02
3.106307529926023436e-01,3.200915270428589254e-01,3.221328516573654932e-01,1.282810585714358204e-03,-1.286162299564931871e-03,4.277248960486886194e-03,1.333303377032279968e-02
3.049526694302640561e-01,3.176925630245158727e-01,3.363302624736605462e-01,2.090488829579636044e-03,-1.406413724167213629e-03,3.628122611145238700e-03,2.838389202952384949e-02
3.277980555338904090e-01,3.261897041656653951e-01,3.029488088934346179e-01,6.329240317323293376e-03,-2.948583529787587344e-03,2.089711162645619368e-03,2.719313278794288635e-02
3.283362684302291723e-01,3.089823527645579881e-01,3.177104168005394080e-01,1.110108422929466246e-03,-3.854570835120226316e-03,1.185306170563973438e-03,1.828430965542793274e-02
3.536469321013079870e-01,2.253505733116916987e-01,3.636330021627315334e-01,2.476148043740540594e-02,-3.326425748529285471e-03,-7.410048273558050153e-03,1.409899592399597168e-01
3.614798554046352308e-01,2.411325295938177293e-01,3.608557939042459917e-01,7.047737143753445878e-04,3.053908569239582697e-03,-3.237737636891184836e-03,1.202899888157844543e-01
2.460857446737367837e-01,3.262103079047879439e-01,2.721133922468714772e-01,8.967502269494806444e-02,-1.211755882422041880e-01,7.957734649609575495e-02,3.036198019981384277e-01
3.144302283368655693e-01,3.357550722948720034e-01,3.026305129263085480e-01,2.888141013297155796e-03,-2.304593143973097513e-03,1.282620617997826899e-03,2.985803410410881042e-02
3.628710280590927151e-01,3.491093585534109089e-01,3.602972833142075726e-01,1.090874890385781781e-01,-9.435943558073570103e-02,1.074948309002800306e-01,3.118290603160858154e-01
3.083068838026654657e-01,3.094798902200036617e-01,3.360951111939066704e-01,-9.849137425766074302e-04,8.780680614428621605e-04,1.871348939599646894e-03,2.750808559358119965e-02
4.805931648791347821e-01,2.600363449763499757e-01,3.255987721322267103e-01,-2.614358735487566990e-02,-2.487692200666006756e-02,-1.630501283816358227e-01,3.494947552680969238e-01
3.435657930031320584e-01,2.677672006748037514e-01,3.115126292643053407e-01,2.712529571539116710e-02,-2.569284065114091006e-02,4.306023405835171514e-02,1.187160909175872803e-01
2.914394624615665452e-01,2.904192017413635973e-01,3.539668669471104923e-01,5.186441293933515689e-02,-2.555012377157981490e-02,2.822643623559033949e-02,1.280346959829330444e-01
2.673002358307220439e-01,3.468421027212582053e-01,3.516640666533333848e-01,2.749311788991963199e-02,3.042283091258785911e-03,-1.026502369204622921e-03,9.503815323114395142e-02
3.136075896024281828e-01,3.216994533569503267e-01,3.216508938890457192e-01,6.330920869547243751e-04,-6.714509137065486580e-04,2.436200279673820471e-03,9.243800304830074310e-03
3.414566830389226815e-01,2.895981173489287630e-01,3.186477595115138062e-01,4.913268501823602787e-03,-7.640091840609278262e-03,8.834993393670151351e-03,5.008417740464210510e-02
3.901996103432537888e-01,2.222432206398056165e-01,3.654305611120412522e-01,3.186792584109617715e-02,2.693661036046869454e-04,-5.707801656615931959e-03,1.667554527521133423e-01
3.605590735494346166e-01,2.502617971916011319e-01,3.508893902255607045e-01,7.087288315893358528e-04,9.969092030329472856e-05,-9.372655108763635820e-03,1.070398464798927307e-01
2.443397431561828426e-01,2.640204040301054045e-01,3.809533845266369623e-01,1.309108085107286990e-01,-5.489003169052772413e-02,6.486345731960453664e-02,2.990575730800628662e-01
3.789602349066381048e-01,1.685929278022363642e-01,3.427087203796737591e-01,-4.698616729668511627e-02,-2.536574161057438687e-02,-8.125569636382344585e-02,2.574942111968994141e-01
2.089217473727060792e-01,2.915728459494342784e-01,3.921110122512859730e-01,1.438713199176302471e-01,-3.854574095543762680e-02,2.491229884703906675e-02,3.060470223426818848e-01
2.706827959142439899e-01,3.470004679554934968e-01,3.352725999640004395e-01,-4.345483684203356759e-04,-1.421136575502080814e-02,5.599694701389977027e-03,7.594347745180130005e-02
4.808511751734095840e-01,2.660414701298232099e-01,3.348097161760314466e-01,2.046509950103614361e-02,2.241506147392820052e-03,1.748922068049334477e-01,3.593516051769256592e-01
3.261811659213760262e-01,3.312543665168099505e-01,2.945721509748549516e-01,7.173918909708146968e-03,-3.411210203176867715e-03,5.758636204595271417e-03,3.839291632175445557e-02
1.789495207266949550e-01,3.689388874348288327e-01,4.610218908565769658e-01,9.210050026732929940e-02,-3.702586687885338346e-02,4.145025197681387330e-02,3.111023306846618652e-01
3.522126957126121560e-01,2.743031394601043171e-01,3.413177211337804495e-01,6.524360088440175204e-03,3.816955966400198061e-03,-5.103220025139280740e-03,7.476171851158142090e-02
2.066784791066201277e-01,2.790662121876904544e-01,4.483659478907799367e-01,1.879190686953232381e-01,-7.668471361275744184e-03,5.667266524398285876e-02,4.023805856704711914e-01
2.271566590519539519e-01,3.935415174003505379e-01,4.670683776644823926e-01,1.441778612182378627e-01,-9.125270860370406079e-02,5.240696286470777898e-02,3.753748536109924316e-01
2.505721833274108801e-01,2.798990344110767192e-01,3.253024277001148046e-01,1.089909821344163254e-01,-8.370513673752176531e-02,7.289844357866463731e-02,2.772226035594940186e-01
4.459624646853555530e-01,3.926635994371843741e-01,2.452091076457353080e-01,5.558880626953266457e-02,9.961398918847907957e-02,-1.305917938238284615e-01,3.502064943313598633e-01
4.859100608644318919e-01,2.388254578821363550e-01,3.431106472073333635e-01,2.001369678650160439e-02,1.306266357056564895e-02,-1.610728492771347498e-01,3.545502424240112305e-01
3.005994145936455308e-01,3.443710845216942928e-01,3.145739166746738813e-01,-1.808096889202348611e-04,-3.160843010347473732e-03,6.433980671564958542e-04,3.912635147571563721e-02
3.178651333261825473e-01,3.100855386575060435e-01,3.349451354429806016e-01,1.217629054282881422e-02,-5.379081052125379500e-03,5.885973074178329351e-03,3.347607702016830444e-02
4.485815305122470842e-01,1.164673733151371515e-01,3.888949802012511836e-01,6.854161835861607988e-02,2.112794774343503684e-02,2.634934437512467462e-03,3.308978974819183350e-01
3.011470962181549416e-01,3.155379366252533679e-01,3.396522838687687784e-01,2.182099103449918181e-03,-1.932699458496918779e-03,3.380931370526218862e-03,3.457465022802352905e-02
2.802004924126391128e-01,3.256213333128534781e-01,3.502580398030865072e-01,5.884168368713494149e-03,-2.520282542048123391e-03,-1.233545837718915674e-03,6.258219480514526367e-02
1.655662986313405360e-01,4.697249273477322462e-01,4.739006677182265870e-01,4.701351823842609551e-02,-3.916142996519543507e-02,6.906216590719897221e-03,3.243065774440765381e-01
2.953269937379563448e-01,2.566702193949802480e-01,3.602226364090960198e-01,1.105576839818920715e-01,5.060000204446971073e-02,-5.777548081348611586e-02,2.501570582389831543e-01
2.315704403655227117e-01,2.988070416604133306e-01,4.694107376912063367e-01,1.444833437508993568e-01,-7.729266013297446392e-02,1.446791881358613398e-02,3.553504347801208496e-01
2.450553353145916990e-01,3.762222231879432943e-01,3.513477730695423462e-01,-1.422807250694079796e-02,-2.224828660519321752e-02,6.926744617542793248e-03,1.296032369136810303e-01
3.543312224801779542e-01,2.287788988113455546e-01,3.718648324284022921e-01,2.667820248387399798e-02,2.102019329634012557e-02,-2.362986605654925076e-02,1.529968529939651489e-01
4.755274540926094362e-01,4.430258717299336846e-01,1.547926649609543404e-01,-3.820758194256470338e-03,3.457323662224877359e-02,8.113484046578563202e-02,3.418787419795989990e-01
4.439888090507343454e-01,4.303236934570586758e-01,2.069295133225158012e-01,-2.856378690416667629e-02,8.624896446615219758e-02,9.177749343027287454e-02,3.212133944034576416e-01
4.418784721569353757e-01,4.476026344201786689e-01,1.865762536100062929e-01,2.345139018972482170e-02,-9.990947251558615627e-02,1.168228667470270349e-01,3.731108903884887695e-01
3.488437949610161959e-01,3.263685436823783315e-01,2.856743270744338536e-01,-5.228372197879076633e-04,9.716877535067686405e-04,5.310527738146432648e-03,5.624968186020851135e-02
4.023803635525700639e-01,3.688205009602683604e-01,2.287334859787653607e-01,1.596886885154127911e-02,8.817922399903799918e-03,-5.853718390770128177e-02,1.916507929563522339e-01
2.166046857260217895e-01,3.661399002021278326e-01,4.823638333402330280e-01,1.723051736235014786e-01,4.360880473878059327e-03,-3.230493124868626695e-04,3.773233890533447266e-01
4.049253473651625579e-01,3.998170373241449194e-01,8.337377592203507048e-02,8.090900440039877628e-03,-1.627875234985457290e-02,-3.328961596633128739e-02,3.257221281528472900e-01
3.470589404737213224e-01,4.563341369856961927e-01,2.728015863820225095e-01,1.150607531580588247e-02,1.626992935866090895e-01,-1.458825909711028088e-02,3.256048262119293213e-01
2.868926745497581421e-01,3.427176869067986575e-01,3.104521908291052457e-01,1.230030977755839500e-02,2.684850222329247457e-02,-1.263178700338564615e-02,7.383344322443008423e-02
3.627722127314899625e-01,3.568520474130734699e-01,2.585020678552618634e-01,4.173544729679873333e-03,1.179446759525186114e-02,-2.257039501432878473e-02,1.108506545424461365e-01
3.414526371160370721e-01,3.537508072369068834e-01,2.640869589069875789e-01,3.422597932059541839e-03,5.788162777082325912e-03,-1.513784350512754244e-03,8.503337949514389038e-02
3.737802666488642678e-01,3.516518219452217098e-01,2.357311085803978079e-01,-4.421004592174871718e-03,2.258744770626989681e-02,-5.081340770797679318e-02,1.607098132371902466e-01
3.470817068835944097e-01,3.557210214365110756e-01,2.786955753624622556e-01,6.325866031294384052e-03,1.274555041635778291e-02,-2.645881165303522881e-02,8.972019702196121216e-02
3.879130582594901289e-01,4.002991209493769187e-01,3.086513762312441123e-01,-9.296732111018329858e-02,1.334530047436141287e-01,1.074473586990354890e-01,3.484397530555725098e-01
3.626362603746595692e-01,4.625833335850758066e-01,2.563651533191266263e-01,-6.142436813423698960e-02,1.693032423456407032e-01,7.902330301616368458e-02,3.846402466297149658e-01
2.988590953612887402e-01,3.149759349723339485e-01,3.403976539841131466e-01,-3.409166364371958753e-03,-8.072790728536807098e-04,-6.335156200592209500e-04,3.679348528385162354e-02
3.619444316617374535e-01,3.630115246923776295e-01,2.443293428976384685e-01,3.553131564358838479e-03,6.018155847293637020e-03,-1.154489761815648448e-02,1.204422563314437866e-01
3.596487674540143065e-01,3.481928423390565075e-01,2.430365625518277617e-01,8.156455453157204424e-03,6.403061155067801304e-03,-1.263650597476278191e-02,1.148710921406745911e-01
2.415468098525465623e-01,3.444618377308789059e-01,3.574442673274412785e-01,-2.687890210169784772e-02,-1.897050759854243540e-02,-1.466204376922292454e-02,1.264441609382629395e-01
4.262156986658784952e-01,3.849476578246930902e-01,2.831998170243918977e-01,-5.911737663699115353e-02,9.489862311873258072e-02,1.265212749644141765e-01,3.190287649631500244e-01
1.449143190686364158e-01,4.563971108147865108e-01,4.726811539675998541e-01,-5.830882249474498430e-02,4.720421559367693476e-02,1.195860775335804045e-02,3.459369838237762451e-01
3.414121397245873379e-01,3.390426222760716812e-01,2.784982232605414665e-01,5.240861279583177226e-03,4.863663030276831230e-03,-3.961352799976911553e-03,6.336515396833419800e-02
3.551467413705801657e-01,3.532640436788099247e-01,2.386697562103378689e-01,1.181563387435080386e-03,1.146486517266014906e-03,-1.556965644380125429e-03,1.156137809157371521e-01
4.659749171179226046e-01,3.814220157784625753e-01,1.538769534396646210e-01,1.728145767220274449e-03,-7.636114159552995218e-02,4.347002982886397082e-02,3.183339536190032959e-01
3.496863808654788741e-01,3.446261519284539165e-01,2.527204783624965589e-01,7.625132664870500412e-03,7.359993355372048199e-03,-1.079502023771940211e-02,9.810125827789306641e-02
3.548462187939541712e-01,3.913241554058563554e-01,2.295117381276106094e-01,-1.874768499114874004e-02,5.378493627310007574e-02,8.815992413156118618e-03,1.777002066373825073e-01
3.414155169499135667e-01,3.529128526225442375e-01,2.659306925412944222e-01,-5.572756044717082358e-04,4.451534540721359227e-03,8.286410502145785586e-04,8.222202956676483154e-02
3.793059637088069813e-01,3.846349232020612186e-01,2.341145005289597958e-01,1.170943663138350292e-02,-1.346296872170540081e-02,8.630580556180621199e-03,1.518592387437820435e-01
1.663610440108956590e-01,3.341329539406877602e-01,4.023845852327079253e-01,1.144037429674052420e-01,-1.216269517429560514e-02,9.379152176271590181e-04,2.897714376449584961e-01
3.409167269722024329e-01,3.412322853981301640e-01,2.774374904729502989e-01,-4.484409340472707284e-03,-3.588095563896925595e-03,-3.825638764512783938e-03,6.475032120943069458e-02
3.889123672136922671e-01,2.190475770098028185e-01,3.855762241528061240e-01,-3.888755619472552064e-03,-2.333602129529749932e-03,-3.006388417699780435e-02,1.762716621160507202e-01
4.187909810516281528e-01,4.620042360131504378e-01,1.874689168834805797e-01,-1.426006081340839074e-02,1.345602625519537743e-01,7.257108995042231732e-03,3.470747768878936768e-01
3.504046296163577101e-01,2.325976472050973465e-01,3.576676353183679824e-01,-2.524321544819559809e-02,-3.962036611966960557e-04,-1.875909123306817271e-03,1.292654573917388916e-01
3.668004220445903463e-01,2.119229376972894541e-01,3.666912962631917461e-01,-4.369690603011962271e-03,5.072457016569048918e-03,-1.028480397607369964e-02,1.562752425670623779e-01
3.590442686811654571e-01,2.418285786138882898e-01,3.559748741707173814e-01,-4.019531866551315420e-04,-3.218630972948552556e-03,-3.778208898683597071e-03,1.160325184464454651e-01
3.467604852999428555e-01,3.578910307119537171e-01,2.544976976386350564e-01,5.832891455720795940e-03,1.295253236248194127e-02,-9.435660071574517374e-03,1.026436239480972290e-01
3.622971114197066078e-01,3.678458659714766155e-01,2.169052022265267055e-01,4.243193451879998619e-04,1.160022217811171319e-02,2.798736882099050940e-03,1.496798992156982422e-01
3.643970183619960057e-01,3.590581122667913516e-01,2.556944243212650458e-01,2.419811955251924013e-03,6.414976149530871377e-03,-9.172853578537434882e-03,1.079715266823768616e-01
3.605130461836549838e-01,3.863341069154958007e-01,2.147865357066321979e-01,-1.381926737678863121e-02,3.094891052429881578e-02,1.669667647229908019e-03,1.706474125385284424e-01
1.867743993682103032e-01,3.657137001178819569e-01,3.690547789429324266e-01,8.539613636254954343e-02,-5.064855743103766073e-02,2.934306896900203132e-02,2.545283138751983643e-01
2.789963696781035951e-01,3.325614461193242000e-01,3.565675456488860418e-01,-2.423741121840364623e-02,-4.894733604913761513e-03,-5.969262666898777006e-03,8.168553560972213745e-02
3.779173207306373850e-01,3.948800855630520967e-01,2.330597856525192246e-01,-3.267649075492404069e-03,4.581264138667476282e-02,1.155841007656197537e-02,1.745217591524124146e-01
3.519177324657076222e-01,3.584806207409392820e-01,2.564227387061020491e-01,3.465207179509320265e-03,2.698678755426621792e-02,-8.755494443026690804e-03,1.106342971324920654e-01
3.601374771719254575e-01,3.566818120593192587e-01,2.066036211520207999e-01,1.343196272524252791e-03,8.860611483817512971e-03,-1.974345234864817097e-02,1.564109325408935547e-01
3.615227845625678116e-01,3.597611274422173877e-01,2.101166717241226278e-01,3.305071611164434302e-03,1.295719119719151644e-02,-1.534083369750847275e-02,1.546048223972320557e-01
3.131491934658727216e-01,3.229867402382229913e-01,3.124680617736529387e-01,1.502442591590797284e-03,2.022925680886333930e-03,-1.303476541795023369e-03,1.131758652627468109e-02
3.759221354033486229e-01,3.493741247139133255e-01,2.384306541808937085e-01,-3.713566053791208209e-03,-3.718623848677559546e-03,-2.909740198763441019e-02,1.363136470317840576e-01
4.235646629273878139e-01,4.701593413561322432e-01,1.919157147339334013e-01,-4.002281129342691313e-02,1.298928247399246672e-01,5.467185693897092663e-02,3.619597554206848145e-01
3.304545593401295722e-01,3.406845398477689191e-01,2.716098054540329043e-01,8.177042813088468767e-03,-1.206076124701232870e-02,7.782318874629375743e-03,7.062584161758422852e-02
3.555311295752678902e-01,3.609790931668233616e-01,2.395135129502651561e-01,-7.523825424550521031e-05,7.998768132051858448e-04,-1.598040014727709782e-04,1.188437640666961670e-01
3.203324860746627478e-01,2.740499676800853268e-01,3.413413639531111543e-01,1.023701437626510363e-01,7.011548974733576578e-02,-7.681619130248432126e-02,2.597026228904724121e-01
3.606369234290546233e-01,3.803293426967393476e-01,2.301509698104031998e-01,-9.024084220350274410e-03,-1.212404354137328923e-02,1.832402801620558463e-02,1.472295820713043213e-01
3.615661833473454712e-01,3.610517432552161621e-01,2.557567958758959481e-01,2.084360282133941589e-03,8.203830294414892269e-03,-7.342173249809645641e-03,1.073225215077400208e-01
3.542686046826812873e-01,3.602538799511328937e-01,2.475239793451227688e-01,1.228082396332473916e-03,1.197570667699355456e-03,-8.144178479030924483e-03,1.108013764023780823e-01
3.477068876999330760e-01,3.375605267726101699e-01,2.870445653959413090e-01,8.111598500281536062e-03,-1.536348576979383942e-02,1.865010568472747626e-02,7.152865082025527954e-02
3.599883358063031280e-01,3.568790433719161714e-01,2.488321750140578270e-01,-8.352903477784349908e-04,-2.212826003682341960e-03,-9.082740105008842504e-03,1.108332723379135132e-01
3.492414636586303467e-01,3.623526139948293756e-01,2.253012567352105644e-01,-2.925733776429411456e-03,-1.794385817153242024e-02,-5.035974955521381122e-03,1.350029110908508301e-01
3.809723676680956128e-01,3.674071797282261742e-01,2.213887389763014024e-01,6.175627299938089496e-03,-3.667060481973791371e-03,3.631286942607703759e-03,1.538846343755722046e-01
2.585288598265614302e-01,3.835147843142258095e-01,3.248031931867592648e-01,1.373101703335767414e-02,-4.954614499134839950e-02,-9.446563039285808816e-03,1.411672979593276978e-01
3.182954710104195506e-01,3.159939193492657949e-01,3.213171336889175667e-01,1.192281195944319369e-04,1.725569093739389662e-03,-6.563366097910002320e-04,5.625819321721792221e-03
2.594994893794328461e-01,3.575830811098766326e-01,3.067213016311502449e-01,1.083630442095655927e-02,-5.008439178405905273e-02,1.118914393598997338e-02,1.243857368826866150e-01
3.167896042363751996e-01,3.491128289409740626e-01,3.014007823856624246e-01,1.278763188709660021e-04,-1.651712262214751967e-02,2.752057417091403869e-04,5.096808075904846191e-02
3.302311797197429732e-01,3.510854968758057026e-01,2.670355135707330740e-01,-4.145631674725522298e-03,-1.602929155098459235e-02,-3.650856456995789801e-03,8.129487931728363037e-02
3.175934793962034153e-01,3.499499846166217454e-01,2.828471883792213482e-01,4.407640979873951939e-03,-2.675966570709485681e-02,1.516298506511145217e-03,7.477924227714538574e-02
3.330280739240289445e-01,2.617521957618792472e-01,2.984109864793913491e-01,-9.582834944629987917e-02,7.675837646322217211e-02,9.361869709466226486e-02,2.744619846343994141e-01
3.410615822247858864e-01,2.775204086823071514e-01,3.249959778449801329e-01,-1.178524878105689268e-02,-6.950411566438310408e-03,-5.920185105257110003e-03,6.278139352798461914e-02
3.101401388311068041e-01,3.487316006361797505e-01,2.983940091395559935e-01,-1.910221702193250735e-03,-3.863242088912986760e-02,-1.041097187237514281e-03,8.106888085603713989e-02
3.165257809298270830e-01,3.502277908561580166e-01,2.688997190517408153e-01,5.474826868479697357e-03,-1.864214023007579324e-02,3.828527131856578579e-03,7.864886522293090820e-02
3.144834029967297218e-01,3.490448936655493606e-01,2.888281490151127784e-01,-9.388136847732334901e-04,-7.921510075214929433e-03,-8.119004548016893127e-04,5.415020883083343506e-02
4.350204775253112555e-01,3.879594936456653431e-01,2.645394600304336041e-01,-5.908016359740335399e-02,-9.435726601886477993e-02,-1.492668640353122245e-01,3.567612469196319580e-01
3.493663815155298447e-01,2.994668962002185464e-01,3.265115088819049993e-01,2.362777184405192438e-02,1.605188617625013386e-02,-3.580682257888267300e-02,9.036618471145629883e-02
3.837692444758863397e-01,1.483201358049830998e-01,3.702537824992348514e-01,8.258252928539802987e-03,7.686463560812116513e-03,-7.818164032168817279e-02,2.667502462863922119e-01
4.771867756730077681e-01,4.026508620700437469e-01,1.168190454198165529e-01,7.782074482183161390e-03,3.024988781102534025e-02,-3.438670708497457845e-02,3.391671478748321533e-01
3.431487941487278981e-01,3.476801194374548043e-01,2.631162492350233029e-01,-9.714045746764874908e-03,-3.178981830946527726e-02,-1.431909280938872819e-02,1.035295575857162476e-01
3.207011315371484650e-01,2.768107520398276344e-01,3.406289089860022878e-01,-4.337234213342632677e-02,-1.761542639822967146e-02,-2.918645579050542505e-02,1.110317856073379517e-01
4.048045161649554413e-01,4.611191072835498228e-01,7.757154330367249662e-02,9.498612172337436016e-03,-3.721802375618161324e-02,1.253086781633420965e-02,3.654832839965820312e-01
4.492660975981596638e-01,2.302193968314673600e-01,2.783902301272826452e-01,-9.016981719948832796e-02,-5.825540199933464114e-02,-1.324034578201311874e-01,3.562514781951904297e-01
4.809182718111200128e-01,4.649517375644806050e-01,1.548904599451374209e-01,4.112949439730737358e-03,3.099140923602812514e-02,-7.934991519453897524e-02,3.509485721588134766e-01
3.047261404278127639e-01,2.643367387730010676e-01,2.654853690203998196e-01,-8.772115737879843111e-02,-8.812981332294260450e-02,-1.159382579130835561e-01,2.971478998661041260e-01
3.908726686049313059e-01,3.837583865329295962e-01,2.961871098631047028e-01,-8.847645151146865672e-02,-1.033936547298140163e-01,-1.273622920445461881e-01,3.355008065700531006e-01
3.783559224047799985e-01,1.587935402429020149e-01,4.454396627306612677e-01,6.772572484778290047e-02,-4.216472065396577665e-03,-7.732978663542083853e-02,3.149448931217193604e-01
3.814452354711078685e-01,1.974336248829245410e-01,2.593345361972229646e-01,-4.813128484577378768e-02,-3.025742351568260283e-02,-1.552559616475513160e-01,3.291065990924835205e-01
3.393068595219247974e-01,3.254575552474735511e-01,2.925705283350489849e-01,-5.344199494526028632e-03,-2.158863758683386095e-03,-4.451760030716241968e-03,4.345043376088142395e-02
3.763771143775671013e-01,2.376399147083441965e-01,3.454870503969892370e-01,-2.377781242827812017e-02,1.458107347907557950e-03,-2.894226686022562459e-02,1.418876349925994873e-01
3.592687655974157734e-01,2.780663369993465750e-01,3.149214916799020769e-01,8.536957000795446573e-03,-5.126518644510498837e-03,-3.547259168698018578e-02,9.503581374883651733e-02
4.243920392958816512e-01,4.709629095785575759e-01,1.830060732655310884e-01,-2.974902925776230084e-02,-1.217320491168808333e-01,-8.685897574719288194e-02,3.760613203048706055e-01
3.832606136173690725e-01,1.715499432033211757e-01,3.262615502059114103e-01,8.591303938634735696e-03,4.578067772076224902e-03,-1.074544225084295979e-01,2.663205862045288086e-01
3.034995948943696176e-01,3.149158456594298161e-01,3.356427238222330911e-01,-2.128783480825161781e-03,-2.698298622190765505e-03,-2.967125056195888799e-03,2.929857745766639709e-02
2.593013032230037096e-01,3.675582272195273004e-01,3.499135488985984366e-01,1.010920705657078061e-01,-1.372098446848346587e-01,2.649654250026589955e-02,3.152227401733398438e-01
1.954970664407846004e-01,3.893129571944303757e-01,3.405677167717646170e-01,-5.252543677540049555e-02,-1.181099302805844603e-01,-9.632983825029594466e-03,2.844259440898895264e-01
2.760293302468999066e-01,3.156362654386860034e-01,2.758416701516981373e-01,-9.861928896957695978e-02,-1.260751433040896707e-01,-1.020588480082433303e-01,3.311892449855804443e-01
3.489726833839538744e-01,2.700742750563112637e-01,3.359941767683499725e-01,-1.653234191811778220e-02,-1.354893476307243889e-02,-3.847718859461887048e-02,1.057429686188697815e-01
4.385630932327580500e-01,1.846441333358009029e-01,4.599738935298011144e-01,8.989740185389889782e-02,2.418482657171978911e-02,-6.226696483824864514e-02,3.286346495151519775e-01
3.335072417550773438e-01,4.481739926125664075e-01,2.796725768847703186e-01,7.009511682570530866e-02,1.668356706924729038e-01,-8.760412972745412752e-02,3.787948489189147949e-01
3.190322100516337356e-01,3.020629802804071229e-01,3.382919832726986042e-01,-3.511060592780329906e-03,5.702289013921270529e-03,2.209265859880298229e-03,3.368813917040824890e-02
3.400861239926459834e-01,2.878007397067556261e-01,3.825201604253051224e-01,-6.072077462211804277e-02,-1.307563478093458700e-02,-3.448951222901718017e-02,1.479716897010803223e-01
4.452695774184539657e-01,2.703044672080823774e-01,3.791328370964067718e-01,6.593893369987306741e-02,4.317134185337122287e-02,-1.281794174648184514e-01,3.022255003452301025e-01
3.222309404716992565e-01,3.478533069079908224e-01,3.018461247470199393e-01,-5.913171721841289051e-03,-1.313322154990822360e-02,-5.244387260474627638e-03,4.795003309845924377e-02
3.013230758530791586e-01,3.172613251631314357e-01,3.343083729674136695e-01,-3.654601405787179236e-02,-3.008299805595147924e-02,-3.087811723607090941e-02,1.019730269908905029e-01
3.067002595825660261e-01,3.086252536153994974e-01,3.419502660916610148e-01,-1.018447655932903928e-03,-1.386095486099106066e-04,3.249652875474526217e-04,3.437875211238861084e-02
3.165612877082372711e-01,3.020217800078234260e-01,3.417950614624850614e-01,1.560219256962733572e-02,-3.028710589494875219e-03,3.810904835385991660e-03,4.490435123443603516e-02
3.510801748031274205e-01,3.517995567809120705e-01,2.597365014768160396e-01,-1.348837781301178568e-03,-1.741178522525032701e-03,-6.189149607204117408e-03,9.240868687629699707e-02
4.068043661026564672e-01,3.495846731900556503e-01,2.361252358874725288e-01,1.469782744571256853e-03,-1.396937776372990034e-02,-6.905778920735439197e-02,1.937475055456161499e-01
3.838672060247378948e-01,3.819220872365013952e-01,1.784404424556937097e-01,-1.696740074851793133e-03,-2.094899488461566400e-02,-3.951494757765874194e-03,2.077893614768981934e-01
3.083444546120795993e-01,3.060421378987778773e-01,3.400533995414979360e-01,-9.341315458661085449e-04,-9.267679275804871909e-05,-6.136308080985429340e-04,3.297779709100723267e-02
3.476822357905680616e-01,3.158260282901819704e-01,2.867258183358177281e-01,-3.103385838407094355e-03,-4.891903284595927734e-04,-8.565949172893333116e-03,5.512168258428573608e-02
3.130550690801675584e-01,2.829316901345333424e-01,3.632249389701639464e-01,-3.047251045416674020e-02,7.293072608687148697e-03,3.678616742025478284e-04,8.877732604742050171e-02
4.318560713866461676e-01,2.784078680413039075e-01,3.757873576899727897e-01,1.002036160068681958e-01,-7.955226375576698872e-02,1.492936638807533245e-01,3.661423027515411377e-01
4.829078322317335581e-01,2.519825718619578270e-01,3.867892871009335209e-01,4.645812907523597796e-02,-2.626130741445309794e-02,1.603413561585741720e-01,3.550227284431457520e-01
3.417587292599157389e-01,2.876643847717761382e-01,3.255443537291402012e-01,-4.020996479486325416e-03,5.204546044312195405e-03,4.627750868135333505e-03,5.006009712815284729e-02
3.105489896172635156e-01,3.138559809924310051e-01,3.239012018864704801e-01,7.167436391456818469e-03,-7.377541833969660304e-03,6.681114730646743778e-03,2.442078664898872375e-02
3.145233415984070580e-01,3.360078367962789359e-01,3.052174942214565534e-01,3.156140816104364196e-03,-1.482257090010073892e-03,1.262871823525145692e-03,2.809578739106655121e-02
3.413387149991473080e-01,3.393037311181390514e-01,3.029726009307762702e-01,2.431818897290595125e-02,-2.747118295830633036e-02,2.723464483750717355e-02,8.752898871898651123e-02
3.335316133024862628e-01,3.093533858973526174e-01,3.076580171211647508e-01,4.758324442898889846e-03,-4.879807082973913225e-03,8.214201522092862834e-03,3.114857524633407593e-02
3.404214478431662472e-01,1.958602209300074892e-01,4.347512875236872465e-01,9.761761222420767270e-02,-5.060361316126553433e-02,7.150867192709049747e-02,3.082900345325469971e-01
3.526439958288904997e-01,3.448313973663436616e-01,2.527833903071861066e-01,4.569934147060786614e-03,-3.898175665869352963e-03,1.176827827063782125e-02,9.887731820344924927e-02
2.554327035540258084e-01,2.919243637877371733e-01,3.557991574815928537e-01,6.937571131199327112e-02,1.722543086132011583e-02,-1.267277505943240241e-02,1.534713059663772583e-01
4.229067858013177972e-01,3.218689022211858597e-01,2.141965850312103625e-01,5.968984180320922872e-02,1.183742817650415280e-01,-1.115339352934209827e-01,3.503233790397644043e-01
3.171057429866456223e-01,2.998957329521729220e-01,3.306449585546305525e-01,6.258022684357936009e-03,7.688196460217948391e-03,-5.034680567489685163e-03,3.291447088122367859e-02
3.104794460473163653e-01,3.065771986563735618e-01,3.355087816334664241e-01,-3.756539217861390098e-03,-3.098474196622347243e-03,-1.274649109584941259e-03,2.855479717254638672e-02
3.031807851244118224e-01,3.089726905950216373e-01,3.417965111653380461e-01,-4.500908962214630535e-03,6.232759054237991799e-05,7.592210895934138788e-04,3.692664578557014465e-02
3.404298016159689189e-01,2.556666636478139853e-01,2.585159762873474043e-01,-8.545523597216099498e-02,-8.771865612702020587e-02,-1.240599544923612907e-01,3.132339119911193848e-01
3.098786125720289220e-01,3.062113399710496009e-01,3.414141779698198764e-01,-1.091341058041011029e-03,-1.383922576820663169e-03,-4.725521165445232706e-04,3.366866335272789001e-02
3.282739857852368104e-01,2.958257240177034064e-01,3.260244393865141532e-01,6.082192924296413866e-03,8.264109961607618571e-03,-4.531345717653882492e-03,3.691099211573600769e-02
3.021270376417534154e-01,4.018052805068296207e-01,2.379931496266395052e-01,2.080796056835378799e-02,1.285156015143689989e-01,-3.163514312997788014e-02,2.725650370121002197e-01
4.742828864814763179e-01,2.007162669714803171e-01,4.019224179611342596e-01,-5.081398431619580519e-02,-2.129909964044892495e-02,-1.196966848841008596e-01,3.352138996124267578e-01
3.141901097125331943e-01,2.881928979067941432e-01,3.439287876738647554e-01,-8.236924372119728763e-03,-1.376228009686850670e-03,-6.685715467585141890e-04,5.043739080429077148e-02
3.153391666124587545e-01,3.027954769609721986e-01,3.416286556567583177e-01,-2.291547613998059976e-03,-2.617247384474834411e-03,-1.670272455171806919e-03,3.497029468417167664e-02
2.549149195351018138e-01,3.576814339949637711e-01,3.525846487992306821e-01,-6.631630527569510984e-03,-2.206131377366848771e-03,-1.763456753565421919e-03,1.010891720652580261e-01
3.603345398067697158e-01,4.071666791930921847e-01,1.675782424056444231e-01,-1.930366104706943402e-03,1.029658172777372926e-01,-7.506410875365174262e-03,2.834810912609100342e-01
3.495126903738802193e-01,2.673010834826095583e-01,3.266591308229084833e-01,5.993917090032934748e-04,3.404811557467361544e-03,-1.403618634249509563e-02,7.764731347560882568e-02
3.276288376038237748e-01,3.196804472279620168e-01,3.076330105682573701e-01,5.141432674695566377e-03,-1.252262679730547536e-03,1.330973543149801446e-03,1.983424648642539978e-02
3.407254901631823207e-01,3.143271864129009718e-01,3.018841947599112396e-01,2.955062827739257615e-04,4.862560453687380779e-04,-2.585342317618027387e-03,3.465826809406280518e-02
4.730364333324810211e-01,1.419072353674432352e-01,4.826052984924729672e-01,-8.275299046625153587e-02,-8.407888919618850335e-03,-4.064415315126161665e-02,3.723153769969940186e-01
3.870289910131967659e-01,3.082813838646527027e-01,2.761548887108187245e-01,-3.470293754184328172e-02,-1.083037602207493205e-01,-1.432091699360025228e-01,3.318008184432983398e-01
2.096202590118741438e-01,3.575798812846230357e-01,3.627888932499727659e-01,-1.211234017617327137e-02,-1.598467325789558642e-03,-4.816352547254651624e-03,1.523393988609313965e-01
2.515536608421228282e-01,3.705284760067660832e-01,3.736987301712242360e-01,-6.048030390754351171e-02,2.358548585130566810e-02,8.549612494388630565e-03,1.655413955450057983e-01
2.511769391207763213e-01,3.538532725089537090e-01,3.585053675351963509e-01,-2.163423249914358127e-03,6.907518586045925842e-03,1.820796362273886630e-03,1.058719009160995483e-01
2.079579362054898017e-01,3.612785469550482964e-01,3.618090772999162374e-01,8.648111425748115574e-03,-2.487453832544462770e-03,-3.897145315666691433e-04,1.543768793344497681e-01
3.305309046998157196e-01,3.485065859988450976e-01,2.760596751086359935e-01,3.095712756257025348e-03,6.455238854103094968e-03,-1.524090262019150164e-03,6.655919551849365234e-02
3.077178788436358836e-01,4.124678489556802830e-01,3.518231543287401730e-01,1.084355140328652767e-01,1.329118527555059603e-01,-8.653980115420988051e-02,3.450169265270233154e-01
2.831302850509381241e-01,3.266585189756862628e-01,3.389752623605826742e-01,9.976623675644159112e-03,3.616239700483301830e-03,-6.966599239001508223e-03,5.537116900086402893e-02
2.491498466042451065e-01,3.450813072648465374e-01,3.528094790973994033e-01,-1.247370879595026232e-02,2.167683513303792810e-03,3.399862229621835458e-03,1.025646105408668518e-01
2.186761233810531890e-01,3.914783112351313266e-01,3.600356692956948046e-01,-1.518387850890771940e-02,1.849302248003195301e-02,1.286120467633845334e-02,1.662219464778900146e-01
2.470580399919415637e-01,3.583773843311108820e-01,3.613351349461126905e-01,7.301600362400964377e-03,-3.821946607661433001e-03,3.085742158862515849e-03,1.138522177934646606e-01
3.171910379184881279e-01,3.192535011212322416e-01,3.159379692794435091e-01,-1.608314274863508484e-03,1.035102216106681362e-03,2.136082416925788683e-03,5.750758573412895203e-03
3.208195751991650968e-01,3.067716424101629702e-01,3.273245507548382394e-01,3.372637409122828441e-03,-6.968732525839437149e-03,3.532340870906788225e-03,2.341552078723907471e-02
2.318295420731142364e-01,3.693149748433060542e-01,3.528403793888049145e-01,-2.078332719074780371e-02,5.084160606339617472e-02,-5.998998330510687572e-03,1.614529341459274292e-01
3.441679667342750215e-01,3.441683914828190805e-01,2.860001072062037242e-01,-3.689612897405309538e-02,3.374750052283288088e-02,4.304842459858056192e-02,1.282329112291336060e-01
2.763926247981506878e-01,4.938768565371794428e-01,3.001861676070071150e-01,2.113154738736745461e-02,1.888686986001651136e-01,-1.823076846688027539e-02,3.899252116680145264e-01
2.192287372747837304e-01,3.988014058645440452e-01,3.590960186316202729e-01,-4.476962661004874056e-02,1.334042330159109779e-01,5.423837951380987288e-02,3.080929815769195557e-01
2.193755266028705186e-01,3.556848243664612608e-01,3.626961995845290332e-01,-3.590834523743920148e-02,2.401892377135514747e-02,-3.045480313942466356e-03,1.587824821472167969e-01
2.224725123473856037e-01,3.538950185264664872e-01,3.572563490897145422e-01,-1.845062711746560044e-02,1.372551429533054416e-02,1.730314565399779887e-03,1.389976888895034790e-01
3.048160314867505161e-01,3.381622993200282812e-01,3.102330846441674894e-01,1.413472750012603925e-03,3.622873574874518627e-03,-2.982486659212382069e-03,3.213618695735931396e-02
3.263652118342351138e-01,1.912446721550817019e-01,3.983530139827528016e-01,1.161130735635336336e-01,1.161472958619977694e-02,7.390042475581497239e-03,2.723639309406280518e-01
4.241774943278943111e-01,4.677603301093966048e-01,1.574472496614208739e-01,-1.933643765068216586e-02,1.463510621842784576e-01,4.272402467932504000e-02,3.943639993667602539e-01
4.437700327782634901e-01,4.826802674966663709e-01,9.729770310531363209e-02,2.472940615348283907e-03,1.114197539386111435e-01,-3.160293531847210846e-02,4.186837375164031982e-01
3.205894774833347172e-01,3.125056514726050616e-01,3.282333320662222942e-01,8.929749101888392751e-04,-3.994447334019816942e-03,5.673138751221299889e-04,1.538807712495326996e-02
3.342687512595919341e-01,4.718357831468931174e-01,2.803011088025265107e-01,-9.157519841901351834e-03,1.708338798368339018e-01,1.824646961518384611e-02,3.436049818992614746e-01
3.959875955522417224e-01,1.936882829648516324e-01,3.245325105855597636e-01,3.462342919911422234e-02,5.757478851880241597e-03,-1.147209382013720108e-01,2.734117805957794189e-01
4.349048069000077676e-01,3.480359882892421486e-01,2.970806849640413860e-01,6.948162253899442531e-02,9.218116663438548353e-02,-1.459020395365012712e-01,3.441024124622344971e-01
2.343877069376717470e-01,2.707285889175367055e-01,4.335043086888097363e-01,1.405253046390802507e-01,3.963340796182913961e-02,-7.556884493946208758e-02,3.388487398624420166e-01
3.490755737734314024e-01,3.263421310188390212e-01,2.849565576125353550e-01,2.751675053314519333e-03,1.627845932838920635e-03,-4.289509974082374166e-03,5.706379190087318420e-02
3.282831480582223960e-01,2.044631389208317329e-01,3.788872119457600829e-01,9.030923390112796656e-02,2.425056700233109083e-02,-5.388841441505786561e-02,2.431077659130096436e-01
3.095994859511643216e-01,2.591879814726737452e-01,3.817037782317541095e-01,4.525721148566710927e-02,1.508365879994484626e-02,-2.005789382205579521e-02,1.393175721168518066e-01
3.378806790275601935e-01,2.929945351731905734e-01,3.647388715490720856e-01,7.442880836103363262e-02,-4.406408446034201440e-03,-5.608304440818743207e-03,1.439209580421447754e-01
3.539424392441156697e-01,3.649587542893157899e-01,2.257726338343945260e-01,9.583411975246505093e-03,3.935166872505423130e-02,-1.377561559426217740e-02,1.531381905078887939e-01
3.030974979584956097e-01,3.103324818439252564e-01,3.496863518907795676e-01,1.881888772055973630e-02,-9.519211755497432488e-04,1.501329307816230869e-03,5.438500642776489258e-02
1.710041460227346988e-01,4.120261843664195234e-01,3.442625908711354210e-01,3.449597783815104568e-02,-9.316439051893576906e-02,8.149072082823888633e-03,2.759691178798675537e-01
3.029492157416657783e-01,3.008821261272701664e-01,3.382609643052754689e-01,1.368531700372708874e-02,4.660666555098139270e-03,-5.082895557293056789e-03,4.504133388400077820e-02
3.083490176374865666e-01,3.063132304229281844e-01,3.418027695772473673e-01,1.059680451830529065e-03,-1.317495685112775833e-05,-1.280317126207379671e-04,3.456618636846542358e-02
3.060818533010432052e-01,3.084144563098911163e-01,3.397286741083486716e-01,1.098188095409125637e-03,6.026455478690172576e-04,-1.307449662724051009e-04,3.261631354689598083e-02
3.062402478770061554e-01,3.098553877430662573e-01,3.410020999930811203e-01,1.245725001601404600e-03,4.707305840332846663e-04,-1.341543209894025717e-03,3.326418623328208923e-02
4.896159456353817996e-01,4.152813640786704452e-01,2.221797706024142283e-01,9.875254101855204802e-03,5.429749271657795424e-03,-1.568220838314600130e-01,3.623927235603332520e-01
2.903768967830294145e-01,3.177458578608425288e-01,3.406159012471985381e-01,-7.647361054613296613e-03,4.196132238441667439e-03,7.336311155658154642e-03,4.783055186271667480e-02
3.259550222933753627e-01,3.013243266851304281e-01,3.279616658002298402e-01,-2.886264919646570198e-03,-6.169656948575790757e-03,-2.513333829140252523e-03,2.860522642731666565e-02
2.781948514448431831e-01,3.389708537478320904e-01,4.005676429610377509e-01,-6.431235827267217653e-02,-2.794558356409030872e-02,-2.506165095676727086e-02,1.669336855411529541e-01
3.322572290575628862e-01,3.130324490863887199e-01,3.085060093137618198e-01,3.956880293848535207e-03,-1.750593882412800539e-03,3.040095464314173084e-03,2.368526160717010498e-02
3.343140957344974407e-01,3.116629940550716960e-01,3.085732725607038263e-01,3.142873200302338105e-03,-2.005221765699309253e-03,3.036749848715256106e-03,2.572869323194026947e-02
3.358744659905388286e-01,3.067286407308924545e-01,3.103921736180171864e-01,1.612835230913988631e-03,-3.371633733592679840e-03,3.621629074397249119e-03,2.893751859664916992e-02
3.393725301847962394e-01,3.115802723985376943e-01,3.051047339497193200e-01,3.244337201994878638e-03,-1.127410304066981143e-03,3.148443899097790044e-03,3.254904597997665405e-02
3.641385592586410813e-01,3.108960655561312514e-01,2.819007165637969492e-01,-4.870879153478231693e-03,-2.600121873696363897e-03,-2.797558193596828835e-02,8.751363307237625122e-02
3.037971155788698474e-01,3.371791104395004401e-01,3.069661016460715208e-01,1.546869134826085604e-03,4.540525404885108196e-03,-3.101228687425315166e-03,3.341396898031234741e-02
3.239713350667603464e-01,3.746167747396563219e-01,3.646673391028641409e-01,-1.188094912131615333e-01,-9.786377648657318407e-02,-9.075957248072429040e-02,3.129712343215942383e-01
2.923276727214631499e-01,3.901313746697461227e-01,2.836792968052259112e-01,1.537376826384248552e-02,-8.135656274019996415e-02,-9.923233976659579653e-03,1.770518124103546143e-01
3.017258393980358777e-01,4.797271769161105537e-01,3.220921475483095042e-01,-3.697755660177777515e-02,-1.653632099710184988e-01,-2.413356815121013577e-02,3.411133289337158203e-01
2.192408236273936939e-01,4.202748908134242845e-01,4.782476246987982238e-01,-1.247520772423440227e-01,-9.284910473860046032e-02,-3.225247150275849933e-02,3.620811998844146729e-01
2.470533114030205868e-01,3.567865709401453200e-01,3.666906010610403444e-01,5.019120233635312317e-02,-1.888359773324825228e-02,2.612927508537073173e-02,1.546018719673156738e-01
3.126172517816469543e-01,3.122231522858830988e-01,3.221544158312208417e-01,-6.681331012974189854e-03,-4.602360045361229314e-03,-5.339996695695250171e-03,1.943923346698284149e-02
3.217947219795893599e-01,3.411026177025521799e-01,3.010050945236055209e-01,-5.912083190978986366e-03,-1.316064105718051450e-02,-3.583940835500552726e-03,4.323663935065269470e-02
3.047227717161440919e-01,3.182654240123334866e-01,3.852489073483998938e-01,7.228235834608739974e-02,-2.050642317407224899e-02,2.122947498749229792e-02,1.544835120439529419e-01
3.785520812165386606e-01,3.641712036104646222e-01,2.408528486221547249e-01,-1.463683987788829376e-02,-3.807211917727398170e-02,-5.397113231022970803e-02,1.758336424827575684e-01
2.922148000504833920e-01,3.370141280589969424e-01,3.031397783209322516e-01,-2.953168514740048961e-02,-4.817194436276929503e-02,-3.160746316446648441e-02,1.192139610648155212e-01
2.384614780877501450e-01,2.924198559862225544e-01,4.673802162361559986e-01,1.227197257160426158e-01,-4.179337489823996277e-02,1.614622614410303816e-02,3.068644106388092041e-01
3.292174625559042278e-01,2.797610128490496950e-01,3.614472997848569569e-01,5.251900435742053175e-02,-4.651344019250534118e-02,4.203276212366416353e-02,1.585691422224044800e-01
2.272173368021624951e-01,3.870895860601882843e-01,3.680154049748993184e-01,-3.210606968776612974e-02,2.539806093152876046e-02,1.147261674022113064e-02,1.682140678167343140e-01
2.899889232765845426e-01,2.577292863655292754e-01,3.517789514586902033e-01,1.258069588375021752e-01,-7.416995845431666179e-02,7.859556657407129610e-02,2.989473640918731689e-01
2.506976887326372028e-01,3.464918651684914530e-01,3.530814223509497474e-01,-1.295162844870048277e-02,3.177579322413983786e-03,4.095553268785192928e-03,1.021520122885704041e-01
3.146202836202018349e-01,3.403043382358579838e-01,3.025892520920812623e-01,3.931822132942684386e-03,-2.257870495963827662e-03,5.198537147760509810e-04,3.429146111011505127e-02
2.610860386511209552e-01,2.423340648142199849e-01,3.656901870898281448e-01,1.254681780319149009e-01,-4.602575381356174833e-02,5.531446309806679201e-02,2.757102847099304199e-01
3.175824231739662329e-01,3.381465088478889935e-01,3.019560450254833439e-01,-9.390616188726646357e-03,-1.334324957708910887e-02,-4.496302643320486056e-03,4.298529401421546936e-02
2.725867657586835135e-01,3.577221411690178487e-01,3.360303515060658608e-01,2.751421060331972479e-03,-1.525220903038531847e-02,2.367376644718565456e-03,8.129724115133285522e-02
2.792110548517697799e-01,3.333677998898023631e-01,3.556533383638654233e-01,2.329950661584848787e-02,-4.984791172303545698e-04,-6.720965922541454222e-04,7.916572690010070801e-02
2.722977271018043877e-01,3.417886354387126291e-01,3.412608233291173354e-01,3.049447805740966837e-03,6.799666628548007262e-03,-8.837669880633206368e-03,7.206597179174423218e-02
3.285777897471290343e-01,3.123377575839801912e-01,3.154964409804189018e-01,1.170606499290456019e-03,-6.801722113544285799e-04,1.441164743247037036e-03,1.530191302299499512e-02
2.955352406532551490e-01,3.171436501006394959e-01,3.425399709487589317e-01,2.603175239847114672e-02,-2.575421732493437393e-02,1.697219912639358341e-02,8.091744035482406616e-02
3.601455016119632924e-01,1.998991374349002870e-01,3.635248192787475796e-01,-2.158048336623968541e-02,1.571391922694958740e-03,2.430222420354686413e-02,1.714881807565689087e-01
3.502653133835294530e-01,2.479839024785925605e-01,3.458518531214638259e-01,-4.319669391667048386e-02,1.408329038471862853e-02,4.528354622331132173e-02,1.495801806449890137e-01
3.002493082521862089e-01,3.339941853974938146e-01,3.320649549821861335e-01,-1.279472697242750763e-02,1.254470032487489152e-02,1.039048890152656675e-02,4.862558469176292419e-02
2.347259697400989331e-01,3.361577635452551172e-01,2.707288870304813688e-01,-7.816360666589361461e-02,-1.227503594636436268e-01,-6.012933791141994444e-02,2.868989109992980957e-01
1.152110410613418068e-01,4.517152621397030887e-01,5.126591650086201879e-01,-6.765474323685084779e-02,-3.662319305357081278e-02,3.759128333957624177e-03,3.940238356590270996e-01
3.515941425564088618e-01,2.414832796869870735e-01,3.586377300660199552e-01,-2.231786237936798228e-02,2.072716458015359635e-03,1.143356618037231348e-02,1.218561381101608276e-01
3.258859014335793725e-01,2.590998970151980885e-01,3.189289949256668977e-01,-4.956944624204536604e-02,3.200789759299497300e-02,6.009308383444546264e-02,1.591307222843170166e-01
2.712204578290539625e-01,3.470631372676921678e-01,3.312925327238323003e-01,2.069589719288657433e-03,9.299886424907683954e-03,-3.717298057904200488e-03,7.154374569654464722e-02
2.733924310925825996e-01,3.455303854916690898e-01,3.266626306814957581e-01,-9.201055970503014408e-03,-1.563653115854945694e-02,-5.618490294682513923e-03,7.267034798860549927e-02
3.573049877917173212e-01,2.570437108755235234e-01,3.591971727338140186e-01,-5.891384921819195139e-03,7.036630240604373546e-03,1.139307500275746864e-02,1.043440997600555420e-01
1.406688700912961942e-01,3.645622228512198082e-01,3.793256771221498180e-01,-4.814849764988646252e-02,-5.732640689144390123e-02,-1.437939494282753500e-02,2.666190564632415771e-01
3.474724577082569099e-01,2.545091425367453919e-01,3.581490638891505762e-01,-1.120436364740778033e-02,4.210624321408977175e-03,8.999314649519177603e-03,1.020855754613876343e-01
3.084298153844743928e-01,3.121371448025549444e-01,3.355916417307969191e-01,-1.541416779952871699e-03,7.424966814444377032e-04,9.101925738543492281e-04,2.573088370263576508e-02
3.146765339383891802e-01,3.184967908074606280e-01,3.211392861508063912e-01,-5.960357743524586412e-04,1.121879147598280708e-03,2.604619481958731029e-03,7.540948223322629929e-03
3.147934456699728600e-01,3.007824323104498210e-01,3.401741692640928849e-01,2.703662146278987526e-03,3.174284958965039195e-03,-2.361014505562672710e-03,3.556655719876289368e-02
2.027354540775424263e-01,4.628737691925027264e-01,3.712911604357588269e-01,-4.216558345455340140e-02,1.452759128921504161e-01,2.934305105627480620e-02,3.513791263103485107e-01
2.886839655377518854e-01,3.437110976892833736e-01,3.134770191861571687e-01,1.962874058689743906e-03,-1.134961402333666686e-02,-3.368894018146961056e-05,5.173387005925178528e-02
1.628211331436943410e-01,3.713131946461663002e-01,4.027646564510074523e-01,-3.262852766587445719e-02,-6.517849849916373429e-03,-3.934123593708412927e-04,2.331036031246185303e-01
3.042357222364772129e-01,3.313391338486625926e-01,3.180118279806452009e-01,-4.920720723959931455e-04,1.532792607175324394e-03,4.209590754261770262e-03,2.473728545010089874e-02
3.307771290778304674e-01,4.713220300859954359e-01,2.691148007074416482e-01,5.260537205335994587e-02,1.725909966837054221e-01,-7.307717814243755439e-02,3.819780051708221436e-01
2.826070865891676109e-01,3.989956342785227483e-01,1.804660033490918525e-01,-1.995502815868107488e-02,1.587787252891795786e-01,4.348462351719225433e-02,3.440443873405456543e-01
3.035065073340620367e-01,3.389191492867820177e-01,3.222524349721197501e-01,1.004527503337172487e-02,1.330676787777063282e-02,-9.235637122807175553e-03,4.507156461477279663e-02
3.223092084378784139e-01,3.190298332866576825e-01,3.099687158876233140e-01,-6.136758189362390321e-03,3.638333734305096434e-03,2.478737584830621385e-03,1.713759638369083405e-02
3.094098632051167641e-01,3.234950181035580186e-01,3.219189145181015621e-01,-1.810919131972017412e-02,2.627663707272499469e-02,1.841188189983133591e-02,6.519878655672073364e-02
3.453599369758613147e-01,3.789954918609960699e-01,2.431704772172588180e-01,-3.976872356253643125e-03,-3.125379214066644623e-02,-2.537553924905106353e-02,1.411411911249160767e-01
3.616819770977502402e-01,3.772216810250886843e-01,3.495320942658323160e-01,-1.171927143087097556e-01,1.248623358417123019e-01,9.992931475941906061e-02,3.442524075508117676e-01
3.853258989668286727e-01,3.937352218636702705e-01,1.876994981775569615e-01,2.624890885416723395e-03,-1.031881913641069515e-02,1.228604975995657364e-02,2.039160579442977905e-01
3.131232662476937101e-01,3.200573132403881083e-01,3.214352027331665029e-01,7.605389218839524786e-04,-4.612009528278804412e-04,3.446497345745526582e-03,9.876352734863758087e-03
3.415868538423002532e-01,1.788497063342763815e-01,3.422802087623408873e-01,9.980431021775638956e-02,-5.033214084944753058e-02,1.050371389194969807e-01,3.117334842681884766e-01
2.217465399613078036e-01,3.667452704024508625e-01,2.901694786269983783e-01,-5.420524496758231253e-02,1.117835702748552623e-01,4.040934148625725808e-02,2.588149309158325195e-01
4.393500682109111044e-01,3.798206584815550513e-01,1.694761981298822107e-01,1.570623918673443378e-02,-7.085159150620358448e-02,-6.716169805585402164e-02,2.994030714035034180e-01
3.150007145307269218e-01,3.154624490755727484e-01,3.258218215271585505e-01,3.939978128732537230e-04,-3.288805784441892850e-04,1.722859617782562065e-03,1.104572322219610214e-02
2.328053797486492327e-01,4.652351270058739940e-01,3.656030995809153583e-01,7.774940312397647657e-02,1.373690855097519370e-01,-5.272773660011913222e-02,3.519645333290100098e-01
2.118590973901553487e-01,2.990365249471544362e-01,4.030992655858641749e-01,1.300715996822897069e-01,-6.419092607743297034e-03,3.694003417348771384e-03,2.800380289554595947e-01
3.649130413078817137e-01,3.480520798152630935e-01,2.485801506232430680e-01,-8.346060097587469986e-03,-3.062564013195681611e-02,-2.745181128178957389e-02,1.309187263250350952e-01
3.429594148737076797e-01,3.557308104029691664e-01,2.235077563573889536e-01,-3.423314655641320099e-03,-3.158175709251637847e-02,-5.412350597917037730e-03,1.381036937236785889e-01
3.390574719548904437e-01,3.758152406493290298e-01,1.850123467678715383e-01,-3.007515598251673389e-02,-9.164207133241629444e-02,-4.549964181654442968e-02,2.546809613704681396e-01
3.336138153397975037e-01,3.041459633729451939e-01,3.321933244735733592e-01,1.275593304125845207e-02,8.606848457736496552e-03,-1.073235186596131242e-02,4.341011866927146912e-02
1.018005909938105025e-01,4.409732732238214048e-01,5.038571947236748505e-01,-9.718407804438142228e-02,-5.032577716513297883e-02,-7.730460340717538147e-03,4.200387597084045410e-01
3.504095163744295194e-01,2.955350450580256361e-01,2.879032077325219818e-01,2.129475051868791411e-03,7.519176893522536154e-03,-4.189448555416894204e-02,9.453521668910980225e-02
4.521722804028739384e-01,3.266677786139325357e-01,1.977513362969114119e-01,2.405264143789984446e-02,5.809097338486523578e-03,-1.221420742773378920e-01,3.084530830383300781e-01
3.062467763289597467e-01,3.479636077948711215e-01,2.819454550918445435e-01,-2.720533782183953263e-03,-2.908108387625315400e-02,-9.028758831392438410e-04,7.685310393571853638e-02
3.403081996930317210e-01,2.688605969408343066e-01,3.448022363113719124e-01,-4.130916343087414483e-03,-6.439835329198157106e-03,-7.552383742570384709e-03,7.611023634672164917e-02
3.316584762052497970e-01,3.150666797168590882e-01,3.070407870002090922e-01,4.883838616220963734e-03,7.027912437462923399e-03,-5.735516421006838297e-03,2.812979556620121002e-02
2.991398671945665888e-01,3.207675521722414547e-01,3.308265060326139317e-01,4.586246326204343471e-03,4.260168748341891867e-03,-7.848619398794186297e-03,3.299760073423385620e-02
2.830875201855631573e-01,3.423948555963963192e-01,3.278810793681172786e-01,9.411258785814434827e-03,-2.303302508572598398e-02,6.444397960152076915e-03,6.963550299406051636e-02
3.096082610628356768e-01,3.081637051940661065e-01,3.329069851499276145e-01,3.678599818733170081e-03,3.436159380357325759e-03,-1.907338964774267596e-03,2.579738944768905640e-02
3.061797104513595547e-01,3.099013370916653964e-01,3.361310726287837780e-01,2.605147078160140618e-03,1.429735029997381869e-03,-2.939927773991145646e-03,2.918713912367820740e-02
3.495129359790911661e-01,2.560814278864180782e-01,3.581158808911506508e-01,2.652078514081174232e-02,-1.687135291183096495e-03,-5.029037927054708264e-03,1.086356863379478455e-01
4.349475514715321900e-01,1.972924238734480307e-01,4.594530585775054021e-01,1.070462809104232998e-01,2.189293446023792694e-02,-5.916467695944604283e-02,3.304850161075592041e-01
3.288215818718646655e-01,3.385829358356300944e-01,2.819030110782194676e-01,6.735490783730018610e-03,9.216734823961104939e-03,-3.501230147258297710e-03,5.641228705644607544e-02
3.313503117007094989e-01,3.455804202797121971e-01,2.738829570838998140e-01,5.667836178839099660e-03,2.226924701552358832e-02,-1.603525294714943511e-02,8.172073960304260254e-02
3.678218842018745605e-01,3.725224080047076503e-01,3.151121606340349102e-01,1.087083807556360610e-01,1.294167095864126316e-01,-1.175848560255072367e-01,3.608675003051757812e-01
3.241633678178570954e-01,3.161080910786627785e-01,3.130605285753557121e-01,3.442252813356534279e-03,1.678933508313964996e-03,-1.381183186783278101e-03,1.218404062092304230e-02
4.461732589488039413e-01,4.523873514616686409e-01,2.307093539067420207e-01,4.928981496825925179e-02,1.055361101010742070e-01,-1.223541186516618473e-01,3.652613759040832520e-01
3.596354771894751390e-01,3.115232798862447305e-01,3.054770560259347789e-01,1.239196332855829405e-04,-2.081807727782885361e-03,-2.730577811804956942e-02,6.994356215000152588e-02
3.290230007001284096e-01,2.902702548971393126e-01,3.309651912492071468e-01,5.619322449359142289e-03,1.021020108075659100e-02,-6.848970061881526177e-03,4.614122584462165833e-02
3.275224483072957105e-01,3.055042854339398706e-01,3.391458367111629402e-01,3.679024544645139588e-02,-2.285705740596115018e-02,2.766907785567179062e-02,9.381078928709030151e-02
3.482754307702308760e-01,3.271259804402651961e-01,2.807275431210634054e-01,-9.766996467476547067e-04,7.245960545515616044e-04,5.889334228044162955e-03,6.074459105730056763e-02
4.751928993580522009e-01,1.028554206953519734e-01,5.046230857128709557e-01,-7.118788074366000362e-02,6.790633900060076729e-04,-2.880747895928622432e-02,4.100651443004608154e-01
3.291740077843068879e-01,2.862032287719698531e-01,3.288285242933299268e-01,1.605778797587735507e-02,-1.100970948536453276e-02,1.788649645984453918e-02,6.267966330051422119e-02
3.437589655123457488e-01,3.035257726818424984e-01,3.090249828713046432e-01,1.957736771071193129e-04,9.173351154890953089e-04,4.182575821958970513e-03,3.850742429494857788e-02
4.811239308553947325e-01,4.632129175491207507e-01,1.053833921953108710e-01,6.917867744919797141e-03,4.754808180083313837e-03,1.350831278952978332e-02,3.681449294090270996e-01
3.446627928570448196e-01,3.462116148627530365e-01,2.541922902692159703e-01,-8.344319234446253425e-03,1.059557842623482828e-02,1.152416438027299879e-02,9.628880769014358521e-02
3.400801608339978355e-01,3.361296334289809451e-01,2.812574952459638844e-01,7.001883666231886912e-03,-2.953742535397975173e-03,8.641882103597134379e-03,6.033764407038688660e-02
4.678978697272319631e-01,3.732676373831745331e-01,1.588826460884692204e-01,1.594355434241668396e-02,3.584439327708294903e-02,9.112624543736694283e-02,3.236234486103057861e-01
3.593322775675032998e-01,3.549094589836385705e-01,2.572752365426048682e-01,-5.675870696530988663e-03,9.984579026535524149e-03,1.917640374824294489e-02,1.071575805544853210e-01
3.873908018347764770e-01,3.472485637146384696e-01,2.552185455197407693e-01,1.241055722754595171e-02,-3.397233253430375147e-03,4.465308350870796084e-02,1.423151344060897827e-01
3.451815511542309367e-01,4.817806218860997136e-01,1.962962683802030595e-01,-2.683783149281331742e-02,-1.079348559926117390e-01,-7.145809892878500491e-02,3.370357751846313477e-01
4.643672753096915740e-01,3.300709362600649510e-01,1.598492572775969123e-01,3.409277025019596258e-02,-1.074319606080071862e-02,1.153543681569308976e-01,3.370818495750427246e-01
3.413304801742057526e-01,3.259570821134696872e-01,2.870675303788474686e-01,7.056875954648749588e-03,-2.732345921788818625e-03,6.080490848637118938e-03,5.127685517072677612e-02
3.546714056939261894e-01,3.343131496422072080e-01,2.720774355731822580e-01,-2.660390562573071785e-03,1.086187490604984766e-03,9.412714990455095521e-03,7.645471394062042236e-02
3.730425812405961938e-01,4.646350920916962335e-01,2.399468335004762976e-01,1.869234927979016719e-02,-1.468668191839630488e-01,1.749767267264445286e-02,3.239915668964385986e-01
3.694450680285064070e-01,3.718175866990654499e-01,1.964312977165800223e-01,3.586166720793187296e-02,-1.005995720545050931e-01,6.153713358871815142e-02,2.755527794361114502e-01
2.985298398391654784e-01,3.334935572808097604e-01,3.166479735607055090e-01,3.984340016589371647e-03,-6.642210365980959035e-03,7.133578913013133641e-03,3.535387665033340454e-02
3.900258097316146033e-01,3.373315458097693176e-01,1.519605093051062950e-01,1.742203044458951258e-02,-2.521665348184710595e-02,1.100135052221652143e-01,2.933159172534942627e-01
3.461462276283671091e-01,3.881446983359116421e-01,2.670297661649184695e-01,-7.469297434397198510e-02,-1.437246203734809935e-01,-5.225027012425709910e-02,3.134385943412780762e-01
3.392917481972383964e-01,3.401140492750618360e-01,2.772527190353880067e-01,-5.719823991835167563e-03,-3.928988239355227924e-03,-4.051895017800264537e-03,6.398629397153854370e-02
3.197462551339712578e-01,3.038910063950430729e-01,3.282129425395785560e-01,-2.458150600752061037e-03,-5.355130723205907967e-03,-2.219364215730259757e-03,2.400524169206619263e-02
3.131313297419929254e-01,3.037337858877232066e-01,3.232406016742831456e-01,-1.384072615984148144e-02,-1.142095233694958092e-02,-1.131162936047346024e-02,4.043988138437271118e-02
3.393096076909538072e-01,3.470841677113670198e-01,2.749028233571604862e-01,1.428233192923058018e-02,-3.387361758321404126e-02,1.712235315701324256e-02,9.819958359003067017e-02
3.274407638271249477e-01,2.915408230906723630e-01,3.299323468388695724e-01,-5.987844436674882864e-03,-9.840915683033099257e-03,-6.256574168274036188e-03,4.358886554837226868e-02
3.514354268620412114e-01,3.531750554477147697e-01,2.542403451621896293e-01,-5.906850472729176498e-04,-9.457511614883725576e-03,6.052854214632590437e-04,9.944582730531692505e-02
3.156155697364557144e-01,3.134671470304427610e-01,3.283187351606314808e-01,1.202767221035718143e-03,-6.806066916778766990e-04,6.651968691445571662e-04,1.415397413074970245e-02
3.208870632018489544e-01,3.246005796584708891e-01,3.192586391494116604e-01,-1.238859826925159564e-02,-1.088209988476045512e-02,-1.265128156446926506e-02,3.630903735756874084e-02
3.350076966887298724e-01,3.489925483643948056e-01,2.731322887423587864e-01,1.820609845803416397e-03,-8.584593848091697302e-03,1.398983446488798101e-03,7.159861177206039429e-02
3.588246590741875353e-01,3.167354660013689260e-01,3.108216453903737686e-01,1.068848438941662378e-02,1.053915657252319470e-02,-3.364850360794784806e-02,7.828153669834136963e-02
3.923997429525698522e-01,3.119054004426632387e-01,3.709030874872211725e-01,-1.118330205395597354e-01,-7.858530077205526376e-02,-1.294871888218481482e-01,3.340040445327758789e-01
3.264246278560578030e-01,4.051092816737950075e-01,2.802352468628424020e-01,-5.011731430179642080e-03,-7.664505663960995141e-02,-1.305670331506326651e-02,1.736931502819061279e-01
3.418864493312464559e-01,3.075060303623013414e-01,3.029003741269566397e-01,1.742601705941990717e-03,1.730228169424272242e-04,-2.615058313973960512e-03,3.729993477463722229e-02
2.696305852651388335e-01,3.326775217759640468e-01,3.738445112665871317e-01,6.128422323226286050e-02,-4.189331077868773540e-02,2.757007485574058253e-02,1.645534336566925049e-01
3.301802408419132751e-01,3.461417923505685224e-01,2.738418864543442632e-01,3.965839631055525193e-03,-1.257509081804790776e-02,4.596074299700826128e-03,7.009267061948776245e-02
3.530600195811128827e-01,3.615089808204026145e-01,2.567239060564676101e-01,7.066112658060413497e-04,-1.391651320343869139e-02,4.626729471954519300e-03,1.039841249585151672e-01
3.422332794741733686e-01,3.538923434859741479e-01,2.651597931228849014e-01,3.402294370435197859e-03,-8.672237583436654199e-03,-9.920489269841538654e-04,8.507739752531051636e-02
3.445500748628726462e-01,2.651731888703260376e-01,3.409525426927645375e-01,1.225314669215578356e-02,7.317863146918799147e-03,-5.283726485636054682e-03,8.199327439069747925e-02
3.403385645877553545e-01,2.925727111843973716e-01,3.287254900001526647e-01,-7.495386467252578358e-03,-7.155458870729160606e-03,-1.382262115533853565e-02,5.250781401991844177e-02
2.525401834822955105e-01,3.775652290073547301e-01,3.631321455919093166e-01,3.323711590088673697e-03,-3.635688631381852470e-02,9.126977495300911056e-03,1.352168470621109009e-01
3.796260502849837515e-01,3.645102671027737884e-01,2.292127868224304033e-01,1.716815523107625280e-02,-1.531371230312482054e-02,1.623965531132127993e-02,1.515188664197921753e-01
3.056805717963476665e-01,4.128670901991741138e-01,3.875603931326463969e-01,-1.274104610287359884e-01,-1.316473650858466515e-01,-7.851073901729314908e-02,3.586112260818481445e-01
4.417777671526808003e-01,4.485655943590440287e-01,1.976956186801254178e-01,-2.972567405821243888e-02,-9.991242130721200709e-02,-1.042809754488544238e-01,3.556695878505706787e-01
2.134169860152467235e-01,3.302219845309324331e-01,3.694405710033797363e-01,-7.959595672187003146e-02,-9.043829701435557311e-02,-5.971619075574803592e-02,2.720373272895812988e-01
3.439087957208269430e-01,3.585927838525924671e-01,2.193201835219454054e-01,3.974125630261188952e-03,-3.009606611766854622e-02,1.108335457369232467e-02,1.438771039247512817e-01
2.775840449016164779e-01,3.495324112897222890e-01,3.289291414468269448e-01,-2.426303815832588431e-03,-2.828156759202938436e-02,-1.192864082075624152e-03,8.087126165628433228e-02
3.144195556388801327e-01,3.360741295191232436e-01,3.184009742894098327e-01,-1.028522940679891563e-02,-1.432702643636852950e-02,-1.440635134032430126e-02,4.420785233378410339e-02
3.449010019305807084e-01,3.529021732656940635e-01,2.559020262781371846e-01,8.307763679214938760e-03,-1.609185896160771068e-02,6.970745238680744853e-03,9.912924468517303467e-02
1.982851328398385071e-01,4.252032599156449488e-01,4.538636078228603932e-01,-1.011857245554332180e-01,-5.207368345964531048e-02,-2.087348468290116041e-02,3.146022260189056396e-01
3.385283315746381305e-01,3.566473139960878447e-01,2.508896861944526213e-01,-4.140626159508469482e-03,-4.308972708841288246e-02,-4.413194541384686705e-03,1.235993131995201111e-01
3.405933991098618052e-01,2.503313563842749501e-01,3.757095047725543258e-01,6.959407322229917148e-02,-1.664896085135796761e-02,3.870572023197677795e-03,1.672021001577377319e-01
3.249720809507287145e-01,2.493734453200380230e-01,3.598914025891388757e-01,1.089240501000391381e-01,5.628280195907509748e-02,-6.869535785625104085e-02,2.623511552810668945e-01
3.191955005129987755e-01,2.972355902902716340e-01,3.577323184536785883e-01,7.662054516437692697e-02,1.490033222591304052e-02,-1.317947272808107570e-02,1.470131576061248779e-01
4.296674465008714638e-01,4.706848517411507671e-01,1.888444605981845492e-01,-5.752739355885211694e-03,-1.120013607457322757e-01,-8.150486742078237590e-03,3.278529644012451172e-01
3.655100088548177140e-01,2.662860556679330082e-01,3.835743353371253717e-01,4.961353820675322435e-02,2.180405155282161278e-02,-4.364486115601598493e-02,1.627559810876846313e-01
3.316893695067404391e-01,4.470631435788246510e-01,2.161517461488164094e-01,4.729964590589841311e-02,1.224791507734881296e-01,-1.260663175531676894e-01,3.733408749103546143e-01
3.175856539357013730e-01,3.244174918945614827e-01,3.357988423400123934e-01,2.040756169981249729e-02,1.779534090103213062e-02,-1.580722065454187933e-02,5.659503117203712463e-02
3.398545903939652058e-01,2.880849108233741740e-01,3.419831084549440625e-01,4.303701795607875469e-02,2.179449638270707437e-02,-3.200056226558667394e-02,1.133511587977409363e-01
3.414372037119294823e-01,3.548064354875873905e-01,2.640769519875415527e-01,3.491321973588941592e-03,8.059473279197005083e-03,3.847543470937256783e-04,8.619437366724014282e-02
3.508027986842741086e-01,3.580286536939556452e-01,2.508379168409334281e-01,-4.801960499075256898e-03,-1.069663470573239614e-02,-1.539550960848075356e-03,1.057689115405082703e-01
3.300304318124269720e-01,2.093371521845800165e-01,4.693744768200476813e-01,1.276467821459679741e-01,-2.930251889763824807e-02,-2.461919411607630878e-02,3.226094245910644531e-01
3.113426279026866861e-01,2.312758039564391521e-01,4.260501528947314709e-01,1.645635241543774163e-01,3.761651591516008281e-02,9.814307451930421450e-03,3.384231328964233398e-01
4.568221415336228275e-01,4.844333882879330311e-01,1.720284840748538546e-01,1.058389696710909482e-02,9.381669464012003246e-02,-2.137739716228942433e-02,3.432857096195220947e-01
2.796636059394799756e-01,2.618390008643255440e-01,4.060408870841963891e-01,-1.144517422032295673e-01,2.469983248070060228e-02,1.647921302293964274e-02,2.459351569414138794e-01
2.655020529232981485e-01,2.533911381984371158e-01,3.720300899525393890e-01,1.283504195412739912e-01,4.081349433890023998e-02,-4.943896136911927336e-02,2.730135321617126465e-01
2.189627867533564531e-01,3.515563062385020920e-01,3.586182517659062263e-01,-3.616829366513359123e-02,-1.248173271891498369e-02,-6.805362515607431880e-04,1.515271812677383423e-01
2.076136532996149253e-01,3.846752515866524447e-01,4.074651696714404192e-01,-5.577908114921619614e-02,-3.657356369947822872e-03,-6.116732443485969895e-03,2.130532711744308472e-01
3.439475342738385621e-01,3.048714298896864072e-01,3.099870556405635025e-01,-1.282288866430225172e-04,1.157669076622095880e-03,-5.809537995927248691e-03,3.819077089428901672e-02
3.141134589366181840e-01,2.919552528572365580e-01,3.432007902070522976e-01,-7.059117004258169507e-03,2.461287934068031626e-03,1.484580950125645145e-03,4.643125087022781372e-02
2.998596495511135496e-01,2.951990086028528637e-01,4.856546847023826552e-01,-1.742812941592628562e-01,3.348385765049258916e-03,5.001039519557794882e-02,3.661503791809082031e-01
3.253464785087370470e-01,3.194657464317623985e-01,3.070031866404208665e-01,-6.105570673557022057e-03,-4.474199979290989330e-03,-4.880843171402622291e-03,2.250654622912406921e-02
3.080410830697144497e-01,3.303492033538534267e-01,3.182156609601983210e-01,-7.097314910965916816e-03,1.089706985777776083e-02,5.016615095012272665e-03,3.093625418841838837e-02
3.127910952920946452e-01,3.283027550674612050e-01,3.108151797764056590e-01,-3.410256486178984622e-03,1.306014802571913965e-03,1.582032945977953882e-03,1.796331256628036499e-02
2.978697390410505186e-01,3.290868169065723214e-01,3.638812666849834954e-01,-5.460660892912333475e-02,4.706040969265522927e-02,2.937132194370667068e-02,1.464549601078033447e-01
3.511890994977197034e-01,2.893449028252259581e-01,4.449701071283506670e-01,-1.324463905332846636e-01,-5.053933859029919456e-02,-7.228055967852509145e-02,3.072159588336944580e-01
3.279900872877638540e-01,3.102812445090988858e-01,3.131219157551930476e-01,-1.541418369505547165e-03,3.150723278862185752e-03,2.872307775639426977e-03,1.824902929365634918e-02
2.601309629197824935e-01,3.147773659536718394e-01,5.221577853066445840e-01,-1.867758661516563945e-01,-4.086604444088766386e-02,3.598854005987299487e-03,4.086931347846984863e-01
3.570093137184108256e-01,2.690058397886024855e-01,3.305058238686065519e-01,-3.199770797840764160e-03,-5.859938558923861486e-03,-1.193519625781730431e-02,8.170511573553085327e-02
3.187560617702321353e-01,3.176727660008858978e-01,3.170464404069838205e-01,-1.091600732983985435e-03,2.560297450794495381e-04,3.028907034646275277e-04,2.508180215954780579e-03
3.303214096306635317e-01,3.165313729651093588e-01,2.974218847225418849e-01,-5.465754872171839709e-03,2.784172611355993296e-03,5.896106675121627790e-03,3.218739852309226990e-02
3.401148401568274693e-01,3.150963880242130255e-01,2.915243551292456825e-01,-4.325189918455412535e-03,-4.406502443161762136e-03,-8.050170583528916748e-03,4.560799151659011841e-02
3.409822814752727083e-01,2.650854524756771635e-01,3.486744077429757560e-01,-5.575815685268887233e-03,3.108468960745286360e-03,1.568237721081245381e-03,8.082661032676696777e-02
3.167241427216339611e-01,3.169812915230665884e-01,3.179152608112051914e-01,-1.517890872458423470e-03,3.147206584608991473e-03,1.208324699795902853e-03,6.495032459497451782e-03
3.876659589435269559e-01,2.094988241927789319e-01,3.769123621433889126e-01,-6.528653705595080341e-03,3.963680959982104034e-03,-3.586883826661756841e-02,1.843310892581939697e-01
2.920211657177286813e-01,4.601743726420989278e-01,2.958516152311984615e-01,6.595543065349182554e-02,-1.779335136520226457e-01,7.153387764927111869e-02,3.886241316795349121e-01
2.547918345436588905e-01,3.686316113236501879e-01,3.456911390753525382e-01,-1.286617822238158779e-02,-4.329456429278856489e-02,-2.080778440995228670e-02,1.352515667676925659e-01
3.308125796363923232e-01,3.172552475339521783e-01,3.065150938725676455e-01,-4.593531207784439484e-03,1.916752312249849974e-03,1.521243079871148355e-03,2.293525449931621552e-02
3.615375111921698137e-01,2.350075791331544262e-01,3.540686366724790091e-01,-2.646695562215081038e-03,3.276538063455053558e-03,-1.865012553378735810e-02,1.273470669984817505e-01
3.150220016382475063e-01,3.377303684916567739e-01,3.004852978345623482e-01,-4.657763846900862467e-03,-3.260567994212435709e-03,-1.381744256088422457e-03,3.405578434467315674e-02
3.281480129148418023e-01,2.702428948545895770e-01,3.483053931361758115e-01,-1.238236464683926778e-02,-2.829962707557598552e-03,-1.375996047371215447e-03,7.359492778778076172e-02
3.765406720121663442e-01,3.410965515254816838e-01,2.545022859427621964e-01,2.984889394534199266e-03,6.969342998287221015e-03,-5.661556704590959416e-02,1.470119804143905640e-01
3.730576979214840772e-01,3.365753183193208598e-01,2.528878408000413414e-01,9.827448876903125546e-03,1.383712997640103651e-02,-8.362965657110305040e-02,1.823007613420486450e-01
3.537217281590290252e-01,3.032660517980785286e-01,2.978433642359405442e-01,-8.950282187551960450e-03,-1.739439038480833019e-02,-2.732870908026767756e-02,7.897707819938659668e-02
3.615763659487718495e-01,3.616756964747342429e-01,2.427515561160328017e-01,-6.620453523410604890e-03,-2.283968157386520245e-02,-2.857870257517586970e-02,1.351954787969589233e-01
3.004089290477448548e-01,3.406147264637473526e-01,3.143490488316191822e-01,-9.644656813566319931e-04,-2.989535210538017337e-03,-8.414281140396370762e-04,3.580622747540473938e-02
3.370446579557430100e-01,2.973459249147583638e-01,3.324537356990865944e-01,1.149849218267467825e-02,8.837735117037233412e-03,-1.271937995976362215e-02,5.031026527285575867e-02
3.335919766899796968e-01,3.429330340910082264e-01,2.852605052073852177e-01,-3.769939322669299195e-03,-2.571976521003054364e-02,-1.035004466839234763e-02,7.227157056331634521e-02
3.515872405805970935e-01,4.462520430773472824e-01,2.953449687204990903e-01,-8.231033147686944718e-02,-1.357589940190545019e-01,-8.446379596970796100e-02,3.383307158946990967e-01
3.106588917900314217e-01,3.283110577283637199e-01,3.137896952919178584e-01,-1.770859100739693558e-03,-2.570840080203772894e-03,-3.310765334683861590e-03,1.811779290437698364e-02
3.811953754351953827e-01,3.719689008184656198e-01,2.597206248177849619e-01,-2.349515718767347314e-02,3.773084293450792992e-02,6.236240952034931284e-02,1.769592761993408203e-01
4.274897829497317781e-01,4.279499964764297282e-01,2.051988555057645547e-01,4.792046603378461583e-02,1.208021804532153076e-01,-1.242556286383595665e-01,3.827567994594573975e-01
4.834531592809736544e-01,4.469554298451759999e-01,1.282555450148946674e-01,1.463203315016589103e-02,5.038440527487402648e-02,-1.077120114003657786e-01,3.969851434230804443e-01
4.256167207508353423e-01,3.983621441090665072e-01,2.210013512664384117e-01,-1.750615092276519916e-02,4.994638301179853829e-02,-1.441425286735051603e-01,3.282804787158966064e-01
3.526815371727464732e-01,3.176427574037683499e-01,2.920461251117803525e-01,1.267218981919421283e-02,1.917178723770419577e-02,-4.583876845076503143e-02,1.032849550247192383e-01
2.876942006622441039e-01,3.859181825476750149e-01,3.261755500299740596e-01,9.252542141266058631e-03,6.993139188516003801e-02,-7.754730122817786800e-03,1.498579531908035278e-01
3.909185654214303307e-01,3.502577099015931616e-01,2.525388381628835277e-01,2.993465113449334664e-02,2.694848789158143382e-02,-7.981058735892743172e-02,1.978679299354553223e-01
2.865358603967608775e-01,3.313916677861192817e-01,3.253447321725170260e-01,-6.047429207937808464e-03,7.683365464425578883e-03,6.649396074654445946e-03,4.687033966183662415e-02
3.308621324472731384e-01,4.153302134479375241e-01,2.793926000219020267e-01,3.540882052528674523e-02,1.670567241411422821e-01,-2.686138695774136637e-02,3.221510648727416992e-01
1.087470637273180440e-01,4.878686516471179013e-01,4.049157367498166793e-01,4.086140583305265112e-02,-6.011607101135017089e-02,-8.678282399393841620e-03,3.677524328231811523e-01
3.505165359843616657e-01,2.288496005550200718e-01,3.435733133152728547e-01,1.158117240920725557e-02,5.153491370216091785e-03,-2.873687482180662181e-02,1.302526742219924927e-01
2.576514420678354678e-01,4.038542122055330252e-01,3.957428453229997478e-01,-1.037352261428162586e-01,1.073991302444119167e-01,6.087548238577160375e-02,3.134634196758270264e-01
2.536161548202584548e-01,3.580391651456008573e-01,4.692461110181982975e-01,-1.471144543228880275e-01,4.293584838412029675e-02,5.273570334424340644e-02,3.371725380420684814e-01
3.517293223217676790e-01,2.762177992984877206e-01,3.277284142976399917e-01,6.049087412851403972e-03,4.311912694193979420e-03,-1.143178259217857325e-02,7.087522745132446289e-02
1.237914880097973624e-01,4.842773114850668636e-01,4.534733811627850164e-01,1.148546874041520179e-02,8.780221064346820092e-02,3.555338210187168786e-03,3.786236643791198730e-01
3.170946185225507197e-01,3.960315090238545332e-01,2.760141055662385101e-01,2.300008015394690991e-02,8.174845016423282207e-02,-2.378681861654452848e-02,1.857263743877410889e-01
3.383201417067231986e-01,2.812274972374460558e-01,3.281682300454658585e-01,3.995019062549903452e-03,8.194312676711282967e-03,-1.439776800894135809e-02,6.045030802488327026e-02
3.113155271068357988e-01,3.193809055042068357e-01,3.300245668271754584e-01,-9.095056837138458181e-03,8.214179197066564728e-03,5.123641665167729016e-03,2.816942520439624786e-02
1.672491638039740325e-01,3.946653121590941171e-01,4.738189707361444847e-01,-8.567021227160219465e-02,3.914968229968174285e-02,1.432020481823231134e-02,3.212719857692718506e-01
3.296763361762718447e-01,2.705685508414035212e-01,3.483973828176527565e-01,-1.087747398736548486e-02,2.938077615219920023e-03,1.639351584361420193e-03,7.307314872741699219e-02
3.438253823216440019e-01,2.891490802414294903e-01,3.260788384980501942e-01,4.069913421429039758e-03,5.313477824692039095e-03,-4.813621816338222413e-03,5.037883669137954712e-02
3.171691915334658440e-01,3.032712376904412865e-01,3.497233149171740108e-01,-1.519818685328654453e-02,2.541690005314942592e-03,6.893768479334045317e-03,5.059908330440521240e-02
3.114435749016296051e-01,3.118990112050982200e-01,3.284023849378134297e-01,-8.016808112281430731e-04,1.205201583288926853e-03,2.505964337186417958e-03,1.747026480734348297e-02
2.396200612243397643e-01,3.385912544764460019e-01,5.182516269995940394e-01,-1.669067027446123619e-01,-3.179238529945485614e-02,-1.384990090997339010e-03,3.827086389064788818e-01
3.170697270367826559e-01,3.216698074176078115e-01,3.151677802946343254e-01,-2.331216516294547150e-03,7.566400170622559519e-04,1.025756791701606030e-03,7.396283093839883804e-03
7.590635251287214391e-02,4.665733703006759159e-01,5.216261397091072061e-01,-3.778318548593853632e-02,-4.805692573098616777e-02,-9.439834288015720026e-03,4.343239367008209229e-01
3.377191486644255392e-01,3.053339895855042840e-01,3.187452352593917460e-01,8.543848532076406960e-03,-9.602823065151293996e-03,1.267905980915371572e-02,4.209804162383079529e-02
3.116664341357515133e-01,3.153042185939726183e-01,3.289595984719535515e-01,-1.243538936157978373e-03,1.252294191791880271e-03,7.373863268937633914e-04,1.613546721637248993e-02
2.531749067888509619e-01,3.477858261479874757e-01,3.826003361235554845e-01,6.326597089940737273e-02,-4.249243663494342571e-02,2.814486746424347402e-02,1.823679804801940918e-01
3.168161406942274216e-01,3.179481635890293867e-01,3.193590868041070729e-01,-5.785730467405015296e-04,4.333212531189976793e-04,1.000155044307026115e-03,3.072108374908566475e-03
2.750669626725513184e-01,3.276454166079058594e-01,3.382515788832380910e-01,1.219382265367737091e-02,4.030852126306241207e-03,-7.377012488694210599e-03,6.397430598735809326e-02
1.653022322568744873e-01,3.325699666313083891e-01,4.056934895575751154e-01,1.223295964284840387e-01,-2.223884724549204939e-02,1.543589043843823089e-02,3.043827116489410400e-01
2.162938186949895925e-01,2.769812445343339258e-01,3.890339957129992365e-01,1.376608712275194935e-01,4.147742109454608840e-03,-1.455941433379149413e-02,2.838627398014068604e-01
2.396482296687727498e-01,3.535960709579485384e-01,3.620877796335655319e-01,2.417323509035393739e-02,4.863843799753003044e-03,-9.097015661469719239e-04,1.258980631828308105e-01
3.682630205703910087e-01,2.640618111859406314e-01,4.353691344677103059e-01,1.447572351811078351e-01,-5.431722505444098320e-02,7.390491377108542037e-02,3.323470056056976318e-01
3.187571065355820354e-01,3.445151475838957311e-01,2.813084894827835303e-01,-6.664952227171877693e-03,1.749813339269939982e-02,1.091699105184006612e-02,6.663212180137634277e-02
1.116264018462151397e-01,5.050737701077221420e-01,4.966343370856783901e-01,3.924589490176567247e-02,-5.163848276270956855e-02,2.638927788474253189e-02,4.077512621879577637e-01
1.188358381345991366e-01,5.061896662777898293e-01,5.312835965555257056e-01,2.742017305606588712e-02,-3.919847376543445644e-02,9.465993818159318743e-03,4.093005061149597168e-01
3.496534218063866439e-01,2.704610391568000871e-01,3.300481552993629886e-01,2.403708559422429447e-03,2.927465443976557530e-03,-1.566430831345818134e-02,7.669659703969955444e-02
3.170649257475972593e-01,3.185681182624352514e-01,3.178002011432725649e-01,-2.995530874452252950e-03,2.572118757852733667e-03,2.978343419525937043e-03,8.664499036967754364e-03
1.213467421100272448e-01,4.501891058774115106e-01,4.832981425119513563e-01,7.308799682200781134e-02,5.870136476970151673e-02,-1.236059539703416796e-02,3.833309710025787354e-01
2.527689818375712383e-01,3.534398405844304536e-01,3.483489971015212294e-01,3.143826247905765099e-03,9.133771034981018680e-03,-2.779067678117352284e-03,9.975538402795791626e-02
3.171186043480908046e-01,3.169844404163472129e-01,3.181978294921516404e-01,-3.244552403199003204e-03,2.841104795892550761e-03,3.004995709385790449e-03,9.176846593618392944e-03
3.124640385762800232e-01,3.176746902039441212e-01,3.225805319469727817e-01,-1.868784004501793106e-03,2.211691005925510087e-03,3.462072745032978953e-03,1.174267567694187164e-02
1.864923945230892166e-01,3.636933477515098545e-01,4.959379329417316074e-01,1.781572408624767789e-01,1.184303011781067012e-02,-1.117337672874235167e-02,4.102901220321655273e-01
3.156006530594534509e-01,3.180282990683538369e-01,3.220222676825981178e-01,-1.245066351280574909e-03,1.077393231287474690e-03,3.326111835354397936e-04,6.325028371065855026e-03
3.095018565153639933e-01,3.327173589347328098e-01,3.456076834939421638e-01,6.076669628216500862e-02,-6.444040245377230525e-02,3.978640221178548347e-02,1.711394786834716797e-01
3.479301569904871272e-01,2.550369501423787599e-01,4.663657737348353982e-01,1.611045464118210924e-01,-3.292193707385135393e-02,3.692811068477656888e-02,3.447675406932830811e-01
2.335907499805466581e-01,3.995098820113132110e-01,4.181941273876510490e-01,1.306059790148927924e-01,-1.113876517332110794e-01,6.257159312111819360e-02,3.621040284633636475e-01
3.160789375945676216e-01,3.432828414095546732e-01,3.007066085261705379e-01,-1.213976283607784683e-03,-1.474463079534160670e-02,-3.901688583172652908e-03,4.579139128327369690e-02
3.447549494818054061e-01,2.458053782515512431e-01,3.733303161351733679e-01,3.443251942359026180e-02,1.237521947943565764e-02,-4.190200344835955798e-02,1.507270932197570801e-01
2.086821681843676335e-01,3.743086668407544781e-01,3.327930625162055511e-01,5.568759934404932110e-02,-1.003354847612730055e-01,2.880108385669589294e-02,2.535213232040405273e-01
2.443861879037677320e-01,3.455383206384830541e-01,3.466169811767692011e-01,1.985807860059306956e-02,-2.058024597451434817e-02,5.336648103367167516e-03,1.134950891137123108e-01
3.561021066054676498e-01,3.367160857910191374e-01,2.247077209586755830e-01,3.113981692785176923e-03,-7.630159652477298826e-03,3.380077165142406082e-02,1.368368119001388550e-01
3.268123768123069595e-01,2.940794470301726915e-01,3.371436575440539540e-01,4.014670607488908700e-03,-5.703013522187786767e-03,2.114168795921585620e-03,4.093516990542411804e-02
2.939014746403261769e-01,3.251170825490334315e-01,3.390183613328797696e-01,4.409433241824807503e-03,1.878196227544855733e-03,-5.100476487825886945e-03,4.181570559740066528e-02
4.036832308510022727e-01,3.401750636030237973e-01,2.899720808969611929e-01,2.066001648581119315e-02,-1.272269953895583706e-02,8.149486245442381926e-02,1.772914975881576538e-01
2.794134893583306023e-01,3.257647186931546535e-01,3.483833246982703247e-01,5.485532371985191342e-03,-2.051099729696191025e-04,-5.256454875962150719e-04,6.164143234491348267e-02
3.166437723266806170e-01,3.369992065868948616e-01,2.965508771570476987e-01,5.585086390471769892e-03,-5.572528323475830526e-03,1.953064967811448619e-03,3.775248304009437561e-02
4.720216155009864245e-01,1.810932178209624654e-01,4.491061175068447042e-01,3.668837009027035162e-02,1.381392507160314129e-02,-8.227416118541915069e-02,3.215826153755187988e-01
2.553618180834014706e-01,3.837685649823806000e-01,3.685709134930819086e-01,-7.178921376250836477e-03,-3.296347760227431173e-02,-3.335810816300029125e-03,1.349649876356124878e-01
3.512318127417382030e-01,2.547227745706571178e-01,3.467727179399670012e-01,-2.202000123631798773e-03,1.165707595497408747e-03,1.013469568714287124e-02,9.607441723346710205e-02
4.758003890031197725e-01,1.452202230152346840e-01,5.070849671181820728e-01,4.007524710975073068e-02,-2.626534582359380150e-03,-4.043937828235678184e-02,3.610385358333587646e-01
3.597603888017216756e-01,2.396581693486589115e-01,3.552643474326973583e-01,-4.570294054897521344e-03,3.138746068629210371e-04,2.335904102057294665e-03,1.182543858885765076e-01
3.554186174016458200e-01,2.396334345450963910e-01,3.646464783443933433e-01,1.526968850972689742e-03,-8.528463259791260569e-04,-2.801924318220826333e-03,1.207995861768722534e-01
3.962273868052210157e-01,2.851913426515285677e-01,3.998010603716963818e-01,1.187959708786490848e-01,7.142036001794845046e-02,-1.116876880410819228e-01,3.283306956291198730e-01
3.395242998225891928e-01,3.232728854832313536e-01,2.721282277739572875e-01,-9.748569736343765807e-03,1.064871355929058842e-02,1.688492120118403536e-02,7.205309718847274780e-02
2.773656238025814513e-01,3.530168596594990826e-01,3.377668626710008670e-01,-5.513615555899177741e-03,8.892694431245760922e-03,8.473804464529532607e-03,7.311529666185379028e-02
3.315750825421441284e-01,2.695975773654382679e-01,3.541328924800795086e-01,1.535879210167493888e-02,6.126354136071839214e-03,-7.396337814911403121e-04,8.105589449405670166e-02
3.622453155830565041e-01,3.786511023656104480e-01,2.321943298547749501e-01,-1.392470196135096525e-02,8.421201829525009350e-05,2.003828345734593244e-02,1.452663391828536987e-01
3.495776718935765248e-01,2.571474558484000417e-01,3.413415882147266545e-01,2.640281174204615541e-03,2.476510433549254566e-03,-6.650830375702240088e-03,8.956521749496459961e-02
3.839422986764374213e-01,3.849424712230048451e-01,2.355455697759422373e-01,-1.002530393517404167e-02,2.182701793026514334e-02,4.920794715816692588e-02,1.765391081571578979e-01
3.338789696471766155e-01,2.244001287017936830e-01,3.322527816039975157e-01,-9.586741179635729915e-02,-5.909048220483736208e-02,-9.387759205653670169e-02,2.762172520160675049e-01
4.641005884345184018e-01,1.592844191172096135e-01,5.032251003016259272e-01,-6.163010423634886215e-02,-6.606928620254595708e-03,-6.185781418599792247e-02,3.596864342689514160e-01
3.146978561626317950e-01,3.375673974011675349e-01,2.963557140832533410e-01,-1.341978945180624487e-02,-2.472974656231554519e-02,-1.672463424211333496e-02,6.702999025583267212e-02
3.529125493914425649e-01,2.535533292854244003e-01,3.570685048197002054e-01,1.790638896940811116e-03,2.289504886400508914e-03,-7.923213678801967891e-03,1.025482118129730225e-01
2.439005966472996834e-01,3.590853641081739323e-01,3.519860158159440755e-01,-6.168927353574609959e-03,-1.225751568560576842e-02,-2.278308750776908247e-03,1.143707707524299622e-01
1.753134361286688980e-01,4.413698255178492569e-01,3.773987233428135468e-01,1.228762829251706448e-02,-1.148187248100345781e-01,-2.406071892141435284e-02,3.155916929244995117e-01
2.785438931478666502e-01,3.312834811379244404e-01,3.495665868162628476e-01,2.376612697859167497e-02,-1.578192605143633517e-03,3.964545665183996301e-03,7.634848356246948242e-02
1.690187122688792953e-01,4.218145257809423621e-01,3.840906129146550163e-01,-6.959951906978605746e-03,-2.241788074209990697e-02,-4.718727086168993633e-03,2.398169636726379395e-01
4.809442528615469059e-01,1.977380458725141177e-01,4.052811634328219448e-01,6.335106246141593289e-03,4.585497626744087195e-03,-1.188416916665663015e-01,3.271940052509307861e-01
3.497891142263562791e-01,2.759550892061496397e-01,3.253660606387192566e-01,1.886389499161188546e-03,-4.892279842205604114e-03,-6.057102612186603466e-03,6.661261618137359619e-02
3.446696817042126937e-01,2.810254335901257727e-01,3.363806070193749997e-01,1.025852659284756316e-02,3.961859101316109015e-03,-2.659391336327670760e-02,7.795035094022750854e-02
2.249999511732648505e-01,3.703323133456757899e-01,4.740561130818711222e-01,1.621925532232766642e-01,4.198750290767075399e-02,-2.944647136626446157e-02,3.657375574111938477e-01
3.075062689967590357e-01,3.085960368569952705e-01,3.418419387761336137e-01,5.771916485871984338e-03,-1.062517052974723802e-03,-1.294776815179524013e-03,3.537045419216156006e-02
2.328173148599592679e-01,3.649427857833714151e-01,3.609011092121424680e-01,6.741548583402093113e-03,-5.474641377570126782e-03,6.858687546427938084e-03,1.315555125474929810e-01
3.054589946106661680e-01,3.052567930209648117e-01,3.350450704504180921e-01,9.137452517974892913e-03,3.107317803394709331e-03,-2.639901245780809386e-03,3.437603265047073364e-02
3.273697625986638493e-01,2.846656648837386783e-01,3.491950817789805650e-01,4.779409283958382937e-03,-1.233629409176568471e-03,-2.891316727058865807e-04,5.749225616455078125e-02
3.046008595169646394e-01,3.175607346322498747e-01,3.298871566040146308e-01,2.725983132268293505e-03,-2.491666481848765335e-03,5.907861379981584754e-03,2.500549145042896271e-02
3.185495049967295156e-01,2.847465637812651718e-01,4.752783896781850870e-01,1.588267291411168403e-01,3.807940424360218429e-02,-3.483780482767318692e-02,3.386346399784088135e-01
3.557556213734967554e-01,2.736914020245463930e-01,3.301037705327560801e-01,7.173233305559174530e-03,-1.141186128432635167e-03,1.336248275084400000e-02,7.733947783708572388e-02
3.904363738999265809e-01,2.527927660244088104e-01,4.104144840564746266e-01,1.310878419070642953e-01,6.993418130046213932e-02,-1.039800994732162642e-01,3.474978506565093994e-01
3.359773907364014822e-01,3.054299421890678823e-01,3.032486602944672871e-01,8.337542535389015977e-03,8.109846862903327333e-03,-1.132642669277472702e-02,4.237043485045433044e-02
3.035810523126756810e-01,3.107303180191035019e-01,3.401118394213905050e-01,3.452484093541260696e-03,-2.119326692957363735e-03,3.454265118402701472e-03,3.477745875716209412e-02
4.160278982465132058e-01,2.109647301903075645e-01,4.911535493746750913e-01,1.277155359924153355e-01,9.091876769254348192e-03,-1.973122832300230195e-02,3.368234038352966309e-01
2.422164530146100336e-01,3.855924743313263736e-01,3.802131215922527341e-01,-2.947185300232495545e-02,-2.257666201943032275e-02,-7.608483073735195987e-03,1.553155034780502319e-01
2.442496641237972277e-01,4.203780287498262158e-01,4.044562944336820287e-01,1.140123905902006296e-01,-1.061302192562282865e-01,6.582549685461031030e-02,3.380188941955566406e-01
1.287090334990360074e-01,4.301776125961019881e-01,3.625498659660704170e-01,1.474155590678733786e-02,9.665076187656404527e-02,-7.012837209537143776e-03,3.223240077495574951e-01
2.348057097879060473e-01,3.703547990451674932e-01,3.679787886809789410e-01,9.737672184848905621e-02,7.632538049040200889e-02,-3.948126028870154597e-02,2.620244622230529785e-01
2.350221569630659979e-01,3.362076527157715211e-01,3.565866242016199616e-01,5.340680660121408657e-02,2.034299919875643542e-02,-2.341547150278447398e-02,1.554319411516189575e-01
1.419417365923456853e-01,4.335720881381919800e-01,4.236766594696492749e-01,-1.876170149179630375e-02,-8.478891556155453146e-02,4.209586400401209294e-02,3.319639265537261963e-01
2.459526457223247253e-01,3.586763138566981257e-01,3.538159598908201531e-01,8.816424742515994659e-03,4.473035933145527721e-02,-2.012056930226875911e-03,1.357575803995132446e-01
1.308955979983124351e-01,4.569859860569192023e-01,3.969101796496592449e-01,-5.280394267706318284e-02,3.380684670562422549e-03,2.384610384105851147e-02,3.169524669647216797e-01
2.370286434711970647e-01,3.736769288603187800e-01,3.697444040921109010e-01,1.087329682522672480e-01,-1.008512164906025799e-01,1.037055474929777094e-01,3.411698341369628906e-01
2.972010440258113784e-01,3.998693893275384603e-01,3.002948910183929065e-01,9.818745189917738037e-03,-9.203525185227866279e-02,4.005026289346267504e-03,1.896879673004150391e-01
2.408446757550577189e-01,3.508912894987206710e-01,3.435258088126910136e-01,1.988082032509889963e-02,2.841611226093330653e-02,-2.763345952693712498e-03,1.224133819341659546e-01
3.179920828051507331e-01,3.160193346799795022e-01,3.161735430159633431e-01,-2.929278018109831780e-03,-1.562723229328397221e-03,-1.776316488162732465e-03,6.793049629777669907e-03
3.269409048752363600e-01,3.323902614117916210e-01,2.960490978690192843e-01,-6.936189190749779410e-03,-3.028953946961912558e-03,-4.621110660304131139e-03,3.725935518741607666e-02
1.197554336296830224e-01,3.949457101105153245e-01,3.621235167104845942e-01,2.914890206651172405e-02,9.520795035456300348e-02,3.023845543960870970e-03,3.123214840888977051e-01
2.720521605383858788e-01,3.500006101135191283e-01,3.409148907142817708e-01,7.044269447364609471e-03,4.150070765453408618e-03,-4.727414118172782419e-03,7.561662048101425171e-02
2.775071753722412882e-01,3.289903778997288475e-01,3.486567650627145909e-01,-2.586275477605254336e-02,-2.693954117060253124e-03,-8.805445393384774477e-04,7.797768712043762207e-02
4.027270112043157546e-01,3.999858928477911246e-01,2.854929166241910732e-01,-6.271907106747438843e-02,-1.078745757688701762e-01,-1.310928208437742992e-01,3.342122137546539307e-01
2.520338126481659335e-01,3.432551294034468237e-01,3.624185794930668836e-01,3.337641622591950435e-02,2.491279397316197367e-02,-1.314111041706017557e-02,1.271166652441024780e-01
3.409514879344063831e-01,2.962068993212854662e-01,3.139496125327284060e-01,5.375331459795266217e-04,-7.045632698408595736e-04,-2.781088293219294901e-03,3.935163468122482300e-02
3.134034764829096154e-01,3.069409641414008738e-01,3.582845054118108385e-01,3.640317518162687616e-02,-1.143808746755005899e-02,9.434002351148265339e-03,8.355344831943511963e-02
3.398669501855376418e-01,3.260396654525039573e-01,2.972260372027434316e-01,-5.211573682989436435e-03,-7.684984161044405631e-04,-2.841470586070829907e-03,3.908079117536544800e-02
3.348327226988210836e-01,3.448156205883354808e-01,3.090086023168705509e-01,2.107738253967764847e-02,2.868482252168591887e-02,-2.743289196821520337e-02,8.416210114955902100e-02
3.215268381370811612e-01,3.153359437336904492e-01,3.157503006010922708e-01,-2.113255945780817460e-03,7.955787983744155335e-04,3.916107805164821478e-04,7.189582102000713348e-03
4.416619351667790960e-01,4.276476434513770686e-01,2.157010641548565699e-01,-2.541248887496735942e-02,-7.164941851472858558e-02,-1.257115119529933489e-01,3.359114229679107666e-01
3.480560794030361227e-01,4.462597101486909246e-01,1.814374472476726341e-01,-2.413081155753594303e-02,-1.203285144857364902e-01,4.294518299892009089e-02,3.232412040233612061e-01
2.780297591369205179e-01,3.296680073176046499e-01,3.474563000354619624e-01,1.186422327729377141e-02,6.215151061002789114e-03,-6.748304708527431278e-03,6.764814257621765137e-02
2.926330871040919157e-01,3.483517887921167566e-01,3.166572224956396009e-01,3.950737616112569989e-03,8.704203617492238532e-03,-1.532966389395569581e-03,5.122795701026916504e-02
3.073281131267703303e-01,3.417291656664749877e-01,3.024728531867355574e-01,-1.619495289040419946e-03,5.709041394356785711e-03,1.040795076190115156e-03,3.850882500410079956e-02
3.341667090890764191e-01,3.836995594628614947e-01,3.804109494690473547e-01,1.271182453192767625e-01,-1.179849230330390353e-01,9.714389564635098062e-02,3.476358652114868164e-01
3.365478571065543822e-01,4.409764402905240743e-01,2.519904335469465573e-01,8.908218522760187608e-02,-1.929213825801655569e-01,9.902422620766287986e-02,4.379107058048248291e-01
3.107957930134334079e-01,3.397449828838222663e-01,3.069387093532556787e-01,1.662015293518979715e-03,1.073856607565449109e-03,-3.982118015797392568e-04,3.125402703881263733e-02
2.991053089069374837e-01,3.135328467266081942e-01,3.446236928390356558e-01,2.196627057655871438e-03,2.678852176681291138e-04,-1.521703190615194753e-04,4.047368466854095459e-02
3.445175933191961803e-01,3.880224313110948731e-01,2.856071643729473086e-01,1.148361663104515429e-01,-1.754469164664978209e-01,1.333874675762469486e-01,4.395560622215270996e-01
3.091190332529606399e-01,3.177208041731258703e-01,3.283395033384660655e-01,9.241547501988287873e-04,-1.166829332397059616e-03,4.103907365979702661e-03,1.831009797751903534e-02
3.213792948801473814e-01,3.296919426451287438e-01,2.979443728826988713e-01,7.545369477439008155e-03,-5.497585446281687098e-03,5.332288618013423555e-03,3.405686467885971069e-02
3.804818622860387523e-01,4.834459283401955076e-01,2.144486836009122377e-01,2.390585990784709416e-02,-1.581664484577983976e-01,1.438245800515165762e-02,3.642100691795349121e-01
2.994997380819185429e-01,3.521052829349013424e-01,3.188371077245367724e-01,5.648673490854132836e-04,1.687902711132197725e-02,-4.424693410524881826e-03,5.512186512351036072e-02
3.065365497113902715e-01,3.395726252135639056e-01,3.097961090363505199e-01,8.422996101893701895e-05,1.533670148348880704e-03,-6.358604590814371724e-04,3.166409209370613098e-02
3.493190280337855058e-01,4.857248490795729179e-01,2.746108490812056990e-01,1.829490742880534107e-02,-1.692180490704812412e-01,2.307595086959964015e-02,3.505486249923706055e-01
2.304755562891400711e-01,3.948236676856518024e-01,2.748239189593135734e-01,2.395667471906421167e-02,-1.470502655733876562e-01,2.665631680069190448e-02,3.006880283355712891e-01
3.090077597208309990e-01,3.417358213580161674e-01,3.101733923482924427e-01,7.125604661767664548e-04,6.862221970024080971e-03,-1.130824247942862124e-04,3.430987894535064697e-02
4.354175438322355762e-01,4.626501508253177408e-01,1.959019606974879979e-01,2.434471367094555999e-02,-1.021507646733544467e-01,4.944189767214576120e-02,3.241107761859893799e-01
3.092603993505101401e-01,3.573793850695462515e-01,2.945775789015810386e-01,1.824514211406999195e-02,-3.290828881273188955e-02,1.762974787483769651e-02,9.174688160419464111e-02
3.275226029559932250e-01,4.510783117034493084e-01,3.176526947010731572e-01,5.271062892143039275e-02,-1.680481536272649401e-01,5.622568339978295526e-02,3.451415300369262695e-01
3.272556908636274353e-01,3.404133371887980708e-01,2.956950644323692035e-01,-5.900032459125304114e-03,-4.459401037602239888e-03,-8.008082352517976316e-03,4.405608400702476501e-02
4.053645136169718999e-01,4.584268295218506539e-01,2.072270109427773732e-01,-1.883328079653295850e-02,-1.437763404094156705e-01,-5.109776694399734837e-02,3.514251708984375000e-01
3.146584470957589641e-01,3.425247620507616553e-01,2.903705127711229683e-01,-3.182192114296916036e-03,-9.623916597831806349e-03,-1.857635123098609273e-03,4.859877750277519226e-02
3.108287936647621263e-01,3.146408266386619967e-01,3.282678182893640773e-01,1.757876454248526394e-03,-1.357701570839243066e-03,3.753656822395833037e-03,1.758531481027603149e-02
3.174392738881668397e-01,3.185140507721196390e-01,3.018880456878928475e-01,1.875255186371294763e-02,-2.390480952040298021e-02,2.470059487719167626e-02,6.970912963151931763e-02
1.579419254162382769e-01,3.758682153110644020e-01,3.762861208902951171e-01,6.002219620887910140e-02,-5.496374661714067966e-02,8.932781497692363765e-03,2.601798176765441895e-01
3.117087859601931910e-01,3.132190994927118166e-01,3.278024771586507957e-01,8.073863457540200305e-04,-2.653466856149001678e-03,6.356834407840359583e-04,1.616390980780124664e-02
3.666275513072684289e-01,3.298705119141219777e-01,2.720452447037541854e-01,-5.259420564964934625e-02,-4.571135181894316057e-02,-4.646102349706456025e-02,1.669228672981262207e-01
3.136951543889655025e-01,3.313600017402481557e-01,3.222553511824962080e-01,1.435885212139676251e-02,-2.638409069567018359e-02,1.694373991372340876e-02,6.166255474090576172e-02
2.699665968314478581e-01,3.295918738626030797e-01,3.484397050731798395e-01,1.321781512950877431e-02,-1.922290236396520090e-03,3.615038011542792869e-03,7.489088177680969238e-02
1.654251859934774416e-01,4.851351255607602164e-01,4.055360262267869720e-01,2.019366827298486183e-02,-1.128092444865045618e-01,9.511398822968610695e-03,3.503917455673217773e-01
2.104471300986985038e-01,4.352793108442319925e-01,3.776121848829447902e-01,9.139600328482137825e-02,-1.363058971065451153e-01,5.477996038870251022e-02,3.615379631519317627e-01
2.427119796031914634e-01,3.784495122311878901e-01,3.307648747371475517e-01,3.385940619864274970e-03,-5.863819433850371576e-02,-1.334210640963767042e-02,1.584602445363998413e-01
3.282339971429660275e-01,3.374056689883258575e-01,2.753895255889742821e-01,-1.183467150954819504e-02,-2.097913116580615855e-02,-1.285427060193832481e-02,7.481695711612701416e-02
2.387772290506903206e-01,3.611362334983837519e-01,2.992871236654192080e-01,6.379649661862151280e-03,-6.361895784836783807e-02,9.362470819655618892e-03,1.541311889886856079e-01
3.214007821624868533e-01,3.399443484621053058e-01,2.992140174930191243e-01,-4.018678915429886762e-03,-9.019105062331377390e-03,-5.047731697722462885e-03,4.020521044731140137e-02
3.552486360541561305e-01,3.995387445966917528e-01,2.531003821499017703e-01,-1.513045533930301853e-05,-5.950988460786368200e-02,-6.429909860393480565e-03,1.663380563259124756e-01
3.543109390131745084e-01,2.404239084979117314e-01,3.593727203664542347e-01,2.744304667291060876e-03,3.480130095668105904e-05,4.818966587321868271e-03,1.168957352638244629e-01
4.513352801001115910e-01,1.546443843989587230e-01,5.014585468407711799e-01,7.153199332589259274e-02,1.559720778548916512e-02,-4.721500535238778995e-02,3.580181598663330078e-01
3.555356572388566616e-01,2.429866182014426279e-01,3.524194154298438408e-01,-1.448592115493174768e-03,-1.148360417456506825e-03,-3.755810340668849952e-03,1.112602204084396362e-01
3.370544952381871462e-01,2.818101701505509871e-01,3.268006542261032155e-01,5.069247300051498220e-04,5.344798468710338334e-03,-3.924726767499232480e-03,5.218517035245895386e-02
3.559154715105404265e-01,3.564940877060913671e-01,2.228025804802534759e-01,7.892860582915743259e-03,2.375665881280277295e-02,-3.399887495109873981e-02,1.521321684122085571e-01
3.248474600776312116e-01,3.126589200629748544e-01,3.147009405039735697e-01,-1.347931559901528915e-03,-3.004608336100291020e-03,-2.138196697321473327e-03,1.319433748722076416e-02
3.135850832120090637e-01,3.189123468737370404e-01,3.215611108717636446e-01,-6.507324011928845809e-04,1.204978041566064388e-03,3.155029300588292271e-03,9.219286963343620300e-03
3.223147978656974444e-01,3.179907470638603795e-01,3.159405790566963690e-01,-5.785861341062046226e-04,9.531545747255281299e-04,1.039725000111261718e-03,6.224027369171380997e-03
3.275730535053527070e-01,3.089101546471328952e-01,3.169217089401316079e-01,-1.521135329678189544e-03,5.226005412367931181e-03,2.505421692254929458e-03,1.925295591354370117e-02
2.306505130639247558e-01,3.750524008353240957e-01,3.733684512976239711e-01,-1.998797734630202577e-02,-3.009932679561738017e-02,-5.072664086400592142e-04,1.566167771816253662e-01
3.348664796991243642e-01,3.387546030795162144e-01,2.864138331680236571e-01,-2.084499052121159199e-02,2.638373181098116124e-02,1.554364396438157048e-02,8.165675401687622070e-02
3.299538227296702764e-01,3.205156217488132619e-01,2.982255488397986820e-01,6.527521502707776986e-03,-5.215712075528709975e-03,4.522108396616936719e-03,3.266634419560432434e-02
3.193776148353489330e-01,3.172393592039285393e-01,3.159100307412314179e-01,2.121415675471732126e-03,9.269905824848747190e-04,-1.310549813402067101e-03,5.514840595424175262e-03
2.616102297858167725e-01,3.499141355292649247e-01,3.528213249515975702e-01,-2.310949958070331045e-02,8.706004948896020612e-03,1.729163605932848417e-04,9.946038573980331421e-02
3.424721677260998409e-01,3.051166346773630522e-01,3.093233176893951941e-01,-1.354515615208667359e-03,-4.236380689761949799e-04,-5.051931563938257159e-03,3.658685088157653809e-02
3.200642070960192931e-01,3.114295216162888957e-01,3.211665737594531778e-01,4.648468897446038275e-04,3.467085539564809023e-03,-6.877984800978634728e-04,1.110950484871864319e-02
2.662345497509521763e-01,3.417656104966389496e-01,3.503010789346484022e-01,-6.510370075613283562e-03,2.045475715637312588e-04,9.711488392820731130e-04,8.094812184572219849e-02
2.704761990009415529e-01,3.285888211750446763e-01,3.476824803831988775e-01,-1.536738039573083345e-02,-2.711859620292439866e-05,1.368889985916446443e-03,7.460107654333114624e-02
3.151983483298669286e-01,3.231604927634347257e-01,3.233896439587281013e-01,-2.238224439581365868e-02,1.417945051812541900e-02,1.527121529146282033e-02,5.358141288161277771e-02
1.986372582824224020e-01,3.721048564184953333e-01,3.321635114842467762e-01,-6.618624630129227304e-02,1.062228155976640970e-01,2.628466685648042644e-02,2.717023193836212158e-01
2.010656246920224377e-01,3.557573700603148259e-01,3.668209085213413045e-01,-9.686603094087814503e-02,6.806844706789755284e-02,4.239321351431208501e-02,2.705622911453247070e-01
3.107301326482485027e-01,3.331814797334409772e-01,3.232114457233834504e-01,9.344173280139041193e-03,-7.150171995106813227e-03,9.115289745185111911e-03,3.231416270136833191e-02
3.954227416324471167e-01,3.697995946371227527e-01,1.502593202528915151e-01,-1.191956314323396222e-02,5.617877548335808296e-02,6.965047517501944674e-02,2.809408307075500488e-01
3.769146087146108548e-01,3.865201638808892226e-01,2.430929894779291778e-01,7.113420167274799553e-03,5.935737918655990819e-02,-3.723410839881691192e-02,1.848425269126892090e-01
3.604571566336898791e-01,3.601662964769896669e-01,2.016695857392577229e-01,4.157886827532187267e-03,1.384618676150102187e-02,-1.974220066940636856e-02,1.642061769962310791e-01
3.226547397471848933e-01,3.515360779252295065e-01,2.197338663262888292e-01,-2.191592640897107452e-02,5.879480756185796742e-02,3.283779319003372887e-02,1.715975105762481689e-01
3.342436698304684373e-01,3.471124244816030102e-01,2.696841292506685916e-01,-4.525465121649519668e-03,1.041241272408520782e-02,1.119793492287413962e-02,7.698841392993927002e-02
3.270736722087205228e-01,3.491064335971811317e-01,2.652616657370579500e-01,-1.906994535520146420e-03,1.331238511995356394e-02,1.195815446531144771e-03,7.883472740650177002e-02
3.606769566420023332e-01,3.461157357162468751e-01,2.557902865814599691e-01,-5.607179094605648298e-03,6.691228674588919900e-03,1.134031307463477870e-02,1.014909446239471436e-01
3.169835907730201296e-01,2.918041280146459471e-01,3.396885680336758084e-01,-8.874900407743448183e-03,-7.517203239970302389e-03,-4.184608748120988153e-03,4.668586328625679016e-02
3.192954571215787518e-01,3.275819039403415900e-01,3.093895261890663995e-01,4.773104158448441235e-03,-1.440160301150197235e-03,8.315159218777188124e-04,1.804221794009208679e-02
2.071875705426114989e-01,3.679506672246196652e-01,3.996265156401554441e-01,3.025910339159859630e-02,-6.777218249320779951e-04,-1.122539017780304661e-02,1.872610151767730713e-01
2.123950787591117051e-01,3.752138217341209891e-01,3.647227293857610020e-01,2.313956712202800900e-02,4.030389900118302310e-02,-1.090082100809810616e-03,1.771862208843231201e-01
1.175491007374735997e-01,3.705418522924631142e-01,4.781109054852062945e-01,9.355730808380260943e-02,5.728615953818683160e-02,-4.439178413214376479e-02,3.805345296859741211e-01
3.182554243190183207e-01,3.177477952721275978e-01,3.188421255859024694e-01,1.470148802144775576e-04,3.469137076564752110e-04,-5.915721236929207677e-05,1.155905891209840775e-03
3.132070877683964527e-01,3.241681460118405744e-01,3.158651985842860777e-01,-4.339181033799217879e-03,4.193420181121823923e-03,3.840240558491795318e-03,1.586054079234600067e-02
3.285448337981829448e-01,3.091141900881470006e-01,3.197851819657301364e-01,1.109834456556695092e-03,-4.870023977464688417e-03,1.184241866907800042e-03,1.905596069991588593e-02
6.375748983020637639e-02,4.113997942817615439e-01,4.214769891711458993e-01,1.413559515791082150e-03,1.608054007979644109e-02,-4.803972782385147224e-03,3.539928793907165527e-01
2.509298296312462706e-01,3.757875669009903552e-01,3.832567720039489201e-01,-6.635177618828232149e-02,-1.226731085838586588e-01,-8.052706916235949364e-02,3.072220683097839355e-01
3.385132218435603080e-01,3.621010794713305225e-01,2.858150664676039066e-01,3.465415763762230770e-04,-2.695044737341985297e-02,-4.978782936614221249e-03,8.264517039060592651e-02
3.135655715792385889e-01,3.456463811623803339e-01,2.889362419894542788e-01,1.391183450019129212e-03,8.773055450316152512e-03,3.624167106505343577e-04,5.160436779260635376e-02
3.032380204676032864e-01,3.429804107323980444e-01,3.188201813446629451e-01,6.342743465616150315e-03,-1.247700924552369237e-02,6.444326530070935283e-03,4.376408830285072327e-02
3.144976088158764616e-01,3.421497563641215933e-01,3.040230763367417488e-01,2.621174879249565503e-03,-1.539738312339076695e-02,3.809758211520883169e-03,4.403854161500930786e-02
3.867117497242051338e-01,4.047782038647562697e-01,1.887915195871564811e-01,4.367447249140291726e-03,1.100985465083463427e-01,8.021070315207455559e-02,3.143216371536254883e-01
2.502067788684348981e-01,3.419339204635967189e-01,3.473762681149187848e-01,-2.061918331919636652e-02,-1.839420603817153166e-02,-8.038656934176796609e-03,1.068973839282989502e-01
3.019205407446685085e-01,3.393562117231716524e-01,3.149885973059569633e-01,1.572567501745938826e-03,-2.043515218396645041e-03,3.746998892567889906e-03,3.383871912956237793e-02
3.175690326949051623e-01,3.182528444784640809e-01,3.185279845683539057e-01,-1.374382674279851194e-04,-1.299791143613385246e-04,-3.505663786142149759e-04,1.098856911994516850e-03
3.141478400108468905e-01,3.594828815099981867e-01,2.834266166654449970e-01,5.865091170724524156e-03,-3.111739624948398758e-02,-3.966487399900622476e-03,8.629647642374038696e-02
2.919982890399075992e-01,3.195115785056140134e-01,3.484433163111066434e-01,1.057067319346317175e-02,1.478683341429580739e-03,2.795412841019974740e-03,5.249051004648208618e-02
2.911103694800821207e-01,3.111675147137676345e-01,3.437114328907502347e-01,8.330163195520686251e-03,1.708456391807552455e-03,-2.941737010548392279e-03,4.854921624064445496e-02
3.180086953072694955e-01,3.184188936583547402e-01,3.187669888774480875e-01,5.479587835215292608e-05,-3.821211407037939083e-04,-1.478895266428673430e-04,9.720557718537747860e-04
2.812313049551407595e-01,2.907359608474610058e-01,3.599396296961687169e-01,5.754731953087726531e-02,6.140592186065293653e-03,-8.835943637207183468e-03,1.257762610912322998e-01
2.377321375592053032e-01,3.474849580465233512e-01,3.732144330935856513e-01,-2.458304379698139294e-02,-2.083505297338180198e-02,-2.092608000737962784e-02,1.412818133831024170e-01
3.079684390739745314e-01,3.066004923182371611e-01,3.382862058120209570e-01,-3.453398601129323287e-02,3.632276442457049032e-02,3.428719379265651734e-02,1.096593141555786133e-01
3.161151711689818011e-01,3.144463717702706274e-01,3.252460532182582242e-01,-1.046147708462136271e-03,2.331558557065865726e-03,9.613480045978185437e-04,1.112474035471677780e-02
3.190900418385344550e-01,3.001871968222740161e-01,3.328310308210757906e-01,6.059939692448686362e-03,6.874302366038823053e-03,-4.513121837488914302e-03,3.345022723078727722e-02
2.964941276516094848e-01,3.168879472224507277e-01,3.460618669712558493e-01,1.521060034877210962e-02,-1.002774455243463916e-03,-2.794392768388077701e-03,5.081852898001670837e-02
3.281441225887333224e-01,3.167649986143037388e-01,3.079400144898782887e-01,4.014514055870551518e-03,-1.552642174395601170e-03,1.180801853035174384e-03,1.917157694697380066e-02
3.176337106520926712e-01,3.183909063880334123e-01,3.190308878000299164e-01,3.193706110066561049e-04,2.324768454904398824e-04,-3.355705020405229107e-04,1.507801236584782600e-03
3.210433326395938924e-01,3.042080571688574597e-01,3.282034003678802048e-01,5.071748391612957395e-03,6.768212986062045397e-03,-2.332837416805935184e-03,2.619456499814987183e-02
3.238201797783373248e-01,3.138427326879568158e-01,3.121748848962133671e-01,2.637358257377235646e-03,-1.423426976836574291e-03,2.351552731332426718e-03,1.274781674146652222e-02
3.219085808264295911e-01,3.117505538993888270e-01,3.281481019082797546e-01,-7.716397557459528031e-03,8.578107281130929046e-03,7.061884152022160528e-03,2.746796607971191406e-02
2.642028577789377608e-01,3.241909698097210635e-01,3.511262467528256659e-01,2.811874274888941441e-02,7.115093486779790373e-03,-8.578109969676631086e-03,9.319064021110534668e-02
2.242705120120438989e-01,3.707645539958998038e-01,3.705367049276610536e-01,3.999527840995798639e-02,2.329442481952003277e-02,-1.777426951290563169e-03,1.669233739376068115e-01
2.811610729815610110e-01,3.491476965226676388e-01,3.259106739687167020e-01,-1.173196701160445291e-04,-6.899881823530273559e-03,-4.130980458871426342e-03,6.145237758755683899e-02
2.395783885324820339e-01,2.627548026194682085e-01,3.357710542572557300e-01,-1.415075416667802566e-01,8.930216234560157951e-02,8.125368863526023777e-02,3.337140083312988281e-01
1.347893222141728631e-01,4.182350767068704345e-01,3.706887986984415129e-01,-2.851648239134125379e-02,8.362117300219196192e-02,4.970020115695235850e-03,3.043296337127685547e-01
2.598908796936195698e-01,3.688502903940309441e-01,3.411719416801080040e-01,2.126682894668154716e-02,3.976875268909289829e-02,-2.774346205067078699e-02,1.342870891094207764e-01
3.028431834322703464e-01,3.358110888003449368e-01,3.152284633081585130e-01,-1.579297281652561205e-03,-2.376298768541118545e-03,-2.893994332786697932e-03,2.969023026525974274e-02
3.018632071888863733e-01,3.068882253965650175e-01,3.412641447527742788e-01,-4.877990297744477094e-03,-7.368043791955676070e-04,-7.287732345789650276e-04,3.813529387116432190e-02
2.841642266607334322e-01,3.766685793667258197e-01,3.112520139659880614e-01,3.216089480524394334e-02,5.399317671869281743e-02,-1.639928644890514819e-02,1.394296735525131226e-01
2.121137825118622477e-01,3.873691494254752343e-01,2.531392331058526235e-01,1.902443096447235457e-02,1.405825854310730483e-01,-1.467668134918119309e-02,2.936494350433349609e-01
2.868661925602152829e-01,3.776048895019667451e-01,3.028848360639170290e-01,4.759824051266912243e-02,1.130526611787963098e-01,-3.471349841449522522e-02,2.362015396356582642e-01
1.793589990296916292e-01,4.018268041550910330e-01,3.669187615327189622e-01,2.637976920146029892e-03,2.755388038194139105e-02,2.336128903305017407e-03,2.127427458763122559e-01
1.911268090480767734e-01,3.886387917967650818e-01,2.834087054121338101e-01,-7.628426855428707687e-03,-1.404042327498856990e-01,1.816179995767977420e-03,2.976989746093750000e-01
2.782949112647735146e-01,3.967787117965916321e-01,3.393419781077492980e-01,-1.173832834216529362e-02,-7.492951460484950643e-02,-5.991615384815494189e-03,1.670222282409667969e-01
3.213459722033747967e-01,3.171383476905120236e-01,3.179735401839091646e-01,7.396608632841068006e-04,-1.678660047227921882e-03,-1.412463579964457568e-04,5.004229955375194550e-03
3.165569568081448848e-01,3.178389017261527560e-01,3.195128422979779392e-01,8.341076291422680694e-04,-2.071772799551010406e-03,1.240588082557649669e-03,5.115903448313474655e-03
2.457172660658094865e-01,3.573393455109299954e-01,3.492581601776171274e-01,-2.141378299669081204e-04,-1.514386225828074153e-02,5.812060066045498250e-04,1.109590753912925720e-01
2.705947863775102213e-01,3.512207250543679660e-01,3.268161817611468511e-01,5.370085530400164030e-04,-1.808721596483816099e-02,-4.711840869125762804e-03,7.859641313552856445e-02
3.288024419041622459e-01,3.259698011102652448e-01,2.942608632115029099e-01,8.686909116529492256e-03,6.234731399608750037e-03,-4.911237808344306142e-03,3.897004202008247375e-02
3.394036682777372138e-01,3.260095311481185920e-01,2.843125740508724575e-01,7.039536022782341002e-03,2.569445078581633884e-03,-4.412054903383096950e-03,5.199426785111427307e-02
2.805174029294633664e-01,3.419598413277231685e-01,3.251221382473204469e-01,-5.007023511052796638e-03,-9.442199818917340268e-03,-8.520558466217601976e-03,5.987159535288810730e-02
2.446793860966049727e-01,3.561029580135594008e-01,3.312703375463460498e-01,1.439215520215755438e-03,-5.331412966044127288e-02,-3.262306100751126599e-03,1.372234076261520386e-01
3.191269846040795666e-01,3.215810752024331753e-01,3.183448463153916719e-01,-3.341066960353612780e-03,-2.931106055784042479e-03,-2.650797710325495347e-03,9.428481571376323700e-03
3.287489043886381856e-01,3.129071806031431535e-01,3.118910406968552484e-01,-6.211603642014328422e-04,-9.467468203921117122e-04,3.708182508463652277e-06,1.649050414562225342e-02
4.644673564668395649e-01,1.535640911120390029e-01,4.555731546340401339e-01,-6.395666677974554126e-02,-1.380118949356315232e-02,-5.541063071995949718e-02,3.406295776367187500e-01
3.275821996772283473e-01,3.263164195434256620e-01,3.023101705564819608e-01,5.573761356547986441e-03,2.816398007272850629e-03,-2.041169860299594813e-03,2.716219238936901093e-02
3.349453620689710753e-01,2.979204815860089228e-01,3.534945298444543416e-01,2.603019593948121060e-02,1.150159231913350233e-02,-6.725101474259213320e-03,7.047657668590545654e-02
3.435225368194420037e-01,2.717622927123822252e-01,3.445283535667810759e-01,-2.591419039806745067e-02,-8.477040365339715000e-03,-1.496221133231953604e-02,9.013623744249343872e-02
3.689217268413205186e-01,1.738620624152921179e-01,3.345221141206201065e-01,-5.536458937316253437e-02,-3.043187469970103087e-02,-1.022719791534075495e-01,2.754529118537902832e-01
3.530590730577876091e-01,2.361256080182809192e-01,3.607726472265882500e-01,-2.215036878392922376e-02,-4.675453319703856692e-03,-1.014472853606910273e-02,1.283789426088333130e-01
3.617146942971522505e-01,2.540680883730536133e-01,3.525978635884947643e-01,-8.019085259798698628e-03,-1.259626546825181291e-03,-1.326093187304036060e-02,1.068398207426071167e-01
3.877903614470923355e-01,9.332915639380082173e-02,3.881996850608574468e-01,-8.925769688732305626e-03,-6.844543384300119312e-03,-4.073960788178802861e-02,3.036227822303771973e-01
2.545181359244157449e-01,3.398844669449254119e-01,3.450303206061885453e-01,1.411545662706682747e-02,1.159866699042385457e-02,-5.521785050527166193e-03,9.405300766229629517e-02
3.410473419831557829e-01,3.029282867992632022e-01,3.092416996825133046e-01,2.246387959443649825e-04,-2.975402225217610008e-04,-5.248292101001118815e-03,3.654190525412559509e-02
2.836563319589671117e-01,3.095763932016817876e-01,3.548261068606357593e-01,-2.543417781827167143e-02,1.618521925205658116e-02,1.306412916006300003e-02,8.444437384605407715e-02
3.609066581408334473e-01,2.502380998740011409e-01,3.645328653573860489e-01,1.004822406025045363e-02,-1.205330250262005897e-03,-1.231692440296219999e-03,1.139025762677192688e-01
3.209524358827903767e-01,2.049203570026902899e-01,3.981747025635761772e-01,-1.420891186175933518e-01,3.342325619636311168e-02,3.101407513892784004e-02,3.085318505764007568e-01
3.888145986167144130e-01,2.005300247018567406e-01,4.099248275350213522e-01,-5.875957440045485869e-02,-1.205107082964549867e-02,-6.459911614671601417e-03,2.253672331571578979e-01
3.297801273244873599e-01,2.655987124773684371e-01,5.081980747053385095e-01,-1.821250408202823579e-01,2.801045389528673477e-02,4.592493127461435426e-02,3.944527506828308105e-01
3.121742876036934788e-01,3.221224886384553288e-01,3.201294439674058911e-01,1.645441689249684328e-03,1.830321502268010374e-03,-3.594103478086325271e-03,1.183372829109430313e-02
3.113350623912478077e-01,3.070595921071626044e-01,3.356494958767983761e-01,2.913231643122559181e-03,3.303670124755883012e-03,-1.597141885759793259e-03,2.791564166545867920e-02
2.749343525975487812e-01,3.517541747424668963e-01,3.315010993239741466e-01,-8.575197566639089931e-05,-3.318396566764870992e-02,-2.474495432013688878e-03,8.987520635128021240e-02
3.947727813251135087e-01,1.302696160847388041e-01,3.793357057395226328e-01,-6.075536620642372002e-03,3.238018784419240993e-03,5.576653299277602865e-02,2.749345004558563232e-01
3.642341644334494699e-01,2.074739832849106791e-01,3.627396114520987092e-01,7.221385102796151235e-03,4.353004118197922531e-04,8.062220610641228705e-03,1.571423411369323730e-01
2.445701387388569126e-01,3.566083641451729958e-01,3.687366735593787248e-01,-4.541029183767839733e-02,-5.084803375642776846e-02,-3.877939548754615745e-02,1.803132593631744385e-01
3.766243611987601936e-01,2.188551143284664935e-01,3.768280806730320287e-01,-5.428731391324161451e-03,1.445725634785341440e-02,3.769390551987508026e-02,1.729198098182678223e-01
3.783428845746745206e-01,2.536568154786950635e-01,3.780269326265228713e-01,3.683435238776106707e-02,-1.745758308627778227e-02,4.766909979770294487e-02,1.652542352676391602e-01
2.785063873826670866e-01,3.421171276722151378e-01,3.423446164011998971e-01,-3.660637904565961637e-03,3.052351673625020804e-03,3.465711289381674665e-03,6.453707069158554077e-02
3.413239170507785247e-01,2.566404936636280665e-01,3.533410230786998008e-01,4.409832261854872669e-03,-4.591335086667920444e-03,1.034445340097816038e-02,9.368002414703369141e-02
4.100836800554588102e-01,2.829289691910458759e-01,2.590412260217155316e-01,-7.267333517967846518e-04,-4.271755311147457795e-02,-1.820880387486957241e-01,3.531579077243804932e-01
3.871988896547921000e-01,4.147994590957462258e-01,3.067517662384681154e-01,-7.065567284785359559e-02,-1.242935298986449777e-01,-1.134517985077409946e-01,3.307433426380157471e-01
3.767194220945008221e-01,4.213612936872198067e-01,1.952620441469051504e-01,2.083642547441635212e-02,-1.597965423150244091e-01,-2.150151736195953303e-02,3.497349023818969727e-01
3.150717305210108954e-01,3.041041164598081714e-01,3.356150220282125285e-01,-2.277534522015260340e-03,-2.585269691974001385e-03,-1.528866514814533053e-03,2.846490778028964996e-02
3.649087100167664466e-01,4.328468171701975731e-01,2.929765940214502096e-01,-5.713250350377133135e-02,-1.425719878027083831e-01,-7.872065876199260681e-02,3.225527107715606689e-01
3.168258122025530699e-01,3.133590237617543406e-01,3.247290458147739645e-01,-1.377778428920271988e-03,-2.890220740423883865e-03,-1.037576793367685256e-03,1.165603753179311752e-02
3.083470510123338948e-01,3.397213936489243968e-01,3.096593568905459670e-01,-5.276742365163820036e-04,-4.721407270231900389e-04,-1.126012627240106012e-03,3.082542121410369873e-02
3.121593824301843734e-01,3.350389323986249779e-01,3.090848678689075979e-01,-7.834552676997410224e-04,-1.579388354558391040e-03,-8.826962722589240442e-04,2.479782700538635254e-02
3.269561636539440319e-01,2.847059543214804922e-01,3.493292853378632823e-01,5.743400946171345334e-03,2.825612818775538604e-03,-1.707150645469438042e-03,5.798759311437606812e-02
3.264533634900876891e-01,2.679090901758263144e-01,3.478944896105981566e-01,6.087200661859893357e-03,1.056682327047942741e-03,-1.007737549113358125e-02,7.457601279020309448e-02
3.347860445723657707e-01,2.838908441763250967e-01,3.553673438763090831e-01,2.403941126638471995e-02,-5.367665825393532798e-03,6.526145615264629732e-03,7.751959562301635742e-02
3.089597258362333232e-01,3.074159732146846125e-01,3.386369491374163210e-01,9.754861426058106418e-04,1.506017560631351358e-03,-4.264208750442995523e-04,3.064538352191448212e-02
3.555584644927973770e-01,2.526805307207491968e-01,3.446602354228002763e-01,-1.042222660854871114e-02,-7.718472168613377260e-03,-1.660499057367411865e-02,1.044663712382316589e-01
2.694452442047191032e-01,3.416842799661926611e-01,3.408404354950463344e-01,5.023606065064138010e-03,4.391147590719014261e-03,-5.536586188534054279e-03,7.337404042482376099e-02
2.918289630411216584e-01,3.180557578962029397e-01,3.493689434934967863e-01,9.265774178213045942e-03,-2.346190973382226118e-03,2.328158047283610064e-03,5.272516980767250061e-02
3.205554274925840885e-01,3.355305168803967564e-01,2.998686578448741535e-01,1.956603800573311278e-02,-2.449603263064163011e-02,1.283580537027762501e-02,6.636951118707656860e-02
3.190282388906123257e-01,2.901454410645090132e-01,3.423208548911624849e-01,7.651611460385687041e-03,7.809449243118772935e-03,-4.612356370107277906e-03,4.971864074468612671e-02
2.360412609946683782e-01,3.482926741492083922e-01,3.756378289157685235e-01,1.048368081597933626e-01,-5.429123827636739980e-02,4.283327133382815177e-02,2.524611353874206543e-01
2.814750996427710650e-01,3.256503080744966860e-01,3.374176411452219915e-01,4.649239649708637907e-03,-7.988227250363102083e-04,5.325526614600303507e-03,5.255081132054328918e-02
2.946268955878852402e-01,3.189304500994923908e-01,3.377215534609468994e-01,1.187447506668153942e-02,-9.812538505396518028e-04,5.054713032771982785e-03,4.362347349524497986e-02
2.476752010063636433e-01,3.481328370864652522e-01,3.622110537872432756e-01,1.030242060137316097e-02,2.861075426272050460e-03,-1.146207975641790012e-03,1.097775697708129883e-01
3.098806970286143159e-01,3.022431172583588954e-01,3.397570108170264169e-01,3.439839843951178998e-03,4.246278278936865824e-03,-2.428412376951497812e-03,3.586629405617713928e-02
2.938954501113725248e-01,3.263758532059594653e-01,3.376607773543457980e-01,4.105495479381705143e-03,2.202471772731931943e-03,-5.144405871208870135e-03,4.115067049860954285e-02
2.965508002544471333e-01,3.162416342381517698e-01,3.372880422856877614e-01,6.079748332831536907e-03,2.156589246943453522e-03,-5.282757951331856945e-03,3.812698274850845337e-02
1.185822465431578265e-01,4.117933458436463523e-01,4.902558874770580055e-01,5.109013297786958036e-02,-5.142986131821968704e-02,1.093927497485629868e-02,3.622981011867523193e-01
1.664604037240546008e-01,4.322879277299697121e-01,4.950267217726043167e-01,9.451202104975986451e-02,-3.180025252582226181e-02,1.715204570625011166e-02,3.492735922336578369e-01
3.181014526688213384e-01,2.989005733349007210e-01,3.369462424313840465e-01,7.412587378080523481e-03,-5.837736586522624359e-03,2.055487570748084584e-03,3.695116192102432251e-02
2.548870527266049457e-01,3.529263138398694988e-01,3.517102094982588190e-01,2.837672623360007126e-03,-8.686922196408082206e-03,3.991225052225514866e-03,9.895597398281097412e-02
2.694560021638257585e-01,3.314313053728182856e-01,3.481993756135552398e-01,1.322013458047611827e-02,9.111128180412972994e-04,-2.663232411022485764e-03,7.556055486202239990e-02
8.671457801518350772e-02,4.257994089753854849e-01,5.227241461999387884e-01,-7.224804660374693766e-03,-5.389508400555979156e-02,-1.788905375104134568e-02,4.087411463260650635e-01
4.531743039244587323e-01,2.391870799955662652e-01,3.776601832542179626e-01,-8.815908404678877985e-02,-5.054490103868473916e-02,-1.296682678185905602e-01,3.416955769062042236e-01
3.108969185927980550e-01,3.122073369388751463e-01,3.323855798693874375e-01,-5.422328508275103560e-04,-9.649625312293155094e-04,-2.128558650217244209e-03,2.127412520349025726e-02
3.261512695567275744e-01,2.929910777055582116e-01,3.397802077994942493e-01,-4.206432428277632508e-03,-5.541399925696520977e-03,-3.105524124728464667e-03,4.371979832649230957e-02
3.683089970658948720e-01,2.941126015072876299e-01,3.943105672683469010e-01,-1.191432424340447133e-01,-6.209909933882873379e-02,-9.659141729529907572e-02,3.004236221313476562e-01
3.186513133375859508e-01,3.169590662179637142e-01,3.192910608011023665e-01,-2.480036323952372872e-03,-3.128923516597917689e-03,-3.115188257498749825e-03,9.016152471303939819e-03
3.180939482858961553e-01,3.212776295863286613e-01,3.150259458690484737e-01,-2.655982855051697723e-03,-1.125869027090984015e-03,-1.538317792981671629e-03,7.834587246179580688e-03
3.193520187689669054e-01,3.132256210750937186e-01,3.216282335533819925e-01,-9.686364428456463709e-04,-3.454098620623769454e-03,-5.689088910015569541e-04,9.810047224164009094e-03
2.693367883319315315e-01,3.409092472076884484e-01,3.536537699949300340e-01,-5.675955196646818510e-03,2.311548772310528105e-03,3.103949551512525697e-03,7.961644977331161499e-02
3.074176800202061965e-01,3.306976076822395472e-01,3.173664312382644126e-01,-1.629115144705471554e-03,-1.510596633815375085e-03,-4.243227688486630143e-03,2.186662144958972931e-02
6.345446390056386221e-02,4.163109561439587991e-01,4.346334203559624187e-01,-1.981266009412810392e-02,-8.312638925907004511e-03,3.381747210945845045e-03,3.643183410167694092e-01
2.203623307141016618e-01,4.807553907349227940e-01,3.769128758899563669e-01,-3.958765317098615621e-02,-1.301161263503296528e-01,-2.127717959537057599e-02,3.292389214038848877e-01
2.328750897707769218e-01,3.847394619755717948e-01,3.778300983873367769e-01,-2.685856012667444878e-02,-2.623485933099949097e-02,-9.028412449252410862e-03,1.628948301076889038e-01
2.715609372862224924e-01,3.400636061207203964e-01,3.481379335598943081e-01,-5.124216658202521146e-03,-8.800755940173345809e-03,-5.322074154115623464e-03,7.554488629102706909e-02
3.244483784751286404e-01,3.158472631505020445e-01,3.142711036032727057e-01,2.118357065970328558e-03,-6.420517139536881983e-04,9.201567086987280566e-04,1.035660505294799805e-02
3.198444651261345695e-01,3.214703685558891189e-01,3.157785476454865181e-01,3.555640607297044353e-03,3.071922929546352503e-05,4.943405619766731100e-04,8.028058335185050964e-03
2.994172941030046053e-01,3.189582827548465560e-01,3.328444474624776550e-01,-3.968267067135735487e-03,-3.775629898589409443e-03,-6.761371779397854810e-03,3.275944292545318604e-02
1.927012976769249541e-01,2.782041689324137312e-01,4.069080534269032268e-01,-1.431944785213918603e-01,-6.687824223535444867e-02,-3.902480461448375182e-02,3.382023870944976807e-01
3.109218944539978713e-01,2.980781292872703991e-01,3.450022212792832610e-01,-2.068080655802810239e-02,-1.514442904165476736e-02,-1.711397737994081389e-02,6.792616099119186401e-02
2.603069263003596756e-01,2.968374895284212056e-01,3.639380583810229441e-01,-7.433209836498583245e-02,-6.830443280813612225e-03,-6.345982480365319582e-03,1.585078984498977661e-01
3.173918565272341730e-01,3.193462451687062997e-01,3.186710230314040437e-01,-1.904969668549128317e-02,-2.507756706977982281e-02,-1.334458150255384001e-02,5.926647782325744629e-02
3.143980092623945843e-01,2.965390823286519484e-01,3.327954641726848517e-01,-7.756040478108421413e-03,-6.329851208583956584e-03,-3.230297754611750720e-03,3.630344942212104797e-02
3.299045583380849633e-01,3.059368607515748906e-01,3.161818878465328386e-01,9.661509933150447954e-03,7.513630631665343604e-03,-1.215277326001588422e-02,3.641880303621292114e-02
3.179169966595530306e-01,3.334000361231558296e-01,3.071945169602862125e-01,6.221170934681424965e-03,9.348485190206314369e-03,-8.890782889699504893e-03,3.370670601725578308e-02
3.491511713010538864e-01,3.274158846156698943e-01,2.777525800845058734e-01,3.666045370343270311e-04,4.067329778172179208e-03,-2.580971479990233977e-02,7.788947224617004395e-02
4.875908573601819840e-01,3.360434106547582900e-01,2.222601348615651784e-01,2.915510984784345366e-02,2.084845943824899586e-02,-1.825437081162585851e-01,3.962038457393646240e-01
3.863161387427144211e-01,2.732620176750244489e-01,3.443218271381867090e-01,6.232019814312335544e-03,1.590461547828534751e-03,-6.383869008511641741e-02,1.488199084997177124e-01
3.416589836791749657e-01,2.788624889287703024e-01,3.409979532983102857e-01,4.001881899491708215e-03,2.816145109498903367e-03,-4.622642244768383236e-03,6.354738026857376099e-02
3.452259086978068936e-01,2.557621970251189869e-01,3.412386881533468475e-01,-1.560757485246351897e-02,-4.697871555447098203e-03,-3.723106785576363841e-03,9.220372140407562256e-02
3.087439225835432732e-01,3.095352492067942052e-01,3.370798101652216494e-01,1.504407831783518765e-02,6.114764132255810433e-03,-7.346778687375951286e-03,4.164366796612739563e-02
3.359014800940303691e-01,3.038431338116860392e-01,3.183549142120919440e-01,2.144713713478426861e-03,3.331263280640672265e-03,-3.136999183252839243e-03,2.914994396269321442e-02
3.285983401133824033e-01,3.035738673017394640e-01,2.956844502483391146e-01,-2.715202084226017373e-02,3.487075294379253509e-02,4.994572359387214333e-02,1.192863211035728455e-01
3.198874235672917732e-01,3.200630080038319725e-01,3.142963959526975937e-01,-4.006082781186809903e-03,1.350852134483564301e-03,1.392053480831148202e-03,9.576328098773956299e-03
3.128808065905103741e-01,2.973982146708642471e-01,3.272475105141325336e-01,-1.096517733110172893e-02,1.171893339405528922e-02,7.079874238153077010e-03,3.989518806338310242e-02
3.268711422932750188e-01,3.116942268516407766e-01,3.207790158972683714e-01,-8.772594289008867063e-03,9.682483731196681737e-03,8.712971393489588046e-03,3.024677559733390808e-02
3.277184198898122625e-01,3.172804842006128889e-01,3.100739382752267237e-01,-5.346202056220219004e-03,1.710522883639560739e-03,2.276334588437072589e-03,1.860576868057250977e-02
3.163565085174296354e-01,3.569326022063455395e-01,3.276449714841170313e-01,-3.830292821590870755e-02,5.967731547233731670e-02,3.894808282352572176e-02,1.447485983371734619e-01
3.392837876211741710e-01,3.805861631666603295e-01,2.438572232986764843e-01,5.578816837284075736e-03,-7.461346620572444077e-02,2.152383469865675348e-03,1.776576340198516846e-01
3.027913937050742965e-01,3.415271530194136651e-01,3.081167832122113093e-01,5.911194071605200921e-05,4.543777807848699973e-03,-5.923142057214035973e-04,3.722279518842697144e-02
3.775156187650996475e-01,2.217326815864615330e-01,3.841849119981100569e-01,-3.479804005745435608e-02,-2.321850674763228017e-05,1.262488249137090970e-02,1.716468483209609985e-01
3.079674075844224812e-01,3.050069382433795440e-01,3.395938769740826091e-01,-3.703277089798599590e-03,8.952478189111288519e-04,1.123834373271317489e-03,3.391110897064208984e-02
3.072740076464045567e-01,3.130205905711352377e-01,3.302940894393190940e-01,-1.512408859555662219e-02,-1.221725901439776538e-02,-9.559599344743489185e-03,4.288142919540405273e-02
1.910141951564429119e-01,3.843486206686114182e-01,3.940533767381502184e-01,-8.931691774541210271e-02,-5.636129243925707549e-02,-3.351045551539910683e-02,2.760069072246551514e-01
3.567317253367363050e-01,2.839391945749696333e-01,2.725497647130746270e-01,-9.344285635270470694e-03,1.300499554528475495e-02,6.145295396295842594e-02,1.354853212833404541e-01
2.990939236090289777e-01,3.151503248754358721e-01,3.441004897912244842e-01,-3.417812506739879765e-03,-1.669638414351441160e-03,-2.363829974574991038e-03,4.026072472333908081e-02
3.150234995085771095e-01,2.921340766214030604e-01,3.481815445540175635e-01,-8.803736421447163132e-03,-5.478991707057257799e-05,3.164784048936724811e-03,5.142882466316223145e-02
3.670812550460850754e-01,3.070050339591460231e-01,2.890602280131974733e-01,4.247522456383445721e-02,2.694058540660035014e-02,-7.403340580423443951e-02,1.704167872667312622e-01
3.403068584562073950e-01,3.140300708898414728e-01,3.042537423085674431e-01,-5.053037821811262945e-03,-1.679785019338501549e-03,-4.088783029981302511e-03,3.432427346706390381e-02
3.406602261238323992e-01,2.669977315937863693e-01,3.547068952967459832e-01,-5.011357993411734088e-03,5.368660294400406756e-04,-7.537892375676509245e-04,8.207371830940246582e-02
3.277438214159461016e-01,3.191108748832692799e-01,3.028947256149740475e-01,-5.998020367580304477e-03,-2.456449371603104496e-03,-3.594279899972358059e-03,2.534308843314647675e-02
3.203650790792467729e-01,3.275555694155608544e-01,3.033980565708536137e-01,-6.368735585363324153e-03,-3.011645056947107914e-03,-2.421514404287613415e-03,2.506128139793872833e-02
2.600191341788064547e-01,3.450746145859781011e-01,3.460285005341640074e-01,-3.176965904099562921e-02,-1.156026790452597229e-02,-6.289082128258602182e-03,1.042304560542106628e-01
3.192067040758237995e-01,3.372882510434366821e-01,2.955037452347000215e-01,-5.521338459442582704e-03,-5.208958461941752723e-03,-2.137925918371722141e-03,3.878048807382583618e-02
3.442790421647710097e-01,3.444364847532322971e-01,2.557133563116395503e-01,-7.793078020207773113e-03,-8.771373011581569748e-03,-1.117337942457879117e-02,9.298058599233627319e-02
4.564642354707086902e-01,3.337195149339946543e-01,2.971746637371514010e-01,-6.753239060659678439e-02,-6.138611042641383547e-02,-1.663642521245561334e-01,3.590338528156280518e-01
3.066521114483536370e-01,3.224627449845210991e-01,3.278716924266406596e-01,-1.161739066515967388e-03,2.262769034060443680e-03,5.376229425620254049e-03,2.169959805905818939e-02
2.311937541307833577e-01,3.328054564269612992e-01,3.545900271192133357e-01,-3.341085104793900529e-02,-9.841565512494264076e-03,-5.885372131383456891e-03,1.294465512037277222e-01
3.393521637601739083e-01,2.328564079469037651e-01,3.413845977781143071e-01,-4.110412786021856724e-02,2.361488266317494922e-02,3.428456974842022942e-02,1.477492898702621460e-01
3.647102546600673456e-01,2.446231464035378000e-01,3.951797393806083525e-01,-1.348139631995078913e-01,1.175492579550903131e-02,5.021428175821333884e-02,2.855024933815002441e-01
3.361392307882106190e-01,3.174678898662537940e-01,3.049669212644527949e-01,-3.606791896089100308e-03,1.429291261055745882e-03,2.009822797108915416e-03,2.820596843957901001e-02
3.376963431574684371e-01,3.150438826261765524e-01,3.049157172454198261e-01,-3.994358993146493800e-03,1.028664015900586934e-03,2.606552466232473896e-03,3.027479350566864014e-02
2.982035939782223810e-01,3.172197739229015712e-01,3.439275088004963288e-01,-1.585117314212625139e-02,9.108336791759754410e-04,1.267668447986332282e-03,4.841369763016700745e-02
3.265555630184745484e-01,3.390225461943835450e-01,2.862214402334840591e-01,-5.331990271343016626e-03,4.825042007538457578e-03,2.616367502335449364e-03,4.960626363754272461e-02
3.075221910761238298e-01,3.141811896336507148e-01,3.312130482921915586e-01,-2.427513426487678573e-03,2.231746481395652671e-03,3.847572456250632385e-03,2.291011996567249298e-02
3.111343474725398739e-01,3.088934178139675080e-01,3.363905895012970215e-01,-6.116334755682803839e-04,1.735027028273881163e-03,1.109733537451966512e-03,2.670851536095142365e-02
3.310420414443077108e-01,3.177790432919441743e-01,3.103663449933597995e-01,-5.247840026765379119e-03,5.786951557280532732e-03,9.912486083461008804e-03,2.840823493897914886e-02
3.416027212245657529e-01,3.072603417489035982e-01,3.025893057960472032e-01,-9.420212091938708293e-05,2.616789296910148168e-04,4.927713988794228152e-03,3.787758201360702515e-02
2.513754480977030692e-01,3.686485272558756576e-01,3.655581470848922598e-01,-1.030857933652197245e-01,7.705037562699319775e-02,1.109269899241325658e-01,3.162353932857513428e-01
3.387959942991000672e-01,3.045084689184579529e-01,3.023832007930586374e-01,-4.552274349418348673e-03,4.514131793229504003e-03,1.170258522323975106e-02,4.227498918771743774e-02
3.411091190584786270e-01,3.263074580117067969e-01,2.925894022934369954e-01,-4.780607584691206995e-03,1.674699211092702542e-03,4.188359514889858186e-03,4.454978555440902710e-02
3.004675361068892547e-01,3.396947695674994994e-01,3.157992132845216515e-01,-4.852273328210533233e-03,1.497374312157978560e-02,3.174984991512586063e-03,4.411270841956138611e-02
1.352177051077194381e-01,3.378680729259753712e-01,3.888084969172616034e-01,1.104185494906140264e-01,1.925735968273202189e-02,-4.784392563415181855e-03,3.028913438320159912e-01
2.299573719731728416e-01,4.946124303144637802e-01,3.623390103235721860e-01,2.142877999275071346e-02,1.552137257228321798e-01,-1.252125733941671613e-02,3.558841943740844727e-01
2.863431471140087115e-01,3.506387123335517608e-01,3.259789816303015897e-01,6.932418971493634107e-04,4.882840079405746138e-03,6.727569558265257240e-04,5.684044957160949707e-02
2.538523516952800319e-01,3.575400714032086480e-01,3.097339231659384517e-01,-5.212422822690724981e-03,5.380404728623421062e-02,4.558185144796280189e-03,1.300312578678131104e-01
1.551628440670131670e-01,4.606963574170118147e-01,4.735262548099026247e-01,6.901130443629710509e-02,3.072908020627562742e-02,-7.248264137774583331e-03,3.386937081813812256e-01
1.592435220628162507e-01,4.561356413777950536e-01,4.804693391355686627e-01,-6.265771933283800776e-02,4.295242866017241756e-02,1.195735262901073508e-02,3.371990323066711426e-01
2.441253832676254509e-01,3.554621564517279619e-01,3.610225073547709829e-01,-1.890196707299508262e-03,3.373356481105735318e-04,-1.929279998155628787e-03,1.143157556653022766e-01
3.561296785157933575e-01,3.686564327413870967e-01,2.785043303539943005e-01,-3.416596174438413930e-02,4.941644816000712037e-02,6.084050340834282200e-02,1.705508828163146973e-01
3.268175655248212741e-01,3.467750974528672203e-01,2.873166799251746228e-01,3.591667730800428629e-03,-5.665688846489952239e-03,3.039084733920643499e-03,5.394137278199195862e-02
3.277713816032708505e-01,2.986011752037121547e-01,3.283664832175435810e-01,3.245180726754494979e-03,6.333006827441594808e-03,-2.988407976344019303e-03,3.236233443021774292e-02
3.487781686356637989e-01,3.175916732537507059e-01,2.938998678377319207e-01,1.541094133951221874e-03,3.163427353859157160e-03,-7.973682543118429736e-03,5.000649020075798035e-02
3.282661943188715514e-01,3.155761332967407795e-01,3.134921778771045942e-01,2.346383262528041035e-03,9.640635769136796183e-04,-6.175440741914045746e-04,1.456965785473585129e-02
3.903804242289397042e-01,3.721483993518955313e-01,1.356881786649407617e-01,2.840723165283821905e-02,7.115460346846705364e-02,-8.625113550761366599e-02,3.169930875301361084e-01
3.195565261224427300e-01,3.167434144872117718e-01,3.183644515970406319e-01,2.086898888610217318e-03,1.975783296311038259e-03,-1.783431000681315716e-03,6.348202936351299286e-03
3.218341922970623936e-01,3.114391374255590095e-01,3.195814477558324151e-01,1.175114246694525808e-03,3.548576491611673146e-03,-1.332772304699799759e-03,1.170313358306884766e-02
3.239002598549260981e-01,3.142745226905636069e-01,3.155982839641921500e-01,3.473604926675834953e-03,4.052575272009334428e-03,-3.599017319815268814e-03,1.435240916907787323e-02
3.286853178168852585e-01,3.125953091077043888e-01,3.124213047688432776e-01,1.048029472007560442e-03,8.852209243643823855e-04,4.408719793682366970e-04,1.636910066008567810e-02
3.147579721794853680e-01,3.224666715817305906e-01,3.217039517434177598e-01,1.148101998929575455e-03,9.798682549998338071e-04,-2.518952929408648216e-03,8.944071829319000244e-03
3.607896064379803591e-01,3.494451548294177368e-01,2.363092177698964680e-01,3.835097449268087995e-03,9.960951744737978758e-03,-2.625046893795551783e-02,1.289222538471221924e-01
3.472842365717963564e-01,3.406907500721496618e-01,2.663605416958503835e-01,6.909253540767650026e-03,8.908571404573772598e-03,-5.314325650326245064e-03,8.077485114336013794e-02
4.770028811136823865e-01,2.754617348201550131e-01,3.286328181619992406e-01,1.235795812504800716e-02,-1.535994817552301106e-02,1.658435703705812836e-01,3.411862254142761230e-01
3.438035080614642580e-01,3.270364121275410874e-01,2.836386172706683029e-01,1.247152434265280923e-03,-1.597250006291651807e-03,5.271733879025923032e-03,5.466125160455703735e-02
3.518383494507018039e-01,3.379527731778150801e-01,2.653209032087220365e-01,7.129549670410174206e-03,3.832266148288948800e-03,-1.410436665987034426e-02,8.526477962732315063e-02
3.582531511048142603e-01,2.662488628949434832e-01,3.487302273691543775e-01,3.341650323815276939e-03,-2.831826506946162093e-03,1.296481694204022067e-02,9.078073501586914062e-02
3.393954836301314448e-01,2.931593233699404388e-01,3.271823785813726126e-01,2.560851767633373806e-03,-6.346011569406081673e-03,3.636387804085958013e-03,4.361667856574058533e-02
3.358338090372831042e-01,3.034306455886069398e-01,3.143544832554126534e-01,1.988540408517643337e-03,-3.182933749209847576e-03,2.274085809805285237e-03,2.954824641346931458e-02
3.322611476448041334e-01,3.078345615291212534e-01,3.101725812852167974e-01,1.164194546636796931e-03,-3.870691174160223458e-03,3.708415489233196985e-03,2.520485036075115204e-02
3.427954066081646545e-01,3.200791076175574790e-01,2.919099521285194454e-01,6.768183705794131137e-03,-3.277124960808491111e-03,8.048964163286927848e-03,4.809814691543579102e-02
3.198575930820826696e-01,3.057655785815469041e-01,3.229253327555812736e-01,-3.250568674494219712e-03,-4.751474718750182090e-03,-2.867992478671147621e-03,1.937345601618289948e-02
3.192439386680426816e-01,3.048442305839303978e-01,3.278125364078805504e-01,-5.487741966333141083e-03,-8.881875085078344556e-03,-1.852448641846555100e-03,2.722979150712490082e-02
3.181378509258764864e-01,3.007061440354119597e-01,3.343943001898743161e-01,-7.935099407920500475e-03,-4.149800220419856342e-03,-6.812753588185958657e-03,3.509009629487991333e-02
3.317409777962452844e-01,3.086583826689754395e-01,3.454782312442588044e-01,-6.994901121681336431e-02,-5.103833895245792063e-02,-5.275639471203771164e-02,1.785543262958526611e-01
4.863675334073405687e-01,1.503029416341607749e-01,4.740058730233663309e-01,-3.647727793643715244e-02,8.668442679454832836e-03,3.329969173998766074e-02,3.412941694259643555e-01
4.496381881043832740e-01,1.721010976565483797e-01,4.586860300192379114e-01,7.599669674517581242e-02,2.128356084859879885e-02,-5.117924289419500949e-02,3.258269727230072021e-01
3.501365136323421057e-01,2.618545248129290348e-01,3.552457163388543782e-01,-2.517812393090975223e-02,2.020454996216455227e-04,2.983512458737633179e-03,1.009925976395606995e-01
3.264705296304421522e-01,2.736486007184889546e-01,3.453362150981026946e-01,-1.295414617432311816e-02,-5.204716369194896733e-03,-3.673835202134470047e-03,6.904911249876022339e-02
3.460916936410222133e-01,2.452099837044171005e-01,3.522876671440703378e-01,-1.358076881533469039e-02,2.230187438853786872e-03,1.517528105192521770e-03,1.068443357944488525e-01
3.188662954337658784e-01,3.025798197464350525e-01,3.429996518067415234e-01,1.460250492957841997e-02,-5.251860091577889925e-03,4.419397353899481157e-03,4.496392235159873962e-02
3.530822348457313686e-01,2.496933830329013948e-01,3.596333562070648804e-01,1.257857653738893126e-02,-4.464914099287002288e-04,5.722181159030495165e-03,1.094667762517929077e-01
3.418697368706867801e-01,2.861872876741003990e-01,3.264375973902816086e-01,4.431419439715365491e-03,-6.416110839197835397e-03,4.926314630910645122e-03,5.229344591498374939e-02
3.487490402306187565e-01,2.842622399846472803e-01,3.257397179877212778e-01,3.199907875777963865e-05,-3.877772466809322025e-04,5.512573788008522796e-03,5.740904435515403748e-02
3.301448583483005406e-01,2.919026101714275456e-01,3.144152459361669871e-01,1.317817604811882121e-02,-1.366018850910426762e-02,2.160832608160848448e-02,5.991584807634353638e-02
3.389915503198328572e-01,3.053811683624495510e-01,3.031400286564621127e-01,5.475205349218401941e-03,-6.777328163156764139e-03,1.159572004606078573e-02,4.290825501084327698e-02
3.074531681178996334e-01,3.083481062416192353e-01,3.304919794747084860e-01,9.124860085655330313e-03,-5.619941067179569892e-03,5.655015036846982278e-03,3.084554150700569153e-02
3.409526963433063829e-01,3.097454020381957829e-01,3.070648656369875384e-01,1.367885183304035903e-03,-5.814232552032917332e-04,9.226568947302063711e-04,3.277062997221946716e-02
3.416861629511459553e-01,3.034457845610487592e-01,3.074082865786867402e-01,1.232589197288885125e-04,-1.009066068596284555e-03,3.844168318572890528e-03,3.706660866737365723e-02
3.399208267181754173e-01,3.069264636568584947e-01,3.086072773329368024e-01,6.917636958530072383e-04,-2.466154085621459166e-04,7.963341020658088170e-04,3.224153071641921997e-02
2.781942262652767339e-01,3.114186178212596801e-01,3.632834882376301255e-01,-2.758503193293735181e-02,4.979752883363393985e-04,1.870532972946564298e-03,8.838012069463729858e-02
3.342574408498652505e-01,2.854855966412874202e-01,3.384279426257926215e-01,-7.504549797742510187e-03,-6.940562592966916834e-03,-2.996977138546089159e-03,5.422087758779525757e-02
2.788086130165232657e-01,2.218908070503064489e-01,4.719777447373726953e-01,-1.374500657266431169e-01,6.132480596768256909e-02,3.951682329718290976e-02,3.524105548858642578e-01
3.515400702552615719e-01,2.508407315749612287e-01,3.576350347036419963e-01,-8.836398135722274214e-03,-2.754225941905695269e-03,-4.067929708371167030e-04,1.051130965352058411e-01
3.446123775120549237e-01,2.783884070170397074e-01,3.392929155842726585e-01,-9.659589066351993020e-03,5.753501627390429814e-03,6.223017839285983552e-03,6.750588119029998779e-02
3.978703407930108127e-01,6.412720111388370281e-02,4.003015373309471991e-01,-1.643937506247908006e-02,1.235080940694305383e-03,-1.397287323064275860e-02,3.370502293109893799e-01
3.153559877660453425e-01,3.059856673972797259e-01,3.291110253270375652e-01,-1.471690615800996804e-02,9.851279856716551112e-03,1.085526623150827492e-02,4.123479872941970825e-02
3.208446932816981789e-01,3.000905919768634411e-01,3.276872401265338852e-01,-5.591023667805814640e-03,9.049854493725107210e-03,3.815523011180051161e-03,3.166570514440536499e-02
3.259833162911724980e-01,2.913234046088448159e-01,3.422624113059545281e-01,-4.084218985811020192e-03,6.214116439011094402e-03,4.873927279386022250e-03,4.762041941285133362e-02
2.706812577281438870e-01,3.532836497920457397e-01,3.425350859448184626e-01,-1.190091536514108553e-02,4.774466173876980302e-03,3.034641256662692649e-03,8.106625825166702271e-02
3.192776114628229633e-01,3.048442859763942359e-01,3.268899733213108671e-01,-6.101918267341958912e-03,7.615874336465679878e-03,2.180072768014579797e-03,2.600199356675148010e-02
3.244873632183043477e-01,3.106228146830020687e-01,3.198066039023609863e-01,-4.355817843964593958e-04,4.748177160350260974e-03,1.577544009882858806e-03,1.499697566032409668e-02
2.721959025350934036e-01,3.394430793579998329e-01,3.407691695352428884e-01,-4.032655044005926080e-03,-4.158882480031237013e-03,-4.621601717481911911e-03,6.912214308977127075e-02
2.839519527495941165e-01,2.566302302321737949e-01,3.953947610982558869e-01,-1.140209070918297013e-01,3.511749091167576386e-02,3.698963293562874954e-02,2.510328590869903564e-01
2.754589984440651285e-01,3.441779017956696496e-01,3.302267458981764658e-01,-5.032049917889070551e-03,-1.069756446666633026e-02,-8.236088478544428826e-03,6.768302619457244873e-02
2.747129378048708270e-01,3.598418216864602281e-01,3.463278394100832713e-01,-7.306039200670549905e-02,-5.676006744940596122e-02,-3.798298774926313348e-02,1.904883831739425659e-01
3.136352231216328890e-01,3.317971552988712713e-01,3.115401165281910800e-01,-3.222391819048086095e-03,-4.053779708669562679e-03,-2.114575117269953779e-03,2.159077487885951996e-02
4.713296277138170343e-01,3.674846436336042799e-01,2.459368582289094274e-01,-4.276604452154584429e-02,-6.559832764944506511e-02,-1.702969407962182380e-01,3.789183795452117920e-01
3.276868226012412122e-01,3.116890702906375266e-01,3.215668229620072816e-01,-9.387804058860764814e-03,-7.439262682650656794e-03,-7.130721490072380701e-03,2.790050767362117767e-02
3.556694081394519147e-01,2.960077553009086704e-01,3.061420829861596915e-01,-1.230032123547834463e-02,-2.504934496097775166e-03,-3.775197982100184785e-02,8.835123479366302490e-02
3.392898139585417971e-01,3.136049260195238331e-01,2.904585415820775673e-01,-7.837332559708840712e-03,-4.810754389077238728e-03,-8.517084169316117837e-03,4.755317419767379761e-02
2.710270812644985927e-01,3.110732035224390568e-01,3.447951504794478650e-01,-6.497954828172811115e-02,-5.859497964643497342e-02,-3.884468666200592557e-02,1.777221560478210449e-01
3.497596850113736666e-01,3.105460579489425221e-01,3.049274030323312346e-01,4.872102259866339935e-03,-1.821469022520664626e-03,-2.803675672251638995e-02,6.503038108348846436e-02
3.262611374203694958e-01,2.973432881620016177e-01,3.205196117747002860e-01,-6.235932664559253567e-03,-8.019076034886477369e-03,-5.279244939272654223e-03,3.311137482523918152e-02
3.532414326353842671e-01,3.403786415171544122e-01,2.644845418776052837e-01,-2.383072123313646588e-03,-1.457951646586412098e-03,-7.066448245623619881e-03,8.411179482936859131e-02
3.166773394238585615e-01,3.296584116185289903e-01,3.039779346956960615e-01,-5.910732859111835630e-03,-3.275852295077479916e-03,-3.688276253485602181e-03,2.593162283301353455e-02
3.199710848086925741e-01,3.365650763145067725e-01,3.008865025816327976e-01,-6.140197911610412174e-03,-1.002417506185269806e-02,-5.804752110498496466e-03,3.836554288864135742e-02
3.299688341468595687e-01,3.287882445781950547e-01,2.891766936885218353e-01,-9.551572653559129919e-03,-7.312726357647731171e-03,-6.075175952616928415e-03,4.649819806218147278e-02
3.152017540722893973e-01,3.171352058302063792e-01,3.146034348325348340e-01,3.217755809903580927e-03,4.478975378814378794e-03,-3.726177418881589792e-03,1.175379753112792969e-02
4.674490826170614177e-01,4.348902025573851415e-01,1.269638988553855319e-01,-1.322220160597649408e-02,5.263049843065386278e-03,-1.251776037886243864e-01,3.918166756629943848e-01
3.238553134911271170e-01,3.193844247241422463e-01,3.116624181857570730e-01,4.647870720103385034e-03,1.166153625735596652e-03,-1.860525719044079946e-03,1.390737108886241913e-02
3.250242771820791576e-01,3.124456702975737521e-01,3.162292143690491053e-01,1.970433055248584954e-03,3.067799546729879211e-03,-1.506028385395504323e-03,1.310080941766500473e-02
3.389558942357726035e-01,3.106719460643007635e-01,3.124204933420422492e-01,4.033759483620445382e-03,3.227024637884071297e-03,-5.042185454574430424e-03,3.016469627618789673e-02
3.148335118561525481e-01,3.239309989825442382e-01,3.154017151542096165e-01,1.687214249163811468e-04,-3.700602081712019197e-04,-1.834697305933941092e-03,9.408107027411460876e-03
3.160924863072975821e-01,3.280949538528549758e-01,3.137022872570934817e-01,-7.040248271335276115e-04,-8.493575627867220841e-04,-1.131398107512737467e-03,1.363641954958438873e-02
3.107402961050623191e-01,3.333954404090233026e-01,3.111663873492762078e-01,-3.267773306696939405e-03,-6.001820360115957612e-03,-4.496712725202511689e-03,2.654328197240829468e-02
3.175532415019247656e-01,3.336670994151099134e-01,3.052055927280915015e-01,-5.058313593062507135e-03,-2.195688232434483446e-03,-2.827034020003968071e-03,2.694973535835742950e-02
3.081994555507455158e-01,3.316887183933017180e-01,3.120216807026635619e-01,-7.881757262598580336e-04,-2.506821764619541083e-03,-3.748508135270405342e-03,2.322592772543430328e-02
3.120007427009575118e-01,3.197214198924371864e-01,3.225161460217330633e-01,-1.152432198766562997e-03,-1.306509146380047158e-03,-4.366300260605400149e-03,1.246176008135080338e-02
3.039504072952978753e-01,3.271864585646331314e-01,3.194613638526607735e-01,-2.697968990749838748e-03,-4.658754610815554580e-03,-6.305373071191959847e-03,2.502624131739139557e-02
3.658683747246697093e-01,3.466937500018237861e-01,2.549414398259379766e-01,-9.375279908471754672e-03,-1.296716256546705769e-02,-2.153248963865356941e-02,1.127144321799278259e-01
3.414473178131021136e-01,3.164869074674872551e-01,2.951712827983066778e-01,-1.930043579388161096e-02,-1.283121379696988348e-02,-2.508756985490289207e-02,7.147743552923202515e-02
4.476810734495610400e-01,4.652610888436468084e-01,1.601379160719365591e-01,9.278363086495436656e-04,-8.689929737274894317e-02,2.187603285259710068e-02,3.348699212074279785e-01
4.847595732040023142e-01,4.329309063233939825e-01,1.942293248609394118e-01,-1.349135729031777919e-02,-3.628622043676126702e-02,-1.271985363932721103e-01,3.536534607410430908e-01
3.864674204721274542e-01,3.382032895221221414e-01,2.140115300622830730e-01,3.505029025903609770e-03,-1.480503742221807653e-02,-6.681863722986867982e-02,1.945138573646545410e-01
3.476711352108106112e-01,3.242160361620187170e-01,2.681221084070633531e-01,1.278093409583541673e-03,5.483371257784720341e-04,-1.514912281286749998e-02,7.554236799478530884e-02
4.590748733583009944e-01,3.518822194693022598e-01,2.496784819234140751e-01,1.347552237736822714e-02,2.117846734109271600e-02,-1.727839141010009127e-01,3.526252210140228271e-01
3.407730118677806397e-01,3.472431679195879806e-01,2.707179768417030674e-01,-4.909825864596633477e-03,3.831102475756011268e-03,7.763421532377407300e-03,7.549834996461868286e-02
3.546738626486742318e-01,3.523507410903485293e-01,2.393098053779805778e-01,-5.517589509059534370e-04,9.306130738489109839e-04,2.155607668556624047e-03,1.142965853214263916e-01
3.972363439896927639e-01,3.553139584564601328e-01,2.637480827819151941e-01,-1.015365802454234849e-02,6.725331868069940339e-04,-6.923364225405882755e-02,1.693251132965087891e-01
3.208035262974390234e-01,3.230771117541122450e-01,3.071561588915504570e-01,-6.597060428359615217e-03,-4.518320739128992534e-03,-4.035110307940042128e-03,2.151984907686710358e-02
3.306995605617096268e-01,2.834671462164922162e-01,3.395464304331763383e-01,-8.182486740258733751e-03,-7.430043567946770233e-03,-4.581458566165990016e-03,5.618249252438545227e-02
3.122595891398977086e-01,3.106807059147796979e-01,3.247902921546312882e-01,-5.675030498777460485e-03,-5.357682150126840542e-03,-5.400104889446903471e-03,2.120168693363666534e-02
3.304666782557008631e-01,2.861267135218968916e-01,3.263737506550775658e-01,-1.475408097171293509e-02,-9.018026439599757804e-03,-3.883797078227041628e-03,5.237918347120285034e-02
3.613706047188430803e-01,1.883588457031638019e-01,3.686534011314125947e-01,-4.301877440887420107e-02,-1.923306914038340823e-02,-4.113652008407450017e-02,2.073266357183456421e-01
3.097036564435128314e-01,3.138900463575005628e-01,3.289070755794100687e-01,-4.849105987063859723e-03,-1.556294480445711810e-03,-3.552714703357454963e-03,2.053234353661537170e-02
3.195912993989176720e-01,3.195057470434153890e-01,3.161207144422502613e-01,-2.426834184108249588e-03,-1.143436831558248754e-03,-8.375616341608738916e-04,5.954057909548282623e-03
2.971493998649080703e-01,3.317481316939977498e-01,3.267056191927745212e-01,-3.013418704541383046e-03,-3.198639746923673168e-03,-7.466345551640992534e-03,3.568206354975700378e-02
2.903254684971477428e-01,3.314193234043912306e-01,3.280801143324337255e-01,-5.039665642367876369e-03,-6.423020169715950266e-03,-9.845039484460462939e-03,4.531411454081535339e-02
3.130654915200113964e-01,3.288559075096997852e-01,3.103839867912099315e-01,-3.525916537515174330e-03,-1.646960876668704258e-03,-1.776535176114970357e-03,1.880881935358047485e-02
3.159661207189625731e-01,3.322722031987226377e-01,3.083544800185037960e-01,-9.945076797417427839e-03,-1.498134944845922953e-02,-9.119623971254806061e-03,4.083479195833206177e-02
2.866384156500317859e-01,3.626043073850526710e-01,3.270643352958673700e-01,-7.883477528418078237e-03,-6.499792352713987253e-02,-1.444942210448757133e-02,1.334955990314483643e-01
3.374948769944312588e-01,2.870364092904822417e-01,3.538365929282863420e-01,6.796267330417199437e-02,-1.089999355095732335e-02,3.585986054178406934e-02,1.473386585712432861e-01
3.002626381096881181e-01,3.355865867670012048e-01,3.350220720332628965e-01,2.219478594452243408e-02,-1.404121178116197327e-02,1.576432721439492354e-02,6.358453631401062012e-02
3.307429782959542819e-01,3.396148633821515772e-01,2.891229567320834914e-01,9.497390189652571077e-03,-1.733806184131534214e-02,9.076812753762153463e-03,5.999813973903656006e-02
4.508985938143738048e-01,3.629386159875574447e-01,2.820062920042112897e-01,5.793064139650649230e-02,-9.181839163911409418e-02,1.479886287665892752e-01,3.499534726142883301e-01
3.405766971875643923e-01,3.392747813289681558e-01,2.799464125975704154e-01,4.766955494401196002e-03,-4.444965278643061256e-03,4.160109688049999296e-03,6.146670132875442505e-02
3.305076009161608264e-01,3.209969639757107029e-01,3.086604961805747283e-01,6.540818258818098356e-03,-7.134685206862698831e-03,9.585884475278421898e-03,3.027695417404174805e-02
3.483793530580933107e-01,2.972548831437943906e-01,3.176579772278569913e-01,2.493841272744453438e-03,-2.835032213364731182e-03,1.400180810293742174e-02,5.116465687751770020e-02
3.221088757764661858e-01,3.276265658738690134e-01,3.047678385188337113e-01,6.098683920016475905e-03,-3.646929579816541277e-03,2.051319812579135721e-03,2.430935576558113098e-02
3.220585129339564312e-01,2.639495611611835657e-01,3.779536962318535975e-01,1.062969118439643229e-01,-1.132563365897128749e-01,1.195339185013028632e-01,3.535422086715698242e-01
3.103526096266563949e-01,3.358343665931702304e-01,3.053736083502643361e-01,-3.141091023337413534e-03,-4.101437021243713697e-03,-1.717852765785114104e-03,2.983122318983078003e-02
3.134247372384268426e-01,3.307208558810549315e-01,3.151242079089220383e-01,-3.278140110207924951e-03,-3.095535137998877469e-03,-3.240988183610525424e-03,1.910882815718650818e-02
3.079691029992558393e-01,3.305233568320914972e-01,3.141962443680157979e-01,-1.818037161673027608e-03,-1.379110240540349806e-03,-3.764269169912238568e-03,2.156742662191390991e-02
3.101610415026072598e-01,3.383064682152479019e-01,3.038190094752873938e-01,-2.028307016110749914e-03,-3.373812311645049515e-03,-2.896818283112272130e-03,3.290212899446487427e-02
3.101421544586430157e-01,3.306171518886232841e-01,3.177547023324988618e-01,-5.984328830654876176e-03,-1.057971537339905989e-02,-4.992199151353047398e-03,2.897073328495025635e-02
3.104623743356537680e-01,3.331235501270201071e-01,3.095297589377994374e-01,-3.434113640696110237e-03,-3.672796192646037884e-03,-2.437959421542271535e-03,2.508408762514591217e-02
3.046097283459858196e-01,3.389224669535090273e-01,3.107618521745791340e-01,-2.164986130807036030e-03,-3.844843997766519278e-03,-3.997734413665415473e-03,3.332374617457389832e-02
3.510063504759347586e-01,3.217771927754449757e-01,1.674595085328157429e-01,4.411728187149602243e-02,-9.839214458943047747e-02,1.259026038487139898e-01,3.340887725353240967e-01
4.567500720149048621e-01,1.533012587715520403e-01,3.793771965232475840e-01,4.118929988424608474e-02,-2.831778685635079340e-02,6.601343962538666621e-02,3.084764480590820312e-01
3.452259242329533406e-01,3.864650249022217876e-01,1.454552051859155370e-01,1.811225954418039380e-02,-9.206747689083276398e-02,3.961916213656633406e-02,2.845519781112670898e-01
3.400615763623743848e-01,3.060523470129817292e-01,3.035692117991733996e-01,4.715684798303328325e-03,-4.855161929263491875e-03,9.755046055361963134e-03,4.086755216121673584e-02
4.177769175783599964e-01,1.122569524629732640e-01,3.180199513336286476e-01,2.280024026805159421e-02,-2.379759448234499211e-02,1.296521743973576279e-01,3.556736409664154053e-01
3.433424901881553248e-01,3.014695846404195079e-01,3.021846501712042166e-01,1.189400710429117840e-03,-2.662444913081828384e-04,1.241698901865645639e-02,4.680716991424560547e-02
4.128933286000817660e-01,1.338780857959252502e-01,4.309377943247497122e-01,-4.310709104533964192e-03,2.066726602439667576e-02,1.056412394146598738e-01,3.435508012771606445e-01
2.978552978904505655e-01,3.416971995893327008e-01,3.141420365281123450e-01,5.591000256228652494e-04,-4.135855296255303189e-03,8.294861185622195510e-04,3.908511623740196228e-02
3.404010933177927800e-01,3.530112765047734857e-01,2.620496414850874145e-01,1.759363906426183576e-03,-5.794754516075918162e-03,1.990994587979552036e-03,8.606921136379241943e-02
3.143601485351626978e-01,3.411292243961280835e-01,2.995243271879803881e-01,1.077312941481551548e-03,-3.666553971579845569e-03,4.626372802429810655e-04,3.712520748376846313e-02
2.766126584562549340e-01,3.619471492041386185e-01,3.075828714478458514e-01,3.435920767796928326e-03,-3.442109730893056635e-02,4.792881739867233155e-03,9.621366858482360840e-02
3.267705010699342161e-01,3.297759780554413989e-01,2.945809625133373189e-01,7.707355892754248067e-03,-3.310212880038143363e-03,5.068818942671883369e-03,3.781673684716224670e-02
3.215910236296769531e-01,3.151452913690149793e-01,3.197279187921105992e-01,5.727437317876032073e-03,-5.171496296045865158e-03,5.502901656439317113e-03,1.739249937236309052e-02
2.962363591904667026e-01,3.434164293106796717e-01,3.345535524773713965e-01,2.601078009402677318e-02,-2.783206497791390274e-02,1.675672452027134052e-02,8.415625989437103271e-02
3.103135395790299067e-01,3.319931361539940062e-01,3.074830192587408306e-01,8.284652566154264083e-03,-1.037233144273495833e-02,6.341736415095109922e-03,3.447747603058815002e-02
3.326467677842837589e-01,2.808257796751570390e-01,3.581905654230622127e-01,-2.396044822752292289e-02,2.177959137291947053e-03,-3.274713823034560486e-03,8.018925040960311890e-02
2.798886867193931538e-01,3.392845732455191388e-01,3.300058143633608498e-01,-2.971069641932950166e-03,-1.154410431297064020e-02,-7.217878891291048399e-03,6.037731841206550598e-02
2.421424097569683798e-01,3.490010255173577880e-01,3.452329833704758100e-01,1.639685767602847705e-02,-2.361900107136443577e-02,5.555104341649044070e-03,1.166320443153381348e-01
2.461828497141158589e-01,3.440291815536716813e-01,3.613965882609183611e-01,1.062061795739658275e-02,-3.304593808317128709e-03,4.932280887192296882e-03,1.096312180161476135e-01
3.556033793668829102e-01,3.304401011242397712e-01,2.721403590561219943e-01,6.357953029710734262e-03,4.814114773876247352e-03,-2.923449560081705853e-02,9.085058420896530151e-02
2.199946510901583663e-01,3.669326038795607259e-01,3.862005044078196669e-01,1.586853157826714419e-02,1.176071577084830677e-02,1.239004937819210804e-02,1.625549495220184326e-01
1.484390452834377094e-01,4.820281999407125539e-01,4.480513320506696040e-01,2.597438265176120822e-02,-8.820226636774569640e-02,8.373905925124613264e-03,3.559145033359527588e-01
2.364408372048474316e-01,3.567933475408823774e-01,3.441859678108739051e-01,3.589822591770908643e-03,-2.319909388952943671e-02,6.328496845638961277e-04,1.215763092041015625e-01
2.624012332665010550e-01,3.488686845896111222e-01,3.410791889718958747e-01,-5.095773667312365144e-04,-4.666937705290128725e-03,-9.968825616543030774e-04,8.326379954814910889e-02
1.955634478827169009e-01,4.415907469281142306e-01,3.821094208162316708e-01,2.324293678695482299e-02,-1.260619504249228529e-01,-2.639847509820068827e-02,3.175210356712341309e-01
3.477638410955564696e-01,3.250680142411531137e-01,3.019777779295785836e-01,-1.791282710589063923e-02,-2.506628417575046050e-02,-3.233273610838356682e-02,8.692578971385955811e-02
3.303474095845789216e-01,3.461170170617218211e-01,2.810147158061684913e-01,-4.873604951631008153e-02,-1.318838408397677298e-01,-1.123615382407138624e-01,3.172402083873748779e-01
3.180828202361942192e-01,3.047966291330453381e-01,3.371507295743204069e-01,-1.210207641533622182e-02,-7.361100469262945103e-03,-3.800653505854432318e-03,3.793047741055488586e-02
4.040532622963282083e-01,2.202771005459521203e-01,3.390909043717029170e-01,-1.128522603023812548e-01,-3.568054661185970922e-02,-9.112601135292663912e-02,3.049480319023132324e-01
3.082130923409281964e-01,3.294634023812332835e-01,3.083379647689205028e-01,-6.207343301128902778e-03,-5.319444194985638308e-03,-3.437716682466635237e-03,2.617010101675987244e-02
3.459792077005569566e-01,2.965834807416951602e-01,3.115732709049010563e-01,6.163352015709473199e-03,4.109842169520608324e-03,-1.852411097834599438e-02,5.584139376878738403e-02
3.409168467336189390e-01,3.482403505968933444e-01,2.701759225421469512e-01,-5.503667566067227228e-03,-4.513856211346587918e-03,-4.584949283805419759e-03,7.609891146421432495e-02
3.214383893977098006e-01,2.577819634184180253e-01,3.343880880518031451e-01,-1.244847446518749789e-01,-6.129512029023411607e-02,-8.608520085442102066e-02,2.916106581687927246e-01
3.341216106771426886e-01,2.808901215488767145e-01,3.401536159584695462e-01,-7.912765813891393940e-03,-7.432326478075913442e-03,-4.723160205955854486e-03,6.009615585207939148e-02
3.416574833194163663e-01,2.748952068952770222e-01,3.276260298664111503e-01,8.629682469989416807e-03,8.278833258607492390e-03,-1.214519488712375271e-02,6.774112582206726074e-02
3.176513670118809030e-01,3.102350231720874540e-01,3.268081411342490528e-01,1.838235575466232955e-03,5.037044961030127943e-03,-1.681096517803131948e-03,1.736345328390598297e-02
3.306527584587607982e-01,3.036106683349275581e-01,3.180494624721330044e-01,1.206982448464294453e-03,6.299751130008158888e-03,-1.892593316468168651e-03,2.614335529506206512e-02
3.304121732861479699e-01,2.848693074067612518e-01,3.535026376622414368e-01,2.754619113465392802e-02,1.065538268065355752e-02,-1.329049169130754916e-02,8.249744772911071777e-02
3.327623249236925651e-01,3.113461584861831333e-01,3.107725743617293368e-01,4.913441844799747681e-03,5.039808504003789012e-03,-5.224007377507912213e-03,2.649076469242572784e-02
4.139264106307851687e-01,3.249460954317979766e-01,3.353783022401258251e-01,9.152713623150075806e-02,8.377837877822327806e-02,-1.309335874722043214e-01,3.236000239849090576e-01
3.866394262898569245e-01,3.105839436159547606e-01,3.241795114781503284e-01,-3.489580145455200427e-02,4.155343185391623118e-02,7.294127027332447666e-02,1.724231988191604614e-01
3.319193494590006455e-01,3.114048376789676498e-01,3.125793123062826084e-01,-3.922356757925853261e-03,2.676829458845250784e-03,5.966214980442709507e-04,2.160670235753059387e-02
3.592421068181672617e-01,3.363481054874573051e-01,2.430439868618735622e-01,5.375401249202079249e-03,-9.227389782797034345e-04,4.252184363738214373e-02,1.299209743738174438e-01
3.398701966059555768e-01,2.795585308371538735e-01,3.523929275521897053e-01,-2.740992778324802953e-02,1.359027198239731379e-02,2.572551496481479544e-02,9.665913134813308716e-02
3.524835289091735047e-01,2.730455863613794887e-01,3.301570345681443808e-01,-6.878875179673836146e-03,3.586801421146767772e-03,2.675469630891921802e-02,8.580956608057022095e-02
3.325960922017143218e-01,3.222955322603812123e-01,3.077193266989992626e-01,-6.696032267809748535e-03,5.030068819123411847e-03,9.936738128149713578e-03,3.123046644032001495e-02
2.960276290017574419e-01,3.314893720222667484e-01,3.231145702591038393e-01,-1.057787298850928343e-02,9.624121928476373281e-03,7.574316273439461386e-03,4.261858388781547546e-02
2.917875754988827897e-01,2.975622068748204896e-01,3.363261536208675961e-01,-3.107834675265188501e-02,1.395306040064573684e-02,1.214084592083997625e-02,7.539026439189910889e-02
2.666561796577533450e-01,3.702569579465042615e-01,3.528501584231971133e-01,-1.149520510680210328e-01,1.309556243923321039e-01,2.961264962906396889e-02,3.208637237548828125e-01
2.004038176107554581e-01,4.352762531941644641e-01,3.643811230939678625e-01,-7.064495400202375208e-03,1.102946565538528018e-01,4.024961795616321947e-02,2.916237711906433105e-01
3.255936236255899119e-01,3.483717010722312546e-01,2.824863866164667447e-01,-2.042094214881965894e-03,6.852274747590961571e-03,1.706839993314032515e-03,5.933874100446701050e-02
3.088461716837976878e-01,3.086101631183212901e-01,3.354814827644870268e-01,1.740215634370029523e-04,5.940317596857005956e-04,-1.025178439219308997e-03,2.683438360691070557e-02
2.233533658336661065e-01,2.818058807671801058e-01,3.662660496869502014e-01,1.304473000154084683e-01,6.091458292652356110e-02,-3.925265104249020531e-02,2.868635356426239014e-01
3.200099233351413885e-01,3.244221668549502890e-01,3.118531873540384969e-01,4.667551912456088803e-03,1.295439861052014420e-03,-8.995513775511774493e-04,1.395743247121572495e-02
2.873457268653757390e-01,3.417373009731331512e-01,3.255201282225779758e-01,2.559265724287113162e-03,4.964771767364540601e-03,-5.643272046893207591e-03,5.028417706489562988e-02
3.030982345030433511e-01,3.193379672580968220e-01,3.179871651050081849e-01,-1.244837810587919556e-02,-1.222227080812768665e-02,-9.675402426173110304e-03,3.791431337594985962e-02
3.171016198874231917e-01,3.182114469840637283e-01,3.247855923672633427e-01,-1.933465582110161386e-03,-2.854064126932729425e-03,-3.604215723836100456e-03,1.124145463109016418e-02
3.165859142520713321e-01,3.029694981699246892e-01,3.485625138834714254e-01,-1.509050719040807079e-02,-2.536835567865474133e-03,-9.722903216277749804e-04,4.846265912055969238e-02
2.870928227463495075e-01,3.244123300930193410e-01,3.459116049207238142e-01,-4.466989704938253286e-02,-3.553456484063650944e-02,-3.083583178512478568e-02,1.236291527748107910e-01
3.162268331952082234e-01,3.219393490905603783e-01,3.255902259224048856e-01,-6.065168103890207323e-03,-6.035440661780999347e-03,-6.654193449165920690e-03,2.047658897936344147e-02
2.995366567180134387e-01,3.152115349590479121e-01,3.439141554510036780e-01,-2.932293410743657715e-03,4.144515435861136012e-04,3.981788861612761492e-04,3.932223841547966003e-02
3.478252024763943129e-01,2.526839234387390221e-01,3.601897466047901397e-01,-1.161728675871905557e-02,3.631695820244672419e-03,-5.650114369821591237e-03,1.045052483677864075e-01
3.175354247626431259e-01,3.056078343477230397e-01,3.365050131484462193e-01,-2.838470509660117116e-03,-3.554937605713700752e-03,-1.366384002677210234e-03,2.821451239287853241e-02
3.205250338737113958e-01,3.152934757305920765e-01,3.235382275608629787e-01,-4.549560417082884091e-03,-4.613071337705321011e-03,-5.004268264163302428e-03,1.591468229889869690e-02
3.087660042531706894e-01,3.066721732803696088e-01,3.362734465937891049e-01,-1.682805520104969617e-03,-1.541382476701546505e-03,-1.159915252705899904e-03,2.895338833332061768e-02
3.100572253761782471e-01,3.056060777736963052e-01,3.397478481565196495e-01,-3.687978499072284977e-03,-1.233563523846386862e-03,-1.720569560035592038e-03,3.298109769821166992e-02
3.130282529897979171e-01,3.087192508124373402e-01,3.323222189430730666e-01,2.858901940913745852e-03,-3.487893768244309904e-03,1.656846461346677670e-03,2.330695092678070068e-02
3.215745676399010544e-01,3.190649246043478771e-01,3.064504279526981123e-01,6.495847570567737060e-03,-3.163120961500408539e-03,4.387717676942122329e-03,2.028403431177139282e-02
3.221872383920725280e-01,3.144852719886873094e-01,3.152703958929299333e-01,5.401893368724145460e-03,-6.272358120447249843e-03,5.001693104290024297e-03,1.828959584236145020e-02
3.428557386801028284e-01,3.059891962004882560e-01,3.205120548423908144e-01,8.463520782692810288e-03,-6.967332354811138495e-03,1.300341093831333499e-02,4.361695423722267151e-02
4.379016592770078597e-01,3.976967118082808117e-01,1.876449417848300716e-01,4.733400449881627198e-02,-5.920646473003228494e-02,7.684091903735967843e-02,2.985542118549346924e-01
3.655340810152555853e-01,3.530928070165058608e-01,2.243577442567055713e-01,6.806590630095252399e-03,-2.251892579760097005e-02,2.939216266631597754e-02,1.502701640129089355e-01
3.966079005065982765e-01,1.816202951750529038e-01,3.824286603375440241e-01,3.644492588301458114e-02,-3.733292884507623862e-03,4.679318823994291221e-02,2.323094457387924194e-01
3.639359023109896007e-01,3.306530198085690375e-01,2.625590810459807467e-01,8.208310661608068590e-03,-1.136431287262524084e-02,4.373321796105496262e-02,1.197424381971359253e-01
2.384190384758664849e-01,3.607811479816399602e-01,2.592864681515667513e-01,-6.275125455912027028e-02,-1.447638492889125883e-01,-5.811734746618130165e-02,3.125225007534027100e-01
2.042366700085960218e-01,3.852506048721699994e-01,2.760929156112043037e-01,7.713985286470563876e-03,-1.286621098403976926e-01,3.056091352651596656e-03,2.734789550304412842e-01
3.186587188815415139e-01,3.386367150138596682e-01,3.035567460968018327e-01,8.845452344591251542e-03,-1.328470779112787825e-02,8.418552517203888377e-03,4.365420341491699219e-02
3.323718456452416370e-01,3.145535254118142499e-01,3.348005764127643946e-01,4.655763354005654220e-02,-1.975781566812557025e-02,4.613627910906958896e-02,1.201094910502433777e-01
2.849684492197002705e-01,3.442040102669792767e-01,3.265644165435279134e-01,5.077950289991003344e-04,-5.584909328336619926e-03,3.244416364403436212e-03,5.386132001876831055e-02
2.864140887555827186e-01,3.430951275426303293e-01,3.255522044085421562e-01,-5.319502087341417343e-03,-3.741024729828322688e-03,-4.894401187870415885e-03,5.220044031739234924e-02
2.914408007043822746e-01,3.438003760994908231e-01,3.185297235128601856e-01,-3.208682027925421117e-03,-5.905321807570391469e-03,-4.876061071218007296e-03,4.757944494485855103e-02
2.895955081510426798e-01,3.452343647240898594e-01,3.136528056511213025e-01,-6.241204047425884596e-03,-3.141285194842302619e-02,-9.874445091479401235e-03,7.553534954786300659e-02
3.055784391046730830e-01,3.264668990176067820e-01,3.307039333462511443e-01,-1.579886805045624745e-02,-1.133222034313141786e-02,-1.048273866343658878e-02,4.479418694972991943e-02
3.448471524594428628e-01,3.316232075579274574e-01,2.969467665655521338e-01,-7.663006067469052898e-03,-1.114545010245539085e-02,-1.523025345270949751e-02,5.550313368439674377e-02
2.760821648114252791e-01,3.521524672135352696e-01,3.323798472907066870e-01,-4.691800577462331735e-03,-1.070576962213244492e-02,-3.977714739812664504e-03,7.163019478321075439e-02
2.969932272490216074e-01,4.098209216859637349e-01,2.871375421809825856e-01,-1.307755664598852785e-01,-1.310650731614420861e-01,-7.595655289523835230e-02,3.661807179450988770e-01
3.055814467062879514e-01,3.058029915808264665e-01,3.751823483268239556e-01,-1.162534875260281125e-01,-8.293265611717783037e-02,-1.309887404393068056e-01,3.427552580833435059e-01
2.718824801096598742e-01,3.431879028381676355e-01,3.271582286426089614e-01,-1.239210348977275687e-02,-2.324506937095852793e-02,-9.619336764829289343e-03,8.097961544990539551e-02
2.969675329416346377e-01,3.919824922327344030e-01,1.827829002970963734e-01,-1.166251233338945828e-02,-1.221335122943376927e-01,-2.169825440833738489e-02,2.819316983222961426e-01
3.229211263823217326e-01,3.116998253871638425e-01,3.137846495066268226e-01,-1.371461238402522801e-03,-1.873835013364584957e-03,-2.125289056093077490e-03,1.168745942413806915e-02
3.221599915722979657e-01,3.155217062461941335e-01,3.148944736824529911e-01,-8.937938616463468686e-04,-5.277472194913639548e-04,9.084465152669563091e-04,7.371022831648588181e-03
3.275405533463401908e-01,3.155752589886382520e-01,3.151986474587543663e-01,-1.529445911432006193e-03,-1.960453183488507396e-03,7.363816554303819951e-08,1.289822161197662354e-02
3.265647394059711384e-01,3.198335905862164097e-01,3.124524517186766381e-01,-4.305644830617397743e-03,-2.310085123672029565e-03,-1.481102723789240331e-03,1.508904621005058289e-02
3.221267162663188355e-01,3.222871855580702882e-01,3.090521087773642206e-01,-7.202785533297922926e-03,-8.876451480037732267e-03,-5.968802736673810977e-03,2.592225931584835052e-02
3.140394799724885999e-01,3.209248047562481831e-01,3.206029091375554585e-01,-9.195609523602118682e-03,-7.404827741762359111e-03,-5.888573495719266228e-03,2.382211200892925262e-02
3.554056114664125299e-01,3.417391133778429069e-01,2.420888548902668802e-01,3.057563796432508172e-03,4.326597765597679605e-03,-1.652183124970127773e-02,1.112741380929946899e-01
3.219821965938636232e-01,3.156856876587394445e-01,3.180293531509204019e-01,-9.626762804563987561e-04,-1.843733929674007659e-03,2.919806264500928155e-04,6.604236550629138947e-03
3.119430876463429314e-01,3.063790494472414250e-01,3.362854506637347751e-01,-3.026811586733679348e-03,3.101207906483242991e-03,1.390607488622213304e-03,2.865466102957725525e-02
3.167442468276153167e-01,3.075179198194261110e-01,3.334568058208061125e-01,-1.820292979566226575e-03,-4.535488471400522630e-03,-1.445259007128112940e-03,2.442435175180435181e-02
3.404042124253309209e-01,2.678683175168197761e-01,3.487666756497037057e-01,-5.951001721760521175e-03,-8.437878613880503290e-04,-1.767171373516051745e-03,7.781846821308135986e-02
2.610642410231025501e-01,2.247589954644556021e-01,4.041620008788511798e-01,-1.604817338349012468e-01,-2.077963704738648026e-02,-5.830163900781924063e-04,3.248842954635620117e-01
3.344700716201236546e-01,2.753430897710328340e-01,3.474129971889466373e-01,-1.518541633517298331e-02,1.600900713332827421e-03,3.249067861808657004e-03,7.183275371789932251e-02
3.547540900512040074e-01,2.714470035552121185e-01,3.332243503650030858e-01,-4.413543794074627040e-03,2.644207011220299844e-03,-1.518399240115763868e-02,7.988175749778747559e-02
3.152899261905224293e-01,3.006338428256135065e-01,3.411858529225810788e-01,-2.733945619075191496e-03,1.926045542938757682e-03,7.279875645190562105e-04,3.605655208230018616e-02
3.370311812474854896e-01,2.567071462722460007e-01,3.804938071604018202e-01,-3.587745413394485133e-02,-7.133077600956052970e-03,-1.520052110193707839e-02,1.286057084798812866e-01
3.857901432040276024e-01,3.772985060877031560e-01,2.838843981304225994e-01,-8.329557465527270832e-02,6.909427088602772271e-02,1.099170666605045615e-01,2.845581471920013428e-01
3.550883536248437555e-01,3.477606183526518180e-01,2.520775474238763914e-01,3.660660213295354078e-03,3.713422982285948838e-03,-9.020403038838229262e-03,1.011719256639480591e-01
3.181139385723665836e-01,3.437639321803060422e-01,2.934374455611848953e-01,-3.182863291492266274e-03,4.201635096722055283e-03,2.084121126510264047e-03,4.467871040105819702e-02
3.535519588826646631e-01,3.311298953536516709e-01,2.555464557579567586e-01,-1.692190801568735012e-02,3.135673771730651538e-02,4.694409639080375507e-02,1.353897154331207275e-01
3.335997289391616771e-01,3.488196503071209209e-01,2.798825153452140224e-01,-1.313284523288816858e-03,2.648711211690224498e-02,7.609661141004819135e-03,7.885653525590896606e-02
2.057542198017760227e-01,4.142945380115141685e-01,3.644577903847824318e-01,-1.272718669343053388e-01,-8.388371211244724512e-02,-3.757709172237092693e-02,3.309376537799835205e-01
3.259625982222461027e-01,3.411305278756050496e-01,2.710199492798346377e-01,-6.405763733424307479e-03,-1.384465831180205740e-02,-3.843351815093935982e-03,6.945909559726715088e-02
3.262540550350341295e-01,3.480572775791128115e-01,2.699135995204037242e-01,-3.348639505558758528e-03,-1.464653270483047554e-02,-1.991906872784178148e-03,7.461325079202651978e-02
2.750787980842921976e-01,3.502092538977630287e-01,3.057109671426634367e-01,7.582445091758739219e-04,-3.539267409646090767e-02,1.208226044564076566e-03,8.969690650701522827e-02
2.528834971666957809e-01,3.459393466809816409e-01,3.571732535197831848e-01,-2.380388949989326042e-02,-6.344348668933634701e-03,9.187020472841099777e-04,1.079543083906173706e-01
3.138004666439760948e-01,3.435782676933042401e-01,2.994293244173178437e-01,-1.435528874213572344e-03,-2.703777850627551126e-03,4.824217540113211753e-04,3.937003761529922485e-02
3.318942388723304937e-01,3.112119309384064336e-01,3.221754521880483835e-01,-5.996746438683688181e-03,-6.873326125014158662e-03,-8.291427942903909984e-03,2.787579223513603210e-02
2.603577184696674318e-01,3.910274055180708586e-01,3.352848900786721265e-01,-2.031260495396860002e-02,-5.681373157057148515e-02,3.236847610014189497e-03,1.544363200664520264e-01
3.669342904281751028e-01,3.494892593270089720e-01,2.354270678665655314e-01,-3.031253966024460757e-03,-2.733161674881112030e-02,-6.713905786647100804e-02,1.763403117656707764e-01
2.800235872045042651e-01,3.389112007181656061e-01,3.398277331420900826e-01,-3.350263561171233206e-03,4.519553202811449864e-03,4.277627281959734198e-03,6.060041114687919617e-02
2.633727375245054070e-01,3.704143498367626908e-01,3.439841113730895961e-01,-1.025583683739815094e-01,9.557027746741275642e-02,1.026423051968413241e-01,3.160527646541595459e-01
1.357414997501741882e-01,3.778992280515211521e-01,3.992038424917445649e-01,-9.347358781196274391e-02,-3.789947533948300612e-03,5.253644047234988512e-03,3.009836375713348389e-01
2.733993309297919616e-01,3.486610074383612590e-01,3.257805942497672969e-01,-2.467389945053946078e-03,1.470552223578413045e-02,1.659145153506318008e-03,7.170142233371734619e-02
2.857874287481663167e-01,3.267507012828458901e-01,3.409363001903487622e-01,-5.102063503881960026e-03,3.468393344025178307e-03,6.256615192436051562e-03,5.188379064202308655e-02
1.440519837059796859e-01,4.976311349189048161e-01,4.863000345830567617e-01,3.766736988252320645e-02,5.877400323260020820e-02,-1.699714313776167982e-02,3.696302473545074463e-01
2.703945127132085791e-01,3.592253607069523236e-01,3.395822501734760968e-01,4.806157367063265684e-02,-3.798312638886190695e-02,2.057443087870226839e-02,1.380567848682403564e-01
2.720215980147420165e-01,2.812701171834204872e-01,3.637686087965753545e-01,-6.438942981040120250e-02,7.532230017687215409e-03,7.616648341522239476e-03,1.429572105407714844e-01
3.495902976008138929e-01,2.682202117752084947e-01,3.316200440915794689e-01,1.524286912885939715e-03,-3.113592804410013955e-03,1.288294517999529105e-02,7.756122946739196777e-02
3.080378292539136531e-01,3.140990193701416189e-01,3.410746426865003400e-01,-1.533035564617447541e-02,-1.082852254032693959e-02,-1.154817020863413944e-02,4.883479699492454529e-02
3.222655501843817438e-01,3.006012706255712374e-01,3.294359732183002043e-01,-8.426250070245668369e-03,-6.480794906373842090e-03,-5.716792925779999590e-03,3.336390852928161621e-02
3.839651401163860500e-01,2.504971123221964024e-01,3.870256624139614132e-01,-4.298300307450265978e-02,-6.766311344469623512e-03,-3.143282640344544770e-02,1.639377772808074951e-01
3.345646456749239439e-01,2.769600758928132955e-01,3.988852494822960892e-01,-6.891081442027113813e-02,-5.438131627248284257e-03,-1.581173325471309579e-02,1.620044410228729248e-01
3.270111434258352601e-01,2.954807073209103629e-01,3.293760285848367220e-01,-3.700921952767022641e-03,-7.682998684266806322e-03,-5.076198260141602352e-03,3.701089322566986084e-02
4.308017278829369134e-01,1.678394865557513993e-01,3.870955180749582336e-01,-2.501482381542326217e-02,3.138982664204955503e-02,-1.023116691839073972e-01,3.095197975635528564e-01
3.671935758694488960e-01,3.386844355841853171e-01,3.224534124125426060e-01,-4.901935623379449769e-02,-4.669603086820590943e-02,-6.413467972047912080e-02,1.662196516990661621e-01
3.312927646844530116e-01,2.863492615386883378e-01,3.289137370815773398e-01,-1.862609237675284454e-02,-8.722167469903148798e-03,-1.736860000384723643e-02,6.397408992052078247e-02
3.812846787994357278e-01,1.665514055573113217e-01,3.946179201714021811e-01,-4.033059349121633635e-02,-2.125684675590068344e-03,-6.039580625630541766e-02,2.549263238906860352e-01
3.065476135447400829e-01,3.135323193872047165e-01,3.413968282414879263e-01,-5.311717970342041614e-03,-2.319572142325883931e-03,-3.193507977630906727e-03,3.392966464161872864e-02
2.752312510511547572e-01,3.250459131775244592e-01,3.441459775516418906e-01,5.724301308265283307e-03,2.369446103112183167e-03,-1.025501277125316028e-03,6.257856637239456177e-02
3.179035530312060431e-01,2.933119089591124107e-01,3.434215838066681514e-01,1.674074151555587919e-02,-4.361302177023117579e-04,-1.186412876605172318e-03,5.223983153700828552e-02
2.385661289042056432e-01,3.752764418081862563e-01,4.604058681751209137e-01,1.583159199481886659e-01,4.387578712385632046e-02,-2.464400726249864684e-02,3.469349145889282227e-01
3.134850217498142966e-01,2.903868244227020279e-01,3.410995701672395741e-01,8.314520535578564728e-03,-3.363337503082928712e-03,1.911007427996704641e-03,4.675705358386039734e-02
3.147148747360701826e-01,3.414640870076935952e-01,3.027730158625670520e-01,-2.772665194488972782e-03,1.797114537925437530e-03,8.143170411419368114e-04,3.481816872954368591e-02
2.928066726615699000e-01,3.365241930244148860e-01,3.152955076105943277e-01,2.017060964723395560e-03,7.124788555708459238e-03,-5.295521686718941343e-03,4.101748764514923096e-02
3.209161297985703154e-01,3.396456139264074636e-01,2.989376366397380469e-01,5.547116861252057891e-03,1.409844494411266295e-02,-3.828773235909342133e-03,4.447563365101814270e-02
3.609374393762836419e-01,2.164032799305004584e-01,3.631304039332476918e-01,1.777757546078142722e-02,1.749827298017381412e-03,7.453749450079941163e-03,1.494519263505935669e-01
1.890776076256629745e-01,3.830708924167957607e-01,2.651661484430957727e-01,6.759035217378432658e-02,1.592426166583687797e-01,-5.362055271700825326e-02,3.564655482769012451e-01
3.567118927697621178e-01,2.765459117502536701e-01,3.320298684759583896e-01,-3.945717693198665631e-03,-3.413865929420960852e-04,2.840392368986543667e-02,8.674406260251998901e-02
3.531985737647659329e-01,3.660705978257698390e-01,2.935936128664740075e-01,2.995116478424267314e-02,6.668185650420470345e-02,-4.931495625659295529e-02,1.667698919773101807e-01
3.311116469900851622e-01,2.842005171687990162e-01,3.481195807417256649e-01,-2.700801698441654061e-02,5.177764132256476234e-03,5.565370699808026671e-03,7.516270130872726440e-02
3.134739966532120170e-01,3.006853837519136707e-01,3.431803995891986592e-01,-1.867333692448249882e-03,-7.680531844713026947e-04,-4.024271990699579069e-04,3.792939707636833191e-02
3.251524986591590727e-01,2.895498343847166534e-01,3.402142059207330926e-01,-5.290642177370996277e-03,-6.169070022933153229e-03,-3.527946079093867860e-03,4.760384187102317810e-02
2.894119497369044836e-01,3.148576007866795701e-01,3.479375481356689614e-01,-8.196608451940911103e-03,-1.188736142728854313e-04,1.923572214136723673e-03,5.287911370396614075e-02
2.595632687615533341e-01,3.307184001085743952e-01,3.460452178302659831e-01,-2.332552588239410543e-02,1.327671834743371013e-02,5.728732685004297477e-03,9.299492090940475464e-02
2.928751844102964186e-01,3.178738264696061022e-01,3.432900721804856836e-01,-8.727538985628278609e-03,-2.797530802454663811e-03,-6.611440699963277989e-03,4.784779250621795654e-02
3.021225304776526954e-01,2.639286503402876738e-01,3.378085495710735353e-01,-5.007310647178248031e-02,-2.640501996384016226e-02,-3.200048676255562441e-02,1.295413821935653687e-01
3.501697310535766272e-01,2.467710549071225890e-01,3.456482020677579259e-01,1.483202869244087604e-02,-4.496780893757988326e-03,2.293791432623403306e-02,1.119968071579933167e-01
2.992783106815252170e-01,3.185925386528443704e-01,3.496301001732137204e-01,-1.507451616435757577e-02,-8.792630019926730902e-04,-9.927039826574193555e-04,5.121362209320068359e-02
3.369791177794922432e-01,2.959640362510022604e-01,3.160274786886447251e-01,-2.429114110472374317e-03,5.747409197206446684e-03,5.758583516458044144e-03,3.844682872295379639e-02
3.866390628614053693e-01,2.275501639949737975e-01,3.722061991532714109e-01,-2.232106643866768950e-02,3.424704067582375229e-03,2.987275510909509491e-02,1.656155139207839966e-01
3.444545819465871239e-01,3.132919671818548135e-01,3.064015208073432861e-01,-3.025829538647933220e-02,-3.167133883059179006e-02,-6.956555103487789549e-02,1.466537564992904663e-01
3.421187326887840108e-01,2.631686550163324090e-01,3.445214381762842226e-01,-5.918824934845284130e-03,6.173205633740783994e-03,6.923595243655602909e-03,8.241245895624160767e-02
3.411907643769949705e-01,2.732412614758301661e-01,3.260612362409808229e-01,8.792826819071595384e-03,-9.298628803430446926e-03,1.311105426103146773e-02,6.946241855621337891e-02
3.309081773610805244e-01,2.954354240458628711e-01,3.284532333591466124e-01,-5.778326181237795033e-03,6.609052475678453033e-03,4.459744282685705434e-03,3.831622749567031860e-02
3.310173393034354095e-01,3.275103780539324050e-01,3.007060250921830824e-01,-8.463198341670219796e-03,-1.400700305226933000e-02,-1.731171354491261097e-02,5.027251690626144409e-02
3.264157819816694839e-01,3.397603382766490321e-01,2.868127477966158079e-01,6.865194431567734484e-03,-5.715873070830299746e-03,4.230122387402973638e-03,5.067593604326248169e-02
2.893550065794364690e-01,3.478441945715047834e-01,3.172549709019596431e-01,1.115516387433985492e-03,-1.243042770827007364e-02,4.161904203588058862e-03,5.555889755487442017e-02
3.285029270285269032e-01,3.396186076013008037e-01,2.824420271913808955e-01,-6.451294023426278057e-03,-8.418711777700267629e-03,-3.382239315978649921e-03,5.593713745474815369e-02
3.262002215414642192e-01,3.479354908276942049e-01,2.683613412537058651e-01,-3.383518749724834154e-03,-1.435130289441981753e-02,-3.024494846226854616e-03,7.585887610912322998e-02
3.220067394812857753e-01,3.160147799678978409e-01,3.182215930389405978e-01,6.432305828370237129e-04,1.534808501785839795e-03,2.051707107103283598e-04,5.998741835355758667e-03
4.605318999002548375e-01,1.404033524917385201e-01,4.161853795839298709e-01,-7.901965485644206477e-02,1.572631013258460331e-02,-5.300027364226564397e-02,3.437348902225494385e-01
2.362795908282040169e-01,3.597785216001982422e-01,3.578030582545684846e-01,-6.604379133477695542e-03,-3.639039374402355202e-03,-2.070621691219561543e-03,1.232694759964942932e-01
3.104018982224838186e-01,3.054961598079288243e-01,3.390957514173379428e-01,-3.235058350357671118e-03,-2.894609300989076789e-03,-1.252321018241854675e-03,3.239453583955764771e-02
2.916622580788204577e-01,3.144478083529324008e-01,3.423982089189226419e-01,-8.257370473037175390e-03,-4.937179532180934610e-03,-4.985805746170307237e-03,4.784899204969406128e-02
3.085241070260426599e-01,2.889749462182571449e-01,3.502221206368734130e-01,-4.506215036003841101e-02,-6.777236277586237050e-05,-1.200717175335450386e-03,9.503781795501708984e-02
3.123025984570132474e-01,3.088366174039516299e-01,3.355896991426598475e-01,-1.381334309629390824e-03,8.923521654573217908e-04,7.704110315064580669e-04,2.539504878222942352e-02
2.675504950638004642e-01,3.541326599160443678e-01,3.317429788256855971e-01,-5.197615877991929208e-03,2.133629997455624427e-02,3.415572104146596261e-03,8.683881163597106934e-02
2.127806175786954856e-01,3.702775486474184641e-01,3.778783677953002629e-01,-1.702154887892654012e-02,-7.814097414166549030e-03,1.052226837444155717e-02,1.656644046306610107e-01
3.023907920325055176e-01,3.175689227497475731e-01,3.443796307450013305e-01,-1.640699892438191726e-02,-2.803449123033568535e-03,1.341941517821429973e-03,4.682601243257522583e-02
3.216321011320001366e-01,3.180790425692290313e-01,3.149672645034745089e-01,-2.283679804295898376e-03,8.762683279940127346e-04,7.116595333254807946e-04,7.268577348440885544e-03
2.776569810323934462e-01,3.726007926788001967e-01,3.614494339341683959e-01,-4.874454151420583997e-02,5.412299903532811346e-02,1.970352089503039222e-02,1.586209386587142944e-01
3.492355926868024873e-01,2.840219307872630106e-01,3.246936104631248932e-01,4.508355242815546013e-04,4.906217582788898780e-04,-4.485126698970317259e-03,5.758766457438468933e-02
3.150400884493206322e-01,3.491441428763354948e-01,2.888053473681617134e-01,-8.556075627421934294e-05,-8.644402486694865648e-03,-4.431100399766664858e-04,5.450547859072685242e-02
3.556143076613016984e-01,3.039965635248785270e-01,3.079592923906119273e-01,3.240378723416784297e-03,-4.203997905618730296e-03,-3.167233829763369674e-02,7.462894916534423828e-02
3.458877417201947635e-01,2.563711419569945082e-01,3.474306417145893722e-01,-9.950683786234360700e-03,-8.228783546111338373e-03,-8.607938943376275409e-03,9.421355277299880981e-02
3.476935323628241314e-01,2.434524747970989722e-01,3.467129842951552909e-01,-2.630015676858688672e-02,-7.615318397879039872e-03,-2.062816672116475972e-02,1.195432320237159729e-01
3.463415961052550562e-01,3.039802608641730131e-01,3.065081774127856318e-01,-2.793785095191123665e-03,-5.570195821987851924e-03,-1.872419063886030313e-02,5.349831655621528625e-02
3.102232815329231119e-01,3.199383922985388207e-01,3.221279427597779077e-01,1.369926388483609474e-03,-1.444690075411864897e-03,4.057219311269169223e-03,1.348049752414226532e-02
3.169574094422237254e-01,3.131021802638343510e-01,3.252845794905201426e-01,1.261675402705604836e-03,-3.612068799752838136e-03,1.562060395850567700e-03,1.294389460235834122e-02
3.215387899812578998e-01,3.154111938360237843e-01,3.152744828719400427e-01,6.720797137406103565e-04,-1.959946584048968647e-03,4.113211010764736080e-04,7.196571212261915207e-03
3.252612161076925967e-01,3.144274219704108475e-01,3.154265963776473058e-01,1.453262256118304820e-03,-2.043372825622199844e-03,4.433641393611982735e-04,1.126926578581333160e-02
3.282767371198356821e-01,3.133576584145582045e-01,3.098801686477034023e-01,3.951392036626641575e-03,-1.543360556011963815e-03,3.863235894263325303e-03,1.962938904762268066e-02
3.238176288011841431e-01,3.197403685272933727e-01,3.125567102668933561e-01,4.574067785326429124e-03,-2.256793180604563850e-03,1.836412271224421768e-03,1.362650003284215927e-02
3.344832746255444467e-01,2.820024965924879945e-01,3.483702530535384145e-01,2.392298404852714888e-02,-2.878044853965943273e-03,1.204480309958338817e-02,7.650417089462280273e-02
3.313841435587368545e-01,2.891881964686140449e-01,3.340621512371101942e-01,7.440082428771298620e-03,-7.975625620329256787e-03,9.162305956990423467e-03,5.009401589632034302e-02
3.110962364057673346e-01,3.313097831787785719e-01,3.098616141604705332e-01,6.063357510558737770e-03,-7.736749774901390680e-03,5.744550054452158237e-03,2.870422042906284332e-02
3.294180827093408648e-01,2.849649776215386621e-01,3.483448734598088570e-01,-7.724742308885651151e-03,-3.576461927415906295e-04,7.139579695111781350e-04,5.793603882193565369e-02
3.201136924211062662e-01,3.314154227659078522e-01,2.993182625627913707e-01,-7.687479947040649561e-03,4.516891531345447984e-03,3.749022488073451738e-03,3.280042484402656555e-02
3.291379123005591101e-01,3.166307509184700386e-01,3.104136441389002132e-01,-1.960283615878791533e-02,1.825691610988442251e-02,2.828453849049995805e-02,6.946685165166854858e-02
2.856043436049434114e-01,3.450332166352188534e-01,3.292929196390760316e-01,-1.594365396358718434e-02,2.317892688470385779e-02,6.422133860077669683e-03,7.309062778949737549e-02
3.469590346625258670e-01,2.323736832933189222e-01,3.603143908747120649e-01,-3.304970575609561534e-02,5.436266642884143852e-04,9.492015603758297178e-04,1.346065998077392578e-01
3.561153400783475531e-01,2.641921878146873959e-01,3.589416246545448774e-01,-1.138011366487227671e-01,4.904524590276413548e-02,1.315645965497220793e-01,3.266707658767700195e-01
3.476625795900017413e-01,2.686355237044691924e-01,3.291171026855733706e-01,-1.642918375922191448e-02,7.197320833032526746e-03,2.243110299498526222e-02,8.716786652803421021e-02
3.163335058932069677e-01,3.215001704694827045e-01,3.152385803112580098e-01,7.801384267095739155e-04,-6.433048594195606151e-04,1.974618721522157158e-03,6.950908340513706207e-03
3.165169886209745487e-01,3.222776495326888924e-01,3.177775644206493055e-01,7.790279289068169789e-04,-6.419009378367357237e-04,4.966954607894740826e-04,5.595480091869831085e-03
3.182117234940801120e-01,3.214104415297345252e-01,3.164681710522210256e-01,1.554219322390931789e-03,3.257023194528717953e-04,4.864793314627976952e-04,5.208063870668411255e-03
3.142452425733927579e-01,3.174168452083456771e-01,3.214538496090655895e-01,4.538560682906378875e-04,-8.491100246722172113e-04,2.085366215197336903e-03,7.415350060909986496e-03
3.320506492119412179e-01,3.134333519839554438e-01,3.212383177175592297e-01,4.547095214701823290e-03,-7.114103037078660548e-03,9.353545586223749667e-03,2.717609144747257233e-02
3.158979525306824243e-01,3.152249651223064109e-01,3.214249567422232112e-01,6.936061748473229668e-04,-8.446052869477153804e-04,2.080949629037185528e-03,7.162031251937150955e-03
3.208430834905826035e-01,3.105415517507273404e-01,3.328226699867665728e-01,1.073330156647352499e-02,-7.170011200429263903e-03,7.812739172343855301e-03,3.249607980251312256e-02
3.135724659474994902e-01,3.261654538380649448e-01,3.145529573279446378e-01,4.070062354332603348e-03,-3.190934681043405569e-03,3.627356299651949938e-03,1.633747108280658722e-02
3.443388293548750312e-01,3.008416995084442491e-01,3.214349600283720187e-01,5.819424050374204932e-03,7.447344181191507817e-03,-1.469835133254598566e-02,4.833679273724555969e-02
3.300237726845110520e-01,3.633047685368948621e-01,1.926899858114483888e-01,5.938378792546845919e-02,1.203093605849442221e-01,-9.389124482303508323e-02,3.240182399749755859e-01
2.977478233702647303e-01,3.544760616827286603e-01,3.334565517341268048e-01,6.185854046550903762e-02,7.535465705797897429e-02,-3.948939560883901745e-02,1.888389736413955688e-01
3.405932228069410983e-01,4.545581784810962533e-01,1.861837139905051786e-01,-7.206243004193456370e-02,1.401982686308138326e-01,5.974737575576910542e-02,3.737411797046661377e-01
3.357454990089039915e-01,3.342102094298016746e-01,2.995234950122674933e-01,1.071003630421012848e-02,1.304893328451489469e-02,-1.504929567822230196e-02,5.285037308931350708e-02
4.485956578207128675e-01,2.840978245701152316e-01,3.511067414048743007e-01,7.392158366663920122e-02,5.022098051370410543e-02,-1.417251256760638789e-01,3.236426711082458496e-01
3.296375681492262899e-01,3.389312886023806426e-01,2.868098334811500782e-01,1.176170034464675031e-02,4.735217184491581632e-03,-1.114376298673689682e-02,5.633335560560226440e-02
3.094468805265358502e-01,3.077400760937523683e-01,3.392891829469198428e-01,9.313610914141099133e-04,-1.477876984336827255e-03,5.813103995929845991e-04,3.089627064764499664e-02
3.062559816969846471e-01,3.174599613074312598e-01,3.308885257528846879e-01,1.595409905743905114e-03,-1.646550290809563810e-03,4.628493073344984617e-03,2.315916866064071655e-02
3.089428886007333785e-01,3.121374101730994832e-01,3.355327329131113645e-01,1.486555227947073407e-03,-8.155462544320166889e-04,8.715307883334839131e-04,2.536112256348133087e-02
3.121501700174419414e-01,3.108388910277226080e-01,3.324052089201257609e-01,8.431376348436700257e-04,-2.060863384189674449e-03,9.857651668008476486e-04,2.136200852692127228e-02
3.087416864299095121e-01,3.295537976463688845e-01,3.186301428316557494e-01,8.340498663361638199e-03,7.456672655943174036e-03,-6.684971709276160863e-03,2.889100275933742523e-02
3.068756509784234532e-01,3.116664137919307187e-01,3.361225207082411126e-01,2.805966415959489958e-03,-1.556355955199148662e-03,3.335235386085623737e-03,2.832797914743423462e-02
3.156756982201323058e-01,2.936768318808497535e-01,3.375732362457412594e-01,6.834121871578581302e-03,-5.180478364210807860e-03,2.310301236424112340e-03,4.100991785526275635e-02
3.483039225707622033e-01,3.269238733152324827e-01,2.816359613470835743e-01,-8.833483947357952115e-04,-2.920253708694443774e-04,-4.916205199385317165e-03,5.959415435791015625e-02
3.491795964408453967e-01,2.580545096094638557e-01,3.667580346923896562e-01,-6.976958976909922172e-02,-7.739658691424523840e-02,-1.393011938721900600e-01,3.178099691867828369e-01
3.476386171597251606e-01,2.596576101223861399e-01,2.433305073458982559e-01,-7.707986881571034232e-02,-8.348098227612431310e-02,-1.274130246818007128e-01,3.112508356571197510e-01
3.470492131024127680e-01,3.432371697124073084e-01,2.517764961098054033e-01,9.785011057065571161e-04,-2.310114774132429865e-03,4.646035924764050674e-03,9.387160092592239380e-02
3.470297089111458178e-01,3.244069349583756368e-01,2.706114444152156739e-01,5.271997459803955816e-03,-2.689288140679785711e-03,1.481208861074206559e-02,7.338951528072357178e-02
3.091496527029360397e-01,2.962247865162768723e-01,3.817398963106755083e-01,-7.474850893017380427e-02,-3.346678814598266077e-03,-2.256136975126139463e-02,1.571536809206008911e-01
3.423680369959383185e-01,3.434108446823396776e-01,1.880644675033386615e-01,-4.459981446143338607e-02,9.342121452412119331e-02,8.308483516543316294e-02,2.771838009357452393e-01
3.893710379304838320e-01,4.270371188580883715e-01,1.493167613617522871e-01,-4.450554426177907863e-02,3.062873409890934026e-02,8.783711834695656639e-02,3.162109553813934326e-01
3.573021654202032660e-01,3.471328636562007741e-01,2.513748185919989497e-01,-2.091862817638716603e-03,-6.990402070879605731e-03,-2.342033349803030948e-02,1.097819283604621887e-01
3.921367059025741009e-01,3.995725922806843133e-01,1.097266203100088489e-01,-2.152247501800226299e-03,4.196614683830009185e-02,-3.603080543536778951e-02,3.018323183059692383e-01
3.726394536388946133e-01,1.175757050748109656e-01,3.949854264161641870e-01,7.679103212524254762e-02,7.868681126542745666e-03,-1.563898747146799662e-02,2.997775375843048096e-01
2.991924267694686113e-01,3.499506203018087902e-01,3.185017619644548992e-01,-4.815643267344362453e-03,-1.663745529098079046e-02,-4.193960587208027911e-03,5.405452474951744080e-02
3.482135087491671221e-01,3.482649826028045847e-01,2.717035087159455631e-01,2.046591159306957006e-04,-3.324367933261031770e-03,1.399312705002527663e-02,8.048865944147109985e-02
3.417899571258624647e-01,3.495364832854386816e-01,2.681458541684841879e-01,1.702848363270007741e-05,-3.657804825638270169e-03,3.565940257657283178e-03,7.830858975648880005e-02
3.346443832225558523e-01,3.632618081437493651e-01,1.806380805815491208e-01,-5.875514280154336272e-02,-1.185618902395972063e-01,-9.576464132076056845e-02,3.301272988319396973e-01
3.601663057723297756e-01,4.760181629735892872e-01,2.737399943947204095e-01,-4.658837864236662490e-02,-1.436348250055575204e-01,-5.509790600578742814e-02,3.292650282382965088e-01
2.238818594967895703e-01,3.757697189291871465e-01,2.597846248757872401e-01,-4.396877695200136771e-02,-1.447950978672327693e-01,-5.376338868202457794e-02,3.102802932262420654e-01
3.446884840104270653e-01,3.303641662806754975e-01,3.018446792749243102e-01,-1.942258580838259960e-02,-2.597712518799822137e-02,-3.254641166948962078e-02,8.809664845466613770e-02
3.275020160617156950e-01,3.486091664109048915e-01,2.819542781467032633e-01,5.266883981134058311e-04,-6.289713463590663849e-03,1.908589454835076318e-03,6.009935960173606873e-02
3.519511261058108631e-01,3.448632366527036308e-01,2.532699429257500023e-01,-4.104603482571033551e-03,-3.095035179061959591e-03,-1.151142947322407808e-02,9.780384600162506104e-02
4.033751243758266214e-01,4.046667299046420307e-01,1.515803013299648061e-01,-1.423696189377274962e-02,-2.752454373717381358e-03,2.643379001148402421e-02,2.577878236770629883e-01
4.185804884294371808e-01,3.551509024060188202e-01,1.952233929638738374e-01,-6.783940095214939514e-02,8.307180202109019918e-02,8.430333770206550892e-02,3.091516494750976562e-01
3.958925274137646833e-01,3.127943367453277501e-01,2.052610920246383808e-01,3.147190239193020656e-02,-3.091397047805916412e-02,1.359358208224853704e-01,2.977895736694335938e-01
3.474457128718304033e-01,3.348305128704471834e-01,2.361259496787773693e-01,-1.322972987719634765e-02,3.009229297491066574e-02,3.643588615534758962e-02,1.355409473180770874e-01
3.744471966229857562e-01,2.231031667429750343e-01,3.777190068046234472e-01,7.390283998344060294e-03,-1.086018661138133529e-02,1.876081482178542162e-02,1.580647826194763184e-01
3.544898917214749923e-01,3.511809465763353622e-01,2.087933121692024940e-01,-3.249327700532640456e-04,1.432080096129313522e-02,2.085722445922964796e-02,1.505887955427169800e-01
3.924754860268135914e-01,3.195529019521294312e-01,2.893937392062757019e-01,-1.843844562364668066e-02,8.446759922918060937e-02,1.475485953554997176e-01,3.101009130477905273e-01
3.375600164413761206e-01,1.833469629190243866e-01,5.197652371843253238e-01,-1.286481271988648423e-01,3.399788191488783105e-03,-1.072088206464970501e-02,3.675722181797027588e-01
3.275496632745322767e-01,3.940853797659097379e-01,1.794942110498205512e-01,4.231317921912688268e-02,-9.075438477866414055e-02,7.386378930571151080e-02,2.874826192855834961e-01
3.358621380291207936e-01,3.114988545011664889e-01,3.110215320093349112e-01,1.521733211579245557e-02,-2.232440969382678067e-02,1.993787042081000480e-02,6.314920634031295776e-02
3.491461408276628764e-01,2.892758287455122757e-01,3.369056378552233721e-01,1.485788438542562373e-02,-1.152771512382846919e-02,2.211440203158547557e-02,7.436072081327438354e-02
2.922400378090049267e-01,3.378751544882310220e-01,3.271505502764279760e-01,4.974943914797836340e-03,3.829158278498710245e-03,-8.620959508206578470e-03,4.526988789439201355e-02
2.931107855172470078e-01,3.370850552191511640e-01,3.168091651653394680e-01,2.252307455983570180e-03,9.883363792653178381e-03,-6.536087398144432674e-03,4.347014054656028748e-02
2.502238175439349677e-01,3.473477442664243409e-01,3.527780258319072049e-01,1.013993020275525542e-02,2.978757806733195717e-03,-3.158746554115170885e-03,1.017593368887901306e-01
3.131877311426970456e-01,3.234894292624333478e-01,3.170032717132001965e-01,2.262246796402967754e-03,2.519649339533826943e-03,-2.942652712739313777e-03,1.190603151917457581e-02
3.006835651811707311e-01,3.383365911403364290e-01,3.201800443879040947e-01,7.710049262672002274e-03,5.514537172681589425e-03,-1.004102755482298714e-02,4.044494032859802246e-02
3.334299183812387546e-01,3.468370717309186557e-01,2.753428625958446729e-01,4.248434406110626615e-03,1.150979431577714603e-02,-6.688180268156362733e-03,7.013136893510818481e-02
1.569363890594783206e-01,3.806086335351608341e-01,3.989269556200651379e-01,-5.132406425301926089e-02,4.599151808786192813e-02,1.452217368538931755e-02,2.633304893970489502e-01
3.076202445305667998e-01,3.447625150813058426e-01,3.045980213081480592e-01,-1.304321329504216226e-03,5.385769177753785102e-03,-1.259730443034880404e-03,3.997271880507469177e-02
3.325634793770401720e-01,3.478708594449131941e-01,2.749954358693912915e-01,2.157558631306202585e-03,1.207092320441234545e-02,-4.892857836441448678e-03,7.037413120269775391e-02
2.620731336778728826e-01,3.441453375153022964e-01,3.206773932383882308e-01,-2.901040359379535027e-02,4.082816058696076000e-02,1.980399095782317889e-02,1.185864508152008057e-01
3.206995438305867419e-01,3.059527159073737734e-01,3.206698722003702429e-01,5.244834091029481997e-03,6.077130872204807542e-03,-3.527967335721924561e-03,2.115871757268905640e-02
3.571815051083765957e-01,2.797660126185973484e-01,3.313708096773479994e-01,1.154877882787834070e-01,-9.572297055011839972e-02,6.772381590877517288e-02,2.931240200996398926e-01
3.254885224312844549e-01,2.847439119999521928e-01,3.439987604319823533e-01,4.541251858276267386e-03,-8.246548730588040398e-04,7.416607114949010787e-04,5.312724411487579346e-02
3.120475444996781977e-01,3.690633341903902243e-01,2.241344112865565896e-01,2.941369876814619450e-02,-1.186953343819731610e-01,4.980482961365454569e-02,2.613326609134674072e-01
3.128251132759741759e-01,2.971813606332837088e-01,3.572099982534430174e-01,3.612417085777666625e-02,-1.150029397377420187e-02,1.212222564487806797e-02,8.753041923046112061e-02
3.209573247202355817e-01,2.608571217142562348e-01,3.094921198970436160e-01,7.950829834949373065e-02,-7.094701284150628506e-02,9.031739443935953016e-02,2.481758743524551392e-01
3.266323704139814654e-01,2.832199357496356651e-01,3.336100754993295281e-01,3.641261701015311575e-02,-2.493396004797778301e-02,3.110127947987198493e-02,1.047895923256874084e-01
3.286298384365266556e-01,2.441154105045927336e-01,3.509104531344820477e-01,4.684195243861936225e-02,-2.692061536394995541e-02,3.925298277477544395e-02,1.513314247131347656e-01
2.950740311853051190e-01,3.112865576679993973e-01,3.789760747076981739e-01,8.438045167988830753e-02,-2.274723588178114916e-02,3.044592974694387832e-02,1.778636872768402100e-01
3.117898092971329027e-01,3.105144753638215960e-01,3.288718981988770218e-01,6.441808258381245475e-03,6.235058035151693108e-03,-7.275753697432510436e-03,2.674206160008907318e-02
3.303743420728676994e-01,3.267843630714524772e-01,2.958152449049512578e-01,-7.247395965981815597e-03,-5.189631581973926620e-03,-3.278136347499043066e-03,3.679350763559341431e-02
3.273213003815109712e-01,3.220436210872388294e-01,3.021881999418392084e-01,-1.193732765678009143e-02,-2.383860899608811548e-02,-2.237967490459404074e-02,6.451177597045898438e-02
3.471220752759240358e-01,2.511746450893065918e-01,3.702789995082820251e-01,2.790642631213282807e-02,8.194311905724158129e-03,-1.697826729749108560e-02,1.239618137478828430e-01
3.820699629626119753e-01,2.942824613480006235e-01,2.823061793941639142e-01,-1.074941407621969186e-01,-1.007530017029233255e-01,-1.040182146512975275e-01,3.263116478919982910e-01
3.473968315757086645e-01,3.077968539092714728e-01,3.108926151352738310e-01,1.820941314509160001e-03,-2.417857320125590785e-06,-2.288756909449494309e-02,5.510553345084190369e-02
3.478682248533887522e-01,3.187131528636139022e-01,2.937598495536402621e-01,-1.267473239389508947e-03,-2.951195047239128615e-03,-1.123544789166232467e-02,5.108673870563507080e-02
3.598363751798144827e-01,3.477528810456699260e-01,2.426039402562973346e-01,-2.595550848342705053e-02,-6.938876253076935174e-02,-4.101815295141168771e-02,1.843524128198623657e-01
3.200757354277887212e-01,3.596392630734956963e-01,2.958291134775729581e-01,-4.383983903681943489e-02,-5.007976211224320073e-02,-4.754257304285137986e-02,1.522599160671234131e-01
3.564341192065355601e-01,3.785601401919257425e-01,2.456162670835389528e-01,-7.975091000197170876e-02,-6.801707266650584838e-02,-1.467311963485826709e-01,3.358151912689208984e-01
3.224866632894168306e-01,3.532635899841414240e-01,2.858143328773004033e-01,-8.865033752416160220e-03,3.312658487921730371e-02,1.078348349336647263e-02,8.542522788047790527e-02
3.063599560087288953e-01,3.504905313951898749e-01,2.452466089945496974e-01,7.692615440784873748e-02,1.115957566527528422e-01,-8.806016238609572222e-02,2.945451140403747559e-01
3.271960314812648596e-01,3.467260142257260203e-01,2.889490027621290924e-01,-5.414257174588380656e-03,4.275488451683182207e-03,3.267905026690504609e-03,5.259314551949501038e-02
2.977690939882775556e-01,3.407109363820215453e-01,3.131911301017307747e-01,-1.113318784361795209e-03,2.036036219620885462e-03,1.166968525242614158e-03,3.794509917497634888e-02
3.905708099938904887e-01,4.388897354928639194e-01,1.577921561058102939e-01,-3.940158847145629195e-02,1.061614170656162287e-01,-1.463913984654640829e-02,3.269240558147430420e-01
3.415448485455550576e-01,3.967268379750927276e-01,1.597245018500173253e-01,3.428465019845193962e-03,1.085967060438818577e-01,-1.878816544962608887e-02,2.874210774898529053e-01
3.603066291557450174e-01,2.482764134010239654e-01,3.575739164177269558e-01,1.109465696636459386e-02,-2.248897433269518489e-03,4.817618076235512768e-03,1.127216294407844543e-01
3.234097541779095697e-01,3.896873266639502287e-01,2.612687278238162714e-01,1.044350955926046792e-01,8.285402996116295049e-02,-1.111995287063526350e-01,3.205982148647308350e-01
2.089344802602146611e-01,4.293374560279683561e-01,2.544277548210117645e-01,3.489376630628521214e-02,1.742799217898626796e-01,-3.424174475153683034e-02,3.727075755596160889e-01
3.312742855636002237e-01,3.057668155538700860e-01,3.177369815536719710e-01,-1.182186288039426729e-03,-5.005815747050557096e-03,-2.240851043599694902e-03,2.414578199386596680e-02
3.397517082427929935e-01,3.080310121187910810e-01,3.090172529474799479e-01,-1.963873128717757467e-03,-2.868265730865840989e-03,-6.588322729529638710e-03,3.379882127046585083e-02
3.482769021440528801e-01,3.262559367263298538e-01,2.656234187291138804e-01,1.478751242713318131e-03,2.318628554904667884e-03,-1.735652192601384869e-02,8.014266192913055420e-02
3.411982380512350033e-01,3.093933903828376963e-01,3.073384300807316394e-01,-3.185605945994574029e-02,-3.356928582487191809e-02,-3.153767857835227534e-02,1.024212911725044250e-01
3.411502804188361604e-01,3.031496400819502224e-01,3.083117466863022904e-01,7.898707397972793429e-04,-1.251194647133600790e-03,4.651282569135359139e-03,3.668792918324470520e-02
3.432451346769990752e-01,3.092919031287452158e-01,3.026446607310333548e-01,-1.763278616390822565e-03,5.681340551028581272e-04,4.455435722667435219e-03,3.863355517387390137e-02
3.410360821255531416e-01,3.084042331790678437e-01,3.068044958855998261e-01,-5.138227337688211363e-04,3.061500620696147351e-04,1.157276083048501937e-03,3.353640064597129822e-02
3.416849285845727779e-01,3.031953269369357384e-01,3.083728993742363977e-01,-2.102518766193918801e-04,6.252650997371069852e-04,4.577131315421010399e-03,3.705576807260513306e-02
3.388416382125069015e-01,3.081494589106440474e-01,3.095698334177441335e-01,-5.994989893120551954e-04,1.367363470263475858e-03,8.657410557073221685e-04,3.015574067831039429e-02
3.509745935225103142e-01,3.330140880371289525e-01,2.646247736350912372e-01,2.790284483293718927e-03,-5.090022257968860285e-03,2.325533273631701439e-02,8.917117118835449219e-02
3.444045928040225246e-01,3.154856055096497136e-01,2.988562520848495607e-01,2.872401165964221220e-03,-7.739581423617807217e-04,3.073997484717087836e-03,4.060350731015205383e-02
3.397548281860030550e-01,3.095544853047026423e-01,3.067960642655810921e-01,-5.726362110707407032e-04,1.587680692801255226e-04,1.290882990993277813e-03,3.176528587937355042e-02
3.408143328114120463e-01,2.680742295538583453e-01,3.483675150637020046e-01,4.069037952464897925e-03,-3.781307274595625996e-03,5.997568152366857842e-03,7.809014618396759033e-02
3.440904616992097043e-01,2.883182930128413979e-01,3.133453902867286422e-01,-2.519898544820163284e-04,2.274978438407071913e-03,8.981357122227964437e-03,5.097829177975654602e-02
3.433558970122388976e-01,3.456914108881295467e-01,3.184310278404845485e-01,4.206240904022336830e-02,-4.677106581998045909e-02,5.025651393245891135e-02,1.418887078762054443e-01
3.275267514713893768e-01,3.143715087557972798e-01,3.512416414943531073e-01,5.348670612691268367e-02,-4.369430607731090987e-02,4.548099965425552588e-02,1.468436419963836670e-01
3.659689052590534564e-01,2.789567291438321273e-01,3.316812841963672209e-01,1.188175369234785190e-03,4.605287593318941079e-04,2.507384490304458147e-02,8.748876303434371948e-02
3.341409258588576847e-01,2.956540677521970473e-01,3.270323599882779542e-01,5.918811596254426426e-03,-6.669070752293123662e-03,3.539027151935865943e-03,3.916994109749794006e-02
3.156000023035270274e-01,3.005217617066044400e-01,3.415336781301673286e-01,-1.466530473465578466e-02,-1.591216106421689501e-03,-4.235703504905479790e-03,4.469425231218338013e-02
2.827821768318369844e-01,3.255691648960328810e-01,3.477536624598417392e-01,-5.172655586379621903e-03,4.955761712220368336e-04,1.234297597890882938e-04,5.790628492832183838e-02
2.163330796345025453e-01,3.009642529420402668e-01,3.530298928118328905e-01,-1.162130367132375164e-01,7.742052816577595087e-02,5.520459281701363408e-02,2.862176001071929932e-01
3.087119452174979517e-01,3.301644266945089612e-01,3.090238674728859603e-01,-5.809468234822162507e-03,-7.935957984343320823e-03,-5.700043043151858078e-03,2.900472842156887054e-02
3.202398937483642571e-01,3.748656978854544852e-01,2.757598797363475795e-01,-1.177659325084547959e-01,-9.312648928244607327e-02,-9.083361594403356609e-02,3.158615529537200928e-01
3.376042136762696932e-01,3.089221522432590294e-01,3.105455254650908992e-01,-2.016359198494166102e-02,-1.202097049972363114e-02,-2.279163502496561050e-02,6.316907703876495361e-02
3.065278968997916520e-01,3.184269325983642429e-01,3.190583004548795398e-01,-4.518775383901833115e-03,-4.500886042745824191e-03,-7.299067794927480840e-03,2.076919376850128174e-02
3.541279337960453466e-01,3.317442442809542813e-01,3.013914748571409064e-01,-1.148426732777046468e-02,-1.657330898525455343e-02,-3.363048832624256773e-02,8.194171637296676636e-02
3.327558802330468635e-01,3.150279574398817672e-01,3.086693410677826543e-01,-3.426312491053854197e-03,-4.843575807157262172e-03,-6.798207973156518598e-03,2.667738310992717743e-02
3.650850084717368604e-01,2.531365877434036959e-01,3.368402111670050769e-01,-1.983879462041111472e-02,-2.704271064852138348e-02,-4.936576229119742087e-02,1.444086283445358276e-01
2.490912645961155802e-01,3.180997834203122543e-01,3.984728191489353422e-01,1.051248840812285396e-01,7.733874341662759500e-02,-5.511328518031978485e-02,2.774498462677001953e-01
3.321849431174881961e-01,3.524807605854151649e-01,2.652161563279995526e-01,4.803295924221782226e-02,5.531519933904679304e-02,-4.850333273566496961e-02,1.715064197778701782e-01
2.304985529602024408e-01,4.147282369514820877e-01,3.637059595288790192e-01,3.177617671983866410e-02,1.351772597557083233e-01,-4.502979800793742438e-02,3.017862439155578613e-01
3.563495120347017209e-01,3.222979265874948984e-01,2.609296514871206618e-01,9.006414954829528724e-03,1.242343418880919974e-02,-3.834139368261203773e-02,1.101445481181144714e-01
3.581300138659792021e-01,2.450848217748431979e-01,3.547639312515517562e-01,5.650123956710710604e-03,-6.048524591237247313e-04,8.755888348561649895e-03,1.128578409552574158e-01
2.822025904439402488e-01,3.635722171558512517e-01,3.367506234568365953e-01,-5.531471814946524587e-04,2.499619276658676670e-02,-1.075012359396243370e-04,8.386496454477310181e-02
3.301940021149846749e-01,3.138691199018429634e-01,3.150423685437953036e-01,3.905931066494342657e-03,2.920568144216470485e-03,-2.805428541970628100e-03,1.853899843990802765e-02
3.195069888271018788e-01,3.238137778037942227e-01,3.356929896821308490e-01,6.191394103035403884e-02,5.995367228655963665e-02,-5.530279179319640831e-02,1.779588609933853149e-01
2.995918106277694615e-01,3.267802505694627491e-01,3.209528588996821696e-01,5.571025819140846581e-03,5.920452760744473152e-03,-7.912136289433874606e-03,3.163545578718185425e-02
2.813361945204976289e-01,3.283585078909320720e-01,3.546415853046396283e-01,7.046010303240109185e-02,1.276721715887357660e-02,-1.740439108320491687e-02,1.429314911365509033e-01
2.092653886182708478e-01,3.939481312491972531e-01,4.131731744541553009e-01,3.622781924340677528e-02,4.207908830222826038e-03,5.707505834903346849e-03,2.052219808101654053e-01
2.904858673612364939e-01,3.272601929473837323e-01,3.304944346659702270e-01,5.554329312290991021e-03,7.121069926329843397e-03,-1.072132930886815494e-02,4.551120474934577942e-02
3.108844743777515185e-01,3.209375533876727138e-01,3.250577950301620778e-01,8.294598076152183766e-03,6.586766256021353398e-03,-8.097745647230527796e-03,2.631995268166065216e-02
3.529663861183169327e-01,2.486415602840758021e-01,3.524384412561156754e-01,2.902966046577902439e-03,-2.925344509856041362e-03,3.205637497540215954e-03,1.044540703296661377e-01
3.115815483752835124e-01,3.357359207471725671e-01,3.095098045187246738e-01,-9.098974767506899305e-04,1.286693699616623309e-03,1.035304826812401876e-03,2.546435780823230743e-02
2.973457089161779532e-01,3.443226446588992795e-01,3.147197989195227308e-01,-2.609512414906967320e-03,1.966001043453815059e-02,1.070557089579922232e-03,5.362765118479728699e-02
3.127182069706905820e-01,3.283629452716706476e-01,3.125022200819450036e-01,-6.630308068651205068e-04,-2.501631194729324933e-04,9.147048586302184824e-04,1.588081195950508118e-02
3.082076749349720313e-01,3.362378664687956098e-01,3.093460452785613546e-01,-2.191582367553617829e-03,1.158970915625439886e-03,1.062618539851809072e-03,2.787301503121852875e-02
3.319719351172137900e-01,3.099109748283914723e-01,3.200851921994557481e-01,-4.251489588050386126e-02,3.371859396413907917e-02,7.099946273962887133e-02,1.559547930955886841e-01
3.417084202499430234e-01,3.161986138184336714e-01,2.933431240877364399e-01,5.230565291979132232e-03,1.352310403408897663e-03,-6.260865571778269703e-03,4.428680241107940674e-02
3.276907944152772090e-01,3.200821124133197415e-01,3.038892303203430401e-01,6.001738251413570036e-03,2.393750415911571720e-03,-3.975652166924223234e-03,2.481890656054019928e-02
3.227854012937340089e-01,3.371109663510616361e-01,2.990259421448223098e-01,6.303300841411203261e-03,8.626652212044824686e-03,-1.910251167362278079e-03,3.825572878122329712e-02
3.372323609744395378e-01,3.160062443864011250e-01,2.927628665701097477e-01,6.180977891096063083e-03,2.639204083367136140e-03,-6.730983089766454097e-03,4.189984872937202454e-02
3.367967257371514700e-01,2.969249928148991469e-01,3.207907078751300878e-01,1.198430254653626466e-02,4.601675898085202075e-03,-1.381855525164266997e-02,4.769710823893547058e-02
3.301004362344351906e-01,3.071878374218277030e-01,3.169558285107133000e-01,8.562705974432589405e-04,4.752100130236525111e-03,-1.821208411558845972e-03,2.182860858738422394e-02
2.441537512575299163e-01,3.954739704348333440e-01,3.581760578899084724e-01,1.753460143263294718e-02,-1.483814098420057903e-01,4.831980937922514263e-02,3.043401837348937988e-01
3.418763690340976269e-01,3.274579466820750628e-01,3.198833731875379560e-01,3.941600913849014481e-02,-4.685889022843525709e-02,5.186668272224024406e-02,1.403319984674453735e-01
3.204571838277491813e-01,3.339153177248992965e-01,3.102440197287832935e-01,5.632745135743799647e-03,-9.395292273016849979e-03,6.387107715641208994e-03,3.008759953081607819e-02
3.148100593461995444e-01,3.927725885101803760e-01,2.845359835638851531e-01,6.360907957935946558e-03,-7.782280611468822551e-02,4.303983431983399513e-03,1.664362996816635132e-01
3.379569473720658301e-01,3.445324721899113984e-01,2.912103296407432818e-01,1.299517596218248416e-02,-2.023645295572240252e-02,1.332954295093409167e-02,6.931135058403015137e-02
3.327692130365081380e-01,3.360621379141586762e-01,2.884019994875750004e-01,8.048276198465783779e-03,-9.533360798203644945e-03,8.446032343473776349e-03,5.297524482011795044e-02
3.343179815521626352e-01,3.261053101037369450e-01,2.946860160362930747e-01,8.229524369052642827e-03,-8.849667253094222960e-03,3.098967373444349877e-03,4.218521341681480408e-02
3.152166718690386227e-01,3.427929945912296938e-01,2.925304811854630427e-01,-1.351293769566513101e-03,-8.510050005838884837e-03,-1.310020601060981433e-03,4.613683745265007019e-02
3.017854213402643149e-01,3.429276969957714138e-01,3.214481440136551238e-01,-8.466292171785938167e-03,-1.377645813464118026e-02,-4.814734898136792569e-03,4.609004408121109009e-02
2.959442429976749112e-01,3.377027697453620081e-01,3.181870895325284998e-01,-3.309029389741875021e-02,-3.426430140466440316e-02,-1.246866008741905063e-02,9.264514595270156860e-02
2.676296888625221415e-01,3.470834437858630883e-01,3.396357218059722904e-01,-8.522909674930700258e-03,4.816151145508380804e-03,4.694649692475379513e-03,7.829587161540985107e-02
3.100868681035988117e-01,3.368618818232629875e-01,3.072020512960894068e-01,-2.815957062882555508e-03,-5.357213091232173284e-03,-2.331962645301493154e-03,3.047403320670127869e-02
3.265713662841049358e-01,3.284745083821053457e-01,2.948155866519480139e-01,-8.320878524070202467e-03,-4.026989307619795004e-03,-6.725816431895841919e-03,3.826954588294029236e-02
3.335534423504225576e-01,3.400090668208815559e-01,2.809718317251376218e-01,-7.214105555864777988e-03,-6.789884416805423012e-03,-3.365641096746282805e-03,5.894377082586288452e-02
2.563410223934622922e-01,3.563730689745286950e-01,3.427787020862104184e-01,2.956670811661655639e-03,5.204354874695017383e-03,1.285176109899304733e-04,9.454563260078430176e-02
2.606078667626918755e-01,3.474260590049008668e-01,3.285256765167791637e-01,1.471082286914355414e-03,2.419454298778051654e-02,-5.644664778755598827e-04,8.953938633203506470e-02
2.884055597127317405e-01,3.469355935008683334e-01,3.270508346682513556e-01,2.870125433913338266e-03,4.581721103642999969e-03,-4.059737781866436940e-03,5.286252498626708984e-02
2.503615331300840241e-01,3.585638767242310676e-01,3.361921186613608392e-01,-5.819773237718672311e-03,3.271922795748583718e-02,6.915293221136356930e-03,1.150838062167167664e-01
1.959952566291090492e-01,4.182065401305935515e-01,3.303967708084946664e-01,-6.894021318654567319e-03,1.175794095115141324e-01,-2.302686199566714251e-03,2.814415097236633301e-01
2.896290712700294034e-01,3.272372889193899681e-01,3.389641524642391102e-01,5.257351023285598661e-03,5.050337956007211991e-03,-7.003956437589450336e-03,4.795338213443756104e-02
2.855633405853463813e-01,3.484645184920432404e-01,3.268695062609734414e-01,1.221105506193997416e-03,2.690364625488623346e-02,-7.323538366361835496e-04,7.240201532840728760e-02
9.874567217580065837e-02,3.921142014719101176e-01,3.930249769778265678e-01,-1.582180902358429342e-02,1.556764808583593895e-02,1.476603133488103977e-03,2.963405251502990723e-01
3.098285728485849488e-01,3.278668393022485250e-01,3.203155536011884075e-01,1.359069589527527782e-03,1.160054960746821498e-03,-5.536225290933082833e-03,1.864716224372386932e-02
3.838233223952952633e-01,4.467247439380329643e-01,9.818375936627199430e-02,5.111445700417403815e-02,1.119351280438914548e-01,-2.156993799745216336e-02,3.877317905426025391e-01
2.656676618517521127e-01,3.489550446068481193e-01,3.489987363212208593e-01,9.892849783898764043e-03,2.211563657287275372e-02,-1.059115516909832529e-02,9.506764262914657593e-02
3.720734128253828099e-01,2.456852656544767366e-01,2.245373337676660197e-01,-5.255253015172282882e-02,-5.963620585577832089e-02,-1.436899970204212063e-01,3.162107467651367188e-01
3.638877945951821680e-01,3.219441721838361414e-01,3.212176853067392202e-01,-4.284660689809687006e-02,-4.948959740323509437e-02,-6.027465084623426228e-02,1.598265469074249268e-01
3.469349550443850960e-01,3.120308139733216635e-01,2.784070093812529012e-01,-3.198433775909679914e-03,-4.186236901075137545e-03,-2.336752563087063361e-02,7.241448014974594116e-02
4.300520231155383621e-01,3.468189042820620793e-01,1.871390227528910433e-01,-5.678572216328569428e-02,-1.009247384910174627e-01,-1.026865169498351327e-01,3.429007232189178467e-01
2.205836196230177570e-01,3.554712081105154131e-01,3.657447853872169974e-01,-1.943509683030349849e-02,2.836474415851631889e-02,6.820119442076213664e-03,1.528802514076232910e-01
3.021522910265984629e-01,3.190450516071901554e-01,3.276033103461172269e-01,4.774581577752035413e-03,-2.651688934227643731e-03,6.356709874562886838e-03,2.671870775520801544e-02
3.031882903508120730e-01,3.144880432328368558e-01,3.326146039497496765e-01,3.294717972043733484e-02,-3.081475426186071342e-02,2.838493464093460109e-02,9.583002328872680664e-02
2.858545598949322475e-01,3.433467553826723972e-01,3.105379871586725904e-01,5.123610198721577618e-04,-1.091275632295672128e-02,6.699832415087698771e-04,5.343144014477729797e-02
3.101486780599910231e-01,3.219720904264561923e-01,3.450457351930698580e-01,2.785344137389093172e-02,-2.231043677581416584e-02,1.501953397258198528e-02,7.377305626869201660e-02
3.020860789625379739e-01,3.435318362344545462e-01,3.125522980524869654e-01,1.204254295044048309e-02,3.841518293602098205e-02,-1.302461696722595139e-02,8.224768191576004028e-02
3.841856155571859999e-01,3.908275590097932128e-01,2.324472711389847235e-01,9.152404503360104734e-03,4.836122654672875970e-02,-4.424545381772899966e-02,1.929175555706024170e-01
2.860687759836561539e-01,3.410540126607803368e-01,2.972460016511605518e-01,2.962575736007237726e-02,5.685536139512840231e-02,-2.581433299850236993e-02,1.298595964908599854e-01
3.188684802842415844e-01,3.163433849616017479e-01,3.181143072850867171e-01,-2.529324270675851419e-03,-2.864121016296941082e-03,-2.310323065206742327e-03,8.053279481828212738e-03
2.667906388511204208e-01,3.423187084652634105e-01,3.357456675920089673e-01,3.400113722253819692e-02,-5.896027886988466915e-02,1.681440383137238967e-02,1.414093077182769775e-01
2.697825664043257965e-01,3.401231857173230289e-01,3.469528647412255529e-01,4.276936907112079307e-03,-5.673910576752511092e-03,5.075379102037444121e-03,7.552208751440048218e-02
3.182576110127955937e-01,2.939042770123052040e-01,3.478880537455721900e-01,1.647616716719507712e-02,-1.078751693308442313e-03,5.852903303587683108e-05,5.486840382218360901e-02
3.231707753475829281e-01,3.051815335835688092e-01,3.630151002539029337e-01,1.483299521304084767e-01,7.096219844333788440e-02,-4.265312837157445025e-02,2.986604273319244385e-01
2.404064273922728590e-01,3.505827369957278949e-01,3.476090084354513388e-01,-2.703447478695935463e-02,2.756513115619032075e-02,6.637593749942073511e-03,1.281573176383972168e-01
2.540912209966513235e-01,3.440705065327273049e-01,3.523983713961451048e-01,9.571176083634070839e-03,-3.854307471857669649e-03,4.470472266492727699e-03,9.640697389841079712e-02
3.185270779142360120e-01,2.849486458965175273e-01,4.466533077857492429e-01,1.641629182341881876e-01,6.612540041207638775e-02,-6.524963233819579267e-02,3.585871756076812744e-01
1.951057196179227793e-01,3.933413561005320580e-01,3.457913668641617866e-01,4.679296153813577996e-02,1.121205524971907869e-01,-2.588290674792999638e-02,2.800425589084625244e-01
2.471202821309015918e-01,3.855955681225488041e-01,3.419848074864779708e-01,5.849422218692888406e-03,6.836231706601389457e-02,2.798816411279794920e-03,1.708351820707321167e-01
3.467629960482326856e-01,2.231099738559044199e-01,2.828780335465077012e-01,-6.812569843992689889e-02,6.281568375346371913e-02,1.174499507291162648e-01,2.803854942321777344e-01
3.239767002638531124e-01,3.186062876423156887e-01,3.114542390984607056e-01,-8.916865354298638552e-03,6.276605263779226965e-03,7.308980998967273129e-03,2.520684339106082916e-02
3.346063162157340010e-01,3.540174315104952507e-01,3.082631919344819837e-01,-1.167241649058166908e-01,6.538622978006020103e-02,1.131791152646753618e-01,3.061213791370391846e-01
4.251707894673973920e-01,2.988806436135069688e-01,2.767264399937702235e-01,-1.980680545509186027e-02,8.248258725803894742e-02,1.361720469838046399e-01,3.105694949626922607e-01
3.420361243786818051e-01,2.914100574010860534e-01,3.293927982161686807e-01,-1.225482449307405998e-02,7.634206512244222018e-03,1.943371606650087097e-02,6.197712570428848267e-02
3.205009812870338592e-01,2.744054420743418099e-01,3.398562805803216902e-01,-1.654952474543373159e-02,1.115282024151189114e-02,9.730239426684030024e-03,6.978873908519744873e-02
2.808874490710571159e-01,3.872012483807780181e-01,3.366943367206293725e-01,-2.003413347820145671e-02,6.268398064275960968e-02,1.246611933823278846e-02,1.481288224458694458e-01
3.158080918354219113e-01,3.064945763854945437e-01,3.363713280088062030e-01,-1.485014717078398869e-02,1.023103637526291861e-02,8.890939548416123758e-03,4.374761134386062622e-02
2.915399462167947986e-01,3.939756870746706219e-01,3.383974633948732547e-01,-2.550699947031189949e-02,6.471117719336753893e-02,1.865412473703418825e-02,1.531247347593307495e-01
2.119131557743243188e-01,3.913331988682217100e-01,2.669795034421664215e-01,-4.627586438052287698e-02,1.358245353699362723e-01,3.522210906006451731e-02,3.013883233070373535e-01
3.598511564750207503e-01,3.540639645316431272e-01,2.458591556436033887e-01,2.731662303612182856e-03,-3.247883122266050928e-04,2.379433692696925236e-03,1.113896816968917847e-01
3.125037239348774087e-01,3.340165815520824144e-01,3.095591415979646599e-01,4.846590529890223292e-03,6.491308479549038821e-03,-5.433872657774983968e-03,2.864053845405578613e-02
3.287834436172860086e-01,3.267521413019545129e-01,2.945337855456525156e-01,8.826621156050649605e-03,7.536664132011891212e-03,-5.013304863644110765e-03,3.983873873949050903e-02
2.878575631869627616e-01,3.491475431794134887e-01,3.316155662282968541e-01,-1.269380267069273628e-02,2.501965031870459141e-02,1.064669863027209451e-02,7.543673366308212280e-02
3.631291577113963664e-01,2.817227534150485990e-01,3.040580025165312006e-01,4.582934325063497266e-03,-2.062917582754654477e-03,-3.758058616837525734e-02,9.808319061994552612e-02
2.787995641449657613e-01,3.545976835737112420e-01,3.361843570777187096e-01,-6.923777139452657638e-03,2.734102085328620965e-02,2.381908786379309181e-03,8.421485126018524170e-02
3.535566174262196326e-01,3.460727654884246385e-01,2.460940036365149020e-01,1.896527312139899279e-03,1.216945085378184650e-03,-1.588256076613638740e-02,1.075731739401817322e-01
3.847298724414313087e-01,1.636943499270919755e-01,3.293225889903406145e-01,4.842120638881007577e-02,2.474571916509005903e-02,-1.011581472904712481e-01,2.815128564834594727e-01
3.467663193481910766e-01,3.450715093806404621e-01,2.469539035242688807e-01,8.307488246474406882e-03,1.939070295376596129e-02,-2.045089819673928319e-02,1.112923473119735718e-01
3.481145766587327439e-01,3.336338119243191791e-01,2.921263237321754525e-01,7.716326749881746022e-03,6.836916674829248211e-03,-1.757260786904828523e-02,6.147250905632972717e-02
3.125464624724593188e-01,2.883094897220132014e-01,3.537201686311041149e-01,-2.845319593114159842e-02,5.860687071873881687e-03,1.251258024563948155e-02,7.925983518362045288e-02
2.792195970697156082e-01,3.315251077888551334e-01,3.551749248608923604e-01,-2.660315217568691784e-02,1.198586686076745685e-02,1.103093112427308738e-02,8.632153272628784180e-02
3.304362457309394374e-01,2.729479482858035988e-01,3.491991887586580745e-01,-1.115807706064516659e-02,6.460617603183271655e-03,2.327190748831716068e-03,7.246086001396179199e-02
2.741537380813675040e-01,3.301698241655295352e-01,3.423485469269262893e-01,-9.187420235584265599e-03,-4.620989017339863746e-03,-6.659016555989064924e-03,6.647286564111709595e-02
3.140454567256946161e-01,2.857099711607347103e-01,3.474391104754092630e-01,-8.892120334636018433e-03,4.353414432366036098e-03,2.433043888738475793e-03,5.635677650570869446e-02
3.040632417284487299e-01,2.889804415312410280e-01,3.417474754049317776e-01,-2.773950278429135677e-02,-1.025636926219246521e-02,-1.070891101038460094e-02,7.200026512145996094e-02
2.227047216363006732e-01,3.514929960283647015e-01,3.806150981497718466e-01,3.822808891044768287e-02,-3.301440638995114391e-02,-6.654165975270656414e-04,1.698247492313385010e-01
2.755820128165914484e-01,3.570982643599650563e-01,3.296378229160452644e-01,1.880982310375022351e-03,-3.166212682489345787e-02,-1.052486347489327940e-03,9.045391529798507690e-02
3.067152752938190341e-01,3.397057957433169961e-01,3.022341184956752191e-01,-7.269548456702799519e-03,-1.213606912710165145e-02,-7.338213915937136581e-03,4.492472112178802490e-02
2.863717245167868852e-01,3.626911140139161271e-01,3.338027525677633722e-01,-1.185263018342899537e-02,-2.804115621603704353e-02,-1.091745638737484474e-02,8.713432401418685913e-02
3.112773229837649813e-01,3.620059721872611047e-01,2.856877868769085449e-01,-1.232775054732814998e-02,-2.675700921056720777e-02,-1.109582383704928350e-02,8.659923821687698364e-02
3.039056760673217727e-01,3.445086067122171136e-01,3.070635846214991305e-01,4.550159842892158649e-03,-9.504965442541681020e-03,5.451337546117234444e-03,4.418875649571418762e-02
3.021208075221635259e-01,3.390064105789398208e-01,3.150667009709295363e-01,-2.028617583681913486e-03,-2.434055407765757430e-03,-3.991106295913257780e-03,3.359365090727806091e-02
3.566250382028814947e-01,2.656663885690900284e-01,3.308335886338931719e-01,-4.481226340135209540e-03,-5.053967047279372612e-03,-5.620900379287224746e-02,1.273104399442672729e-01
3.071461772857985717e-01,3.402337730426869267e-01,3.089680855837524387e-01,8.276467330240033912e-04,-1.700246937730283923e-03,-5.918070391486236542e-05,3.238153457641601562e-02
2.958140835069541508e-01,3.375055420199223333e-01,3.173309483576791101e-01,2.359688855782535091e-03,-5.714869337554193823e-03,5.592765671721298786e-03,3.889221325516700745e-02
3.116966581644133316e-01,3.359452887080316419e-01,3.068003221854646023e-01,2.980499038023142529e-03,-2.448607887180309032e-03,1.351852276195486362e-03,2.794314362108707428e-02
2.270953184868916286e-01,3.819985643157946531e-01,3.848694883915571574e-01,3.140336488152395411e-02,-3.456472585612743731e-02,8.358418249368769828e-03,1.766358911991119385e-01
3.440604081089440602e-01,3.137721741258714947e-01,2.899207212789851607e-01,-2.665045668332972299e-03,1.775205639315355615e-03,7.770846907488623834e-03,4.919966310262680054e-02
3.430221693937663408e-01,3.398352903760720745e-01,2.855786814564921228e-01,-4.823131881955269699e-03,1.089346846683483284e-02,4.561383665800579183e-03,6.012532487511634827e-02
3.261218827250102481e-01,3.474540054390763411e-01,2.725753088759897969e-01,-3.385875958223393857e-03,1.499601276903287164e-02,3.899849589545730313e-03,7.224415242671966553e-02
3.424618275348236818e-01,2.678694851418499390e-01,3.413794353693139771e-01,7.984189353058741140e-03,-5.747003579296417787e-03,6.239378484391489010e-03,7.675653696060180664e-02
3.367839757624102037e-01,2.757612473189064994e-01,3.320106224349991808e-01,-3.474541031755838671e-03,7.218841272018465191e-03,1.498494193590943838e-02,6.573791056871414185e-02
3.899660210163691798e-01,2.489615740555099488e-01,3.230561452923403354e-01,2.174284733910934395e-02,1.367998288499609923e-02,-4.817908718805519186e-02,1.544925570487976074e-01
3.503254570275444180e-01,3.168386684013314580e-01,3.023866229712745546e-01,-1.219089451909547567e-03,1.132283707383295590e-03,1.535495783760120608e-02,5.029719695448875427e-02
4.024478853675148016e-01,4.058830129217530502e-01,1.988114252577986296e-01,1.175974001961300683e-02,-3.734791096064069005e-02,1.477240479398424788e-01,3.350310027599334717e-01
3.968610606564657584e-01,3.772750936580536729e-01,1.378996623283417766e-01,3.172600770352562369e-03,-1.712107205896245187e-03,7.664094037394579562e-02,2.829012274742126465e-01
3.664270154725448592e-01,3.891755675500776501e-01,2.485364610867574764e-01,-1.040417744470981468e-02,5.941533920510856659e-02,3.782501666886386310e-02,1.797359287738800049e-01
3.449890219018836302e-01,3.400529737374846095e-01,2.570157439849036218e-01,-5.990333546919642850e-03,1.645910177795638016e-02,5.566741473242157318e-03,9.133863449096679688e-02
3.972968095184648551e-01,3.976696781764736399e-01,1.037270338268737879e-01,1.168360460579337401e-02,-2.004412246419273128e-03,3.831617493262742119e-02,3.018588721752166748e-01
3.554027716229158362e-01,4.070242721851811685e-01,2.006073164455001168e-01,-6.709727703634918439e-02,-1.334239629188581078e-01,-3.258161053045256772e-02,3.235952258110046387e-01
3.539311040135372233e-01,3.540450161440092391e-01,2.549113906890713155e-01,2.225655835242446815e-03,-1.132234428936997918e-02,7.982901896743456764e-05,1.010725572705268860e-01
3.025942765840680670e-01,3.425164070597455090e-01,2.974615076112793188e-01,-3.430343311854871981e-03,-1.464571082038263611e-02,-3.786646076452383769e-03,5.046623945236206055e-02
3.030996706444323840e-01,3.494238893223063358e-01,2.939411623689922037e-01,-5.021929294999758625e-03,-1.600287362227995058e-02,-7.857519189061592862e-04,5.915961042046546936e-02
3.409213563081658349e-01,3.447772330936747509e-01,2.700592501737003048e-01,-5.881046313043223304e-03,-6.175979980495001007e-03,-6.456748441206505360e-03,7.518509775400161743e-02
3.611389600387022170e-01,3.597618091271373997e-01,2.156279454138785301e-01,-1.539932925393390538e-04,-8.912913921399820763e-03,-2.665201959393535130e-02,1.527885496616363525e-01
3.488396010599685293e-01,3.407674558114151542e-01,2.262330891052037052e-01,-1.086713449995077747e-02,1.823519204230986471e-02,3.963077048674612524e-02,1.420262753963470459e-01
3.997257448677423719e-01,2.875783263361382236e-01,1.964951162810479046e-01,-3.083309578004661544e-02,4.308551393905054455e-02,1.204887163811842743e-01,2.882041931152343750e-01
3.179663768261257184e-01,2.606570228714583104e-01,2.617792933476840722e-01,1.035169458121089903e-01,-9.964607283577674168e-02,1.359457266004767684e-01,3.472755551338195801e-01
4.171778141256985428e-01,3.865305235687046537e-01,2.408129410386418146e-01,7.358684756221657575e-02,-1.293027256660916058e-01,1.507932461332992802e-01,4.015684127807617188e-01
3.323825335599667197e-01,3.202333564104528629e-01,2.976436823959591749e-01,-8.066842899971763195e-03,4.875879472183273014e-03,3.869469294818813840e-03,3.526761382818222046e-02
3.392916677370468315e-01,3.149828465349567286e-01,3.022356508611030446e-01,-3.136209407606231798e-03,1.511148056454012173e-03,1.745810499859635871e-03,3.329835832118988037e-02
3.386750660592691697e-01,3.134575852838942800e-01,2.908515351666446924e-01,-3.548683715775715133e-03,1.920269573355079182e-03,7.490160687989588090e-03,4.397922009229660034e-02
3.114927538919949890e-01,3.679781642571359757e-01,2.628132016827864903e-01,-4.328526474690121834e-02,1.158492987514830597e-01,6.564385029398552007e-02,2.590778768062591553e-01
3.171131573707465789e-01,3.130543630065714678e-01,3.252841384500436694e-01,-2.213048643859004752e-03,3.325709244164341567e-03,1.396949995911323222e-03,1.304343715310096741e-02
3.389460210116102545e-01,3.094165451643918763e-01,3.098847057621557655e-01,-2.197893819708846615e-03,2.550668728212239066e-03,5.969618261375857909e-03,3.161176294088363647e-02
3.701462408069179366e-01,1.530327946014120033e-01,3.509423967729261573e-01,6.704044445762347149e-02,2.663891629898446078e-02,-8.653291111590605267e-02,2.853307127952575684e-01
3.245517819707824381e-01,3.126274486819358711e-01,3.130013428480178383e-01,-1.472823737250883664e-03,2.591852663480316218e-03,2.587589168653884643e-03,1.358744502067565918e-02
3.318012831452092359e-01,3.091337355353162009e-01,3.129812374316343071e-01,-1.189536742306647509e-03,3.499253660626169132e-03,2.267101164994760141e-03,2.231156826019287109e-02
3.395305156106485645e-01,3.116010799379245744e-01,3.103936084397974082e-01,-3.256519224285390427e-03,3.218645438078398657e-03,4.975742177582277020e-03,3.086102940142154694e-02
3.143086951455090761e-01,3.454453720693541618e-01,2.986330754865302861e-01,7.274304670974720763e-04,2.746838774033436882e-03,-1.838946623592371907e-03,4.168539866805076599e-02
2.991467966222947084e-01,3.381415125680156120e-01,3.043544110376388279e-01,-6.600497930997481673e-03,1.643277866384447103e-02,7.224792679435956128e-03,4.941698908805847168e-02
3.221587776219467236e-01,3.468906795350581440e-01,2.932109174987142519e-01,-4.589440415886014181e-03,7.268443441362490258e-03,4.195952822032137861e-03,4.939715564250946045e-02
2.915584773146646103e-01,3.164998720648619090e-01,3.393288378753299694e-01,6.338836802294118764e-03,-2.383166137307870299e-03,4.191847894564851296e-03,4.362243413925170898e-02
3.114753422778352987e-01,3.305773470075870635e-01,3.109177895016083659e-01,-5.381910394021222066e-03,7.580897068994228369e-03,5.781068345410151320e-03,2.711853571236133575e-02
3.113469037326550559e-01,3.384426911050535391e-01,3.012210155333682748e-01,-5.031066068086106034e-03,5.496873085882180918e-03,2.976055305216602880e-03,3.611421585083007812e-02
3.094156179507304150e-01,3.393508685541616332e-01,3.084895802160321221e-01,-1.108974150990442355e-03,7.033844581148616243e-04,5.237019122087781383e-04,3.050728514790534973e-02
3.016950296334298121e-01,3.397201035659548340e-01,3.151958619987464960e-01,-1.620662615706428694e-03,1.740894845778177737e-03,3.506511039646781867e-03,3.418577462434768677e-02
3.176828806927876059e-01,3.347955279921206451e-01,3.007848108144076105e-01,-5.532136966181743984e-03,5.728008641428442189e-03,4.461788925539522145e-03,3.342939913272857666e-02
3.102803643398668876e-01,3.394088849911477412e-01,3.054480802548865115e-01,-2.485697725769904064e-03,3.261957655189481886e-03,1.060677280635422123e-03,3.265595436096191406e-02
3.090263887977703905e-01,3.347943181510598665e-01,3.121128123645272590e-01,-8.000693728561829266e-04,1.270880522600469032e-03,7.949857162975472154e-04,2.454879134893417358e-02
3.122603173243504449e-01,3.316771165849462522e-01,3.111264671793110281e-01,-2.163370972871330334e-03,4.721586487212959485e-04,2.609728369915633459e-04,2.037712186574935913e-02
3.417371908571351646e-01,3.455165998786282056e-01,2.551302468831150305e-01,-6.154326601115371782e-03,4.947249219593857772e-03,1.188291040216289500e-02,9.194038063287734985e-02
2.637096307228547487e-01,3.611623479868663056e-01,2.943136840498568052e-01,-4.792667541942834813e-03,5.824866131615097364e-02,3.055820667434532012e-03,1.331421583890914917e-01
2.822863135987788707e-01,3.990109162394036568e-01,2.552529988697730956e-01,-3.337586601459621716e-02,1.207245911220091866e-01,5.654682457610746976e-02,2.723391950130462646e-01
3.283572677509086213e-01,3.387905559610043804e-01,2.824447799410875759e-01,7.800926387435002177e-03,-1.029251157945176853e-02,3.508075950873687336e-03,5.686052143573760986e-02
3.529942681567840301e-01,3.404004626379402709e-01,2.654402562978376290e-01,2.627433303151018810e-03,-2.374849905855734231e-03,5.994272252937882586e-03,8.286793529987335205e-02
3.288446137953507376e-01,3.389966078246843262e-01,2.765192207285125381e-01,9.670819369686422737e-03,-1.103877108581942726e-02,6.870658818602371626e-03,6.449785083532333374e-02
3.303567984652632239e-01,3.268713618566517209e-01,2.935161157642869334e-01,7.978698598550946000e-03,-5.911205949107596440e-03,3.379814505557139637e-03,3.963651880621910095e-02
3.491209790869454488e-01,3.525357629392454895e-01,2.555952626147505735e-01,-3.751749797660659282e-03,-1.222777873474649966e-02,-3.822204965079124307e-03,9.804438054561614990e-02
3.500207624532906125e-01,3.264101645674250540e-01,2.852853172326903497e-01,1.232336669490823782e-04,7.325577129423595539e-04,4.748582922322438366e-03,5.734978988766670227e-02
3.329176042553780301e-01,3.464868618453828542e-01,2.890324166916399817e-01,5.824469779131333756e-03,-1.967239544393516171e-02,1.180314902983066634e-02,6.622876971960067749e-02
3.376301436404642864e-01,3.180208990178999828e-01,2.957014420519236131e-01,5.380993335609455738e-03,-2.493702763893337025e-03,4.482434869853127446e-03,3.855056315660476685e-02
3.465536191454589021e-01,3.051705530288806867e-01,2.896590777959566210e-01,9.354855330110312811e-03,-1.002519765140794279e-02,2.695597618576162785e-02,7.306849211454391479e-02
4.689361815520884935e-01,1.716283756730714316e-01,3.483018832535261233e-01,-3.597966269076386531e-02,-3.533943084983046101e-02,-8.105610227894194386e-02,3.072776496410369873e-01
3.104332310609227985e-01,3.078224852701614833e-01,3.392127992248665791e-01,-5.697411527485755044e-03,-2.921360583804562868e-03,-2.619929276378950116e-03,3.246216848492622375e-02
3.194789133990162955e-01,3.119320358458751996e-01,3.252326662596088935e-01,-1.544954515768124682e-03,-4.605489200873422867e-03,-1.123424566255237182e-03,1.442436780780553818e-02
2.665930196433694555e-01,4.077223883516014058e-01,2.611718758525698458e-01,2.544805144309150724e-02,1.964425513744645913e-01,-7.071642861837910965e-02,3.916966319084167480e-01
3.013575304267841481e-01,3.501687737691231983e-01,3.164148612494950275e-01,-3.033916680191505334e-03,1.445130475424236810e-02,1.602891176882970678e-03,5.036006495356559753e-02
2.650671622708856701e-01,3.235197159179937776e-01,3.362196082763559968e-01,4.428264573385908009e-02,3.417342816545310136e-02,-2.553737769719182857e-02,1.251524239778518677e-01
2.968791104687449889e-01,3.955386580872348734e-01,2.318976367767562330e-01,4.765821862129870912e-03,1.338893024224143136e-01,-1.866668426869203673e-02,2.743352949619293213e-01
3.040310234399489220e-01,3.392719989631085564e-01,3.085746457519861763e-01,-7.683395781858886426e-04,4.276026889901864483e-03,2.053017742237019539e-03,3.423036634922027588e-02
3.572920399582568129e-01,3.423212429913107813e-01,2.632000930862401500e-01,2.133486081712326118e-03,-1.310764611306410509e-03,-6.458378688892584332e-03,8.838964253664016724e-02
3.068070779674182402e-01,3.308408043044631652e-01,3.172138142527612947e-01,2.047613427545459750e-03,-1.465158911751633436e-03,4.365364689620726893e-03,2.262730523943901062e-02
2.948192554769226148e-01,3.174193109451104444e-01,3.375900928397371215e-01,6.307697046284418269e-03,-2.356882528658242430e-03,5.172443081244370265e-03,3.987194597721099854e-02
2.980370796305282233e-01,3.318350429023116943e-01,3.195989541797706335e-01,-4.684676891769263933e-03,-4.086291375757576672e-03,-7.266327011864174082e-03,3.395290672779083252e-02
3.197657178028555092e-01,3.352777897072291569e-01,3.100323598135794056e-01,-6.463008228445957584e-03,-9.504325856308528525e-03,-6.196381419512342337e-03,3.158861771225929260e-02
2.963056667586190795e-01,3.320341634252194640e-01,3.271479392898681282e-01,-5.150288863486022529e-03,-3.210991306982017342e-03,-6.717555052954172351e-03,3.703657165169715881e-02
3.034235033599793629e-01,3.451933223492863467e-01,3.175098964059693274e-01,5.153660994412443894e-03,-1.209317363617461519e-02,3.986630205520622777e-03,4.382753744721412659e-02
2.676804264280234769e-01,3.492791162290210805e-01,3.261652911979616709e-01,-2.060960390434119632e-03,-1.711208328372997023e-02,-3.731347035144637510e-03,7.899062335491180420e-02
2.823596477168380248e-01,3.494934636205521139e-01,3.259542043152715007e-01,-2.194538168283993295e-03,-6.571536131544801311e-03,-1.476525044039957678e-03,6.026034429669380188e-02
2.988467511146303268e-01,3.441745343708131899e-01,3.143367405828903505e-01,-7.925768885166823438e-04,-3.691835726727533268e-03,-1.661512191691117690e-05,4.043754562735557556e-02
3.107989341009962936e-01,3.385945082976141718e-01,3.080671019782903475e-01,-2.566966837113472677e-03,-7.110993763554645207e-03,-2.453326468058911972e-03,3.233439102768898010e-02
3.525567995602238436e-01,3.527680084293192686e-01,2.916553836264862420e-01,-3.205664859485202189e-02,-1.499578266124045045e-01,-7.934876927858755535e-02,3.052138686180114746e-01
3.359882633712755751e-01,3.503072577694427148e-01,2.733803245112208513e-01,-7.509795985355426692e-04,-1.052098960043834283e-02,1.921601408466265364e-03,7.325375825166702271e-02
2.606407226194134008e-01,3.661910893784811605e-01,3.139633629820244298e-01,-1.521330539442353885e-02,-5.028892317023173075e-02,-1.822561723948306137e-02,1.327921003103256226e-01
3.369754857364949951e-01,3.565908984385365299e-01,2.933226587819718345e-01,5.596881723224043925e-02,-7.816641666500724617e-02,7.222743420452945595e-02,2.156953811645507812e-01
1.274693895878716565e-01,3.889742028521863682e-01,3.467056739835857604e-01,-3.031938753162091715e-02,-8.941041019932664813e-02,-1.079724355124373793e-02,2.936122715473175049e-01
2.956509119292673460e-01,3.326806687064588486e-01,3.271766118531933554e-01,3.941238229368254978e-03,-3.080522694031483360e-03,7.009729527310398604e-03,3.768502920866012573e-02
3.275283770329945332e-01,3.024893350299276418e-01,3.198251383249122726e-01,2.853037361235495617e-03,7.295273462878013385e-03,-6.268688858308599232e-03,2.820254676043987274e-02
3.382354106305990316e-01,3.208710826755400425e-01,3.473228276081334887e-01,6.041723112399156881e-02,4.343297429597580556e-02,-5.874835651389283958e-02,1.658493280410766602e-01
3.028939447823063014e-01,3.109465503329402747e-01,3.479612898099366802e-01,3.615433574344355944e-02,3.922685241802920976e-03,-2.760232296023219876e-04,7.550363987684249878e-02
3.274831890818087343e-01,3.048203191045522065e-01,3.159779859822652304e-01,1.208498900516550081e-02,1.114160927886832277e-02,-1.530009700359375238e-02,4.356673732399940491e-02
3.530724036821685785e-01,3.192091304040222122e-01,3.451803745106168941e-01,5.024926046964298121e-02,4.652813517420962414e-02,-6.661815774872495433e-02,1.683010905981063843e-01
2.591451640295676651e-01,3.250280952397980316e-01,4.110695474525880577e-01,-1.569450807362791356e-01,9.131326600806892457e-02,1.392548903366460332e-02,3.419118821620941162e-01
2.973531321638118730e-01,3.170544950854718436e-01,3.375820624931799574e-01,-5.393583426998489055e-03,2.329609981045848138e-03,4.737745078305058422e-03,3.721341118216514587e-02
2.863503328592296726e-01,3.250980979910400026e-01,3.411485471357392218e-01,-5.707093428991504534e-03,5.046381232465545902e-03,6.312225320008380339e-03,5.171623080968856812e-02
2.620844498160068703e-01,3.133461432777771560e-01,3.515087031741074841e-01,-4.594954039805256019e-02,-1.977614762094904305e-02,-1.721241264841003732e-02,1.201523616909980774e-01
2.503038241071062209e-01,3.470638408890884818e-01,3.592920035716977711e-01,-1.212997041712113831e-02,5.760766560045281698e-04,4.239367495090784737e-04,1.055375263094902039e-01
2.380210153236541060e-01,3.587007191904900694e-01,3.256362128630980735e-01,1.423395557475613457e-02,4.018395509111151453e-02,-7.831429744541717336e-03,1.315397173166275024e-01
3.364536387673131568e-01,2.820302290269969259e-01,3.245869710326311219e-01,-1.240330695512073360e-02,-1.110455577927235878e-02,-2.163300923528261102e-02,6.850052624940872192e-02
3.299495059438750100e-01,2.761181095385672468e-01,3.456615677554059074e-01,-1.083958253940002676e-02,5.046977837991355360e-03,5.261695682734730990e-03,6.710031628608703613e-02
3.113317408035052303e-01,3.088514918147713395e-01,3.253894691595243804e-01,7.114071098413433242e-03,-7.407288157592135242e-03,8.273623636123788108e-03,2.757590077817440033e-02
3.271667903313550951e-01,2.674303323270296184e-01,3.498747893017256638e-01,-2.649714045681058477e-02,1.903678876962758715e-03,3.156861310189347687e-03,8.710715919733047485e-02
3.839629997924580707e-01,3.868591609698348588e-01,2.340813894202833367e-01,-5.314658758696963643e-03,2.913609840544010643e-04,4.499748321688150365e-02,1.704883575439453125e-01
4.429218869908734257e-01,2.677436271633156228e-01,2.628393786181155156e-01,-8.060514845246681548e-02,4.207130461915043612e-02,1.346334862494989737e-01,3.327922224998474121e-01
3.366114207249601975e-01,3.141600300208854391e-01,3.004472996532084328e-01,-7.194135347511442305e-03,5.758342561299125729e-03,7.532689876982259780e-03,3.774838149547576904e-02
3.576202477259212142e-01,2.744961031552285435e-01,3.447990344520092676e-01,-1.283833172326241112e-01,1.305826535254782372e-01,9.045219936272316796e-02,3.621537983417510986e-01
3.097103245436811370e-01,3.305692184677243017e-01,3.089408798765059250e-01,6.085926898362704722e-03,-6.893562762541408269e-03,6.029937419298776226e-03,2.853935584425926208e-02
3.323112440913788546e-01,3.174171382864911517e-01,3.072157606978391242e-01,-5.171507832873204098e-03,8.768615399418645947e-04,2.244787766569021192e-03,2.398958615958690643e-02
3.228157071764715114e-01,3.467631021114634393e-01,2.672736037655806252e-01,-1.709586741405183258e-03,1.504060639152851250e-02,1.185477937064286077e-03,7.536667585372924805e-02
3.745989705731042063e-01,4.563089996976061880e-01,1.478838405336740380e-01,-1.015153892334849303e-02,-5.138563371146545600e-02,6.730195568793888306e-02,3.137203454971313477e-01
3.370435059023437763e-01,3.158941928735508609e-01,3.064740528034312628e-01,5.576045083724862940e-03,-6.078534609880630393e-03,1.455274610513054845e-02,3.968289121985435486e-02
3.126913824020054467e-01,3.199405122539937807e-01,3.167055617656315825e-01,1.403407481666484914e-02,-1.968552774038336700e-02,9.135590565487936715e-03,4.520361870527267456e-02
3.132982755584058920e-01,3.121749721429000202e-01,3.326554911840490236e-01,5.700467356995138173e-03,-4.446762416107120051e-03,3.716007981011527558e-03,2.441189996898174286e-02
3.299450689010849369e-01,3.055903096602767821e-01,3.179232463253141572e-01,1.753629534698190060e-03,-5.515359268933291495e-03,1.884826493109260925e-03,2.358030714094638824e-02
2.896796256793368607e-01,3.355697605710687426e-01,3.410255411871170317e-01,4.528430089639834573e-03,-6.339172849291216903e-03,8.438079405554473056e-03,5.274197086691856384e-02
2.951863121399215251e-01,3.280402125564947369e-01,3.407593952557270156e-01,3.752160679982214676e-03,-6.168111569031306009e-03,7.341244047390088623e-03,4.446443170309066772e-02
3.814190183609121876e-01,1.514552368703157292e-01,3.641234185973187820e-01,5.848044900322569434e-02,-2.123177142657627775e-02,8.172599877278717562e-02,2.843497693538665771e-01
3.125088063519306236e-01,3.086344768836139507e-01,3.322057968087201441e-01,2.549181980214755040e-03,-4.791623579989111488e-03,1.679700722575773420e-03,2.400276251137256622e-02
3.193574435689002788e-01,2.953517327423199612e-01,3.368363192773199399e-01,5.889350996683686765e-03,5.725216736162290834e-03,-2.318990498900735768e-03,3.898588195443153381e-02
3.267748316500262984e-01,2.936879568814517727e-01,3.329496503147248987e-01,3.427935975669272814e-03,6.235737297048802967e-03,-4.290831014764008751e-03,3.929776325821876526e-02
2.828365347687836207e-01,3.256477265119550601e-01,3.491547090532011732e-01,-5.170667653036616421e-03,1.180341751469037286e-03,1.181681533353556000e-04,5.895902961492538452e-02
2.885368337317034126e-01,3.289581766156676190e-01,3.542438755149051044e-01,-3.437052956841427087e-02,1.468977536087431174e-02,1.307736148825567289e-02,8.944134414196014404e-02
3.026582943286648675e-01,3.150639833045643101e-01,3.411797497222723852e-01,-2.368976263646462369e-03,1.040039111768831150e-03,2.167566433042230224e-03,3.455567359924316406e-02
2.217284004056842561e-01,3.925379709582541565e-01,4.020573407442392111e-01,-2.796586762445683882e-02,-2.843214152148557366e-03,-2.217807176979489248e-03,1.824220567941665649e-01
2.839501755771358660e-01,3.091502403081912709e-01,3.418111031883503959e-01,-2.767724745290342514e-02,-1.003157255598084892e-02,-1.023123263948295773e-02,7.374858111143112183e-02
2.522723783702779943e-01,2.692339083466871452e-01,3.425829712440930930e-01,-1.298952280057896203e-01,9.724170064691518844e-02,8.939315514120366180e-02,3.314686417579650879e-01
3.133423733901576358e-01,3.254343808019689033e-01,3.169165933126152357e-01,-8.557959534800100221e-04,9.132330342725147876e-04,2.875872882506244968e-03,1.205335091799497604e-02
3.146925494665939738e-01,3.178545475178620738e-01,3.162979914285643512e-01,-4.325810468280950720e-03,4.394289753689917775e-03,4.423227271014161695e-03,1.342614367604255676e-02
3.113202232684855741e-01,3.315347867402052562e-01,3.120561957946738629e-01,-6.952026424867648697e-04,4.627939816078206064e-04,1.705338818280143550e-03,2.012734115123748779e-02
3.150874199125999198e-01,3.253064716295423486e-01,3.156530271351762340e-01,2.564074198957759997e-05,5.117489751583538266e-04,1.765716667767196647e-03,1.044556684792041779e-02
2.969061825839020563e-01,3.380164865883379943e-01,3.208930164150759490e-01,-1.048469629775402277e-02,1.725977442840168075e-02,1.217589422114137392e-02,5.429145693778991699e-02
3.333684882403604721e-01,3.091326468815212558e-01,3.086362300999527797e-01,-5.782284508576211041e-03,5.082676744443090019e-03,6.917274804054909625e-03,3.034806065261363983e-02
3.318930976151330814e-01,3.022414442224392594e-01,3.193384458759879196e-01,-1.119360953527553243e-02,1.191865468096972060e-02,1.427854885227368593e-02,4.558791592717170715e-02
3.509712267221526405e-01,3.078064926687053005e-01,3.286335554814716065e-01,-2.212926926188727925e-02,2.762906246424834747e-02,5.885968017897913462e-02,1.247018873691558838e-01
3.393505421613315920e-01,3.153703763011008188e-01,3.029293828551888890e-01,-3.219624846880898231e-03,5.084583290619241504e-03,1.380104574012116191e-02,4.133070632815361023e-02
3.135922904408963707e-01,3.261553630712042962e-01,3.137068000532922118e-01,4.023439837480055105e-03,-1.544690534510075996e-03,2.053875971775667459e-03,1.499276328831911087e-02
3.392302590609413970e-01,3.113524753754246532e-01,3.046316529774633075e-01,-3.213624894422978818e-03,1.473121371377659073e-03,3.324420311843480531e-03,3.286867216229438782e-02
2.867210164630960012e-01,3.317998544680876294e-01,3.304186346543703245e-01,6.525023645346044419e-03,-7.517569319689738211e-03,7.261330618745672622e-03,4.926657676696777344e-02
3.177928809988014303e-01,3.009609959211997920e-01,3.390443422323465295e-01,1.459420467571425142e-02,3.688892823414671555e-03,-5.068070981929908084e-03,4.300571233034133911e-02
3.098431716409513204e-01,3.055661914488809194e-01,3.359365409877941300e-01,4.794114872999194997e-03,-2.663641234353374826e-03,1.152025790180012232e-03,3.008279204368591309e-02
3.080940043115336646e-01,3.115511322495329027e-01,3.323142481851952823e-01,3.076581280969973523e-03,-1.601659475671909048e-03,3.618307585319524046e-03,2.429419569671154022e-02
3.160962465416888856e-01,3.179518788606625068e-01,3.222808310869708093e-01,6.919700233182006456e-04,-8.433027683809867512e-04,4.839449657218412946e-04,5.872707813978195190e-03
3.104983822404681626e-01,3.114499174690401051e-01,3.346316931517259730e-01,5.506030607199866207e-03,-3.242921807955732871e-03,4.028444148061431120e-03,2.704703807830810547e-02
3.120607867735192276e-01,3.154150254529875519e-01,3.286509679664872952e-01,1.385131385240083489e-03,-1.140978009748013769e-03,8.128048856435621554e-04,1.557179540395736694e-02
3.152539140295703701e-01,3.142121787562082713e-01,3.242439597593602119e-01,7.900316401236815583e-04,-1.974314543546861617e-03,5.575885339620794421e-04,1.028446853160858154e-02
3.105074770593014288e-01,3.088451283384505142e-01,3.345008841191764448e-01,3.498849175006608220e-03,-3.182300582058779966e-03,2.395673018719389393e-03,2.650767937302589417e-02
3.134458954378843698e-01,3.136329620467850909e-01,3.254137591061453394e-01,2.308738944770777519e-03,-3.961976443397198164e-03,2.265178998349090100e-03,1.481558848172426224e-02
3.143840514618921889e-01,3.215049190757037767e-01,3.172758011254473987e-01,8.373603465660763934e-04,-6.046506726209015551e-04,2.031945844683666173e-03,7.352818734943866730e-03
3.131293513178204369e-01,3.117741282065148445e-01,3.325343134480137630e-01,4.521803563431881466e-03,-3.511518100364904686e-03,3.676618516557670323e-03,2.331463433802127838e-02
2.989695814072813040e-01,3.173246020725090655e-01,3.333238667134389988e-01,6.092100901800802902e-03,-5.956022026388020293e-03,6.186306661052553765e-03,3.491596877574920654e-02
2.694115300871614549e-01,3.296716496850222167e-01,3.490623138484353905e-01,1.337877531080421123e-02,-1.879723859112474114e-03,3.872699361814031273e-03,7.594953477382659912e-02
1.002084479579829490e-01,4.219456364244453250e-01,4.222050875308916984e-01,-1.189987801432028196e-02,-2.866716396867314068e-02,-1.137924790554384336e-02,3.269205689430236816e-01
2.625653142485893099e-01,3.277932609015895560e-01,3.373337746938182558e-01,1.115222378574634715e-01,8.560109479205256500e-02,-7.511296508379924908e-02,2.849353551864624023e-01
1.044314926216733663e-01,4.270758603279509180e-01,4.194841363069333751e-01,9.568249548428400808e-02,3.067119441826628851e-02,2.330016053079158114e-02,3.655459880828857422e-01
2.720594995502011448e-01,3.529054129211971480e-01,3.428510799049768742e-01,5.977348456593753641e-03,-5.975692219264032608e-03,2.320241366314377933e-03,7.781235873699188232e-02
2.833330262985671588e-01,2.430876368163733536e-01,3.891808227396188480e-01,1.257596103835866286e-01,-2.417368798007523897e-02,5.766692160189265670e-02,2.761508524417877197e-01
2.668177108845084522e-01,3.410303645358135904e-01,3.747032075252840766e-01,2.981893202135970505e-02,5.849738651147341068e-03,-3.438188030834460861e-03,1.092975661158561707e-01
3.208813173370270722e-01,3.040473353540427137e-01,3.437080243874686691e-01,1.265626452362332219e-02,6.954973818926171378e-03,-7.593071089282836181e-03,4.457945749163627625e-02
2.864168552985468796e-01,3.101733983585055476e-01,3.588425957970119984e-01,2.947618579010005679e-02,-9.517926932899952938e-03,2.382478795083693701e-03,8.357400447130203247e-02
3.073737931339753926e-01,3.177287449880402126e-01,3.419275305182217783e-01,9.947962318881375596e-03,7.935293956568407331e-03,-6.208231658280460342e-03,3.930397331714630127e-02
3.157318726627004746e-01,2.983484696475646736e-01,3.929115303771257839e-01,7.437549144914840094e-02,-1.412457870873734186e-02,2.947276115754018933e-02,1.655297875404357910e-01
3.238992000108559810e-01,3.178838897191180179e-01,3.159733164596983390e-01,3.128766894745105970e-03,-3.361640659743517570e-03,1.989624291231075880e-03,1.124598551541566849e-02
2.909518759203326144e-01,3.278838491813609313e-01,3.866544475478493892e-01,6.998071354479429296e-02,-2.064658832569397917e-02,1.726133921176770808e-02,1.544444113969802856e-01
2.811025033269573536e-01,3.432955861301404399e-01,2.554707539604413880e-01,7.380922387604384183e-02,1.397007715189408361e-01,-9.271384681634445291e-02,3.268011212348937988e-01
3.470068629470539068e-01,3.304732234922682088e-01,2.710830169765074960e-01,7.545977333660228506e-03,8.780568863997979812e-03,-9.864628593393169956e-03,7.400369644165039062e-02
3.468868739905579535e-01,3.502471998711377821e-01,2.605631447558991454e-01,9.278544707809274761e-02,1.601012047340785727e-01,-8.828043789431155863e-02,3.658661842346191406e-01
3.102047773262109343e-01,4.037509024943994884e-01,2.622677015274486045e-01,-2.786029818752399495e-02,1.942903221406636627e-01,2.654583487325567343e-02,3.649958670139312744e-01
3.188321838400996477e-01,3.189700486658982870e-01,3.179330232617708640e-01,-1.489691621193768535e-03,-1.706695691654954057e-03,-1.189788955000336840e-03,4.538086242973804474e-03
2.985795163401164243e-01,3.469261693263119284e-01,3.102295602464031354e-01,2.984048728114074844e-02,8.340630490444787826e-02,-3.775555390955913360e-02,1.724167168140411377e-01
3.152022427363427859e-01,3.298781453745324721e-01,2.969549257925296337e-01,1.250523842492942163e-02,1.655965093493121446e-02,-1.255517807237375646e-02,5.080205947160720825e-02
3.385773506678710909e-01,3.272236299312785701e-01,2.936165416975028419e-01,4.949306291570272805e-03,5.241915826362392346e-03,-5.850726353305602326e-03,4.357203096151351929e-02
4.436116794846752809e-01,2.756399433481618866e-01,2.530929177614528180e-01,8.430630440027567229e-02,2.862716361121765002e-02,-1.281550885903027515e-01,3.249038457870483398e-01
3.490940004666679974e-01,3.268349496266946264e-01,2.857519852041839892e-01,3.200248610983194748e-03,3.386949388697059558e-03,-2.326289413015559734e-03,5.638365820050239563e-02
3.390040252376426144e-01,2.805805672702083031e-01,3.280307824832459640e-01,2.691558170470204070e-03,6.837021188857070157e-03,-2.843612789437245745e-03,5.548733472824096680e-02
3.451974153631788833e-01,3.332091918117214835e-01,2.755003375590123205e-01,-6.236917339992645824e-03,-6.933846039457622519e-03,-1.273193512151427759e-02,7.009346783161163330e-02
3.493690739724034655e-01,3.268716318549683697e-01,2.718625010305450451e-01,3.867287819066612779e-03,1.443408230338632907e-03,-1.273922595628303178e-02,7.285386323928833008e-02
3.388373600360422011e-01,2.987976029142109247e-01,3.319305099054746244e-01,1.080897258453305046e-02,9.084003588184005190e-03,-1.760684817199383023e-02,5.387393012642860413e-02
2.977149269780982044e-01,3.283438734245561763e-01,3.208468858463666140e-01,1.356522423853121113e-02,-1.628534247261393536e-02,1.212707044614400390e-02,5.053308606147766113e-02
3.668090858130709231e-01,3.606496618489095085e-01,2.716355380171534550e-01,-3.289923162422393049e-02,-5.731530908463856877e-02,-5.875349999594280115e-02,1.787955909967422485e-01
3.307403068030280724e-01,3.269638618354441806e-01,2.869456181236354486e-01,-8.745861667740060033e-03,1.375952708082846081e-02,4.283908014582316591e-03,5.117956176400184631e-02
3.033697467920035140e-01,3.054401140263063863e-01,3.334900133149065193e-01,-1.143551361758221412e-02,4.979512342405633535e-03,5.179799701471946190e-03,3.736773133277893066e-02
3.430689745530299262e-01,3.267218280784655038e-01,2.846591975089342030e-01,5.349203432130337880e-03,-2.123900128034355000e-03,4.512238064043935099e-03,5.370804294943809509e-02
3.405404035865982060e-01,3.015920148924101651e-01,3.160176435856613120e-01,-1.877675100784730478e-03,2.969973177828876074e-03,2.641087833303105634e-03,3.494547307491302490e-02
3.175205133330668006e-01,3.121844942969072556e-01,3.190153616392026881e-01,-1.141019799200921128e-02,1.003605969528400914e-02,1.012661797770044760e-02,3.223468363285064697e-02
3.800537826561881660e-01,3.057018357696434374e-01,1.766560400443123457e-01,-2.783690915682790132e-02,5.412671150739115783e-02,1.249637783504395083e-01,2.995620965957641602e-01
3.478999736814305521e-01,3.315416315970976524e-01,2.678673894968855440e-01,-1.507436768668000363e-03,1.076403440079030807e-03,1.371165682221564541e-02,7.705797255039215088e-02
3.340625106233754416e-01,3.513547870765288961e-01,2.886200086460005698e-01,1.540619767557302976e-02,5.215165112439112266e-02,-6.190834466825155535e-02,1.533597558736801147e-01
3.720374132882516838e-01,3.338990925019836298e-01,1.953656638324376416e-01,4.235105993401702684e-02,6.967700582991857849e-02,-1.032943022488521656e-01,2.790772318840026855e-01
3.307116864506173259e-01,3.383444029428553379e-01,2.836160149007123099e-01,7.221885616887704917e-03,9.750161942145030639e-03,-3.877495096998195834e-03,5.587930977344512939e-02
3.002499720643889702e-01,3.411747539467049894e-01,3.151986811683493150e-01,-5.397093757019293982e-04,2.472583955172790674e-03,2.043487165085477054e-03,3.630800917744636536e-02
3.048318907109495712e-01,3.402430295044250874e-01,3.179273532789069212e-01,4.404857952144260007e-03,1.240152111195249283e-02,-7.530933087649845786e-03,4.063817113637924194e-02
3.094686630815264849e-01,3.382671643249643978e-01,3.077162068857142718e-01,1.942540710167192392e-03,9.425090062659359155e-04,-5.416440015017909672e-04,2.996261604130268097e-02
3.082457301551358997e-01,3.417361557001896699e-01,3.069874757212448513e-01,2.498123972977650802e-04,8.773455541786580108e-04,1.307293447728222723e-04,3.417424485087394714e-02
3.064251152145091028e-01,3.400682839941111535e-01,3.084565165483872384e-01,6.263280993192576768e-04,8.355598322282501138e-04,-2.818540341894373619e-04,3.272852301597595215e-02
3.137873346838914723e-01,3.439937160342990685e-01,2.853139247513387100e-01,2.443848998252067580e-03,1.008421218350677093e-02,-3.485816179056759417e-04,5.391284450888633728e-02
3.084507384205666392e-01,3.411435104171898769e-01,3.035894861374798248e-01,1.804516724720298462e-03,4.726147928081162256e-03,-5.496351538002363594e-04,3.645629435777664185e-02
3.186389787743005297e-01,3.322729452049864030e-01,3.009704803984256660e-01,-6.384526452311377331e-03,3.871689093585762610e-03,2.873874021008866742e-03,3.051207214593887329e-02
3.297553828986309887e-01,3.449102198316949530e-01,2.776217464320251405e-01,8.768043896097317547e-03,1.234800546268266346e-02,-4.888083965761730668e-03,6.706263870000839233e-02
3.166352986122627500e-01,3.183856590732132008e-01,3.258759044283671691e-01,3.087710398332968193e-03,4.080076799383916888e-03,-4.023998150564728205e-03,1.412086375057697296e-02
3.256917386379842849e-01,3.214345708217476449e-01,3.195068693283633632e-01,6.961368815794864717e-03,-3.586515619046258020e-03,7.631083461378874652e-03,1.971592195332050323e-02
3.112617743505490808e-01,3.258213464929297087e-01,3.099332372186878182e-01,5.144662323467136256e-03,-7.349155528780144248e-03,5.108574187432612240e-03,2.351200953125953674e-02
3.300641884943338322e-01,2.748589104711712250e-01,3.284998117798428319e-01,1.798781584046117016e-02,-1.116640269382987785e-02,1.905494267444355835e-02,7.346925139427185059e-02
3.163282208190016376e-01,3.185960410720649616e-01,3.202312509573694843e-01,1.427839966784632576e-03,-1.386830309030552370e-03,2.564926021869186074e-03,6.568705663084983826e-03
3.323546672430864879e-01,3.137457032605042162e-01,3.107608422332173159e-01,3.748601470286808471e-03,-3.793415326770427191e-03,5.554355515311612361e-03,2.426163107156753540e-02
3.304447874869946844e-01,2.803757511371176570e-01,3.418244963995968333e-01,2.120545690147133261e-02,-7.579174464628433971e-03,9.047456136982602939e-03,7.052015513181686401e-02
3.217194944956309755e-01,3.149969777009998806e-01,3.190491107609881305e-01,9.068775796287655011e-04,-2.852061691558540821e-03,1.078571627469708961e-03,8.045587688684463501e-03
3.407629425670531398e-01,3.078978762426728411e-01,3.074027421589069498e-01,4.396625081092565531e-04,1.324383921505546723e-03,-1.858678305472371249e-03,3.335919976234436035e-02
3.391149860625928270e-01,3.080353809289481104e-01,3.169539511752363370e-01,9.537024333944913237e-03,-1.459325180394661914e-02,2.090597949862970859e-02,5.469214171171188354e-02
3.384004050704708666e-01,3.833294426288364476e-01,2.771603959715535082e-01,-6.645524888454341916e-02,9.546700699101672016e-02,1.265329632055454401e-01,3.116776049137115479e-01
3.873899126535658710e-01,3.361400563260269481e-01,2.704423368514835002e-01,-1.514876214565162756e-02,3.037058587323598902e-02,7.573111332757341552e-02,1.759855449199676514e-01
3.231897539645783857e-01,2.625956589631112115e-01,2.835795782057649039e-01,-1.024843290363934151e-01,9.295739096565043547e-02,1.178311613407957009e-01,3.192574977874755859e-01
3.263796410538516435e-01,3.222393796734978055e-01,3.122806839954242464e-01,-8.597998835788199859e-03,6.536863255914336125e-03,8.635839566399456171e-03,2.704164758324623108e-02
3.349460154168262815e-01,3.451253472253567045e-01,2.376046124260257075e-01,-4.416710540073606056e-02,1.094358638357144642e-01,8.721222681945958732e-02,2.741688787937164307e-01
4.044270300906226967e-01,3.640872611062991315e-01,2.613056493881245612e-01,-8.028735938419477580e-02,1.387413807669901633e-01,6.901411279331208515e-02,3.281951844692230225e-01
3.480947094314771340e-01,2.499683355649911232e-01,3.570017793188340338e-01,-2.575253314539444061e-02,6.443949550587586839e-03,2.190444458494412647e-02,1.188936755061149597e-01
3.177022282340760673e-01,3.008120384201833919e-01,3.289111034223253793e-01,-1.592283720536613253e-02,1.136730984038209977e-02,1.259917102231227805e-02,4.716685414314270020e-02
3.203662805783605294e-01,2.975300864698503522e-01,3.325913175301963842e-01,-4.153029153224810366e-03,7.964401541479102301e-03,5.105863704455543793e-03,3.564216941595077515e-02
3.152195145328078318e-01,3.016635598424939890e-01,3.389479880677189749e-01,-1.913182547499036375e-03,3.569460497246417646e-03,1.285282907984112597e-03,3.350561484694480896e-02
3.093393340830111193e-01,3.107210893975003718e-01,3.311319760161666736e-01,-6.593273407126347581e-03,6.044793770864222843e-03,6.513682048399501226e-03,2.853126265108585358e-02
2.839815969434535403e-01,3.447650362340108354e-01,3.383500891893804208e-01,-1.685164643709164550e-02,1.649858827971219591e-02,1.128577758578713959e-02,7.346091419458389282e-02
3.088118102397228726e-01,3.115998817423202838e-01,3.398596360721190535e-01,-1.720690265800922311e-02,5.170990415205801473e-03,4.636285208397095126e-03,4.379626363515853882e-02
2.778322234618344488e-01,3.092985205211294941e-01,3.490809185881484922e-01,-2.838419686438215309e-02,-1.347509656949673687e-03,-2.268379706121378438e-03,7.913560420274734497e-02
3.016441968421988973e-01,2.786798639789504484e-01,3.478587030631439814e-01,-3.285559115094872917e-02,-6.512908347173098841e-03,-4.373487349367407954e-03,8.454307913780212402e-02
2.884763270203972718e-01,3.431157768015482556e-01,3.257902112016722307e-01,-3.133850841739361896e-03,3.842334087010529191e-03,5.832217071922043625e-03,5.014761537313461304e-02
2.898022610421244205e-01,3.145971032308736426e-01,3.434399996614040385e-01,-9.075962796111183839e-03,1.558886787298801018e-03,2.896039500677111307e-03,4.941075667738914490e-02
2.726359287963768252e-01,3.329396341042066276e-01,3.473423812152008350e-01,-1.251251042724625846e-02,9.264248489516497750e-04,2.212579437966234568e-03,7.210731506347656250e-02
3.415149039671621090e-01,2.603910765428235630e-01,3.650666999015041991e-01,-3.947041342184484658e-02,2.366179664307511629e-02,5.776371786118289497e-02,1.594042032957077026e-01
3.295656953438047543e-01,2.502139104210132636e-01,3.645223976977953195e-01,-4.305088912113580468e-02,-4.709232798768699883e-04,2.169662207768560322e-03,1.259661763906478882e-01
3.551255308046752379e-01,2.583642875758734858e-01,3.468494350451429842e-01,-8.148178389873120611e-03,1.189384697930385938e-03,8.717387006101279256e-03,9.519363194704055786e-02
4.453725181780922582e-01,1.575553973682863595e-01,4.109267443129119846e-01,-6.321070550330818924e-03,-3.201075872591423871e-02,6.814899804129880001e-02,3.020561337471008301e-01
3.267562811580530524e-01,1.864426500479156035e-01,4.637630642760935951e-01,-1.025769559577580509e-01,-1.381048898690814819e-02,-4.978655056208552282e-02,3.118606805801391602e-01
3.336413060740852088e-01,2.849725038019486067e-01,3.383630873945460693e-01,5.638609116740270384e-03,7.100198270905877865e-03,-3.391540415157463274e-03,5.386909097433090210e-02
3.569613748583508328e-01,1.872643470720205539e-01,3.545590426597486911e-01,1.051833595831921236e-01,4.017611151855526863e-02,-7.622460133950006989e-02,2.895837128162384033e-01
3.504424315886695562e-01,2.568178054657888065e-01,3.463225305032497370e-01,8.734015007773938966e-03,-5.888131658246545386e-03,5.845324393832619994e-03,9.397969394922256470e-02
3.266758270299268130e-01,2.862555604869220227e-01,3.426794359171709825e-01,4.566976761210967892e-03,6.576057279603881450e-03,-3.666706366577562187e-03,5.262530967593193054e-02
3.105420147970630596e-01,3.098425854834036541e-01,3.405282873646603425e-01,4.540652748542945566e-03,3.989542553094442209e-03,-4.037286956110402829e-03,3.285026550292968750e-02
3.536610118495606137e-01,2.677976167698314924e-01,3.299326873458816034e-01,-1.424268099263220275e-02,-6.377732622149553769e-04,-2.624421360314818305e-02,9.259708225727081299e-02
3.578874963944065346e-01,2.124956343096108258e-01,3.488725241744585759e-01,5.134778279593071350e-03,6.117944833025330082e-04,-2.863614008335885891e-02,1.498321294784545898e-01
3.982480319697431215e-01,2.140341117300798568e-01,3.881893845296107148e-01,8.578917325369151900e-03,4.876420655619625663e-03,1.527456244489548698e-02,1.821402460336685181e-01
3.491493034777973237e-01,2.169670117442338841e-01,3.792630656513092946e-01,5.249503331443611254e-02,2.102907868218858306e-02,-6.324749232725919434e-03,1.790903806686401367e-01
2.842417839847816152e-01,3.370710309333094234e-01,3.395049883341047514e-01,-9.118439177126288347e-03,-3.313669680259753031e-03,-6.557440592781572410e-03,5.776518583297729492e-02
3.476501560687214054e-01,2.637829709251792165e-01,3.464703799109455917e-01,-1.652512057921116245e-02,7.553439718875674599e-03,1.361268740245447258e-02,9.210032969713211060e-02
3.909520832605639651e-01,1.534129973631793709e-01,4.489388468853015013e-01,-8.514879841122052762e-02,4.294620866284614216e-03,9.138156794669979877e-02,3.470150828361511230e-01
3.719151678005512274e-01,1.494432137493793000e-01,3.449921678678833370e-01,-9.144371600166606440e-02,3.545763593499327154e-02,1.230802861968282591e-01,3.442860245704650879e-01
3.592850201444445224e-01,2.440460438466900972e-01,3.611042646407125467e-01,-1.357081687796301075e-02,4.712298233962659323e-03,1.817481363540181249e-02,1.228945478796958923e-01
3.633930940587020708e-01,2.627947917892561325e-01,3.425636914814370049e-01,-1.669471952920744892e-02,3.935558674658696555e-03,3.285423331030595806e-02,1.121574267745018005e-01
3.939078393782668996e-01,1.832328185573612322e-01,3.631966442185082244e-01,-8.069280799869351165e-03,7.092944539780125443e-03,1.156450886452357364e-02,1.990088969469070435e-01
3.571095326502106704e-01,2.546569444822271988e-01,3.429712648838519340e-01,-2.149080934177397591e-03,-5.168021102646616974e-03,4.820699277653734544e-03,9.701350331306457520e-02
4.226979242515473967e-01,2.090338634535739704e-01,4.725170041862996051e-01,-1.180219182405471828e-01,3.250752518809393865e-02,5.761197929473569485e-02,3.371853828430175781e-01
3.815333078553105883e-01,2.355176127355763371e-01,3.322643649366350260e-01,-1.372815544179726600e-02,-1.034052834400179090e-03,6.315849538243106798e-02,1.705566048622131348e-01
3.579088737643527085e-01,2.568971969355448026e-01,3.531686210845552121e-01,-1.026595813159601744e-02,-6.619970539720634699e-04,-4.121146988289682740e-03,1.005755662918090820e-01
2.198314377204944881e-01,4.084890821225893309e-01,4.350803700419742515e-01,-1.105230016280771832e-01,7.670540292575625529e-02,4.178557437169177352e-02,3.175700008869171143e-01
3.123359281489881401e-01,3.289905270927279135e-01,3.123138210592263375e-01,9.491974465742688150e-04,-1.790258652335059440e-05,1.007061516077451674e-03,1.683718338608741760e-02
3.154082935937450594e-01,3.288406457760474355e-01,3.124787473911718183e-01,2.250424330701815759e-03,-1.830482376993692749e-05,1.006430197151381807e-03,1.570331119000911713e-02
3.038884116379663158e-01,3.279852757400035235e-01,3.196734398595912907e-01,2.430396974726539965e-03,-4.410241504601104465e-03,6.094122210195329452e-03,2.523771859705448151e-02
3.186430954230662360e-01,3.214459987059691271e-01,3.165203524235585819e-01,1.845930563934596470e-03,3.101771451884059705e-05,6.873057253079881829e-04,5.473077762871980667e-03
3.152699441419341553e-01,3.224672869980345635e-01,3.163899573637747875e-01,8.001314420949447864e-04,5.252723959942725510e-04,5.126826893568765765e-04,6.966487504541873932e-03
3.113506505970349836e-01,3.313570939974531671e-01,3.205558986259549603e-01,7.226200131640728164e-03,-8.913211216721030755e-03,7.018957155000169097e-03,2.904509007930755615e-02
3.253665486585846089e-01,2.955707619070564451e-01,3.269513901779748655e-01,2.579436171645572984e-02,-1.461973715088457290e-02,2.541377227638968311e-02,7.424526661634445190e-02
2.770278241626956683e-01,3.762467063425695146e-01,2.803291723146790759e-01,-2.860653843518601216e-03,-6.611070035152409596e-02,-2.973848464273971988e-03,1.506342738866806030e-01
2.695609378653975874e-01,3.653780206864297719e-01,3.250621263151627915e-01,-8.535316712007549531e-03,6.830072334906837905e-02,-1.202721353533128638e-02,1.469381302595138550e-01
1.434094949511894312e-01,3.795701326229967698e-01,4.731996801461200164e-01,-5.986505082245519721e-02,4.273229084608803213e-02,5.291831348320729343e-03,3.208793997764587402e-01
3.176904760937980243e-01,3.194410729179468222e-01,3.191959508140961854e-01,-1.243631255371820945e-03,1.779715879481793455e-03,1.383945786563470530e-03,4.752210341393947601e-03
2.813505406389886776e-01,3.385780450206191672e-01,3.318559814456090162e-01,-2.799013713196059436e-03,7.291638938514633655e-03,6.619183188092162343e-03,5.700819939374923706e-02
3.011331908633147481e-01,3.330500678345698073e-01,3.259777866328973928e-01,-1.872094920867670674e-03,2.697067725359174242e-03,6.019505256780934704e-03,3.136907890439033508e-02
3.057287017393395256e-01,3.362911324801022284e-01,3.106963986688830448e-01,-1.615839271970842973e-03,4.766435197562318357e-03,3.212655412372195009e-03,3.023025393486022949e-02
3.117936308358117414e-01,3.304249577712778385e-01,3.140796067676014380e-01,-4.352544103930705913e-03,6.421045736902037879e-03,4.469968483094178754e-03,2.345690689980983734e-02
2.960007688926479807e-01,3.830757825733861477e-01,3.134416709502614307e-01,-2.199822269034027583e-02,7.175573278011271317e-02,1.399638111627068623e-02,1.544464081525802612e-01
2.182518599283695404e-01,3.796059200379315324e-01,3.739458953218364745e-01,1.700602613899069443e-02,4.939138123493757443e-02,-6.578219213913458728e-03,1.829476952552795410e-01
3.154366354295027874e-01,3.383416762886308771e-01,2.947896550389858539e-01,-4.825438980008599915e-03,4.019603818405151872e-03,2.852501777232902078e-03,3.958023712038993835e-02
3.273011308085937432e-01,3.316252949348634238e-01,2.954774198837497035e-01,-6.517987264453198315e-03,3.474985270362833997e-03,4.943249421754804078e-03,3.749725595116615295e-02
3.197662139222495203e-01,3.275516557399708595e-01,3.032540977884826128e-01,-6.514704418695479830e-03,4.498383593180240933e-03,2.709077009844984042e-03,2.592035755515098572e-02
3.023609087000390105e-01,3.334992056274366790e-01,3.051152408343629219e-01,-2.375600877734883321e-02,2.806438921944556450e-02,2.056574099481316489e-02,7.884248346090316772e-02
4.655980855656721706e-01,4.767686128968035009e-01,1.440985999928022232e-01,5.214784773390892213e-03,-2.050943892386126663e-02,-1.296588177753621451e-02,3.300391733646392822e-01
3.512877837367631706e-01,3.528684541572179034e-01,2.475370112109898657e-01,-2.531295582740137099e-04,-2.617259185883639896e-03,4.537936810897023475e-04,1.046521738171577454e-01
3.448514953878487055e-01,3.403204037496898593e-01,2.721595636064190749e-01,7.032487211670893079e-03,-6.526296693948901821e-03,6.151631898328077143e-03,7.324580103158950806e-02
3.535031562722185661e-01,3.615628398279697731e-01,2.542382829968176106e-01,-7.862299260217804663e-04,-3.799384046302325957e-03,6.877064087275028791e-03,1.044296845793724060e-01
2.964409776345069969e-01,3.555142672441962137e-01,3.641851150176677598e-01,-4.535384422467417936e-02,5.078441294200836814e-02,3.218143694848393105e-02,1.452310979366302490e-01
2.841316895533275155e-01,3.258357136851097735e-01,3.488761413426123559e-01,-5.558937633752668306e-03,-1.481164240702742552e-03,-8.383442755283746200e-04,5.772660300135612488e-02
3.174566929002217153e-01,4.659350262547633514e-01,1.457980884762077323e-01,-2.777628465430118793e-04,1.434383136731251507e-01,4.342395204485742510e-02,3.799748420715332031e-01
3.261304974785356747e-01,3.416947496119768224e-01,2.786119115370925825e-01,5.633195082919203317e-03,4.104235807152827563e-03,-1.322615403969146404e-02,6.253302842378616333e-02
3.226007409696811101e-01,3.183149732067649396e-01,3.161313930255182369e-01,-5.594078374648364139e-03,4.186087131757882177e-03,4.778477798135299763e-03,1.573044247925281525e-02
2.929923858623446065e-01,3.086547790812386727e-01,2.927174228255564614e-01,-7.956589846222848761e-02,9.425654294966893942e-02,8.089945370499364297e-02,2.559862136840820312e-01
2.186329310645185875e-01,3.564255719082788931e-01,3.426098412690428696e-01,-9.058113757678916411e-02,9.210055669080266516e-02,4.212622043607567451e-02,2.695555686950683594e-01
3.754471596464042937e-01,2.444047715010405630e-01,3.596142472487676156e-01,-2.740174483136295896e-03,6.167956192510907001e-03,2.263720288677297660e-02,1.304683536291122437e-01
3.315480589067517081e-01,2.986596713677380777e-01,3.312480077426503411e-01,-1.311279717538269170e-02,9.699677106284526618e-03,1.392775523697585734e-02,4.951668903231620789e-02
3.513752156588350051e-01,3.167075366036014028e-01,3.026660347214744085e-01,-7.934429226926509055e-04,5.448522549675764238e-04,1.532914805606345673e-02,5.092667043209075928e-02
3.410515221732854929e-01,2.694831922435682037e-01,3.458723952706483362e-01,-4.563912039726285459e-03,5.059923880660740537e-03,4.957746888153981638e-03,7.552034407854080200e-02
3.459217612569857048e-01,2.915814321178984980e-01,3.134703710760476936e-01,-5.830627777914743591e-03,7.953050978072305141e-03,1.698036309787136558e-02,5.830338597297668457e-02
3.408439760872272184e-01,3.018551872085357690e-01,3.191005796942070205e-01,-4.388857059245379784e-03,3.504862662842798092e-03,1.459315849477524699e-02,4.334364458918571472e-02
3.530058708882487517e-01,2.767998285612089937e-01,3.336691941742917500e-01,-5.864780342366636770e-03,2.022799828658886339e-03,1.372868153743480625e-02,7.340700924396514893e-02
2.979681429475167231e-01,3.174806235942405630e-01,3.294990244549770853e-01,-4.786497296067817632e-03,5.825514062966977505e-03,5.438130048373771355e-03,3.192098066210746765e-02
3.223308078655272579e-01,3.224417015073411941e-01,3.084566241353375871e-01,-4.743499206153867394e-03,1.658045229392270722e-03,1.449158400009343010e-03,1.661606691777706146e-02
3.715947352853302688e-01,3.583817897776905848e-01,2.914426880953681076e-01,3.330846036967562845e-02,5.151200804110420833e-02,-5.983483663061076041e-02,1.660401523113250732e-01
3.435575841461042113e-01,2.922227483210743104e-01,3.152584357955890981e-01,3.406576552261598567e-03,5.209500184197855474e-03,-7.023788285705983604e-03,4.740893095731735229e-02
3.331488806814402737e-01,3.081139741037888791e-01,3.047780417770468708e-01,-2.086199551872543537e-02,-2.236017221329889351e-02,-3.288296900920543997e-02,8.228523284196853638e-02
2.759441945202159019e-01,3.353967744323145816e-01,3.163655657964631884e-01,3.719129939477486962e-02,5.192808762890768065e-02,-2.584537198826358448e-02,1.304164379835128784e-01
3.352991682555985231e-01,3.139829237138774265e-01,3.037536690490353353e-01,3.123217639930713201e-03,1.545666847953903501e-03,-2.757629536609576808e-03,2.891908586025238037e-02
3.190015111730450936e-01,3.179736304264980107e-01,3.160732431436299450e-01,2.447473921827361329e-03,1.334215886177841969e-03,-1.224984389615713532e-03,5.868042819201946259e-03
2.702525126069677541e-01,3.286114182373890413e-01,3.482758300222396075e-01,-1.500505104883344265e-02,7.129276319818009027e-04,-9.204556774476467355e-04,7.496376335620880127e-02
3.264873417646915188e-01,2.954940581098821628e-01,3.267871358391493120e-01,-6.125641730503429694e-03,-7.872179460149467123e-03,-3.995230933382953181e-03,3.628132864832878113e-02
3.384266454805796576e-01,2.869249207331192597e-01,3.339434413277370672e-01,-2.889748881647179017e-03,-5.027539023328446086e-03,-9.575471347025760888e-03,5.308091267943382263e-02
3.396582344303581968e-01,3.049490976432689959e-01,3.099031417135859612e-01,-1.262852554486458556e-03,-3.638017220272528850e-03,-4.998495321949790113e-03,3.430394828319549561e-02
3.508570814515525882e-01,2.249566182152686333e-01,3.532105285903429093e-01,2.277934881407210274e-02,6.318810862046780538e-03,-1.612962911961067156e-02,1.364175230264663696e-01
3.157058919159204669e-01,2.899432983807804787e-01,3.445453664256812321e-01,-7.376891275103091353e-03,-2.295041534484844239e-03,1.935488838330280432e-04,4.916885122656822205e-02
3.744788172519717406e-01,2.456911082348186559e-01,3.440529115903060431e-01,-9.169527634835538538e-03,-2.054511282217950235e-02,-5.715408418647991567e-02,1.578348577022552490e-01
3.145111385734575271e-01,3.040698033124120125e-01,3.315659231832015497e-01,-1.409662008423864278e-02,-8.787557241419415369e-03,-1.219476958806604318e-02,4.303378611803054810e-02
3.337366728528755599e-01,2.898597377464378622e-01,3.341768937509551618e-01,-7.253543955012693376e-03,-4.968334313806666014e-03,-8.027536259339768457e-03,4.868175834417343140e-02
3.012607865815192798e-01,3.330126981417740328e-01,3.302931289997734776e-01,-1.017393826910977135e-02,-1.281986376863366445e-02,-8.678190761792159424e-03,4.425759986042976379e-02
3.513213075453224810e-01,3.123134168090690443e-01,2.651237402503662244e-01,-1.905738387776633944e-02,-3.285837952524248845e-02,-5.985483294104178287e-02,1.437554359436035156e-01
3.297541996914054030e-01,3.512181850363080282e-01,2.644106880856554320e-01,1.037711575320083256e-02,-1.607048408291136821e-02,6.604198481332644241e-03,8.580029755830764771e-02
3.553560692559133982e-01,3.405832877556666527e-01,2.671135555374743453e-01,-3.465208209998765451e-04,1.047018605696801996e-03,5.398711678417919546e-03,8.241648226976394653e-02
3.404287003085971208e-01,3.455671428718570248e-01,2.703678703934276895e-01,5.916437483537380360e-03,-5.298240190505272215e-03,7.992110171651347836e-03,7.533773779869079590e-02
3.683605675652205647e-01,3.826774885845892205e-01,2.592709011425941013e-01,-1.005243993267194470e-02,-4.731236832605489884e-02,-2.020912589889871033e-02,1.480240523815155029e-01
3.947574424444969532e-01,1.864416434021224367e-01,3.669800839800527736e-01,-4.640153156972143776e-03,-1.640389691064705543e-02,2.166884920800428091e-03,1.981578469276428223e-01
3.561685039869419978e-01,2.423511274943540017e-01,3.665148209585086247e-01,-2.901087066238747670e-03,-3.567787008469149208e-03,-1.045247243476103011e-03,1.196066290140151978e-01
2.524312657791605297e-01,3.549435598452372886e-01,3.494331549537484372e-01,2.263659550298513685e-03,-8.193062132804691811e-03,-2.645838705420111830e-03,1.010544598102569580e-01
3.166948199170094291e-01,3.309130633183541281e-01,3.052868402932278347e-01,-9.084951626144891976e-03,-1.410016095159276166e-02,-1.101636162044778745e-02,4.126299917697906494e-02
2.727256979243812274e-01,3.523385611120922745e-01,3.310455620248459740e-01,-1.173039600498806782e-02,-2.293007932719108577e-02,-3.988392338679651490e-03,8.446476608514785767e-02
2.599718117765422165e-01,3.577976177949930836e-01,3.492589838618692655e-01,-5.925325498771759521e-03,-6.612507345180247340e-03,-1.729643423623812787e-03,9.514713287353515625e-02
2.691542705815078707e-01,3.522527364957540041e-01,3.412624031414348558e-01,-4.588587727895590031e-03,-3.821994597521983714e-03,-3.970323317197965371e-03,7.916527986526489258e-02
3.098140483695810410e-01,4.162148474749541860e-01,2.634885366536754980e-01,6.589926909473702368e-04,-1.417554847949394348e-01,-6.331607786866624843e-02,3.011780083179473877e-01
3.009608784563733153e-01,3.208428066255413214e-01,3.284530984065847647e-01,-4.905133111725874101e-03,-2.529372105174094911e-03,-7.836957841589699270e-03,2.966720052063465118e-02
2.973723785645596696e-01,3.150465546569767850e-01,3.347667144719437826e-01,-5.391256829380569604e-02,4.244179352510298736e-02,4.883608008256683231e-02,1.494265645742416382e-01
3.333377062802541091e-01,2.849995521452703962e-01,3.548509461851809821e-01,-2.578813928888320714e-02,8.909137304473721541e-03,7.009645103084915715e-03,7.886643707752227783e-02
3.107811417574149471e-01,3.110485249851488998e-01,3.269621365832545146e-01,-7.519235724931842835e-03,5.968787836837140953e-03,7.157788250527767800e-03,2.622531913220882416e-02
3.970293890192712061e-01,4.575612010603084534e-01,1.334223749088052635e-01,5.272716685996185759e-02,6.017743496754403981e-02,-9.346930116036401837e-02,3.667742311954498291e-01
4.477193845655154103e-01,4.009624834513578762e-01,1.473679034771532281e-01,3.293582904637908787e-02,1.040886328675821315e-01,-5.356124826941643241e-02,3.503109812736511230e-01
2.995548927661210170e-01,3.987905252318080795e-01,3.311631672312952412e-01,3.140632702604114618e-02,8.356965533347866792e-02,-9.054171355573837482e-03,1.785127371549606323e-01
3.599069468175670194e-01,3.649031910691825087e-01,2.463837025073385978e-01,-6.700393049991302131e-04,8.647670415047643486e-03,4.128558647587530529e-03,1.172881424427032471e-01
3.136305733874056312e-01,3.483148175351533093e-01,2.907610673254592548e-01,2.849716856021207879e-03,7.441419799543089186e-03,-3.364017735084266856e-03,5.237995088100433350e-02
3.697131997315176721e-01,3.807089128902385600e-01,2.391610522418049500e-01,8.251752343857321481e-02,7.433894424731207762e-02,-1.290345926874710558e-01,3.248943388462066650e-01
2.648271875007341958e-01,3.401186937707967317e-01,3.507814924065910667e-01,2.559735521585694562e-02,-1.884972904547391886e-02,6.591055252465279762e-03,9.872821718454360962e-02
3.086430453390166528e-01,3.759812778368938346e-01,2.601235376230328633e-01,1.101348226537935196e-02,7.371044296968959353e-02,-4.096788190633546267e-02,1.784782260656356812e-01
2.970112327380493578e-01,3.261827186994890049e-01,3.309974533079191872e-01,2.889722298795872543e-03,4.156612879444095306e-03,-7.710524243389905302e-03,3.563496097922325134e-02
2.824013029281871034e-01,3.423066782988914425e-01,3.655058150625138391e-01,5.396236074147156558e-02,3.622976229609244092e-02,-3.063148072030746211e-02,1.449312418699264526e-01
3.002822116332606317e-01,3.154556253921985132e-01,3.448621227282582802e-01,3.199601813219833321e-03,1.528512910813381413e-03,-2.313479920454471119e-03,3.993681818246841431e-02
2.079671227356268970e-01,3.509827018554600997e-01,3.647935008048608929e-01,8.731139642794853717e-02,-6.414908793472313964e-02,4.202981863490288378e-02,2.512648403644561768e-01
2.660642360675720131e-01,3.407825200292482482e-01,3.552614821452457217e-01,5.705011291797154431e-03,2.110687053130608508e-04,1.730880317554731821e-03,8.355278521776199341e-02
2.733503801014997014e-01,3.295187052459860322e-01,3.487822032491680879e-01,1.222550605303010865e-02,-1.667588436676863085e-03,2.754948679605693888e-03,7.132644951343536377e-02
2.897395088475699931e-01,3.091408478559377060e-01,3.395304293627080527e-01,2.510983902385785851e-02,-1.165657095100417102e-02,1.172256700442022084e-02,6.783016771078109741e-02
3.373526553994812271e-01,3.168241947400161074e-01,2.961078007308640681e-01,-5.537873247511680003e-03,2.565965942321231374e-03,5.729299139496560334e-03,3.854988515377044678e-02
3.291435370332697063e-01,3.360218465054421455e-01,2.867717475053285781e-01,-1.161399448566185870e-02,9.989672174280504746e-03,7.487033958283645721e-03,5.482999235391616821e-02
3.407653628843120286e-01,3.327033449173190660e-01,2.789566726000745067e-01,-6.112418238609321208e-03,2.836315736281137898e-03,8.749550791560376309e-03,6.126083806157112122e-02
3.305430646553737528e-01,3.094115158492874440e-01,3.090229220932442789e-01,-5.867149607325009182e-03,5.581101014057354009e-03,7.420634884337400788e-03,2.858004160225391388e-02
3.224071667649669459e-01,3.096645386711625592e-01,3.207613244441461231e-01,-4.996951611651442512e-03,7.293512274899638034e-03,9.172839180474658127e-03,2.512028068304061890e-02
3.418470677192855245e-01,3.260835367882082281e-01,2.875944503272780950e-01,-4.927130152878522393e-03,3.824332684133666116e-03,4.318492359366469906e-03,5.009268596768379211e-02
3.407322766693149374e-01,2.745427451961925946e-01,3.293772256612521598e-01,-7.086142850975726652e-03,7.869165356122568081e-03,1.086069001312105035e-02,6.669843196868896484e-02
3.991432579211673937e-01,3.320948560863782317e-01,2.159535808710318361e-01,-5.939610722069463278e-02,1.505681229325093184e-01,1.242361636449781231e-01,3.881638944149017334e-01
3.527421873069304104e-01,3.291133586771690656e-01,2.754646913325702329e-01,-4.106384247607867272e-02,4.982810274998424049e-02,6.066180317117779441e-02,1.680802106857299805e-01
3.933084974349135843e-01,4.116128598687709972e-01,1.813787297008159494e-01,-1.599140286057053328e-02,2.385463631288553543e-03,1.142091222763125247e-01,2.984023094177246094e-01
3.416696420156537517e-01,3.109441815648716911e-01,2.877631169856525450e-01,-9.321374693272288861e-03,9.146269912376148864e-03,2.368721946856810340e-02,6.624609231948852539e-02
3.426025291867118572e-01,3.328164826517577835e-01,2.859472280376238462e-01,-6.344719698848988627e-03,9.775762743858388421e-03,1.893980607885120335e-02,6.507511436939239502e-02
3.978417953778985439e-01,7.397282081381659213e-02,3.961203733335110777e-01,1.001773404671141288e-02,-2.376994394447307557e-04,2.418082749972494741e-02,3.261777758598327637e-01
3.480883753731595642e-01,3.556172802851992332e-01,2.580250400977817660e-01,1.235756995635203803e-02,3.150018018578471662e-02,-2.043562110648024926e-02,1.163353919982910156e-01
3.265137620634410709e-01,3.317543360058814450e-01,2.947212612317196001e-01,6.888043227655731016e-03,3.531307666320086802e-03,-6.517458490401292770e-03,3.888463973999023438e-02
2.762848217203343060e-01,3.418377744145848496e-01,3.386945462074757440e-01,3.402448135956873121e-02,5.338258357794064407e-02,-1.736442182061688488e-02,1.304901838302612305e-01
3.450642448604944179e-01,3.477423050210146083e-01,2.536548941848907890e-01,9.139631071666574208e-03,1.287779815582877629e-02,-9.100746500424068339e-03,9.800113737583160400e-02
3.515778468733984918e-01,2.990390176213887918e-01,3.191257301426020376e-01,4.423559620419344023e-03,5.381157304086913763e-03,-1.617654447964355507e-02,5.512792617082595825e-02
2.975555787107596051e-01,3.225731898748473991e-01,3.368082965351006930e-01,-6.144048764841116006e-02,3.591593170396797929e-02,1.840239813409958944e-02,1.318910717964172363e-01
2.707856830401783044e-01,3.420763455770957084e-01,3.489696416701036363e-01,-4.769437807328351375e-03,6.777551189194506998e-03,5.180178605066889513e-03,7.686257362365722656e-02
2.475391853428269839e-01,3.707894930230082875e-01,3.884845918760380101e-01,-6.154953602638645049e-02,1.678025846816274050e-02,6.758438403257923006e-03,1.732959300279617310e-01
2.601932736608968955e-01,3.304746050369885557e-01,3.512477363953387943e-01,-2.365214512062583860e-02,8.813516900983883393e-03,3.480754523547238081e-03,9.369421005249023438e-02
2.811604396969564212e-01,3.286908794115629417e-01,3.391599217153687951e-01,-1.044058528141578353e-02,3.343149138153535607e-03,7.068925407538576011e-03,5.811022594571113586e-02
2.837078914829572196e-01,3.391267610419831935e-01,3.309876113058023428e-01,-3.491721512992424295e-03,6.843706335663478531e-03,7.364895263639226544e-03,5.501131340861320496e-02
2.652254284437723375e-01,3.412317039219131543e-01,3.358891372641438222e-01,-2.350036344489651527e-02,3.614082797052832474e-02,1.959037031421049721e-02,1.101183742284774780e-01
2.808910096437150505e-01,3.596298399210020591e-01,3.620178182091088881e-01,-4.286836535985605323e-02,4.589981597625183291e-02,3.193104184753186442e-02,1.458964645862579346e-01
2.907998446869297093e-01,3.307383401168045300e-01,3.326321441718356198e-01,-1.536248113485325778e-02,1.634069084402595476e-02,7.073198506154247146e-03,5.773619189858436584e-02
3.333638756566821848e-01,2.805868534088944433e-01,3.393365754502992715e-01,9.752946874882944053e-03,-6.526146553799581744e-03,2.624285738695877109e-03,5.975032225251197815e-02
3.478627844315924089e-01,2.599511262168506809e-01,3.428951687714723584e-01,7.495993505826598763e-03,-3.456764354789869549e-03,2.534242651737605642e-03,8.683380484580993652e-02
3.438086737518020186e-01,2.635376430580585461e-01,3.886408814375931220e-01,7.063805828053928981e-02,-1.047571967126739376e-02,2.146563436359688951e-02,1.695076376199722290e-01
3.181260600387065263e-01,2.961653419818106037e-01,3.327057301907693776e-01,5.793583700789120029e-03,-7.648788768194428322e-03,6.294852189735631806e-03,3.755135461688041687e-02
3.196430900833410194e-01,3.439305682847490497e-01,3.036342276364518700e-01,6.979988941853328306e-03,-1.319954376410548309e-02,7.884370830485373099e-03,4.571995884180068970e-02
3.001567238644062829e-01,3.186108779737911734e-01,3.306385183941644712e-01,3.797463931011008792e-03,-3.212038185639977308e-03,6.196579944191891141e-03,2.994305267930030823e-02
3.356783121678285631e-01,2.758557743601395273e-01,3.468168981105556048e-01,2.751553167605069392e-02,-4.487792867676173962e-03,4.234729184889081052e-03,8.218683302402496338e-02
3.274196231482925379e-01,2.942366139976125283e-01,3.330757841241885342e-01,4.278617503382187680e-03,-7.420025619872316902e-03,6.365676448305932107e-03,4.077313095331192017e-02
3.089868855946785176e-01,3.515055390891624887e-01,3.533549402953248264e-01,5.118111668339509618e-02,-4.824901457918674003e-02,3.988228075594645039e-02,1.466427743434906006e-01
2.723182838855398025e-01,3.362900183680748167e-01,3.399626209252423759e-01,-1.167265058188336757e-02,-9.068175096348352407e-03,-9.068510170311398777e-03,7.240839302539825439e-02
3.414119168857346898e-01,3.303855224910171584e-01,2.826251242803829444e-01,-6.288292803364335139e-03,3.594693091286685176e-03,7.616973567980347623e-03,5.710262805223464966e-02
3.835607526256183952e-01,3.102899788851156693e-01,1.633149772974462899e-01,-3.262860695438764974e-02,5.563523020336558905e-02,1.185734010405167099e-01,3.039702177047729492e-01
3.491044259552215645e-01,2.686886039009992455e-01,3.331151892033995532e-01,-6.282068565171323614e-04,2.203285884541167448e-03,1.374263311028661901e-02,7.758156955242156982e-02
3.487622321032054495e-01,2.888702602585246360e-01,3.125214385585701193e-01,-1.401153412539374874e-03,-1.491932993243147952e-03,9.035911263993102321e-03,5.465730652213096619e-02
3.503627098624993441e-01,2.582734280423472084e-01,3.521438006422766831e-01,6.292701837491607685e-03,-2.628076369708528138e-03,2.716886379726616424e-03,9.385780245065689087e-02
3.256521621258861576e-01,2.878121958924323986e-01,3.429194584532445633e-01,5.084485223486735761e-03,-5.292440197009160539e-03,2.797928076659243063e-03,5.068024620413780212e-02
3.128257150072655257e-01,2.834945584044161748e-01,3.564047743731783013e-01,2.721262067642699067e-02,-1.264175475261188411e-02,1.070860610380615190e-02,8.415889739990234375e-02
3.561925307760469561e-01,2.504232842219333843e-01,3.555600758742369916e-01,5.091754442235329331e-02,1.127179277899314352e-02,-8.693573776627170138e-03,1.396650373935699463e-01
3.594937650032515308e-01,2.339441338507951273e-01,3.510926538244935058e-01,1.967395873193241926e-02,-2.110945644782007136e-02,2.577637357689525205e-02,1.388157755136489868e-01
3.644628283583414841e-01,2.025979741193808525e-01,3.908946413424465582e-01,7.591769444415219200e-04,-9.644814664156132686e-03,2.253988942599087497e-03,1.774071305990219116e-01
3.312965158248597497e-01,2.703632583054826344e-01,3.787275590788438673e-01,7.547006857765135857e-02,-2.197343689933398125e-02,3.041142725989394446e-02,1.736748367547988892e-01
3.628528611620831512e-01,2.983738243062118989e-01,1.977279913496595154e-01,-4.591390822251084636e-02,-6.495679758393897718e-02,-1.279531988142716681e-01,2.981193661689758301e-01
3.391029248678805730e-01,3.259512435849094558e-01,2.814887697055872273e-01,-7.847334836726118160e-03,-3.859420333981034359e-03,-8.672524525989265196e-03,5.647742748260498047e-02
3.384241902376052269e-01,3.083709443209077250e-01,3.082102048396145877e-01,-8.909439378564018575e-03,-4.823389826390274762e-03,-1.341866382711088407e-02,4.190662875771522522e-02
3.200586437082426627e-01,3.321726322450084812e-01,2.984305694365383399e-01,-7.144881226491588133e-03,-4.192286336729912979e-03,-4.886508539661627362e-03,3.397104889154434204e-02
3.482220229288398583e-01,3.358261637722932402e-01,2.760704608607564836e-01,2.910179866533974934e-03,5.244732427413282064e-03,-9.710648671723550590e-03,6.968460232019424438e-02
3.910590166848270655e-01,4.242933584780569367e-01,1.109553242971877685e-01,5.605631713588717091e-02,7.257756612551907738e-02,-1.201995830749937322e-01,3.967933058738708496e-01
4.819390438262488030e-01,3.537977087326625303e-01,1.825792729800787551e-01,-4.717712442086840000e-03,6.953108519972285573e-02,-9.646365218898944605e-02,3.319070637226104736e-01
3.160995863627744096e-01,3.031640767679201209e-01,3.402738634638557413e-01,-2.121346327277936605e-03,-2.782207787503446217e-03,-1.628876899363828441e-03,3.330332785844802856e-02
3.473579044977292418e-01,3.260389362416126202e-01,2.655158816658636511e-01,-1.595159136827447015e-03,-3.081517522754675573e-04,-1.744757609749331487e-02,7.955501228570938110e-02
3.446263127420683969e-01,3.313469042824528366e-01,2.659333615094891523e-01,-6.949156642279657146e-03,-1.563981582788735378e-02,-2.327175406326088131e-02,8.847222477197647095e-02
3.775696086763342674e-01,3.733275352116710577e-01,2.424495993574908581e-01,5.504068951650290670e-02,3.998237347921588386e-02,-1.495432129370560526e-01,3.141272664070129395e-01
3.749703796612524065e-01,2.511681544692049850e-01,2.434942310920595321e-01,4.508505807946812383e-02,4.838163439706511665e-02,-1.376331556535403400e-01,2.937429547309875488e-01
4.443624049831169653e-01,1.892402351370208458e-01,3.733546690466030271e-01,7.689508293150308649e-02,8.969326178182418161e-03,-7.249351614050748849e-02,2.928474247455596924e-01
4.002985456269136377e-01,2.589345486148255659e-01,3.242759683340967203e-01,3.758486679372022993e-02,-2.975157859841639357e-02,7.647587042067438556e-02,1.986337602138519287e-01
3.932215024851314356e-01,1.564250453282435560e-01,3.173627490745329904e-01,4.424876799343269856e-03,8.124739964588640478e-03,1.249501514819046644e-01,3.015931546688079834e-01
4.701116583638034196e-01,2.045353012096466916e-01,3.376591268158843917e-01,8.687327475570320867e-02,-3.943233397114991046e-03,1.115125436912481893e-01,3.359924256801605225e-01
3.422197318028717405e-01,2.703864668703707119e-01,3.874117235361889677e-01,1.624471362731497726e-01,-2.355664170311546485e-02,5.072751876837770096e-02,3.146433234214782715e-01
3.307267921601548810e-01,2.722930462275598984e-01,3.421026630592671203e-01,1.231498034288772657e-02,6.952348302413624212e-03,-5.020128145050150280e-03,6.988730281591415405e-02
3.059565730721872101e-01,3.066648814226239916e-01,3.388375931715280620e-01,9.048114798166218345e-03,4.559298129699076822e-03,-4.846012012704860837e-03,3.790503367781639099e-02
2.816686366893941251e-01,2.924020407791226295e-01,3.789927402041168292e-01,5.856295138570724590e-02,2.997699821427261130e-02,-1.727467295038316239e-02,1.497415453195571899e-01
3.480805858621622839e-01,2.561347106663469653e-01,3.445884139609168839e-01,1.120305398662425900e-02,1.191204016900786894e-02,-1.109664919096251673e-02,9.652341902256011963e-02
3.499423300546720128e-01,2.791141919981439679e-01,3.047048269182988101e-01,-3.608738673299450705e-03,-3.429237169658822058e-03,-3.619311959091517372e-02,8.867435902357101440e-02
4.221624853311989334e-01,3.360723790419703483e-01,2.329629416550548227e-01,2.440215099200653340e-02,9.261404921042834526e-02,-1.480247779781302675e-01,3.466587066650390625e-01
3.394797928534152853e-01,3.316120280333101356e-01,2.816020148892363073e-01,7.044707967484218486e-03,4.267032425904489223e-03,-6.576794664990203917e-03,5.735537782311439514e-02
3.445931617910600875e-01,3.175308817589950205e-01,2.895617499952387042e-01,1.609920451818931154e-03,-7.656081934439947423e-04,-7.615915908840050971e-03,4.954884946346282959e-02
3.997465602672740093e-01,3.672981730843750126e-01,1.969692523537106554e-01,-3.114759300434924373e-04,-2.030989688617258412e-02,-5.658591010264930887e-02,2.154887467622756958e-01
3.065475735479816222e-01,3.413036768297131318e-01,3.085515601883257464e-01,3.088050303836395016e-04,-1.379698537941549978e-03,2.724838151179612058e-04,3.389057889580726624e-02
3.104115569752741721e-01,3.333723142756286340e-01,3.098308006416607974e-01,3.447539132681353216e-03,-3.327937137698775989e-03,2.348967195561018316e-03,2.502605132758617401e-02
2.713216643472444178e-01,3.451107856974457988e-01,3.417743833595394687e-01,4.866282238415858656e-03,-6.138219904458632435e-03,7.199368785776443305e-03,7.449391484260559082e-02
3.033409214350503702e-01,3.414437092426081954e-01,3.074204050708180258e-01,9.243035127029690522e-06,-3.913599930867299286e-03,-1.309012796741916606e-03,3.693392127752304077e-02
3.067760343055108696e-01,3.414186476488819677e-01,3.085710195917945042e-01,1.376968543671260416e-04,-7.993027181261243199e-04,-4.656098376844311189e-04,3.381972014904022217e-02
3.069380824094823934e-01,3.397071547085756538e-01,3.084806929822141441e-01,-5.102798604195955823e-04,-4.190210788778681028e-04,-6.717932725353712342e-05,3.204626590013504028e-02
2.856422762797983239e-01,3.417488488679345515e-01,3.111656937410682833e-01,8.512869768356932931e-03,-2.488721596176471720e-02,8.971785235146396628e-03,6.844243407249450684e-02
3.065121059048770968e-01,3.400615386532385709e-01,3.091965651198489429e-01,1.687394276483416232e-04,-1.458288142371726680e-03,5.393239570100681699e-04,3.240442276000976562e-02
3.093149214671735425e-01,3.418346740206031353e-01,3.081476403264721831e-01,1.350777454636863367e-03,-6.776977274473944442e-03,2.284563414171237542e-03,3.543685004115104675e-02
2.426440130529419203e-01,3.835482630144360083e-01,3.801434894177015411e-01,3.212229292651721385e-02,-2.097713507475019654e-02,5.534198142582159342e-03,1.545748412609100342e-01
3.129531495070173586e-01,3.322491191351104600e-01,3.095880865821696304e-01,3.321049891872528918e-03,-2.308403955963901893e-03,1.370386820144588657e-03,2.243431285023689270e-02
3.176449490993891178e-01,3.813632689970721801e-01,3.118030478849561082e-01,-2.807292927121335380e-02,-7.883752352244512152e-02,-4.040095105051340341e-02,1.742797493934631348e-01
2.420687852989897304e-01,3.457566375437620132e-01,3.791976426896535024e-01,2.218491844180961806e-02,-1.863251036363515814e-02,6.809406423703466896e-03,1.341418027877807617e-01
3.192889182390302727e-01,3.262368469561243156e-01,3.531496326226293836e-01,5.643815393963588084e-02,-4.429291539382376047e-02,4.107520477408749954e-02,1.465007215738296509e-01
2.945732021609958062e-01,3.270208273377322450e-01,3.336433738989004749e-01,3.266740400449135839e-03,-6.117139645404974860e-03,6.851885746394538457e-03,3.995885699987411499e-02
2.828453202375845743e-01,3.387621788227751507e-01,3.305796331068516780e-01,3.272373624713572401e-03,-7.521192236314996546e-03,7.186225845123638684e-03,5.561351031064987183e-02
2.870812958995214159e-01,3.487486394933176359e-01,3.258846127922303548e-01,3.697618444382973733e-03,4.509020916385007675e-03,-3.330219218890978841e-03,5.523534491658210754e-02
2.699604264312360224e-01,3.586381039963812967e-01,3.293976407044953980e-01,2.877977082638217762e-03,1.704284369972662583e-02,-1.825621873645979706e-03,8.385691046714782715e-02
2.843770368630649803e-01,3.391448847928115184e-01,3.262880241695096939e-01,-5.276229654319695983e-03,6.543179165441057217e-03,9.912404799355041887e-03,5.447380989789962769e-02
2.872424364434100763e-01,3.490495863982154834e-01,3.273376549535449986e-01,-3.206465892657679468e-03,5.433646864601111501e-03,3.618581191265633594e-03,5.575194582343101501e-02
2.984527366803797488e-01,3.403942935478901921e-01,3.152981305221347341e-01,-4.098954062779941216e-04,2.785736062840111181e-03,3.044016595625738918e-03,3.725483268499374390e-02
2.982114856998559493e-01,3.437593484296001534e-01,3.158216034316143062e-01,2.819313261410055001e-03,1.756653757468673582e-02,-6.884783426009555111e-03,5.171476304531097412e-02
3.020686490980350469e-01,3.431728960383026439e-01,3.150892643873935972e-01,3.612754014719090669e-03,3.087316551613635950e-03,-2.189746183985723585e-03,3.749704733490943909e-02
2.870107688987274530e-01,3.123841970094660137e-01,3.401552394546499269e-01,-2.418871626424914587e-02,-1.200715794143939960e-02,-1.163389672068549166e-02,6.865514069795608521e-02
2.833519544785431665e-01,3.257514069191594919e-01,3.480884042773539910e-01,-5.847933620376052216e-03,7.242857058560830778e-04,9.755133330255258937e-04,5.788570642471313477e-02
3.491888991475245452e-01,2.776575937763429702e-01,3.383503659997045832e-01,1.899449556995997171e-02,-8.798141717068920509e-03,3.904134744178323208e-02,1.017161831259727478e-01
3.162510829733831130e-01,3.356575158954823723e-01,3.028292478246047970e-01,1.451776714872710095e-02,2.361795179454760987e-02,-1.951678364982864858e-02,6.531201303005218506e-02
3.317839863278419510e-01,3.181286222263784436e-01,3.070445899593138850e-01,5.036299758567727020e-03,7.992360237572831852e-04,-2.682468404187950822e-03,2.367017976939678192e-02
3.294746769761029981e-01,3.138347149909775369e-01,3.062083921970322198e-01,1.071689219773611090e-02,5.194249454567142349e-03,-4.551731571248487582e-03,3.016115725040435791e-02
3.327915600273965158e-01,3.036616355666709732e-01,3.144280037687203766e-01,1.253197067965257892e-02,1.077931881149741568e-02,-1.413907334184755400e-02,4.550072550773620605e-02
3.303195238814083390e-01,3.324819800867551689e-01,2.852238868256165016e-01,8.749319996436683358e-03,9.417795313353301279e-03,-5.370505545598414782e-03,5.213514715433120728e-02
3.264045540161780168e-01,3.322098554664260073e-01,2.985358964937186999e-01,6.596234088746393345e-03,3.469207483294642347e-03,-5.582712922376715896e-03,3.510394319891929626e-02
2.909523066805322911e-01,3.513513992026115473e-01,3.248910309201703539e-01,5.225961184156541900e-02,3.825602548871111924e-02,-3.586381735639880552e-02,1.385367512702941895e-01
3.174992310323310751e-01,3.053314248321224444e-01,3.288990897013437387e-01,2.056685335175527027e-03,5.194698763385495639e-03,-1.760242381775794758e-03,2.279612794518470764e-02
3.191013485751761913e-01,3.191498733137252408e-01,3.181277514920437532e-01,4.561408992012919658e-08,4.679034369430977881e-04,3.577114209859016611e-04,1.427642419002950191e-03
3.177991025806494174e-01,3.178542237784163227e-01,3.179849579846246166e-01,-1.156760001133389556e-03,4.711730941694879321e-04,3.608934246784108071e-04,2.257955260574817657e-03
3.190957601623485851e-01,3.183031733562795007e-01,3.188724519434645854e-01,-5.498944112637562222e-04,-6.604582195211216923e-08,4.407505757955781076e-04,1.411029486916959286e-03
3.172769831464197776e-01,3.186332407386539001e-01,3.198173064055549464e-01,-4.945146330906358394e-04,1.678741640116707123e-04,7.268224909312149661e-04,2.692644950002431870e-03
3.201238816473762072e-01,3.185666995056352091e-01,3.153776840849242813e-01,-2.158107369175705018e-03,6.096843745967407647e-04,1.244630805223365458e-03,6.106984335929155350e-03
3.174530649961159190e-01,3.190122010040685741e-01,3.153304492756471289e-01,-1.291180700867432946e-03,1.447162948352195269e-03,4.159907654453646780e-04,4.695666022598743439e-03
3.379560153857889548e-01,3.809936565542504927e-01,2.849035352787198661e-01,-2.012900131092017209e-02,-6.196107308559341276e-02,-3.422822643897027728e-02,1.523083299398422241e-01
2.668884370254775429e-01,4.093882554404355556e-01,1.974699479822649706e-01,-9.685844096712815585e-03,-1.434933080365060065e-01,-1.461106503905418644e-02,3.125861883163452148e-01
2.853630120000906767e-01,3.995118191316893164e-01,2.874086252266102592e-01,-1.329115083522980703e-02,-1.575712468593831461e-01,-7.332154563522835788e-02,3.224047720432281494e-01
2.722931651995778579e-01,3.802513341575053385e-01,2.036542360248406736e-01,-2.477148617672983097e-02,-1.372969712694275257e-01,-3.286655703215646263e-02,2.922486662864685059e-01
3.276137938345023426e-01,3.494197568896714734e-01,2.834518884277101858e-01,-8.669652923369785495e-04,-5.615701635034868293e-03,2.347408846110398480e-04,5.904062464833259583e-02
4.382141333707000319e-01,4.667242496012312114e-01,1.769810589265684020e-01,-1.225300144076927472e-02,-8.398257329816109784e-02,-4.891360880519714932e-02,3.244850933551788330e-01
3.551009277245385509e-01,3.298685510496426887e-01,2.649585853474949459e-01,-7.556811384126917858e-03,-2.419160876506045322e-03,-1.394249617815127712e-02,8.520482480525970459e-02
4.548505352389300427e-01,3.731726846201149361e-01,1.846327990799112306e-01,-3.303102929801565030e-02,-4.922711639858925320e-02,-8.220631956427618126e-02,2.973799109458923340e-01
3.693667785517755764e-01,3.070524237647103138e-01,2.503199229945018978e-01,-1.439319748426618091e-04,1.446233483856705637e-02,-9.191937820998327680e-02,1.913425177335739136e-01
4.101850142098712459e-01,3.217894297915171453e-01,2.883318060010560679e-01,1.624128923901412350e-02,2.775766085853027115e-02,-8.355948737226502609e-02,1.895786523818969727e-01
3.538666880143112037e-01,3.363323220161121840e-01,2.588082057358720434e-01,5.969222538262722311e-03,9.485399547477178436e-03,-2.330056142180809281e-02,9.839888662099838257e-02
3.565336568768545100e-01,2.713854971489260137e-01,3.332949777527481339e-01,-1.255518787823298741e-03,-5.064588280639977912e-04,1.324152560026309496e-02,7.964312285184860229e-02
4.022540110036130212e-01,2.684820078355416584e-01,2.004718143435650912e-01,-8.553910614655645464e-03,-1.591135149671552007e-02,-1.482961062447856193e-01,3.139624595642089844e-01
4.176153935992668598e-01,3.662427693038481369e-01,2.430134038087189419e-01,1.829969652460941565e-02,3.018506529754551304e-02,-1.533316917410050273e-01,3.137277662754058838e-01
3.719808299169667376e-01,2.536038765697713471e-01,2.266547384218178252e-01,3.732851561724013362e-02,5.736264834189734596e-02,-1.576864465034233664e-01,3.264601528644561768e-01
3.741804852870157516e-01,3.923833332703833277e-01,2.047539903718132714e-01,-7.117389314919488064e-02,-6.312949565512041006e-02,-1.232180758627745287e-01,3.237622082233428955e-01
4.008199003127761451e-01,3.175345603697240504e-01,2.423369597621521931e-01,1.888208375074217418e-02,8.624550493078600444e-03,-7.707825896517377096e-02,1.948586851358413696e-01
3.570214601700508750e-01,2.415984703227896935e-01,3.192490799797074730e-01,2.156613772684903407e-04,1.014343033242281989e-03,5.302829863163314311e-02,1.372175067663192749e-01
3.093471377851029769e-01,3.352925676753612527e-01,3.089035377930138271e-01,6.751562721054445116e-04,-3.480694342008135459e-04,1.034905506437952365e-03,2.626433968544006348e-02
3.086713519416776630e-01,3.359510609770486322e-01,3.090827892473104188e-01,9.420067603933160276e-04,-1.095616989787655694e-03,2.038918961745750554e-03,2.742011658847332001e-02
3.125674497785429495e-01,3.359868388359691926e-01,3.091284294756045381e-01,2.419065465406189039e-03,-6.944035456367255929e-04,9.766808894278659458e-04,2.574292756617069244e-02
3.104680253587863148e-01,3.396088243291419118e-01,3.115018627012901553e-01,3.342729698642623367e-03,-5.139947744182277178e-03,3.603719728254174866e-03,3.117478452622890472e-02
3.147126386650912488e-01,3.417125705206604525e-01,3.016736533848769497e-01,2.572426716216573948e-03,-2.144935753325567449e-03,1.107062182868049716e-03,3.589421138167381287e-02
3.189890890521409061e-01,3.375929685751362652e-01,2.957778896559354886e-01,5.771787842052904412e-03,-4.086469473382889003e-03,2.386971952007499193e-03,3.852030262351036072e-02
3.061954361408957825e-01,3.189747610794361199e-01,3.200243662657915045e-01,4.088452097704686587e-03,-4.015179175968184265e-03,6.602055781479675145e-03,2.017669007182121277e-02
3.228949905379772667e-01,2.762370489234168280e-01,3.381436545662506177e-01,-2.036993828515213170e-02,1.134485400600551697e-02,6.431719665561925689e-03,6.982820481061935425e-02
4.350305670848433337e-01,1.788128729131540084e-01,3.847571628027585122e-01,2.645706680227780105e-02,-4.992166923704449699e-02,9.816823146889962215e-02,3.062375485897064209e-01
3.562975536183813352e-01,1.473025094990468853e-01,3.742193129475984148e-01,-7.928528911080065522e-02,1.139809885287867974e-02,4.336452398288076493e-02,2.695094645023345947e-01
3.262480861770536422e-01,2.933790141973794396e-01,3.827961843002495312e-01,-6.862138460567025755e-02,1.720226235286407418e-02,1.655561036748605733e-02,1.482344418764114380e-01
3.380805023632452722e-01,2.906705641737176160e-01,3.704340625110787433e-01,-5.625934965862141451e-02,2.730806054275277187e-02,4.617111903530185524e-02,1.515129953622817993e-01
3.940583031263582003e-01,2.509940857062687991e-01,3.580651373751867483e-01,-1.197522881156474484e-01,3.440447976686095144e-02,7.008451943805135698e-02,2.791449427604675293e-01
3.479009682999369968e-01,3.304718233061864074e-01,3.305569544673265248e-01,-5.218012032896830049e-02,4.827401594571169990e-02,5.090460835861653627e-02,1.524321883916854858e-01
3.078850729590892343e-01,3.128839684038371427e-01,3.359965264376201799e-01,4.355721787516958553e-04,-1.039147359933379356e-03,2.549356928090894085e-03,2.642012201249599457e-02
3.498306859138647917e-01,2.474551893928322865e-01,3.575713926024894351e-01,1.167625446785244998e-02,-4.188714917315125401e-03,4.882632452867449735e-03,1.089324578642845154e-01
3.118955890382534846e-01,3.088190894884651483e-01,3.354478277951486453e-01,1.983398122957691703e-03,-8.198341646298401130e-04,8.827126553544398929e-04,2.554969303309917450e-02
3.072626541736632744e-01,3.048066019206680521e-01,3.395058361439193262e-01,4.941203867141881652e-03,-1.178370515354376993e-03,1.156023884104591349e-03,3.473135828971862793e-02
3.182372230890367359e-01,3.164842854258740901e-01,3.195667582759044723e-01,3.642403753102657713e-04,-1.140745199269722118e-03,5.165028748973368245e-04,3.503324696794152260e-03
3.101508533809750889e-01,3.080900642997468908e-01,3.398033555837521869e-01,1.309996579601282671e-03,-8.982134328914107881e-04,1.037135749483936078e-03,3.090988285839557648e-02
2.996734713543304229e-01,3.141877530770920135e-01,3.401820034511514046e-01,2.473666635713424843e-03,-2.328458032483475808e-03,4.006789133809993651e-03,3.669384866952896118e-02
3.697060925024306943e-01,3.434524038942225466e-01,2.142805147888211525e-01,-5.408514395938886221e-02,-6.417942409670318593e-02,-8.957466368106037358e-02,2.568449676036834717e-01
4.145296214382955258e-01,3.949133321995383361e-01,2.062719637848391130e-01,2.159611846566695734e-03,-5.409750113443829306e-02,-1.434261692339545979e-01,3.319301307201385498e-01
3.515918579438329084e-01,4.689738673272240144e-01,1.776071137141896628e-01,-2.632048867614940942e-03,-8.758754116198327888e-02,-4.178314618689515231e-02,3.045404851436614990e-01
4.030380924305687618e-01,3.699554952627548410e-01,1.811464565554294082e-01,-1.197473350343230235e-02,-2.723757219609921829e-02,-1.033101854441322437e-01,2.786833941936492920e-01
3.494722827513677688e-01,3.276571807294033079e-01,2.814276905575216481e-01,-5.497765830757008702e-04,-8.869375050695864696e-03,-2.732175543180688157e-02,7.808908075094223022e-02
3.549217809916797028e-01,2.872163054366303481e-01,3.137487104092534507e-01,-1.009807834545711942e-02,-1.640913383260244815e-02,-2.375783203034435853e-02,7.936376333236694336e-02
3.489239735427803746e-01,3.072274896744134898e-01,3.015773074630274664e-01,-9.273528396425365907e-04,7.646280092675971155e-03,3.714173962072724738e-02,7.951488345861434937e-02
3.266166666564366272e-01,3.476809018381690763e-01,2.845846359468158226e-01,-1.087900602393686734e-03,4.882741699292954610e-03,7.778845935862860892e-04,5.632632970809936523e-02
3.042033801064236154e-01,4.025613684956818039e-01,3.045414349012824373e-01,-1.028302297668430045e-02,6.908681040790215500e-02,6.911049570514565983e-03,1.562710106372833252e-01
3.126010516517134241e-01,3.661220210629934635e-01,2.358345314802328119e-01,-1.021208631237967290e-02,5.904133572244894823e-02,1.118998448135331489e-02,1.549592167139053345e-01
3.413699913265182406e-01,3.535566897930403352e-01,2.637544530991756675e-01,-5.185672139217380357e-03,8.884513216951075293e-03,1.571925805210557360e-03,8.627545833587646484e-02
3.234313631686134838e-01,3.568132714121700078e-01,2.667259619007106286e-01,-3.540129753032306842e-02,4.402575740247990921e-02,5.179261265337356535e-02,1.544175148010253906e-01
3.294623235306545217e-01,3.555429231360435205e-01,2.739116883104303346e-01,-4.322504033305392401e-02,5.016588982476993808e-02,3.924530887473116209e-02,1.516262143850326538e-01
2.831578311502686018e-01,3.479174400077560403e-01,3.137809317846210200e-01,-5.602392748083209403e-03,3.412432921141533154e-02,6.204232338644297996e-03,8.277372270822525024e-02
3.424467918468973582e-01,3.540621810453336016e-01,2.664082332251858087e-01,1.907528369087256939e-02,-3.329445142811073705e-02,2.045940138027379368e-02,1.116822212934494019e-01
4.727747338988576020e-01,2.547933062935964221e-01,2.608721852805351848e-01,6.677741642982661097e-03,-1.780387524272305372e-02,1.436799546807772943e-01,3.305212259292602539e-01
3.878663707867986976e-01,3.497321388158310951e-01,2.500516637062657477e-01,3.850276325047539971e-02,-5.151860148360468128e-02,1.642344928265521975e-01,3.294244110584259033e-01
3.441897099610247146e-01,3.453052802524848586e-01,2.543096741949744111e-01,8.431824209584843494e-03,-1.277340891733794517e-02,9.444909495663450852e-03,9.565729647874832153e-02
3.487139528070942185e-01,3.048684036372065753e-01,3.145102613714687023e-01,-2.595514128516494476e-03,3.598977928839801679e-03,1.668963518611470132e-02,4.987328872084617615e-02
4.576591283602821636e-01,4.018172218784425986e-01,1.030507466782896731e-01,2.298044710302795876e-02,-3.220110824204860250e-02,3.094382845000865148e-02,3.415128290653228760e-01
3.908654575350055116e-01,3.814908397737792889e-01,2.260337295538159819e-01,1.173382378827550433e-03,3.274132061139911620e-03,3.869772832659151146e-02,1.738993376493453979e-01
3.796433196920354636e-01,2.270202561024147747e-01,2.474264676664747475e-01,6.452172386305064788e-02,-5.305974853509041328e-02,1.590236052124828492e-01,3.426316380500793457e-01
3.417131196212557787e-01,3.114125163555871434e-01,2.902844181979316596e-01,5.290922607527485770e-03,-2.885646632159513496e-03,9.286597622766890742e-03,4.870731383562088013e-02
2.570913375637379206e-01,2.867578449695794562e-01,4.430595470828210813e-01,-1.579586209135005470e-01,-2.108058538084383454e-02,-5.466164006479640874e-02,3.392593264579772949e-01
3.338847349173932888e-01,2.110079570729761489e-01,3.538885143473421979e-01,-9.393362483172497390e-02,-4.298508786869720960e-02,-7.177543723964031896e-02,2.557845413684844971e-01
3.096314520798146286e-01,2.752346762413541703e-01,3.586281385590608384e-01,-9.688109260596687589e-02,-1.042014015438158248e-01,-8.030438922750957054e-02,2.921423614025115967e-01
2.023429715944747020e-01,2.903449043302901433e-01,3.582312494217988474e-01,-1.317997474523002199e-01,-8.406783273228309039e-02,-5.739937451036988825e-02,3.186327219009399414e-01
2.974898873000628163e-01,3.266815756561812778e-01,3.330678057054597407e-01,-2.965750609356624257e-03,-4.179049818782662115e-03,-6.384052235822281277e-03,3.578284755349159241e-02
2.417576462872629561e-01,3.414748850150152171e-01,3.968494049679216484e-01,-5.593522157522574922e-02,-8.118379740905991293e-03,-2.231697001844592729e-02,1.720748990774154663e-01
3.000494273890113028e-01,3.306963574778125636e-01,3.221154304326817042e-01,-3.552262871048978213e-03,5.265501815912446669e-03,8.719206672467921804e-03,3.315107151865959167e-02
3.021441724679960750e-01,3.167201591787804360e-01,3.319994503199673042e-01,-1.516150183082643974e-02,1.096942728926055856e-02,9.670632970833738240e-03,4.471899569034576416e-02
3.052229194913168020e-01,3.382096604138932205e-01,3.264910474872860235e-01,-8.042039504770849209e-03,1.900834141219757793e-03,8.437070828608653553e-03,3.545853123068809509e-02
2.937793737897794744e-01,3.264981406013571785e-01,3.300526638634870835e-01,-3.626160295475197495e-03,6.450285164344161590e-03,7.128575393158030279e-03,3.893799334764480591e-02
3.086569792813427249e-01,3.172748763211830636e-01,3.343409624197003494e-01,-1.805169145999603380e-03,1.996913951381561105e-03,5.549306892072234168e-03,2.503430657088756561e-02
3.016490610172040676e-01,3.302393906983731031e-01,3.183369954470602337e-01,-3.106168375338778584e-03,3.653453246454664918e-03,6.802156346148219637e-03,2.875024452805519104e-02
3.084792835393364019e-01,3.304816506688134092e-01,3.157218615082286184e-01,-1.789689191027717423e-03,2.160026822710328902e-03,3.482350648736422596e-03,2.090912871062755585e-02
3.118332122494729131e-01,3.083467785703675190e-01,3.318883104433233422e-01,-3.412550644164132063e-03,3.450035735484972572e-03,1.876082633413374973e-03,2.377996593713760376e-02
2.853764972976438608e-01,3.483547231867071270e-01,3.258001569666982844e-01,-6.956298032446624246e-04,4.565542558665237026e-03,3.232010907470786996e-04,5.584636330604553223e-02
3.184467586025580554e-01,3.449257766840288508e-01,2.991711835267757413e-01,4.416237554492367760e-03,1.646955173136591469e-02,-6.326075527678507240e-03,5.074829980731010437e-02
2.582524634997036550e-01,3.924338654575423302e-01,3.524831609629073270e-01,3.069739720679072470e-02,5.920787888184435993e-02,-2.912569069071934552e-02,1.735761910676956177e-01
3.124012674477932849e-01,3.155730122468378140e-01,3.049777687523337333e-01,2.212810955720436595e-02,2.352908356300422929e-02,-2.478132256433707506e-02,7.113978266716003418e-02
3.107138263265287748e-01,2.902284826096614978e-01,3.406069080864224108e-01,-2.295537346702425721e-02,9.251002540341137642e-03,7.701164137521631162e-03,6.277842074632644653e-02
3.168951346630174415e-01,2.926695765670032645e-01,3.406955405955472971e-01,-6.808787690649576764e-03,6.836849204743616036e-03,2.019550851819257222e-03,4.496061801910400391e-02
3.263062984137217182e-01,2.902370522214631765e-01,3.411685281733358721e-01,-4.166967677125301729e-03,5.760578693615549251e-03,1.705213562080960029e-03,4.709896817803382874e-02
3.297917315000836180e-01,2.812192451468736865e-01,3.391577554935803485e-01,-7.663501819248621713e-03,6.733399602315658442e-03,2.888366765695470420e-03,5.691372230648994446e-02
3.480124475659938654e-01,3.301889969475435560e-01,2.718548375609881051e-01,-3.077998563160469839e-03,-1.697750478275241500e-03,-1.107421174576723490e-02,7.186967134475708008e-02
3.533756193222662989e-01,3.294197189802278714e-01,2.683132226734180059e-01,7.001078174639338569e-03,4.846048319075710125e-04,-1.427850677878272564e-02,8.081538975238800049e-02
3.526576137862377225e-01,3.257621037629693794e-01,2.679379135251532262e-01,-3.521184630164303671e-03,-2.513268137213757209e-03,-1.506850381775697370e-02,7.974673807621002197e-02
3.390624953420727783e-01,3.307230593476684355e-01,2.821341514660201111e-01,-6.844913622635210096e-03,-3.446089632327350473e-03,-7.940601146185496256e-03,5.657717585563659668e-02
3.545435666402201869e-01,3.269010306373920094e-01,2.603540713065894963e-01,-1.118451390792731676e-02,-2.944068002195441430e-02,-5.403689675050436098e-02,1.369950175285339355e-01
4.599356051798679790e-01,3.350708902730460403e-01,1.814883072924773078e-01,-5.853942731791619836e-02,-3.749926654492927863e-02,-1.289011571710453052e-01,3.502878248691558838e-01
3.888877247122371483e-01,3.626267914039210116e-01,2.211615521389965755e-01,-8.849559096493972432e-03,-3.347538478670494897e-04,-3.095947243592636622e-02,1.659150570631027222e-01
3.401848298782866320e-01,2.798711886690182227e-01,3.316763349081744972e-01,2.709116027760047427e-03,-7.380419814041945872e-03,5.642565716043738619e-03,5.897369608283042908e-02
3.415176496092631742e-01,2.692369501310954427e-01,3.571415591414792146e-01,6.440859600402806633e-03,1.309811332963361228e-03,4.390616895448257173e-03,8.237321674823760986e-02
3.319999027996842766e-01,2.547403507794617772e-01,3.531413778587219054e-01,2.702160004068211024e-02,6.516827556208174346e-03,-5.048183044617637200e-03,1.021946221590042114e-01
3.677111446435524234e-01,1.990208146202099015e-01,3.679602204766388995e-01,1.359148807349371566e-04,-1.935838972808990536e-03,-4.468903278078668363e-03,1.690257936716079712e-01
4.733690365223523489e-01,2.067046453031084752e-01,3.992010835253553824e-01,6.932655730589566689e-02,-2.997195618934629657e-02,1.245258499989960743e-01,3.470826447010040283e-01
2.743589323406271929e-01,3.266868405351761040e-01,3.492391949610159085e-01,-7.329820220185724600e-03,-6.451586533412046777e-03,-8.158435098178127426e-03,7.009039819240570068e-02
1.469063435474598500e-01,4.093224728929114042e-01,4.929733400176777858e-01,-8.495198183902891165e-02,-2.063744249393332023e-02,-3.201068191222680021e-02,3.518711626529693604e-01
1.577128799085831257e-01,3.422199441305904810e-01,4.980990102217048854e-01,-1.389275078881441750e-01,1.786301963138111140e-02,-3.542583262012206219e-02,3.869453668594360352e-01
1.839873943060274519e-01,4.310185226863609831e-01,4.738114976293149039e-01,-1.119578738890731201e-01,5.119692422438359980e-02,6.920145754627461156e-03,3.450181782245635986e-01
2.410905327876374793e-01,3.543344529636380247e-01,3.592505854832876988e-01,-8.159575035950951405e-02,-1.025871913956988013e-01,-9.371688289116977821e-02,3.021582961082458496e-01
3.766909616854148268e-01,3.985005490904418579e-01,2.256566845649023989e-01,9.195929437169653164e-03,4.760199785424369667e-02,3.824165715016848710e-03,1.835113763809204102e-01
3.132256280385734559e-01,3.244494181168827152e-01,3.118169836201740153e-01,-3.299267337858517030e-03,2.137280288270870365e-03,1.146312414153903905e-03,1.393088512122631073e-02
3.174781321751678487e-01,3.224399233705045331e-01,3.103525445424312190e-01,-6.474787886864348530e-03,3.144033319190623222e-03,3.751712750914813765e-03,1.756128109991550446e-02
3.011964469317294779e-01,3.407273005986055092e-01,3.007271013161360029e-01,-3.851075327182796292e-03,1.364956326923409333e-02,3.709138901479283427e-03,4.718219488859176636e-02
3.072297713116741158e-01,3.468613537113638401e-01,2.788091910511162341e-01,-5.500363504293405946e-03,2.994992354943350893e-02,8.319844519713013795e-03,8.058635145425796509e-02
2.103425691632993533e-01,3.546323597888028090e-01,3.612473273446263344e-01,-2.109399935159513365e-02,1.200059319575624318e-02,4.928690515808491733e-03,1.538101583719253540e-01
3.325186867868034635e-01,3.392049460279336626e-01,2.837869038864067051e-01,-8.491708953783922223e-03,6.184026810011573894e-03,4.137407027461018766e-03,5.592615157365798950e-02
1.978865540368836273e-01,3.881356752451924352e-01,3.988431970609400690e-01,2.416794623638919906e-02,-3.379267055423722244e-02,-2.281947041785977338e-03,2.086628824472427368e-01
2.748261301920651989e-01,4.320847418629360503e-01,2.719773883955483029e-01,-9.396597322517827311e-02,1.344427052777854847e-01,2.978907020973488654e-02,3.294872939586639404e-01
2.707231801132722881e-01,3.426248326809580025e-01,3.303789608898872188e-01,-8.346026218948103884e-03,9.687767373630997575e-03,1.020213843162547269e-02,7.240226864814758301e-02
2.715504327129277251e-01,3.500364700860355005e-01,3.275650902254266805e-01,-1.879398063626875476e-03,1.159336032991887741e-02,3.521077763871421906e-03,7.315968722105026245e-02
2.471566923930182125e-01,3.450304803110453289e-01,3.535987063460432900e-01,-1.422345766514175602e-02,-1.367249512748908505e-04,-1.943561989250864718e-03,1.054021194577217102e-01
3.177537403679716044e-01,3.489147133350277152e-01,2.988856531152064844e-01,-2.656519586865491514e-03,1.615820676836246181e-02,4.757445032064206228e-03,5.279481783509254456e-02
3.483850663569210693e-01,3.175965136804427269e-01,2.764788137287301217e-01,1.877944939611784526e-03,3.000616259068732833e-03,-1.880000159569156573e-02,7.072811573743820190e-02
3.436275806131918742e-01,3.085074845198097493e-01,3.041184333452525146e-01,-5.646371058589332676e-04,6.463236122354320276e-04,-3.874854193949014459e-03,3.813242539763450623e-02
3.513332484132528633e-01,2.500788910977408408e-01,3.332845542061252941e-01,8.541209095731588583e-03,8.863634354768421680e-03,-4.533004560622141965e-02,1.239745095372200012e-01
3.916093375121181275e-01,2.720214577403185507e-01,2.909681937579430278e-01,1.250548785074558598e-02,1.912506259244436610e-02,-7.189235283399157683e-02,1.716579049825668335e-01
3.480474937267702962e-01,3.254942895583883278e-01,2.816110122586618081e-01,-1.791546112086342575e-03,-5.955487069213167292e-04,-5.785864199974777126e-03,5.945770815014839172e-02
3.146478054739942909e-01,3.130206378773101039e-01,3.163049901717089329e-01,8.196590527206906729e-03,7.151000411784406291e-03,-6.782043167817544335e-03,2.238395623862743378e-02
3.438839575547329996e-01,3.175377462625217917e-01,2.922533948425891093e-01,2.393926965134889756e-03,1.821972700110972496e-03,-5.590643588557488511e-03,4.604873061180114746e-02
3.512447560401942281e-01,3.109835946218384994e-01,3.068463673922278701e-01,1.672492145938024718e-03,7.156828578012241864e-04,-2.426806252183354856e-02,5.984473600983619690e-02
3.160942403283383273e-01,3.160375569229472714e-01,3.222316059802845523e-01,-2.130554806037926561e-05,-7.238992106191080534e-04,-6.864205485830114596e-04,6.403540261089801788e-03
3.223188929714269624e-01,3.178788571914639149e-01,3.157249557768512793e-01,-4.470433635672311124e-04,-1.169282235789127376e-03,-1.197449180853747946e-03,6.551295053213834763e-03
3.250695013813087453e-01,3.131909148165722412e-01,3.148959024710287768e-01,-2.496094823335054131e-03,-4.145436259626741719e-03,-2.786974954237248468e-03,1.474116835743188858e-02
3.219985111897137875e-01,3.161660307744487142e-01,3.156123050841076472e-01,-1.353056561930649849e-03,-1.123857229319606080e-03,-8.466156232113552409e-04,6.998982746154069901e-03
3.198873169605221944e-01,3.119820142542188424e-01,3.239208446807746444e-01,-1.166337647288131661e-03,-3.617749263337229591e-03,-7.563563712391286513e-04,1.247842144221067429e-02
3.230655752903097699e-01,3.116940202078273825e-01,3.198403612390253170e-01,-1.354444501000870785e-03,-3.909885498260815516e-03,-1.362045475781840671e-03,1.264789514243602753e-02
3.159568349290041711e-01,3.190916282705664186e-01,3.191641111043267975e-01,-1.275663293047244688e-03,-9.832234799950444453e-04,-1.742466067489149709e-03,5.191348493099212646e-03
3.150511073593278422e-01,3.158874349220378575e-01,3.213718829266037358e-01,-5.302982802409252029e-04,-2.070049673002175711e-03,-8.478997478602097893e-04,7.156897336244583130e-03
3.120902211266356474e-01,3.220812049360309293e-01,3.172215604014799739e-01,-3.360432662886726849e-03,-2.860960580066704805e-03,-4.255439776680532138e-03,1.369826216250658035e-02
3.313241684587641678e-01,2.704331044759552549e-01,3.488802389737688525e-01,1.310972185178227618e-02,3.259238531134351583e-03,-2.020211052702477420e-03,7.513089478015899658e-02
2.652928655213462883e-01,3.578630634678802158e-01,3.423719755717355429e-01,-8.184213995197111741e-06,-5.546492172425498447e-03,1.196823706491929049e-03,8.643952012062072754e-02
3.464581421806018913e-01,2.484681769553025166e-01,3.577955616897653401e-01,1.298928315927627523e-02,-1.517783284724522801e-03,-7.702920216017779872e-04,1.065663099288940430e-01
3.415211288121935973e-01,2.693682223804348408e-01,3.570444874594226325e-01,6.472089753981218052e-03,-1.647952780097645389e-03,-2.190673207596307084e-03,8.194681257009506226e-02
3.302044724636307160e-01,2.692239290121563600e-01,3.539016379261392120e-01,1.360456913997597737e-02,-6.917146438783734926e-03,5.309232582442921467e-04,8.015539497137069702e-02
3.136593575062801564e-01,2.452418251146862294e-01,3.638763168020597294e-01,6.297143537180004136e-02,1.005973084697023767e-04,8.950850277182577017e-03,1.509139239788055420e-01
3.293323869779159474e-01,2.703241403028196488e-01,3.486313200493584841e-01,1.106731205135814966e-02,-3.489568593265856764e-03,1.758593642029760004e-03,7.352879643440246582e-02
3.234022759926099000e-01,2.933872771058124718e-01,3.490502539917344493e-01,1.396832198059616732e-02,-9.959021451990731494e-04,4.144959923400273923e-04,5.401273816823959351e-02
2.575510739457342879e-01,3.446644813246666494e-01,3.529896850609885450e-01,9.771711142049724352e-02,-8.765873934954092339e-02,1.124245806562630817e-01,3.130482733249664307e-01
2.403762550928261466e-01,3.854778515955161189e-01,2.443352744170429747e-01,2.535550280634715423e-02,-1.361659714925639864e-01,1.625862781160326148e-02,2.807862758636474609e-01
2.202483040570268891e-01,3.535031953461411081e-01,3.396356309110018512e-01,7.215234784958624026e-02,-9.123903804139563145e-02,3.889732130911213726e-02,2.474506646394729614e-01
2.416537875430816440e-01,3.689839749671537938e-01,3.465916853990172464e-01,1.337901375141026250e-02,-2.550899618289982629e-02,-5.272368287817281660e-03,1.282017529010772705e-01
2.503785383219321314e-01,3.568180713731942677e-01,3.281009584607854079e-01,1.370165855520012917e-03,-4.488357301916044012e-02,1.816159960145203277e-03,1.231119111180305481e-01
2.765081758113971389e-01,3.484405926180028090e-01,3.006465381756721067e-01,-3.798577451766822766e-03,-3.474422082300642617e-02,-3.347100698821661550e-03,8.785773813724517822e-02
2.719084883382527629e-01,3.483744053161225152e-01,3.322319477014944455e-01,6.186202934641044267e-04,-1.175511530576248478e-02,2.594014479266153195e-03,7.286392152309417725e-02
3.426157880946272827e-01,3.723056090006839902e-01,2.351980216195596052e-01,1.820159152706106453e-02,-6.409545225571074145e-02,5.301367124464185371e-02,1.932852864265441895e-01
2.370747334740875845e-01,3.590865135794519269e-01,3.551268854846852951e-01,-6.246609180817781944e-03,-3.667431494687082606e-03,-7.282807538653204155e-04,1.207411810755729675e-01
2.331053403702129656e-01,3.818237487012571818e-01,3.470040639006069516e-01,-2.868182382988065243e-02,-2.637132359733394826e-02,-7.380407900641981203e-04,1.506889611482620239e-01
2.134726573437787933e-01,3.987033240125915090e-01,3.527961073492376642e-01,-5.483829912016484646e-04,-2.749126120063988959e-02,1.573152661048588018e-03,1.737529337406158447e-01
2.388966305476440399e-01,3.470107289567296860e-01,3.435591528677162665e-01,-2.164717622203668132e-02,-2.530186253924349149e-02,-8.973704091161301480e-03,1.220464780926704407e-01
2.138459933210706265e-01,4.075599968243986959e-01,3.868740219584024809e-01,-7.586788239292110991e-03,5.125460972281593169e-02,-5.803020822203886452e-03,2.051844745874404907e-01
2.670890801716208629e-01,3.346736410044157117e-01,3.594406400424370318e-01,3.554096366811042990e-02,-1.205261236151567751e-02,6.907485676126516420e-03,1.059403643012046814e-01
2.408224011363030992e-01,3.671790169006998727e-01,3.655273643330202993e-01,1.975839305429594878e-03,1.212562554145017995e-03,4.273144700228583871e-03,1.258210092782974243e-01
3.221934147637859902e-01,3.231809553570893501e-01,2.800780585236569697e-01,3.500755499445191293e-02,4.479676481189704546e-02,-5.000305736264062939e-02,1.378913521766662598e-01
2.555633510720101698e-01,3.607226943025995114e-01,2.701768822082003529e-01,-6.259300056906938470e-02,1.152032348236689124e-01,6.251987603602099375e-02,2.702415585517883301e-01
3.835516459861354477e-01,3.773561676604240134e-01,2.392878485570882896e-01,9.614431075233935073e-03,1.777983096655476672e-02,-5.967102236659634074e-02,1.785055100917816162e-01
3.443413189553925502e-01,3.293952285948730241e-01,2.737272326872291495e-01,-8.135043280296771692e-03,-6.644109908724353183e-03,-1.228191922948963094e-02,7.026974111795425415e-02
3.464665294094308456e-01,3.356112854924057642e-01,2.703959013520196297e-01,3.229049486691025917e-03,1.509174007869922701e-02,-1.555412811923866795e-02,8.074135333299636841e-02
2.458224850872478551e-01,3.385613546255822337e-01,3.131883260849988582e-01,-3.747490832972006497e-02,-5.235826749611733472e-02,-2.543555607289026826e-02,1.458403021097183228e-01
3.393659277035908639e-01,3.307483070099708766e-01,2.785973141348971893e-01,9.063219869908616458e-03,3.648471631173566456e-03,-8.426308861295457239e-03,6.117822229862213135e-02
3.481025904950569849e-01,3.404942533370130531e-01,2.651838081605993325e-01,4.195117612401461082e-03,8.695852837521243772e-03,-3.359591919626391410e-03,8.133909851312637329e-02
3.279278967269050882e-01,2.604099755947014150e-01,3.541206850544816320e-01,-2.409339225139863969e-02,1.488243782015754657e-03,2.828204845838260071e-03,9.373009204864501953e-02
3.478184467650862199e-01,2.342089707253174335e-01,3.807937976022053306e-01,-3.149139001675697880e-02,2.606315780869444300e-03,6.639472184965989135e-03,1.444595009088516235e-01
3.397788619565746959e-01,2.491647250093875776e-01,3.599959424276906739e-01,-4.094601837891496954e-02,-1.855664231269831769e-03,-7.455575360415261259e-05,1.244655847549438477e-01
3.005001947462029310e-01,2.838091541351803193e-01,3.959182609023590427e-01,-9.700780939361892952e-02,-7.489947088867918504e-03,-5.887679630762565272e-03,1.986948996782302856e-01
2.967708732765612645e-01,2.979448705617107063e-01,3.473884946704245413e-01,-4.525860150371728563e-02,3.579248691764860824e-02,2.733442873790644517e-02,1.213834360241889954e-01
3.499344926042050608e-01,2.694250443342781631e-01,4.120031941403471953e-01,-8.735837869651848220e-02,1.638282091881752443e-03,3.190215296767055092e-02,2.031924277544021606e-01
3.302234514163797097e-01,2.795543902635021505e-01,3.438410349708492242e-01,-2.569239241799773851e-02,-6.143561799537664882e-03,-9.655212698658328929e-03,7.626256346702575684e-02
3.440205399924837759e-01,2.112843006628132569e-01,4.171999904343646204e-01,-1.314726303007126007e-01,-5.472299418608597005e-02,-2.261443719961532886e-02,3.083195090293884277e-01
3.453700856093754323e-01,1.765814697346293483e-01,3.783780597964760406e-01,-9.190374325415166801e-02,-2.625090772162981534e-02,-4.764904061898363880e-02,2.633780837059020996e-01
3.473128363480447733e-01,1.748433002456024066e-01,4.099506979062293999e-01,-1.113864512845468974e-01,-7.594893727338003324e-04,3.535892476420541414e-02,2.923109233379364014e-01
3.524457751276162121e-01,3.000113893300502821e-01,3.162833556798626544e-01,-8.808348324899552707e-04,-1.337357268486359402e-03,-1.693101559849667995e-02,5.503273755311965942e-02
3.436546320662689502e-01,2.900877984829656753e-01,3.146934021535389703e-01,1.115298067464968968e-03,2.796490958394722091e-03,-8.193478606499790193e-03,4.884044453501701355e-02
3.347750739043069967e-01,3.075908757275878092e-01,3.167891386931992459e-01,7.201361040618571747e-03,9.384191287821643315e-03,-1.333658794299437400e-02,3.907560557126998901e-02
3.353715594284934487e-01,2.625263794345712998e-01,3.961720454804613656e-01,7.573967722631774757e-02,4.815238925940486941e-03,3.340584945071429276e-03,1.753415912389755249e-01
2.431278901835705886e-01,3.585668693381632854e-01,4.041936381958931568e-01,-7.636383781267572224e-02,-2.562520501408667439e-02,-1.193256467721363380e-02,2.014112323522567749e-01
3.430799737610359390e-01,3.005330264555712838e-01,3.002871279457272058e-01,-1.485740358109852470e-03,-9.719371687725349845e-05,-1.546936277029709039e-02,5.045115947723388672e-02
3.419822304572551208e-01,3.006686846627706355e-01,3.147746378845442394e-01,1.780895114521785505e-03,3.233483819832405192e-03,-2.669671873248270766e-03,3.721938282251358032e-02
3.426428994069595779e-01,3.076262244746198471e-01,3.098628224619088267e-01,-1.766735383013043337e-03,-3.357543842321722947e-04,-7.410055065561896651e-03,3.643186390399932861e-02
3.467292869387014198e-01,2.911698112647367331e-01,3.151732736134594259e-01,-2.967067291221360276e-03,-9.200170273557194394e-04,-1.020634775786310317e-02,5.168036371469497681e-02
3.430729252694015852e-01,3.010390013080437299e-01,3.147193998266158421e-01,-1.106451675374715620e-03,-2.468015352181180105e-03,-2.505550735551108354e-03,3.767947107553482056e-02
3.412107852728188950e-01,3.170146708574851369e-01,2.926790484631801026e-01,3.462235890363220790e-03,1.990164739895036294e-03,-5.866088606218231201e-03,4.379016533493995667e-02
3.131473908927381311e-01,3.155054722119141064e-01,3.284332715024408378e-01,-1.132187210808127892e-04,-4.092244937127371670e-04,2.291616428316186563e-03,1.481447648257017136e-02
3.086304265943762837e-01,3.152282437203132726e-01,3.313210850474464508e-01,7.035496459672297212e-03,-6.696084780961992708e-03,3.984708082504145009e-03,2.719061076641082764e-02
3.129742038072685917e-01,3.127252400116583009e-01,3.281415959956557882e-01,-2.813145705441159232e-04,-4.180211748211657644e-04,9.240525321745930980e-04,1.540166046470403671e-02
3.177168164900470715e-01,3.176573265040600336e-01,3.199326396510957515e-01,4.407421597233328564e-04,-8.215077459730350459e-04,1.218343629962351151e-03,3.479324746876955032e-03
3.118292001066242380e-01,3.113256823018298869e-01,3.318185050716657702e-01,5.393045896148006670e-04,-2.302937569689822786e-03,4.614210742160336541e-04,2.067154273390769958e-02
3.123988615170792404e-01,3.214437273227287450e-01,3.227802224980410029e-01,8.455028544937480406e-03,-8.235849656053660997e-03,8.959362447439412139e-03,2.746716141700744629e-02
2.996370668343380506e-01,3.188022107825132512e-01,3.297939405416497327e-01,8.836806075753586565e-03,-5.301691714992643086e-03,8.079433441581060360e-03,3.483104705810546875e-02
3.211673283865962847e-01,3.043344616370988187e-01,3.275677226033986700e-01,1.856218976485741416e-03,-6.585412549094781486e-03,2.057194139750236593e-03,2.419055998325347900e-02
2.443737112551306045e-01,3.626189630668221753e-01,3.501989505735711439e-01,5.552796208933675516e-03,-1.338802654344472577e-02,2.521136690347215367e-03,1.153987646102905273e-01
2.366168269330534424e-01,3.625444149571356300e-01,3.552667581685911014e-01,6.223717334959524665e-03,-3.761211914867082680e-03,2.902745917932229337e-03,1.231997832655906677e-01
2.784875945070550696e-01,3.352181418998434470e-01,3.400537955635802301e-01,4.529626888082236361e-03,-2.120291904914148665e-03,7.881696666720429401e-03,6.146113201975822449e-02
2.540767768126632742e-01,3.487124144527550262e-01,3.521348486355183605e-01,8.409367977377561754e-03,-2.124100055046802479e-03,1.878831504138538284e-03,9.761033952236175537e-02
1.995240000198576502e-01,3.498631335332120784e-01,3.622914481063316816e-01,4.008387173551665461e-02,-4.799800413400554140e-03,-7.264066891920019408e-04,1.718011349439620972e-01
2.739021506471369660e-01,3.423956570204380045e-01,3.265433044534722939e-01,6.208865533500720207e-03,-1.325076150246050355e-02,7.321405516607388392e-03,6.826478987932205200e-02
2.401244549315355581e-01,3.546176279256409991e-01,3.580126010382740920e-01,3.897245607332312616e-03,-4.889196167062626053e-03,1.214008408945305498e-03,1.167502179741859436e-01
2.642427022306286788e-01,3.425707431809504322e-01,3.554681142228013901e-01,5.240198118341037221e-03,-1.028648514938919665e-04,3.721177013702391644e-04,8.599230647087097168e-02
2.701059373346236248e-01,3.322465964622600687e-01,3.551906642583761431e-01,1.281990459085706469e-02,-2.568395532438800415e-04,-9.289172244141697798e-04,7.943228632211685181e-02
9.242167253924801762e-02,3.999927765121625844e-01,4.020152187264521837e-01,2.018394660776590827e-02,-5.727800361923677391e-02,8.659556556406695568e-03,3.263672292232513428e-01
3.409424171831533790e-01,3.093880243028551691e-01,3.038891473436077795e-01,-1.687647506076414084e-03,8.392990265967489481e-04,3.997149323507318344e-03,3.546858206391334534e-02
3.494648093835985847e-01,2.858594137177136174e-01,3.251126344320691697e-01,1.911831115510037542e-05,1.503636278102846993e-03,5.495951027612810263e-03,5.645480751991271973e-02
3.476328908133211604e-01,2.747530118077626815e-01,3.306959807792564932e-01,-3.265634586457018262e-03,5.135992902254888672e-03,9.999427670521645120e-03,6.910187751054763794e-02
3.410167373496161836e-01,3.044322247152426719e-01,3.028973739836219869e-01,-4.286266770735753379e-03,3.455604040865581025e-03,1.136150104119182380e-02,4.330271482467651367e-02
3.567191288482077227e-01,2.587716060898766490e-01,3.411257936859711237e-01,-4.815754623890082173e-03,1.465148409169495045e-03,4.948420589512471206e-03,9.197290986776351929e-02
3.638102614547419900e-01,2.818314307378472217e-01,3.106598922025707310e-01,1.411758289452593775e-03,-4.952136858160175077e-03,2.895256925254950306e-02,8.821898698806762695e-02
2.898436612211213737e-01,3.440167270368227337e-01,3.168690709986533571e-01,5.710057188558801755e-04,9.567032065288241446e-03,2.138050206962957035e-03,4.990311339497566223e-02
3.117649733688329095e-01,3.362845593394577781e-01,3.067164516580200839e-01,-3.496089569617221848e-03,3.657426481959292000e-03,1.604928243582623513e-03,2.889655530452728271e-02
3.139311400166824861e-01,3.281462999668847136e-01,3.116172849358484487e-01,-3.922228547085343867e-03,1.781531878987776055e-03,1.310855155262245645e-03,1.735352165997028351e-02
3.207397383044701122e-01,3.210454708499925203e-01,3.125735041557719529e-01,-6.295185072561775182e-03,7.000150374149273318e-03,8.123575217721064334e-03,2.309002727270126343e-02
3.396079808552570078e-01,3.081708932343334428e-01,3.096321852652257345e-01,-9.810322746692543092e-04,-9.097867681674186649e-04,-7.724656265063169431e-04,3.084878623485565186e-02
3.371559953040209612e-01,2.972198862736049607e-01,3.171984309472384855e-01,-3.200855345934951104e-03,-5.494037700729833759e-03,-5.558685672353210275e-03,3.755205124616622925e-02
3.398181933528616749e-01,3.022623879641614941e-01,3.163228217455462676e-01,-9.720842096705010257e-04,-3.635785640163409146e-03,-3.041409112466000614e-03,3.391645103693008423e-02
3.592690498347447248e-01,2.876911812547137126e-01,2.772121310010887130e-01,-1.186087195499984205e-03,-9.734228027507073160e-04,-6.689048995935570341e-02,1.393317878246307373e-01
3.328314410714964255e-01,3.133482927882643709e-01,3.092919584577070169e-01,-3.833756525142034688e-03,-1.601544427640208719e-03,-1.606380966751785313e-03,2.312155626714229584e-02
3.352320026785201579e-01,3.125335000987178313e-01,3.084064362648126778e-01,-7.906468941093621697e-04,-7.768563421810247569e-04,-1.684159297787121310e-03,2.526119351387023926e-02
3.277906315001155590e-01,3.046317196580966558e-01,3.206506527112362726e-01,-2.074954344802250935e-03,-5.666911130546723775e-03,-3.292105010228003371e-03,2.374304458498954773e-02
3.282087007101232023e-01,3.114552902515088095e-01,3.142956923006561265e-01,-1.497984178860795913e-03,-3.126569898663270584e-03,-1.322179379485805125e-03,1.680657267570495605e-02
3.307504971610378819e-01,3.207301620868363012e-01,3.106144394840121281e-01,-6.615606475379529582e-03,-7.106035730154530716e-03,-9.183254852002508545e-03,2.898068912327289581e-02
2.123385260845723488e-01,4.779214547903177235e-01,2.918925642507813611e-01,-4.071947255945569666e-02,-1.284766204517188704e-01,-2.357370574625234846e-02,3.345071673393249512e-01
3.406325854850500989e-01,3.066315257168032993e-01,3.142622989511761888e-01,6.246108663570497377e-03,-3.236064661642832838e-03,1.496350928979727629e-02,4.213103652000427246e-02
3.847775555512144563e-01,2.948792989255201724e-01,3.235753945242305640e-01,2.311800375377147734e-02,-1.398556500944809523e-02,7.205253493348021121e-02,1.552103459835052490e-01
3.443229778763287618e-01,2.876830046376060990e-01,3.124171415037951816e-01,9.506332665183382050e-04,-2.193024229734145784e-03,9.820874436443026087e-03,5.220546945929527283e-02
3.399741652997319008e-01,2.893848827293400428e-01,3.117223406827540066e-01,3.485026493607593177e-03,-3.915086950108659196e-03,1.007779672623923713e-02,4.811764135956764221e-02
4.003787108817862261e-01,2.900845423528637390e-01,3.279128504715849712e-01,-9.770969883791341334e-03,1.344920342319423819e-02,7.663972911347458061e-02,1.669537276029586792e-01
3.630565034169120908e-01,2.355348707385137297e-01,3.591854001850676159e-01,7.483058170361395894e-03,5.197471544547977405e-03,2.256704704449590676e-02,1.325139552354812622e-01
3.178788980592906488e-01,3.169320367576433650e-01,3.224662325428519494e-01,-7.449795329072161822e-04,5.369483269893322950e-04,7.595896437496259474e-04,5.526717752218246460e-03
3.145760506556407599e-01,3.162726344403428147e-01,3.242053412609483543e-01,-6.089974085914096318e-04,5.186399602221441942e-04,1.580085655049403995e-03,9.416705928742885590e-03
3.177562714212389117e-01,3.175327626993637020e-01,3.196554335710881101e-01,-2.785436948358909382e-04,1.004448532514269458e-03,-2.239167372478248030e-04,2.737001748755574226e-03
3.177965076556981128e-01,3.188903913550557578e-01,3.169014561086839210e-01,-8.661637255005391828e-04,1.879795287615679885e-04,4.094380806184123151e-04,2.415869850665330887e-03
3.269049031314474885e-01,2.952888415077287720e-01,3.329137620640651440e-01,-3.086815635277834809e-03,7.077295957937866991e-03,5.204628458441498511e-03,3.854571655392646790e-02
3.127701552883495606e-01,3.190933024385961270e-01,3.256634468040797148e-01,-1.070425978579235288e-03,1.222598679109888637e-03,3.992074111710057840e-03,1.343222334980964661e-02
3.160556253083022793e-01,3.212307875110009814e-01,3.187059630997235438e-01,-1.215188470714466829e-03,1.235950485795692284e-03,2.494375150212293623e-03,6.911523640155792236e-03
3.339122663177586658e-01,3.093035083367056681e-01,3.107063575717178838e-01,-2.779854521884477046e-03,3.304484713331698725e-03,3.205409276101115271e-03,2.568661421537399292e-02
2.604450071190240190e-01,3.375780556359249118e-01,4.070709190113734888e-01,-5.343777777640285054e-02,1.431874810540409264e-02,1.587849824264051316e-02,1.614843904972076416e-01
2.747382972908369858e-01,3.474446540656434546e-01,3.260801361745540583e-01,6.579924461725101745e-03,1.371748001470651963e-02,-5.608970935632018491e-03,7.055562734603881836e-02
2.774119804995132110e-01,3.594217744123899827e-01,3.367191017427196842e-01,4.643568414075691098e-03,2.462985068588919788e-02,-7.290786075638655116e-04,8.523701131343841553e-02
2.745234811321781709e-01,3.498026341191599053e-01,3.444076936948856638e-01,6.873891289790938670e-03,1.039961131951561667e-02,-3.557559041764053222e-03,7.611902058124542236e-02
2.134723462264240812e-01,3.867517869940014230e-01,3.629047450051017809e-01,-3.199120384632377079e-02,9.087791732352461238e-03,9.155666329475727755e-03,1.732968538999557495e-01
3.305492408857808040e-01,3.206722043398931299e-01,3.098221807139238115e-01,8.454517731262427283e-03,1.143961616628513464e-02,-8.882328469506312399e-03,3.414913266897201538e-02
3.339074942564352888e-01,3.091226112924724267e-01,3.100941824489172327e-01,5.520712523996238429e-03,6.029441388570548101e-03,-6.425257478252332892e-03,3.025728277862071991e-02
3.103238552284561802e-01,3.051428306804426227e-01,3.416363712732504720e-01,-3.979276381940044169e-03,3.003868896064382232e-03,1.049196737727707768e-03,3.531888499855995178e-02
3.145919458451572059e-01,3.011518199203938040e-01,3.416200183572954963e-01,-2.482162185487778346e-03,2.701674510685414792e-03,4.644640999847809157e-04,3.626902401447296143e-02
3.167540665794391086e-01,2.936301480345027137e-01,3.377685755228057585e-01,-1.174643831769904383e-02,4.439830597120767407e-03,1.576412816624145384e-03,4.407710209488868713e-02
3.277755075940804175e-01,2.672529484322264670e-01,3.482088304549194047e-01,-1.439117105524636078e-02,3.999172681671123684e-03,2.900041606285579804e-03,7.753518968820571899e-02
3.067151307676170280e-01,3.044923733678572830e-01,3.353042164734834629e-01,-1.042426762533021564e-02,7.954276999779972060e-03,1.051088935872805663e-02,4.163012281060218811e-02
3.299111015277942371e-01,2.692719920385449051e-01,3.568850212828241775e-01,-1.296185128123550703e-02,4.734647613235672776e-04,-3.970583711040738951e-04,8.090452849864959717e-02
2.731896440072839050e-01,3.348918742066024912e-01,3.468764256681882152e-01,-6.462257089433502688e-02,-3.414986504920052013e-02,-1.976934506781088605e-02,1.479514092206954956e-01
3.273493397985515752e-01,2.738343774007245823e-01,3.571716296463907092e-01,-1.620519804635691535e-02,1.079389089506648663e-03,1.092896888018048650e-02,8.061517775058746338e-02
3.283173039322367370e-01,2.927813451772728337e-01,3.277894898114964706e-01,-6.122030482034162245e-03,8.483754686636939615e-03,8.182541362708779450e-03,4.211352020502090454e-02
3.283354250679128561e-01,3.158349331076111266e-01,3.125528521149937844e-01,2.293231648939889414e-03,-8.862940222083349247e-04,5.859635797373772181e-05,1.504013221710920334e-02
3.286509406210382234e-01,3.124701730517082110e-01,3.123808960644705035e-01,9.358024333263226420e-04,-8.220688521954304514e-04,-3.775720947613152322e-04,1.638145372271537781e-02
3.321679676665455494e-01,3.110683522309941051e-01,3.119292513168852587e-01,2.238269002174806863e-04,-1.955262482731941372e-03,7.210488536624252119e-04,2.099879644811153412e-02
2.456934935679089826e-01,3.436133805032947075e-01,3.545114690074718800e-01,1.412457280149387838e-02,1.170608134689744124e-04,1.589205150527232607e-03,1.066786795854568481e-01
3.339626231581810378e-01,3.000773743445886432e-01,3.192436561351425506e-01,5.011793792411145879e-03,-6.028919966699335803e-03,7.495721037213881610e-03,3.491500392556190491e-02
3.274378292970413495e-01,3.184428583824390202e-01,3.037913722955807305e-01,6.571219630293120319e-03,-2.882288587017557170e-03,2.932455396916933393e-03,2.465012483298778534e-02
3.434802653133491313e-01,3.137915921231237415e-01,3.008927358924820550e-01,6.787764292079114751e-04,-5.015449787778510261e-05,2.071821514280229246e-03,3.801335021853446960e-02
2.984126190243453491e-01,3.323460694527449188e-01,3.207825819798701961e-01,4.179640442087470022e-03,-4.332157848752227897e-03,7.954570734525229919e-03,3.451580554246902466e-02
3.031227827469917813e-01,3.391794486392360475e-01,3.165672637130672595e-01,-4.061059671120130499e-03,-1.594588211801001645e-02,-3.902698770390515721e-03,4.305876418948173523e-02
3.179916583162298860e-01,3.413838464616307800e-01,2.901914997636801941e-01,-5.393399967121396965e-03,-8.012474023593691569e-03,-4.690521784442949413e-03,4.812710732221603394e-02
3.134609578442500433e-01,3.252087974178968222e-01,3.217120257229335034e-01,-7.828692265750829271e-03,-8.727507512572918805e-03,-8.029322376173639308e-03,2.673842012882232666e-02
3.299029649836028866e-01,3.082616766676600228e-01,2.998180831114406475e-01,-5.438208121694363545e-02,-5.711909090951489132e-02,-7.857569229184978299e-02,1.946915239095687866e-01
3.344736692153674751e-01,3.262261852756974112e-01,2.991176238977605872e-01,-6.033838197460157302e-03,-2.709972775311864784e-03,-2.777038002931909826e-03,3.436366841197013855e-02
3.278860989957921301e-01,3.438584955879112615e-01,2.717344415515642320e-01,-8.518474000458901851e-03,-1.089923066107245306e-02,-6.583541274642841501e-03,7.077502459287643433e-02
2.186967811184543642e-01,3.732758037146861607e-01,2.664901302708458375e-01,-5.974984387060336410e-02,-1.316046435573177409e-01,-5.342941827988712672e-02,3.000410199165344238e-01
2.861218287660248216e-01,3.624965174720669037e-01,3.043261443789354037e-01,-1.035950850629903039e-02,-3.021532184269806048e-02,-9.430403607762344320e-03,9.000996500253677368e-02
3.132262708565581866e-01,3.500499092756739206e-01,2.966066207463060600e-01,-2.116149288778337509e-03,-2.021117931624895683e-02,-1.917851032117058943e-03,5.911119282245635986e-02
3.110413611257389355e-01,3.426960882586576607e-01,2.856222099535428716e-01,-7.662834131100556070e-03,-2.580085753528238782e-02,-8.814364207582832747e-03,6.970710307359695435e-02
2.861337402876950597e-01,3.426958096263231779e-01,3.036202528507068177e-01,-9.618410306950320177e-03,-2.967469092715690343e-02,-8.697975735535887556e-03,7.524786144495010376e-02
3.295812538321951091e-01,3.444397393650015515e-01,2.953442424753510709e-01,-1.068420027938812682e-02,-1.904134895608136646e-02,-1.741894378772001692e-02,6.513134390115737915e-02
3.279988299575878341e-01,3.460757184633954653e-01,2.156708597456730714e-01,-4.411491867992985844e-02,-9.491850600079922151e-02,-6.933870138058753629e-02,2.495303601026535034e-01
3.198858074784928229e-01,3.108380617344167485e-01,3.227535885803533011e-01,-2.426806569283369679e-03,5.687504634631257612e-03,2.683760833901405272e-03,1.588558591902256012e-02
3.114115454643309744e-01,3.300993850460456902e-01,3.086480873870012798e-01,-4.396600728592077803e-03,3.553337682751817050e-03,2.581988683404002997e-03,2.289943210780620575e-02
3.226475980492763962e-01,3.227599367126117724e-01,3.139983304975917378e-01,-4.736439075913208285e-03,4.201766839575125576e-03,5.344989012229347386e-03,1.678591407835483551e-02
3.108239302075659349e-01,3.281512693997201691e-01,3.157168001550100800e-01,-1.376887228437551026e-03,2.175106029689502594e-03,3.592448666720101692e-03,1.726250909268856049e-02
3.080976456944832798e-01,3.301285215982140975e-01,3.099006192739112708e-01,-3.568554664868334256e-03,3.999515422139146049e-03,6.192685146930799849e-03,2.549763210117816925e-02
3.172727760296866761e-01,3.301620170564409373e-01,3.028117960156046506e-01,-5.508538290912180085e-03,2.617771342154312335e-03,3.720112786001472487e-03,2.673483453691005707e-02
3.207581281317560817e-01,3.314955503482600041e-01,2.992080364341111465e-01,-7.352020729376325739e-03,5.168748321811707409e-03,4.437149623770986727e-03,3.335356712341308594e-02
3.278898704326099756e-01,3.194227721057338876e-01,3.025215454801418735e-01,-6.774372648646056864e-03,3.021769022930346962e-03,4.706542865562849884e-03,2.705497853457927704e-02
3.157835415593688300e-01,3.129365404488503311e-01,3.281843015400425778e-01,-2.918734035330178755e-04,-2.345259279652069009e-03,-9.917619626418285213e-04,1.472739968448877335e-02
2.826941680918431121e-01,3.571986901830391803e-01,3.604784521553906496e-01,4.577528082466787024e-02,-4.183059191149633704e-02,3.287940304474594455e-02,1.434737890958786011e-01
3.338683026941107190e-01,3.084063515183394499e-01,3.085931426271764089e-01,-7.592035885231107617e-03,-6.840026092869496734e-03,-1.382937078440524097e-02,3.912312909960746765e-02
3.071149102790492469e-01,3.211849414701691829e-01,3.320963105645017288e-01,-8.251453049138034526e-03,-5.956535149725643991e-03,-6.670041801344171392e-03,3.024426847696304321e-02
3.219722174085381527e-01,3.147929894412098140e-01,3.187369083861616437e-01,-1.495902379447261715e-03,-2.749162607001874852e-03,-2.460934290157073081e-04,8.267409168183803558e-03
3.127523914750081069e-01,3.147707142179811401e-01,3.247300085746069875e-01,-1.858137224723104431e-03,-1.298220144398786434e-03,-3.424697194146646227e-03,1.318946667015552521e-02
3.123553297306970178e-01,3.127539117976643746e-01,3.283689142943177486e-01,8.401447257774136981e-05,-9.014984323764676719e-04,-9.513313620409915086e-04,1.598078198730945587e-02
3.024487679244515226e-01,3.382986707079424504e-01,2.994572755795371632e-01,-4.033331200690000451e-03,-1.516341354885093751e-02,-4.561346439034510980e-03,4.692992195487022400e-02
3.424398014643445509e-01,3.184760301741602073e-01,3.244721979299439729e-01,-3.038928640867250008e-02,-4.069738682220948311e-02,-5.163295827923883308e-02,1.272940337657928467e-01
3.073364518454146932e-01,3.352684392175028227e-01,3.119554720771179901e-01,-1.520797504990378237e-03,-2.047209222349830309e-03,-3.389610802976611350e-03,2.695353329181671143e-02
3.046823480585265642e-01,3.416066100211238576e-01,3.171373432214869559e-01,3.995925565698289425e-03,1.302159418121101933e-02,-4.269572206115122490e-03,4.086456075310707092e-02
2.460343227550546019e-01,3.558097847523516433e-01,3.140821598632528855e-01,-1.060721283816436038e-02,4.785980216169909846e-02,4.919168646428734998e-03,1.284250468015670776e-01
3.252998564596263353e-01,3.813996670682799905e-01,2.971057368941784627e-01,-1.695360078338466192e-02,7.590241049681284435e-02,3.227905333342046684e-02,1.636929959058761597e-01
2.862735534908159574e-01,4.417745476358441725e-01,2.732567997074876187e-01,2.868189059164900911e-02,1.694788549059683125e-01,2.452062103817955613e-02,3.417822420597076416e-01
3.184586155791039319e-01,3.223316200877910931e-01,3.138877560056993477e-01,-3.497350742388318987e-03,-1.549260150046729385e-03,-1.800567420890989041e-03,1.035456545650959015e-02
3.123263138652974114e-01,3.235955303167101782e-01,3.143564795102927190e-01,-1.168961248308142105e-03,-2.072905980141323025e-03,-3.338375310195483645e-03,1.259614713490009308e-02
3.120942990565776509e-01,3.317032229670681676e-01,3.113109700912906064e-01,-1.880628698465394537e-03,-5.277233940968877350e-04,-5.027467987094595605e-04,2.031471766531467438e-02
3.115336500717147405e-01,3.278797041439386328e-01,3.140830257234883405e-01,-1.740966321777881725e-03,-1.413539226518585254e-03,-3.119541621687011313e-03,1.662234589457511902e-02
3.130927608157419439e-01,3.275601116289508785e-01,3.097433612777797940e-01,-3.348656931032567650e-03,-2.635801521108408277e-03,-1.745899626682833206e-03,1.823751628398895264e-02
3.229172995689920667e-01,3.106655449656336443e-01,3.100166027582756390e-01,-6.071787002582328813e-03,-7.026370874283731881e-03,-7.337758779380358642e-03,2.405649237334728241e-02
3.320028812537241802e-01,3.510880125050819256e-01,2.600681406129439766e-01,3.690620549221948661e-03,-2.057879118772918195e-02,3.771291554997270763e-03,9.091602265834808350e-02
3.450545136252295420e-01,3.466483302897621077e-01,2.538181014767300625e-01,7.443458413941646604e-03,-2.221634782463384125e-02,2.179330723295439670e-02,1.074420586228370667e-01
3.605582648860399808e-01,3.513554107908152258e-01,2.248958973474875500e-01,1.630542267870164650e-03,-9.354023035813849654e-03,2.284932717674488176e-02,1.381203532218933105e-01
3.458304833998641081e-01,3.546102183915720296e-01,2.586586648437205205e-01,6.705263618023627435e-03,-2.421108661279738200e-02,1.134935695662308251e-02,1.035431846976280212e-01
2.425697921994883210e-01,3.532912723712061664e-01,3.457329960457059537e-01,1.556900675578496568e-02,-2.343418863276793690e-02,3.598682325566281148e-03,1.178686842322349548e-01
3.415268437449897609e-01,2.681294956327507917e-01,3.477562848595665557e-01,-1.422189884608903929e-02,-8.115950449912754869e-03,-2.696113095433388951e-02,9.417166560888290405e-02
3.290742233896515878e-01,2.709668888013412880e-01,3.479309587694390249e-01,-1.669222993966077220e-02,3.353636343538456913e-03,5.444781047797903756e-03,7.606787979602813721e-02
3.421722239403520716e-01,2.617728878595803610e-01,3.570702535762014795e-01,-5.811499405378170620e-03,-7.943967126591318503e-05,1.660721022176288840e-04,8.936005085706710815e-02
3.387703513772413744e-01,2.518251783525414234e-01,3.430595544473359348e-01,-9.201877565607996870e-03,-1.134787797621079723e-02,-1.655335697094320602e-02,9.702151268720626831e-02
3.685088421262697755e-01,1.725785205416580093e-01,3.616060650691559908e-01,-5.738058383358797532e-02,-2.432962088630856098e-02,-7.419299997982466144e-02,2.554428875446319580e-01
3.410167328315075186e-01,2.772600065172793338e-01,3.406667086636224195e-01,-3.588312760546531754e-03,-7.797797983417811135e-03,-6.316766151406694174e-03,6.620782613754272461e-02
3.296901302504344211e-01,2.739818778225477369e-01,3.479808314951761128e-01,-1.413871739561078054e-02,-3.287935366960547962e-03,-3.704062554701166229e-03,7.162544131278991699e-02
3.067411322704314269e-01,3.130732742235903809e-01,3.398037694612705550e-01,9.464185286569868488e-03,-3.750931086971558311e-03,3.982190944552392933e-03,3.581020981073379517e-02
3.286772525981250248e-01,2.741148386727477182e-01,3.457205567157620174e-01,1.080073948338921425e-02,-6.414760211913527778e-03,6.820382771297525681e-03,6.935721635818481445e-02
3.077142972882201399e-01,3.016565254451376576e-01,3.357270888751257565e-01,7.386380150530296243e-03,-6.349135026173912538e-03,4.782336248689847240e-03,3.666511550545692444e-02
2.443136681364529994e-01,3.646414533750605980e-01,4.616236690432088396e-01,1.653488416655528315e-01,-4.827577678596058769e-02,3.791601159732096299e-02,3.589975237846374512e-01
3.259115836719446158e-01,2.845896619322899612e-01,3.484884210984807718e-01,2.530655728930925399e-02,3.051739997843474876e-04,-1.159100198254672809e-03,7.124400883913040161e-02
2.896640051596102161e-01,3.090581293397941520e-01,3.477737469926752700e-01,2.627695832378987989e-02,5.852974424757905218e-04,1.656901473829706223e-04,6.854511052370071411e-02
3.061074767302295885e-01,3.036131320962954794e-01,3.401693641030800186e-01,9.212559712588386240e-03,5.196721434942053360e-03,-5.406808359464334093e-03,4.092344269156455994e-02
3.130391686151665076e-01,2.886089505904435026e-01,3.438432016007795244e-01,9.922415471524028557e-03,2.815444352701301171e-03,-1.038784814599523314e-03,5.119232088327407837e-02
3.528614887231392716e-01,3.306931241603549010e-01,2.709246388452850041e-01,1.296757135995916556e-02,-2.454197730141524647e-02,5.651521092393273910e-02,1.314609646797180176e-01
3.604876249665612820e-01,3.399649885168592456e-01,2.746884999051684151e-01,-9.333258556005074105e-03,7.557824232035936785e-03,2.732293124006320365e-02,9.324249625205993652e-02
2.582934298613043245e-01,3.577558396153168729e-01,3.503333857080597746e-01,4.659290796108313780e-03,-9.293940468713544206e-03,2.467422229380722355e-04,9.764245897531509399e-02
2.516077097462849355e-01,3.281887461904292591e-01,2.473758014314404730e-01,8.582961908283007202e-02,-1.306809630669836519e-01,8.144258216988703447e-02,3.153379857540130615e-01
3.364280386110163890e-01,3.731493508968698469e-01,3.131362224671172534e-01,2.658188757631239560e-02,-6.465447731430862266e-02,3.650524420760119237e-02,1.463029831647872925e-01
3.230975098649701005e-01,3.358522916501349154e-01,3.133711902557276274e-01,2.073819994323797961e-02,-2.649938845162398693e-02,1.527493389601803156e-02,6.691924482583999634e-02
4.197313168679357998e-01,2.627686786880399361e-01,2.987993532916012329e-01,1.313020911912706271e-02,-7.832214730275220693e-02,1.391158805872557969e-01,3.118653297424316406e-01
4.011377121875993601e-01,3.623614878387996230e-01,2.014795556186610992e-01,1.069704921473176203e-02,-4.426140155906603535e-02,1.085394466116148815e-01,2.742041349411010742e-01
3.574371747348444872e-01,4.252773054774126593e-01,1.754746442090905911e-01,6.436858386324406656e-02,-9.785691143710836815e-02,1.188656711073088762e-01,3.655160963535308838e-01
2.753953483225175525e-01,3.551330098175157213e-01,3.104434428228197151e-01,1.583593563470841667e-02,5.574020357601566084e-02,-8.455715287019952009e-03,1.227988153696060181e-01
3.244765280729466350e-01,2.687580594340165940e-01,2.811333431037495445e-01,7.034646856238570278e-02,-6.932196300530009403e-02,1.057690726131943898e-01,2.557184696197509766e-01
3.411825293408539683e-01,2.866699111839569603e-01,3.081940386370065621e-01,1.048117949758159417e-02,-8.846917026203210757e-03,2.741143910709107831e-02,7.127486914396286011e-02
4.530303801965471777e-01,3.249880874220510418e-01,1.812818049109698737e-01,6.109680148665608268e-02,-5.901161122794743030e-02,1.356982014991829910e-01,3.637779355049133301e-01
3.330630724012494936e-01,3.199450542735453595e-01,3.031779494308280976e-01,7.926542878401649991e-03,-8.426622745104748666e-03,1.254018214472231267e-02,3.932495415210723877e-02
3.810640631991108473e-01,2.866818444461130544e-01,3.364262652988969093e-01,1.731601940345201332e-02,-1.662445538470280065e-02,6.462914858716135857e-02,1.447306275367736816e-01
3.031269218040335556e-01,4.032027576713340666e-01,2.200250442637960435e-01,2.202199035673405719e-02,1.262583923614533643e-01,-5.177616901016648954e-02,2.873296737670898438e-01
1.965877141731973143e-01,3.656021264650202163e-01,3.450406971738602113e-01,-8.581661676944253581e-02,9.034365140665011340e-02,2.941816151030384602e-02,2.732931673526763916e-01
2.997783106358798411e-01,3.317252580428998732e-01,3.257862548708724826e-01,-1.228733151314411777e-02,1.316287986406324516e-02,6.915222171709978216e-03,4.452332854270935059e-02
3.078914353331420051e-01,3.367393242512672913e-01,3.151635428697026065e-01,-1.348352347968525926e-02,1.877706102154358403e-02,1.383297571445743154e-02,5.340883135795593262e-02
3.313035912322427889e-01,3.399840950603106315e-01,2.918605475302975538e-01,-3.792318873416272718e-02,6.128488021465698654e-02,3.138597680802465012e-02,1.432157158851623535e-01
3.062372233933954857e-01,3.411618410587137773e-01,3.059002829826774073e-01,7.752799794025798993e-04,-2.911629221544356858e-03,-1.912954711829544061e-04,3.548176586627960205e-02
2.145192629341603485e-01,4.095951100981481408e-01,3.559147118719155345e-01,-1.069583821125052736e-01,7.208678239614163541e-02,5.678729531978414513e-02,3.000810146331787109e-01
2.811619393254921051e-01,3.808245674428099581e-01,2.617869925485548088e-01,-2.637164022090602092e-02,1.276831632363903124e-01,5.171626557964498910e-02,2.669420540332794189e-01
2.675540206946357968e-01,4.665108897005182387e-01,2.625295885140340180e-01,-1.912587208275070769e-02,1.343719769410418319e-01,4.936924230042914752e-02,3.212251067161560059e-01
2.788257538389289913e-01,3.491067826914827643e-01,3.383618494654229703e-01,-7.091297229194615422e-03,2.628991048716055809e-02,-5.353401270096680084e-04,8.077690750360488892e-02
3.416619003437084690e-01,3.083404292701594773e-01,3.070043320916239216e-01,3.467299114521893238e-04,8.932661394505152718e-05,8.172327236514672927e-04,3.404430299997329712e-02
3.431986674963037887e-01,3.097079922910916383e-01,3.034024290368764198e-01,1.734284943953612107e-03,1.289004965560840003e-04,3.294384049090299561e-03,3.760578483343124390e-02
3.438918490352693147e-01,3.145238860547202031e-01,2.878779155632014142e-01,-1.500296433411356205e-03,4.788435177175326450e-04,8.291958326713991245e-03,5.068267136812210083e-02
3.221908634681495687e-01,3.141626617435645530e-01,3.141034044248926516e-01,-4.634530884193517435e-03,4.230841272795257679e-03,6.271030941236037382e-03,1.735066063702106476e-02
3.424576016980698245e-01,3.146322299157077174e-01,3.036080869106981273e-01,-2.489581750958493132e-03,1.489935892275014032e-03,2.200620175820074999e-03,3.524650260806083679e-02
3.438466159224101704e-01,3.004682345433301593e-01,3.138768317721288281e-01,1.987125992385110994e-07,5.250795794192238825e-04,2.205260069202367480e-03,3.866843506693840027e-02
3.394605599901959758e-01,3.103767858106116218e-01,3.077055147015576586e-01,1.852476172753752311e-03,-1.986250361916980060e-03,5.730576200644748458e-03,3.242439404129981995e-02
3.630266188629618362e-01,2.802600489426043118e-01,2.744653281556455049e-01,8.400519225742260343e-03,-1.282718026233656793e-02,6.268226606164707670e-02,1.409113556146621704e-01
3.386330645906543979e-01,3.083062330994033040e-01,3.098678823356815770e-01,-4.426750543204908267e-04,7.907566577081936695e-04,8.676039573028588312e-04,2.965666167438030243e-02
3.398841134657930585e-01,3.065146583836771410e-01,3.098380347043680483e-01,-1.540495395093772655e-04,1.820831722582195544e-04,1.457681556224976185e-03,3.194074705243110657e-02
2.097156610475269245e-01,3.679506185764992443e-01,3.099650303400482421e-01,5.639300539129311896e-02,9.730548180256246016e-02,-3.814406742838531011e-02,2.480640560388565063e-01
2.744616616407288268e-01,3.412290734587569707e-01,3.273627379995816544e-01,3.357866655713869636e-03,1.480003221732137039e-02,-7.020935500934253129e-03,6.755125522613525391e-02
3.113022983490085216e-01,3.213163991801248343e-01,3.314962852464661269e-01,8.284887092715218643e-03,7.005026354203218106e-03,-7.869673233056050793e-03,2.906508557498455048e-02
2.566681936249907703e-01,3.485502460591292095e-01,3.481453188073501126e-01,8.455131291487092554e-03,1.092890537031497231e-02,-3.755431392114734826e-03,9.497562795877456665e-02
2.560858830002114006e-01,3.578469947188560596e-01,3.308923899162784510e-01,5.042927417773318544e-03,2.883204343769674161e-02,-4.815682374279145819e-03,1.047791466116905212e-01
2.685871232284430810e-01,3.505552044352318597e-01,3.419690469168900071e-01,-2.167751734326774234e-04,1.144155978490918150e-02,4.315448494017019507e-03,8.085440844297409058e-02
2.480171280632033071e-01,3.467503406841440650e-01,3.538392733168643778e-01,-1.314577663730121145e-02,4.929760824381779032e-03,5.054603557346741202e-03,1.056711971759796143e-01
2.723986433612583524e-01,3.303599921913077386e-01,3.481485603655782302e-01,-1.423726910899186446e-02,1.601291610550513922e-03,3.345887574614029615e-03,7.318727672100067139e-02
2.703969339726801646e-01,3.303066734018182404e-01,3.490173601382167146e-01,-1.044501241641089886e-02,-1.666098051245149805e-03,-3.864353701133803852e-03,7.376070320606231689e-02
2.384566813476086677e-01,3.504146409738172485e-01,3.535366317508098488e-01,-3.042622581687560307e-02,2.861165427937338059e-03,4.938340341294621301e-03,1.255740821361541748e-01
1.610283698828720578e-01,3.180270186529823850e-01,3.937272783447092195e-01,-1.259568945910146953e-01,4.060926613316310357e-02,1.381956344750437729e-02,3.088359534740447998e-01
3.393620502446352272e-01,3.087495396061186725e-01,3.057662679022709051e-01,-2.949318894091791307e-03,7.942706845361893666e-04,2.202327025304497230e-03,3.286167979240417480e-02
3.409794594557176151e-01,3.079332465879811576e-01,3.037066172277992915e-01,-5.692400996625643795e-04,3.586847875281593944e-04,4.282874148317312307e-03,3.613831475377082825e-02
3.431790539224863212e-01,2.882516074882838231e-01,3.118122517601854549e-01,-3.234584943864980949e-04,8.505046145956746736e-04,8.553241403951316463e-03,4.999960213899612427e-02
3.390424341652860107e-01,3.031945144960339622e-01,3.087139817036895773e-01,-5.793248206266641545e-04,2.000077290563569577e-03,4.418612902405315984e-03,3.448560088872909546e-02
3.419064569547307642e-01,3.081662401269106288e-01,3.080154211808601716e-01,-1.225090094355171485e-04,-9.371838317612762436e-04,5.935182516715487890e-03,3.538181260228157043e-02
3.440096004464614499e-01,3.083494309344250173e-01,3.093172861729900913e-01,3.665624105266589841e-06,9.162378344492936016e-04,6.180362231157440420e-03,3.681276366114616394e-02
3.413998452717046939e-01,3.079036737092001874e-01,3.033651239067282623e-01,6.195752176633376879e-05,5.867522270288709181e-04,3.947423307130178312e-03,3.663887083530426025e-02
3.480383610117173676e-01,3.095921205719449065e-01,2.811108358230849924e-01,-7.250513115565121805e-03,-8.122959165248060803e-03,-2.914538731486948295e-02,7.929888367652893066e-02
3.404044972807250824e-01,3.146575428897932514e-01,3.093932524425510588e-01,-5.108633521669910839e-03,-3.036404722672725407e-03,-6.755417005090950770e-03,3.269584849476814270e-02
3.565144323979679286e-01,3.120776106868594635e-01,3.185610669699631692e-01,-1.501269722778172250e-02,-1.448376167028186945e-02,-3.193411515143809026e-02,7.806027680635452271e-02
3.412706088651219494e-01,3.072103722066630294e-01,3.095539348985793526e-01,-3.316487726827508785e-04,-1.489599448821179745e-03,-9.313355464625025677e-04,3.309620171785354614e-02
3.399263359415016228e-01,3.070387987857720047e-01,3.079557144209304487e-01,-3.585398040165368918e-04,-1.777043627916565437e-04,-9.002481179935236744e-04,3.248364850878715515e-02
3.437864063576938634e-01,3.144744730154327428e-01,3.013990804257475897e-01,-5.798788832567076620e-05,3.927380976664582063e-04,-2.406252277662921518e-03,3.783204033970832825e-02
3.441109925040927164e-01,3.158063473682638511e-01,2.892077493926913379e-01,-2.413424022713430046e-03,-1.057761066838363564e-03,-7.773803038616449584e-03,4.963495582342147827e-02
3.402327517406493751e-01,3.140012740381343814e-01,3.530914967986182873e-01,5.491340584887880599e-02,4.236901383216650635e-02,-4.793594840348643082e-02,1.500538289546966553e-01
3.976245714590039837e-01,2.479759212679356062e-01,3.420618947252855868e-01,4.008840152580950278e-02,6.192447684471826669e-03,-1.524330965756835188e-01,3.030031025409698486e-01
3.113545088803164607e-01,3.222616096854981627e-01,3.087378923186591684e-01,-6.388289163178900200e-03,-7.421134427371148257e-03,-6.642765996925579543e-03,2.396623976528644562e-02
3.236213662939300684e-01,3.236187496814490472e-01,3.118152036548927919e-01,-8.408840938335038900e-03,-7.139497499631251159e-03,-7.732095816206496081e-03,2.614868246018886566e-02
3.345277268343132548e-01,3.213938633824337532e-01,3.115466022092874820e-01,-6.540072208871617991e-03,-5.990072405819854215e-03,-9.419362024594996746e-03,3.001554869115352631e-02
3.187478695488261682e-01,3.037173134806486763e-01,3.277105568963810667e-01,-3.552519197546131439e-03,-6.540910327717829910e-03,-2.324548249041313245e-03,2.496765553951263428e-02
3.167479991178439591e-01,3.189366016682905203e-01,3.198274645862099197e-01,-2.286371335099177723e-03,-1.705672485486972112e-03,-1.939568844031448053e-03,6.574920844286680222e-03
3.188001495507168936e-01,3.190272196147247441e-01,3.165360869794801579e-01,-1.357710908693477488e-03,-7.270896364833074558e-04,-7.495649327908018291e-04,3.807006403803825378e-03
3.133903923861760532e-01,3.108555022206927476e-01,3.279512442146440554e-01,-2.795148757198275338e-03,-3.352825022693445896e-03,-1.449406347255211870e-03,1.785551570355892181e-02
3.197096375932436119e-01,3.248874953419883527e-01,3.114614898044247848e-01,-4.912595536120107145e-03,-1.554933562446356946e-03,-1.517065021453574978e-03,1.497025694698095322e-02
3.483251858874014117e-01,2.813790815146398061e-01,3.092882055704024857e-01,4.230375100755730776e-03,-7.333521766954198898e-03,2.819652953740251627e-02,7.741095125675201416e-02
3.412857971090255127e-01,2.730751522335705950e-01,3.298640533467016578e-01,8.617651366118245573e-03,-7.552308690141635444e-03,1.741011322410878151e-02,7.285124063491821289e-02
3.588239390017058383e-01,3.317275015371194957e-01,3.294493670138464170e-01,5.229964804672444789e-02,-5.086721687627222127e-02,7.048077887828381460e-02,1.779661178588867188e-01
3.539480126194132770e-01,2.439628779737860742e-01,3.627239266379331251e-01,-1.968217971300195192e-03,8.732681859037944895e-04,2.289212909748497560e-03,1.147545129060745239e-01
3.274353686541811581e-01,3.048054159916593897e-01,3.189188635265608474e-01,2.432528387516049839e-03,-6.450016834104657995e-03,3.112517630251283429e-03,2.373900823295116425e-02
2.968546083071947894e-01,3.189682749001989115e-01,3.496748495464755413e-01,1.656736828318921759e-02,-1.311753730884176235e-03,2.421569849799053327e-03,5.437950044870376587e-02
2.624394587497755338e-01,3.544887411782683961e-01,3.413589991776767585e-01,4.040521597702975915e-04,-4.422360529368597748e-03,-5.014878132067441359e-04,8.658402413129806519e-02
3.552049400306566684e-01,2.527308847206012898e-01,3.531934834488865138e-01,-8.082207105510760825e-03,1.926161616844470053e-03,2.667432211203432310e-03,1.026026234030723572e-01
3.531010618105081544e-01,2.512938944461587942e-01,3.527920420555098469e-01,2.623214539087113939e-03,-3.703666773020514343e-03,6.651994862449093528e-03,1.026054397225379944e-01
3.564289631342134057e-01,2.526655339717949200e-01,3.523165241064016850e-01,1.101645193192073158e-02,7.805561400229467546e-04,-1.615331417835537452e-03,1.035894900560379028e-01
3.472829774348765164e-01,2.473657365877656722e-01,3.621940451946654149e-01,2.064534796073635992e-02,-3.144332780499930428e-03,1.355341473644410683e-02,1.164263933897018433e-01
3.463088935905068722e-01,2.473801307071052114e-01,3.553227200787196227e-01,1.335280298910995755e-02,-1.547925103638822259e-03,3.125533497786481523e-03,1.064484044909477234e-01
4.302379117090858740e-01,1.828663748989839966e-01,3.720033392421505658e-01,9.921499214852627646e-02,-7.599113592631195208e-05,1.077984763486394271e-01,3.384830355644226074e-01
3.765467476068856678e-01,1.221985913841699967e-01,3.893772095342583062e-01,5.624849377636232522e-02,7.862897050181881856e-03,-3.763820706831597779e-02,2.864403426647186279e-01
3.706740034170075693e-01,2.684949015276425488e-01,3.489134023729845713e-01,1.054268409339663010e-01,4.179003892645939688e-02,-1.366402593536168719e-01,3.213813602924346924e-01
3.366853737192907481e-01,3.180140120483941346e-01,3.052756200692389177e-01,1.044944756943541261e-02,7.375336134417856751e-03,-1.501880086146783339e-02,4.377421736717224121e-02
3.221204139404412192e-01,1.574025642888174092e-01,3.913343539225443424e-01,1.241919560326046890e-01,-1.945372011676070947e-02,3.181176517479094440e-02,3.062115907669067383e-01
3.351055083731263595e-01,3.017575703144702581e-01,3.327990617416145547e-01,1.373242359051956435e-02,7.695755421055612555e-03,-1.382547834653771734e-02,4.855237528681755066e-02
3.267593409498961710e-01,2.635431264207855340e-01,2.531148328111580970e-01,8.402181673666830886e-02,8.595509876306160757e-02,-1.279756637874946146e-01,3.118355572223663330e-01
3.580730663498827848e-01,3.292484996353041704e-01,2.625431891795875217e-01,-7.705433540205308685e-03,-1.869000438125203653e-02,-3.501339832044335354e-02,1.100322231650352478e-01
3.605759555669369454e-01,3.314793876568126740e-01,2.567061797607128604e-01,4.049123595070219100e-02,5.551202330829970583e-02,-8.798948517025934057e-02,2.144833505153656006e-01
3.412980996078444074e-01,2.649862801534541568e-01,3.434312965344857860e-01,5.308394046810990981e-03,7.146781709897995910e-03,-9.744382229110100033e-03,8.070600032806396484e-02
3.497598399933714575e-01,3.326914820484441204e-01,2.654624772019415491e-01,6.878777525230683147e-04,-1.569286891369964633e-03,2.325609433915239166e-02,8.712004125118255615e-02
3.434425215307339019e-01,3.305560821957991835e-01,2.875047942079407837e-01,-3.854129165423519909e-03,8.466366397907766975e-03,8.918407109884011336e-03,5.542983487248420715e-02
3.578710726713628665e-01,3.745110526881119117e-01,2.175260224648055130e-01,-1.124885031680010819e-02,1.553922054538027508e-02,4.407679906203920001e-02,1.710007786750793457e-01
2.551056785158489770e-01,3.426538354250602825e-01,3.463950035336330058e-01,1.032479776067568057e-02,-7.954314317999106737e-03,7.495268053006608894e-03,9.318993240594863892e-02
3.224443135157576412e-01,4.108220907595937499e-01,2.644479513906632939e-01,5.631328484939250589e-02,-1.698891222727503258e-01,1.663274513819097689e-02,3.364970088005065918e-01
3.599714247878524898e-01,3.498588800073700877e-01,2.245958812270811844e-01,2.999812375046997178e-04,-9.102757426640156746e-03,2.354693879200471865e-02,1.377390176057815552e-01
3.607916886285360558e-01,3.126251716324959795e-01,3.093705681958744957e-01,-3.683930301201310958e-02,3.138525395573237009e-02,6.451474630136291855e-02,1.483250856399536133e-01
3.902830304659929972e-01,3.093101322236715411e-01,1.757585253944234094e-01,-9.620450728934082374e-04,4.558241745274043202e-03,1.241428256542435882e-01,2.854928076267242432e-01
3.953271063809384867e-01,4.076826386554900372e-01,1.726317532286439638e-01,-3.160799873095252940e-04,7.833117737448121176e-02,1.053947266845372127e-01,3.228454291820526123e-01
4.231665078058274854e-01,3.358181886573528563e-01,1.937136958350977323e-01,-6.897227119964496889e-02,4.588803830248326665e-02,1.266916364415204277e-01,3.301165997982025146e-01
3.548855802735286780e-01,3.012939671571057132e-01,2.926556319290377628e-01,1.752536244918401903e-02,-2.648406312766717757e-02,6.007089319850604514e-02,1.313803344964981079e-01
3.462549588574124204e-01,2.929983497351877908e-01,2.787477344878777630e-01,3.990447763734320669e-02,-3.654698257216502932e-02,6.847613397719924666e-02,1.632463634014129639e-01
1.732331635563001404e-01,3.641430455816206946e-01,4.553700492326518967e-01,1.166597769941782603e-01,-2.496007206844196025e-02,7.124526949938547737e-02,3.465692996978759766e-01
3.250017464189539629e-01,3.216677723716079851e-01,3.126515456089437039e-01,6.119378926220692128e-03,-5.367008978411524911e-03,6.071711251690002642e-03,2.078026346862316132e-02
2.684089625918797961e-01,3.021504589270025409e-01,3.387697693563779811e-01,5.694782476020641970e-02,-4.108230516593704834e-02,3.081024115587178286e-02,1.461345106363296509e-01
3.146481613562826518e-01,2.949853761172330224e-01,3.374947654142382847e-01,-7.027915657831212276e-03,-5.181800678655259021e-03,-2.801853304062781880e-03,4.012604430317878723e-02
2.809543934323482928e-01,2.440345435263385487e-01,4.645375609977960840e-01,1.348590542559382766e-01,-3.141757823377058084e-02,3.541437652495472987e-02,3.211359977722167969e-01
2.982024820097767814e-01,3.204462513563591797e-01,3.355656779195869133e-01,1.791492624167842496e-02,-1.440883782445697044e-02,1.674193257177959346e-02,5.904447287321090698e-02
3.134229779593541432e-01,3.094908633801887743e-01,3.323756959248841958e-01,-2.340953970318909207e-03,-3.424678834877128378e-03,-1.452814869347027714e-03,2.251996472477912903e-02
2.685054511920350606e-01,3.302828147623488309e-01,3.522662791784233471e-01,-1.220985506730020050e-02,-1.285603170934074800e-03,-5.724840272018617837e-03,7.879287749528884888e-02
2.402252992985051128e-01,2.956709599141907341e-01,3.761557375467562414e-01,1.161976617231915698e-01,-4.600003302808843009e-02,3.202750192417801178e-02,2.528745532035827637e-01
3.631018065670459927e-01,3.779571624737724234e-01,2.550943317867264137e-01,1.945094975428107720e-02,-6.099988885112600512e-02,2.476721655223718815e-02,1.662197560071945190e-01
3.455167992147680223e-01,3.364653873416249552e-01,2.871833213110805416e-01,8.380160527637616971e-03,-1.512620698690256976e-02,1.890702853502574179e-02,7.018715888261795044e-02
3.916821827440831738e-01,3.534558026340117176e-01,2.597131558695985332e-01,3.737693491159951864e-02,-1.249196113638307293e-01,1.352995661113820802e-01,3.460579812526702881e-01
3.366662593539824777e-01,1.784429292435523451e-01,3.418688406287730408e-01,9.802151043230356020e-02,-4.878433764596500077e-02,1.053668478575247869e-01,3.084732890129089355e-01
3.687326616837017235e-01,2.601303259042487825e-01,3.471302519640856454e-01,1.524954494729523491e-01,-5.390732780933875368e-02,8.283828461248400610e-02,3.301275372505187988e-01
3.070718222731971259e-01,3.413423190313434885e-01,3.090279407180192006e-01,3.660204800205845831e-04,-1.169428929864308082e-03,-5.886786123964373027e-04,3.341856598854064941e-02
3.110902024480026173e-01,3.392895452385831789e-01,3.109991704141711888e-01,-3.612387515984527564e-03,-5.970818151933936051e-03,-4.014585132778745666e-03,3.149966523051261902e-02
2.898008462870538815e-01,3.382996971981643286e-01,3.128620461096345284e-01,-2.525447985730898057e-03,-8.952582279992555778e-03,-4.390716139610719056e-03,4.563913494348526001e-02
2.888024643470076258e-01,3.442984737535641493e-01,3.138163271385439046e-01,-1.518131430152367106e-03,-9.299885289488281359e-03,-1.916139843009151498e-03,5.093842744827270508e-02
3.043817856822969570e-01,3.389207413239918587e-01,3.065920073321227179e-01,-1.878930113579431894e-03,-4.107613959039185282e-03,-2.221956417120075650e-03,3.460499644279479980e-02
2.870667720881672214e-01,3.498504581418588333e-01,3.140367422627471927e-01,-3.518190311639083278e-04,-9.154694337392580566e-03,-2.316877132940034154e-03,5.695433914661407471e-02
3.141655988195695692e-01,2.912807085120653894e-01,3.410218159780948888e-01,-7.929587202370856278e-03,-1.815626555860888006e-03,-8.696835699892737715e-04,4.539129510521888733e-02
2.533628926938307768e-01,3.488253795323578155e-01,3.552592580343472695e-01,7.948630160201128336e-03,-1.119446536475718302e-03,1.415635136675587888e-03,9.983981400728225708e-02
2.311159778066374237e-01,3.288398983792384933e-01,3.611930784126804461e-01,5.499799252707297109e-02,6.430313027875768535e-03,-1.011962043230620186e-03,1.515250056982040405e-01
2.245887256485152861e-01,3.777222185287208434e-01,3.492171135623959866e-01,3.122143334588514674e-02,-3.468739585926709779e-02,-1.448613431870545906e-03,1.625964194536209106e-01
2.844003611935613796e-01,3.537347945490107448e-01,3.333304460806812974e-01,6.150230029616773030e-03,-2.235952241226797990e-02,1.839801432772123976e-03,7.370449602603912354e-02
2.473077427164120934e-01,3.471830869205419501e-01,3.579459612349589204e-01,1.318985773580541414e-02,-4.679861522729476461e-03,5.341076903793199292e-04,1.084174588322639465e-01
2.553064550299835589e-01,3.486532365913121989e-01,3.451707783753488190e-01,7.362893798336229284e-03,-4.046936364448228650e-03,5.231059447033965977e-03,9.324448555707931519e-02
2.975185655093797177e-01,3.182424456133485791e-01,2.958500595474356509e-01,5.257069479701122899e-02,-5.996359728791707255e-02,5.289322457972282787e-02,1.671462059020996094e-01
2.990393585264123355e-01,3.318884309831055535e-01,3.304422157298970153e-01,1.210359136259663362e-02,-1.199013102191568043e-02,8.539974661592161786e-03,4.607841372489929199e-02
3.124930906325480984e-01,3.111345206926455220e-01,3.324124704946455067e-01,-7.962981228458563968e-04,-2.184092773165179774e-03,-8.887963083064279873e-04,2.107776515185832977e-02
2.492548602723156925e-01,3.561224625009143385e-01,3.490689941543225205e-01,-4.173536671743682423e-04,1.061118275007560084e-02,2.507851806388139708e-04,1.051434800028800964e-01
2.429735992374429387e-01,3.549200466476724047e-01,3.618487840525739241e-01,3.692173213400170781e-03,4.558899049202016530e-03,-3.717418049667415149e-04,1.160143241286277771e-01
2.386775388008900711e-01,3.614248418469811486e-01,3.616063275997823401e-01,4.578676521907850544e-03,3.330018390014169525e-03,-9.034897621906826614e-05,1.232290342450141907e-01
2.069037606573923549e-01,3.621858537383386700e-01,3.609302616150000254e-01,2.635888883212920194e-03,6.988380374520752718e-03,-1.273306491981600081e-03,1.552138924598693848e-01
2.493911260475633052e-01,3.602375966128366080e-01,3.657399867538220772e-01,-8.977931666514962772e-03,1.718490813921218219e-03,1.102477930100740060e-03,1.148105040192604065e-01
1.439437979628712394e-01,3.824319468658455290e-01,4.078538914560245199e-01,6.909715254540320373e-02,5.009023638273803897e-02,-1.490792801543441154e-02,2.934327721595764160e-01
2.494882587191618595e-01,3.619276016341010371e-01,3.485534799752437185e-01,1.849891007778875843e-03,8.322226117485594446e-03,-2.021378217941056151e-03,1.074616089463233948e-01
2.086210193695585136e-01,3.712233345950048391e-01,3.673007010744467893e-01,-1.246557804491328116e-02,3.404951670592117237e-03,-5.177594773266678760e-03,1.624759882688522339e-01
3.219387223164609790e-01,3.137267471323426093e-01,3.207012339993287053e-01,7.570591959760007358e-03,-7.358015294885625335e-03,9.276518122445400263e-03,2.552116475999355316e-02
3.192089850992033129e-01,3.181551763254250598e-01,3.171682330710270392e-01,1.451818720228646373e-03,-1.092872204865308035e-03,3.184100611470928508e-04,3.651741426438093185e-03
3.141615948968363159e-01,3.142003451163820626e-01,3.220085166846132219e-01,4.857721732792836568e-03,-5.133796134827134199e-03,4.949874495705715999e-03,1.687113940715789795e-02
3.179693995413754859e-01,3.165437186665470692e-01,3.213604529941556098e-01,-3.518242330357385854e-04,-1.683503009729147432e-03,4.960955310944049988e-04,5.289479158818721771e-03
3.170561768461621632e-01,3.212433011236202618e-01,3.145144605282285122e-01,2.723001389993812485e-03,-1.058079696779623763e-03,1.654062907670871170e-03,8.273173123598098755e-03
3.129689173663257051e-01,3.278850401325666963e-01,3.110417644309817486e-01,3.218335658068750653e-03,-2.837904082071585673e-03,1.356919783452295277e-03,1.776817813515663147e-02
3.318838767173862281e-01,2.984732786824806361e-01,3.317365513974175339e-01,-1.288559325075691077e-02,1.009528580389388273e-02,1.410034703742442386e-02,5.011673271656036377e-02
3.525047046635633174e-01,2.704569436337640465e-01,3.361643079146739987e-01,-1.505453737445496334e-02,1.307875201272551587e-02,3.335008444672204336e-02,1.009351983666419983e-01
3.082558799099689995e-01,3.265443036721102366e-01,3.185426412200788038e-01,-8.576292890425414941e-03,1.027411720324858564e-02,1.056079215799624396e-02,3.352725878357887268e-02
4.057776419968111559e-01,3.418044734877711543e-01,2.734475125689087571e-01,-1.774225705542424548e-03,1.538215514187928415e-02,5.893287750178216600e-02,1.558100730180740356e-01
4.000330111858691473e-01,1.670242060008709506e-01,3.319866299599829595e-01,1.456318712630092112e-02,-5.893383381582504611e-03,1.133637346548371644e-01,2.869886159896850586e-01
3.488741935616258560e-01,2.819076311681376068e-01,3.045044079728972952e-01,-2.624458695624727177e-03,3.581768609316598843e-03,3.096451936719137737e-02,8.010905981063842773e-02
3.589016806785616520e-01,3.145197178395026105e-01,3.059134743359304132e-01,-8.923421377878609437e-03,1.284418326121741089e-02,3.226278421586362133e-02,7.926065474748611450e-02
3.642887153149604873e-01,3.324602724746599236e-01,2.639979235491177190e-01,-5.343522755071210273e-03,-1.644847918966216987e-03,2.604942611578574610e-02,1.000434234738349915e-01
3.499058553457610743e-01,2.754532239601410470e-01,3.306153449898587282e-01,-1.830188869566545676e-03,5.174845224650424097e-03,1.033453993673306981e-02,6.992769986391067505e-02
3.491406947643687086e-01,2.894453124799925559e-01,3.134274480225446302e-01,7.092678894983489709e-04,1.125490531957846953e-03,8.611059034571206042e-03,5.417397245764732361e-02
4.464761594681144752e-01,2.090772247008481077e-01,3.124262978789850154e-01,-6.279800178955953494e-02,1.730075307923083228e-02,1.076421777083820946e-01,2.999892532825469971e-01
3.499531008191906767e-01,2.787680628855766507e-01,3.288523556942214987e-01,-3.393199048269450457e-03,5.424670514367792643e-03,2.536880980187965900e-02,7.787198573350906372e-02
3.311807971655890692e-01,3.465401654490477545e-01,2.627654265538094669e-01,-3.994477958790931815e-03,-1.649013682778147430e-02,3.674766150592724372e-04,8.265250176191329956e-02
3.474570754798255168e-01,3.457314794935012481e-01,2.539881216369690442e-01,-5.272527655717917407e-03,-1.768309513472050495e-02,-1.926889408920583885e-02,1.035059317946434021e-01
3.521120363435584211e-01,3.517404663849625357e-01,2.527494232147475262e-01,-3.821819587026498654e-04,-1.333118025374821708e-03,4.570669988484517623e-03,9.952180832624435425e-02
4.208644420638133488e-01,4.266004845447581295e-01,1.571041002933976916e-01,-3.189957121450570643e-02,5.087564378283462863e-03,-1.217182090464044020e-01,3.445166647434234619e-01
3.538103315184242259e-01,3.323001031683791018e-01,2.783456414302110105e-01,-8.903293616848220998e-04,-4.553923237783839145e-03,-2.418667866386300588e-02,7.971151173114776611e-02
3.335536921575731339e-01,3.307511699632222912e-01,2.878265925718159757e-01,-7.012510097398947859e-03,-8.590258002852567062e-03,-7.561501300990274357e-03,5.011090636253356934e-02
4.063909190652861270e-01,3.737292221578049078e-01,1.940592750101009512e-01,-3.694288875661053649e-03,-2.396979032507896585e-03,-8.390229800416203199e-02,2.457506209611892700e-01
3.376269134867453947e-01,3.663019427834375841e-01,2.792733757362680924e-01,-3.086706853034425213e-02,-4.037059676343556641e-02,-4.893286879230318576e-02,1.443317085504531860e-01
3.830861779099076214e-01,3.780813205407658195e-01,1.425999808109730260e-01,2.406563230572473025e-02,-5.435413231940465495e-02,4.345998284514895893e-02,2.700406312942504883e-01
2.854751525653042021e-01,3.048846259461822084e-01,3.654155716532169751e-01,-3.734751684519030390e-02,-3.892498363947468829e-03,1.163121797116472428e-02,9.925431013107299805e-02
2.604058719530871757e-01,3.537344295499205149e-01,3.436522710236006306e-01,-9.447545740118039673e-03,3.079661625577742590e-02,2.939225725874271885e-03,1.049280539155006409e-01
2.640324360502656065e-01,3.472119976048302914e-01,2.984492571322545085e-01,-9.369781154368785059e-02,1.082064786457670735e-01,7.413539143810198018e-02,2.884311378002166748e-01
2.985987149781943462e-01,3.514368200730783598e-01,2.998414919193075345e-01,-5.253532956914775710e-03,1.929735339102690156e-02,1.040359081555522307e-02,6.521050631999969482e-02
2.761348174032222658e-01,3.307652850460338079e-01,3.455548302333216193e-01,-1.284802088458279409e-02,7.726279161348822283e-03,7.250414231041373697e-03,6.959299743175506592e-02
2.681530216631222707e-01,3.497691959345765600e-01,3.253563795541279391e-01,-5.659207888519355179e-04,1.328486835245467138e-02,1.563775820643959142e-03,7.617391645908355713e-02
3.098382984592376599e-01,3.077688757414451803e-01,3.391799540051497752e-01,-9.906988691880517540e-04,-1.512985026850606918e-03,-6.245477659331927743e-04,3.060910850763320923e-02
3.494994435762292517e-01,2.978274173459474761e-01,3.051297031399898829e-01,-1.163766317005072472e-02,1.028538047732534266e-02,3.503668092325361305e-02,8.217284828424453735e-02
2.794351109294410107e-01,3.625560264375024544e-01,3.713053090965318104e-01,-5.778059457126767662e-02,4.672609451017795817e-02,2.291603579816408470e-02,1.607920825481414795e-01
2.946985306561105689e-01,3.375823872356613076e-01,3.202403410893157054e-01,-1.159263023671237933e-03,1.088202611882151637e-02,5.983095541599921935e-03,4.315967112779617310e-02
2.934014746719596500e-01,3.488127944736997832e-01,3.163478802447310945e-01,-3.137451724404439948e-03,8.246292488331190274e-03,3.733189789445685511e-03,5.099809914827346802e-02
2.874073000402137534e-01,3.339798551219231304e-01,3.312391237041010239e-01,-7.008733503260245606e-03,6.269190075223715283e-03,1.016099607287789322e-02,5.122386664152145386e-02
3.253231441027378823e-01,3.667785522411205479e-01,2.832326997032479365e-01,-2.695948185690005133e-03,2.965153959120228611e-02,-5.925496853084481243e-03,8.944167196750640869e-02
3.249172277620438476e-01,3.154490949662385191e-01,3.181213706912033312e-01,-3.829613962567257612e-03,3.880272875718280591e-03,1.275790393023073458e-03,1.286605745553970337e-02
3.191891397403338049e-01,3.164052245099349125e-01,3.194450350190028987e-01,-7.494382341578095189e-04,1.380564996845489107e-03,5.282306878526601144e-04,4.094874020665884018e-03
3.222012559359839767e-01,3.178337887762464620e-01,3.165189226688390756e-01,-5.586254092636182061e-04,9.584678854954984967e-04,6.850960649026157810e-04,5.625523626804351807e-03
3.224405342577904010e-01,3.200468131682452366e-01,3.114366378825820236e-01,-3.986253405324150477e-03,1.487255750653123255e-03,1.371268001114356143e-03,1.266581751406192780e-02
3.226623495972073541e-01,3.170987524397558821e-01,3.184996253368632679e-01,-3.016518713535833000e-03,2.762919630655107529e-03,3.042818847982436525e-03,1.015370525419712067e-02
3.175932507911372049e-01,3.210971800754318650e-01,3.165066236704471847e-01,-3.011861552446570053e-03,1.878960357142566220e-03,1.270356148733065623e-03,7.740320637822151184e-03
3.165553010202847295e-01,3.224922979904197295e-01,3.182001395148578160e-01,-8.298077940068257887e-04,4.091092685426861377e-04,4.485666240574232109e-04,5.599956959486007690e-03
3.170244694863696422e-01,3.192967544528196866e-01,3.194503982270511244e-01,-1.955355283240331563e-03,1.748728783126866264e-03,1.811361994257190081e-03,6.001958623528480530e-03
3.269124042205194258e-01,2.887923438005605137e-01,3.414505030618452119e-01,4.271053840285776206e-03,4.838454999527621973e-03,-2.670182939700383156e-03,4.863163456320762634e-02
3.468208002779727961e-01,3.177605611175621791e-01,2.849285560008844587e-01,6.862881165191552640e-03,7.159623966092201405e-03,-2.092557252687411717e-02,6.697209179401397705e-02
3.071481233909963415e-01,2.799584704261102175e-01,3.624201316015147611e-01,5.464850705517512730e-02,7.256175500180398960e-03,-1.892822130296041051e-03,1.201048791408538818e-01
3.317657457710044833e-01,2.735843383001284601e-01,3.273957978907617306e-01,1.681194269860944793e-02,1.073499940150172798e-02,-1.772847672051602180e-02,7.270807772874832153e-02
3.429599729082675186e-01,1.926284758183708645e-01,4.066134310682981701e-01,1.857514820142881773e-01,-1.102460505454900749e-02,-4.134435986903231552e-03,3.743623793125152588e-01
1.920224779152040484e-01,3.055514438952909306e-01,3.521981174575846141e-01,1.176712982772921967e-01,7.528174478727740759e-02,-5.352677969154187587e-02,2.957997024059295654e-01
3.359080094101350444e-01,3.127839997881196044e-01,3.086838825182992019e-01,2.308546907368286272e-03,-8.812444315783727515e-04,5.846267783231217556e-04,2.580087631940841675e-02
3.351945269095615298e-01,3.098928526912601011e-01,3.084764314632329474e-01,7.023426812714056141e-04,-9.434143224960373116e-04,2.741060240522024847e-04,2.612267434597015381e-02
3.393913319701163944e-01,3.080445838613081189e-01,3.090259355097705329e-01,8.970117577494472489e-04,-1.372289936893343132e-03,8.088190370020054186e-04,3.102975152432918549e-02
3.299698869812159874e-01,3.022755409076373079e-01,3.190614235418679501e-01,3.104674012821461316e-03,-7.030913991602094452e-03,2.959556344854956129e-03,2.806000411510467529e-02
3.374858259156294227e-01,2.971138486558468905e-01,3.161921808273924217e-01,2.516352290596940953e-03,-5.870791774338712278e-03,6.455117751758813853e-03,3.835426643490791321e-02
3.096781862539695895e-01,3.090021783856186643e-01,3.351787886977666275e-01,-4.351193738955256847e-04,-7.032959467656315451e-04,-9.332986124031775882e-04,2.593532949686050415e-02
3.394461249528528679e-01,3.045021238560201016e-01,3.101834454141717545e-01,1.570025613231367011e-03,-3.257116360934514052e-03,4.413253416225135749e-03,3.394825756549835205e-02
3.435316961791871626e-01,3.000845199453711087e-01,3.152105885029747867e-01,4.776150017120160137e-05,4.242579872135403133e-05,2.630384636513675468e-03,3.847127780318260193e-02
3.184365487770832170e-01,3.019106534171443479e-01,3.277927040387209612e-01,4.472254052305795272e-03,-6.255271860710617110e-03,2.838731749161805228e-03,2.677359431982040405e-02
3.209262001407017784e-01,2.975739208816393644e-01,3.463597306892308159e-01,2.802091209360961510e-02,-5.072294240981194829e-03,1.662348521354128916e-02,7.104818522930145264e-02
3.130661607871907948e-01,3.100915908609061522e-01,3.282223956915620300e-01,3.385968835976910143e-03,-3.571602566287781534e-03,1.574687332361895996e-03,1.907210238277912140e-02
3.113571337000385353e-01,3.172911199057395493e-01,3.220227879204629606e-01,1.454386211571794593e-03,-1.883379094931294292e-03,3.086551120437697020e-03,1.145626418292522430e-02
3.168553398308540103e-01,3.152822316449798157e-01,3.257387300303156152e-01,2.380747849616256153e-03,-2.784008194320983058e-03,3.300059101768425002e-03,1.297270134091377258e-02
3.223336674001791580e-01,3.552476218942380304e-01,2.814916245656217120e-01,1.927461416825261911e-02,-7.148009307368645426e-02,7.302237510651867630e-03,1.438693404197692871e-01
3.173510678544003705e-01,3.176640310437814363e-01,3.177733761590239014e-01,2.359061465576222944e-03,-2.707875208107325422e-03,2.200095978112907077e-03,7.304701954126358032e-03
3.360677405115469751e-01,3.104934571749849437e-01,3.060045599513958603e-01,3.418853252740926187e-03,-1.613424584450938405e-03,3.223736609844667002e-03,2.937766164541244507e-02
3.147891049197912294e-01,3.195514962481217358e-01,3.177835026615588587e-01,5.488482486665338710e-04,-1.281655957260986007e-03,1.506229094292314830e-03,5.479425191879272461e-03
3.167982916724230713e-01,3.176772556589438912e-01,3.223345972360603384e-01,2.131607509810088449e-03,-3.035372176859465598e-03,2.851306187046975631e-03,9.603051468729972839e-03
3.700039000772951114e-01,2.738333850324433660e-01,3.363776171488808142e-01,1.075560372585221717e-03,-1.333890049573932188e-02,-6.360527677391843160e-02,1.407827436923980713e-01
3.431114229863458376e-01,2.736688689960100618e-01,3.266061898411710684e-01,-7.445155986533986622e-03,-7.088691637416495717e-03,-1.366829367831083088e-02,6.946964561939239502e-02
3.588917076371748727e-01,2.890132265345550788e-01,3.102869527511957770e-01,1.152592948885157627e-02,3.765621528441642253e-03,-3.347433331670246481e-02,8.747383207082748413e-02
3.490644735925954034e-01,2.892146244524891330e-01,3.157987073623292895e-01,6.251779926843407421e-04,3.528952922217312303e-04,-8.609564185935798114e-03,5.405168235301971436e-02
3.475583613679825712e-01,2.876419305793183057e-01,3.270384943895898733e-01,-3.458747191809996568e-03,-3.176245493551985589e-03,-5.106225961189114239e-03,5.409197136759757996e-02
3.524721051686963702e-01,2.508696580693268174e-01,3.498922574161764110e-01,2.368641469692490086e-03,2.679316747980530107e-03,-9.319482257093758201e-03,1.018161103129386902e-01
3.443140155965140337e-01,3.503080025147906063e-01,2.699133466955110916e-01,2.807304080530436535e-03,2.444485116564463004e-02,-1.605567196959781229e-02,9.277388453483581543e-02
3.026897234587120900e-01,3.283158061379041204e-01,3.235528797867764927e-01,8.492083472922337672e-03,1.374532604559703698e-02,-5.803482015040593335e-03,3.796730190515518188e-02
2.997254396737534798e-01,3.485594564068348888e-01,3.161624986179885632e-01,-1.598767402067374690e-03,1.403567477583210141e-02,2.050762013600257450e-03,4.963402077555656433e-02
3.262523545980421935e-01,3.476898071972541193e-01,2.749506883952191894e-01,5.311519253097963383e-03,4.143830344675859291e-03,4.208879797935760766e-04,6.578665971755981445e-02
3.268730354981436159e-01,3.461412104128254730e-01,2.959338717103370264e-01,7.112468452482275869e-03,1.196916157955841761e-02,-3.416777391445468669e-03,5.041034519672393799e-02
2.744429164639791141e-01,3.511109663626919009e-01,3.339702934867935791e-01,5.131145446784980690e-03,1.186239643635597814e-02,-7.553359939763543401e-04,7.321541756391525269e-02
3.483472534817835253e-01,3.958065875825269586e-01,2.466955952833830013e-01,-1.358341026288926306e-02,7.511617151652248692e-02,1.798506866933742565e-02,1.893700063228607178e-01
2.953321999439628143e-01,3.306940895610988584e-01,3.268282429695459901e-01,5.645234015120011856e-03,-3.684839963737506115e-03,7.318927998639070120e-03,3.775903210043907166e-02
2.739504942475700089e-01,3.489379029239986219e-01,3.348376628762715912e-01,-9.148446061989672692e-04,-1.383825319999793489e-02,4.944522515622056143e-03,7.358624041080474854e-02
2.819863203642966054e-01,3.481806563537546140e-01,3.258641986093213649e-01,8.294834290973622428e-04,-6.749859749437605271e-03,2.504683355371555703e-03,5.966621637344360352e-02
3.063961674697774917e-01,3.347863078233250245e-01,3.169421193573652151e-01,1.426700232915989594e-03,-2.044019652136306545e-03,5.161944266879581709e-03,2.676552906632423401e-02
2.769232621666938288e-01,3.257396321177984388e-01,3.651239393747924278e-01,6.981722966867418001e-02,-2.700807123332403265e-03,1.787302079382294476e-02,1.464933902025222778e-01
3.301688064016846114e-01,3.337728720102155489e-01,2.944761284443173088e-01,9.387744421291199792e-03,-1.395462222482189360e-02,1.515658889959643069e-02,5.434469133615493774e-02
2.582209821725927612e-01,2.844350686527823968e-01,4.639474460054199834e-01,-1.940478669076991236e-01,-3.838096877086159125e-02,4.012838608433452747e-02,3.997893333435058594e-01
2.959924851067771145e-01,3.088930460063853412e-01,3.964849570729040984e-01,-1.015571755085938194e-01,-1.748580841645287114e-03,-1.306003023573689206e-02,2.010751068592071533e-01
3.771072926766608768e-01,2.837891884963484324e-01,4.017506114943003026e-01,-1.444499621530186684e-01,8.500174239371534324e-02,1.039744545760210581e-01,3.582185804843902588e-01
3.160702908966696034e-01,1.979633404004970398e-01,4.835590224654258140e-01,-1.586230299585716097e-01,4.024706141992079322e-02,-2.577294169654183002e-03,3.770232200622558594e-01
2.606110044314203789e-01,2.371873155781597797e-01,4.063403191053454044e-01,-1.598243523840039426e-01,-1.676740929213291209e-02,-1.408562730550381482e-02,3.213554918766021729e-01
1.488852339072451181e-01,3.071325389403886108e-01,4.111248614246177935e-01,-1.456531183222399828e-01,2.105281099463143096e-02,1.404997949423010366e-02,3.433358073234558105e-01
3.078130776810444336e-01,2.548264091597615133e-01,4.020784095325876106e-01,-7.724056779213069046e-02,4.197296006994010939e-03,2.453145741662582369e-02,1.909054517745971680e-01
2.765297108785595426e-01,3.481287366984353038e-01,3.325974248902100472e-01,5.760603182285856105e-03,2.479171114928938047e-02,-7.981618433544763677e-03,7.993856817483901978e-02
2.565740032593843423e-01,3.395900203538032014e-01,3.345513421767494222e-01,2.708083390127850876e-02,3.580850889353299343e-02,-1.266469831325472625e-02,1.141350194811820984e-01
3.209904751995283911e-01,3.377382926439527200e-01,2.946048359225723612e-01,-5.878511916418170842e-03,-7.153109081121281944e-03,-2.036394435952592133e-03,4.108778014779090881e-02
3.146097463080031464e-01,3.432158064272597953e-01,2.999568179756669228e-01,-1.142607886098681970e-03,-2.939338276865560966e-03,-1.783232955146089925e-04,3.849816694855690002e-02
3.171296448383839062e-01,3.376726957744658475e-01,3.041105366857215220e-01,-4.871325387771541574e-03,-3.443728373952638019e-03,-3.315574727903047251e-03,3.160241618752479553e-02
3.378826842235762573e-01,2.443482874253660730e-01,3.849182377731119598e-01,-7.536824487333600164e-02,8.525195184717193966e-03,1.035312854792049507e-02,1.814970672130584717e-01
3.644755423730477450e-01,1.995105815848318143e-01,3.612295976130957542e-01,-9.493309903885541190e-03,4.552152994776796809e-03,8.350572259194945571e-03,1.650158762931823730e-01
3.692676303442000707e-01,2.144517505925882528e-01,3.992537964272958595e-01,-2.496044622848412383e-03,-8.228894193122228765e-03,-1.094887990738918453e-02,1.734673678874969482e-01
3.431166437274615899e-01,1.827420319747888322e-01,3.826850091123093489e-01,-1.022075982367358221e-01,2.472913364503008526e-02,2.692602516706173177e-02,2.626408934593200684e-01
3.545576630074865898e-01,2.556279483121140506e-01,3.475711340874990674e-01,-1.316426445750433147e-02,1.652672902211444654e-03,2.178764324387489140e-02,1.053419038653373718e-01
3.647071289418746809e-01,2.515177591732684070e-01,3.721610833667588492e-01,-1.721115931153721634e-02,5.354570613247539891e-03,2.968872663486682439e-02,1.316436529159545898e-01
3.132432961754875733e-01,3.454263074476148221e-01,2.789439564842711161e-01,8.421516501626754442e-03,2.941928061268132139e-02,-8.728042837924547548e-03,7.971092313528060913e-02
4.604216408364621982e-01,1.071093482656360618e-01,3.980051779029109005e-01,-6.133946473285251111e-02,-7.504814474818471276e-03,-3.813072612414938889e-03,3.437630832195281982e-01
3.537895999329845331e-01,1.761638670944699891e-01,3.578717692962795627e-01,-5.985679134637664212e-02,4.053846724536180890e-02,7.450533200807922529e-02,2.542133033275604248e-01
2.920352507365362449e-01,3.115208275787616499e-01,2.449192766835079915e-01,9.377362461418024819e-02,1.142959860086511653e-01,-1.069293695923311804e-01,3.215440213680267334e-01
1.948332201226600224e-01,4.064029784183523786e-01,3.548219707197949324e-01,6.680199885421191086e-02,1.586601746686188974e-01,-1.028363389524152016e-02,3.545889258384704590e-01
3.059351938800293769e-01,3.256274270477261257e-01,3.254786746187410817e-01,2.736006287814710461e-02,1.326809092171831427e-02,-1.874210631117015011e-02,6.490394473075866699e-02
2.903665790343909481e-01,3.106361788101034138e-01,3.398313734232343841e-01,2.231446196291606010e-02,9.385141342184731561e-03,-1.028762170917262020e-02,6.269405782222747803e-02
2.909391612182432585e-01,3.395237634955637351e-01,3.745116258142215937e-01,6.453683883664525223e-02,3.286567254082033152e-02,-2.989327319525665605e-02,1.539505720138549805e-01
3.089190843249500773e-01,3.292060016697667124e-01,3.330736650044694991e-01,9.137238985561433463e-03,7.419684523344960425e-03,-6.910420619842443449e-03,3.261694684624671936e-02
2.459457745970738962e-01,3.929018747750506191e-01,3.862627786699696086e-01,3.573206103290839375e-02,3.272549188764776323e-02,-3.298291242016739185e-05,1.664564013481140137e-01
3.204988821145719480e-01,3.188758987447032345e-01,3.179397854501505027e-01,-1.985036279195277493e-03,2.096058524476053335e-03,2.345983339205747961e-03,6.822175811976194382e-03
3.287159401452325325e-01,3.125996079091211688e-01,3.131860575631180144e-01,-2.198314861454019921e-03,8.222427038525741442e-04,1.326333279658900056e-03,1.650551892817020416e-02
3.286520184825038049e-01,3.128797713641758849e-01,3.156045891510005919e-01,-9.009391995552242481e-04,8.161593612662677725e-04,1.379953758908811614e-03,1.494517177343368530e-02
3.262502488713719395e-01,3.150010151913325007e-01,3.155874837811352696e-01,-7.755936235485386349e-04,1.849480667033778173e-03,3.470788131997802595e-04,1.152040157467126846e-02
3.286984370969999736e-01,3.146150988230513867e-01,3.108206481758790662e-01,-3.133817147271766943e-03,1.733803636421904232e-03,1.537518671419055641e-03,1.765642501413822174e-02
3.223469472562184857e-01,3.201597877128950498e-01,3.110461678851955125e-01,-4.455615362968257456e-03,1.368958035390835208e-03,1.312499678552120049e-03,1.334624644368886948e-02
3.385865591184893386e-01,3.093369058544647165e-01,3.080979515810318148e-01,-1.311426997417873205e-03,-8.071899764830222214e-05,5.335857882056096622e-04,2.998915500938892365e-02
3.335622257353397790e-01,3.112049799743570322e-01,3.104476575022699913e-01,-4.109343018116463735e-03,3.410344145615387419e-03,5.186849745904077540e-03,2.614600025117397308e-02
3.307339149416098634e-01,2.978882717750586107e-01,3.183595631000347703e-01,-5.001472171417624749e-03,7.271658115232785408e-03,5.692435426065066070e-03,3.400593996047973633e-02
3.276204069361429161e-01,3.033250255613892943e-01,3.190218872284413809e-01,-2.580700572068595194e-03,6.529634209974112188e-03,4.041047788037466747e-03,2.553770504891872406e-02
3.249393646151113590e-01,3.146612065934048519e-01,3.153907438164728072e-01,-9.562277807561145229e-04,1.939107140416487709e-03,4.290674117484231617e-04,1.064191106706857681e-02
3.315587832752994735e-01,3.114113523893102253e-01,3.076819634329370223e-01,-3.686126503814723086e-03,1.088856419255298472e-03,3.012822985611571594e-03,2.380158938467502594e-02
3.239093580577296350e-01,3.201971873976614535e-01,3.090449031830783122e-01,-4.803052737496122694e-03,7.863430406822632251e-03,5.050368446689208583e-03,2.260044403374195099e-02
2.777932821647828843e-01,3.408667257643668291e-01,3.027794391196933499e-01,-3.501622801392216544e-02,5.289922799093708244e-02,2.505422632711116690e-02,1.303193867206573486e-01
3.221185025644420774e-01,3.055724409425072396e-01,3.190771615106043901e-01,-3.493294773735754373e-03,7.581180966514141154e-03,5.265425770022057195e-03,2.291082777082920074e-02
3.286199864299260143e-01,3.154261021318978120e-01,3.127681919233396002e-01,-8.723372594496771760e-04,8.194287632779114448e-04,1.177109702492662533e-03,1.498883869498968124e-02
3.639861048780437813e-01,3.616578488764712884e-01,2.454151943120176094e-01,1.281482291159164290e-03,7.007890889320488037e-03,7.465226521024623122e-04,1.180777177214622498e-01
3.479146951658406706e-01,3.476411674615829672e-01,2.640248925845509187e-01,1.143440530470923346e-02,3.286540552382393593e-02,-1.496330710272516032e-02,1.063906550407409668e-01
3.470047031324228204e-01,3.475213442578927170e-01,2.472355611210533544e-01,9.363022709928512169e-03,1.790274551807705811e-02,-2.218152989897662769e-02,1.127221286296844482e-01
3.635966790105873425e-01,3.539050447665030297e-01,2.443279132052140756e-01,1.680250051027603470e-03,7.172751875740854613e-03,-1.127680805690703869e-03,1.154542639851570129e-01
3.501126078543762565e-01,3.542822194686185422e-01,2.429026768795376212e-01,5.744642661250942348e-03,2.019926062726661378e-02,-1.122345552286511299e-03,1.152614057064056396e-01
3.560515529922875788e-01,3.474205889866499031e-01,2.331094350302063689e-01,7.613966788839025574e-04,4.646327485397224594e-03,-3.160833971846171986e-02,1.311179399490356445e-01
2.482270073771102314e-01,3.504083422888797372e-01,3.678912558505242347e-01,2.278272382257249054e-02,1.726470607408795918e-02,-9.039698426631059130e-03,1.234083473682403564e-01
3.050368163297262347e-01,3.429241487603114091e-01,3.074453136590483138e-01,1.437254612642715644e-03,-4.754773678547164102e-03,-2.093599452391324296e-03,3.791001811623573303e-02
3.212216070964090120e-01,3.182042635277475551e-01,3.168162651939904761e-01,1.438541263017467610e-03,-8.617735687825111386e-04,-7.709545843630099854e-05,4.865487106144428253e-03
3.220387206322550822e-01,3.170239666576574744e-01,3.152127028568356693e-01,5.709959614753355771e-04,-7.588728281791073862e-04,-6.975519447561760993e-04,6.455771625041961670e-03
3.244162020582532224e-01,3.149368671900197314e-01,3.152289692616643824e-01,6.049165861085706872e-04,-2.071735774376116512e-03,5.230918469194333975e-04,1.009797491133213043e-02
3.147917369552195588e-01,3.179599539366676497e-01,3.194236745688180945e-01,1.195077207599138085e-03,-6.354650677986436406e-04,1.527917873570752358e-03,5.414530169218778610e-03
3.114230322468323764e-01,3.408770389388973698e-01,3.072504898672426821e-01,4.520262351211139749e-03,-7.983460760089697295e-03,2.544118717160763661e-03,3.577386587858200073e-02
3.191506911771210264e-01,3.173600673360864599e-01,3.179753297593937988e-01,9.564406546815613745e-04,-1.534958022985159895e-03,3.363723888148724807e-04,3.554608440026640892e-03
4.014253484737549948e-01,3.295230385576644605e-01,2.314674673627197254e-01,1.493208376441150162e-02,-2.785622335458981871e-02,6.385293957416085520e-02,1.925192475318908691e-01
3.729002106885922485e-01,3.470397513590134375e-01,2.310089079813977264e-01,-2.783387771044294051e-02,1.836302556066238267e-02,4.226878143969234336e-02,1.607117205858230591e-01
3.577706067588189986e-01,3.320385088297652665e-01,2.694214768815761385e-01,-1.861977780172187607e-03,-1.753315292222920639e-03,1.370197229409360513e-02,8.232348412275314331e-02
3.561221624246445616e-01,3.336434733930409569e-01,2.929118371481800875e-01,-1.568660972796840150e-02,1.340463324818281197e-02,2.827792870818321425e-02,8.219572156667709351e-02
3.511333154782157462e-01,3.450921069439217836e-01,2.699701711629064471e-01,-8.771940294552841091e-03,2.296526123548814011e-02,1.578431161538132108e-02,9.324222803115844727e-02
4.266322384600075845e-01,2.628145251760696799e-01,2.681110281396483774e-01,2.669264673447183100e-02,4.621681826461960380e-02,1.577382024437091468e-01,3.304332494735717773e-01
3.887517080427580485e-01,3.560095649178371402e-01,1.553495929259464392e-01,-1.590172254220962103e-02,4.136665301095910491e-02,9.609578479107984406e-02,2.854853868484497070e-01
3.055598868868192874e-01,3.397559814102913411e-01,3.169133357105564652e-01,6.149981524622399887e-03,1.398191747364047229e-02,-4.743221035997320298e-03,4.095697030425071716e-02
3.140877413169969601e-01,3.395972629171673529e-01,3.006120100406229345e-01,8.941190650506791130e-04,2.835574464592521132e-03,-1.042070006085270284e-03,3.472561016678810120e-02
3.011434717631988334e-01,3.390711661913084485e-01,3.021005634741761314e-01,-4.291138828306874375e-03,1.430989689814501052e-02,4.665571764340008254e-03,4.623840004205703735e-02
2.770734189079780974e-01,3.500721834677129052e-01,3.325977144311421108e-01,5.922438077593504893e-03,8.359392733219790650e-03,-5.198720488760655636e-03,6.895292550325393677e-02
2.921466978907345524e-01,3.108752909415635202e-01,3.454499065950549785e-01,7.513932348400758840e-03,4.948249605661777508e-04,-1.968892304380468611e-03,4.873848333954811096e-02
2.849163548016950820e-01,3.249214632278734638e-01,3.496459849208921056e-01,9.668395851014033315e-03,4.590498917402885577e-03,-5.962747699172198665e-04,5.954440310597419739e-02
3.093616096339235066e-01,3.104899659162892456e-01,3.391911552744305558e-01,5.805082759044558581e-03,2.832003903175571262e-03,-2.720227241738243113e-03,3.169815987348556519e-02
3.063074546072519500e-01,3.084445520845321975e-01,3.409118328081958693e-01,1.134426161909647375e-03,1.190604008122212376e-04,-4.855490285798875301e-04,3.365542739629745483e-02
3.180001214834472512e-01,3.014612884409498261e-01,3.492290799136632540e-01,1.585620910478286252e-02,-5.659338331917727546e-04,1.077844640870245438e-03,5.023918300867080688e-02
3.150606147454792505e-01,2.889157177181082004e-01,3.441763428372482947e-01,8.081727292452179148e-03,-2.508179869562821625e-03,1.352224602347817635e-03,5.012793838977813721e-02
3.437503455319322332e-01,2.887422685708828096e-01,3.142468349239297964e-01,-4.603242009444762474e-04,-2.192959597995360228e-03,-9.021663567613160545e-03,5.032542720437049866e-02
3.471611242650089468e-01,2.811581010139673209e-01,3.322461688425532023e-01,-4.899437088987476652e-03,-6.920317741207849919e-03,-2.705501425283576497e-02,7.749857753515243530e-02
3.489001960160098559e-01,2.673708087684565915e-01,3.249976936548798490e-01,3.788578949076479535e-04,2.029677216539158262e-03,-1.383658640325093926e-02,7.652945071458816528e-02
3.466154696941247115e-01,2.722912846243304430e-01,3.249174706374757804e-01,-5.160196704143605977e-03,-5.003882813145286643e-03,-1.523159726243290130e-02,7.234089821577072144e-02
2.101036611962910639e-01,3.478892328889835461e-01,3.620095957289857780e-01,-4.560914336230526001e-02,1.030669419040245588e-02,6.389862116907289030e-03,1.667680591344833374e-01
2.692456328412298205e-01,3.306194449285821402e-01,3.541832406299166847e-01,-1.544032285482404773e-02,1.285955177614919601e-03,5.014034680311032013e-03,8.101722598075866699e-02
3.043982490069362945e-01,3.166090477375204659e-01,3.651874784955605469e-01,-5.431339523016575493e-02,2.639845074255106963e-02,4.532213512425414120e-02,1.421439647674560547e-01
2.108364530113648327e-01,2.545442952339915244e-01,4.062614932028830728e-01,-1.709738569918839435e-01,7.421483465435566376e-03,5.284340710832598730e-03,3.456948101520538330e-01
3.348277313486451856e-01,2.647231678048433956e-01,4.305356525403040147e-01,-1.664196216673299589e-01,1.729095565287314812e-02,7.547346335719889998e-02,3.490792810916900635e-01
4.042130332944913751e-01,1.889165663460026789e-01,4.124906976104477652e-01,-1.386745818227534677e-01,6.366711925001255438e-04,3.309473750572441975e-02,3.304272294044494629e-01
3.123614876431305420e-01,3.105489062808295953e-01,3.350865710989610058e-01,-2.973676506391747382e-02,1.075021198342158632e-02,1.483786610293154340e-02,6.496860086917877197e-02
2.502445480536353295e-01,2.567259270251228687e-01,4.182415920089150863e-01,-1.459468820322646354e-01,4.518666361220808475e-02,6.673746491706193662e-02,3.325128853321075439e-01
3.050717663075447339e-01,3.105715386269692901e-01,3.534934505218417788e-01,3.879224066517825836e-02,1.738656373034297778e-02,-1.050871622202799449e-02,8.866391330957412720e-02
2.135353439513502094e-01,3.276964602378243385e-01,3.655408391858172013e-01,1.248782409475643063e-01,7.545044384553488415e-02,-6.137297644338897407e-02,3.065081834793090820e-01
2.228434282097228047e-01,3.839355007441084822e-01,3.692032409522541525e-01,4.437356330119755256e-03,2.016456240046091142e-02,1.828957673339109708e-03,1.583773344755172729e-01
2.438678360183564875e-01,3.617167953405997505e-01,3.543447099849591497e-01,3.147855254093161192e-03,2.978976609091647278e-03,1.416682471875418785e-04,1.145877093076705933e-01
2.459377277917175475e-01,3.568120368902643058e-01,3.346808990813027740e-01,-9.254615760403684353e-04,2.765861502668026314e-02,-2.038751329576126477e-03,1.124240234494209290e-01
2.375419503832765789e-01,3.338158432028339728e-01,3.562546651302984646e-01,3.729351530949786414e-02,-2.943262080027875954e-02,1.213738525351602815e-02,1.383677721023559570e-01
2.544488081018606018e-01,3.467504218001781768e-01,3.534210848484523049e-01,1.161555131325685448e-02,7.149160750850621152e-03,-3.888300001504961870e-03,9.891030937433242798e-02
2.691421673543032411e-01,3.423248462369147260e-01,3.539101734124012744e-01,4.710038408523578406e-03,5.746542829116818921e-03,-4.141672540957412434e-03,8.096203953027725220e-02
2.805608233612286728e-01,3.529887713720974984e-01,3.480070076261289058e-01,-1.862609210900311590e-02,1.713403526606519303e-02,6.768012945445388978e-03,8.347900211811065674e-02
2.661625672115341401e-01,3.460048159026517522e-01,3.590435866347130855e-01,-2.857060106988442913e-02,5.051563703953473872e-02,2.340078581529999452e-02,1.390430033206939697e-01
2.855781758353133637e-01,3.345233032850290500e-01,3.392325022180003313e-01,-7.353657141129751537e-03,3.071123413308493155e-03,7.811539501832593865e-03,5.497162044048309326e-02
2.562295038004153147e-01,3.604046928781728942e-01,3.512232292130809119e-01,-7.154086105202655220e-03,1.010496651186734707e-02,2.292956081172455116e-03,1.022542715072631836e-01
2.580961266684104749e-01,3.471882292566258466e-01,3.486270728741378000e-01,-1.091148309644377618e-02,1.238089514610522454e-02,7.425520789071072061e-03,9.513211250305175781e-02
2.588577099890867483e-01,3.716840325732304606e-01,3.431514452121647296e-01,1.128740184506482613e-03,3.501403303355751784e-02,4.205169708871026035e-03,1.185726821422576904e-01
2.598092001153043951e-01,3.363511123144707904e-01,3.454959507320391476e-01,-4.507315182746664955e-02,2.470913637237557789e-02,2.167105446847242614e-02,1.264023333787918091e-01
3.640959963775900476e-01,2.952505473735994590e-01,3.564584257407202861e-01,-5.319591202418855885e-02,-3.464918625950134251e-02,-5.224152382447375120e-02,1.566871404647827148e-01
4.074043730383750672e-01,2.089762961676719932e-01,3.444673051518949425e-01,2.643514491312471543e-02,5.253281269400746079e-02,-1.437144811479779127e-01,3.212217092514038086e-01
3.867703028077155158e-01,1.536145496060582760e-01,3.632057478569674647e-01,3.500834369386903420e-03,-3.554530375959587219e-04,-7.461589380691587003e-02,2.572205662727355957e-01
3.520792804229156969e-01,2.650587956792828659e-01,3.290625067120735436e-01,-6.527269180578170078e-03,-1.694792880381591500e-03,-1.725710830035875193e-02,8.443495631217956543e-02
3.577002239112523907e-01,2.386469548218757841e-01,3.167526260325330689e-01,7.057951829522022928e-03,4.461587302291724136e-03,-5.568670687982524292e-02,1.431350111961364746e-01
4.496661928743022063e-01,1.759373622197184517e-01,3.759473403523921897e-01,3.173809774917052406e-02,-2.601630641497697932e-02,-8.510973244828755335e-02,2.949007153511047363e-01
3.666307345181554211e-01,2.720626340324263093e-01,3.309872797375792985e-01,-6.093130797661607326e-03,-4.837863109975751134e-03,-3.068708627937333927e-02,9.924481064081192017e-02
3.253856673580229342e-01,4.450718943808228412e-01,1.759219933446741491e-01,2.270371152311725926e-02,1.325623022783801452e-01,1.106998247074113956e-02,3.304318785667419434e-01
2.983985217703931658e-01,3.508711677720968147e-01,3.010712265159866119e-01,5.377133511494126003e-04,1.707454696434593938e-02,-2.100383973294400741e-03,5.923682078719139099e-02
3.064003978558439978e-01,3.613415309358211092e-01,2.571548653599569079e-01,-2.623882717712630250e-02,6.891515210358056809e-02,4.834583702357758694e-02,1.774106472730636597e-01
3.444851497254036721e-01,3.851782913964704735e-01,2.202652990794747856e-01,-4.442866725389026800e-02,1.190573132706943954e-01,5.099198346778373303e-02,2.799778580665588379e-01
3.814704976074235754e-01,3.993475008603680765e-01,2.621066506897937742e-01,-1.553209702670724571e-02,1.524114910839617087e-01,7.173416685792606551e-02,3.202344179153442383e-01
3.084590697221172295e-01,3.069168831600090908e-01,3.411574110051807107e-01,-1.262686076639705276e-03,3.782157612962395326e-04,2.899741011821242828e-04,3.357754275202751160e-02
3.086566868121224383e-01,3.090432748292661347e-01,3.390311616977659259e-01,-5.983693310321676340e-03,2.408820128187112285e-03,2.326019200719738056e-03,3.243559598922729492e-02
3.183766217529327425e-01,3.045633460011331062e-01,3.418414799442039409e-01,-1.185958075875136013e-02,6.207334466281080702e-03,5.189841511577452000e-03,4.103508219122886658e-02
3.054346372835040624e-01,3.204761386878653973e-01,3.420510316288959407e-01,-1.364175118331330261e-02,7.433388098615233142e-03,6.350309517818569435e-03,4.314253851771354675e-02
2.887778999419146064e-01,3.132845995701225572e-01,3.438771834624502755e-01,-8.179481083984125808e-03,1.386375235159402171e-03,2.204564279969806456e-03,5.007260665297508240e-02
2.872685630308297600e-01,3.145743647490141792e-01,3.441821113188215930e-01,-9.646651079158276298e-03,-7.825049538139869408e-04,-1.592327550518837049e-03,5.214696377515792847e-02
3.093864096570325128e-01,3.069012390254806655e-01,3.399738388733335448e-01,-1.371439090192539756e-03,4.928643743610011587e-04,1.546350824971931309e-04,3.200351446866989136e-02
3.144504103723244071e-01,3.128184169901035983e-01,3.280656259631272165e-01,-1.111808700024873942e-03,3.491514413851478944e-03,1.442756531499425100e-03,1.602443307638168335e-02
3.031775981536193876e-01,3.090748289163828266e-01,3.410022974717761834e-01,-4.668631222459826077e-03,2.792807914484010884e-04,8.995573510718652029e-04,3.620047122240066528e-02
3.412309825929372153e-01,2.682943471784186018e-01,3.462419653541256581e-01,4.987049964639386941e-03,-4.609846323387872813e-03,6.782637134260948060e-03,7.737392187118530273e-02
3.206057344314936497e-01,3.064187866809282013e-01,3.187416555913135663e-01,3.123687836198821982e-03,-5.789488764096711870e-03,3.616714490388691500e-03,1.863779500126838684e-02
3.314127513343080311e-01,2.762351730780323034e-01,3.541058623842578412e-01,1.823280249262917291e-02,-1.162388713351589394e-02,1.133227694444504698e-02,8.123794943094253540e-02
3.262775917852800411e-01,2.875102370236762850e-01,3.422797318608192252e-01,4.408126884222890278e-03,-5.128636623554495150e-03,3.744463649558584829e-03,5.058263987302780151e-02
3.822906058645473282e-01,2.422256466480790515e-01,3.404818725204084573e-01,4.678094218691361723e-03,-1.598922037906329655e-02,4.485323121630113014e-02,1.495937258005142212e-01
3.423678853143455880e-01,2.906643633123029424e-01,3.950788609077927060e-01,6.815720040631895182e-02,-1.983090649498753591e-02,3.196484764562516900e-02,1.623524129390716553e-01
3.266057098075004772e-01,2.970656686856949502e-01,3.303602915157963782e-01,3.170048275407170556e-03,-7.811322312926267247e-03,4.755608958338197571e-03,3.575845062732696533e-02
3.868294323208865682e-01,1.343495169209828755e-01,4.594355445501785429e-01,9.387788640491580294e-02,3.425112509826395979e-02,2.113500101070838258e-02,3.444531857967376709e-01
3.999292990721149965e-01,2.531596139450336125e-01,3.503003886140894085e-01,2.641777707328033659e-02,-2.219500410459875062e-02,6.257788288996415926e-02,1.789968609809875488e-01
3.188473496916568450e-01,3.180469902585549846e-01,3.185868045942136240e-01,-5.868200822015253674e-04,7.603509392558087881e-08,-4.755800069556844790e-04,1.487121917307376862e-03
3.188455483919246936e-01,3.189763278985576211e-01,3.176244708638580883e-01,7.582423093831100940e-08,-5.923613983704184831e-04,-4.697761302344096107e-04,1.839176518842577934e-03
3.174564005294900904e-01,3.179082312703330193e-01,3.174416625417453841e-01,-2.758888707046019094e-04,-1.129495014548003535e-03,-2.257471715632039023e-04,2.102268626913428307e-03
3.178532974291354285e-01,3.192173626728569968e-01,3.165269642601176159e-01,-1.841320761268396868e-03,-7.457038094224162578e-04,-9.352084625068946347e-04,4.460100084543228149e-03
3.164895397040766167e-01,3.189305337889598024e-01,3.177665149115406762e-01,-1.200217339939670981e-03,-5.670510795178394185e-04,-1.249364499109619506e-03,3.800127655267715454e-03
3.175400608658648927e-01,3.195941780193701787e-01,3.192351399468404960e-01,-2.134478519350659683e-03,-2.060077456551618561e-03,-1.416684004907742267e-03,6.002627313137054443e-03
3.149405743256130097e-01,3.281308554293956292e-01,3.102823919758836979e-01,1.679703635889495195e-03,5.751195847695173349e-04,-5.733852249425227653e-04,1.635749824345111847e-02
2.441826287851954491e-01,3.567147860805981452e-01,3.110813730358020779e-01,9.091268566136999699e-03,5.131451542432402535e-02,-5.010554457307038120e-03,1.335420459508895874e-01
3.114532081793217611e-01,3.312424370248551742e-01,3.082266613387147913e-01,4.168047148313058260e-03,3.796427930741605970e-03,-4.083238619987330890e-03,2.472347021102905273e-02
3.197921603914052335e-01,3.316506408496124880e-01,2.979831039107330160e-01,7.287021971711738280e-03,4.566027097134699869e-03,-6.003958425796558813e-03,3.471125289797782898e-02
3.202044857155458835e-01,3.277023739240023104e-01,3.039204058898856142e-01,6.255341946688613985e-03,3.236299727109754124e-03,-2.538800052887179356e-03,2.473117783665657043e-02
3.237768328041729093e-01,3.200319027165516861e-01,3.057544967032021499e-01,6.370424112427395050e-03,2.590890462256358832e-03,-4.424623734610208525e-03,2.172449417412281036e-02
3.354463424113057202e-01,3.089405236834938950e-01,2.911724899156666324e-01,1.495240719575789690e-02,1.598718225355613004e-02,-2.603694863401492463e-02,7.043066620826721191e-02
3.121690532829793918e-01,3.306035421870170965e-01,3.119036999652876063e-01,4.082019200479665953e-03,5.678918561975999403e-03,-4.068567426718020658e-03,2.326351590454578400e-02
2.799778995542424043e-01,3.255571193045078693e-01,3.491721674044335200e-01,6.501651318887523810e-03,-3.037717215629387717e-03,2.637898018121009967e-03,6.234472244977951050e-02
2.392555142974300275e-01,3.517446593402355215e-01,3.790133494102239098e-01,6.521794073118221402e-02,-2.384931774958124265e-02,7.194302500915067747e-03,1.763139367103576660e-01
2.668296818758997824e-01,3.314344324192009528e-01,3.650530924331822913e-01,2.511633814812387275e-02,-1.055648909062620495e-03,1.143841896036887525e-03,9.682805836200714111e-02
3.321224974753640979e-01,2.798159724076771382e-01,3.481325751015361125e-01,2.723677389216951766e-02,2.961660796351348220e-03,-3.969320635156082383e-03,7.828686386346817017e-02
2.688513488792059758e-01,3.416213299520791669e-01,3.252848541866354970e-01,2.325260028434265880e-02,-3.843491957970414374e-02,1.775046070692713404e-02,1.066422089934349060e-01
2.900936930022777194e-01,3.293555428639450833e-01,3.303466382855387296e-01,1.510938978287603221e-02,-1.416852544875044084e-02,8.278176992509446094e-03,5.544451624155044556e-02
3.067940313155670395e-01,3.380702234636012715e-01,3.025933730417375567e-01,9.250057661700962150e-03,-1.132120546986779656e-02,8.481014925552523773e-03,4.454446211457252502e-02
4.269065876181339370e-01,2.644612362658332883e-01,2.699610893820722501e-01,1.026353187441781667e-01,-8.321097295011824213e-02,1.323167078544328912e-01,3.611407876014709473e-01
3.979894993369169631e-01,1.764267338399966301e-01,3.088971081852733280e-01,-6.325710271222046571e-03,9.236844019376275888e-03,1.295537891587248691e-01,2.966757714748382568e-01
2.800508364970963338e-01,3.843284227494410121e-01,3.040833756581395320e-01,-8.202731193500267456e-03,-7.796129169400936587e-02,9.606116344064406787e-03,1.663066446781158447e-01
2.266517446910928102e-01,3.967228060534042089e-01,2.653930849119366386e-01,1.616490470808691973e-02,-1.531646269938294336e-01,7.184721501736038816e-03,3.084692060947418213e-01
3.790778274652921165e-01,3.749104947622524664e-01,2.421172685912837408e-01,1.475695787069283491e-02,-2.566821388372807211e-02,3.277463558481023137e-02,1.551038622856140137e-01
2.396466140924820298e-01,3.701691355270453898e-01,2.744653400374797436e-01,6.140669797206148306e-02,-1.259261135761693684e-01,5.085733901583949085e-02,2.834568023681640625e-01
2.546249794748522421e-01,3.858104558146852603e-01,3.673928502768526450e-01,-2.234702309603720308e-02,-4.434090584342195718e-02,-6.989952351676349297e-03,1.505848914384841919e-01
2.581577489772495237e-01,3.583767248194930088e-01,3.859787509507762726e-01,6.123943358379450863e-02,1.319074494379306704e-02,-7.280892767925515457e-03,1.596990525722503662e-01
2.530696481282555532e-01,3.566609018680336751e-01,3.515669697603497346e-01,7.774710306302854822e-04,5.844346972839700553e-03,-2.854093800240814841e-03,1.017748937010765076e-01
2.266787881751127776e-01,3.542284542018924176e-01,3.368189942369159695e-01,2.152617095540083555e-02,4.305505889288390592e-02,-1.200075879419394351e-02,1.474273800849914551e-01
2.634220749237645154e-01,3.249205915689361568e-01,3.576738964908832696e-01,4.271618897016757344e-02,3.055869782407717727e-02,-2.195905523683676711e-02,1.288070082664489746e-01
1.843340047976038121e-01,3.208179316924396063e-01,3.612919887044002687e-01,1.105757063290701836e-01,6.954617988796304995e-02,-4.192215231369057077e-02,2.867986261844635010e-01
1.150320865629585465e-01,4.056921461616449509e-01,4.437617336170190940e-01,2.997334538324134684e-02,6.375028353338868525e-02,2.927258226905461724e-02,3.383134901523590088e-01
1.889323821010858162e-01,4.316005530683342251e-01,3.648995969153550067e-01,1.108307161855898310e-01,6.589910545508079198e-02,-3.888493081328622120e-02,3.186929523944854736e-01
3.626705147965851306e-01,3.445361933052990544e-01,2.293992452320132158e-01,-3.370489912792031147e-03,1.758535796680596366e-03,-3.981828400837123666e-02,1.430844068527221680e-01
3.929336081279010129e-01,3.788837288640773404e-01,2.451762774306907589e-01,1.235101924686997019e-02,3.758007900257636508e-02,-5.603606349328766473e-02,1.845757514238357544e-01
3.565744381704109012e-01,3.422781125832849436e-01,2.631297557465934189e-01,-2.729444246586599804e-03,-2.106008727823549618e-03,-6.504792368549078101e-03,8.810772001743316650e-02
3.490710527509465755e-01,3.357977187298648580e-01,2.751393009086596231e-01,3.023625762878643340e-03,1.765380716516453362e-03,-1.094504571937857974e-02,7.111204415559768677e-02
3.483843635778667847e-01,3.294616096232371172e-01,2.718528032152113250e-01,-5.562440966074616230e-03,-2.065142146121392609e-03,-1.284046030319471211e-02,7.326125353574752808e-02
3.126374383624763165e-01,3.312880811571771167e-01,3.111539600807677330e-01,-2.425987051011495917e-03,-8.613085634792057603e-04,-7.690290198490949821e-04,1.998426951467990875e-02
3.153971713031483159e-01,3.285599618072573280e-01,3.121088130824738460e-01,-1.110979812463957659e-03,-1.092072737125695039e-03,-8.241203450686950980e-04,1.538423076272010803e-02
3.131725164780148618e-01,3.285339618815370510e-01,3.155631714580769964e-01,-1.064681858839199675e-03,-3.524275505342430769e-04,-2.250037962515736688e-03,1.496417727321386337e-02
2.925932021204814548e-01,3.397856908655921826e-01,3.178489375075354006e-01,-2.066569080105172367e-03,-7.660399815003715585e-03,-2.715029509301784220e-03,4.340591654181480408e-02
3.131676767058673705e-01,3.241442448747803295e-01,3.124135370572662107e-01,-4.079250239057887611e-03,-2.455142919286080853e-03,-1.732852134532513605e-03,1.436467841267585754e-02
3.077985094918778142e-01,3.312181665595397284e-01,3.111309089883356194e-01,-1.749969810190933964e-03,-3.561700581242402408e-03,-2.254764286564537971e-03,2.332461811602115631e-02
3.043885577119800345e-01,3.280152666170538800e-01,3.222228698644684641e-01,-2.394632086145888437e-03,-6.561071109637934065e-03,-6.800188653268490931e-03,2.720278315246105194e-02
3.036381151579187199e-01,3.082451399742307530e-01,3.385292438764258005e-01,3.632803836037076795e-03,8.824477513491936530e-04,-1.948110369766465136e-03,3.363308683037757874e-02
3.018869204863283695e-01,3.147863360630908658e-01,3.390336004962555272e-01,2.123443650235631863e-03,1.444923681110604633e-03,-2.997716592929169834e-03,3.337438777089118958e-02
3.336054132858983778e-01,2.038298999406819023e-01,3.789912455169983097e-01,1.037117988275952779e-01,-3.967920053343559905e-02,4.702612822031082551e-02,2.615676224231719971e-01
3.084627612576675837e-01,3.130514666579190530e-01,3.314298633950916728e-01,2.710585458388050772e-03,2.445283913361127968e-03,-4.367829737344816436e-03,2.324583008885383606e-02
3.214327017218785998e-01,3.143719948571954137e-01,3.217325310601186206e-01,6.855442481637122332e-03,5.650005925430352620e-03,-7.715940536762380328e-03,2.162005193531513214e-02
3.071729359640536505e-01,3.090355377538389625e-01,3.386305125060032895e-01,7.414629149404009184e-04,7.008717060347425436e-04,-1.312454966898291692e-03,3.070417046546936035e-02
3.144929208730227743e-01,3.054878662403325840e-01,3.413416178723914229e-01,1.245536148648539523e-02,2.616177813859602453e-03,-6.302283148095051517e-03,4.060560464859008789e-02
2.754329310695156074e-01,3.316039859364407483e-01,3.536770980008138165e-01,1.275536551986559269e-02,6.008871541555796565e-03,-3.132162602998658351e-03,7.421676814556121826e-02
3.137591111179824921e-01,2.895407757685657946e-01,3.463537520655459723e-01,2.188240450457717978e-02,1.456835675339347019e-02,-1.967498588199818182e-02,7.531847059726715088e-02
3.161402161452652737e-01,2.906627370256228970e-01,3.438588822493761632e-01,7.114718693731290206e-03,2.063005096453679812e-03,-1.394939976231305417e-03,4.789667204022407532e-02
3.154497016992837688e-01,2.920781045527826025e-01,3.386498428903664815e-01,7.133485295104519119e-03,3.764952861836881604e-03,-2.910207018630195635e-03,4.298016801476478577e-02
2.852973237734423018e-01,3.169765683154119884e-01,3.491571392344077207e-01,8.750080363551369922e-03,-1.675256152972089390e-03,4.573165671621647749e-03,5.796095728874206543e-02
3.155258558319094520e-01,2.907446497776123850e-01,3.425736447294229214e-01,7.706133282923065611e-03,-5.311491499053578626e-03,2.758832047137985046e-03,4.797489568591117859e-02
2.783111294202902375e-01,3.293663280079116573e-01,3.585428723636889803e-01,2.203864252405017890e-02,-2.004962728756792822e-02,7.205231381838471741e-03,8.812679350376129150e-02
3.331013617637493818e-01,2.770713090686662272e-01,3.425456506156167591e-01,8.822760831476672908e-03,-6.264707958262328430e-03,4.370673784726986782e-03,6.454686075448989868e-02
3.878370963641804559e-01,2.256850937076220753e-01,3.950736927980092461e-01,2.748554670893856022e-02,-1.830708715579275423e-03,-1.090779283999691385e-04,1.726137995719909668e-01
3.128352731606411918e-01,3.323086521159062667e-01,3.089161259255436276e-01,-3.313548158712979752e-03,-1.912363870503217510e-03,-1.031803148054534535e-03,2.275951020419597626e-02
3.977122679448800158e-01,1.457033640408439135e-01,4.429076857543573498e-01,3.538217548830442649e-02,-9.296674800380362244e-03,-6.692709502389916632e-02,3.072351813316345215e-01
3.219005350593621140e-01,3.319121216848546219e-01,3.098469363340028426e-01,-7.013977169952546192e-03,-8.625161262633259870e-03,-7.670214735570843670e-03,3.022352047264575958e-02
3.132412442792980034e-01,3.327552720303788014e-01,3.124711339902251916e-01,-3.110571233205512102e-03,-3.749016120732929711e-03,-3.432170446878346839e-03,2.242654748260974884e-02
2.185844442094461715e-01,1.900674355292679696e-01,4.051469759441495011e-01,1.786244481199548984e-01,-7.762187607380517662e-03,-5.478051745864878815e-03,3.700403571128845215e-01
3.268970848765481718e-01,2.957448480549688119e-01,3.309295227033812736e-01,3.604009588655867138e-03,7.814812051279563035e-03,-4.912838956676145521e-03,3.750906884670257568e-02
3.407810397184032336e-01,3.073171127567534966e-01,3.080214333108358127e-01,5.321766168951537024e-05,2.474873699406616111e-04,-6.819971197521885759e-04,3.314134478569030762e-02
3.416774088395315712e-01,2.596122244325371753e-01,3.576918677354250509e-01,5.335261103276141975e-03,-1.420949358586351711e-03,3.008680506778002497e-03,9.178233146667480469e-02
3.533685731033934241e-01,2.505843768214096601e-01,3.532326667737289427e-01,8.591825840251457805e-03,3.283311241253416245e-03,-2.612880584200132864e-03,1.040428802371025085e-01
3.599423308330645388e-01,3.045803161541087989e-01,3.295040652317843266e-01,5.367848960038637540e-02,3.834013874390624493e-02,-6.441164416750341792e-02,1.667541116476058960e-01
3.276260503994203321e-01,2.869475850280246432e-01,3.488624204584434563e-01,5.551795046705769454e-03,8.337300806405275417e-04,-6.643545645757344999e-04,5.536660179495811462e-02
2.656378024854993414e-01,3.306526456606607156e-01,3.513153819802709577e-01,2.451707360445717215e-02,4.073113458328278709e-03,2.052910533770673732e-03,8.867321163415908813e-02
2.563330678177332955e-01,3.509444441875546605e-01,4.040635149634620449e-01,6.446278961416795905e-02,-2.173754902046545496e-03,1.531642518288479568e-03,1.711320579051971436e-01
2.649433149377484753e-01,3.599699353392060153e-01,3.913803910925538476e-01,5.883078041972890360e-02,2.290155816286899154e-02,-1.138024039712165481e-02,1.592063456773757935e-01
2.415217694128688475e-01,3.496163398033636516e-01,3.848009815565334724e-01,4.087483321093256933e-02,3.310634199796744226e-02,-1.623979050798148895e-03,1.582211107015609741e-01
1.914684586112210263e-01,4.206878436118937636e-01,4.658387554015624987e-01,1.381059864545148563e-01,-5.736412216351456650e-02,2.798392828983882127e-02,3.665659725666046143e-01
1.656944461020374848e-01,3.400906562148772183e-01,4.563003929518367197e-01,1.058465515242381916e-01,5.993301124324669493e-02,-3.688166813166792683e-03,3.295640349388122559e-01
3.254000911916525851e-01,2.443353960773889388e-01,3.790943134279468607e-01,5.821398157514431210e-02,-9.445421991374873538e-03,-1.273606526634587024e-02,1.572518199682235718e-01
1.984036758353790175e-01,3.565150275386101963e-01,4.256429885705242944e-01,1.496442840798633822e-01,-4.728719754714681700e-02,-1.898413960809740980e-02,3.401138782501220703e-01
3.196913123588808192e-01,3.179057082082298868e-01,3.170314124780687082e-01,-1.211578943596231580e-03,2.712198403018092072e-04,4.078446913770992686e-04,3.261500271037220955e-03
3.169357836317481247e-01,3.149021738842000540e-01,3.216560176981500541e-01,-8.844531114015109514e-04,2.289964708179144035e-03,1.054064323026039683e-03,7.578062824904918671e-03
3.449945053861351307e-01,3.078123408401254868e-01,2.948966283621851647e-01,-9.019482833988769210e-03,5.833054189026747223e-03,2.139508475790458109e-02,6.122857704758644104e-02
3.137122924356793852e-01,3.149080279306016306e-01,3.254909926499851558e-01,-1.194469454046747986e-03,1.507153019901489319e-03,3.428542140428821050e-03,1.313174981623888016e-02
3.437509312348600021e-01,2.728583932280180258e-01,3.318933211703891661e-01,-7.358726457292996334e-03,8.325564359658810254e-03,1.135811688919585727e-02,7.129625976085662842e-02
3.198978845133345073e-01,3.153665760852716327e-01,3.176261637269649496e-01,-7.293268521368205005e-04,2.309913326132451150e-03,1.444299252691980204e-03,6.265816278755664825e-03
3.172365709074942974e-01,3.171162510791967759e-01,3.197410196191640686e-01,-1.190698387965423693e-03,1.666773473808915145e-03,2.219361253973693628e-03,5.826873704791069031e-03
3.416721783731087037e-01,2.884910843623608723e-01,3.334599676314840000e-01,7.390327242838012206e-03,-6.295885832760645361e-03,1.041952639827471890e-02,5.538411065936088562e-02
3.436630778549745191e-01,2.905432591076347326e-01,3.167822020657713455e-01,1.436671056555624158e-03,-2.546206466116151829e-03,7.556819131309910204e-03,4.809727147221565247e-02
3.271297220671589567e-01,2.888862427870992899e-01,3.489240803128650370e-01,-5.761694040569567167e-03,1.856658486181136762e-03,3.380183048638765037e-03,5.399314314126968384e-02
3.354372081754293800e-01,3.120416240408891428e-01,3.111312191964205609e-01,-1.293119200088367442e-02,1.326799841376770719e-02,2.978035856834150563e-02,6.526758521795272827e-02
3.574709954245940402e-01,2.490095212475679776e-01,3.479227890971354209e-01,-2.935568979710550044e-03,3.854389263429830632e-03,1.063110128384159997e-02,1.059666424989700317e-01
3.485326845753636826e-01,2.857153944921385635e-01,3.250566940187802345e-01,3.151606007737239390e-04,-9.868162981647888177e-04,5.917612635501167360e-03,5.595274642109870911e-02
3.426508383515285971e-01,2.921703282406824531e-01,3.272149133202102433e-01,5.147230540589972127e-03,-3.746352223286487926e-03,8.487043980545413632e-03,4.842533916234970093e-02
3.378609350591590399e-01,2.944050367220200082e-01,3.264111542678770905e-01,2.284972286937701162e-03,-6.376901671858684929e-03,4.957614550128617084e-03,4.163344576954841614e-02
3.598509200010812648e-01,3.064629914488128382e-01,2.905283624470215154e-01,2.535043111580784388e-03,-1.013402511043689017e-02,2.664564185901127646e-02,8.007650077342987061e-02
3.486855056715634227e-01,2.704406478930873048e-01,3.322135271757166164e-01,3.044973090185826227e-04,-3.407981582264883909e-03,1.397381425062835768e-02,7.566808909177780151e-02
3.353058248418267495e-01,3.273526735504693752e-01,3.598999140394928964e-01,7.134727904102321216e-02,-4.630571916564728274e-02,5.100776644842706931e-02,1.742786914110183716e-01
3.674294810278694867e-01,2.723293290073501849e-01,3.719205099929329128e-01,4.675733759013411817e-02,-2.374246129676510497e-02,5.652078152402102706e-02,1.653026342391967773e-01
3.485674367596969248e-01,2.760272234072069786e-01,3.291201263693777079e-01,1.811484916923567293e-02,-9.806894130545813770e-03,1.882874907122176339e-02,8.103149384260177612e-02
3.231358663259741304e-01,3.090172530341486201e-01,3.237010308935480696e-01,8.746263275424567482e-03,-1.085580045991274556e-02,8.463426236014051640e-03,3.171055391430854797e-02
3.437805457466984183e-01,2.765506822210621052e-01,3.508041843881361532e-01,2.403811753375108620e-02,-9.499897707015427309e-03,1.595112507074278319e-02,8.836819231510162354e-02
3.223900926390187993e-01,3.308389820595878383e-01,3.094740703996320952e-01,7.122847146310591106e-03,-8.449164222791174725e-03,8.282536833071299509e-03,3.032333403825759888e-02
2.861710283064123894e-01,3.123739487226191991e-01,3.544923406794298071e-01,-2.520541839948604521e-02,-8.758362945928774984e-03,-8.699739597729504517e-03,7.698895782232284546e-02
2.880671261408813688e-01,2.391735262098524384e-01,3.531252506056605234e-01,1.216818344673829405e-01,-7.674635223709060095e-02,7.367538530437567346e-02,2.969472408294677734e-01
3.867487389210468862e-01,2.284412108545514353e-01,2.461623325895859193e-01,6.172339654437955514e-02,-5.611446452225200138e-02,1.600436466214875952e-01,3.468251228332519531e-01
2.596361841840840734e-01,3.517834628866945423e-01,3.476533013912387893e-01,-7.008069427502231115e-03,7.650743557643722645e-03,4.338677195135205722e-03,9.223344922065734863e-02
2.691634588019757857e-01,3.328962961496566009e-01,3.489107527884098836e-01,-1.432356079936655639e-02,1.936695750530773377e-03,4.165573966984304800e-03,7.757438719272613525e-02
2.726995482380368818e-01,3.278547818533977809e-01,3.496912367475590311e-01,-1.236189661062890403e-02,-2.885034302105923907e-03,-4.317697551076423758e-03,7.254427671432495117e-02
2.714626260864281271e-01,3.447577340517883338e-01,3.586817814223636214e-01,-1.428445650901591889e-02,-1.541593837073213001e-03,-1.634497639800018467e-03,8.493466675281524658e-02
2.299366000935659515e-01,3.491563636319027775e-01,3.606371749091715762e-01,-2.578801167306353503e-02,-4.238514190745197065e-03,3.317759357955576190e-03,1.334012150764465332e-01
2.762246468713712710e-01,3.336289380382683745e-01,3.485778276800595710e-01,-1.132330060023759716e-02,5.567303330721146658e-03,3.803168360325178549e-03,6.998486071825027466e-02
2.745833519074121210e-01,3.352237505904383519e-01,3.497720904452893964e-01,-3.570139600451461420e-02,1.872107704735787720e-02,2.267326374615776310e-02,1.057760119438171387e-01
2.454796634402942601e-01,3.438889503588942742e-01,3.440910516641559891e-01,-2.026781493886881808e-02,2.224268914938894171e-02,6.955974848427175922e-03,1.120983436703681946e-01
1.233889287490353426e-01,3.573118944503929084e-01,3.897462756493443869e-01,-1.020299599834205984e-01,9.003933302457042473e-03,-4.379018780415262942e-04,3.079500198364257812e-01
2.054079820740428441e-01,3.926959565271950781e-01,3.886452186809805087e-01,-1.395946518467265918e-01,3.718656069925491831e-02,6.736155606271786167e-02,3.324993252754211426e-01
2.334470640885439041e-01,3.822231780213200536e-01,3.613564860289025793e-01,-1.974924499215201593e-02,5.056329620154494109e-02,6.152030435090437809e-03,1.685789674520492554e-01
1.945975469452211337e-01,4.278125911808158266e-01,3.758086230958724849e-01,-9.491228942379090205e-02,-6.451676849610801789e-02,-1.172616710268074153e-02,2.913594543933868408e-01
2.639257975603309658e-01,3.379972412346392563e-01,3.466790756232565052e-01,3.500130101664582216e-02,-1.652881795987714078e-02,1.368467898091925428e-02,1.061212494969367981e-01
2.341899185941073436e-01,3.461772313447517568e-01,3.564075265789745650e-01,2.761548877979865327e-02,-4.947183587133273386e-03,-1.507965354779222059e-03,1.271203011274337769e-01
2.693975357727163567e-01,3.310355819371647579e-01,3.552119802244018132e-01,1.383840485921935398e-02,-1.768111923532615128e-03,2.111460865280127396e-03,8.044371008872985840e-02
2.765890502269515161e-01,3.301948791484666801e-01,3.468134759204422601e-01,1.086244666100707676e-02,-6.019111107719110274e-03,4.868848747232931186e-03,6.763431429862976074e-02
2.899542356298654977e-01,3.289965502793045782e-01,3.326714981261723048e-01,1.591268287328672856e-02,-1.341995074532783237e-02,8.981333640160495124e-03,5.677327513694763184e-02
2.869188902957464093e-01,3.259920850284949712e-01,3.418609072739725585e-01,3.839423701562923869e-03,-3.234075155498180622e-03,4.981488461386098660e-03,5.048392340540885925e-02
2.844226976916985339e-01,3.287680087065253942e-01,3.472707757354437930e-01,2.246574418880028720e-02,-1.090809861463095005e-02,5.049130605589930397e-03,7.125265151262283325e-02
2.857800356006939824e-01,3.486256798960176151e-01,3.154865811919659313e-01,-1.826973979171745170e-03,-1.063019027734776571e-02,-6.121822277028415686e-03,5.853693932294845581e-02
2.877474577230903496e-01,3.426678221380523581e-01,3.266228623677240872e-01,3.253820044343729793e-03,-4.268755065765954260e-03,6.260564857767153893e-03,5.095591396093368530e-02
3.097054202296874448e-01,3.381732256499654365e-01,3.049716642803483868e-01,-2.976844054108169525e-03,-3.260951532903024874e-03,-2.039969106139458751e-03,3.222661465406417847e-02
3.121031152066572889e-01,2.919341716170122947e-01,3.404112100635780513e-01,-8.845932641237515270e-03,4.185712470242730458e-03,2.820279307120167160e-03,4.571928456425666809e-02
3.127409864170822007e-01,3.437053536167881118e-01,2.883528762204161655e-01,1.740586402435648737e-03,-9.221522186127406248e-03,1.129657985738462267e-03,5.076180770993232727e-02
2.856552771227173770e-01,3.518629151786552001e-01,3.364598513944213054e-01,6.870384465964333304e-03,-2.327367838084442794e-02,1.172552999267488299e-03,7.329139858484268188e-02
3.034377697942063912e-01,3.411410593622924425e-01,3.082987427219451293e-01,7.894425258470602396e-04,-4.605930974381879268e-03,1.330581469084914743e-03,3.650639951229095459e-02
3.043721878357850685e-01,3.392928801672829842e-01,3.112613376035526791e-01,1.674690260131084804e-03,-3.657358316355255670e-03,3.545895127751068267e-03,3.335571661591529846e-02
3.116286704910414262e-01,3.410819080705358441e-01,2.888794239879969861e-01,3.276145996316583327e-03,-9.399099138283182817e-03,1.411246510772019630e-03,4.856196045875549316e-02
3.315083636628432529e-01,2.723508703362065853e-01,3.473919609652134088e-01,1.307658623540390586e-02,-1.031179775003252018e-03,2.887501412021700395e-03,7.233758270740509033e-02
3.259007950312706181e-01,2.873909814430897769e-01,3.477655013092329495e-01,6.214592262452289621e-03,-1.617139186662789902e-03,2.376351551817209619e-03,5.425612255930900574e-02
3.022770603121291977e-01,2.830122423856869518e-01,3.991875854417232805e-01,9.275729319001442541e-02,-3.359080445967479490e-03,-5.612399002574435143e-03,1.938294172286987305e-01
3.340359404585826475e-01,2.814016905984875749e-01,3.579184686733706822e-01,6.427971309555166601e-02,-1.059508491038100436e-02,3.180317947865665684e-02,1.427042931318283081e-01
2.504929640577816530e-01,2.889354073174560944e-01,3.608758773530497677e-01,7.256526432503697388e-02,1.063034886608910795e-02,-7.102708330834437214e-03,1.603319346904754639e-01
3.167663256514217096e-01,2.890027439202079163e-01,3.437838919429343498e-01,6.724674489458434649e-03,-1.506035600076973324e-03,3.911052018677131279e-04,4.892644286155700684e-02
3.163913787088150076e-01,2.897872821671376165e-01,3.486681290284686097e-01,6.427001370484876179e-03,1.271814316327342593e-03,1.650097371470376703e-04,5.231742933392524719e-02
2.872660737773018447e-01,3.148349022592640267e-01,3.476939171368934600e-01,8.020640957587843109e-03,2.038492850565417399e-03,-8.207187060889375475e-04,5.434260517358779907e-02
3.408471309430540219e-01,2.980644880661270646e-01,3.342320444074970420e-01,1.984303131767581330e-02,1.810760487444764907e-02,-2.499847595574073572e-02,7.503844797611236572e-02
3.335280886789334653e-01,2.813528561722162813e-01,3.573582624138001984e-01,2.621639330115116753e-02,5.718908893688970894e-03,-6.635692791436646580e-03,8.261712640523910522e-02
3.719186237031194553e-01,2.418780155853680891e-01,3.405564925388629427e-01,-4.162276451737162430e-02,-1.662900798956564938e-02,-4.291932175564650009e-02,1.592762768268585205e-01
3.249910525085319413e-01,2.796733428999156890e-01,3.470913058389468175e-01,-2.572154595384766249e-02,-6.074000760356911520e-03,-5.493124024228743414e-03,7.569442689418792725e-02
3.086204693544058464e-01,3.097958613756012225e-01,3.683075744848602340e-01,-7.466893503617870465e-02,-4.324257087324336057e-02,-4.392988836594474006e-02,1.778184175491333008e-01
3.298640868214956501e-01,2.754073901448377271e-01,3.413183233426398955e-01,-2.342549873511014930e-02,-6.236273847603759392e-03,-1.036315242063404717e-02,7.619456201791763306e-02
3.309569542629750005e-01,2.421453152286139332e-01,3.653976578743566850e-01,-7.411949702228007308e-02,-2.030330900457442880e-03,1.458009511875588485e-02,1.710660904645919800e-01
3.325893872710655730e-01,2.765919519283706052e-01,3.447984481974513127e-01,-1.148275932238703584e-02,-6.563911007080339317e-03,-7.391262847359008487e-03,6.824337691068649292e-02
2.254654876831932719e-01,2.827188297778839843e-01,4.445776529286034062e-01,-1.319294744749965331e-01,-3.064659308776430599e-02,-6.648047742833761153e-02,3.271634876728057861e-01
3.407346731707109888e-01,2.783424681185897032e-01,3.331489721698823181e-01,-6.486898976118155545e-03,-9.154572223672824763e-03,-1.347158244119728288e-02,6.632608920335769653e-02
3.565420332879261633e-01,3.327875797010297343e-01,2.819908102003783057e-01,-6.411682266165882882e-03,-1.120459371617870716e-02,-2.412972122862647173e-02,8.122760057449340820e-02
3.240628506326252434e-01,3.631709703698068892e-01,2.779126354384459652e-01,-9.068804322908800147e-03,-7.684467819040503855e-02,-1.604748246019598382e-02,1.555594503879547119e-01
3.276874458792150002e-01,3.631047692891392620e-01,2.880814653802851177e-01,1.344049306433631012e-02,-4.434588733969622304e-02,1.639864521390648269e-02,1.071173101663589478e-01
3.552734128842049977e-01,4.023228931375510964e-01,1.492772152135440344e-01,-4.290669878162589948e-03,-1.001583672268058778e-01,7.442063164542310830e-03,2.909580469131469727e-01
3.710780686854530663e-01,3.484181721351751748e-01,2.684040976667927958e-01,-2.670194067577439517e-02,-4.419566337305267517e-02,-5.349930850072683042e-02,1.591040939092636108e-01
3.441443738033132527e-01,3.576879408107567215e-01,2.230051263280518614e-01,-4.847482049822058117e-03,-3.022875305036378663e-02,-6.928143486517302461e-03,1.394798457622528076e-01
3.291932209800371156e-01,2.699473307977764969e-01,3.481539269968531580e-01,-1.209200008435205170e-02,-3.316938728324781305e-03,-1.532426080237686214e-03,7.397045940160751343e-02
3.560487536555623223e-01,3.438478020499043941e-01,2.447678647963285603e-01,-1.664286122332736886e-03,-2.049241400684461128e-03,-1.437481934107552074e-02,1.086985766887664795e-01
3.903506705860310677e-01,2.268961539618561396e-01,3.748108490702808937e-01,-5.601304159865883037e-02,1.693644489725775262e-02,6.187655002210488975e-02,2.148903161287307739e-01
3.568311751580837687e-01,2.560026074301403054e-01,3.482335670023851693e-01,-6.927931387710349088e-03,1.201571644049806127e-03,1.003269500422467389e-02,9.911467880010604858e-02
3.086765999637020585e-01,1.941820591021247433e-01,3.940137352724409903e-01,-1.325269644731298380e-01,2.419473702046436719e-02,4.227397832610182288e-02,2.999494671821594238e-01
3.650974959295827382e-01,2.413419425193476797e-01,3.643494236153735910e-01,-2.016191101596756746e-04,4.512426438698240215e-04,3.193008844288969684e-03,1.235100701451301575e-01
3.635329948301236902e-01,1.978170751078193734e-01,3.633793998365659750e-01,2.868213109049043766e-03,-6.391206137482193135e-04,-5.541337426287607122e-03,1.659950613975524902e-01
3.458284130104256060e-01,2.001310527219281044e-01,3.801313734930213406e-01,-8.342443227326445943e-02,5.662304162807576396e-03,-9.102712040097294191e-03,2.205128967761993408e-01
3.559839530159999987e-01,2.464165943186536756e-01,3.615056408598597004e-01,-5.681652173939425073e-04,6.146219214672640416e-03,7.887226146090685341e-03,1.137603297829627991e-01
3.647639663034434876e-01,2.466538254130568042e-01,3.555844351814938520e-01,2.510862364664515588e-03,4.895119070753081204e-03,4.839483379173652004e-03,1.145038679242134094e-01
3.331519265933955420e-01,2.793147054568096421e-01,3.619250834445383869e-01,2.727190936226150594e-02,2.022734814073448887e-04,-7.261278949575845172e-04,8.665093034505844116e-02
3.989409266569641233e-01,1.862623725177182110e-01,3.901705098247993386e-01,5.321833860336815450e-03,-6.799387199247173066e-03,-2.963659813577688724e-03,2.090306580066680908e-01
3.336463736492211174e-01,2.850349505860537147e-01,3.662070355098518415e-01,-2.651012950593661238e-02,-3.924727850448455290e-04,2.269298901351438687e-03,8.444145321846008301e-02
3.908812191155775495e-01,3.586488639063680761e-01,2.113870177986526544e-01,-2.896974146540383203e-03,-4.483204846676190711e-04,-1.863547731532507259e-02,1.689354777336120605e-01
3.146282711047168057e-01,3.030921344906531423e-01,3.410980650812407977e-01,-1.362051154140166143e-02,3.465707176214729169e-03,5.555295662482931385e-03,4.271140322089195251e-02
3.416856340196616770e-01,3.519543853538025791e-01,2.683102065309060924e-01,1.057853556953268969e-03,-3.573346892852983635e-03,2.700494490662795882e-03,7.941294461488723755e-02
3.595658959288067780e-01,3.554144647021321712e-01,2.406763463826406269e-01,1.214128806378033222e-03,-2.316510327787819814e-03,-1.512963788203748345e-03,1.169862598180770874e-01
3.604417599148960760e-01,2.439522599445439477e-01,3.548112900872202879e-01,3.277967434519676220e-04,7.208301530724397013e-04,-2.857377850046374790e-03,1.138946413993835449e-01
3.538714749585141206e-01,2.475703566443550052e-01,3.602919732451563828e-01,1.000571675953133843e-02,9.784598246124311723e-04,-3.047354141277292330e-03,1.111518368124961853e-01
3.434616787619166889e-01,2.392086984325101084e-01,3.561296959764203574e-01,2.065567389519217673e-02,-5.403734103907662303e-03,1.111364380479542939e-02,1.186926811933517456e-01
3.256372561513329877e-01,2.900777742953059013e-01,3.485550049053607879e-01,-5.369678144444676830e-03,-3.226336117489125421e-03,-3.092146399580991169e-03,5.245050415396690369e-02
3.647866217066572658e-01,2.425669730359751308e-01,3.669168899179556242e-01,-6.829782384095105501e-04,-9.159519687598400607e-04,-1.285229646791879749e-03,1.233345568180084229e-01
3.641558704817736691e-01,2.117721379800239778e-01,3.657988392229278296e-01,6.958607485123535427e-03,-5.887128445562593701e-04,2.497663560038934725e-03,1.537494212388992310e-01
3.249377634344368659e-01,2.438821669372180923e-01,3.524036838063826504e-01,4.809524465464607573e-02,-1.554872995210207151e-02,2.099773547484463238e-02,1.361547410488128662e-01
3.301542046903390148e-01,2.687190776610294263e-01,3.579586696436587445e-01,1.102880332543917929e-02,-7.461837321437208475e-04,4.404009264371578085e-04,8.137991279363632202e-02
3.919016711608225290e-01,2.259422233630498100e-01,3.912191686567703108e-01,3.098683391514835128e-02,-3.122486395221772248e-03,2.252105619973916728e-03,1.742261499166488647e-01
4.202785665002520266e-01,9.340226966080936166e-02,4.044542773606364383e-01,-2.169293168797794061e-02,1.217313466495103386e-02,-1.866724369765490610e-02,3.237709701061248779e-01
3.159083437629139346e-01,3.236665217876001366e-01,3.148493672569941393e-01,-1.343795348194146751e-03,-4.057814354950826192e-04,-6.090759184768525627e-04,8.749327622354030609e-03
3.129973776736788005e-01,3.276455297325842064e-01,3.145872224982897980e-01,-2.503749627793963508e-03,-2.825918580204267189e-03,-4.239708350068152436e-03,1.704396679997444153e-02
3.173871178398616766e-01,3.190832029324800478e-01,3.178420665779960186e-01,-2.546292342879094713e-04,-2.744541092069292375e-04,-9.826195738034770692e-04,2.372584771364927292e-03
3.183946928601583126e-01,3.220230311109397725e-01,3.169820566004389328e-01,-4.103582589848311295e-04,-7.440748217186215910e-04,-8.336610503433705037e-04,4.953483585268259048e-03
3.915719660056462548e-01,2.812616836395352982e-01,3.329272710017041059e-01,2.570678176515422964e-02,1.306031521862871872e-02,-6.892513797672841780e-02,1.608872264623641968e-01
3.895008696326783815e-01,2.048424729610957284e-01,2.460360020044917440e-01,1.349633622110111425e-02,1.844712238108107277e-02,-1.545040490971374691e-01,3.183877170085906982e-01
3.961893901881309299e-01,2.903016501405129013e-01,3.315697383916750285e-01,-2.001764495345004224e-03,3.008838314601683904e-03,-7.378746608768731174e-02,1.578557342290878296e-01
3.885096325046244470e-01,3.082906403801488615e-01,1.841004517163245535e-01,-1.113386714103143348e-02,-1.900153497988036136e-02,-1.318482350219945809e-01,2.922800779342651367e-01
3.595815140461128823e-01,3.394606521637121288e-01,2.579214992927204020e-01,-5.712251265382280174e-03,1.288423652000796928e-02,-5.865927906749170140e-02,1.400455385446548462e-01
1.316750911668747304e-01,4.604004142556072932e-01,3.921862140485350978e-01,6.298101254335029819e-02,8.410105318714399024e-04,-2.838655480998827918e-02,3.234333097934722900e-01
3.514664231588219834e-01,3.985877429004385242e-01,2.594273431352444037e-01,-5.046367283735470402e-03,8.779841183347950051e-02,2.290448259038542142e-02,1.995107531547546387e-01
2.118066638065069229e-01,3.908514254748568506e-01,3.928302637241199990e-01,6.160118049683900240e-03,1.476387831533454431e-02,7.507384072906463394e-04,1.821666508913040161e-01
2.528706723936198220e-01,3.616427440326449028e-01,3.214297123082273111e-01,-1.181743753879568176e-02,-4.777925804657091186e-02,-8.487685634329911535e-03,1.286780685186386108e-01
3.862223027300435430e-01,3.925197582633470073e-01,2.631244113132137352e-01,-1.548995192447060604e-02,7.579318514877765589e-02,3.190941302804777696e-02,1.922920197248458862e-01
2.295751910506874660e-01,3.810148488689739654e-01,3.596634402698360988e-01,2.036878730317463748e-02,4.173415382913849697e-02,1.058462775809327142e-02,1.642022728919982910e-01
1.874982795375870759e-01,4.328100392484133252e-01,3.292318929930776461e-01,1.802460767456212989e-02,-9.362154208425237101e-02,-1.160723307239409485e-03,2.697610855102539062e-01
2.516982882445067404e-01,3.601196307971612498e-01,3.616209161497991875e-01,-5.659826761446984204e-03,-1.686358074741045598e-03,-3.974707955379681683e-03,1.098737493157386780e-01
3.805285837550296812e-01,1.513559074401775728e-01,4.627433819336889687e-01,-6.300576050211091628e-02,-2.920199938418546748e-02,-4.687222075546144257e-02,3.149273395538330078e-01
3.829082190939644414e-01,1.270237930569634022e-01,3.976430482182907733e-01,-6.845441531957453807e-02,-2.202968922870158011e-02,-1.564998070406071334e-02,2.927679419517517090e-01
3.257585120589270300e-01,2.777945179460902803e-01,3.439462800763551931e-01,-2.502875597514535658e-02,-8.896652802743891877e-03,-1.495103436508036718e-02,7.931623607873916626e-02
3.175385231988493429e-01,1.993409037803344774e-01,3.733784888484812381e-01,-1.057310825544785365e-01,-3.540564150196710835e-02,-5.393190697266177225e-02,2.640317082405090332e-01
3.318905391216313561e-01,3.460937085952043302e-01,2.759278832918402591e-01,-5.282186237772656945e-03,9.939325226277410594e-03,5.532740412803695274e-03,6.782554835081100464e-02
3.298607182745043609e-01,2.747777489175894372e-01,3.476598168320604865e-01,-1.077984333336041121e-02,-7.682599392386923326e-03,-5.469913991897049597e-03,7.033356279134750366e-02
3.572090518694736594e-01,2.637288264214700528e-01,3.428029652696047980e-01,1.766221523007230300e-03,-2.551833304407886797e-03,-5.284408011599134834e-03,8.781840652227401733e-02
3.398801249453150541e-01,2.722007617347695363e-01,3.481369888116705447e-01,-4.592830872019676089e-03,-5.574386468483627510e-03,-5.664827488301888390e-03,7.389361411333084106e-02
3.486020075062362111e-01,2.559812217227590003e-01,3.526777956286365479e-01,-8.275555949327153757e-03,-4.254989053365589545e-03,-3.952188592276559970e-03,9.632939845323562622e-02
2.888395954869546478e-01,3.029653363615983919e-01,3.236034792895839951e-01,4.790787312692219857e-02,3.994611410964322290e-02,-3.679042094405716307e-02,1.290355473756790161e-01
3.076082856646047414e-01,3.172203000142157503e-01,3.323713788267872449e-01,6.719640989818319136e-03,7.770824556879619635e-03,-5.163184680715482595e-03,2.939679659903049469e-02
3.219225555465634603e-01,2.988793899640500018e-01,2.828938572653487138e-01,3.781110199029812796e-02,4.312503904794780241e-02,-5.047566388790421243e-02,1.366257816553115845e-01
3.226690851722134878e-01,3.211966366325742506e-01,3.237300725776975363e-01,1.035004268214669704e-01,6.188483804093816709e-02,-1.342984616297043243e-01,3.126328587532043457e-01
2.452185618471706963e-01,2.910430548215998670e-01,3.571099492907680584e-01,1.110102360389825932e-01,6.020188102919837164e-02,-5.210594345014163409e-02,2.558904290199279785e-01
2.422917563556181153e-01,4.048517295166609298e-01,3.397412863415638085e-01,9.602932770646112337e-02,9.784864453088838732e-02,-9.751950388543419168e-02,3.240353167057037354e-01
3.232598873553060304e-01,3.945612609537880733e-01,2.237598524600849514e-01,2.532384955125879800e-02,1.117572262734345956e-01,-5.016826833221463278e-02,2.627206146717071533e-01
3.350797064501150890e-01,3.562498958137719773e-01,2.676677483203269148e-01,-7.240576996741188154e-03,1.825608341744275678e-02,2.351578696670038673e-02,9.610297530889511108e-02
3.518142720755707553e-01,3.321163572598488933e-01,1.608508648186245948e-01,-5.540640438720906974e-02,8.912087623393807889e-02,1.206069449985450043e-01,3.313136696815490723e-01
3.454279139994743120e-01,3.455363986359331063e-01,2.639233712044191105e-01,-5.768502677110555130e-03,2.538398544589439559e-02,1.660281772467297329e-02,9.752780199050903320e-02
3.278370153687925614e-01,3.545122235136601851e-01,2.658758305469012262e-01,-1.722349104279487925e-02,6.542113293280939212e-02,5.104601097482985850e-02,1.665844768285751343e-01
2.752372819509729673e-01,3.299775726362385031e-01,3.518501792313765142e-01,1.271621098429609117e-02,5.825846696696902402e-03,-4.876537273753710905e-03,7.301022112369537354e-02
2.587350751813842220e-01,3.465654448058932413e-01,3.541052087742697640e-01,2.902630480717885431e-02,6.236689457077375202e-03,-2.622011296451516160e-03,1.053476855158805847e-01
2.432197920245406375e-01,3.533387454035377684e-01,3.605076295292568012e-01,2.302859841944090297e-02,-8.707295998987434754e-03,-3.438085831929698320e-03,1.217409893870353699e-01
3.759387077660434895e-01,3.600520834454447594e-01,2.272369750027375401e-01,1.953831795339081023e-02,-3.962470036412091973e-02,2.431750210202249241e-02,1.662282496690750122e-01
3.777753481949173153e-01,3.927815259167768414e-01,2.274630209247469892e-01,6.977461406651778129e-03,-4.073468859341632109e-02,1.612141258815874556e-02,1.760065108537673950e-01
3.151150490913889324e-01,3.438766070036291533e-01,2.885457769339657697e-01,-1.012173912993600752e-03,-7.935825047356627818e-03,-7.550936801303609683e-04,4.991035163402557373e-02
3.111583473076554585e-01,3.842894251957824636e-01,3.097561797599087674e-01,1.970846772505463473e-02,-7.244277683447467031e-02,3.338438288157519196e-02,1.603288948535919189e-01
3.344357132563994250e-01,3.315039324091648143e-01,2.883981413817205963e-01,9.267393289921351321e-03,-7.559935413011500266e-03,6.547316897003545300e-03,5.050539597868919373e-02
3.072799764785207888e-01,4.244079627730282800e-01,2.522780198194470858e-01,-2.837251434265600225e-02,-1.416762267178769685e-01,2.126878947570990872e-02,2.952541112899780273e-01
3.409484784063857021e-01,4.503949451048444019e-01,1.815814173915849261e-01,3.752718510185948375e-02,-1.112802120127594080e-01,-5.017491899433415559e-03,3.102721273899078369e-01
2.435710069165918923e-01,3.970200280686543293e-01,2.585842500362797725e-01,3.039074150668818336e-02,-1.304877756580144210e-01,3.412004472179441805e-02,2.807360589504241943e-01
3.546734569762663991e-01,3.726217761037517451e-01,1.694142125579650437e-01,4.216938546984137781e-02,-9.960923072920914445e-02,5.761772274886681200e-02,2.881464958190917969e-01
3.219528620492859150e-01,3.200950836558599244e-01,3.078249340773466236e-01,-8.974453820258486425e-03,-8.621430460515173977e-03,-8.506281985109987592e-03,2.929988503456115723e-02
3.155995856861578686e-01,3.108740306613037019e-01,3.252284406032323050e-01,-6.069071444973256693e-03,-6.116486171993460244e-03,-6.078025738053785543e-03,2.222857810556888580e-02
3.170192756810140122e-01,3.151977362745377875e-01,3.214404084105437209e-01,-5.812468993098188859e-04,-2.301234739849376734e-03,-9.881951107993738881e-04,7.123753428459167480e-03
3.095000656002603323e-01,3.217271710585771771e-01,3.289126592025197748e-01,-7.324516275233663651e-03,-5.940189849477006331e-03,-7.514260786779925969e-03,2.692928910255432129e-02
3.170121106237278052e-01,3.182663059020694463e-01,3.193285802764008197e-01,-5.158439071553158053e-04,-5.300644435325116205e-04,-1.133824843231006794e-03,3.087328746914863586e-03
3.172520688507613484e-01,3.162436821172010526e-01,3.191058608878640235e-01,-1.161957660230033109e-03,-2.007049986969846461e-03,-1.158437675252048295e-03,5.146245937794446945e-03
3.128236633695905544e-01,3.179557017375793659e-01,3.244363783542927870e-01,-1.763362240068005711e-03,-1.944570672868648018e-03,-3.678097550086870983e-03,1.276141405105590820e-02
2.923640895310314347e-01,3.270232925003437874e-01,3.275728970604949164e-01,-4.368457047219564265e-03,-6.460866049567400536e-03,-8.582423114006428044e-03,4.029967635869979858e-02
2.724355450752299901e-01,3.466552202539621708e-01,3.461358329911967124e-01,-1.114683198284924064e-02,-9.108342000042042932e-03,-1.726721956457129498e-03,7.810804992914199829e-02
3.184436307811878142e-01,3.069836917440255664e-01,3.408737841338784769e-01,-1.234031954631360610e-02,-6.933803211584366882e-03,-6.372423686650811187e-03,4.017955809831619263e-02
2.316698656786289612e-01,1.988588519892556250e-01,3.980750621202942541e-01,-1.692372749634397100e-01,9.250069424512499458e-03,5.437638890848815569e-03,3.471258282661437988e-01
2.069005288169153411e-01,3.351414231356859008e-01,4.197312061916880777e-01,-1.700470918267334430e-01,-3.461854441942378846e-03,4.300256278785168779e-02,3.560627400875091553e-01
3.307604856902264800e-01,3.071127379615073982e-01,3.182299173379357637e-01,8.420207673522897909e-03,-7.847907021016599372e-03,1.199705468414644267e-02,3.534357249736785889e-02
3.304489568300368330e-01,3.141579212643844654e-01,3.154706556843652199e-01,4.471469177964502127e-03,-4.285831189616565000e-03,4.206141118764366443e-03,2.034446783363819122e-02
3.299307566196420516e-01,3.076076146659819099e-01,3.150837584475874587e-01,2.370722810084649121e-03,-4.318870391887119804e-03,3.310913546356770553e-03,2.220427244901657104e-02
3.233759979508666338e-01,3.133120813918935932e-01,3.133528644239710337e-01,3.581330322961915648e-03,-1.805509008516405743e-03,3.376994126063846777e-03,1.354043092578649521e-02
3.274997035625316077e-01,3.211280259699632045e-01,3.036745524792827666e-01,6.139229783412894839e-03,-2.104465531198399311e-03,2.882067001375744446e-03,2.465168572962284088e-02
3.244285495122696816e-01,3.212748949690764078e-01,3.061904377347547390e-01,6.245381100142428574e-03,-3.034480853927421385e-03,3.611480314578406972e-03,2.165235579013824463e-02
3.340919685400109973e-01,3.117754088690699033e-01,3.107611975500039758e-01,3.415133033568761370e-03,-3.507667712265988714e-03,5.763945031774403774e-03,2.632984891533851624e-02
3.406559858505315841e-01,3.156023772405751049e-01,2.900721528056093845e-01,9.960402990431632686e-03,-5.040505202207466728e-03,8.857958146646220318e-03,5.028259381651878357e-02
3.219778787585201862e-01,3.066097313095457189e-01,3.268476740974762262e-01,3.239406039628607917e-03,6.358558524729288931e-03,-2.543740098814458849e-03,2.251491695642471313e-02
3.126520535876361473e-01,3.285481266021302860e-01,3.123725944855508252e-01,7.833273292910587250e-04,-6.401303021185073341e-05,-8.677945364978705087e-04,1.616532914340496063e-02
3.171599915281034798e-01,2.923248830159670963e-01,3.410780330817068107e-01,7.219517284453975947e-03,5.674205901146239968e-03,-2.739630515939938185e-03,4.536885768175125122e-02
3.515781083799892626e-01,2.690386564163799177e-01,3.318849241383280413e-01,7.715265942885119604e-03,4.139096179619334258e-03,-2.324245514861165290e-02,8.617264777421951294e-02
2.590611854832093330e-01,3.376614057321142837e-01,3.619663547297748418e-01,3.709856183327813611e-02,-1.942875684201368636e-02,1.546687049532280769e-02,1.210706904530525208e-01
3.142609831134350884e-01,3.095806286164501930e-01,3.290968862571275744e-01,4.295128351933436006e-03,3.959053999126803565e-03,-2.773285834607666731e-03,2.090184390544891357e-02
3.079753471731066505e-01,3.169589378196399077e-01,3.326884745150093803e-01,5.921199861886120019e-03,5.528588751816944716e-03,-5.681576358322098369e-03,2.762516215443611145e-02
3.048054052736069996e-01,3.101803905256825811e-01,3.387871786154305065e-01,3.651581336578007750e-03,1.071810608505675182e-03,-2.994274759072058142e-03,3.273141384124755859e-02
3.171967615887716918e-01,2.969117628369796758e-01,3.374215139447486744e-01,7.223864041438406505e-03,5.483509887466793756e-03,-2.103173921657359655e-03,3.861100971698760986e-02
3.611080726775776073e-01,3.477637222055176558e-01,2.473509094906558847e-01,5.840772900037160403e-04,-8.577750041917263368e-03,-2.702142305271865511e-02,1.183764189481735229e-01
3.610612552047484103e-01,3.700886454265838732e-01,2.220259056767762418e-01,3.439887064679377719e-03,8.888190361040753523e-03,-4.109523629296886471e-02,1.612650007009506226e-01
3.547540374294252952e-01,3.485482235439982257e-01,2.464193629019406084e-01,3.483344676570665141e-03,9.705878394042010641e-04,-1.621889719979195330e-02,1.092290878295898438e-01
3.551064988697789637e-01,3.404884402685246503e-01,2.648181637391316956e-01,1.833637330022586890e-03,1.941957390451754602e-04,-6.824249595102150831e-03,8.482772111892700195e-02
3.608646214536103680e-01,3.483592092280898278e-01,2.546145319304370380e-01,5.805644968628726268e-03,8.309901304151387849e-03,-1.092316952268180402e-02,1.038411855697631836e-01
3.461984419081978182e-01,3.560150678761746512e-01,2.563148659497490045e-01,-1.010662014411342624e-02,1.311148776892377167e-02,2.614649980461947448e-03,9.950100630521774292e-02
3.250617478964230034e-01,3.447000689159351317e-01,2.868494226456757556e-01,-7.639830714997034034e-03,3.525319916438500456e-02,1.304076641817677150e-02,8.372527360916137695e-02
3.848275260681969234e-01,3.874308108941330042e-01,2.411496155300147937e-01,-1.047746691307987164e-02,3.293580659297749846e-02,3.437541699891899505e-02,1.677879542112350464e-01
3.319215907911910457e-01,3.482318421669303721e-01,2.720849605427622109e-01,-3.904762467144919091e-03,1.032485432971009046e-02,1.553963708135584244e-03,7.207766920328140259e-02
