sxx,syy,szz,sxy,sxz,syz,smises
-2.054204543929692706e-02,-2.054204543929692706e-02,2.210840908785955405e-01,-2.020134988274818136e-52,-1.004169601553151400e-52,-1.004169601553420317e-52,2.416261434555053711e-01
