sxx,syy,szz,sxy,sxz,syz,smises
5.999999999999339195e-04,5.999999999999339195e-04,-1.199999999999867839e-03,1.799999999999999083e-03,5.999999999999998390e-02,5.999999999999998390e-02,1.470134705305099487e-01
