sxx,syy,szz,sxy,sxz,syz,smises
2.666666666666683838e-02,-5.333333333333323267e-02,2.666666666666683838e-02,4.000000000000000222e-01,-8.000000000000001554e-02,-4.000000000000000222e-01,9.927738904953002930e-01
