sxx,syy,szz,sxy,sxz,syz,smises
1.793105992779930771e-04,1.793105992779930771e-04,-3.586211985559861542e-04,2.619723771184269455e-04,-1.999760437381017594e-02,-1.999760437381017594e-02,4.898898303508758545e-02
