sxx,syy,szz,sxy,sxz,syz,smises
2.024972908843602283e-05,2.024972908843602283e-05,-4.049945817687204566e-05,6.074918726531476344e-05,6.074918726531476805e-03,6.074918726531476805e-03,1.488094683736562729e-02
