sxx,syy,szz,sxy,sxz,syz,smises
0.000000000000000000e+00,0.000000000000000000e+00,0.000000000000000000e+00,-3.798227098303919578e-67,7.596454196607837838e-67,1.899113549151959591e-66,0.000000000000000000e+00
