sxx,syy,szz,sxy,sxz,syz,smises
3.385437607445317409e-01,9.288314167992747228e-01,8.175016267385428748e-01,8.097667388667446897e-02,-1.616010959200225028e-01,2.918520578352046951e-02,6.290381550788879395e-01
2.981272364373728223e-01,8.520388406903327549e-01,9.195302715088302659e-01,1.321998828789454176e-02,-9.961633753290299875e-02,-6.526082254711953676e-03,6.157757639884948730e-01
4.665823511183400663e-01,8.697030533625232929e-01,8.666148557762519689e-01,2.795711647017109364e-03,-9.785193428515487346e-02,-3.366937796788508405e-03,4.359511137008666992e-01
3.534809713922290597e-01,1.064866812422576192e+00,9.455340836159995543e-01,7.456625545101357166e-02,-1.395225371923958235e-01,-7.479111797841858644e-02,7.261402010917663574e-01
4.511854622642643697e-01,8.489483607351251404e-01,7.494644246653889841e-01,3.102380238216605884e-02,-2.782162536093912286e-01,5.015241830510995535e-02,6.092515587806701660e-01
4.587939886163929226e-01,1.090158165315425531e+00,8.018565161235990946e-01,-4.377748854491479193e-03,-2.770339116742378538e-01,1.121236030411491558e-01,7.534794211387634277e-01
7.935011396837434727e-01,6.868246839023521844e-01,7.445021842636199150e-01,-4.786080491994960245e-02,-3.513112216803385146e-02,-6.085135894898455189e-02,1.738877445459365845e-01
7.676398680623420789e-01,6.657676638899637789e-01,7.225800248151874605e-01,-3.548324614341494959e-02,-1.992609645725518935e-02,-7.326777441960277693e-02,1.699730008840560913e-01
7.947814708283615914e-01,6.670212588173396462e-01,7.421100223988063016e-01,-1.004041474323211745e-02,-9.097784329196046543e-03,-3.045412491021367435e-02,1.253025829792022705e-01
7.985478156704688413e-01,6.660079805071023040e-01,6.828451454613749805e-01,-1.588825945368526130e-02,-6.202538154862787152e-03,-5.454450875062232668e-02,1.594262719154357910e-01
7.726469144388100618e-01,6.623457747212356805e-01,6.851065345029508924e-01,-1.289860386407317046e-02,-8.859412994617569398e-03,-5.221288908253812755e-02,1.381557136774063110e-01
7.636308283479303904e-01,6.935510102189604842e-01,6.895743173036125162e-01,-2.071881194096985429e-02,-8.907991968910421166e-03,-2.810256888549743370e-02,9.539815783500671387e-02
7.556427004408473591e-01,6.493157174939557796e-01,6.905773811311871624e-01,-7.526003141377128614e-03,-1.343486183736865465e-02,-2.406432042213504929e-02,1.052112504839897156e-01
7.026613553151261904e-01,6.554049113504534230e-01,7.364881149528186288e-01,4.170302233428983818e-02,2.715649361195731845e-02,-3.014350972673823792e-02,1.230109706521034241e-01
7.139643612709691833e-01,7.845733242119561357e-01,6.906065174862153766e-01,5.277792191328201446e-03,-2.360298607360479181e-02,2.074653601601062890e-03,9.459529072046279907e-02
6.882586701010701136e-01,6.793079223640207109e-01,6.840963571233349416e-01,6.770134193556144597e-02,5.891722778431542074e-02,-6.975974721240824072e-02,1.970370113849639893e-01
7.167567410088162561e-01,6.404544062614005995e-01,7.150497784860944117e-01,5.375421106780553515e-02,4.312487510685650283e-02,-5.452728839163034635e-02,1.698887944221496582e-01
6.859890501925446360e-01,7.087076584822541436e-01,7.108805437949240469e-01,6.478987219736995207e-02,6.341043397965194506e-02,-4.644570911677721459e-02,1.780383884906768799e-01
6.974345874266423273e-01,6.582105038309181699e-01,7.328255706608366449e-01,4.255540771019632879e-02,3.115798991219394590e-02,-3.273975883631796008e-02,1.254601627588272095e-01
7.608117472442558205e-01,6.486455831729573962e-01,7.657395269317652797e-01,9.373094443396161324e-02,6.343970838574647386e-02,-8.149386903111983937e-02,2.674177885055541992e-01
7.023242374704853352e-01,7.096358790770515013e-01,7.270836262546499507e-01,3.342306943973696702e-03,3.493284792797390816e-03,-4.698205775971620729e-03,2.493586204946041107e-02
7.038747115458775516e-01,7.042842296818309089e-01,7.446407981593315961e-01,6.299131371920857481e-02,5.015479414892946852e-02,-4.763385979442974483e-02,1.670404970645904541e-01
6.113379142579813408e-01,6.973455267420621828e-01,7.238690120501610759e-01,7.622275832948224861e-02,1.227343185308677476e-01,-9.142091420100725840e-02,3.131712675094604492e-01
7.230423304579868260e-01,6.853161266660181550e-01,7.453734480201623658e-01,2.849668787156527452e-02,2.294967926145998274e-02,-2.265637717557194425e-02,9.121729433536529541e-02
7.516528662883739109e-01,7.028222315407446352e-01,6.983075958851895360e-01,4.410596288930632852e-02,3.606398874049554504e-02,-7.363016542355899086e-02,1.691960692405700684e-01
7.141155035571497001e-01,6.564625433130798493e-01,7.284398820903132954e-01,5.222430641850860783e-02,3.796169839733588153e-02,-4.338786464346876953e-02,1.500260680913925171e-01
7.146195127797734248e-01,6.767656147233521713e-01,6.984512153290903802e-01,2.770921395965976822e-02,2.744938806754005159e-02,-3.037567330121912490e-02,9.172867983579635620e-02
7.429095395329040619e-01,6.606901937604898745e-01,6.837386296528870089e-01,3.946080081014156221e-02,3.664029133575448516e-02,-5.353903490136477372e-02,1.506469547748565674e-01
7.588090494979986556e-01,6.699727657779414036e-01,7.403634376915584348e-01,3.890399729438695497e-02,5.068911636693646666e-02,-5.026649940632565983e-02,1.625496000051498413e-01
6.966250719489758270e-01,7.848180306093627268e-01,6.642212001783589503e-01,-1.085923222188203696e-02,9.375511630301125443e-02,-9.382888207251333752e-04,1.959905028343200684e-01
6.307959710607888848e-01,7.889219442337379595e-01,5.933322540331829043e-01,-2.370076070241938435e-02,1.512912494610720027e-01,2.235437083332223254e-02,3.227736055850982666e-01
6.334889243009012016e-01,8.026805343808083304e-01,7.124361644176184782e-01,-3.518473136295024138e-03,9.713368985371180486e-02,1.729302525238629942e-02,2.252563089132308960e-01
6.352939420113489222e-01,7.335330543905154155e-01,7.834444343016243595e-01,1.110123444601656198e-02,-3.451067282544942241e-03,6.982136210512003560e-03,1.326537281274795532e-01
6.205473760016161355e-01,8.024504411230802825e-01,7.690323680845008170e-01,1.500287727790858934e-03,3.266325119408775013e-02,6.015716259725517080e-03,1.773206889629364014e-01
6.155278031463859989e-01,8.000955623454305554e-01,7.258456670865359728e-01,-1.168226913992352969e-02,1.366970223827408404e-01,1.849758709087487296e-02,2.887356877326965332e-01
6.862824011479975450e-01,8.192213787860477270e-01,6.001020615559353732e-01,2.477135191389878352e-02,1.442083945726095051e-01,-2.097927073683886895e-02,3.195402622222900391e-01
5.660069770407823997e-01,8.490097402725993447e-01,7.329720538781374639e-01,-5.590978630892274974e-03,9.061559416652453791e-02,-2.420005999681880404e-02,2.952974438667297363e-01
6.672264275056253302e-01,8.245959983767944257e-01,6.599908543219803470e-01,2.610191575906218101e-02,2.052098033849503456e-01,-3.347055383617006385e-02,3.971072137355804443e-01
7.653297596662415048e-01,6.775184835915064596e-01,6.702969384749446480e-01,5.231402579388279989e-03,-3.933018642327742141e-03,2.772140882646921198e-02,1.040722951292991638e-01
7.643193711929795464e-01,6.951174163216341517e-01,6.823054246655392285e-01,3.441589522179015412e-03,-1.585218546395385534e-03,6.943610210384666519e-03,7.763624191284179688e-02
7.610037007036505319e-01,7.016217040882717360e-01,6.530858794309279958e-01,6.623220718541230831e-03,-4.473962770422064417e-03,1.943330068867020130e-02,1.004425808787345886e-01
5.895326729152587930e-01,7.540367456006332736e-01,8.386489824458941422e-01,-1.154353068083746742e-01,-5.026107388242562896e-02,7.824828812430299069e-03,3.096417486667633057e-01
7.826675598975817438e-01,8.016312535134330064e-01,4.614387052498715169e-01,-1.405713453285055078e-02,4.956007652567501198e-02,3.194636023703566197e-02,3.473649621009826660e-01
6.725512344171351575e-01,7.507922298629685631e-01,9.234076160327335803e-01,-1.699241160121981731e-01,-6.505146003402991275e-03,-1.932812987216337916e-02,3.705315291881561279e-01
6.945859655459192261e-01,7.339281041367871072e-01,6.994973674453580648e-01,2.234287337807168688e-03,1.975027572851052043e-03,-4.843622242645998464e-03,3.841563686728477478e-02
4.356138859173795952e-01,7.665329837116802159e-01,1.024931137692084882e+00,-2.267798030108378882e-01,-1.210531600526160156e-01,2.594678030338258383e-03,6.782734990119934082e-01
5.133019594882539671e-01,6.709043350241704617e-01,8.504342799366839678e-01,-2.400168578885825965e-01,-9.005096281918735512e-02,-7.575854176179069865e-02,5.474794507026672363e-01
8.441499348568550776e-01,5.809973346062420330e-01,7.605523200239400206e-01,-2.707378017553326369e-02,2.070931412617440029e-02,-1.160314069247255914e-01,3.132321536540985107e-01
7.797982421948386200e-01,6.323960944234779946e-01,6.917601913603308450e-01,5.561917970147848764e-03,3.285635149969979001e-03,-7.386165031654579050e-02,1.816395223140716553e-01
8.119966390894588493e-01,6.703953108139981687e-01,7.149849521622988480e-01,2.468237623876954126e-02,1.592711093638281977e-02,-1.028186922300901307e-01,2.236715108156204224e-01
7.933718726409371147e-01,5.889205824072378803e-01,7.416101409876578732e-01,7.677283371803041157e-02,4.166728523417184693e-02,-8.197702487035217478e-02,2.773954570293426514e-01
8.150193656430400058e-01,6.362417467090455414e-01,7.683756811113142682e-01,4.120489859144330774e-02,2.281965480708387714e-02,-6.133288107885809942e-02,2.091390192508697510e-01
8.058725987504383736e-01,6.357282582685608308e-01,7.363213350436534910e-01,3.610978961421155986e-02,8.394741089091684386e-03,-6.158994103766456119e-02,1.935351341962814331e-01
8.117825796634778879e-01,6.429571721033747744e-01,6.996380531399303271e-01,-5.495873407622724714e-03,8.041759489169606617e-03,-7.620872565926972708e-02,1.996334195137023926e-01
7.287744263333144623e-01,7.150599256887300026e-01,6.295156588101075146e-01,2.865948811957532219e-02,4.914458816340015745e-02,-5.194037873171043068e-02,1.627334803342819214e-01
7.886796448810918791e-01,7.056194757150294761e-01,6.458124317212854404e-01,1.913897120040996755e-02,4.491491690843289752e-02,-6.025561108777653663e-02,1.829935014247894287e-01
7.985836997505860735e-01,7.446273125160342010e-01,6.742566439981069193e-01,2.328237157610836550e-02,4.379319478097092738e-02,-8.540068573867158619e-02,2.022865265607833862e-01
7.787731823950123644e-01,6.900104612068225229e-01,5.147271067916019405e-01,4.283200342378809533e-02,5.376102944946096335e-02,-1.609977514524796038e-01,3.822264075279235840e-01
7.742687721491700037e-01,5.541460022344011360e-01,7.826718491981069503e-01,4.745798970294198837e-02,-1.111240848002863213e-02,3.557275532759179848e-02,2.475840449333190918e-01
7.389785635760606208e-01,7.587800064106291487e-01,6.555173996430435635e-01,3.213104461250956834e-02,4.801203254074251636e-02,-7.537581230965632872e-02,1.899150609970092773e-01
7.267849474513600194e-01,7.626745900446246784e-01,5.523828094813633127e-01,5.010960938355173838e-02,9.583084537083946808e-02,-8.809128358118044344e-02,3.103662431240081787e-01
6.931593860641053206e-01,7.635179855690336082e-01,7.292182246562349812e-01,-3.516209232292856479e-02,6.427583196402013310e-02,2.656823079372157975e-02,1.481026709079742432e-01
7.622579045565284206e-01,6.221354866785774318e-01,7.479467502756431685e-01,2.297679877999767376e-02,-1.965587528144881191e-02,5.472667319647028100e-02,1.719350814819335938e-01
7.217521343695555425e-01,7.638615861499548076e-01,6.965168109803074881e-01,-2.671803648922901897e-02,5.408378490695937152e-02,3.140356646825076536e-02,1.317116320133209229e-01
6.641545575396431422e-01,7.661933691460671714e-01,6.251296896438955919e-01,-6.489642259907697774e-02,1.053717149482540083e-01,7.188639286061591915e-02,2.781440317630767822e-01
7.541662176405892204e-01,6.869353799857781384e-01,7.164922828154679513e-01,3.332932727945362578e-02,-3.658652984055264790e-02,2.632121665535188532e-02,1.132834255695343018e-01
7.095950994381812205e-01,7.400794556302062732e-01,7.281150115506246356e-01,-6.273795179161140156e-02,5.385084056935449809e-02,6.178194030052517466e-02,1.807391196489334106e-01
7.159171878114780618e-01,7.270329684254385194e-01,6.966378411237094115e-01,-3.479101058327112306e-02,5.168435517150078012e-02,3.921463689497973332e-02,1.302612125873565674e-01
6.822902240807054985e-01,7.310425413942420736e-01,6.629547088991862847e-01,-8.187936378693505546e-02,8.225080664125392071e-02,9.653489651135373217e-02,2.684372067451477051e-01
5.794493226292806165e-01,6.908949126372172511e-01,8.987016391126949610e-01,1.388441565227946095e-01,-7.708458440555176171e-03,3.735877868817977232e-02,3.754481375217437744e-01
6.614430855941236809e-01,6.947978441964013374e-01,8.200525338543716014e-01,1.488048597885209268e-01,-7.026549050372508931e-02,2.821727158217779072e-02,3.234318196773529053e-01
7.371675206956878057e-01,7.027286318571976942e-01,7.010004339078562685e-01,-1.899038071297119278e-03,1.861253504830321856e-03,-2.677999057545615109e-04,3.563660755753517151e-02
7.254164771273764467e-01,6.842534494922253296e-01,8.227700791566548988e-01,8.722709538039608024e-02,5.710942988842903278e-04,7.174226737055282820e-03,1.953473091125488281e-01
7.023864711482271650e-01,6.801555337313481830e-01,7.878234569881138460e-01,8.740206915095345697e-02,-2.007318955452235681e-02,1.111597018653216968e-03,1.839100569486618042e-01
6.237798818133090117e-01,6.728193087255860405e-01,7.748346071553868786e-01,6.874774081889675759e-02,-8.120652314886955825e-03,9.069065008082983353e-03,1.801057755947113037e-01
6.233022257000956357e-01,6.742437546522368486e-01,7.756459590691630046e-01,6.681777469648655932e-02,-1.095642873696217601e-02,1.009152728902412352e-02,1.791717708110809326e-01
6.315054883623395510e-01,7.414158604794109930e-01,7.869937072130420708e-01,8.519353466498308380e-02,-9.228590218087209807e-03,1.101386001964526490e-02,2.038635313510894775e-01
6.380896326530289819e-01,6.946766136128167402e-01,8.072689930225943611e-01,5.871366106901270560e-02,-2.159754805191538632e-02,2.983709242415314572e-02,1.914742588996887207e-01
7.792041010395662770e-01,7.391643192063188650e-01,6.304935536616769198e-01,-2.105902803631152370e-02,4.016616725570146262e-02,6.488687338397569615e-02,1.912197768688201904e-01
7.466646440444283384e-01,6.833099141698374401e-01,6.480786428409264222e-01,-1.944235433013900838e-02,2.656332133542202781e-02,4.477824489316359347e-02,1.294343471527099609e-01
7.477512834719122203e-01,6.864913320144719888e-01,6.526963528030400585e-01,-2.008606002561864542e-02,2.128444834964354077e-02,5.184159990033646026e-02,1.326546221971511841e-01
7.982087593324499464e-01,6.450646296552985381e-01,6.568730316832185334e-01,-4.297928400728039111e-02,4.959398511144022526e-02,1.181674671625082551e-01,2.767583429813385010e-01
7.727635783615521836e-01,7.020948658173030710e-01,6.628974920628802892e-01,-3.325888879637902557e-02,3.674816314158461245e-02,4.411380065177232523e-02,1.500278413295745850e-01
7.835181996431663798e-01,7.027452927611652633e-01,7.211612099812830801e-01,-1.892019827557744546e-02,1.666712248608152175e-02,5.370847291550005786e-02,1.262418329715728760e-01
6.972819041312843247e-01,7.526708889353824761e-01,6.963074761804736168e-01,2.703680131488051756e-03,3.482021468713529435e-03,-4.343783142211913618e-03,5.690140649676322937e-02
7.868825612857552887e-01,6.843329504457906776e-01,7.042011226791261569e-01,-2.569766627707129394e-02,1.624388777200545114e-02,6.912159188842346980e-02,1.611824333667755127e-01
7.722098464707620735e-01,8.631090800325527113e-01,5.720979289770257159e-01,5.150607982225471719e-03,-8.863199743096003558e-02,1.435503810257804727e-03,3.002501130104064941e-01
7.670494289482676642e-01,8.373747537981828248e-01,5.247764969093682286e-01,1.927989291812122821e-02,-8.512379093517261075e-02,7.076030209386011127e-02,3.443168997764587402e-01
7.886914127617132841e-01,7.922045791475260668e-01,5.931545990836641913e-01,3.926484652789646174e-02,-1.049109501877475981e-01,7.006792886502813400e-02,3.021697998046875000e-01
7.224203594373446169e-01,7.112430590741051217e-01,7.141945657029225014e-01,-2.177489614606122406e-03,3.470526533576754648e-03,-4.964156130688422708e-04,1.231872104108333588e-02
7.232845247452733828e-01,7.741522152059164830e-01,5.756115420420839790e-01,2.207514999793588895e-02,-9.616488979421776440e-02,7.413259166750514606e-02,2.785651385784149170e-01
7.243457874689198661e-01,7.630183507106320651e-01,5.943074416567073470e-01,1.982102647597675654e-02,-6.802052478312459183e-02,4.467487363963989350e-02,2.109051495790481567e-01
7.564772891639229835e-01,7.914908767882766760e-01,5.011091339861207805e-01,1.304841468396388329e-02,-8.953745577346521045e-02,5.153502444593679316e-02,3.284957110881805420e-01
6.840755024528119010e-01,7.791871400282702753e-01,5.383721583359700746e-01,4.064678091613448119e-02,1.403330864736558048e-01,-4.973266197995254018e-02,3.399858772754669189e-01
6.253888781807868114e-01,7.905618919367691788e-01,6.031686558555997557e-01,1.768422893197476448e-02,1.468169527552911635e-01,-1.815853506347482257e-02,3.131119310855865479e-01
7.004004010317441686e-01,8.061874180731831707e-01,7.216711386319158983e-01,4.476087634610978472e-02,7.439299221233332260e-02,-4.156202280793366149e-02,1.928443312644958496e-01
7.549152777562416761e-01,8.127201560623539267e-01,6.561566609890762125e-01,2.807720212780515437e-02,7.998487890791890209e-02,-3.091154158437763380e-02,2.079127132892608643e-01
7.065087341996539871e-01,8.096554650208233062e-01,7.069681163684352621e-01,1.420514533503744285e-02,8.368586175223242940e-02,-9.937404638531379189e-03,1.802877187728881836e-01
7.243760619434594927e-01,7.298879465581546988e-01,6.962004865484145988e-01,-3.444838558163328124e-02,1.783100526426681723e-02,2.918625205677844586e-02,8.971602469682693481e-02
7.017327137673260440e-01,7.247829837658890106e-01,7.057315042608772737e-01,-2.181921636380870430e-02,2.043684205473801641e-02,3.604959650385566872e-02,8.387538790702819824e-02
6.999477759899067619e-01,7.212598939714612856e-01,6.955047911833257546e-01,-2.068540415870882138e-02,1.809708648255914376e-02,1.933309895058191522e-02,6.289764493703842163e-02
6.915746311732414719e-01,7.466794499041362609e-01,6.896808597818636644e-01,-1.782507432747829773e-02,2.739001494895408617e-02,1.091734788940418831e-02,8.188948035240173340e-02
7.614231157123281246e-01,5.869614212693990973e-01,7.168084539610991568e-01,6.698651304675974638e-02,-5.528514424300350061e-02,1.256371452021707857e-01,3.076179325580596924e-01
6.977195682937109567e-01,7.538436235836361021e-01,6.672786140616789874e-01,-3.043972941741298135e-02,6.797503840289184640e-02,3.431261975096894928e-02,1.611168682575225830e-01
7.769003502218413404e-01,7.425118204079579343e-01,6.147024803426811568e-01,4.767098299525236033e-02,5.436737156828351514e-02,-5.041065243460386702e-02,2.126538902521133423e-01
7.403866102721954334e-01,7.092805586769309611e-01,6.517348206456250459e-01,3.925514011603645909e-02,3.853520518894529290e-02,-5.076230715902646518e-02,1.512525677680969238e-01
7.910908541383333548e-01,7.040347052607568434e-01,6.602069733628298520e-01,1.648655486880213489e-02,4.476346375935023186e-02,-6.224910550070576060e-02,1.782321333885192871e-01
7.763772427606547843e-01,7.560184480217708725e-01,6.572526149922877092e-01,1.707486287301626313e-02,2.188117634387454213e-02,-4.163164892813246698e-02,1.403229087591171265e-01
7.578697155769724692e-01,7.634107855420205757e-01,6.409500111418867663e-01,-5.228287720434227070e-02,-1.360741154023751287e-01,-6.256956746551507742e-02,2.997376024723052979e-01
7.471380908685162359e-01,7.431660647759649185e-01,6.721105765451886871e-01,1.607999522258799982e-02,3.392171407621268064e-02,-2.904026782104460538e-02,1.100211441516876221e-01
7.582497820379588971e-01,7.596312313280005890e-01,6.564387191644008857e-01,5.813914783257745009e-03,2.564821473197780727e-02,-2.910971247582226640e-02,1.229840293526649475e-01
7.472539708579998274e-01,7.612691754955472900e-01,6.634061889801308176e-01,3.718161837218979249e-02,4.233942353172871764e-02,-6.497787730288687169e-02,1.749105304479598999e-01
6.972734242277958128e-01,7.053485318762682255e-01,7.561096596167173889e-01,-2.103321419828579463e-03,2.201134198066390102e-03,5.730597189774628772e-03,5.637488141655921936e-02
6.169810144670715424e-01,6.255359505624904504e-01,7.988056683130704272e-01,1.346633480741633859e-01,-1.959621062488990997e-02,1.379520862471650226e-02,2.961477637290954590e-01
6.641782787105884323e-01,6.322613906880516499e-01,7.717172895737436367e-01,6.714840826010526342e-02,7.746856278805135110e-03,-3.898555932727521683e-03,1.725340634584426880e-01
6.866044981691333815e-01,6.735927759236557399e-01,7.803096002852790702e-01,3.195022924173648859e-02,1.160832500925314086e-02,-6.111833522078063833e-04,1.167777702212333679e-01
6.888740681854388370e-01,6.391638084357740279e-01,7.740564076186002840e-01,5.813864102421093666e-02,-1.960533322538925496e-02,8.179262448002291158e-03,1.595483869314193726e-01
6.718855277730332309e-01,6.314089743206282579e-01,7.716874759502613257e-01,6.885060313997180825e-02,2.989721697004838700e-03,-1.977961394166981041e-03,1.729109287261962891e-01
6.684844352389747169e-01,6.737187860601524525e-01,7.691263283605229706e-01,3.430161239106871429e-02,-8.647221861503852705e-03,4.513037132692809122e-03,1.159509420394897461e-01
7.776577476932781119e-01,7.868393997372362669e-01,6.038814232906623003e-01,-1.371788498088792607e-02,-3.414091698238408412e-02,-5.037446917865789908e-02,2.086915820837020874e-01
7.670913232003981896e-01,6.242655389103913821e-01,7.676426089775350015e-01,-7.938677584461675124e-03,8.989785001746304627e-03,6.039988418424489976e-03,1.449800282716751099e-01
7.897468525782196380e-01,7.222815568306524270e-01,5.661940985144348071e-01,2.067261527916712874e-02,-3.826204272573903442e-02,1.256757572655883282e-01,3.041423261165618896e-01
7.452816040439596001e-01,6.772830346605530627e-01,6.393486438961228924e-01,1.863168107590441533e-02,-1.944772388926281279e-02,5.981380979270806142e-02,1.468040943145751953e-01
7.833987960606871859e-01,7.257527854404418610e-01,7.195786477789934965e-01,3.647859096090883685e-02,-2.952052347951256150e-02,5.241671974771262149e-02,1.362574100494384766e-01
7.773775927170358813e-01,6.804440434309704244e-01,6.321250002870374418e-01,5.125401239258711716e-03,-3.807574169376996137e-03,5.855148907621265941e-02,1.637733578681945801e-01
7.691335436596182795e-01,7.130578680096111288e-01,6.501286993197473718e-01,3.838237576052073996e-02,-2.273129469670498448e-02,5.305741864643087613e-02,1.582668125629425049e-01
7.635246791607726013e-01,6.899972522745160264e-01,6.580353118041551985e-01,5.241946737842377579e-02,-4.861101542984442442e-02,8.065699643031751243e-02,2.088709473609924316e-01
7.180431695254868574e-01,8.276615575399948188e-01,4.497236174555163668e-01,-8.506774230642540069e-02,-2.238817166067032793e-01,-1.268418124725391449e-01,5.777278542518615723e-01
7.716064709394363508e-01,6.708492391695075607e-01,6.505647948967311356e-01,3.003245947121024190e-02,-2.121340293635453136e-02,9.239676143504578498e-02,2.056079804897308350e-01
6.851008780062016745e-01,7.781290150509420078e-01,7.214947966948956903e-01,-1.548214251691124380e-02,-3.197121172265177114e-02,-9.858375929498687171e-03,1.032967641949653625e-01
6.777988176639639928e-01,7.563908638918488414e-01,7.217012290702340405e-01,-1.929673190373782862e-02,-3.045398126040170170e-02,-2.832870656126848866e-02,1.046934798359870911e-01
8.380118008033010657e-01,4.921632115734906332e-01,1.034827613380664646e+00,-2.524830203554404573e-01,1.662814418278264761e-01,1.283665972039123027e-01,7.416479587554931641e-01
7.191596664379075188e-01,7.138719896446312774e-01,7.268491124962709327e-01,1.054270911613057991e-02,9.141079444127562723e-03,-1.040223849436065599e-02,3.219456970691680908e-02
7.083373507259281832e-01,7.130052460092967115e-01,7.245038264853825849e-01,6.564091929967218013e-03,9.888317215024875276e-03,-7.021566384144741109e-03,2.789599075913429260e-02
7.081625997083724755e-01,7.128039777386758757e-01,7.067915813349179288e-01,1.287293387854222988e-02,8.274804263976547405e-03,-1.385972116534849551e-02,3.617479279637336731e-02
9.202604902995056291e-01,4.774210086896391037e-01,5.168240197772722144e-01,4.308106852000015419e-02,8.292912870789528879e-02,-3.360191330011096933e-01,7.383335232734680176e-01
7.265501775181307798e-01,7.198016972553472614e-01,6.958604879703789159e-01,1.730487856704351207e-02,1.503965557447604733e-02,-1.781952211574180239e-02,5.753126740455627441e-02
7.173498497085828429e-01,7.007089141908579011e-01,6.895058311509529858e-01,1.399874188815781323e-02,1.791494959181306329e-02,-1.435894010632710223e-02,5.251787975430488586e-02
6.986189235581572454e-01,7.524198564446679116e-01,6.978309341859492143e-01,7.577638071048494817e-04,4.976674955741625756e-04,-3.927178903890029583e-03,5.464695394039154053e-02
7.306515419951677970e-01,7.249488363614055020e-01,7.306506753930893661e-01,1.920315723697729043e-02,1.908482596166155218e-02,-2.149336822682848189e-02,6.014470756053924561e-02
7.313332355668367146e-01,6.955708032419082310e-01,7.132875440163560787e-01,1.435025629779951642e-02,1.890008422315994641e-02,-1.686033001821366992e-02,5.917332321405410767e-02
7.332666252069235391e-01,7.304229763911641582e-01,7.190997529032489011e-01,1.790717303226461998e-02,2.064504764109754281e-02,-2.056867289180069544e-02,6.064953655004501343e-02
7.135987468399722644e-01,7.214796701756757136e-01,7.002477028668219194e-01,1.439155664969841118e-02,1.321952233313803196e-02,-1.203321711000247991e-02,4.388155415654182434e-02
7.207978876643466037e-01,7.297879526457570210e-01,7.113531725288191332e-01,1.061261846189287192e-02,8.270447771490878341e-03,-6.404855586365950683e-03,3.034934960305690765e-02
7.219720946319492239e-01,7.038698560444867081e-01,7.109569993793326548e-01,3.881497058745109717e-03,7.795467551673400039e-03,-5.489243133975175125e-03,2.382282167673110962e-02
7.161287146890176203e-01,7.140590145536666045e-01,7.110769404823261697e-01,5.348290682530901057e-03,6.726731307733118184e-03,-6.988415116787419570e-03,1.968302950263023376e-02
7.171353051536600853e-01,7.152817155958482997e-01,7.190487182140302691e-01,8.875405174774255238e-03,8.518504745320738814e-03,-6.396928572417932141e-03,2.423672750592231750e-02
8.313231347393549298e-01,7.194063932275294171e-01,7.094705806849310736e-01,-1.211157322627839754e-02,-4.042885780840047537e-03,-7.570224828559474206e-02,1.772502660751342773e-01
7.294941090990567645e-01,6.270190679445812876e-01,7.783764808793539602e-01,1.061402194132672200e-01,-1.019941617246137022e-01,6.736782873036012420e-02,3.106779456138610840e-01
7.072129696467419624e-01,6.615664859355234739e-01,7.469143653135555949e-01,5.371274341219589576e-02,-5.388605253813218143e-02,3.233383867147403279e-02,1.611668616533279419e-01
6.963326705496143409e-01,7.238182280210079256e-01,7.348071725084717176e-01,5.851948203763474021e-02,-4.352786712911646538e-02,3.925704648874924624e-02,1.475100368261337280e-01
6.911094225197886853e-01,7.178303819386311346e-01,8.160705451546768074e-01,7.779420048214269467e-02,-2.695085651258587872e-02,2.714760270219654034e-02,1.885100752115249634e-01
6.603297606838359757e-01,6.146041271055940891e-01,7.741639215650564232e-01,1.127586829653321465e-01,-5.848382107424517778e-02,5.931919851085106637e-02,2.814518213272094727e-01
7.259391685335604416e-01,7.434575646044114805e-01,7.669506602972189224e-01,-4.450781656057299640e-02,4.744966299786400332e-02,4.853052643726787907e-02,1.450285017490386963e-01
7.105861490104640188e-01,6.661603057155699448e-01,7.530048054713134320e-01,-6.140602056461967606e-02,3.791251648852217437e-02,3.249990690645124941e-02,1.563661992549896240e-01
7.249483519707536905e-01,6.872401216996810724e-01,7.615427523348105021e-01,-7.391083032377819551e-02,3.261046000998140543e-02,4.287318230521539042e-02,1.709797084331512451e-01
5.525226273975719637e-01,7.041609932746998313e-01,7.933213237162852760e-01,-1.306285402905064674e-01,6.324062398398781759e-02,3.919517048664214465e-02,3.350555896759033203e-01
7.314470545789197864e-01,6.839834654933216740e-01,8.037318847795810184e-01,-7.503430769758026586e-02,3.236862827554343180e-02,3.730267812082609102e-02,1.873949915170669556e-01
6.270944019020661120e-01,7.389980410124535881e-01,8.074746267777516140e-01,-1.639872796228502572e-01,3.372293671010979932e-02,4.732518247401717310e-02,3.401182889938354492e-01
6.669549243440699993e-01,7.470988501660319470e-01,7.774560103499926766e-01,-8.481316466758333228e-02,5.203459103741534669e-02,2.479914787900391535e-02,2.032859027385711670e-01
7.712419248857994569e-01,5.505732679020167719e-01,7.198792106224853882e-01,1.871478893456068326e-01,1.398835465099076136e-01,-2.067111127576370111e-01,5.761616826057434082e-01
5.961398566167277480e-01,6.175998675284760653e-01,7.929623719765458434e-01,-1.424010936087008461e-01,3.737963872459189318e-02,2.877155227608747465e-02,3.201330304145812988e-01
8.603851820073286083e-01,7.540409375612473486e-01,6.269587767144705337e-01,-8.534415132581000055e-03,-2.689509371576495264e-02,-1.083648861232935773e-01,2.803405523300170898e-01
8.906059055220019172e-01,7.798827924858365845e-01,6.278129904897196134e-01,-3.021463465924267844e-02,-1.205230056526427479e-02,-1.142850634731489706e-01,3.075390160083770752e-01
8.119918126768960187e-01,7.528212654901005330e-01,6.416471916786564700e-01,-2.504273303471505740e-03,1.671457397326527256e-03,-5.551089367712510464e-02,1.780747920274734497e-01
7.964593027019434279e-01,7.109325600186120475e-01,5.848693600903359657e-01,-1.868996683448098618e-04,4.563223638097549557e-03,-8.698716258183090966e-02,2.382255345582962036e-01
8.254695288378806062e-01,7.400278133098109334e-01,5.954316367451486514e-01,-2.132961406171484525e-02,3.657162923296745308e-03,-8.429610765487663415e-02,2.515658438205718994e-01
8.055457547689361952e-01,7.406171400766016211e-01,6.052784515356457451e-01,6.617523707679397009e-03,-1.007239354119048545e-02,-1.195823253187110607e-01,2.732309699058532715e-01
8.393037416858540878e-01,7.268705703022336762e-01,5.946515227717394936e-01,2.433855859438242147e-02,7.671751220824167203e-03,-8.735555786385208743e-02,2.642641663551330566e-01
8.459068290443280125e-01,7.881596194576927505e-01,6.102416645418022867e-01,2.508483910519641868e-02,2.126817314760368408e-02,-1.400046035640977460e-01,3.275857567787170410e-01
7.717448623471231395e-01,7.174896086031375964e-01,7.254187449148300493e-01,-2.340994290420670906e-02,3.604167992005870985e-02,5.125930340999022838e-02,1.264908611774444580e-01
7.334135540237394224e-01,6.700887037015769154e-01,7.211213363461943526e-01,-5.357281456283936177e-02,3.768715778967402646e-02,5.798675687638032983e-02,1.622998118400573730e-01
7.397087724554987087e-01,7.166596893758006015e-01,6.971813182081902927e-01,-2.707444541754986528e-02,2.462641697751953573e-02,2.577532877978454262e-02,8.585561066865921021e-02
7.216194796497441555e-01,7.131074026831110135e-01,7.348476168009453469e-01,1.966897246533174173e-02,-1.413052484840192011e-02,1.078196900162208677e-02,4.968310892581939697e-02
7.403944791024900107e-01,7.036370601674948322e-01,7.148131917331632668e-01,-2.486476566461485668e-02,2.697722869035934154e-02,2.336118573881066501e-02,8.210070431232452393e-02
7.017203436193758526e-01,7.285737424625998715e-01,7.151435689972798215e-01,-6.374301157519551841e-02,4.115839191544538173e-02,6.792778069610332092e-02,1.779183298349380493e-01
6.883224460620058771e-01,7.510087725018881333e-01,6.954713132706467071e-01,3.453726643240954703e-03,1.031614834349472466e-02,-5.833550098721679983e-03,6.316399574279785156e-02
6.984558403189023990e-01,7.458241141798688245e-01,7.014220130850757906e-01,2.124045015296632637e-03,-1.206166288191098425e-03,4.907781271950860218e-03,4.692767933011054993e-02
7.664326145001338908e-01,7.195289237129733895e-01,7.178286391628039276e-01,-6.117668989573904481e-02,5.923894097538762865e-02,5.634087127187018679e-02,1.831966042518615723e-01
7.413696013371680049e-01,7.802150592166000598e-01,7.513382022526888804e-01,6.056275590142216197e-02,-7.348496450532042423e-02,6.244257385292557860e-02,2.003047615289688110e-01
6.790000234215523012e-01,7.441196366740122636e-01,6.518283767799857298e-01,4.140008763387278273e-02,-7.634863273965210306e-02,5.093101948355883979e-02,1.927677839994430542e-01
7.263774456054368223e-01,7.524846941782157295e-01,6.644153052053759501e-01,4.090084535036607460e-02,-8.500923902817052180e-02,5.065213479223536208e-02,2.013301253318786621e-01
7.365075768778637233e-01,7.645658263526713405e-01,6.752123332800838984e-01,2.155476570885026324e-02,-4.656333605783268687e-02,3.063878355719509838e-02,1.303022354841232300e-01
7.298631578065091219e-01,7.365497658633157751e-01,6.916795683096040870e-01,3.196994158932842806e-02,-4.109571084890566162e-02,2.033820153061395228e-02,1.055070981383323669e-01
6.437580669071508721e-01,8.163968209654979269e-01,7.380696873996980267e-01,-2.635266446907104723e-02,-8.700937840701609971e-02,-2.289975494165254200e-02,2.208743095397949219e-01
6.312619878808493068e-01,8.180865496565327133e-01,7.555943680358325754e-01,-1.251445911409423441e-02,-5.759147178625719649e-02,-1.861986237659736185e-02,1.964532583951950073e-01
6.878866919654597067e-01,8.613978619863623676e-01,6.201177452991673000e-01,-5.396505707631860105e-02,-1.302670365568134869e-01,-9.406696893362467837e-02,3.642092645168304443e-01
5.608122771628519798e-01,8.598186674576808741e-01,6.837895741816366613e-01,-8.080186361604699274e-02,-1.552882174376150337e-01,-2.252890641720708617e-02,4.015096724033355713e-01
5.935232881949757955e-01,8.081839394614925842e-01,7.199482401548341626e-01,-2.352546171351624013e-02,-1.046862909201042302e-01,-2.007361817347319902e-02,2.658399045467376709e-01
7.280650410728845001e-01,8.238532057416612098e-01,7.007557211349083603e-01,-2.227935939858047970e-02,-8.250371846255037667e-02,-1.197073019155190515e-02,1.867529898881912231e-01
6.882407006155204510e-01,8.291434865304359025e-01,6.314505364502600582e-01,-5.031221078090190868e-02,-1.651167874444005312e-01,2.905727366567979622e-04,3.470813632011413574e-01
7.201848232541468997e-01,8.194799344282999165e-01,6.894332419586953753e-01,-2.000158164173805944e-02,-7.569374272695440775e-02,-1.703791379949183907e-02,1.819844841957092285e-01
7.988957776689024071e-01,7.911966436587701823e-01,4.832162819702995327e-01,1.479733757224054730e-02,4.155827898508583640e-02,-7.803036772024489476e-02,3.484059870243072510e-01
7.487094084892303991e-01,6.815676276567363967e-01,7.224590357406390773e-01,-4.393430934760389484e-02,-2.710485905043208757e-02,-4.982699476325162108e-02,1.373953521251678467e-01
7.539629114774434315e-01,7.076421233937194577e-01,6.810296696176906250e-01,-2.524770591656469790e-02,-4.464059254421938461e-02,-5.288564848557926468e-02,1.427161842584609985e-01
7.296378281030611035e-01,7.272245914484325446e-01,6.637471424311256474e-01,-3.102490192606692856e-02,-3.488833754976432278e-02,-4.066632857448885391e-02,1.252552121877670288e-01
7.427866130893943097e-01,7.499680733748907979e-01,6.841322718302860206e-01,-4.154703150797330047e-02,-5.097511783119765966e-02,-6.730958327109459738e-02,1.745815724134445190e-01
7.265204066573751618e-01,7.144454269980037298e-01,6.583412939445862921e-01,-2.971720016008461140e-02,-3.553035098349673071e-02,-3.553167605766236609e-02,1.191427260637283325e-01
8.313277931945155519e-01,5.590590125785763753e-01,7.682317080040659274e-01,9.330139872057516270e-02,4.400955993325643412e-02,-1.684514281165707672e-01,4.218837916851043701e-01
8.252995533967492081e-01,6.799014446075546392e-01,6.957587673472657164e-01,-2.877265714177344486e-04,-1.987416292115469930e-03,-9.485087859690330414e-02,2.146825641393661499e-01
7.375436429454337306e-01,6.001574462804345478e-01,7.925651181464697936e-01,-6.074110588884773509e-02,-1.851806094278263476e-03,1.202662454297142094e-02,2.024207860231399536e-01
7.927648173045496183e-01,6.847288049407553867e-01,7.131436528406410735e-01,4.614027071590242127e-03,7.566995341898701162e-03,-3.781944492836140925e-02,1.180505603551864624e-01
7.669584233280468677e-01,5.929821043119620771e-01,7.083962032123042318e-01,-3.222437199138490638e-02,-2.016114510701412857e-02,-5.784995809675513856e-02,1.946364641189575195e-01
7.584604000941024271e-01,5.924719730808258866e-01,7.069851661278208077e-01,-2.261174087105915012e-02,-1.938348337758972334e-02,-5.966456369916092739e-02,1.870779991149902344e-01
7.552932716329811003e-01,6.554808014444255537e-01,6.751830688740674269e-01,-3.212944852521233685e-02,-3.027285404979410469e-02,-6.105729471714575057e-02,1.594189405441284180e-01
7.946553279496300082e-01,6.254378223408558757e-01,6.182762960204403191e-01,-2.408757081089674471e-02,-1.719146891952285164e-02,-1.473413040453180889e-01,3.124953806400299072e-01
8.151390161606792972e-01,6.736983847868858177e-01,6.957997586012468760e-01,-1.323529534342108606e-02,-1.004484623521547347e-02,-8.723233433966286199e-02,2.025451660156250000e-01
7.432352711468914741e-01,6.549008513417091670e-01,6.836833730435596390e-01,-3.878265800908199668e-02,-2.245848799024551326e-02,-4.944350590963485226e-02,1.394572705030441284e-01
7.608499311883802907e-01,6.447474066260850956e-01,8.024585158333764623e-01,-4.535067285368787199e-02,8.391167809393597007e-03,-1.061307294197459498e-02,1.635883003473281860e-01
8.019655022709580861e-01,6.094314270609301198e-01,7.259767888389440094e-01,-3.246892726687166525e-03,-4.008366867347246815e-02,-6.551925271162332975e-02,2.143438458442687988e-01
8.094576415527889868e-01,6.796954332566390589e-01,6.934519374589025453e-01,5.046636949779718592e-03,-5.340714491660106603e-03,-9.137183411796495625e-02,2.011238634586334229e-01
8.228617168053222741e-01,7.100795884469730535e-01,6.979702330223271911e-01,4.837373450662420422e-03,-1.122524391925240964e-02,-6.172340664691646633e-02,1.615850180387496948e-01
8.181130916379130147e-01,6.537514879700589976e-01,7.503954531116524551e-01,1.814030712626403530e-02,7.508387053063876257e-03,-1.687997869607849311e-01,3.272715806961059570e-01
8.129087999037695189e-01,6.212241581299456916e-01,6.027520586971468752e-01,2.172683248594186808e-02,1.248846054911508137e-02,-1.498558808874592141e-01,3.314806818962097168e-01
8.943349614760051081e-01,6.709986341082885275e-01,7.801245594150569840e-01,-1.945022311206032542e-02,-1.776863656001104533e-02,-1.684158145287345254e-01,3.529724776744842529e-01
8.492735873577839101e-01,6.524489370566282087e-01,7.073038930514545797e-01,-1.635101205146602399e-02,-6.389552030895695456e-02,-1.546719475709713576e-01,3.402534425258636475e-01
7.290903247694472400e-01,7.134044410942619319e-01,6.830784508456189119e-01,-4.729003744091714312e-02,6.480239329911474666e-02,4.877073350927882411e-02,1.675835549831390381e-01
7.028441343156873744e-01,7.824256655553109008e-01,6.941407795107060741e-01,-3.123650132923796313e-02,6.808388466795897709e-02,5.330798800200337029e-02,1.801672130823135376e-01
6.704351972975494123e-01,6.687952495149960264e-01,7.600312158703194099e-01,-3.020583863076172979e-02,-6.870057120460419144e-03,-8.831996205981414161e-03,1.062537133693695068e-01
7.377839629279583367e-01,6.919975391456162361e-01,7.227257919912513096e-01,-4.366408482062122953e-02,2.295060445009982145e-02,3.977602285791218689e-02,1.169612258672714233e-01
7.153625260449522072e-01,7.263813284391880121e-01,7.209595031680243737e-01,-1.420948988417559608e-02,1.707078239241449982e-02,1.133137785884076251e-02,4.422931373119354248e-02
7.153550899932956675e-01,7.246380270297043680e-01,7.088906712041619373e-01,-1.395470261748335029e-02,7.637564836976709626e-03,9.486854134836391478e-03,3.488796204328536987e-02
7.736781815189821554e-01,5.350890619853645447e-01,8.069687534146260388e-01,-1.517770257765604369e-01,-1.736755735600822512e-02,-2.317206431886882287e-02,3.709451854228973389e-01
7.234772973296983434e-01,7.240246914911461218e-01,6.889982028609541453e-01,-2.124111247303594324e-02,2.161939146320199234e-02,2.018457052246814751e-02,7.201375067234039307e-02
6.988670185395973178e-01,7.590561343649746551e-01,6.928252656087063865e-01,2.637820464635450696e-03,3.211968534633524459e-03,-1.108595445128254548e-03,6.386228650808334351e-02
7.570029649024399010e-01,7.333059024632965217e-01,6.449552974073761158e-01,-6.660615581306301991e-02,1.229267006485871283e-01,1.027378987217855560e-01,3.174402713775634766e-01
7.448738070579122850e-01,6.868884212319202875e-01,6.451183581385107058e-01,-2.852791126258192797e-02,2.695442964680016401e-02,5.261178015954592196e-02,1.430183351039886475e-01
7.392383882079811563e-01,7.404101535976432835e-01,6.222336063855338217e-01,-3.978273624918435281e-02,6.000322471078206599e-02,5.809012228035465020e-02,1.987489312887191772e-01
7.979262785559845250e-01,6.971737284959961256e-01,6.415435182400326397e-01,-2.376932001213269766e-02,1.118931267360677440e-02,5.558482893636235156e-02,1.737534105777740479e-01
7.567784239188540818e-01,7.436202451033867566e-01,5.924496694372073380e-01,-2.736267448785047185e-02,3.968443960203898307e-02,5.838540229515334912e-02,2.054558098316192627e-01
7.869790844216204562e-01,7.375149637296266603e-01,6.014125034077405507e-01,-1.617988490704426463e-02,4.005302387377818879e-02,5.845116154259238916e-02,2.086875289678573608e-01
5.742805736026065366e-01,8.039374871418314417e-01,8.180518494270974106e-01,2.666809598338618946e-05,-7.996694984006584572e-02,1.688372948837161061e-02,2.760838568210601807e-01
5.376946849273684936e-01,7.967166607058251415e-01,7.743480678030008058e-01,-8.514125019148445841e-03,-4.386277839293450248e-02,-5.441531650382048883e-03,2.605319917201995850e-01
4.961426914045474756e-01,7.993982504531663702e-01,8.209528296987499418e-01,1.264954241688002676e-02,-5.582983793158356051e-02,1.607510745942196742e-02,3.310154974460601807e-01
4.578942571520411287e-01,8.322945856098962203e-01,7.736257756155797694e-01,1.020970636198683702e-02,-1.525432877423248401e-01,2.049750978777392305e-02,4.393558204174041748e-01
3.347490439272200469e-01,8.110375530450392167e-01,7.036820281903972685e-01,-6.922866283761282269e-02,-2.254180015118030789e-01,-5.525835112554870754e-02,6.026788949966430664e-01
4.928774913033546756e-01,7.980815712137961926e-01,8.256702349403611807e-01,-1.549587074449002705e-02,-5.604188169728525210e-02,-1.858287665023910726e-02,3.369113504886627197e-01
7.020030232872278564e-01,7.049072901296752347e-01,7.125574033643999883e-01,-2.438255645281881684e-02,2.532508249569720080e-02,2.308563583010170631e-02,7.345490902662277222e-02
7.242648689138999618e-01,7.576956276832420567e-01,7.733598009409440310e-01,-7.151918997767180153e-02,5.885336644880361651e-02,4.305282063757548405e-02,1.821631789207458496e-01
6.899977209195216066e-01,7.563242119318888124e-01,7.422383286078524378e-01,-5.337155778733070760e-02,6.781910282737076134e-02,3.496996659326911949e-02,1.722669601440429688e-01
8.812785472922899377e-01,7.429067846893875338e-01,6.503393925594596059e-01,5.152817124932234510e-02,7.701119517583428220e-02,-1.594704726433442410e-01,3.775901198387145996e-01
8.480820705831236817e-01,7.601442597307450644e-01,6.736150804874442288e-01,8.400352250806754351e-02,6.652510140755618639e-02,-1.437881796248129396e-01,3.454000651836395264e-01
8.440157887235000267e-01,8.142909103671741589e-01,6.091012732162728316e-01,1.407966616789366708e-02,5.950464199355586653e-02,-8.537664664107745549e-02,2.866534888744354248e-01
6.946258576109674010e-01,7.535985792226397306e-01,6.949489518743037220e-01,-3.935749785256537417e-03,2.512334199484379717e-03,2.101282736710649406e-03,5.947675555944442749e-02
8.790389436187011629e-01,7.113081202205661091e-01,3.616861302037471249e-01,9.107646633489184518e-02,1.279916661427719649e-01,-2.891851425512419471e-01,7.307024598121643066e-01
8.048100663845580982e-01,5.196974083226284513e-01,8.142593729801193003e-01,-4.717847724876311766e-02,-9.604879852244193814e-03,-2.208633060687861110e-02,3.041220903396606445e-01
6.536451246754604316e-01,7.675893965820020926e-01,6.756409969835655005e-01,2.987316419033088713e-02,6.711305842504836083e-02,-2.456893789511990778e-02,1.701805442571640015e-01
6.901282272758993974e-01,7.601979970236277806e-01,6.897240918681143418e-01,1.283671241125887777e-02,2.952701105261720804e-02,-1.435285760001140526e-02,9.309212863445281982e-02
6.511839983437593959e-01,7.639468015614663265e-01,7.015614107479875017e-01,4.704032413691328768e-02,5.258899309718457343e-02,-3.305976790157763578e-02,1.666933149099349976e-01
6.667606064863025317e-01,7.574408330791031485e-01,7.247727624789433998e-01,2.502290489025853909e-02,3.679987265245348443e-02,-1.809515861719490637e-02,1.151138246059417725e-01
7.136055056850004741e-01,7.539819441281730983e-01,6.780670560879995534e-01,2.786812585006802345e-02,5.845597542466589303e-02,-3.665594341742024059e-02,1.447077393531799316e-01
7.281796937001902004e-01,7.095579781158412036e-01,7.238515828775347050e-01,-8.068655449279229369e-03,-1.072934246471704892e-02,-1.379061521826956821e-02,3.736459836363792419e-02
6.775185374789614023e-01,7.494880439434049579e-01,7.113924586484585699e-01,3.131319824549943370e-02,3.351933332656419767e-02,-3.085875694058000385e-02,1.142722070217132568e-01
7.138193643499090024e-01,7.461640194015451977e-01,6.893241489520864906e-01,3.146848985601498339e-02,4.453440099567000654e-02,-1.926187241171890829e-02,1.116793453693389893e-01
7.204517857211569787e-01,7.032087003125457869e-01,7.377646512032126624e-01,-2.002385147491883913e-02,1.567059478788960722e-02,1.572127275969431234e-02,5.980492010712623596e-02
6.881248327827296229e-01,6.945548175881539610e-01,7.636393491457585947e-01,2.530034882679523239e-03,1.869778771294813879e-04,-1.294773939163492132e-03,7.268127053976058960e-02
7.192564642889964777e-01,7.144980510724074918e-01,6.705874270841147844e-01,-2.711739768019053379e-02,2.535914000493872875e-02,3.220190868901162684e-02,9.698420763015747070e-02
7.307757194187093353e-01,7.251598188877983464e-01,7.124085608150190208e-01,-2.499741726992992311e-02,3.346413594981177686e-02,3.869015279538149527e-02,9.995341300964355469e-02
6.964604232463699196e-01,6.886255330146566767e-01,7.208077547327790269e-01,-3.716425703992978780e-02,2.930906526465699297e-02,3.686807310994473508e-02,1.079041734337806702e-01
6.904498178149544030e-01,6.793915183521684886e-01,7.649404889038357025e-01,1.094771552604066611e-02,3.371885952687280440e-03,-1.484159984468338750e-03,8.303710073232650757e-02
7.112263775402016819e-01,6.889316374619408601e-01,7.735125209944374580e-01,3.037046250774370904e-02,8.803684761665521441e-03,-1.247867250741442613e-02,9.608346968889236450e-02
6.966218705655662369e-01,6.409895498848665607e-01,7.652052069847982141e-01,2.046552515001751754e-02,4.537465707659216890e-03,-4.103474792471185212e-03,1.139424145221710205e-01
6.978388230630470090e-01,6.452184798916266173e-01,7.574453412821636755e-01,2.126033423922457644e-02,7.692145151180689554e-03,-5.397287599759732074e-03,1.052580550312995911e-01
7.162278473688543645e-01,7.027893076772520065e-01,7.357213085842523315e-01,6.495752062644545577e-02,-4.817722568992393456e-02,3.840408473384303994e-02,1.576982885599136353e-01
6.715762992034431944e-01,7.355220118689116404e-01,7.843048613744781905e-01,1.398212235183948216e-01,-4.283928904135357596e-02,8.905786998849239688e-02,3.123103082180023193e-01
6.809378506578459556e-01,6.588253720648732381e-01,7.567750341576108264e-01,5.450179457201039662e-02,-3.304296901897146865e-02,3.046956862753465514e-02,1.512918472290039062e-01
7.178512272379252712e-01,7.202464061364125536e-01,7.096801668146153208e-01,2.716849511222883470e-02,-4.708807630913809661e-02,4.381551446968633828e-02,1.213165894150733948e-01
7.163647277511312472e-01,6.848331642469381864e-01,6.653777205230660963e-01,5.955972918457085041e-02,-6.817672826343089409e-02,8.606103152695213088e-02,2.208891212940216064e-01
7.154451376416197661e-01,6.943654057359566201e-01,7.065968008508637377e-01,2.724245292940542101e-02,-2.669517798676877135e-02,2.840025362363379074e-02,8.438128978013992310e-02
7.221054178941546109e-01,6.869066544195242541e-01,7.017940471434706007e-01,5.021030835802327980e-02,-3.423962259555533849e-02,3.475030073661999203e-02,1.250583827495574951e-01
7.200164190050422075e-01,6.974864870944974538e-01,7.206937966411840479e-01,-1.463009815774880817e-02,-1.296675480742947445e-02,-1.595186893012396495e-02,4.932782053947448730e-02
7.122505003929330281e-01,7.280704974179887934e-01,7.245669045722590296e-01,-1.508911620215504755e-02,-1.357741260153220650e-02,-1.470226917756637698e-02,4.573481529951095581e-02
7.261678231031464259e-01,7.240141494918995724e-01,6.907268494106866275e-01,-2.632872026830545761e-02,-1.899288824349602833e-02,-2.084843702384168301e-02,7.516740262508392334e-02
6.721467460299386243e-01,6.749053980647029549e-01,7.679782481923520532e-01,-2.959431091124683361e-02,-4.301078377828383877e-03,-2.808216767884188191e-03,1.078589186072349548e-01
7.094546245470247925e-01,7.079141856317622272e-01,7.266018993604445031e-01,-8.901717126234876681e-03,-1.051061061494816713e-02,-1.206045885073544349e-02,3.644613549113273621e-02
7.198237937469732506e-01,6.980795435216433642e-01,7.322920104162757848e-01,-1.672456210258275663e-02,-1.515686066999600082e-02,-1.213454942529013612e-02,5.356721952557563782e-02
7.119983549142037127e-01,7.280121024689656384e-01,7.128433306405230763e-01,-1.338239710708093340e-02,-1.005267000281669446e-02,-8.724948368471945395e-03,3.622749075293540955e-02
8.005915702588635163e-01,6.046016195804139182e-01,8.235158906045624283e-01,-8.261459268641850595e-02,2.502411309950114057e-02,2.569344658893314703e-02,2.603173255920410156e-01
7.997187746119025498e-01,5.852880203210255594e-01,8.603681881186932001e-01,-9.311355732420763254e-02,1.461881657511246262e-02,1.072618445012411825e-02,2.994339466094970703e-01
8.336537011852616086e-01,4.847680594371356344e-01,8.210929992942695987e-01,-8.321674487186672686e-02,1.466627893326998867e-02,4.150729722248519549e-02,3.795861601829528809e-01
8.038195750691081720e-01,5.647944475680777288e-01,8.241765897593471557e-01,-6.075497900251426719e-02,3.183689609277623456e-02,4.628816045976588689e-02,2.880196273326873779e-01
8.113124894989065528e-01,8.303024200745976469e-01,5.194315497528040337e-01,-2.307821866141654757e-02,1.279196106231921259e-01,3.877192880980100814e-02,3.824863135814666748e-01
7.274788409431002245e-01,8.036244776778360688e-01,6.042087351047996657e-01,-2.947997589355629347e-02,1.332611889074215572e-01,2.694497748131175971e-02,2.973904609680175781e-01
7.536802072523201002e-01,8.782172370287285590e-01,5.759089098635830073e-01,-6.800414420955952499e-02,1.405602192395008498e-01,-1.774719402105627564e-02,3.786044418811798096e-01
7.935417804480370263e-01,8.469370445720719731e-01,6.004827882111820614e-01,1.136183196317588386e-02,6.598826438118078619e-02,3.070452985200639810e-03,2.528046071529388428e-01
7.413072501985138452e-01,8.033724358424584322e-01,6.068778697082571894e-01,-1.699146040081878431e-02,9.332274963466685724e-02,-1.574733287960897621e-04,2.392913252115249634e-01
7.098686700351375389e-01,7.703173421978131152e-01,4.603529677759582439e-01,-3.906218617756943012e-02,1.215886781969500591e-01,7.843304706270705362e-02,3.852002620697021484e-01
7.090384934676490225e-01,7.464353468683635473e-01,7.143367217594471796e-01,5.326740843106655271e-02,-1.235770186318469049e-01,1.047146366317595056e-01,2.974054813385009766e-01
6.929670933582582348e-01,7.768519011307474242e-01,6.643692619540362276e-01,2.235521772990719039e-02,-4.946185351440554601e-02,1.710285640089612841e-02,1.413139551877975464e-01
6.865887484643511396e-01,7.573905668417858505e-01,6.431729865315394257e-01,2.966652151293463699e-02,-5.366627876016645537e-02,3.275674789211885374e-02,1.564329564571380615e-01
6.832671817239445167e-01,7.459971708355574993e-01,6.410167669683420888e-01,3.266044806226513914e-02,-5.382743819957217651e-02,3.322502076860674863e-02,1.535399556159973145e-01
7.095320011470873656e-01,7.213914838237895921e-01,5.972103473125586204e-01,6.018215133429757197e-02,-1.062360863232278269e-01,8.284215507786529820e-02,2.817824184894561768e-01
7.048679838305729195e-01,7.569721732617065157e-01,6.997806677996425417e-01,4.265609083025800712e-03,2.615103101841085610e-03,-2.596470579916640344e-03,5.568774789571762085e-02
7.339304713801926283e-01,7.820354896814605272e-01,5.582183169120198407e-01,5.102368253512230140e-02,-1.152666735615708316e-01,6.035095499955105830e-02,3.166033327579498291e-01
6.781329906316787559e-01,7.799180405203584021e-01,6.738065384815092873e-01,-4.600408807920820797e-03,-3.118936765765926641e-02,5.696252841541049041e-04,1.174822449684143066e-01
6.897817592482283766e-01,7.895284782083180630e-01,7.159478269713817067e-01,-3.433989327435884101e-03,-3.832915129795272380e-02,-4.126066970898904090e-03,1.118834838271141052e-01
6.923217518108033541e-01,7.718787332474390528e-01,6.310315012862690587e-01,-8.911032895280033422e-03,-5.787776485148170280e-02,-6.470482301417867718e-03,1.592959612607955933e-01
1.148502852886260861e+00,5.649788647818199117e-01,9.036117824099426654e-01,-9.374804624984324486e-02,4.383123440582236546e-02,3.240660176728815123e-01,7.776619195938110352e-01
6.915965685556518805e-01,7.504478586061160694e-01,6.117712016004164255e-01,-2.289675352949408979e-02,-6.032257689346772617e-02,-2.064821949520016450e-02,1.682309657335281372e-01
6.831591343211848022e-01,7.651913865482182775e-01,6.926258593792198326e-01,-1.787722355198070531e-02,-3.371463923307934513e-02,-2.246499228807293316e-02,1.092024520039558411e-01
6.756661271261609203e-01,7.608858177121362587e-01,7.014204462047788358e-01,-8.472130843535140635e-03,-2.188469223928010340e-02,-7.948874167112394973e-03,8.702073991298675537e-02
7.877881060881858355e-01,7.537217167972806164e-01,6.186297804121704269e-01,4.212786218709002606e-02,2.552225414047622556e-02,-5.320058128991308338e-02,1.994536966085433960e-01
7.991792784116026338e-01,7.637187807744854062e-01,5.855323230182378769e-01,2.611447424764169745e-02,3.315080501190798001e-02,-4.621682079284172157e-02,2.260027676820755005e-01
7.663322853462349871e-01,7.212479141852545794e-01,7.280518739610417622e-01,5.179328820416746748e-02,4.891439637012735125e-02,-5.966777466864901097e-02,1.663681417703628540e-01
7.461518571456938753e-01,7.576766582084560886e-01,6.825812169549606567e-01,1.749485706816032715e-02,2.902339500094470309e-02,-2.519718320062510827e-02,1.012751832604408264e-01
7.530503750487029802e-01,7.472522469107391041e-01,6.819137540122903740e-01,2.169084861861983113e-02,2.807892026820704712e-02,-2.689366779825715786e-02,1.030928790569305420e-01
7.428182678863460842e-01,6.119106764930939413e-01,7.941196859204128211e-01,-4.909779068304423455e-02,2.255197063918617378e-02,4.012843420057738558e-02,2.001819312572479248e-01
7.603716118526230305e-01,7.809746536287559548e-01,6.723504275619638371e-01,4.587546390923238904e-02,6.321588008036152506e-02,-6.241839635599841923e-02,1.999407559633255005e-01
7.647866286777785794e-01,5.783616323300839746e-01,7.827095618256720844e-01,7.703452484688534663e-02,-2.113725298775430070e-02,5.321739552502115222e-02,2.570143342018127441e-01
7.286184509624334948e-01,5.918741946680510235e-01,8.171769691945421910e-01,9.182608662714979164e-02,3.695897158825621996e-03,3.126893860010391841e-03,2.530175447463989258e-01
6.995158424371353822e-01,6.668120486087127929e-01,7.782102552853681354e-01,4.239206375168279306e-02,-2.818914232416499729e-02,4.098584024565624095e-02,1.505012214183807373e-01
7.024997311119934862e-01,6.388945021683686276e-01,8.119719279054412597e-01,1.805076595113869198e-01,-1.150932606474175390e-02,2.550180954002995853e-02,3.508422076702117920e-01
7.461193932037291088e-01,6.510028409878232392e-01,8.216498399152161181e-01,5.347052343356309412e-02,-1.462335073268314183e-02,7.761325341406232620e-03,1.770190298557281494e-01
7.088353033356362687e-01,7.046064492810970581e-01,8.266448829316184188e-01,7.728249994126377975e-02,-1.259233047236084369e-02,8.063473114691299681e-03,1.816141307353973389e-01
6.919428686145182583e-01,6.476977086819419860e-01,8.169232921942759518e-01,5.996003002578365049e-02,-1.376383223869655920e-02,1.329295937165562644e-02,1.870603412389755249e-01
8.137370241442932750e-01,7.080256731543677073e-01,7.162042488662200279e-01,2.117698776998214183e-02,-3.294573562397450084e-02,6.564000054337587597e-02,1.670469939708709717e-01
7.973987738580756712e-01,6.859762911195901314e-01,6.553964271103284167e-01,5.768486871238762831e-02,-8.478496040529588662e-02,1.267415763319483246e-01,3.106376826763153076e-01
6.985147966157592148e-01,6.312477182919732366e-01,7.249075126156830917e-01,1.372412820252962018e-01,-9.976327800936972412e-02,9.158237552884887500e-02,3.442708849906921387e-01
7.964016761374556053e-01,6.801965233989871740e-01,6.778243927387184176e-01,6.361674627504744495e-02,-5.538344032611751400e-02,9.471033179822470338e-02,2.490749061107635498e-01
7.496528320286194313e-01,6.703624223474152766e-01,7.392696704821780651e-01,2.916920486595975942e-02,-2.344548580369258672e-02,2.840917434320098384e-02,1.104279756546020508e-01
7.516465016366268292e-01,6.705101414977641117e-01,7.424172951762602057e-01,2.415561759804201944e-02,-2.954201961562864451e-02,2.900034348784085933e-02,1.131865605711936951e-01
7.844036885129287429e-01,6.384168716059899218e-01,7.419268235887453988e-01,4.261950272186054017e-02,-4.429779057353343957e-02,9.020471755275842607e-02,2.294824421405792236e-01
7.726812431496501432e-01,6.696277883051500179e-01,7.133456069809713807e-01,4.005863515426949517e-02,-2.102369968864440525e-02,4.961442528506467692e-02,1.468020230531692505e-01
7.935041879495065009e-01,6.783905504182600188e-01,7.483429674990813574e-01,3.741773218138524232e-02,-4.123977203734242175e-02,5.735275720220978785e-02,1.710626929998397827e-01
6.997504859605205851e-01,6.807962319484751612e-01,7.848345535183808286e-01,3.925849511041665241e-02,5.729209714755102191e-03,-2.668230965390285241e-03,1.181303784251213074e-01
7.277676588839256944e-01,6.133302609986959197e-01,8.006738026740261027e-01,8.651701121876217981e-02,9.484071419465627331e-03,2.381379610825033050e-02,2.262324541807174683e-01
6.946284789957538619e-01,7.137616146257474981e-01,7.904527168364421374e-01,3.346347330579142743e-02,1.039742861397196898e-02,-8.734617936537259278e-03,1.078311428427696228e-01
7.069819031308842705e-01,7.035486051314854272e-01,8.190883602693442844e-01,8.637445581961701591e-02,1.948000172057269205e-02,-1.250125166940656632e-02,1.922327578067779541e-01
6.618451582836482050e-01,7.789331036844688860e-01,8.661432948236689189e-01,1.179704788646269015e-01,1.078541987231543819e-01,-5.012340547168447902e-02,3.401649892330169678e-01
5.943118300619103511e-01,7.841657621098626629e-01,8.322583940842769312e-01,6.458991536987485071e-02,3.553410681218958228e-02,-1.714478936038386220e-02,2.543096840381622314e-01
6.421784204329632484e-01,7.369775039848652787e-01,8.162535451304316902e-01,1.593716738319400639e-01,2.148508628004688198e-02,-8.317176990966930819e-03,3.171390891075134277e-01
7.135386047564001855e-01,7.810768713039200062e-01,6.584247972129861903e-01,-4.067147217817874104e-03,3.701225003676211073e-02,7.148456310882673852e-03,1.250355392694473267e-01
6.688979038666971189e-01,7.409408874311101956e-01,8.708125082071093148e-01,1.662290760887765728e-01,6.390477986758344442e-02,-4.046627125047681794e-02,3.625927567481994629e-01
6.263579045862502914e-01,6.866457517314941139e-01,8.093448830251703807e-01,7.163032801021160245e-02,-5.019000099680011448e-04,-1.127340436520596172e-02,2.046013325452804565e-01
7.762567162702666002e-01,7.008385615378601718e-01,6.874836772389850692e-01,1.471572804041539929e-02,-1.779939243266203189e-02,7.518019324075068954e-02,1.594670712947845459e-01
7.672484120869104141e-01,6.493820712223272729e-01,6.019110419252332589e-01,5.346405654530827362e-02,-5.010795271005274304e-02,1.230876713820162338e-01,2.886183857917785645e-01
8.007074126764716082e-01,7.407213920970352472e-01,5.546258688262883929e-01,1.729474662101217891e-02,-1.132459684311187681e-01,1.631326229200550093e-01,4.106105566024780273e-01
7.159786139835704333e-01,9.109163628765694076e-01,5.774995846415558187e-01,-1.008348021833706601e-02,1.360681607666412163e-01,3.274208730762823150e-02,3.784663081169128418e-01
8.078983552698876247e-01,7.400368933872176758e-01,6.346299600243706651e-01,-4.220123328584720517e-04,-2.296222594581167134e-02,1.842675830846960960e-01,3.554079532623291016e-01
8.280132867928304830e-01,7.091422740048599627e-01,6.919431690231646614e-01,1.308824551827519021e-02,-2.262863782994035608e-02,7.761426137328912567e-02,1.912919133901596069e-01
6.863194682385446166e-01,7.026925457004433717e-01,7.874215648707348914e-01,3.963851459287033585e-02,4.248129247254117148e-03,-4.466734605387412925e-03,1.168845146894454956e-01
6.910643635859541334e-01,6.823838431691300332e-01,7.593922528170050645e-01,-9.918766779272352244e-03,5.472099665280896579e-03,1.906008990745784075e-03,7.571690529584884644e-02
6.676403368988075293e-01,6.177245393243381288e-01,7.703720339972811582e-01,7.226967745827642120e-02,1.271295954729053171e-02,-1.364158088370223676e-02,1.867757439613342285e-01
7.150492418230777192e-01,6.810515700850722220e-01,7.888432326726534383e-01,3.665873330290403409e-02,-5.952662696232624562e-03,9.398160363609055212e-03,1.162457987666130066e-01
7.072282106735952034e-01,7.762959856317575014e-01,6.776750729866789502e-01,7.341644891580616228e-03,6.702928864860607100e-03,-5.484581441180388754e-03,8.984232693910598755e-02
6.829895720184586683e-01,6.239496599123433018e-01,7.741222371691180992e-01,6.688134383179418496e-02,-1.068778046928634852e-02,1.382000328650564297e-02,1.775002628564834595e-01
6.588088126295336133e-01,6.633387930260248311e-01,8.072045424525331470e-01,7.254614044626406244e-02,1.431876273479433005e-02,1.062510138149560558e-02,1.952233910560607910e-01
7.555080885048353068e-01,7.303694958441293572e-01,6.415860071626870997e-01,-2.824366861077161339e-02,-5.855803367960622091e-02,-4.656879411507706262e-02,1.730102598667144775e-01
7.193047419672541354e-01,7.802766956219212569e-01,6.493045494325766498e-01,-3.561375431688708522e-03,1.874580289234820812e-02,1.388594711203005498e-03,1.182527169585227966e-01
7.287211527070486250e-01,7.592460437753534297e-01,6.108235886952041449e-01,-4.520840550506392136e-02,-8.621335544474599544e-02,-5.541275136295544662e-02,2.367947697639465332e-01
7.822235690180030510e-01,7.412825488678200792e-01,6.345169289604524199e-01,-3.004477373137789953e-02,-1.317434629144654742e-02,-6.449548793291125237e-02,1.820821762084960938e-01
7.729053764576595542e-01,7.834315095321834344e-01,5.554913639346585885e-01,-1.320462387277259245e-02,-5.999981810681824512e-02,-4.489805119168560621e-02,2.589183449745178223e-01
7.191201779670681749e-01,7.735108487663662213e-01,6.534753774907535728e-01,-4.272577567044869018e-03,1.986602910310208275e-02,2.010838733741386261e-03,1.099496334791183472e-01
7.814878070729508464e-01,6.458464410958056900e-01,7.323409367504238876e-01,-3.285832239770311927e-03,6.867293521277927082e-03,1.133388751521851277e-02,1.212719529867172241e-01
8.556260869565477378e-01,7.726687435155963346e-01,5.302896499763475324e-01,-3.030910051642543568e-02,-7.416509881339734822e-02,-7.817933581175215418e-02,3.511837124824523926e-01
8.092261432649084929e-01,7.521947619653993611e-01,6.334546157256071286e-01,-1.806744771041250003e-02,-6.201153456231154899e-04,-5.375929572751044633e-02,1.837780028581619263e-01
6.922508630564748744e-01,7.902392921808769621e-01,6.876248345883290147e-01,-6.272817635045185684e-03,-8.895993108647386183e-02,-1.053867926058590226e-02,1.851196140050888062e-01
7.142166102609983636e-01,7.177333494597384345e-01,7.120716604173793485e-01,3.885793412131252102e-03,5.040507111524865358e-03,-2.275383640392140538e-03,1.271070074290037155e-02
6.361276158839689332e-01,7.697742468007714445e-01,7.295869682632043496e-01,4.391605550601896356e-03,-1.178688301668603423e-02,2.434040058894082481e-03,1.208220571279525757e-01
7.115769450696505238e-01,8.269300326995285833e-01,7.030866378553488616e-01,-2.105776721881291724e-02,-8.219483234958602225e-02,-2.114394299581522779e-02,1.931249946355819702e-01
5.989222395640464436e-01,7.982001364156631196e-01,6.087506642584635808e-01,-1.944931205156226126e-02,-1.515905425913637306e-01,-1.885394444560171967e-02,3.301363587379455566e-01
6.596496240337381689e-01,7.931499810410502782e-01,7.809581268347320915e-01,-4.327402656758261995e-02,-4.434741571752014860e-02,-2.332108221023326128e-02,1.717352420091629028e-01
6.655923640984379164e-01,7.554034486262186654e-01,7.292573957730685841e-01,-3.534176972515624265e-02,-3.556743344605114987e-02,-3.953177320856288840e-02,1.364989876747131348e-01
1.091403144514879076e+00,9.921070142205796749e-01,5.197944173479870367e-01,-3.808219139327456010e-02,8.680377283861871740e-02,2.568478573317689029e-01,7.104263901710510254e-01
7.293431286716290929e-01,7.893898827140547469e-01,7.379373057099580802e-01,-3.691877278712657473e-02,-5.628485834039141655e-02,-4.607611881966695161e-02,1.520703434944152832e-01
6.432934116362328814e-01,7.737715175126363976e-01,7.182761241879557224e-01,-4.520075910078791281e-02,-4.848890849736699898e-02,-4.489881562670654247e-02,1.791477054357528687e-01
6.310833541306853922e-01,8.366843291704393337e-01,7.617364923471714455e-01,-1.619558011818494209e-02,-1.548349389038145008e-01,-5.288130699415693331e-02,3.370123803615570068e-01
6.502553764820314663e-01,7.434835263405091821e-01,6.140436245000479021e-01,-5.563295643669479568e-02,-1.192926788557598788e-01,-6.303684297848947959e-02,2.779873609542846680e-01
6.847513454656175558e-01,7.199254019136896998e-01,7.938835183585135624e-01,-3.945217377241106577e-02,5.257333751083098812e-04,4.625422217943871411e-04,1.182341650128364563e-01
6.737730392388415757e-01,6.778655430674757065e-01,7.856150226317486496e-01,-3.228042665454396859e-02,2.563977182494720994e-03,-5.024112679225123911e-03,1.236494630575180054e-01
6.922585178520339610e-01,7.017712070179130679e-01,7.724745967287491855e-01,-7.538692390710562130e-02,-2.266723635618682689e-02,-2.164729061431816884e-02,1.604955792427062988e-01
6.092065743508334741e-01,7.910727797590669796e-01,6.479832590243036483e-01,3.097950880434803891e-02,-1.262618619723938074e-01,3.148492541581855708e-02,2.849667370319366455e-01
7.517762410049715349e-01,7.520194066105175823e-01,6.584317423573544659e-01,4.309315047260759562e-02,-6.348712754854719809e-02,5.056647035033135645e-02,1.845799535512924194e-01
7.128735246129460634e-01,7.504349419902264229e-01,6.532149136335049233e-01,4.455951942854492059e-02,-4.200449083613172485e-02,4.134000771220907450e-02,1.535826921463012695e-01
7.365638158606472308e-01,7.799097484710094674e-01,6.548022265816656473e-01,8.111812317736475514e-03,-6.907259906038704100e-02,3.859867415941086594e-02,1.763176321983337402e-01
6.412735127836132198e-01,7.715175155193674250e-01,6.937833483334548967e-01,1.328215230725816008e-02,-5.459649289281120338e-02,1.796430746746949941e-02,1.527135223150253296e-01
7.030191966962949790e-01,7.757954158333151273e-01,6.789275960403596821e-01,9.535483516646778290e-03,-4.010819649654420033e-02,7.679929328615026952e-03,1.136037036776542664e-01
6.743765772806056269e-01,7.696179350792178298e-01,6.691061414944953212e-01,8.898812979220177902e-03,-3.234980580441304543e-02,7.984182947220766491e-03,1.147562414407730103e-01
6.791858007228825933e-01,7.774758516543318621e-01,7.121668831862633109e-01,8.958699042223518608e-03,-3.182065307465140047e-02,8.574396062765676091e-03,1.049093455076217651e-01
8.217890326623071839e-01,7.406040045901636226e-01,6.653307748269916555e-01,1.599702458231026803e-02,-2.030507317004254936e-02,7.051681988046246130e-02,1.878579109907150269e-01
7.797450062328632470e-01,7.079736920247355902e-01,6.515988252489696153e-01,1.398481814893147782e-03,-6.058744200612677100e-03,2.103186998400944502e-02,1.175515055656433105e-01
7.765006380767602856e-01,7.295658997713621030e-01,6.017996995174337282e-01,1.458201401531404942e-02,-1.424050484524561934e-02,5.272062848785071670e-02,1.846846491098403931e-01
6.551271833439860082e-01,7.598775379749671544e-01,7.064835276920238272e-01,-4.640718401226370977e-03,1.821550233814676553e-02,1.094193701139808093e-02,9.823296964168548584e-02
7.539278170250427458e-01,6.940125250145723346e-01,7.008932019643436817e-01,1.614429680419180758e-03,1.751540837270925766e-03,-3.567536256537059015e-03,5.727244541049003601e-02
7.788139343170044082e-01,7.374715602465121700e-01,6.160625310748562011e-01,6.191169690713470633e-03,-1.330471117968500851e-02,3.311112302651324224e-02,1.593855619430541992e-01
7.598920248720882897e-01,7.302199023653467291e-01,6.114246020354878741e-01,1.779306008740430198e-02,-1.099904836799872263e-02,3.326278342014770545e-02,1.521499902009963989e-01
7.753295868971838978e-01,7.351911404297669650e-01,6.097863237820920768e-01,-1.570282236127654510e-02,-3.372221183701255842e-02,-5.140844862929421638e-02,1.856092661619186401e-01
7.797131351101708185e-01,7.413495763857378407e-01,6.180370435179551869e-01,-6.359027650904684054e-03,-9.868130778849577844e-03,-3.102951280286749339e-02,1.571954041719436646e-01
7.387123073421256736e-01,4.349970760466907449e-01,8.362194805660917440e-01,-2.215716630125721953e-01,-7.273483289909905836e-02,-1.334143961434710868e-01,5.898442864418029785e-01
7.983766150256847993e-01,7.065964045182701048e-01,6.613247898464915675e-01,-6.730243605443194830e-04,-3.291994740365923600e-02,-6.418356139143892303e-02,1.738944500684738159e-01
7.652560885006859381e-01,6.995037840602300605e-01,6.538444510732345227e-01,-1.455896080469572251e-02,-1.546360185193267935e-03,-2.021883678828276937e-02,1.062064692378044128e-01
7.789047484024685941e-01,7.145585387672652722e-01,6.713415243901816876e-01,-4.126021850462983573e-03,-1.369045842744770654e-02,-4.539570557923995608e-02,1.248385533690452576e-01
7.601350607892299882e-01,7.067554404618756614e-01,6.860792854456595480e-01,-9.979317930914078164e-03,3.018606032429595534e-03,7.443403430511029081e-03,6.980603188276290894e-02
7.896832141391463278e-01,6.607564387747377754e-01,7.014903271613324165e-01,1.288544683378856255e-02,3.222570617042336966e-02,-8.424901701912054786e-02,1.947741210460662842e-01
7.828618709148904564e-01,7.028436580145239754e-01,6.922505747147909005e-01,8.448956185395687171e-03,1.003077842029612490e-02,-5.348000361846260570e-02,1.282930374145507812e-01
7.728410118435246057e-01,6.570796322669600897e-01,6.762728087179022962e-01,1.469539357779121869e-02,2.668269835103029720e-03,-3.046402597518365479e-02,1.224770992994308472e-01
7.532126569921258064e-01,6.856149161974904871e-01,7.079495278450764761e-01,2.426748390281505477e-02,2.868559097563602028e-02,-3.338062983293028224e-02,1.055302843451499939e-01
7.508234406897553725e-01,7.107328012259161998e-01,6.776389710017389767e-01,1.386220050240919918e-02,1.980653136076049314e-02,-2.501675035116426513e-02,8.752202242612838745e-02
7.682136026828455533e-01,7.517302373430336804e-01,6.517174018728644214e-01,1.575600548765927408e-02,2.111587930938869581e-02,-3.213827174772715400e-02,1.307815611362457275e-01
7.101089858836449054e-01,6.917679886073544449e-01,7.852372644293007520e-01,-7.049428090045627149e-02,2.037249842890725970e-02,1.481524796782639035e-02,1.554686427116394043e-01
5.466018552744809078e-01,7.274293192174928757e-01,8.129046829586402678e-01,-1.405041703807985154e-01,-1.439494194155494303e-02,-1.470632082329415349e-03,3.395781219005584717e-01
5.361131019584435276e-01,7.828814562514367914e-01,9.146674127172220725e-01,-2.002145722180656562e-01,7.802658380368237417e-03,2.124195201099778746e-02,4.822620451450347900e-01
6.838926678873910037e-01,7.647925537773528903e-01,6.980765009912250907e-01,-1.281890231887102341e-03,9.585627373067394028e-03,6.295018115545749499e-03,7.744654268026351929e-02
6.177912060034062014e-01,6.746987923431543299e-01,7.720290883820192240e-01,-7.462374922754798356e-02,1.121923438781162463e-02,8.264213986871243867e-03,1.885181963443756104e-01
5.806786697037316092e-01,7.569365525890965340e-01,7.936249302818760842e-01,-9.285744551222045728e-02,1.591001039908144024e-02,4.146558622920849292e-03,2.560429275035858154e-01
6.005987603270900310e-01,7.773290802473734606e-01,8.532449965813193593e-01,-8.649142610050856994e-02,3.345787618718323170e-02,2.287575286262915134e-02,2.788977622985839844e-01
7.591589015339805790e-01,6.814356977362769907e-01,7.167659937551678073e-01,-1.978120852300922425e-02,-1.273693784711173518e-02,-2.657110799891999192e-02,9.122385084629058838e-02
9.460263336818917068e-01,7.051476936356847469e-01,1.123442491975168878e+00,-3.370017689918282100e-01,1.209335029045371102e-01,1.978151262519539655e-01,7.963746190071105957e-01
7.555969354994163112e-01,6.733972108659751488e-01,7.080791699860173871e-01,-1.324774778613414979e-02,-1.501321223343893459e-02,-1.474487018423619421e-02,8.344888687133789062e-02
7.655840248652630020e-01,6.819486783613111225e-01,7.514233602541877666e-01,-4.728336930083223283e-02,-3.285963523369555411e-02,-2.083720911282387414e-02,1.313775032758712769e-01
7.511157260439222938e-01,7.076831749881766775e-01,6.993088284905450980e-01,-7.568471694169645603e-03,-1.458741971999238073e-02,-1.623464092914461004e-02,6.261908262968063354e-02
6.655788920442171630e-01,7.722815672755437566e-01,7.033461405473683259e-01,6.263544557094651184e-05,4.020958078993321257e-03,2.517848023788807343e-03,9.407175332307815552e-02
7.683240044657466683e-01,6.319407435183185262e-01,6.779241478101045715e-01,-1.232144125941340117e-02,-1.987542672503450278e-02,-6.434106391003216463e-02,1.688294112682342529e-01
7.469776369263267934e-01,6.380925716343663900e-01,6.889337353012023879e-01,-2.981535108153460928e-02,-2.355636650323950435e-02,-5.049734278454186959e-02,1.445214748382568359e-01
7.567290084405750017e-01,5.871334744061582622e-01,7.207637284778239950e-01,-8.653327284397080432e-02,4.315410458710374625e-02,1.003369795142443482e-01,2.867228090763092041e-01
7.034199909907081771e-01,7.171897025788095403e-01,6.841273522046783517e-01,-4.559341611418204349e-02,5.181000548150090784e-02,6.216551434174698298e-02,1.634326428174972534e-01
7.870749672785778417e-01,6.412254190041510871e-01,6.885309514331924285e-01,-2.731907819026060599e-02,3.240560164684640199e-02,6.148907046904226320e-02,1.825992763042449951e-01
7.430475018497024742e-01,6.469352046844465409e-01,6.835546161430063883e-01,-2.902122204543258407e-02,3.010566928712666429e-02,5.197830346626447495e-02,1.428634226322174072e-01
7.085761958976255492e-01,6.685521272174835827e-01,7.655900606189057767e-01,7.114665947249914843e-03,-7.645573815816066087e-04,7.116065456363942924e-04,8.537892997264862061e-02
8.453900883596080496e-01,6.737444683861231187e-01,7.321766471102082452e-01,-5.474601675856639871e-02,7.284033157525536539e-02,1.555761150761401368e-01,3.469397723674774170e-01
8.307605048340291898e-01,6.342644333560769621e-01,6.698811369168113927e-01,-6.040857835074595061e-02,7.306644022603338284e-02,1.029147910358928913e-01,3.026859462261199951e-01
7.299195223964775048e-01,6.738640168163801958e-01,7.075481137706801649e-01,-8.039561528873218066e-02,6.377152782744015258e-02,1.062425922889654595e-01,2.604647874832153320e-01
7.758154822758761560e-01,7.690578820755052947e-01,5.601309919204051635e-01,4.696690129561571087e-02,8.813549533511545742e-02,-8.936690481723848223e-02,3.146244585514068604e-01
8.185203048304868778e-01,7.975823980767726695e-01,5.402819054891512263e-01,8.373333829791690386e-02,7.797351863720773657e-02,-1.191353991978549992e-01,3.922785222530364990e-01
7.555257757431470544e-01,8.020612244147625747e-01,5.131581391079553800e-01,5.008299908940660496e-03,1.184156942705128640e-01,-3.499727368196466071e-02,3.435153663158416748e-01
7.310929671610988390e-01,7.696628570554799875e-01,6.835886319762968233e-01,-1.638461091765902253e-02,2.613199740374529817e-02,1.659341867914533933e-02,9.621106833219528198e-02
7.295699859975621759e-01,7.723178325727586557e-01,5.905124440065300240e-01,2.060369653024032854e-02,3.983253426900593835e-02,-2.849116406198110366e-02,1.886198818683624268e-01
7.019740975372927849e-01,7.790477639437595192e-01,5.240238398361403149e-01,3.234046679464083751e-02,1.223994658112229628e-01,-4.160213804589060760e-02,3.234142065048217773e-01
7.314015975552984328e-01,7.458117159816072261e-01,6.275489180484399299e-01,2.347164120776713131e-02,3.942193323309029634e-02,-5.082253451594681559e-02,1.629520505666732788e-01
7.781578010531020606e-01,8.229338388705501606e-01,6.011375920671190309e-01,8.312912944504743940e-03,5.495931154688839249e-02,-2.979822206820620031e-02,2.306512594223022461e-01
8.072722867479665831e-01,8.012649518984065189e-01,5.808057842816117811e-01,1.587963990072260162e-02,3.854440237497884503e-02,-5.570416419696993388e-02,2.539390921592712402e-01
7.444347803721818035e-01,7.373198154598752385e-01,6.191672249248654225e-01,2.359462149255216190e-02,3.831379765266124116e-02,-4.228626500514648390e-02,1.621408462524414062e-01
7.491903204229171109e-01,7.663837845849321706e-01,6.528033026012826090e-01,5.328319426887379029e-02,-1.102740359229572031e-01,8.005652881542470178e-02,2.747159004211425781e-01
7.605746046036560015e-01,6.218914759140603543e-01,7.617630749540984514e-01,-8.937653993053778362e-03,1.313011610014610739e-02,6.893956976983472984e-03,1.424733996391296387e-01
7.645781502269314300e-01,6.241722517173009521e-01,7.619173726463093210e-01,8.892100387550868137e-03,-1.048835935045350568e-02,9.635327471275724129e-03,1.421022564172744751e-01
7.161644392938578685e-01,7.655751680628644085e-01,6.827159794687457373e-01,6.115289502823332418e-02,-5.344239632417718128e-02,6.393066514384822263e-02,1.930326968431472778e-01
6.869107595988250825e-01,7.763663953047904576e-01,7.388460319180322200e-01,5.288522946987715689e-02,-6.382223426599463456e-02,6.235202918271945394e-02,1.957738101482391357e-01
7.738937523340037039e-01,7.318337761462397895e-01,6.794038186831506954e-01,8.537052036408157574e-02,-1.605849180706659385e-01,1.226406191737178381e-01,3.886801302433013916e-01
7.366635776860605000e-01,7.225992388803842426e-01,7.396969057229787481e-01,3.095120778496014691e-02,-2.065610530878667084e-02,3.186441167242601291e-02,8.631133288145065308e-02
6.991403143605346981e-01,6.971319713157284603e-01,6.838537769571780833e-01,5.040076122885228660e-02,-4.970818977762624102e-02,5.351986935192167699e-02,1.543812304735183716e-01
7.900022253851228804e-01,6.835025027626969729e-01,7.250814021934873788e-01,8.252021682046305207e-02,-9.410214593753593593e-02,1.919834645647639781e-01,4.076888561248779297e-01
7.472042136071521679e-01,7.274978410119415928e-01,7.215377758110699258e-01,1.580817523143306924e-01,-7.433962701178736809e-02,1.438223597759898387e-01,3.926125168800354004e-01
6.700473639403257131e-01,6.697871975354441343e-01,7.669628854810943697e-01,-3.324066041838316665e-02,2.697493456234379729e-03,2.817811048596370778e-03,1.130414679646492004e-01
6.840601886722641467e-01,6.272386237176180712e-01,7.791019948490344182e-01,-6.734022527936027458e-02,-1.376142326663900477e-03,7.330347443465877596e-04,1.768430620431900024e-01
7.033758302775883209e-01,6.629545580499365265e-01,8.205936224403320711e-01,-9.395018403756977277e-02,-9.122988838372743034e-03,-1.592106948150675064e-02,2.181788682937622070e-01
6.808657193431694177e-01,7.108696728203288684e-01,7.822211857920258193e-01,-3.992073986158541782e-02,9.628517851395098151e-03,1.102267086458321409e-02,1.164290457963943481e-01
7.694362619742637355e-01,6.854572723202455586e-01,7.026824585949803526e-01,-1.220050509242408439e-02,-1.899094205497130206e-03,-2.500004741318929621e-02,9.074694663286209106e-02
7.443462778822480530e-01,7.141294998562371932e-01,6.790564159884298068e-01,-1.280890918216854094e-02,-1.351728022566663773e-02,-4.888021762007442594e-03,6.568869203329086304e-02
7.654964238802919319e-01,7.298371672955100697e-01,6.416173858900130478e-01,-1.687678246986744346e-02,-1.541292944813895185e-02,-1.052617832921053098e-02,1.187422350049018860e-01
7.639746864982476238e-01,7.572750819994180649e-01,6.841304650051396319e-01,-3.106993044910571350e-02,-4.850954516932409755e-02,-6.962432154216997848e-02,1.743079125881195068e-01
7.680008377945096720e-01,7.269953927090021528e-01,6.152094616017790285e-01,-2.307019211900941669e-02,-1.145090037731463263e-02,-2.485095513838221984e-02,1.503467708826065063e-01
7.390394060792853104e-01,7.268903034690762377e-01,6.340904984500342900e-01,-1.848843245719938855e-02,-1.784928512077815083e-02,-2.156688140610995771e-02,1.151672154664993286e-01
7.570062183076573525e-01,6.843013725560828098e-01,7.152637067816787209e-01,4.352703462336633689e-03,-1.168858090645232342e-02,5.370588320876558755e-03,6.742985546588897705e-02
7.123995704571699505e-01,7.869081897688753324e-01,6.815927370919557804e-01,-2.846728671145543413e-03,-3.589930511175180167e-02,9.249941008120076411e-05,1.126347556710243225e-01
7.770538829368216494e-01,7.795028539541566381e-01,6.275711366425424931e-01,-2.613737187296840542e-02,-6.524923409230617977e-02,-5.339972887808903945e-02,2.146942764520645142e-01
7.370650741508574244e-01,7.395403639167297261e-01,6.389516476536277745e-01,-3.771540914445976889e-02,-4.129578136078005529e-02,-4.934231093146257408e-02,1.629803776741027832e-01
7.069408728238707473e-01,7.746530184564557331e-01,6.570752253852331082e-01,1.249804767924387466e-03,4.050385673357743271e-02,5.700743449414690661e-03,1.243860796093940735e-01
6.998076134324308084e-01,7.373180033099319131e-01,6.582198788549011859e-01,-3.074056524676570257e-02,-5.424833571584507935e-02,-2.765603579435128162e-02,1.365822255611419678e-01
7.148193953530612710e-01,7.717854572900340049e-01,6.994852161783959854e-01,-2.181054322549866656e-02,-3.330432111495197633e-02,-2.203206561285935006e-02,1.027845591306686401e-01
7.317363160829445379e-01,7.316658020619695169e-01,6.426635277923152811e-01,-4.473252402545710438e-02,-4.452671670269792159e-02,-4.835308726370373539e-02,1.639897227287292480e-01
7.104259952982664439e-01,7.515295897977932738e-01,7.029011078201207186e-01,-3.158965878020607992e-02,-5.064154376275976227e-02,-3.965049208371268508e-02,1.321337670087814331e-01
6.506529289405349470e-01,8.280092800409446507e-01,7.445438333645005846e-01,8.946914773190896980e-03,1.468535755202915738e-01,-6.175236543078280183e-02,3.162226378917694092e-01
6.331032029452392518e-01,7.455837052289712163e-01,6.946111761167592658e-01,3.528596305388737031e-02,5.675740008279978044e-02,-2.922089236310706703e-02,1.596174538135528564e-01
6.437447395330845312e-01,7.748603186436107126e-01,7.541953071536322550e-01,3.788758848461939305e-02,5.099071013316517492e-02,-2.274593509238174299e-02,1.690193265676498413e-01
5.585042516682752201e-01,7.560306886428026507e-01,7.450168976917365127e-01,5.450485801412371240e-02,7.211000628695805881e-02,-4.075036962190043549e-02,2.577909231185913086e-01
6.715689571455205620e-01,7.786641020304480021e-01,7.689939457433638825e-01,4.666625122455279884e-02,3.639099326921323152e-02,-3.314158825435385702e-02,1.559758931398391724e-01
6.407582466429599943e-01,8.669607485413498571e-01,7.839308346544747730e-01,7.723069756451955703e-02,1.168726872419891677e-01,-5.124281398051859504e-02,3.256207406520843506e-01
5.561538732739279567e-01,7.807491062246664226e-01,6.819375454301849215e-01,3.376542435082672405e-02,1.113282158442008979e-01,-1.988402706455303509e-02,2.824933528900146484e-01
6.511238730648578610e-01,7.796940052256808862e-01,7.921197237870711838e-01,-7.674024042160235148e-02,-5.759049441682058401e-02,-3.479804832103311485e-02,2.225582003593444824e-01
7.001541142832210518e-01,7.104820010090542315e-01,8.282431511905611332e-01,-7.769828586661600700e-02,-2.738898666651462879e-02,-3.291665073174040307e-02,1.969838440418243408e-01
6.127126493953763964e-01,6.726225692730891659e-01,8.628558108291495277e-01,-1.687230081039369223e-01,-4.619405541445383706e-02,-4.322131272215515643e-03,3.781994283199310303e-01
5.170094405743207444e-01,7.562529847173224962e-01,7.641322152407957757e-01,-1.267578302958169978e-01,-7.608072923380092278e-02,-4.972845294291960289e-02,3.635530769824981689e-01
6.399503100545894663e-01,8.642316061442236741e-01,3.485374243401164196e-01,9.894608903989506044e-02,-3.072592196349652749e-01,1.346163755488690994e-01,7.533541321754455566e-01
8.808020003606031878e-01,8.288430258060781597e-01,1.990524111142228936e-01,2.781171496272283501e-03,-1.373095234315681312e-01,1.608279662099745128e-02,6.995856761932373047e-01
7.722390342350031744e-01,8.527915039414361020e-01,5.034758841522987138e-01,5.373416206579709718e-03,-6.277662466621597437e-02,2.737236042626853098e-03,3.351173996925354004e-01
7.845174420542115890e-01,8.369075175708906578e-01,5.889789821720714524e-01,2.002219837733469968e-02,-5.053951561381066909e-02,2.991634851150782454e-02,2.505486905574798584e-01
7.962385274030340243e-01,8.471186936146051227e-01,5.611561929177912855e-01,2.099590898042776738e-02,-1.128444636410402130e-01,6.564478971913730032e-02,3.496646285057067871e-01
8.065756819194197513e-01,9.025944802875048856e-01,5.691183074674337483e-01,6.969987034761093714e-02,-1.594633453089807362e-01,8.902769742113574025e-02,4.506036639213562012e-01
8.100832468035161771e-01,6.176999495259664075e-01,7.628425652271543234e-01,7.399566253856285601e-03,9.031506022091758887e-03,-6.250793055320229274e-02,2.056341022253036499e-01
7.570346120350128771e-01,6.094716571829017493e-01,7.261285478176714436e-01,8.935031656913133835e-02,6.013530408891442497e-02,-1.676375598486151419e-01,3.705073297023773193e-01
7.903104572150208007e-01,6.099303967508236113e-01,7.409803875833014253e-01,3.551547117569599839e-03,-4.983341208930967652e-03,-6.787001411949469820e-02,2.000090479850769043e-01
6.894984989521353302e-01,6.896789864975734208e-01,7.576858674475935862e-01,-1.806602343955498666e-02,-1.153308613497068709e-02,-1.177187158600784093e-02,8.019447326660156250e-02
7.881633585074312442e-01,5.635073469571525440e-01,7.196652606204831937e-01,3.443417728130335198e-02,2.543672412954021619e-02,-9.797079333400467160e-02,2.721522450447082520e-01
7.870556827888746110e-01,6.837863381937446805e-01,7.079454528745553477e-01,4.793491016619873257e-02,1.970342660139945412e-02,-7.007249356063312284e-02,1.775999069213867188e-01
9.007189308028937802e-01,6.438184882477020476e-01,6.243539643673206019e-01,4.024741290665333898e-02,8.134244446251341631e-02,-1.355899854759168299e-01,3.888964056968688965e-01
5.129922016783907690e-01,9.060397270235494016e-01,8.991532265400339341e-01,-3.410779123002734975e-02,2.650944448873192999e-02,3.770299092795258416e-03,3.968223631381988525e-01
5.777828174806732831e-01,8.123800463981444286e-01,8.114150094942420566e-01,3.816236624952162697e-03,1.511615796496020882e-02,4.184787242449002423e-03,2.357798069715499878e-01
4.548735343476896231e-01,7.857051778004549014e-01,7.958877553206687994e-01,-2.360570004438831970e-02,-6.507861822089598854e-03,-6.873272888803846209e-03,3.389136195182800293e-01
5.030777637551762105e-01,8.041775780888297254e-01,8.752981351505300101e-01,-3.530675537778747708e-02,3.165687224611568595e-02,-2.260014536139504787e-02,3.541356921195983887e-01
7.118916726873869560e-01,7.011503256795481587e-01,5.870358256014257536e-01,7.462161413139235810e-02,1.174033869064467356e-01,-1.161580278415610679e-01,3.360016644001007080e-01
7.347475412508781556e-01,7.837502258753521467e-01,6.898919445706419573e-01,5.252453834286890944e-02,6.524481420289079958e-02,-2.921060738535171189e-02,1.738339662551879883e-01
7.465827074703486055e-01,7.397486137175705023e-01,6.393877758639251452e-01,2.789362561582035827e-02,3.295178447226545376e-02,-5.737640559684154679e-02,1.620884239673614502e-01
7.856271215147090370e-01,8.580692578857914699e-01,5.188489994066569633e-01,5.924936641632370243e-02,1.186770205945801432e-01,-9.497456530241762951e-02,4.190334975719451904e-01
7.164938299899276108e-01,8.466638281651046594e-01,5.887006123071200081e-01,6.619606668386089632e-02,1.559795079085983804e-01,-9.418912086823692104e-03,3.692030608654022217e-01
6.861082436881158486e-01,8.032639865596629125e-01,7.101023555287900857e-01,3.161751909512990760e-02,8.586515761365524912e-02,-2.249837445440968850e-02,1.952591836452484131e-01
6.905038869688088221e-01,7.781130808439277180e-01,6.402471565014445920e-01,9.661531678341574864e-03,6.497518477634711687e-02,-1.328060305188288187e-02,1.675665378570556641e-01
8.877357642738550325e-01,4.953589146975185820e-01,8.154060110927985328e-01,-1.037810715290286151e-01,1.396014983893266725e-01,3.356725404599329998e-01,7.480749487876892090e-01
8.510521806970974268e-01,4.754701088459548086e-01,5.415155002946272500e-01,-5.739129524863072207e-02,5.445578970863895751e-02,3.184800894766073309e-01,6.660966277122497559e-01
8.764964794768164147e-01,4.987080180886273584e-01,7.413562956789051528e-01,6.726971376885106102e-02,-4.939200512943746346e-02,2.101060706655366594e-01,5.130892992019653320e-01
9.148191399073086760e-01,4.078931221699123588e-01,6.443201065116419546e-01,9.364368211150596311e-02,-7.604517957452735892e-04,3.309716614884789521e-01,7.402408719062805176e-01
8.221063402809639653e-01,5.469494927220649449e-01,7.364238941494639645e-01,-2.641957686382963300e-02,-2.157920219487391780e-02,1.589193735500510074e-01,3.724697828292846680e-01
9.057132629358172204e-01,6.746410170592771482e-01,7.743622557801925765e-01,4.211408116502526194e-02,-2.413931521265685193e-02,1.461944079608345493e-01,3.338910341262817383e-01
9.056909767827674429e-01,6.720786001193626014e-01,7.425332568086105978e-01,-1.941998826678287271e-02,1.709118368045840081e-02,1.724297832761378380e-01,3.664469122886657715e-01
7.019941041119419634e-01,6.782732813573376651e-01,7.329599898057329588e-01,-3.518165170263579111e-02,-3.220244152431238349e-02,-3.068871446391551253e-02,1.091133803129196167e-01
7.098726570644576794e-01,7.201277746849525929e-01,7.126367312514996222e-01,-3.982450344745833842e-02,-2.918732724287871963e-02,-4.522069303333520196e-02,1.163308545947074890e-01
7.213180114455495229e-01,7.038584024524424665e-01,7.468922407561237042e-01,-2.160996201372028871e-02,-1.666648818661264908e-02,-1.469120278905139930e-02,6.547652930021286011e-02
7.274589845773500318e-01,7.224085238762851802e-01,7.443352896158983434e-01,-5.892071184193892891e-02,-3.081813692236267527e-02,-2.994874446417587072e-02,1.278692930936813354e-01
7.037531130941006019e-01,6.953613893405251600e-01,7.418764093467933307e-01,-1.415532861550795017e-02,-1.921565954295409093e-02,-1.326454890996400099e-02,6.387813389301300049e-02
7.016775749401406026e-01,7.603678382778625844e-01,7.130042531784546167e-01,3.524186819375297458e-02,-6.815354673954321374e-02,2.603182570725245948e-02,1.503387093544006348e-01
7.345434520437950088e-01,7.357214274932439846e-01,7.208853268870419884e-01,3.711841805492080426e-02,-3.988851903275626720e-02,5.045122299338566929e-02,1.294087022542953491e-01
7.196585830623710711e-01,7.855908151703522302e-01,7.369828095733630402e-01,4.613981791612375982e-02,-5.622878588135948874e-02,4.036847530174877269e-02,1.557738184928894043e-01
7.485221806226184382e-01,7.317916758964665425e-01,7.135718782822322304e-01,2.779920565486794157e-02,-3.455487194354720654e-02,5.705102590419657005e-02,1.287698000669479370e-01
7.311250243239130198e-01,6.555599418481803387e-01,6.831835340636115417e-01,6.504471071970260865e-02,-6.916631387909299988e-02,9.664511809876397130e-02,2.438257187604904175e-01
7.518823392472963052e-01,7.870589518078948688e-01,6.379560965303066045e-01,9.512644459810863651e-02,-7.071094497891242114e-02,1.154542930878197649e-01,3.167971670627593994e-01
7.811105857481188686e-01,6.998058616793605413e-01,6.777904312982934165e-01,1.058926039646803513e-01,-7.279726389943798337e-02,7.489828579860680069e-02,2.743217349052429199e-01
5.797963979564184633e-01,7.112699442263514804e-01,7.617711311403245755e-01,-1.196410441834392102e-01,6.962658450270266253e-02,3.723078396660965683e-02,2.968486845493316650e-01
6.068842233989365509e-01,8.013142816009126701e-01,8.512752558337308706e-01,-5.505906788506034766e-02,8.656864660085568028e-03,1.385111631410351762e-02,2.447610050439834595e-01
5.586099809136344518e-01,7.885596665535415939e-01,8.451672885349073017e-01,-5.909382582343065959e-02,2.426590645887404321e-02,8.189579204040037252e-03,2.855558395385742188e-01
5.755190357834222281e-01,7.404443657233811260e-01,8.717234562589591951e-01,-1.223252040052612705e-01,7.405319723290287870e-02,7.212780722056298666e-02,3.781997859477996826e-01
5.195051142197815164e-01,7.187936171477573577e-01,8.074630408219340971e-01,-1.269077233063209964e-01,1.422058983305948647e-02,7.595627030260043364e-03,3.381500244140625000e-01
7.097038822127886837e-01,6.797556817289022169e-01,7.638490026227297003e-01,-3.498975322660121540e-02,-9.577661734452397671e-03,-6.289545046158508124e-03,9.755437821149826050e-02
5.972071437103323444e-01,7.325051811827513193e-01,8.175343411602399302e-01,-7.305164753487541907e-02,3.854521036786987161e-03,1.433978762587410916e-02,2.317560911178588867e-01
6.142319942466673011e-01,6.857616185456902880e-01,7.730655314148063839e-01,6.482895980265020175e-02,-6.584873211998095929e-03,6.345007785501204610e-03,1.784447133541107178e-01
5.786132654466999981e-01,1.096694738763554389e+00,9.059210611050154682e-01,-6.621201504937422599e-02,-3.323942114954171467e-01,-6.695479490470512829e-02,7.510161995887756348e-01
6.722736981093617725e-01,7.332944568626669213e-01,7.334164694933077433e-01,7.139973065136303448e-03,-6.509286180959256672e-03,1.521711126927687528e-02,6.859828531742095947e-02
6.680021947490087930e-01,7.141506092864279287e-01,7.872251572772270833e-01,3.954000223540866249e-02,-7.651018702064927126e-04,3.189187205426095417e-03,1.247571408748626709e-01
6.896059974489852085e-01,7.138226001197988113e-01,7.765161933627394708e-01,6.839965800633338033e-02,1.552692874349497799e-02,-2.338861251463150021e-02,1.497832834720611572e-01
6.969898134077545659e-01,6.961551420742685403e-01,7.744677655850976672e-01,1.441870691354498434e-02,1.793020187943636119e-03,-1.772874094693348019e-03,8.192051202058792114e-02
6.824412424217692896e-01,6.781870384019093034e-01,7.684486032136560452e-01,2.460783531361309881e-02,4.360794774177013597e-03,-4.808977702146636710e-03,9.861198067665100098e-02
7.056350185056609048e-01,6.766044801728448022e-01,7.734468301570575077e-01,5.538723700251316738e-03,7.253756083138798456e-04,8.739426519368094981e-04,8.663561195135116577e-02
6.812900126559737757e-01,6.817223166398395096e-01,7.673589478142697207e-01,2.488530072328975010e-02,8.866191572366044146e-03,-1.263410946509993006e-02,9.971642494201660156e-02
6.911935152019711426e-01,7.092363531004142185e-01,7.735163037573582479e-01,3.362299480760673476e-02,8.288334547926178020e-03,-1.331682809519432395e-02,9.872623533010482788e-02
6.890982269486529699e-01,7.390860698172343479e-01,6.969509597181853255e-01,7.362977102628692587e-03,7.799116687206746404e-03,-9.685296303600852280e-03,5.286248773336410522e-02
7.730348270681806078e-01,9.244227445111821151e-01,5.712128890755335808e-01,-2.736714574434218408e-03,-1.521332925060159547e-01,-1.564908249647409266e-02,4.054560065269470215e-01
8.195016433601989281e-01,7.253556021294121914e-01,5.552799437154402051e-01,-5.677319401466561499e-03,1.288537280090909336e-02,1.002196502542292700e-01,2.907367944717407227e-01
8.161165519530142465e-01,7.472545559617983502e-01,6.147460410152431054e-01,3.954808242091831932e-02,-3.103060309907733350e-02,8.750182379882238959e-02,2.489494681358337402e-01
7.904362045491671873e-01,7.482510694915408545e-01,6.445501890320866067e-01,1.188865051561245438e-02,4.471022661378392000e-03,7.282420333934705448e-02,1.824888437986373901e-01
7.788206120900078577e-01,7.739856547185862690e-01,5.660979080654038320e-01,1.410454611872258290e-02,-3.381057231745736302e-02,5.912447230704871021e-02,2.424029856920242310e-01
8.240566686992010226e-01,7.811304804715323291e-01,5.377721161041031372e-01,-6.583068314549586110e-03,-4.955932930601613523e-02,8.051098127486168432e-02,3.137783408164978027e-01
5.233980260309869514e-01,9.350073961336047290e-01,8.606205025926048080e-01,1.322865411818945243e-02,1.182682585845142159e-01,-4.690265962404868011e-02,4.398000240325927734e-01
5.775377782252313352e-01,8.040612475081809762e-01,7.843638065501937762e-01,2.837103165701735860e-02,4.032559277295784395e-02,-2.427694757502061804e-02,2.372767478227615356e-01
5.803943177479482518e-01,8.305210115525563097e-01,8.060594064271027204e-01,-9.221499439424326108e-03,8.698347210252219130e-02,3.168305254589889874e-02,2.881113588809967041e-01
5.655010150071223540e-01,8.397776195523113385e-01,7.468443257971228988e-01,-2.411387100574417450e-02,5.400159253063864517e-02,-5.661581507926849617e-03,2.626098692417144775e-01
5.396826420228676424e-01,7.946032942166898483e-01,7.830159755618000261e-01,4.721600020782147980e-03,4.936705518992218905e-02,7.126021723336597178e-04,2.637132406234741211e-01
7.007218491563231844e-01,7.375987717097497454e-01,6.956158172652950888e-01,2.106522245036699693e-03,2.808758908055875893e-03,-1.955531108108056731e-03,4.028306901454925537e-02
5.786193394760096309e-01,8.594329444377661886e-01,8.261668933844360518e-01,3.453354712005382576e-02,8.832015121285421988e-02,-3.139570288160512673e-02,3.171079754829406738e-01
7.130280751475126522e-01,7.142655593993241236e-01,7.185362710369798123e-01,-2.597291840184761226e-04,-8.666584150311029862e-04,-2.597521307491978699e-03,6.910304073244333267e-03
8.177372176651673819e-01,5.546425929576859204e-01,9.006965468268470776e-01,1.415651404321909834e-01,2.001258542967243939e-02,-5.624399578864339166e-02,4.107808768749237061e-01
7.392118094634908543e-01,6.624315067134705082e-01,8.175706862345053505e-01,8.324277891397727225e-02,1.604608201524844457e-02,-1.331501941097058307e-02,2.003600001335144043e-01
7.870724198219195555e-01,5.225871360216343131e-01,8.127975684695436520e-01,8.514301691000200623e-02,9.810015485419073047e-03,-3.159677230122576435e-03,3.154121637344360352e-01
7.492375287855677080e-01,6.190493498813659512e-01,8.033329892650626913e-01,5.715758827209526521e-02,2.167212434741829646e-02,-4.846335516923291897e-02,2.125416994094848633e-01
6.811980129086104840e-01,7.149221036580183375e-01,7.592289961150587851e-01,-2.394772978851825510e-02,2.303827347811235327e-02,1.951988005135076726e-02,9.513395279645919800e-02
6.944791574658155664e-01,7.205337671974005875e-01,7.195556410611730902e-01,-4.286150874117468368e-02,3.913112417948902411e-02,2.740320892395385968e-02,1.140709593892097473e-01
7.043911322815706866e-01,7.171166687152024100e-01,7.193512543562403661e-01,-2.352540225897545995e-02,3.097743940988365724e-02,1.288901043631248550e-02,7.233870029449462891e-02
6.880421591077227061e-01,7.165665922302441038e-01,7.174337533634836950e-01,-2.923045904211954080e-02,3.376357408818705247e-02,2.841141174378918402e-02,9.614547342061996460e-02
6.624983498874948973e-01,7.202963823538587329e-01,7.615280911972963640e-01,-3.567612353985163270e-02,2.694093784816019993e-02,3.101854673152111552e-02,1.276950538158416748e-01
6.609542073242546945e-01,7.133026312339896258e-01,7.325333594712915009e-01,-3.499066882208003160e-02,2.932797073887608366e-02,2.488068953518327367e-02,1.105778142809867859e-01
7.174250442498548708e-01,7.593559104795315484e-01,6.837750716946208174e-01,-1.884525783942974167e-02,2.767336545368886611e-02,1.493384058464592573e-02,9.128759801387786865e-02
6.978172478782749266e-01,7.309722965873053369e-01,7.037258492046425395e-01,-1.910483052342823798e-02,1.759252628594969170e-02,2.025099071608390741e-02,6.474605202674865723e-02
7.221105516230362786e-01,7.362541403604487833e-01,6.907085616917915116e-01,-5.938034370040169707e-02,5.375686507208738557e-02,5.819573762158179037e-02,1.761759668588638306e-01
7.995743162032532547e-01,8.339794821548481840e-01,3.316432911309052933e-01,5.933855064888041153e-03,-2.435137811953280440e-01,1.477647925673576841e-02,6.441273093223571777e-01
7.070450322389747466e-01,7.471312189909194990e-01,6.645540392875555202e-01,-2.345078158997397633e-02,3.531577831036170068e-02,2.323893843638123735e-02,1.101238578557968140e-01
7.017426170765176385e-01,7.847432134412672955e-01,6.793743400470599880e-01,-2.433881327224440838e-02,7.245097135155781354e-02,4.008936599363430164e-02,1.777415424585342407e-01
6.658801803472398362e-01,7.735996922391358277e-01,7.060764669882404476e-01,-5.192390540982348701e-02,8.743571689732278218e-02,2.898108675027091102e-02,2.059910446405410767e-01
7.611590227024621624e-01,6.287662482085678572e-01,8.092485729980734011e-01,6.197788369697553035e-02,-5.420723240655287919e-03,6.004343602003902984e-03,1.947491765022277832e-01
8.189986543147019793e-01,8.077847344190004497e-01,5.561376221802220021e-01,5.939533450410090397e-04,-1.517200214626959233e-02,-7.603948373581219909e-03,2.591120600700378418e-01
6.329458674116142936e-01,5.931802694074719273e-01,8.389228454021120385e-01,1.570192117022690959e-01,-5.222207871071534585e-02,6.942034644021598255e-02,3.857495486736297607e-01
7.061903016327152338e-01,7.929304776350764028e-01,6.500072398270874130e-01,1.480360514362176472e-02,6.103189707109227258e-02,-3.536723449826194299e-02,1.764606535434722900e-01
7.821710409843841694e-01,7.983506747577601148e-01,5.828943487912497945e-01,6.317079669899403928e-03,6.332147770244209162e-02,-1.465258665800875382e-02,2.366217374801635742e-01
6.984073058929901601e-01,7.833905150861969480e-01,6.631444872597244133e-01,4.821830270307665180e-03,8.677167043054502538e-02,-2.483131275223801615e-02,1.896572113037109375e-01
7.090158179418848405e-01,8.414531722361916488e-01,6.822156964512442467e-01,1.227246728854033964e-02,9.271384351986255989e-02,-4.245214935593248466e-03,2.193187475204467773e-01
7.349697552496684549e-01,8.026940195151431867e-01,5.669821123822802456e-01,-2.074469485656504561e-02,9.335429010983321840e-02,2.244581517701542406e-02,2.704270780086517334e-01
8.085328607545968493e-01,8.366873707378945646e-01,5.077549610285905235e-01,-1.122121437546755654e-02,8.574996266327282457e-02,2.815339016915338263e-02,3.529065549373626709e-01
6.911437937954217903e-01,8.959278889508024424e-01,6.116593241482128906e-01,2.957210798930568971e-02,1.346733873198940612e-01,3.091088961393169583e-03,3.487039208412170410e-01
6.494300431649787653e-01,7.554752337979633303e-01,8.058291914449637883e-01,-5.827012430055048681e-02,-1.909809102594295718e-02,-1.222032440096897793e-02,1.756398081779479980e-01
7.063440449272254673e-01,6.942624250493879545e-01,8.048050271674493938e-01,-7.385895464729586024e-02,-2.774677296113983727e-02,-3.326215853904710557e-02,1.817258894443511963e-01
6.836744281125299860e-01,6.631460577139874912e-01,7.846363911580970241e-01,-1.742513110392757414e-01,-2.717575021106011929e-02,-5.582764822416187017e-02,3.396227657794952393e-01
7.037809151141909414e-01,7.192132802740112130e-01,8.087298818624967245e-01,-7.501698534263256946e-02,-2.670408002282159687e-02,-1.691138012741259800e-02,1.717928498983383179e-01
6.731910134927059364e-01,6.900163548696189864e-01,7.387175192402032353e-01,-6.517925634127437473e-02,-5.438255750722030546e-02,-4.067965298981409544e-02,1.733672618865966797e-01
6.771657425677781728e-01,6.871411986305424602e-01,7.441358606419919974e-01,-7.153053619081527204e-02,-4.506194580697278629e-02,-3.988382585671100544e-02,1.735805273056030273e-01
6.941418541310494517e-01,6.235280422349918084e-01,8.106295611810887536e-01,6.166568020914137832e-02,-1.774204336122358608e-03,6.201092997370321594e-04,1.954479515552520752e-01
6.780488685670575943e-01,7.198196483802612455e-01,7.912669034701066417e-01,3.597535382390094211e-02,-5.935376372485538961e-03,7.100813683277425181e-03,1.182097494602203369e-01
6.728169824745386940e-01,6.756794321882629850e-01,7.850988430956207242e-01,3.010301370316429553e-02,2.642486959928996414e-03,6.372949092256928807e-03,1.231071650981903076e-01
7.145093016238915906e-01,7.159564337411239432e-01,7.164293299487725086e-01,-4.177018454468442920e-04,2.065673238739362989e-04,7.620621582896682476e-04,2.322889631614089012e-03
6.674921545111325294e-01,6.730429690228504347e-01,7.606222515655506333e-01,3.438613662552663514e-02,-6.761850234702509836e-03,8.699130935518913435e-03,1.099931374192237854e-01
7.600065812255785147e-01,7.349252015895240131e-01,6.591800797758292640e-01,-1.175758123597704305e-02,-5.400696083164718136e-03,-9.041829190355026372e-03,9.494040161371231079e-02
7.228168551258320473e-01,6.702859228436397476e-01,8.079330041539906082e-01,-9.974342105610507769e-02,-8.185318179752777701e-02,-1.107072544665390346e-01,3.181035220623016357e-01
6.245248752480990762e-01,7.965283410621063487e-01,7.737773953093535217e-01,-1.083710072596294621e-01,-7.387196770160567305e-02,-2.818685581765163414e-02,2.831555902957916260e-01
6.366270572963034224e-01,6.698259646505145826e-01,7.676107635138794683e-01,-1.193106934814474884e-01,-6.392100781774069651e-02,-5.104307744506219463e-02,2.769284844398498535e-01
7.156746589978801865e-01,6.323676473900782247e-01,8.239343321558066924e-01,-1.417964250909776736e-01,-8.480958588747414262e-02,-4.847438608045111924e-02,3.415040075778961182e-01
7.124777326849722758e-01,7.874362509646639641e-01,6.664473637052107380e-01,-1.950006732838689043e-03,-3.996971937424521892e-02,1.904254459936880221e-03,1.265028268098831177e-01
6.767020513859051123e-01,7.474092259544153904e-01,7.516020175880510079e-01,-7.885794565956462387e-02,-5.552931685687748087e-02,-5.877146604551698739e-02,2.087631225585937500e-01
6.562861531573669360e-01,6.923731149814079666e-01,7.567373536429672365e-01,-5.903475889778708741e-02,-3.734174509779842471e-02,-3.019708174893842925e-02,1.585618257522583008e-01
7.167234488989380203e-01,7.544019782936391971e-01,7.464997237131947294e-01,-7.030171608741049571e-02,-6.709477826129106592e-02,-6.567533290368358923e-02,2.060491293668746948e-01
6.970631524975121618e-01,7.391220694746345465e-01,7.082002875679682674e-01,3.643025924069558975e-03,5.122269389148819546e-03,-2.967739479250795353e-04,3.928567841649055481e-02
7.330402441899822596e-01,7.319227575048524725e-01,7.205791647993720073e-01,-2.561367773580978946e-02,-2.339277315805029719e-02,-2.959415486268739473e-02,7.987421751022338867e-02
7.445753814957041250e-01,6.882329175804551280e-01,7.143918856997280020e-01,-2.452104654274990872e-02,-3.318920306564698830e-02,-3.473006374047855199e-02,1.054127663373947144e-01
7.010748109405926520e-01,7.211076401208806885e-01,7.082827122154186084e-01,-1.848507935547072378e-02,-3.283525349010311956e-02,-2.312385811920703027e-02,7.856569439172744751e-02
7.314061140208778511e-01,6.808054358743338419e-01,6.930138171161760452e-01,-2.115576511440204338e-02,-2.169959505729629479e-02,-2.322968820776574045e-02,8.041077107191085815e-02
7.380290875194931433e-01,7.257221054461078236e-01,6.921477371901985087e-01,-1.549981075995183165e-02,-2.442111050248851195e-02,-1.602593117736479666e-02,7.051450014114379883e-02
5.848608008732552044e-01,1.014850136511538103e+00,9.222320080786675645e-01,2.390573061327978255e-01,2.686766537206680128e-01,-1.401416073867203793e-01,7.749643921852111816e-01
6.965625345746558894e-01,7.351000420985650541e-01,7.058059117944230909e-01,-5.426895280146400158e-02,-7.990681014655927339e-02,-4.546740357580132674e-02,1.881671398878097534e-01
7.014555072408943381e-01,8.085520303481530391e-01,6.202233288332659189e-01,-2.292106465314789829e-02,-5.821189232999124386e-02,-1.833517855630625859e-02,1.987927407026290894e-01
7.474040695342516472e-01,7.810441284141076412e-01,6.177655498982962401e-01,-1.206049051909607525e-02,-4.572069488255293968e-02,-2.760128681824973451e-02,1.768950372934341431e-01
7.858355667105505482e-01,7.964659668684471727e-01,6.367529623512887538e-01,-3.354692596736628951e-02,-5.775447527955428206e-02,-6.194634196376570118e-02,2.209488898515701294e-01
7.993964419228930529e-01,6.971031229085435932e-01,7.105768216371125545e-01,-1.740973318777523648e-02,2.813362359833082235e-02,7.882019569736466169e-02,1.766036897897720337e-01
7.802868892051426641e-01,6.278480894853840644e-01,6.915122735682354138e-01,-5.059339537781163722e-03,3.913789731896656979e-03,6.008808106719933095e-02,1.689387410879135132e-01
7.740715483073441483e-01,6.681812439587152541e-01,6.103439136516211061e-01,-3.639295950271400487e-03,3.765283704639785668e-03,7.418916142557295534e-02,1.930717080831527710e-01
8.067955437837618371e-01,8.068245405750282817e-01,5.831888245621144051e-01,-6.392840086910081022e-03,-2.073996916972224366e-02,-4.067786927679604460e-03,2.268680930137634277e-01
7.248102457229967932e-01,7.035081801421922965e-01,7.105347735918228214e-01,-9.365593519664882488e-03,-6.377895029792942164e-03,-7.854212252471886452e-03,3.039262443780899048e-02
7.729809120371626818e-01,6.662444647130844055e-01,7.180120572448431826e-01,-3.485176874642946510e-02,-4.977623178704425333e-02,-4.767172211816206318e-02,1.626093536615371704e-01
7.580181562734779055e-01,5.835450533683627095e-01,6.677122734541099947e-01,-6.913691700691021458e-02,-5.310552312484028564e-02,-1.320554959596066391e-01,3.129798173904418945e-01
7.708077924034359985e-01,8.041000522937191697e-01,6.007352008917083985e-01,-4.440373009092161982e-03,-1.768599376358028635e-02,-3.683507682290759408e-03,1.916595995426177979e-01
7.896488027866399584e-01,6.867293816637110027e-01,6.767154357835976075e-01,-1.050830133540847124e-02,-2.042015608417995995e-02,-2.963749993856330464e-02,1.262564063072204590e-01
8.316653959408089047e-01,5.613748661019227759e-01,8.271921905657132479e-01,-3.695275190472750021e-02,2.647615619663196140e-02,3.315713829106089333e-02,2.852465212345123291e-01
8.036273503055971767e-01,5.721132040612121328e-01,7.862931302694883273e-01,-5.232318158705213246e-02,1.926366897262659153e-02,4.245287890613708842e-02,2.542032897472381592e-01
7.698135509442285418e-01,4.873071710656824429e-01,8.222805854961486860e-01,-1.239467814766941206e-01,2.450372545924259585e-02,7.236714464684219916e-02,4.012301564216613770e-01
7.872565620524299979e-01,5.491664499473711825e-01,8.554455158899579859e-01,-1.054646385832396366e-01,5.157901356142739063e-02,1.151642330754512472e-01,3.983838558197021484e-01
7.561271461773411140e-01,5.970372527913273553e-01,7.734026728447757071e-01,-7.226905384955671641e-02,2.324682322261166847e-02,2.972652405176177265e-02,2.197659909725189209e-01
6.773359538069003705e-01,7.904834920036467594e-01,7.182532541298430884e-01,1.612344341973797300e-03,3.670732400958521408e-02,-7.249535409663199724e-03,1.185523048043251038e-01
7.132906047329559129e-01,7.655639233333293436e-01,6.724930580746566466e-01,1.259786787393273912e-02,4.364307680585999966e-02,-1.035229174860149634e-02,1.141987144947052002e-01
7.083391514998211846e-01,8.067923135924049971e-01,6.905358725924748420e-01,1.114421228994083406e-02,8.168960381010953453e-02,-1.447186518474007089e-02,1.810614019632339478e-01
7.722069743729752522e-01,7.922520899083815848e-01,5.722707577144430235e-01,1.250565416240560952e-02,-2.811706754588662316e-02,1.437007644529113455e-02,2.187336832284927368e-01
8.258508405801202601e-01,7.833176773893257838e-01,5.588886459287071284e-01,2.317714483964364997e-02,4.360669645628340724e-02,-5.159454181767049452e-02,2.775343060493469238e-01
8.524264796476068717e-01,8.491606322155087483e-01,4.858834074960790561e-01,3.826045644673828350e-02,7.748149067644545529e-02,-4.163159247680768560e-02,4.009597301483154297e-01
8.344109822360276096e-01,8.431916151708559459e-01,5.558065834082064338e-01,1.577221342324900549e-02,5.334699181041600846e-02,-8.517584655549620409e-02,3.334555327892303467e-01
7.291568302018774927e-01,6.480168022282232210e-01,7.299678026289708743e-01,3.297872998780757015e-02,3.462031836051233241e-02,-4.305676682217645518e-02,1.380952894687652588e-01
7.187337494195624732e-01,7.309222914706884344e-01,7.299888545136643536e-01,1.304884100722137133e-02,2.498161975768391913e-02,-1.990274030927648846e-02,6.090543791651725769e-02
7.134058284852276000e-01,6.896995630251273601e-01,7.440321073735244317e-01,2.590283740723978503e-02,1.642288006593344701e-02,-1.941837965985638084e-02,7.860798388719558716e-02
7.342909947905772450e-01,6.984890299922200674e-01,7.143988844340857236e-01,1.630276998642764957e-02,2.007037516618328035e-02,-1.593025472804913273e-02,6.109353527426719666e-02
7.296643594420544332e-01,6.972048936314971801e-01,7.135350664025219558e-01,1.758630931650060486e-02,6.890606326399940570e-03,-1.390090306731083143e-02,4.939842224121093750e-02
7.351045367130926156e-01,6.653090978770378472e-01,7.068881388857870540e-01,-1.019315436267480800e-02,-1.537042643946126379e-02,-1.333943649423668942e-02,7.247389853000640869e-02
7.087143549355297001e-01,7.152202189009514433e-01,7.219605986489429084e-01,2.472489689824652719e-03,-2.462913082028122310e-03,6.272975128349081442e-03,1.691741868853569031e-02
7.345878116025553739e-01,7.198646965118361551e-01,7.131445731798048415e-01,3.729439459356390096e-02,5.024566814855697949e-02,-4.370567564001980043e-02,1.335587054491043091e-01
7.217632914014346923e-01,7.157458505568842222e-01,7.343357843203069946e-01,2.767432440161982088e-02,2.383435058666149783e-02,-3.462776506682422456e-02,8.870744705200195312e-02
7.979360427383936916e-01,5.484703698622416246e-01,7.715034705332654008e-01,7.306462668261200222e-02,6.472639719880413089e-02,-1.400996788800608905e-01,3.792167901992797852e-01
7.731076002964836213e-01,6.325906809540398079e-01,7.487946980175982370e-01,1.592898612874614137e-02,4.202966701323703619e-02,-5.063973739991366879e-02,1.751387268304824829e-01
6.996886310286030142e-01,7.312229627879490712e-01,6.689584966416682876e-01,-2.924811245283962663e-02,-3.682726261327574913e-02,-3.041923167449982549e-02,1.109905242919921875e-01
7.322821351747034191e-01,7.431319516958064808e-01,6.583614296375853714e-01,-6.255288761484273374e-02,8.482994026502339857e-02,8.592283750630290429e-02,2.487150281667709351e-01
7.379684215730630825e-01,7.483140811820744309e-01,6.580751456691057433e-01,-2.288144182527163464e-02,4.154274479262353575e-02,2.836580760945185686e-02,1.283684372901916504e-01
7.373080302761851890e-01,7.646099111713855478e-01,5.766875445504141551e-01,-1.550512961820458939e-02,5.271267172489359915e-02,2.880980223637917906e-02,2.060987502336502075e-01
6.885633696251385327e-01,7.592643520141164615e-01,6.809269887980908820e-01,-2.996520110764128858e-02,4.137381836031922555e-02,1.842737060629041218e-02,1.201859638094902039e-01
7.232142826737421037e-01,8.105691547373171657e-01,6.598260415873706819e-01,-1.416225768816044457e-02,3.816573446856297985e-02,-7.242180077964312495e-04,1.488602310419082642e-01
7.319551340102438131e-01,7.641614622660573009e-01,6.298744220360682489e-01,-2.748577718576195733e-02,5.086318343017719873e-02,5.390080641279802048e-02,1.829995810985565186e-01
7.502807016478854063e-01,7.741914665095630532e-01,6.687130592590589950e-01,-3.428989398033360780e-02,7.405607976745315346e-02,4.788972252895250942e-02,1.898313015699386597e-01
6.960702376028292671e-01,7.471217015281019780e-01,6.315362077009540887e-01,-2.936922916445142140e-02,5.411266674202994814e-02,3.925263908612116465e-02,1.614309698343276978e-01
7.647842009787887418e-01,7.862382139471341125e-01,5.876964902127272961e-01,-3.195522707189928785e-02,4.214459543898906035e-02,3.882696537022419653e-02,2.203045189380645752e-01
8.215491467175519702e-01,6.343214251578501717e-01,6.873474673511554833e-01,-2.406609509882724676e-03,-1.692222473028744166e-03,6.045789621078532378e-02,1.973055303096771240e-01
7.718161430177946647e-01,6.681178125390925260e-01,6.096444773018913077e-01,-4.546867180183755512e-03,4.528510138648277235e-03,7.437913198859592845e-02,1.922404021024703979e-01
7.674148910910409960e-01,7.008628452139816778e-01,6.928955733588971766e-01,6.538913851742531903e-03,-6.144721531323507450e-03,1.157008033500705677e-02,7.527307420969009399e-02
7.804786237741245802e-01,7.044475824112357287e-01,6.485372829421032215e-01,4.422444581776235027e-03,8.109312938843593176e-04,1.858181108359243175e-02,1.193905249238014221e-01
7.139316370282025037e-01,7.151040468333303979e-01,7.139702379767483009e-01,7.240137626835584745e-04,7.407710099102145620e-05,-5.338746605226070332e-04,1.942908973433077335e-03
7.905212648779951223e-01,7.022258158316464494e-01,6.555072229067142597e-01,3.188570540593528568e-02,-1.168886525048751582e-02,5.935782642180768842e-02,1.677312999963760376e-01
7.746177737474706504e-01,6.335424605693649180e-01,6.780334599658136563e-01,7.974363574260753471e-03,-8.705801221469992510e-03,6.293477104648070863e-02,1.670497357845306396e-01
7.747100126154093935e-01,6.835895150995839886e-01,7.097442729490840430e-01,3.661334687930966995e-03,2.758033679179913711e-03,3.244402471689681461e-02,9.911943227052688599e-02
7.875774691716959097e-01,7.155492268543537371e-01,6.832305013370679747e-01,4.127786351016400450e-03,-5.603884061239678208e-03,3.461723987116675089e-02,1.109090372920036316e-01
7.677199928909015370e-01,7.110669005022186573e-01,6.871195357429722428e-01,6.051885340022535205e-03,-1.184303845582142245e-02,2.981492032215340635e-02,9.130815416574478149e-02
8.559031532980772017e-01,7.893729876715041005e-01,4.852946562334172764e-01,1.306352933497268061e-02,-1.589863023050903587e-02,4.212702323985315078e-02,3.517308533191680908e-01
7.943413546327531272e-01,7.951364560194770226e-01,4.985973688915976698e-01,1.250925684408391459e-03,-2.257047853364076845e-02,1.012490974646063080e-02,2.992336750030517578e-01
7.822279771357192324e-01,8.050811948893608072e-01,4.595441552560576848e-01,-3.857476640858248720e-03,4.782552849372836284e-02,3.781563709272768581e-02,3.510242700576782227e-01
8.024375826888933139e-01,8.123788723761041775e-01,5.730954892443675952e-01,2.555018681300313520e-03,4.951610293759890931e-03,2.664817989497229173e-02,2.391654253005981445e-01
7.190915488646116849e-01,7.244616080364725264e-01,7.069885201487410287e-01,2.430742892927742829e-02,-3.002816784682613149e-02,3.244502688478204111e-02,8.874671906232833862e-02
6.946625797402292690e-01,6.932306123602317571e-01,7.528108944971056982e-01,-1.348158497206606091e-03,1.190429400650052424e-03,2.510188216822863486e-03,5.911979824304580688e-02
7.070794495579022509e-01,6.950491296886565085e-01,7.309013150233473199e-01,3.170706628171751640e-02,-2.755106674347735166e-02,2.690220454247364487e-02,9.199553728103637695e-02
7.398035272477275770e-01,6.806030411895993559e-01,6.996019619376214749e-01,1.897894152299398063e-02,-1.983125979744783732e-02,2.135068098760564692e-02,7.980541139841079712e-02
7.407654481033977278e-01,6.848335074160797342e-01,7.046086536189011262e-01,1.926565578031980142e-02,-2.373653652988003127e-02,3.526908573796636720e-02,9.459844976663589478e-02
7.564591827994111561e-01,7.162710008457954247e-01,7.005867363740565512e-01,4.232345158911349908e-02,-5.161173233166919949e-02,6.818292621101276763e-02,1.726362556219100952e-01
7.391369540177898934e-01,7.086648179019212623e-01,6.776117451347303255e-01,2.978273786079565361e-02,-2.978677557625449349e-02,3.674846741714179327e-02,1.105135157704353333e-01
7.235836627407907784e-01,7.055604169617515353e-01,7.061477222917430518e-01,1.152999924908887364e-02,-1.181464629776810341e-02,8.931998124236430192e-03,3.703402727842330933e-02
7.251752205891154324e-01,7.206000995781344232e-01,7.098117592896477923e-01,1.279247422106119872e-02,-1.302647048398602493e-02,1.484422261825752570e-02,4.298534244298934937e-02
7.511617031034698577e-01,7.160785081441113364e-01,6.550664743158993719e-01,-4.022927265202390357e-02,3.825353168225114481e-02,3.980724837259968368e-02,1.452337056398391724e-01
6.788460244432079627e-01,7.606068320136339933e-01,6.860437320099761482e-01,4.544139783202430852e-03,-2.173085387653225092e-02,4.166925532084238791e-03,8.762918412685394287e-02
8.280923619266374880e-01,6.366950738090725315e-01,7.529747471146414073e-01,9.095815191712920212e-04,-4.327781012268577809e-03,6.078772066717967604e-02,1.975914537906646729e-01
7.590076542597599119e-01,7.166271497930022383e-01,6.905126846880296210e-01,-1.866943790499709516e-02,1.846396398072111880e-02,2.525718675084705211e-02,8.698844909667968750e-02
7.522007828085206516e-01,6.809606957940984584e-01,6.859895869715898487e-01,-1.719986032178861049e-02,1.849431050338729010e-02,2.294626330793493596e-02,9.074909240007400513e-02
7.572493444334111867e-01,6.885982808471206029e-01,7.116086427273137227e-01,-1.737984016485508848e-02,1.853790676309470184e-02,2.914268334580669834e-02,9.026508778333663940e-02
7.698940249770409583e-01,6.910827689754348579e-01,7.106591392979564326e-01,-9.620454512669894889e-03,6.206827958279077448e-03,3.356058439514371383e-02,9.393499046564102173e-02
7.053482392215217889e-01,7.120183829928862229e-01,7.372649005041382875e-01,7.012692380595640022e-05,2.326769490586791476e-03,5.133989839253917491e-03,3.075069561600685120e-02
7.804305203446995076e-01,6.791494280740767442e-01,6.785362888554962169e-01,-5.912783439583346734e-03,7.779288319979593691e-03,2.847085754635965762e-02,1.141864210367202759e-01
7.793884932055151760e-01,6.749190133501322686e-01,6.602839436514038596e-01,-5.123033012811021442e-02,4.882245679828872698e-02,9.437707223282833235e-02,2.332436591386795044e-01
7.705754133876080436e-01,6.729568755552778336e-01,6.291512314618232793e-01,-5.910132154787152078e-03,4.281963665712759833e-03,6.301818888962505694e-02,1.667280048131942749e-01
6.779077892955504003e-01,6.425149889044793339e-01,8.574448027529959493e-01,1.201919309116925988e-01,-5.998545802681672090e-02,2.561288979522279019e-02,3.097444772720336914e-01
6.174506655307289149e-01,6.969736725904347452e-01,8.045444210142239649e-01,7.405910824175973572e-02,-9.104404820880516308e-03,-1.614876181627458371e-02,2.096067667007446289e-01
5.607535166424586492e-01,7.392207576824418869e-01,9.089901687391848117e-01,1.227374561959191368e-01,-3.167281791484216624e-02,-6.255336693312349601e-03,3.732168674468994141e-01
5.919128919415010959e-01,7.391698275250313532e-01,7.903156023981600109e-01,5.947986492112532220e-02,1.392752814809850199e-02,-1.149200407942038704e-02,2.083836793899536133e-01
6.233528558501097994e-01,7.560516653292503886e-01,8.243056553692433841e-01,4.951914145521294636e-02,-1.449997517642384777e-02,4.968413092695395279e-03,1.984591782093048096e-01
5.323269558854925032e-01,7.063446249508019692e-01,7.870465510503751316e-01,1.277574844368948581e-01,-3.795133699420423501e-02,2.488797995134019517e-02,3.255512118339538574e-01
6.581687073885965633e-01,7.550935379726786412e-01,8.183333607852684155e-01,5.006322305047099241e-02,-2.345785092476296643e-02,1.102266624649230441e-02,1.704625934362411499e-01
6.772539304091065304e-01,7.136661524939406087e-01,7.809424605252598406e-01,3.479715446826965597e-02,-8.023002237340938134e-03,1.472999101879346115e-02,1.130406185984611511e-01
7.085524027415717185e-01,6.949352531276360434e-01,7.915474613528854508e-01,7.303481200521219630e-02,-1.365280512900868444e-02,2.211252423711363574e-02,1.619632691144943237e-01
6.370180469053250416e-01,6.759269199522763838e-01,7.770591559645948498e-01,6.155098280420492202e-02,-1.756812941310588808e-02,2.170761961916613594e-02,1.714109778404235840e-01
6.547496006718214190e-01,7.907168505474124753e-01,7.009924492920555084e-01,-1.018832526950219503e-01,9.518422934144872560e-02,7.494562242104460537e-02,2.991809248924255371e-01
7.823640016895527793e-01,6.171708697479804107e-01,7.681977327645460596e-01,-9.319930115852852193e-03,1.035066602871794438e-03,8.115464938440543341e-03,1.600333154201507568e-01
6.238059462271364763e-01,7.752158158911681696e-01,7.680079366732042168e-01,-8.083879084988809804e-02,1.272639752646690103e-01,3.629922861515696292e-02,3.066456317901611328e-01
6.532563849673176382e-01,6.969103238092918540e-01,6.835225852968394022e-01,-1.191832976767428776e-01,9.710316006623008478e-02,8.682336731050291356e-02,3.082473278045654297e-01
6.019869983165534455e-01,7.728790236766752697e-01,8.551063243981790185e-01,2.334110389244813399e-01,-1.622485704819451313e-01,1.564620335459858402e-01,6.048755645751953125e-01
7.212253896320883761e-01,7.150881767568012526e-01,6.968226350874039410e-01,-1.052967252018159952e-02,-1.784389221622002591e-03,-4.769653606297815339e-03,2.989678643643856049e-02
4.868765261204497374e-01,8.285261778373060881e-01,7.756044523141549796e-01,1.460094141733218054e-01,-2.430356984570566925e-01,9.903699386057092380e-02,6.099383234977722168e-01
2.671727686310172989e-01,8.453889228071320705e-01,7.780203686637618965e-01,1.304186327481133834e-01,-2.132175632931034570e-01,3.962736191114712286e-02,7.014571428298950195e-01
7.373960764546640956e-01,7.062347083494397992e-01,7.097368572671436393e-01,-2.097518061271235086e-03,-2.224768941640564365e-03,-3.102728337178451302e-03,3.051380813121795654e-02
5.215903899734588567e-01,1.047388387648965136e+00,8.061899949817771249e-01,1.676552616927322881e-01,-2.788288441484018665e-01,-2.032661526030301799e-02,7.256855368614196777e-01
5.664359758674559764e-01,8.992454210970597384e-01,8.736666552419053433e-01,9.481426158059293174e-02,-3.415997009599942014e-01,1.011331294778593931e-01,7.145820856094360352e-01
5.348525128139247631e-01,7.976256783673698614e-01,8.372654860873409710e-01,2.440714506539016504e-01,-1.681892734787137078e-01,7.371397082636578502e-02,6.007612347602844238e-01
7.544023380878905893e-01,7.283460511483059729e-01,6.950819430718555569e-01,-4.081590615091106738e-02,5.337853230756452877e-02,6.177476089113272117e-02,1.662713140249252319e-01
7.390890719184224356e-01,7.426245567567945072e-01,6.466136152648523927e-01,-4.587114850928625254e-02,6.752640897140102516e-02,9.095872768776057382e-02,2.317402809858322144e-01
7.456465688677904602e-01,7.870219794063946228e-01,6.504732656037690575e-01,-2.322525419728159110e-02,5.387727366216835817e-02,3.187901255303186160e-02,1.675799787044525146e-01
7.637975055586372353e-01,7.427536840398237805e-01,6.588914057067333241e-01,-2.753178568776819268e-02,3.953296749980293040e-02,3.901034590679711839e-02,1.441127806901931763e-01
6.895964980455606685e-01,7.758537338733809685e-01,6.379080164329616887e-01,-2.566191437921942070e-02,5.732382545491057635e-02,3.244673543021425743e-02,1.719376444816589355e-01
7.144011510398154963e-01,8.013492840223580549e-01,7.175262016922850927e-01,-2.828734172968039307e-02,7.945528774482750467e-02,2.555527353498732862e-02,1.749205291271209717e-01
7.739085941730844409e-01,7.564356652033930040e-01,6.827686234770719009e-01,-1.019417323059485514e-01,8.923529454748224676e-02,9.262849485955099160e-02,2.963521480560302734e-01
7.741473877572301321e-01,5.581903754355076464e-01,7.438080324389445552e-01,7.088509630065838174e-02,-3.705797309146802165e-02,1.221213652450348075e-01,3.239456117153167725e-01
8.392842346436457657e-01,5.757912638497524327e-01,7.665540115062445814e-01,7.790147018829518544e-02,-1.551307759292617008e-02,1.237927850890778031e-01,3.470679521560668945e-01
7.543703505853746050e-01,6.188864191904951406e-01,7.011108710199980276e-01,2.264916025176938116e-02,-1.785923976189879303e-02,5.569881436772919359e-02,1.605601161718368530e-01
8.693466717725242265e-01,5.545587110685166188e-01,7.705330735675305354e-01,1.545043485167280420e-02,-1.554567125909510350e-02,1.581171163131579460e-01,3.926760554313659668e-01
8.298245112133402213e-01,6.309034841284377748e-01,6.272847422905009074e-01,-1.741996428901485330e-02,1.994429592596773555e-03,1.352991220804848349e-01,3.100683391094207764e-01
7.784444826058849465e-01,6.430041749032268106e-01,7.111937545346832534e-01,1.969264731990814227e-02,-6.179649055607656233e-03,8.952384574333997758e-02,1.976861208677291870e-01
7.526670818510101668e-01,7.681481366186921900e-01,6.424256276004711719e-01,1.118030262377751050e-01,1.294232431991135801e-01,-8.681175662171200513e-02,3.527877926826477051e-01
8.016925193323672927e-01,7.292510328123972263e-01,6.360427379286286431e-01,3.298851226404844739e-02,3.088308623098239697e-02,-8.005359792560781673e-02,2.145680785179138184e-01
6.718747439753277595e-01,8.506821341993872077e-01,6.515658164141725495e-01,2.351410341979658092e-02,1.597564945035252482e-01,-8.304838558823596228e-02,3.673311471939086914e-01
6.829830982968987385e-01,7.827806042138154563e-01,5.907240806306671699e-01,2.364053241539492214e-02,1.463736977106541992e-01,-3.034988704352024891e-02,3.104742169380187988e-01
7.616808335678105779e-01,7.598391080575128687e-01,6.576145075551536046e-01,3.824789048397456148e-02,5.933255323710329154e-02,-3.939294459182859920e-02,1.739157885313034058e-01
7.356398357550946177e-01,7.358006633106847216e-01,6.184673606000455903e-01,2.321575991950782653e-02,4.543068467096943175e-02,-4.132978085295787446e-02,1.633446216583251953e-01
7.315591678205756176e-01,7.075694963680811966e-01,7.089476093268862744e-01,-6.435592815251904575e-04,-4.326579303372182946e-03,-1.015750009399367295e-03,2.459346875548362732e-02
7.988574643642483153e-01,5.608341569347499167e-01,7.828468618407626867e-01,-4.369879806532166806e-04,-6.740682901394754421e-03,-2.162378775793797822e-02,2.337523996829986572e-01
8.033958088285004795e-01,5.984679262500109953e-01,7.380032867193545565e-01,-1.315629610379154962e-02,-7.798530955041536004e-03,-4.750177497987722458e-02,2.008527815341949463e-01
7.787274233137220225e-01,6.073994340035187012e-01,7.427278078512091763e-01,-2.812754061448128912e-03,-7.363928842416451320e-03,-2.215791081834363532e-02,1.616813093423843384e-01
7.428501145748395151e-01,6.979588557111585656e-01,7.002931293883956076e-01,6.133164067289847282e-04,-4.674232772851943420e-03,-1.378769492893648380e-03,4.458993673324584961e-02
7.214671088204548388e-01,7.055335057595905068e-01,7.143599551175404683e-01,-1.538011839812196760e-02,-2.269936154605450840e-02,-7.273431164597742894e-03,5.104198679327964783e-02
7.196238941549452095e-01,6.948381877258853478e-01,7.009709045290126728e-01,-1.376670466519819107e-02,-1.667789988554250688e-02,-1.743321971978165075e-02,5.305386707186698914e-02
7.325465656539458248e-01,7.116292637558980783e-01,7.054206874543007544e-01,-4.494109604832268075e-03,-6.337226487180785788e-03,-6.283078823513048652e-03,3.009070083498954773e-02
7.268410913887614067e-01,7.207156622155270753e-01,6.986898725696990553e-01,-1.575123947617426690e-02,-1.526500851714107480e-02,-2.095516261613332432e-02,5.846619978547096252e-02
8.211481762227815784e-01,6.816710443743383419e-01,5.485972106050156505e-01,8.377466322089703946e-03,-1.611188588010940143e-02,-2.002357102086604335e-01,4.207084774971008301e-01
7.609680829197170704e-01,7.280413290281116945e-01,6.428767048769641335e-01,-1.602555175138753452e-02,-1.115389820801779633e-02,-1.318881826638637449e-02,1.131675615906715393e-01
7.856293684191248961e-01,6.502441495332808019e-01,6.902875568621930080e-01,1.528042512095889420e-02,2.234509748707399698e-02,-5.643065973302853477e-02,1.620585918426513672e-01
7.227774149448189522e-01,6.847162766974919101e-01,7.177171450540698050e-01,-5.491970252262343491e-03,-1.097976029143923893e-02,-8.155354449690250390e-03,4.396972805261611938e-02
7.947608450200145391e-01,5.876948666753422090e-01,6.349730054071562879e-01,4.702982293976515349e-02,5.221321198866690771e-02,-1.636175829195683773e-01,3.611759543418884277e-01
8.630741929448383365e-01,7.633727200603100949e-01,6.717412296120189863e-01,2.632563630922169287e-02,1.448055991164597274e-02,-1.186883927589410526e-01,2.691495716571807861e-01
8.324084203467035925e-01,7.316133871305025016e-01,6.470020373712889183e-01,-2.654618742291976231e-03,-3.716111578383395238e-03,-1.339929678956326697e-01,2.824394404888153076e-01
8.441426998357063338e-01,6.611357098405415966e-01,6.466818310035129524e-01,3.334510831392644564e-02,1.151064834153071870e-02,-1.044871644043909448e-01,2.698731422424316406e-01
7.291854748761530391e-01,7.615117180836800115e-01,6.345972547332068281e-01,1.251063123222692815e-02,1.150399751206269625e-02,-1.105004445364434623e-02,1.195093467831611633e-01
7.043423282425250731e-01,7.289801069519701304e-01,7.271418667433010574e-01,1.106000675941570810e-02,2.429374119239808769e-02,-1.973832011191271191e-02,6.222091242671012878e-02
7.078505868850897276e-01,7.657789904288603289e-01,6.953765181316948762e-01,2.503465695667507485e-02,7.902971932160200719e-02,-6.053358815548673388e-02,1.893254965543746948e-01
7.099735765112008545e-01,7.580939220635036779e-01,6.706232631491483298e-01,3.041342718209186571e-02,3.669913581825653970e-02,-2.445888778596274141e-02,1.198652833700180054e-01
6.306755072995514633e-01,7.457091398827316864e-01,6.878251940708564049e-01,2.684865856198228803e-02,5.887945651455150226e-02,-2.790640808386984223e-02,1.575560569763183594e-01
6.921837456523516341e-01,7.590722421709454881e-01,7.142494154300356168e-01,1.808806931023399650e-02,3.308298332109781831e-02,-2.006229607839964471e-02,9.464406222105026245e-02
6.830902023385846400e-01,7.548769617671751142e-01,6.884291188627520430e-01,1.732459254271534119e-02,2.269434826237047217e-02,-1.804624837711092319e-02,9.067030996084213257e-02
6.952955598237824386e-01,8.813265182581597745e-01,7.216009599391747242e-01,4.651233264231383058e-02,1.524727684247484949e-01,-5.176920259109261957e-02,3.386444449424743652e-01
5.898982560854184598e-01,7.551144886894246566e-01,8.566585283229919412e-01,8.640733613951312453e-02,-4.852668483829665480e-02,2.311204823111135884e-02,2.923183441162109375e-01
5.432726883420100350e-01,6.698683992212107752e-01,7.886260437331560347e-01,1.415752895893071794e-01,-4.235112114287998414e-02,3.229544241173439023e-02,3.373493552207946777e-01
5.786034185475673608e-01,7.856089333041801348e-01,8.222177999290238848e-01,1.436227126802566423e-01,2.242065399799468214e-02,1.678787709192311461e-02,3.405961394309997559e-01
7.160617338778747509e-01,7.467367415156719312e-01,6.995805243474975121e-01,1.143115243008969474e-02,-2.098244415223100151e-02,1.365279653801795487e-02,6.316760927438735962e-02
7.242184660405031060e-01,7.249253637792051341e-01,6.962799577161866704e-01,1.426859278879540754e-02,-1.726685411399124861e-02,1.378488725380584527e-02,5.362918972969055176e-02
7.373242004129827443e-01,7.919947209970878976e-01,5.974988861382432015e-01,3.726199099554157370e-03,2.405927137157254023e-02,-9.733890186111138904e-03,1.795738041400909424e-01
7.645455672290356608e-01,7.867716631098611302e-01,6.289905603482869312e-01,4.919102001193475723e-03,2.936529863290279416e-02,-3.344505853737438604e-03,1.567645668983459473e-01
8.122837036728950411e-01,7.995350895297184124e-01,5.613398808339690182e-01,1.427754844239186374e-02,3.345310780456124677e-02,-5.359859285127926282e-03,2.529648244380950928e-01
8.097117102753611517e-01,8.162338668136599473e-01,5.669206157385130451e-01,2.882034659825805437e-03,4.004492431487625959e-02,-1.128313682750402107e-02,2.564979791641235352e-01
7.643108748727911461e-01,7.780141975053742609e-01,5.616654971022424503e-01,1.818800012570935543e-02,3.184193253392179207e-02,-1.269007749916646263e-02,2.203340530395507812e-01
7.613585939993583462e-01,7.743284603219655615e-01,5.724912361267172622e-01,1.183190711433282361e-02,3.310946725281539715e-02,-1.861242773217675409e-02,2.074527442455291748e-01
7.619087015574171895e-01,7.817920014089049241e-01,5.964076237789492918e-01,1.158636794640830261e-02,1.010943000353892000e-02,-1.205039251967649112e-02,1.795038431882858276e-01
7.526557433659579743e-01,7.912920674572292423e-01,5.601426713019592718e-01,1.060805508523724426e-02,4.425837499105222950e-02,-8.102743096251750418e-03,2.289170473814010620e-01
7.350968914314964797e-01,5.666282248956620027e-01,7.987867268068087334e-01,-9.240337316374375165e-02,-7.131017829077937291e-03,-2.971526529309223563e-02,2.675528526306152344e-01
6.212305222945695427e-01,6.110169175353933335e-01,7.812343448006721092e-01,-1.357714110057013646e-01,-3.699920546787383024e-02,-5.001130702133207984e-02,3.070042431354522705e-01
6.432582951599836729e-01,6.510285666451287589e-01,9.055428101026375964e-01,-1.292671501044790061e-01,-2.437350365761018975e-02,-4.237162001569824178e-03,3.446470201015472412e-01
7.513475272906893210e-01,6.198478837103835737e-01,8.142013498874336452e-01,-1.522373281765108111e-01,9.398549303819581438e-03,-4.393393684378367470e-02,3.241792619228363037e-01
7.598146369941540801e-01,7.014588930901566322e-01,9.290664389817759883e-01,-1.687589714977811572e-01,-5.743593772417635024e-03,-9.309268540341662790e-03,3.573879003524780273e-01
6.573891985884009470e-01,7.695953435642056695e-01,7.099667190815439621e-01,8.967362944205822459e-03,2.147239049461960661e-02,-9.643088594029803826e-03,1.065762266516685486e-01
6.445411041514956807e-01,8.857376501809968161e-01,6.608789255977794985e-01,9.002386516842850184e-02,1.649635995870640803e-01,-4.446457936926490051e-02,4.079034626483917236e-01
6.676265806257534186e-01,8.079963696068537260e-01,6.985709340203574147e-01,1.678943069222460158e-02,9.328411451449805658e-02,-3.298475817780224806e-02,2.157150804996490479e-01
6.198322051460479765e-01,7.538340401862104745e-01,7.526147619565347613e-01,2.825030277991172692e-02,4.732016963459370618e-02,-1.972867923883267136e-02,1.675532460212707520e-01
5.578993470365990470e-01,8.017764092979925428e-01,7.548182957123038550e-01,3.651008308448040751e-02,1.558351859010781160e-01,-2.167551087520249928e-02,3.584568798542022705e-01
5.406109667655170092e-01,8.672642864742011737e-01,7.430214116747897446e-01,9.430473812294025426e-02,9.513100454711018172e-02,-3.727955335684199345e-02,3.735686242580413818e-01
5.128523990038330593e-01,8.488785156040626889e-01,8.782498341466316027e-01,1.260402781286531770e-01,1.274331221287332803e-02,4.752140321882601659e-02,4.225709736347198486e-01
5.256976157328884236e-01,6.888103419938986782e-01,7.776774637285148728e-01,1.328470458316572123e-01,-3.272263091663334816e-02,1.138030878328251221e-02,3.248758912086486816e-01
7.394010863649437271e-01,7.044308009990272179e-01,6.651282969915635057e-01,-2.841248874410316413e-02,-2.609825897065928130e-02,-3.969393075296988316e-02,1.154730170965194702e-01
7.066810905557906475e-01,7.085697725415679438e-01,7.015191235351667665e-01,-4.078435210517222798e-02,-4.546671244535514106e-02,-4.557672716229301674e-02,1.321492791175842285e-01
7.194394761635453106e-01,7.679733049729179362e-01,7.137594420660250405e-01,-3.777022585553007489e-02,-4.519779795306889253e-02,-4.806740718594328110e-02,1.414326280355453491e-01
7.568442387485417866e-01,6.714502409928914117e-01,5.726024354304566355e-01,-5.678622506913021117e-02,-7.333907399175670916e-02,-1.280434148260288785e-01,3.170161843299865723e-01
7.533311739738531854e-01,7.190706079557094288e-01,6.179325972470551820e-01,-3.109071890986249420e-02,-5.599665318407193865e-02,-6.323046892218964210e-02,1.979110389947891235e-01
7.719263398446898350e-01,7.341432655631693338e-01,6.232250236554751632e-01,-4.240128201457096790e-02,-5.853735083506672598e-02,-6.088151251400333169e-02,2.114577889442443848e-01
7.374387326956202138e-01,7.635986334693936062e-01,6.217897433636895288e-01,1.882538591956584365e-02,2.165582061740258316e-02,-1.058535367716897414e-02,1.410342305898666382e-01
6.897844895489961825e-01,7.375119258175437675e-01,6.991486713881770454e-01,-1.356882945376237763e-02,2.276444016810112367e-02,1.733117912905241670e-02,7.019099593162536621e-02
6.946798020290538833e-01,7.269373797385220159e-01,7.186593107179785056e-01,-8.450243284779257111e-03,4.169196751829118940e-03,1.240933930658038795e-02,3.962813317775726318e-02
6.511507368246356453e-01,7.412464098731937900e-01,7.368563820981819390e-01,-1.202624062603789047e-02,1.100484253397135924e-02,1.955204459004992665e-02,9.841259568929672241e-02
6.783624440658726495e-01,7.510618121630888711e-01,7.213863222447638446e-01,-1.338671397300091048e-02,3.628448451244564027e-02,2.193401588632573965e-02,9.969478845596313477e-02
6.693982194172299893e-01,7.192012122840434341e-01,7.387087611741078863e-01,-9.133408391640876825e-03,8.979489650277975785e-03,1.585901207713052985e-02,7.126775383949279785e-02
6.718621917864869841e-01,7.772885277332035603e-01,6.327784536352392131e-01,6.345080872002663297e-02,-1.668614929055760587e-01,7.186017791752345729e-02,3.575760722160339355e-01
7.439312908255226731e-01,7.714006681356482265e-01,6.103020259417415438e-01,1.158187611966223461e-02,4.256483369251895521e-02,-2.766801960032563151e-02,1.744027882814407349e-01
6.490639991838632605e-01,7.778122486783791700e-01,7.109185413281707833e-01,1.812265383071332350e-02,-9.057024556985747432e-02,1.415429445784833866e-02,1.965544819831848145e-01
6.935286356388508100e-01,8.143485043487617148e-01,7.346144069434414892e-01,4.293222247595354646e-02,-6.849305043652569036e-02,3.651326603715081276e-02,1.868811994791030884e-01
5.572657962279132793e-01,8.062322262213744706e-01,6.598565258566142511e-01,3.014063751704404784e-02,-1.600397393931151380e-01,9.031343586658240052e-03,3.560557663440704346e-01
7.236204062807820581e-01,7.137951451393803604e-01,7.152825814728547282e-01,-8.615103950740294909e-04,-1.501701778006521220e-03,7.154525625358287844e-04,9.729404933750629425e-03
6.592779231464793721e-01,8.279224087700922663e-01,7.023917328413102901e-01,2.862658417791429100e-02,-9.307581823890892503e-02,4.556442135889640643e-03,2.270218282938003540e-01
7.351161861999127023e-01,7.398349797873396971e-01,6.393281545888590545e-01,1.691168086023513151e-02,1.859337022544857443e-02,-1.788341082982067287e-02,1.118222773075103760e-01
7.176190051891644384e-01,6.981020062026094264e-01,6.922543848198907668e-01,1.668727147858472745e-02,-1.842621038293973043e-02,1.504431362717127338e-02,5.533715710043907166e-02
7.058080668893624843e-01,7.216793099759732932e-01,7.060721612888618548e-01,1.016994421523101551e-02,-1.075588323062373793e-02,1.024119306207223364e-02,3.492522239685058594e-02
7.123339670198857165e-01,7.181677224968026074e-01,7.134091778442149812e-01,3.545940883653069583e-03,-5.017332195247147658e-03,5.533295590319588057e-03,1.529739517718553543e-02
7.051765599375673377e-01,7.010059082634939598e-01,7.022593919277526631e-01,1.002549238896634914e-02,-1.070174283215524595e-02,1.155416872941750911e-02,3.254761919379234314e-02
7.233151541679702090e-01,7.202818489060627272e-01,7.000779324864540021e-01,1.992141656782380615e-02,-1.704176476293641981e-02,2.145525861291470646e-02,6.262205541133880615e-02
7.169347781729233926e-01,7.130900053761498603e-01,7.120450972463142625e-01,3.653839423454419838e-03,-4.875034789503475061e-03,3.242988972604955375e-03,1.275899633765220642e-02
7.157039256109097858e-01,5.986773229094858317e-01,6.894971637363531691e-01,1.143709620834790219e-01,-8.619680463401278858e-02,1.209086544773744776e-01,3.416191637516021729e-01
7.537544935795531531e-01,7.247451132800636353e-01,6.872228722490772990e-01,2.772579704409560558e-02,-6.576604398742062763e-02,6.034754883878004628e-02,1.718869358301162720e-01
6.667644542140933606e-01,6.808756818553732826e-01,7.800280674411077531e-01,1.054019625500393492e-01,-4.991324371491768358e-02,6.740298822767162856e-02,2.566353380680084229e-01
7.087992897430613892e-01,6.812649469334319807e-01,7.120793106565601605e-01,3.087772568135082468e-02,-3.429145815330008479e-02,3.002985572182937171e-02,9.976273030042648315e-02
7.139886292977699611e-01,6.790662483349642065e-01,7.264893229526420138e-01,4.730088241219123496e-02,-2.805267828196893187e-02,6.470421856809867311e-02,1.531185209751129150e-01
7.255197076331401096e-01,6.875454025069428488e-01,7.579139387391664595e-01,5.660512791901819996e-02,-4.264520499384431840e-02,2.295888849962222575e-02,1.427276283502578735e-01
6.562152100607643312e-01,7.322521117615513608e-01,7.864765606106223217e-01,2.809929020734775948e-02,2.331131577632795070e-03,-6.861347935719356445e-03,1.239806711673736572e-01
6.944370462898029617e-01,7.352352809007079992e-01,7.073104633969967692e-01,3.289104169344215459e-03,1.803648823127189165e-03,-6.923401789614216061e-03,3.861376270651817322e-02
6.874037958806386017e-01,6.281127264038187663e-01,7.576339445424419283e-01,5.276491366269587396e-02,-1.776291840537252281e-02,2.027962754825554312e-02,1.521331220865249634e-01
7.111935331556650253e-01,6.965288172575898606e-01,7.056123735497378258e-01,1.518936451334378934e-01,1.310166224972791060e-01,-6.755897526731645397e-02,3.668352663516998291e-01
7.743904327689045131e-01,6.650971638044730350e-01,7.192729952706140573e-01,2.907342735217766788e-02,4.830777394567933869e-02,-6.048953047339990230e-02,1.716760098934173584e-01
7.781676171385821794e-01,7.089048830994625350e-01,5.775134991288162212e-01,2.767936650213021627e-02,2.703971235134874224e-02,-8.503676378570829142e-02,2.394727170467376709e-01
7.673546526783829869e-01,7.634925745554120846e-01,7.099416164882188518e-01,4.952825648885558762e-02,6.811942654281089027e-02,-7.025589715275600000e-02,1.979318708181381226e-01
7.786161262315846043e-01,7.715650763855228522e-01,6.981040297017111484e-01,4.009441646625069161e-02,6.632869892563604541e-02,-6.350658172642791033e-02,1.899596154689788818e-01
7.542655205041456368e-01,7.150419603426526605e-01,7.065793414986499821e-01,1.461488507921674534e-02,1.305844544456327867e-02,-2.506648292992267463e-02,7.056470215320587158e-02
7.835233745602049327e-01,7.034027239059803538e-01,6.788965371262662973e-01,1.243765370182448315e-01,7.133525848935903801e-02,-1.206719672986673736e-01,3.381467461585998535e-01
7.752792068202559728e-01,7.355059320649123267e-01,6.564985269953458324e-01,5.282214484052200759e-02,5.700561878221389878e-02,-1.468262266418635664e-01,3.062021434307098389e-01
7.610599018789829806e-01,6.173993762115106421e-01,6.297910352466387085e-01,6.505502340534033423e-02,5.771313099564572002e-02,-1.329531671882377142e-01,3.077827692031860352e-01
7.251248194255659474e-01,7.369664605498933430e-01,6.041438711132144368e-01,2.883739746133674731e-02,6.085045638854318789e-02,-4.552635499391489288e-02,1.898164749145507812e-01
6.031558740204054914e-01,8.036442408256475600e-01,7.283672250819505090e-01,4.485438647529532176e-03,3.023338343505322517e-02,-1.183094590974083891e-02,1.843705326318740845e-01
5.443522212424687368e-01,8.398197903581268164e-01,7.739699798031803857e-01,4.588130656234107319e-02,6.334050067674137918e-02,-1.709302637712243819e-02,3.023386299610137939e-01
5.992464241444819262e-01,7.844610392966165913e-01,7.843460434384315061e-01,2.250204470218259561e-02,2.784537589806776112e-02,-7.209810658611689148e-03,1.956635713577270508e-01
5.459259204331128323e-01,8.096128794204228152e-01,7.942119764638571056e-01,1.169415782787909183e-02,4.258588989082192494e-02,-8.005451986290332625e-03,2.678622305393218994e-01
5.592304832515984092e-01,8.014118395421823138e-01,8.166893054190438317e-01,-7.716549340967136968e-03,-7.247537233295059562e-03,1.011925962520835928e-02,2.514528632164001465e-01
6.127587225835919860e-01,8.090187449264799602e-01,7.819317779108836408e-01,-3.354127867388488659e-04,2.450227276561811607e-02,-3.129813040422488226e-03,1.891201138496398926e-01
7.848879160610955363e-01,8.271023953338457746e-01,5.853306377580708153e-01,-3.307955371928637117e-02,1.873840414600652649e-01,1.436956582129163447e-02,3.990863859653472900e-01
7.006869085174302070e-01,8.810507322341777359e-01,3.927272246945640588e-01,1.122488256969918739e-02,2.650379850380713553e-01,-3.016801038651981820e-02,6.298879384994506836e-01
6.318701262212246261e-01,7.869103419704814861e-01,5.724031999917695845e-01,1.604699138689805182e-02,1.453727065177025657e-01,-2.198535780109277943e-02,3.200246989727020264e-01
4.046826631046434031e-01,1.141391981150503332e+00,9.707460630464148643e-01,6.471984671390638988e-02,-3.145719641012826306e-01,1.981839967831721533e-02,8.699166774749755859e-01
7.656678054761210106e-01,6.997846375595273560e-01,7.403154094414781117e-01,-5.485485376097918447e-02,3.646639649131266231e-02,8.007377554738003000e-02,1.885869204998016357e-01
7.837592562158082199e-01,6.894287908563266898e-01,7.457189242586554911e-01,-5.634612859687610636e-02,4.466339339668579794e-02,8.171068086284591359e-02,2.056598216295242310e-01
7.474308696157264675e-01,6.718005371756384791e-01,6.724237159478849701e-01,-7.052672721420447099e-02,7.752333494396596025e-02,1.103684284246667646e-01,2.741686105728149414e-01
7.308830596301841842e-01,6.710908426060756549e-01,6.490555462354400396e-01,-1.037251098956557399e-01,1.482829289062927436e-01,1.234113992494702550e-01,3.864058852195739746e-01
6.996400510101461467e-01,6.981403253655806829e-01,7.992270519915807281e-01,-1.726306474510053979e-01,1.030417553337305558e-01,1.239272457550174983e-01,4.211886525154113770e-01
7.232026172857002333e-01,6.894599452688220387e-01,7.592780752528808241e-01,-6.203564248805104597e-02,5.134989206615434010e-02,6.365948302599609698e-02,1.878046244382858276e-01
7.184424243846274649e-01,5.655399121456745615e-01,6.880650693951342323e-01,-1.105272819758537500e-01,7.467848077852656807e-02,1.342193543573837189e-01,3.564844429492950439e-01
5.597443200367342442e-01,7.786657291193813668e-01,8.199729521498015927e-01,-3.048708973587497748e-02,5.193833349918961124e-03,6.063399690182512403e-03,2.483052909374237061e-01
7.583786705170395548e-01,6.757722939180679234e-01,7.231619719235208299e-01,-4.752215575373341244e-02,6.336497338002340662e-02,6.946689951770070037e-02,1.960925310850143433e-01
7.269148764769786109e-01,7.247188965773899705e-01,6.872571914700973394e-01,-3.832011175866027741e-02,4.673470265274670687e-02,3.991438508802661045e-02,1.312540769577026367e-01
6.141938956936839888e-01,7.241311481537081596e-01,7.796892794801431048e-01,-6.642989832427355357e-02,1.424876808714201429e-02,-1.815580460283116541e-03,1.874528676271438599e-01
7.584098009234176985e-01,6.579252422906145537e-01,7.120930445830543354e-01,-3.106180153777234748e-02,3.596871521470539068e-02,4.350427279098634248e-02,1.415693759918212891e-01
7.262555314569471010e-01,6.894184037837585155e-01,6.965597731443530227e-01,-1.426288839847839919e-02,1.490001271722910144e-02,1.683376269760644001e-02,5.719574540853500366e-02
5.084087287047164283e-01,7.940670712111033147e-01,9.048082598170696933e-01,-8.841112570261594472e-02,-2.034079362127640817e-02,-2.427145341727435235e-02,3.898160755634307861e-01
7.556297573945731649e-01,6.950499788342570096e-01,6.940232760225141240e-01,-1.724612377102187344e-02,5.747428912849290687e-03,2.062812455478209642e-02,7.746680080890655518e-02
6.522981821237625599e-01,7.554423146630079300e-01,8.195289756571757511e-01,7.714001807852860493e-02,-2.802096115833717371e-02,2.063501128215507185e-02,2.069798409938812256e-01
6.587117596840450506e-01,7.151016940873902161e-01,8.089961651687402888e-01,9.230467739040186526e-02,2.527438934178326616e-02,-1.853660212966923293e-02,2.140055149793624878e-01
7.180422285434758800e-01,7.146553795525784070e-01,7.131116348072779054e-01,1.132075221217163910e-03,-6.446610083965712392e-04,7.523839065026504194e-04,5.086463876068592072e-03
6.793576955477791390e-01,6.786511522167597565e-01,7.810366683267053745e-01,3.077294000727092207e-02,1.577070805334086171e-03,-9.161231682444908458e-03,1.162373498082160950e-01
6.765406893363804519e-01,6.729650415375258987e-01,7.673832429476190597e-01,3.195533974794213111e-02,7.692566597707350701e-04,2.179055845277850807e-03,1.080251261591911316e-01
6.768936220987846752e-01,7.112650677990658421e-01,7.842073644561846635e-01,3.660686114945553571e-02,1.077207469672480759e-02,-6.950386618366977652e-03,1.162855550646781921e-01
6.910291105141758150e-01,6.148514973275499562e-01,7.695646144461626426e-01,6.418586179888204069e-02,-7.848102011788454790e-03,6.353333288787533020e-03,1.749824285507202148e-01
6.817125412594576828e-01,6.993687979441493008e-01,7.726397082000342476e-01,4.083315129308157793e-02,6.208114046400908326e-04,-7.138214675613496719e-04,1.094476282596588135e-01
6.587980504499675316e-01,6.432565381806943927e-01,7.736981555649736775e-01,7.079099356770673923e-02,8.928731062990358236e-03,-7.596771708388040494e-03,1.751447618007659912e-01
7.417837725149195593e-01,7.326500135713687190e-01,6.372987955088791345e-01,2.650508101093139793e-02,-3.179439427428516762e-02,3.591536841107186712e-02,1.380439996719360352e-01
7.457735884136718063e-01,6.811881360538553087e-01,6.777493810100894134e-01,1.069802483615848489e-02,-1.026961922067777186e-02,2.473134876615279421e-02,8.306537568569183350e-02
5.778681182622822377e-01,8.068669066218530084e-01,7.929164355590389013e-01,9.264762282601665330e-03,1.234009470289561781e-02,1.738791277380765006e-03,2.239728420972824097e-01
6.302606693535599547e-01,7.922061267619364688e-01,7.589408658120515572e-01,3.529995630321408617e-02,4.852507004247572781e-02,-1.283751996394850645e-02,1.823251545429229736e-01
5.837467812563268410e-01,7.689110034907087332e-01,7.306677836447679208e-01,1.014927344681900746e-02,5.275314274055827035e-02,-9.165766260799174461e-03,1.938473582267761230e-01
5.700239616650658592e-01,7.759342571367493502e-01,7.662224378706259387e-01,2.762243583166761399e-02,2.884291224864102277e-02,-1.814021548919742682e-02,2.150942683219909668e-01
7.539737419201654189e-01,6.640808348998165078e-01,7.053237417664418585e-01,3.017176810732231235e-02,-3.074939525271718974e-02,3.866534228150845381e-02,1.269916445016860962e-01
7.512872107442772895e-01,6.871361773608216650e-01,6.831710745698770237e-01,1.707823641838603079e-02,-1.133211839364473179e-02,2.558236103850854842e-02,8.722994476556777954e-02
7.274225155990822200e-01,6.999295632110763554e-01,7.224457936416084358e-01,1.458350425424131437e-02,-1.914879602327075603e-02,1.739803631856421187e-02,5.735804513096809387e-02
7.007424523238029446e-01,6.642354757991909553e-01,7.299269658449420994e-01,4.171781716695839581e-02,-2.987370539376492384e-02,2.793164106015226869e-02,1.161417514085769653e-01
7.446312942547370639e-01,6.962378678843984536e-01,7.254757492128520724e-01,1.206817100863217911e-02,-1.443421955286056969e-02,1.901751830662891038e-02,6.268027424812316895e-02
6.445037582225126016e-01,7.473899982471291503e-01,7.551385515663627812e-01,9.327112004626413044e-02,1.001183332699158435e-01,-2.559220410620280384e-02,2.637750208377838135e-01
6.720977309880143968e-01,7.311442420915804652e-01,7.250068583888651386e-01,9.785523951166914813e-02,7.517857465828131636e-02,-5.603008741074397281e-02,2.413758039474487305e-01
6.067741392240905141e-01,7.531299189554577778e-01,8.005710035830897464e-01,7.055102484191320966e-02,5.124370447218692254e-02,-4.364686103220088292e-02,2.431854903697967529e-01
5.887684480704941103e-01,7.699960508566731088e-01,8.190147749163250168e-01,7.048557801805316325e-02,-6.554197362635315327e-03,4.716965176353997424e-03,2.433723360300064087e-01
5.535522669820608366e-01,7.748724076830479923e-01,8.433188107554578927e-01,-6.606981498803697617e-02,-8.058284226736085396e-03,-6.218829441722963265e-03,2.867447733879089355e-01
7.103378642838259482e-01,7.075217128160440350e-01,7.463423638088759748e-01,5.341116153502557112e-02,3.500638239941254726e-02,-2.151361709859857599e-02,1.225918158888816833e-01
7.414486196864187306e-01,6.231360241941337197e-01,7.496955963511811039e-01,4.584620581229166547e-02,2.482398646937947900e-02,-5.116738717919523671e-02,1.762107312679290771e-01
6.416949729857220897e-01,6.914908997837008187e-01,7.905768488597065824e-01,6.152370783954382027e-02,3.745132117383161152e-02,-2.006588717100142236e-02,1.843989193439483643e-01
7.134005648685868284e-01,7.219927676696956675e-01,7.155054564613227974e-01,-1.750057510443007698e-03,3.522503515936000157e-04,3.503784983326359813e-03,1.032282598316669464e-02
6.620144550172150089e-01,6.927808374788987367e-01,7.347483574901438885e-01,3.698284670327179474e-02,2.506463912416827602e-02,-2.374449670078435798e-02,1.080663502216339111e-01
7.530483109425475385e-01,6.732303434307603807e-01,7.009687690721946307e-01,3.480425980322486568e-02,3.247230768659915834e-02,-5.937613940679566105e-02,1.493326574563980103e-01
7.569703884057107368e-01,7.087439094041098064e-01,6.651433057331315180e-01,1.209299357268627494e-02,1.060472253982720769e-02,-1.663977577312159700e-02,8.908567577600479126e-02
3.414945865213931953e-01,7.705038818751257512e-01,8.676120352674496772e-01,-1.699171862699707380e-01,1.315837951559838126e-01,6.714939401609475167e-02,6.222739219665527344e-01
7.223731223814282565e-01,7.591223515004934530e-01,7.221266166222293226e-01,3.247270390165814258e-02,4.118376133860174315e-02,-3.016032933964633497e-02,1.110868975520133972e-01
7.045224989984536501e-01,7.624075695804755082e-01,6.788650676240621795e-01,2.802031118033723039e-02,8.100443601311313468e-02,-6.018777961161540097e-02,1.959654092788696289e-01
8.145411275025349340e-01,8.130726710637824484e-01,6.478888782480056729e-01,9.422678678910381689e-02,1.673247937656454631e-01,-1.202639248110885933e-01,4.260862171649932861e-01
7.476032944204521469e-01,6.833262416982480714e-01,7.201678066452821270e-01,2.531736956615731476e-02,3.530838769494378665e-02,-3.334273107439440775e-02,1.100860610604286194e-01
7.220978079806098515e-01,7.215553167221128161e-01,7.183965760540163004e-01,3.056318381218154495e-02,3.730374402070037176e-02,-2.567786271241409568e-02,9.469464421272277832e-02
7.183920455916795733e-01,8.154350169566689788e-01,5.998651684412756868e-01,1.015651119683519676e-01,-1.810234192972765832e-01,7.002752462678292489e-02,4.230065941810607910e-01
6.436272540747443038e-01,7.953194614478027447e-01,7.069192405273505564e-01,5.605612834750657580e-02,-1.406854840604994661e-01,1.045497162760433557e-01,3.449804484844207764e-01
6.470673623365329474e-01,7.341521460910536145e-01,7.062331904027896456e-01,9.428452948257043387e-02,-1.091502134189801243e-01,8.451781289911121375e-02,2.996192872524261475e-01
4.732658540025247440e-01,9.914456097480665031e-01,8.877528286766918075e-01,-2.220089008171246756e-02,2.855218669444492541e-01,-5.145174789952616096e-02,6.924735903739929199e-01
5.472622835943199426e-01,8.063406196616026422e-01,8.578380820745344915e-01,1.371526977183714080e-01,1.282181107195654590e-01,-7.538357365514160302e-02,4.537793993949890137e-01
5.116901204280063231e-01,9.648698422961683452e-01,1.107331853235700159e+00,3.159846256269507325e-01,1.595569966130993833e-01,-8.738012089626967516e-02,8.300892710685729980e-01
4.520884438136498762e-01,9.235845454606722571e-01,8.241173298058577235e-01,3.185278121558451914e-01,2.085434491593955442e-01,-9.176349744137296538e-02,8.033782243728637695e-01
4.890347274717820047e-01,9.539587972928558202e-01,5.740475174138865988e-01,8.652935446357422344e-02,2.921974140249468110e-01,-8.586072238039620108e-02,6.961129307746887207e-01
4.997904746077411753e-01,7.797284323384795490e-01,7.343575234889629932e-01,1.470797473108477194e-01,1.691093353695442558e-01,-9.094491537948769244e-02,4.931804239749908447e-01
4.503467753158298947e-01,8.507004879564981081e-01,7.505215578702141288e-01,1.448989596353545684e-01,2.448458402780004928e-01,-4.215016242796805479e-02,6.151238679885864258e-01
5.161366990257298948e-01,8.001191513794829735e-01,8.126464855159937217e-01,2.425021294506177483e-01,2.734737054831311021e-01,-2.563912330243071636e-01,8.260480165481567383e-01
6.957608074644742180e-01,6.733290315055283637e-01,7.058241443866539733e-01,-5.943692426652583127e-02,4.671210820371194533e-02,5.795176201196915872e-02,1.674805134534835815e-01
7.421531372141750849e-01,6.901019333345905782e-01,6.880015331997872963e-01,-1.323538304461652562e-02,1.159778271751984828e-02,1.893599123836007050e-02,6.948262453079223633e-02
7.377560079494250855e-01,6.641518478797615588e-01,6.456545639942853354e-01,-6.404714848741017985e-02,6.359340182226301541e-02,1.177335784178912270e-01,2.704501152038574219e-01
7.735503058935065956e-01,7.326550391945704233e-01,6.550626489375919181e-01,-3.047099943115439899e-02,3.094340338012271582e-02,4.385770546891869931e-02,1.493137180805206299e-01
7.627970987990961849e-01,6.721293924774053297e-01,6.698839212896751105e-01,-4.555030674239547717e-03,6.909984826173658223e-03,2.990677929673334762e-02,1.063860952854156494e-01
7.704574956517745710e-01,7.093283215697910871e-01,6.796017230140234400e-01,-9.349382581192031832e-03,5.527473156861563430e-03,3.597392255347398732e-02,1.033144220709800720e-01
7.142917793604867116e-01,7.104721870671144579e-01,7.171762959316946295e-01,1.996922019071867282e-03,4.002542691266873162e-03,-2.107550526743287578e-03,1.035745348781347275e-02
7.423399911011849817e-01,6.525289349787126714e-01,6.950121230633276026e-01,-3.801329465021765358e-02,2.344498268503108704e-02,3.969428822148029362e-02,1.294848620891571045e-01
7.489375999579565013e-01,6.644606863647934958e-01,7.102813417657083406e-01,-3.238979617360032790e-03,1.680710271386454818e-02,1.826004338117524078e-02,8.511339873075485229e-02
7.793935909606102275e-01,6.783566090620004596e-01,7.054124228770168870e-01,-1.847018151602531147e-02,1.664174844529772018e-02,3.836165859223045899e-02,1.203161999583244324e-01
7.477962291507141979e-01,6.989042321939288316e-01,6.969116821450854760e-01,-1.126034401495249263e-02,8.824925720653891553e-03,1.227084205394559681e-02,5.964530259370803833e-02
6.448781441271870252e-01,8.930645767164400173e-01,7.840733094651000101e-01,-2.892468578680012017e-02,-1.670349787930707763e-01,-8.232309455194507242e-03,3.644732236862182617e-01
6.392297287890514879e-01,6.656839317282216006e-01,7.699624219489004107e-01,6.319080731851428601e-02,-1.173626646933071662e-03,3.423949593266547783e-03,1.623298227787017822e-01
6.577320699224131761e-01,7.566514435791720228e-01,8.050970012459056635e-01,5.252796334056938909e-02,-1.834063941214899088e-02,2.259626728463011436e-02,1.665613651275634766e-01
6.266981230864433483e-01,6.454343363188557170e-01,7.812992666933802344e-01,1.279426058808844358e-01,4.050328845770943820e-02,-2.519166484333533809e-02,2.780094742774963379e-01
7.060732366835826834e-01,7.408337931248187846e-01,7.144225082102143576e-01,8.036326257788767649e-03,7.100977032631455334e-03,-4.032842652106602248e-03,3.716977313160896301e-02
6.691534197123731875e-01,7.404093511914304759e-01,7.638508102169683234e-01,6.298000045394928914e-02,-5.684013205302225480e-02,5.169259115823560818e-02,1.921079605817794800e-01
6.180580464164661114e-01,6.866742450696641242e-01,7.746078446411083229e-01,6.501008246935656432e-02,-2.609074097204843855e-03,6.275268331616313915e-03,1.768944859504699707e-01
7.290910240273127396e-01,7.026948968779577198e-01,7.897470327137918744e-01,6.416762122609188934e-02,-3.187183751007093696e-02,3.666662333441377680e-02,1.594057977199554443e-01
7.213144761406249383e-01,7.126999099735806809e-01,6.900814338342210474e-01,2.866464385928785621e-02,-3.449258255694358233e-02,2.798634654277142031e-02,9.573171287775039673e-02
5.921747309984780605e-01,7.118453261856944048e-01,8.481315276708959461e-01,1.226492541447712914e-01,-7.792729562451720937e-02,1.889277547013917466e-02,3.370782434940338135e-01
7.116985806726088271e-01,7.239075652011462969e-01,7.146256690534412703e-01,1.502309599387972048e-03,1.848403489062979495e-04,3.774220944108719160e-03,1.309572067111730576e-02
7.180698984996624068e-01,7.686547876888272235e-01,7.066010680507308628e-01,4.577916077245243465e-02,6.161642903173275565e-02,-2.708338657371799768e-02,1.521446406841278076e-01
6.400966887070486111e-01,7.561524669878358917e-01,7.978647772454310338e-01,7.699021474682214705e-02,1.576635340811753383e-01,-1.023594793182242835e-01,3.792598843574523926e-01
6.443417514321958528e-01,8.043162357136036666e-01,7.001687371195379761e-01,2.003041506460168444e-02,5.639017144923025998e-02,-2.612663723049991893e-02,1.804677397012710571e-01
6.034013617484454972e-01,7.344650070044190793e-01,6.220091004116748978e-01,8.250963644645967210e-02,1.420321298576131541e-01,-8.410919767107380429e-02,3.424194753170013428e-01
6.137942944655531141e-01,8.141805914156737822e-01,6.287096458071372851e-01,5.592724951328202632e-02,1.465263357159615476e-01,-7.338974316602145387e-02,3.568472266197204590e-01
7.008881262893696951e-01,7.655247217763871959e-01,6.244407262349660481e-01,1.047410090712768208e-02,6.214839651755344613e-02,-1.567207622851454762e-02,1.661825031042098999e-01
8.049820406054529753e-01,8.748790007626761067e-01,6.814284211504326727e-01,5.376841593634537619e-02,1.607646707430337440e-01,-8.308755876120291206e-02,3.683839142322540283e-01
6.161534200875002920e-01,8.180320407455259346e-01,6.221189708199216239e-01,2.125844362850773384e-02,1.724375336676522708e-01,-3.221681954201905534e-02,3.650477826595306396e-01
7.746388782471975709e-01,4.199248830948666411e-01,7.525761934675359033e-01,1.447252512040864969e-01,-1.029841435185611109e-01,1.930500968242110371e-01,5.700361728668212891e-01
8.257481072330636884e-01,5.213900106176041493e-01,8.805581908111110856e-01,1.492478688261392183e-02,-5.542278847879654599e-04,5.949783985709188039e-02,3.515807688236236572e-01
8.311427771380575091e-01,5.399334912697230093e-01,8.864841559759312206e-01,4.349049464516468316e-02,-1.929285199271086118e-02,5.355600591739836241e-02,3.455098867416381836e-01
7.878783520553361841e-01,6.147519270124144342e-01,7.860525928872581503e-01,4.999140277105578595e-02,-1.593050986545367642e-02,5.183801265830178390e-02,2.144301980733871460e-01
8.304196837951628440e-01,5.584500530653193628e-01,8.892088284611887605e-01,8.120661698106722282e-02,2.757385589160225164e-03,5.280268274306751386e-02,3.486878573894500732e-01
8.073975093115424162e-01,4.976088444307052439e-01,8.082918162730458045e-01,6.191380419884819769e-02,2.758848058743545127e-03,1.837006288176361302e-02,3.298211991786956787e-01
8.649560774374698280e-01,5.467868123648877976e-01,8.092721228177268689e-01,7.196491580499500551e-02,-2.458114165447437480e-02,7.143496720255913812e-02,3.453604876995086670e-01
7.823600337021169304e-01,5.492018240147885644e-01,7.739489010598753493e-01,2.732333688284162981e-02,-1.519459663105666644e-02,4.135403079603515442e-02,2.460389435291290283e-01
7.845076296748464406e-01,5.086315711376994120e-01,7.325903513460129135e-01,9.412520438141401546e-02,-3.970346615680817731e-02,8.410806741465114145e-02,3.420680165290832520e-01
7.879673686531962762e-01,7.009044180414819580e-01,6.953537215484670853e-01,-2.848880959478872210e-02,-1.451000525130842662e-02,-8.031576333483725350e-02,1.746778488159179688e-01
6.540294844138530017e-01,7.107761835930420657e-01,7.656324281892931127e-01,1.360280333362933088e-02,-5.390124532207170305e-03,1.220191133763630191e-02,1.021334156394004822e-01
6.719006967659461038e-01,7.212779559673537788e-01,7.700633075437433028e-01,3.275473985873728067e-02,-9.913401105015089143e-03,1.179456602408822212e-02,1.056304499506950378e-01
6.555361868225878519e-01,7.417661894266169842e-01,7.739894162570182257e-01,3.755823318236085201e-02,-2.927880856032510221e-02,2.876912049037598160e-02,1.433148831129074097e-01
6.254594661949433032e-01,7.401775982353009375e-01,7.657060007832258153e-01,1.763693843776203626e-02,-9.469185022826169529e-03,1.561322340036552618e-02,1.366529166698455811e-01
6.421985484705243774e-01,7.400774122808936317e-01,7.468020686972131061e-01,1.645331065966561951e-02,-1.558229210428877486e-02,1.768081392084544165e-02,1.129694059491157532e-01
7.276887108281990812e-01,6.607464733817046687e-01,7.635178765632186781e-01,6.301308390450235941e-02,3.058948928826304287e-02,-7.429843635764876719e-02,1.986034959554672241e-01
7.692934407770918304e-01,6.997612297646811363e-01,7.703655218813277861e-01,-6.601507578382731500e-02,4.346629052662104309e-02,6.461435830216843978e-02,1.902035623788833618e-01
6.954830397367387507e-01,6.473951745004284941e-01,7.757308067596225820e-01,-5.099587268420528036e-02,2.074705128591059974e-02,1.568376013795083276e-02,1.498068422079086304e-01
7.217527010547318822e-01,6.902646055291874472e-01,8.028513899356121142e-01,-1.072425971153499052e-01,1.453225191916556955e-02,9.465080414093400910e-03,2.133714705705642700e-01
7.321120445122399900e-01,7.308044159998693390e-01,7.685019516109602433e-01,-4.441491214704801349e-02,3.265348688354970802e-02,4.669417440791924501e-02,1.305042654275894165e-01
7.146241535859536587e-01,6.549880652115970259e-01,7.499023563840917506e-01,-3.751642120122297003e-02,3.429127548927934921e-02,3.194292166498938212e-02,1.331016123294830322e-01
6.883499200690315067e-01,5.692607184958200506e-01,8.223112704090229652e-01,-1.505249830263623301e-01,4.415117501184953608e-02,4.090155730484471008e-02,3.562602102756500244e-01
7.094984758360562971e-01,7.732851636353037517e-01,5.460744176175668096e-01,-4.452211191962601039e-02,1.154631284657353235e-01,7.514075364965307202e-02,3.226154148578643799e-01
7.777109864946921691e-01,7.791706908799556075e-01,5.277918017096652203e-01,-4.068088347501973984e-02,7.339489655512070054e-02,6.351962469577838999e-02,3.099290132522583008e-01
8.346794469561810148e-01,7.990935884944148082e-01,5.744190617976074886e-01,-2.645143587405726290e-02,1.230450013579088980e-01,7.467789013074745130e-02,3.521219193935394287e-01
7.644246770547175052e-01,7.966945691605281654e-01,6.564490091414149076e-01,-3.487553195309805315e-02,6.030991284299365429e-02,4.496526638404687443e-02,1.918615251779556274e-01
8.051760767956785969e-01,8.188026742646643541e-01,6.017521196279926876e-01,-9.741183036357490416e-03,4.804279856645916197e-02,1.795128680528929044e-02,2.291608899831771851e-01
7.144821431231770381e-01,7.177086367594694982e-01,7.250165950304765516e-01,3.477329844259944430e-02,2.716934022507867807e-02,-4.307572246665782034e-02,1.072194725275039673e-01
6.192124061719287420e-01,8.215635758925539101e-01,7.232349972881703115e-01,-9.929303202281064555e-02,1.070243592468198696e-01,8.737282752627886784e-02,3.428696393966674805e-01
7.094633773817851097e-01,8.196568478910684075e-01,5.601251412389869344e-01,-1.950536999253033033e-02,9.136296634102188119e-02,1.326268198281843613e-02,2.785879671573638916e-01
7.005676281919799298e-01,8.252458677821612465e-01,5.769893303594072487e-01,-2.350686689091379192e-02,1.279163161027706830e-01,-1.419144365284046288e-03,3.114085793495178223e-01
7.777400842540020953e-01,7.557334282121562774e-01,4.574865550170284512e-01,-3.705826131821558095e-02,-8.887961991082102275e-02,-1.109079632319494857e-01,4.008981585502624512e-01
8.166439768481175143e-01,7.921451609890722834e-01,6.009149560878516150e-01,-2.812485937379418169e-02,-4.200381165540210959e-02,-7.321605150606376455e-02,2.561285793781280518e-01
6.688836295764403195e-01,7.490752112374949867e-01,5.990472527321004659e-01,-5.784911687215515963e-02,-1.278613720553664623e-01,-6.789429754973862197e-02,2.997034490108489990e-01
6.147491761591298287e-01,7.819221755007267349e-01,6.438593115196673544e-01,3.574847650652421965e-02,-1.255666860763411941e-01,2.585533042081045521e-02,2.776114344596862793e-01
7.026735799690760897e-01,7.281527901730503460e-01,7.245831721958224669e-01,1.387414512362130335e-02,-1.996462888353409126e-02,1.542573715235598213e-02,5.529987439513206482e-02
6.957608125800264220e-01,7.248536509589270649e-01,7.066021746952259042e-01,1.385008922817064156e-02,-1.395505762211648668e-02,1.540735185595938986e-02,5.020346119999885559e-02
6.862608952357633907e-01,7.317680430918254153e-01,7.192435295316047528e-01,4.413497616528327255e-02,-3.777799327218141212e-02,2.111322761546100685e-02,1.145440191030502319e-01
6.215716422329187196e-01,7.430102076162601321e-01,7.868601643787597189e-01,4.190773379073835236e-02,-3.570401123425407525e-02,1.285837309028033289e-02,1.777198314666748047e-01
6.226625660083815461e-01,8.248858297085858160e-01,8.846637103227151799e-01,1.148992258196082639e-01,-7.780076158638188355e-02,5.093021467622543125e-02,3.494311869144439697e-01
6.019060519947846410e-01,9.057429302359998324e-01,8.483279005964814434e-01,-5.595639719122037087e-02,-1.001710005234260625e-01,-5.683989969978480751e-03,3.431639373302459717e-01
5.751101016629468488e-01,8.896247328959197009e-01,8.569702966919650056e-01,9.344796726798736478e-03,-1.238051323533374964e-01,9.434909468672781144e-03,3.690902590751647949e-01
7.196180324872621936e-01,8.270073511491813356e-01,6.975898918133814908e-01,-2.507489253533239440e-02,-7.654505139779245459e-02,-2.909721918294232157e-02,1.907535642385482788e-01
7.096312982369857858e-01,8.571104904775891375e-01,7.053709539511856530e-01,3.023130758678673879e-03,-8.609059996293039196e-02,-2.799459471192086669e-04,2.113267630338668823e-01
6.252735899286596677e-01,8.192497641428618804e-01,7.371432233551343804e-01,5.681845899013003402e-03,-6.721901593474167991e-02,7.130365040913894288e-03,2.055385410785675049e-01
6.574929823874204882e-01,8.587385091891411859e-01,6.829337913074535749e-01,8.258728448577593029e-02,-1.493856101710625828e-01,7.984285648199191190e-03,3.516085147857666016e-01
5.513668113349090572e-01,7.528629364082891628e-01,7.989290216906560493e-01,-8.617608800227694044e-02,-1.163126892936535289e-01,-5.326676335581221472e-02,3.512575030326843262e-01
6.292056247000028524e-01,7.668686244306185396e-01,6.612893844540258526e-01,-6.670445323703311225e-02,1.240587219847514994e-01,6.035473438706951549e-02,2.932779490947723389e-01
6.478855466310905475e-01,8.921561760253379214e-01,6.622376268645506769e-01,-5.327436477387204050e-02,1.169647524918523002e-01,9.645441292935497124e-02,3.658352494239807129e-01
7.614138766454447982e-01,8.058595972758845205e-01,6.483178810764870237e-01,-3.324713071176503554e-02,7.141993773065476170e-02,5.273372249258109073e-02,2.162263542413711548e-01
7.616247085861566068e-01,6.907033214910183183e-01,7.257196601450447426e-01,-5.683661053954836700e-02,4.041290608872363105e-02,6.294583533428320388e-02,1.739250570535659790e-01
6.166919438727669345e-01,7.921463492765176140e-01,6.032494888371985331e-01,-2.943196951033050929e-02,1.531579523496973683e-01,3.087808803996824544e-02,3.303856253623962402e-01
7.654079520036353168e-01,8.758081995060280622e-01,6.072494947997653103e-01,1.806062491948023235e-02,1.432062482442842122e-01,2.158810348255981240e-02,3.443309962749481201e-01
7.012358930920089550e-01,7.247424725418757374e-01,7.339758766451000005e-01,1.869466977665767624e-02,-1.629082188047364932e-02,1.796632423923921751e-02,6.056295707821846008e-02
6.870943206829928096e-01,6.899849242883807632e-01,7.485364645396485050e-01,1.935332671274236221e-02,-1.139542521998226574e-02,1.341104087293224466e-02,7.522417604923248291e-02
7.129627644233366146e-01,6.931582019153955665e-01,7.190378089006430606e-01,4.672646708553861855e-02,-2.660612810524141600e-02,4.714466327672803964e-02,1.260596811771392822e-01
7.190249805023953833e-01,6.995199185558816923e-01,7.332772865249559402e-01,2.481141116794188459e-02,-2.057027318929680049e-02,1.702295072034359230e-02,6.962138414382934570e-02
6.609826009016117609e-01,7.094486097045495931e-01,7.434968071291964131e-01,4.053357379448849912e-02,-2.711049429064306057e-02,2.269175382066487487e-02,1.176308169960975647e-01
8.069740768707903689e-01,7.547667209138180233e-01,6.680833129669114800e-01,1.635230169942629083e-02,-1.162314519727226936e-02,5.647965893495863338e-02,1.598201245069503784e-01
8.263498626216124743e-01,7.834988535052334058e-01,6.419644750201346506e-01,7.365505115928436264e-02,-8.715421201068816737e-02,1.032884281690007872e-01,3.146447837352752686e-01
7.540700916228388895e-01,7.574995800635728749e-01,6.018430095010069980e-01,3.316931862643852924e-02,-7.151012234480061402e-02,6.096963106715824060e-02,2.313017547130584717e-01
7.647584499209638675e-01,7.484001562156993304e-01,5.742396125546291863e-01,2.717818271073769998e-02,-5.184924831945651041e-02,7.296331701516516055e-02,2.443366348743438721e-01
8.085184908849811780e-01,8.254434450271352919e-01,5.498288847518718603e-01,-2.070521414990084824e-02,-1.662330488843778431e-01,2.135603629112485524e-02,3.964085280895233154e-01
7.460271425934625888e-01,8.104334803271037169e-01,6.562463415331958316e-01,3.117984835554928405e-02,-8.172033980068647840e-02,9.382927642790521439e-03,2.029939144849777222e-01
6.819533815169427360e-01,7.335196594421566907e-01,6.446185557786424658e-01,3.496103990942114881e-02,-7.304359484865872998e-02,5.783570924694719090e-02,1.889074295759201050e-01
7.375176750366418954e-01,8.278936968744539104e-01,6.409786045793626208e-01,2.993863049240080496e-02,-1.066044150176765487e-01,3.303798336890054893e-02,2.574284970760345459e-01
7.397948639735298926e-01,7.402664495858132243e-01,6.107308947405181154e-01,9.952127740408046874e-02,-1.132262186696398609e-01,1.206896891100474739e-01,3.585952818393707275e-01
7.894091536682025234e-01,7.550840602343281693e-01,6.314092860105680050e-01,3.789956833907199424e-02,-1.030729168130237461e-01,7.264946082703555019e-02,2.696921527385711670e-01
7.307883640206733755e-01,8.046317139617999992e-01,6.845460531918315938e-01,4.471948785581705138e-02,-1.178713930474113158e-01,5.326239719927628596e-02,2.592238783836364746e-01
7.177656169801435171e-01,6.994451973039920167e-01,7.177161547688523102e-01,2.160380416010763971e-03,-9.568039876345448003e-03,3.652591273567391567e-03,2.575659565627574921e-02
7.313023071743195436e-01,8.411824949943739194e-01,7.106172365651339806e-01,9.970100632788753137e-02,-1.536539250028737813e-01,9.970563798158234292e-02,3.811134994029998779e-01
7.364168748794329700e-01,7.210398348222494258e-01,6.170174789012773386e-01,8.418144098860172453e-02,-1.157361627252367353e-01,1.442857306117095728e-01,3.695347011089324951e-01
6.930928759786720850e-01,5.619573701566320523e-01,7.843631404336088853e-01,1.038969340323992185e-01,2.249497916791765029e-02,-2.581197294351056382e-02,2.709171772003173828e-01
7.372346771740153626e-01,6.211796612040764165e-01,8.044325406646578580e-01,3.120985018680336870e-02,1.692095049617171063e-03,-1.608533331918018949e-02,1.717263460159301758e-01
8.213600919949043400e-01,5.801011831739738556e-01,8.997437294902823623e-01,1.139840083909360036e-01,2.246492605654704447e-02,-3.873169301316260749e-02,3.581230640411376953e-01
7.724453652582821128e-01,6.160244603940508989e-01,8.059233729100536703e-01,1.509933362446518219e-02,4.171120976524287163e-03,-2.477846271949344509e-02,1.827649176120758057e-01
8.009571645966329090e-01,5.908258116431202023e-01,8.058724664373118074e-01,2.712034262848188673e-02,3.905660893939821507e-03,-2.279487189631683106e-02,2.214121222496032715e-01
7.610303544687628818e-01,4.964933685973809130e-01,7.782633846894854157e-01,6.835050418556033736e-02,1.592639319556738223e-02,-4.240831498103973807e-02,3.082325160503387451e-01
8.208663708230805600e-01,5.326428647939821515e-01,8.855097732424641599e-01,6.462925282674386596e-02,2.308744945349723576e-02,3.353837785319866566e-03,3.464779555797576904e-01
7.769554058667318408e-01,7.029186581713071647e-01,6.457943895389435252e-01,1.251873960387723216e-02,1.955567023701370796e-02,-4.411028191194277248e-02,1.429282873868942261e-01
7.836053265007419943e-01,7.065205913639087676e-01,6.399512131603479759e-01,-2.760564222145751954e-03,-1.690280936970454603e-02,-4.620036305040019220e-02,1.509583294391632080e-01
7.415318463398128390e-01,7.264068712778567471e-01,6.785809384367631480e-01,1.781700921721166356e-02,2.170004776742317024e-02,-2.416233347163417727e-02,8.576665818691253662e-02
6.805810476445458557e-01,7.029430504295218762e-01,7.735150217020423380e-01,3.969413510442629245e-02,1.711141073899518153e-02,-2.366524673657429897e-02,1.197664365172386169e-01
7.358970945939448116e-01,6.665364080365171473e-01,6.600605304975089016e-01,-5.540079863471168709e-02,-4.458521671167339079e-02,-5.579131266755461144e-02,1.726594716310501099e-01
7.718923986259548231e-01,6.734013238290060821e-01,7.020360696483637364e-01,-1.037939067614184786e-02,-7.486754524050563339e-03,-1.878842340714293596e-02,9.617971628904342651e-02
7.123614993544348239e-01,7.138248269079395802e-01,7.288234796677369731e-01,7.690185937897574264e-03,6.962925124382395026e-03,-8.781401771417543869e-03,2.834169566631317139e-02
7.688103112751554225e-01,6.268183523937743695e-01,6.788840216863863963e-01,-8.730190345317835610e-03,-1.380409486743906962e-02,-6.737247302271441585e-02,1.729077845811843872e-01
7.922923326055166804e-01,6.207229005347210116e-01,6.086995333449631840e-01,-1.287953150308976565e-02,-2.246694200911744654e-02,-1.269733188233189147e-01,2.863949835300445557e-01
7.649689903498883004e-01,6.822525657758616857e-01,6.800753435330503249e-01,1.168399445014919012e-02,9.087877203866034578e-03,-2.651805023778628159e-02,9.896350651979446411e-02
6.871751127046157315e-01,6.901830233423105199e-01,7.407159159548005745e-01,-1.915894418916958691e-02,-1.364946525645190263e-02,-1.208427442168123409e-02,6.937454640865325928e-02
6.771476446975678298e-01,7.398701788159492976e-01,7.178433554719338971e-01,5.769752864368419241e-03,8.357976078505489903e-03,-1.530061433854822822e-02,6.363555043935775757e-02
6.692072743431851656e-01,7.032921193664102288e-01,7.326145440331173209e-01,-4.266105664050433982e-02,-3.274747874555893751e-02,-2.891721817341879122e-02,1.191920191049575806e-01
6.767264998218209815e-01,6.221447111788072082e-01,7.624032093813059019e-01,-6.403126077271277528e-02,-1.652058505817390055e-02,-1.806848738584181449e-02,1.705704182386398315e-01
7.131006882204914410e-01,6.972003244761607599e-01,7.505954276388601132e-01,-2.733657868575517166e-02,-1.257334381570008285e-02,-1.195806241046457573e-02,7.348452508449554443e-02
6.936605209781996351e-01,5.973321357552416888e-01,8.303903489302599805e-01,-1.546915944828729239e-01,8.610323989080298154e-03,2.403549271016673303e-02,3.389530479907989502e-01
6.821989155716684516e-01,5.454143328942919755e-01,9.279901168935483780e-01,-2.524715422802054632e-01,3.096121500885882366e-02,2.256958976311634543e-02,5.553137660026550293e-01
6.278233718749760550e-01,7.340252195709395799e-01,8.253671760001175528e-01,-6.350451807387751113e-02,1.888395568660708543e-03,-6.015732675308651210e-03,2.038151323795318604e-01
6.704976846607701990e-01,6.861059020391897523e-01,7.659441632966629276e-01,-2.689053948128236268e-02,-1.372968720003997674e-02,-1.900868493697761147e-02,1.080865561962127686e-01
7.045748178475870205e-01,6.728886174551298449e-01,7.123825078294115931e-01,3.245608892298025572e-02,2.851370986272747793e-02,-3.285735673466617240e-02,1.007495746016502380e-01
6.194926178645240311e-01,6.723704982020128895e-01,7.668622727076042089e-01,-7.219950286786408489e-02,1.332478344263975968e-02,1.533963198525952441e-02,1.832980066537857056e-01
6.622389037458414895e-01,7.665810157262706870e-01,8.383261034679555523e-01,-9.035833884302278685e-02,-4.392488955289377064e-03,2.502060514702780791e-03,2.192970961332321167e-01
6.987669444762719673e-01,7.534358293567157139e-01,7.036560328877453641e-01,2.835317876061993307e-03,2.213974276770934793e-03,-1.695682607997470734e-03,5.284654349088668823e-02
7.859025588044287192e-01,7.949381551620977593e-01,6.094806434410702245e-01,4.382760236172891983e-04,-3.781357303674569292e-02,1.082258276458687198e-02,1.934992820024490356e-01
6.833387981026530777e-01,7.387920670995236083e-01,7.086969165308582008e-01,2.431656685090535785e-02,3.002661075042269492e-02,-1.945016138387857529e-02,8.902534842491149902e-02
7.573133663968278917e-01,7.960550370212123861e-01,6.746100744193807008e-01,2.398202333090194635e-02,-3.704666909750762432e-02,4.884710261701579598e-02,1.566707193851470947e-01
7.269127902181704570e-01,8.116812417946470681e-01,6.435192345909570566e-01,1.278280828227060066e-02,-1.646884362423112758e-01,2.429120287488819446e-02,3.237847387790679932e-01
7.435372566468216871e-01,7.985196726310603843e-01,5.069061969959236524e-01,3.504794103903547536e-02,-9.971648414273309724e-02,4.387318713337559628e-02,3.336429893970489502e-01
6.225114498045151157e-01,8.688474501256961968e-01,6.801004683077644941e-01,3.968231094555742938e-02,-1.264239921160534297e-01,7.098415926365998774e-02,3.429301083087921143e-01
7.135608829951326504e-01,7.881292207415133699e-01,7.123288053064823488e-01,2.247257611730699850e-02,-6.610715902211833361e-02,1.594253275115604593e-02,1.450580656528472900e-01
7.176302926378700375e-01,7.927470417437184613e-01,6.580883553105606465e-01,7.171670955175180051e-03,-6.499218691585913199e-02,3.104874987559965924e-02,1.714021265506744385e-01
1.160855144938880201e+00,8.237475206962855401e-01,6.975958940214361803e-01,-2.916608627803069648e-02,-5.822061628661363841e-02,-3.901005576150626819e-01,8.008362650871276855e-01
8.444554514202474715e-01,8.344359160055184743e-01,5.945983039424076466e-01,-1.099896534062961076e-02,1.208112339576793565e-01,-1.082366546254547313e-01,3.732559978961944580e-01
8.336528339894972994e-01,7.430824017316992602e-01,6.418720652172716923e-01,1.354030988225161068e-02,3.819473698790978866e-02,-1.069490272355826249e-01,2.585614323616027832e-01
7.977583767904876666e-01,6.746601208027351859e-01,6.260606395654240153e-01,6.359328627053578709e-02,8.163693867249743885e-02,-1.101324526976683316e-01,3.033334016799926758e-01
8.268233673348587276e-01,7.253810228800208204e-01,6.827976547445189226e-01,3.971544923363790752e-02,1.009481809319856260e-01,-1.533585951126205660e-01,3.496909737586975098e-01
8.133574975995008227e-01,7.217220630972768225e-01,5.594000806503576229e-01,1.828635114039748460e-02,2.313010697247172218e-02,-8.741329926154926822e-02,2.741374671459197998e-01
5.841750543804833384e-01,4.656578174630657818e-01,8.495942519194847886e-01,3.416780899157624840e-01,1.809183141377459234e-03,-1.492149235355537049e-02,6.832715272903442383e-01
5.353989652580283254e-01,6.553660894188302333e-01,1.092004789483668858e+00,2.894512940109238430e-01,7.771349478951843082e-02,-8.039353026005505165e-02,7.391085624694824219e-01
8.168938868740177606e-01,6.679665976600188682e-01,8.705736700558254215e-01,1.347587984003943973e-01,-6.580389643694709023e-02,1.073395963479027576e-01,3.675470948219299316e-01
7.313289466344635725e-01,6.988509885524671894e-01,8.976129321597077215e-01,1.686502079488958750e-01,-1.462080280455664268e-03,-2.200620876116557087e-02,3.476976454257965088e-01
6.331762935293935302e-01,7.255468325386400519e-01,7.926247782235438244e-01,6.557014990145283717e-02,4.234611072307854773e-02,-2.531913219232109075e-02,1.985670775175094604e-01
6.743459470421097057e-01,7.534612830724286558e-01,7.627547608853425531e-01,2.885264623707441828e-02,2.946151047920665331e-02,-2.431714741075013606e-02,1.181363612413406372e-01
6.145019267365592341e-01,6.543036718385147887e-01,8.739777097659964245e-01,1.268694021422674123e-01,6.943728093595408039e-03,-1.483956291542630132e-02,3.281418681144714355e-01
7.406019752086450136e-01,7.769716803894138879e-01,6.465363349214785504e-01,-2.892014461211515897e-02,-4.068528751942449700e-02,-4.965001235159128418e-02,1.687086671590805054e-01
7.880224965217729194e-01,8.062699626579254986e-01,5.425680714872834765e-01,-1.636731180119871702e-03,-5.600040718853718791e-02,-6.394322773278571237e-02,2.945201992988586426e-01
7.726074049555620160e-01,7.851691007381261800e-01,4.905363713558417715e-01,-7.817589842514145043e-03,-3.859012220218326072e-02,-3.482082937625904234e-02,3.025781810283660889e-01
7.750431189035122959e-01,7.115250526606636816e-01,6.735703709879158341e-01,-2.648417313631775544e-02,-2.161125671232169351e-02,-3.922530887128140159e-02,1.265193969011306763e-01
7.105126912714894161e-01,7.507499161594161086e-01,7.154526887279344383e-01,-6.378203440011333269e-02,-7.366384148423973932e-02,-5.304356954411728470e-02,1.958802044391632080e-01
7.408559460332456714e-01,6.934509918184769139e-01,6.090409628920946394e-01,-7.167941598485814969e-02,-9.198637713575007202e-02,-1.139496536828352585e-01,3.051648736000061035e-01
8.180465276150443721e-01,8.453260710378494025e-01,5.572753917720407735e-01,3.554572467781498199e-03,-1.264343444378510095e-01,-4.668406245316093078e-02,3.610990345478057861e-01
4.093433383317655050e-01,9.714921354238802431e-01,9.248655161709300465e-01,-2.488352077751169733e-01,9.715291193165317973e-02,1.126481232135225774e-01,7.376421689987182617e-01
8.083924710750648446e-01,5.722253705893003417e-01,8.351954511669655856e-01,7.451773102129183313e-02,-7.119319312618355156e-02,1.038305464471014905e-01,3.564122915267944336e-01
4.881162446798745780e-01,7.539282894471807106e-01,9.251584489777122666e-01,-4.142067478040932782e-01,6.343454371921779938e-03,4.632328530425440516e-02,8.165481090545654297e-01
4.803500956589302762e-01,7.893854856116158114e-01,8.664317036461879340e-01,-1.824243484541296367e-01,6.154178724178404475e-02,2.700817360810658582e-02,4.885032474994659424e-01
3.514485172535055102e-01,7.464388576839411371e-01,9.147676904572091816e-01,-2.616467301880507357e-01,-6.471484746548109013e-02,-3.337957231921929308e-02,6.871126890182495117e-01
5.409030978838058612e-01,8.192797133647040653e-01,9.309715560641695919e-01,-1.785137554142864347e-01,-2.419199032275699476e-02,-2.614246644698030395e-03,4.673743247985839844e-01
5.337694396267718133e-01,8.070672167301884414e-01,8.458466923374003965e-01,-1.721523107073024972e-01,-2.875568469794504561e-02,-2.652984768160196807e-02,4.246119260787963867e-01
7.823514360724110883e-01,4.943807439997998099e-01,8.040937741819347284e-01,8.214665634811485484e-02,-2.661838248461673249e-03,4.022818589341693035e-02,3.387940526008605957e-01
7.995044678523793857e-01,5.929110305404343695e-01,6.701788230225746990e-01,-5.290438688797254041e-02,-4.083339555710230329e-02,-1.328080709883444344e-01,3.146439492702484131e-01
8.438301512756901657e-01,7.477718030588201836e-01,5.501700020422946036e-01,-8.987945355220745836e-03,-6.067759742814588658e-02,-1.840841327091311264e-01,4.245038926601409912e-01
7.698537372331889506e-01,7.328820805996495436e-01,6.541964240958966226e-01,-3.620331627009058112e-02,-3.997110768435982453e-02,-7.464991739325219089e-02,1.895004361867904663e-01
4.754206100314067873e-01,8.016343498072755480e-01,7.744723816252477855e-01,1.295709148414156062e-02,7.053173238739190998e-02,-3.719596957113064511e-03,3.372860848903656006e-01
4.715193071128099267e-01,8.035756053375324726e-01,8.145016606545999460e-01,-1.412239897182262366e-02,9.202640366537137226e-03,2.409774144023383875e-03,3.389375209808349609e-01
4.535415616820018814e-01,8.146860426785894616e-01,8.148253937273429726e-01,1.009533708192165676e-03,9.909871299069497250e-03,7.852083005686847847e-03,3.618816435337066650e-01
4.487236754349024914e-01,9.662681798443146786e-01,9.411950232338330835e-01,-1.716856621265874360e-03,3.923706692660925040e-03,3.384216583068107992e-02,5.089159011840820312e-01
4.175153998558000512e-01,8.523182338389272417e-01,7.968609652046774183e-01,2.735310342992395768e-02,3.279509842113464274e-02,4.679872387487771755e-03,4.165967702865600586e-01
4.018309987162562158e-01,8.392023624772411150e-01,8.107189913262058401e-01,1.962995683464892685e-04,6.222283805113580646e-02,4.678835569268977555e-03,4.374105930328369141e-01
4.487571519996172986e-01,9.252165464802251105e-01,9.435724574326715963e-01,3.343301294612311455e-03,1.789388108845417491e-02,1.353061745967075111e-02,4.874829947948455811e-01
6.824017456143355309e-01,9.200904770569829916e-01,8.320905859749356814e-01,8.999534898693699325e-02,1.562641499675623824e-01,-6.123475351854005405e-02,3.900325000286102295e-01
4.268100319389489528e-01,8.718557190255769029e-01,9.322291413197429932e-01,1.935585784489759348e-02,1.582724226512563850e-02,1.911924343754593456e-02,4.811981320381164551e-01
9.613132997465886342e-01,5.037302813150084102e-01,1.095051515592791569e+00,-1.381723887014240926e-01,3.856426730873949854e-02,-2.189902675306554941e-02,5.929920673370361328e-01
8.296929051888487505e-01,4.164863520859959922e-01,9.070245040501158096e-01,-8.332657774852152144e-02,1.177309296730621058e-03,-3.444166876718446346e-02,4.827696681022644043e-01
8.389390391844512296e-01,4.815129395579748062e-01,8.425284324174672212e-01,-5.865163913443641880e-02,2.064039051255766102e-02,-2.180116550910438100e-02,3.769260346889495850e-01
8.240038962207656414e-01,3.269242288701175170e-01,8.313047139554089471e-01,-8.908999783410961881e-02,-1.667191441295920451e-02,-6.816336515831920850e-02,5.379166007041931152e-01
7.833868933186228789e-01,3.347448343195189024e-01,9.240614494893325537e-01,-1.481820919261376823e-01,-2.722577202186881717e-03,-1.367302860013959176e-01,6.373092532157897949e-01
9.244590934630823043e-01,4.858124732088581754e-01,8.475487507038725887e-01,-2.644876505534506095e-02,-1.990073858241804550e-02,-7.855524288143382605e-02,4.317280352115631104e-01
9.607596780396693292e-01,1.601529138265582741e-01,1.167519327763261394e+00,-7.116596697978777586e-02,3.474320111412908252e-02,-8.424628496811223388e-02,9.430595040321350098e-01
1.097019193167036555e+00,2.841840545591354239e-01,9.790897458772984674e-01,-1.223156632586308440e-01,-5.038161192223737650e-02,-3.799255175814930403e-03,7.945393323898315430e-01
8.145977669308117619e-01,7.100375332963975161e-01,5.620181057792329460e-01,5.980095065319004921e-03,-1.533508915876678758e-02,-1.025459186683045781e-01,2.840410470962524414e-01
8.290271468599349491e-01,7.650071143672003693e-01,5.921382925967698663e-01,-1.339392694508479906e-02,-3.198398507339057090e-02,-1.035806851821031022e-01,2.843294739723205566e-01
7.954218115022450020e-01,7.258009854569517083e-01,5.618743957793873589e-01,1.112812823720400572e-02,-1.458625010448055814e-02,-1.048944215401172442e-01,2.777588665485382080e-01
8.084701709066073327e-01,7.818389065457549414e-01,5.796791513433189325e-01,-1.801191300214852273e-03,2.382424367551565572e-02,-5.672914716619963105e-02,2.415132820606231689e-01
8.185633182206906167e-01,7.758500273097335143e-01,5.235869031428945775e-01,1.517257487999453067e-03,1.283335121112506166e-02,-8.140077882001635345e-02,3.108300864696502686e-01
8.079128383082440079e-01,6.970637710008426025e-01,5.222248396385915647e-01,3.298880860127359482e-02,5.936031351910146109e-02,-1.618151662020820836e-01,3.932239413261413574e-01
7.106887639475153451e-01,7.156227120702951527e-01,7.227953361452669201e-01,-6.046399799140637606e-04,-1.796147517260398251e-03,-3.196156069291480016e-03,1.235318556427955627e-02
7.337611124913356875e-01,6.371188193127172994e-01,8.020641143846015675e-01,-5.581838268493037603e-02,-1.863216583393251594e-02,-2.014046163389037261e-02,1.794755011796951294e-01
6.736497697083161373e-01,7.071342559532469707e-01,7.659136967739302859e-01,-5.356910351008509034e-03,1.006779184675320789e-03,1.042846714288990636e-03,8.146671205759048462e-02
6.758249584751361283e-01,6.751216829960730026e-01,7.806039658100651923e-01,-3.061689996686375870e-02,-4.535135013523264140e-03,-6.544828856107724573e-03,1.185546889901161194e-01
7.350941783405012808e-01,6.845100397786836322e-01,7.333693984466370663e-01,5.840863410362841755e-03,1.504894680954401917e-02,-7.037696394902058505e-03,5.835092440247535706e-02
6.709177941573207793e-01,6.530160033425724819e-01,7.696084770251623297e-01,-6.593165583843928201e-02,1.734613380169838445e-02,2.062484457137793090e-02,1.644592136144638062e-01
7.083993553632709217e-01,7.235314046248618736e-01,8.362817863996458989e-01,-7.595480375974841825e-02,3.540193860072257627e-04,5.606874323880200843e-03,1.790247410535812378e-01
6.770308391557559036e-01,6.274205607907210602e-01,7.704388387129101901e-01,-6.518631507440626749e-02,1.110928410434838809e-02,1.154572522221811691e-02,1.712838560342788696e-01
6.671552924680114183e-01,6.294347382941428704e-01,7.639374790398826276e-01,-6.605267926982330562e-02,1.826068530321458758e-02,1.506325245552676308e-02,1.709100455045700073e-01
7.011720263842240453e-01,8.469271960691936441e-01,7.554496070352663128e-01,-1.211599443281480698e-01,-1.609911002304745542e-01,-1.274238747429885799e-01,4.321845769882202148e-01
6.574164315902710776e-01,7.109670936243385198e-01,7.397010002566573039e-01,-5.479253427388067199e-02,-4.028695727955788897e-02,-3.183806474658251728e-02,1.488247215747833252e-01
6.977825782483235706e-01,6.431887008228439617e-01,6.838709407528834605e-01,-1.014903441096333542e-01,-8.991015263558589654e-02,-1.015152771611347177e-01,2.974608540534973145e-01
6.104590200646269338e-01,7.672040426231755417e-01,6.548061012824718530e-01,-2.562524003693362074e-03,-8.362028499473704579e-02,-3.388398879598428746e-03,2.015333175659179688e-01
7.439416978084877341e-01,7.134400797307673958e-01,7.574402159103503784e-01,-6.174376099873297302e-02,-5.001469834653383961e-02,-5.650063870996233778e-02,1.733278334140777588e-01
6.981129624677735457e-01,6.287164061985668351e-01,7.807188557579849419e-01,-6.248789716963969176e-02,8.094277551948124774e-03,9.389202118950812012e-03,1.718936115503311157e-01
7.844044583426472705e-01,5.441961729665794056e-01,8.282142555579798948e-01,-1.463186098122326306e-01,1.340030987457998483e-03,3.054547097680456510e-03,3.666109442710876465e-01
6.867752106333617768e-01,6.194397064326407909e-01,8.147752449438501188e-01,-6.092761114799883498e-02,-8.411229975289013713e-03,-8.473558824371061281e-05,2.022024095058441162e-01
7.267210199360714107e-01,6.169124731041919496e-01,8.106256677527838850e-01,-6.793897293866568710e-02,2.024402133440466808e-03,-1.262676733222595389e-02,2.065165042877197266e-01
6.826648038729864476e-01,6.258728365031167584e-01,7.816028444896356842e-01,-6.006680713417057033e-02,-8.244607872445668811e-03,-1.461417510391327564e-02,1.740737110376358032e-01
7.599281006123979054e-01,5.743795217252463114e-01,8.136876490417956909e-01,-8.884910989301596229e-02,-1.274302034592359953e-02,-1.362290457330631380e-02,2.683649957180023193e-01
7.360391515036061039e-01,5.526981413215490413e-01,7.616656260489249597e-01,-1.020563530494445481e-01,4.392961670241558175e-02,1.047395884881647116e-01,3.300243914127349854e-01
8.554896699732454923e-01,4.506194381040631858e-01,8.498527997762421737e-01,-1.399866813215752681e-01,6.449883168528166254e-03,6.298480748822342205e-03,4.697894155979156494e-01
7.894913083806091025e-01,6.140007129689252219e-01,8.060760000047410001e-01,-3.468842419663778487e-02,1.805167947478030985e-02,4.583384829570622682e-02,2.118304371833801270e-01
8.822679967874403895e-01,4.379311440425960322e-01,8.723207914460975321e-01,-4.338197446866590840e-02,6.453121657752779357e-03,1.229557044645365610e-01,4.942059218883514404e-01
8.512935618218523404e-01,4.827763599676941908e-01,8.452841056925898267e-01,-1.228528086838328037e-01,-4.565305416348550659e-03,6.716077470032433272e-02,4.387472271919250488e-01
8.973890369403099143e-01,6.067418066798955234e-01,7.632007483721013896e-01,-8.628173676921040147e-02,7.081898908017043859e-02,1.512867048483722276e-01,4.117322564125061035e-01
8.502921710917367148e-01,6.060455417028621783e-01,7.227653159379153758e-01,-6.812748485232356099e-02,-7.998026519309865820e-04,1.400621184785575957e-01,3.428551852703094482e-01
7.055179866579058823e-01,7.260905308187014517e-01,6.986204119350321040e-01,7.928562239596750535e-03,5.418067003598234926e-03,-3.848867111782932476e-03,3.055815398693084717e-02
8.646788416878050665e-01,4.499667835640369651e-01,8.090915669890476059e-01,-4.824722320740225390e-02,3.516716894998871829e-02,1.670194693783550732e-01,4.963903725147247314e-01
7.203449528895403686e-01,6.989073051512485479e-01,7.467159839523693776e-01,-1.894341758743418869e-02,-1.699511703065908347e-02,-1.739876396552676729e-02,6.761322915554046631e-02
6.344522730440563807e-01,7.309294972542916824e-01,7.805394927717360654e-01,-8.801856724140080801e-02,-5.966953568284877329e-02,-4.257373382536900480e-02,2.364655882120132446e-01
7.461828276965868367e-01,6.468560546016943746e-01,6.956699505751196000e-01,-6.530018219612590546e-02,-7.347181998561844174e-02,-1.340937870695292911e-01,3.005497753620147705e-01
6.761496539571799635e-01,7.080359032498784178e-01,7.017892293302193663e-01,-3.406748908596735070e-02,-3.952899297182276700e-02,-3.161900780032139702e-02,1.096597537398338318e-01
6.517234235553420740e-01,7.277553072787955601e-01,7.288426672927228456e-01,1.801868886086966520e-02,7.955792917096866923e-03,-1.880247497031472745e-02,8.994001150131225586e-02
6.587638239556100617e-01,7.715585226526266993e-01,7.630550152542439069e-01,2.289844476355174657e-02,2.448533197000310815e-02,-2.622840576005313479e-02,1.314199417829513550e-01
6.509442231767317288e-01,7.607556379967002069e-01,7.376180331048931560e-01,2.108259974844147594e-02,2.876842314893484145e-02,-1.669412581037528140e-02,1.212662309408187866e-01
6.782786744477476981e-01,7.522306489681688246e-01,7.576402092228400331e-01,3.826554299710323986e-02,3.328656835199520631e-02,-1.778237176859686144e-02,1.206796839833259583e-01
6.390633674246388729e-01,7.628585144802606521e-01,7.467779523758184546e-01,3.229145458751196684e-02,5.309782927276756465e-02,-1.180485435484502320e-02,1.599923223257064819e-01
7.951011410987282035e-01,8.002811916284647831e-01,4.990093362338907657e-01,9.258834670735062401e-04,-2.313001656826205871e-02,1.341278643653875426e-02,3.022883236408233643e-01
8.656801504119261415e-01,8.486898190844447409e-01,4.744143456679720261e-01,-1.523028539984200291e-02,-9.780059499221565797e-03,6.628231425729065596e-02,4.011143743991851807e-01
8.182731448404108043e-01,8.071819592213640426e-01,5.758865049972585748e-01,9.861502361835134192e-03,-5.904407891981402340e-04,1.938380631119292208e-02,2.400123625993728638e-01
8.025751838787216208e-01,7.971123413949995351e-01,5.328699076816028057e-01,5.492375999146547369e-05,-5.317838229872092794e-03,2.343741920300843398e-02,2.702410221099853516e-01
8.718283718126629278e-01,8.431752916474740678e-01,4.445797478936017177e-01,1.535303231621409914e-02,-2.137935119275586812e-02,-1.823909550231732216e-03,4.161835610866546631e-01
8.939485107390092722e-01,9.026199586228148553e-01,4.699990973201090827e-01,-4.816471193052702417e-03,1.041596326031019992e-03,-4.749216644094578221e-02,4.362612962722778320e-01
9.174348215792811345e-01,8.615262909381354861e-01,4.478877624880037156e-01,-5.556212078188896807e-03,-5.038930747232365365e-02,7.725777232105848942e-03,4.530313909053802490e-01
8.176306259290450074e-01,8.376595856281096042e-01,5.137134570985888438e-01,1.992470156699665054e-02,-3.720658193184855911e-02,-7.323531989386356141e-03,3.230461478233337402e-01
8.133396864532401738e-01,8.467371583845965111e-01,5.169296229930435693e-01,7.164406844359221330e-03,-2.490611182565143772e-02,-1.183268089388062223e-02,3.182901740074157715e-01
8.103725615494273837e-01,8.127108375235814197e-01,5.446648189354659220e-01,-2.686496997129132758e-03,-9.546291784413386827e-03,3.724758711774720649e-03,2.675145566463470459e-01
9.688298824577189494e-01,9.715650295490504407e-01,2.618439939814615203e-01,-9.561760755217993402e-02,2.657066900212675664e-01,-7.628288811497426977e-03,8.609141111373901367e-01
7.640713485074235312e-01,8.402706353549639351e-01,5.337219936213053462e-01,5.115241031346324380e-03,1.190203581186660697e-01,-1.265823507481338671e-02,3.456535041332244873e-01
7.665282011987689659e-01,8.035908562512820152e-01,5.711419700458990611e-01,1.980993113723581583e-02,3.754092868166778590e-02,-1.501389662541968012e-02,2.299401462078094482e-01
8.189200608764113376e-01,8.723835094398008083e-01,5.220895813906544225e-01,3.722609017399663295e-02,1.040781090359587102e-01,4.023623402524242887e-02,3.851586878299713135e-01
7.711815931173193750e-01,8.068778924469777181e-01,5.555258737426738147e-01,-3.758242246128399525e-03,3.679196692080690528e-02,2.657455483410246701e-03,2.441397756338119507e-01
7.597467512547074753e-01,7.923435618303313888e-01,5.489683981864666995e-01,6.524436545131119709e-03,4.016156229310653691e-02,-3.009567468172675859e-03,2.394879907369613647e-01
7.498030141323155373e-01,7.282122944775132334e-01,7.031429577071214299e-01,-1.747213938476634143e-02,1.546794498614983450e-02,1.885821702695408830e-02,6.585128605365753174e-02
7.222314971196133193e-01,6.903349073916559275e-01,6.939272647178300613e-01,-1.332116182291114177e-02,1.362675435438662555e-02,1.631824666071811369e-02,5.295275524258613586e-02
7.524738667364273548e-01,7.019180274475151915e-01,7.170819423178855789e-01,-1.248668004857163803e-02,1.254091157533359854e-02,2.229709494019935234e-02,6.671033799648284912e-02
9.631091691504931607e-01,4.423246134787717776e-01,9.403353237840839096e-01,2.717689305777449826e-01,-7.260695459990182399e-02,-1.229776311428308899e-01,7.366381883621215820e-01
8.933028136463739832e-01,5.365044239892231559e-01,9.244707194850823040e-01,9.438457946737499604e-02,-3.420991945154894850e-03,2.566207489241307052e-02,4.100405573844909668e-01
7.695157336036458906e-01,7.360625871130772602e-01,6.661089264179470559e-01,1.365071825005397324e-02,1.637062208198015317e-02,-1.203930339530354804e-02,1.007504388689994812e-01
7.709562202647531892e-01,5.286604233276878118e-01,8.335888528494375116e-01,8.288935939938715802e-02,-1.253215802932749340e-02,1.001577980604854111e-02,3.149440884590148926e-01
7.113998184166252514e-01,5.269928148368075993e-01,7.913943311522708690e-01,1.219270261359785557e-01,3.388598656061641429e-02,-5.523523104173382048e-02,3.351906836032867432e-01
7.815837294512778533e-01,5.621158003149675508e-01,8.084490689944507924e-01,9.156960996626575811e-02,2.609121308598125882e-02,-4.197017758290569334e-02,2.954077124595642090e-01
7.224189787973488430e-01,5.470390975274145307e-01,8.291155712470280603e-01,1.117786838742310107e-01,-2.161957567090515633e-02,2.453343086720509089e-02,3.186628520488739014e-01
7.001079535570019496e-01,3.877765850712239781e-01,8.720480287655294482e-01,2.411845379035020276e-01,4.418321507814825660e-02,-8.834922946968973290e-02,6.201610565185546875e-01
7.883823142167439846e-01,6.044437219301201925e-01,9.145170377037847853e-01,1.789630507746801102e-01,1.323024204338539220e-02,-1.847350408334609562e-02,4.130092859268188477e-01
7.128609441308392247e-01,7.423092836354540092e-01,6.873515634928074602e-01,1.032552380802849619e-02,4.117213009602761070e-03,-3.750752399010813098e-03,5.178851261734962463e-02
6.116296553051541185e-01,7.886098083498140898e-01,8.117514840657579223e-01,5.624879334728464381e-02,1.601402535461979651e-02,-7.634481322804402385e-03,2.153813242912292480e-01
5.913174333438091512e-01,7.629957237553300908e-01,8.293716366651724403e-01,1.317496371220654716e-01,4.870311254643333587e-02,-7.607950433442581262e-02,3.490396142005920410e-01
7.175567710921816333e-01,7.258591299782031214e-01,6.857783744534499126e-01,1.490551451977767047e-02,8.575464774415092473e-03,-6.365853869664907239e-03,4.849064350128173828e-02
6.428590998880028273e-01,7.264206729425201070e-01,7.543331734034941505e-01,-6.895383768161354732e-02,3.711729550785735493e-02,3.803834996780138672e-02,1.811954230070114136e-01
7.318444807581224731e-01,7.125165525395391608e-01,7.037424700905281494e-01,-2.254778770381893338e-02,2.786796145736018110e-02,2.260227467174062005e-02,7.751002907752990723e-02
7.242728525803963091e-01,7.495063489657366462e-01,6.932998515908264103e-01,-1.257661101311728820e-02,2.023869716678882574e-02,1.241649010555973334e-02,6.740511208772659302e-02
6.959132430028467375e-01,7.102848773582841613e-01,7.190848388699639937e-01,-1.368440583344155727e-02,1.644932296869633381e-02,1.607870391361077358e-02,5.059206113219261169e-02
7.085231751546210432e-01,7.328451841810966760e-01,7.141545656771840500e-01,-2.935608483948443440e-02,2.844440587384894706e-02,2.622386698917053213e-02,8.695959299802780151e-02
7.100920894371841596e-01,7.287170884880170840e-01,7.233960472096265804e-01,-1.151380798479500166e-02,9.781464936824548623e-03,1.100116455119627863e-02,3.638558834791183472e-02
7.069987323743696095e-01,7.290647280581682432e-01,7.056828355432523958e-01,-1.207979040429029219e-02,1.138304751892796687e-02,7.989945282780887281e-03,3.918774425983428955e-02
6.918160605953750375e-01,7.980780209778509660e-01,5.491539878855877799e-01,1.444649840096270607e-02,-1.214348173329072161e-01,2.764744412256842782e-03,3.028067052364349365e-01
6.588879999002001941e-01,7.579930648206394395e-01,7.357032426613239195e-01,-5.449283395511364189e-03,-8.467746834605776804e-03,-1.244823032718945545e-02,9.422676265239715576e-02
7.586032191904845678e-01,8.173484153322568835e-01,6.371185630599442984e-01,-1.593659157267177107e-02,-7.009021529669093309e-02,-1.943699787922185604e-02,2.048887312412261963e-01
7.438244057907674733e-01,7.904237245900713749e-01,5.351295102100558365e-01,-4.225437426082634396e-02,-1.232013558652822333e-01,-4.556574973721499305e-02,3.355157673358917236e-01
7.152533132443705810e-01,7.238526213718424751e-01,6.910348465542860419e-01,1.170063267282208525e-02,6.820164567842605489e-03,-6.775382432572861144e-03,3.945529088377952576e-02
7.007011795590174508e-01,8.967203464446877881e-01,5.620768985976858367e-01,2.086982399618114888e-03,-1.258561501030780738e-01,-1.511734258985151028e-02,3.647344112396240234e-01
7.760274755349434450e-01,8.156299112789379135e-01,5.975709794987438261e-01,6.927237108042424985e-03,-4.878957808356763209e-02,2.472856005019135120e-02,2.227153331041336060e-01
7.103744086852428197e-01,8.191671834737876967e-01,6.786988021183777420e-01,8.099880757180818319e-03,-8.401036685812190985e-02,1.240462067268678810e-03,1.940617263317108154e-01
7.313517443029781129e-01,7.053076145900489813e-01,7.142908779168635203e-01,6.500376002012762770e-03,5.834602121581422378e-03,-6.010674463612906450e-03,2.936514094471931458e-02
7.531349591014606659e-01,6.768684919206524597e-01,7.736439533462317053e-01,6.099095746776222321e-02,-2.923989063568520688e-02,3.904544439278608697e-02,1.615536659955978394e-01
6.002311523860766052e-01,7.537802824033502658e-01,7.580274951669145889e-01,7.612814454267746722e-02,-4.738771066976402851e-02,4.102512629245125969e-02,2.311276346445083618e-01
5.924036775545686861e-01,7.398357329282636563e-01,7.989440940884128262e-01,5.530400318050566338e-02,-1.063937634132712355e-02,3.654866608267578337e-04,2.084707766771316528e-01
6.876856219912181878e-01,7.439762133991453252e-01,9.301802264812705223e-01,1.892823149111194925e-01,-2.981942332782447011e-02,1.960434270654920832e-02,3.995323181152343750e-01
7.628822848633014519e-01,6.487867005062983861e-01,7.045652569621581041e-01,-1.052448942270496450e-02,1.413902848958806073e-02,1.679639210772600894e-02,1.074399873614311218e-01
6.423694100093586545e-01,7.374853706879169746e-01,7.678561884683052785e-01,4.367208315459379653e-02,-1.853493343188056253e-02,1.657961410933436394e-02,1.429518014192581177e-01
6.222413972194220655e-01,7.559901258686635428e-01,7.764925894676409923e-01,1.235429176016113184e-01,-7.467401325264752532e-02,2.897101151559876991e-02,2.934048175811767578e-01
6.166464349056257621e-01,6.958045725507330248e-01,7.564053192091995115e-01,1.044468028994790798e-01,-7.100067700233857193e-02,5.198217309049612406e-02,2.658808529376983643e-01
6.889247189577356600e-01,6.802513063203916577e-01,7.648544231276602767e-01,9.589181640365387893e-03,-2.354161149674652894e-03,1.114589807216766985e-03,8.243378251791000366e-02
7.911805289716615786e-01,7.898969096685282132e-01,5.223229203578074742e-01,-3.876323912719932714e-04,7.104583975399892184e-03,-3.128205543297684407e-03,2.685557305812835693e-01
5.066873873167996312e-01,8.815308580363150348e-01,8.960651223990060421e-01,-2.164138182188202805e-03,2.298419485924469222e-02,-1.325996132386873241e-03,3.844100534915924072e-01
3.181416909135470483e-01,1.012088910615916770e+00,1.012584370032325376e+00,-4.668653351600990549e-03,-1.285852187599462182e-01,9.291738309432859277e-02,7.466428875923156738e-01
3.548326251993957348e-01,8.633244837902934732e-01,1.085120562042213077e+00,1.484470719720006604e-01,-9.341225264199773393e-02,4.547264225476707611e-02,7.204369306564331055e-01
1.503453500982346314e-01,8.315729630196784239e-01,8.583417842876941428e-01,1.531233630223336785e-02,3.367614378363636973e-02,-3.357729939515580186e-04,6.979464888572692871e-01
2.491204655995034600e-01,8.199117555690920156e-01,8.515361904585578845e-01,1.692474114585287293e-01,1.173984800691481962e-03,5.432410231299335084e-03,6.564148664474487305e-01
7.447665386827488909e-01,6.663754696771846397e-01,7.074049018577539538e-01,-6.959253378439625437e-03,1.367127108196489887e-02,1.533186636958914703e-02,7.761079818010330200e-02
5.232256129394470268e-01,8.757542665646873559e-01,8.531833511749880028e-01,-4.942207995563740325e-02,7.065002212650718649e-02,2.891509054453489727e-02,3.763497769832611084e-01
3.216912692565667697e-01,8.586954491884944973e-01,7.591190908947981208e-01,-1.112765998826555219e-01,1.939868507039859136e-01,2.063971028858010287e-02,6.293919086456298828e-01
3.704728193388719393e-01,8.876788981211323204e-01,7.752363517023725947e-01,-6.008116886467620640e-03,2.626429641652747726e-01,-3.143704505928743547e-03,6.550354361534118652e-01
5.178738897579234779e-01,8.745310685071387979e-01,8.042629411089580183e-01,1.874012446250010108e-02,1.815131458934497177e-01,1.890820564539474891e-02,4.561222791671752930e-01
2.368674374318321951e-01,8.625500557845189320e-01,8.457549066444385311e-01,5.701271798698694104e-02,1.301123904297923906e-01,7.183510276470931807e-03,6.647903919219970703e-01
3.269453534703986586e-01,9.590801305221727802e-01,9.879162719420568894e-01,-1.154193003567971637e-01,1.366092047089231820e-01,-7.080457997947990634e-02,7.277672290802001953e-01
6.735325406306534868e-01,7.562226729429734062e-01,6.751280493881610667e-01,9.586386608562339970e-03,-2.897505397403502686e-02,1.016278787597459793e-02,9.905793517827987671e-02
6.216459001433695120e-01,7.988516339197277993e-01,6.828740474232479762e-01,9.884039290766123698e-03,-7.629697112905288459e-02,1.997696776512821251e-02,2.079778462648391724e-01
6.777304677854555370e-01,7.639281942392578406e-01,6.753390368933692711e-01,5.750748416419374648e-03,-2.739793433339925144e-02,8.174289961365493670e-03,1.009629294276237488e-01
7.026773608131402504e-01,7.047729847172475859e-01,6.475906670066855497e-01,-8.174453870660675081e-02,-1.146050068143937006e-01,-9.488038198589794636e-02,2.993504106998443604e-01
7.246704045470495625e-01,6.842950483294638619e-01,7.110314826837490498e-01,-2.143969712278499806e-02,-2.289244480057738701e-02,-2.516006604608400643e-02,7.820341736078262329e-02
6.944103618553848500e-01,7.171309650090305077e-01,6.957432584197549286e-01,-2.020996043736053918e-02,-1.911791135730098526e-02,-1.366321573012695828e-02,5.804808065295219421e-02
6.943970807021392355e-01,6.623823292856799716e-01,7.609995209830351381e-01,-5.614474683007853600e-02,-2.531998559126381193e-02,-3.417515259511996056e-02,1.499230265617370605e-01
7.162298031095092332e-01,6.515626778818938147e-01,7.102727759977318645e-01,-4.948963016875592563e-02,-3.749245256453517111e-02,-4.774710858379018624e-02,1.491180062294006348e-01
7.279254691108649755e-01,7.070618599428756257e-01,7.273719508425444680e-01,-5.418374844175424809e-02,-3.681968726713079343e-02,-6.975494914669530533e-02,1.670209914445877075e-01
7.127040239492409279e-01,6.512180592672447421e-01,7.201521879230158296e-01,-5.359229327108185059e-02,-3.542611062456199611e-02,-5.108525589953213236e-02,1.565391272306442261e-01
6.830956022467360444e-01,7.278802227883429676e-01,7.248636952276696910e-01,-3.247390802331462378e-02,-2.041577433872658956e-02,-3.219694904055583895e-02,9.697254002094268799e-02
6.844975530906534100e-01,7.683927029491134375e-01,6.963093599254660537e-01,5.562272550610187702e-03,1.147239970770109162e-02,-6.233786306570968410e-07,8.169838786125183105e-02
6.778289449765768637e-01,7.649120480260590549e-01,6.934005816457560201e-01,1.492163526193954095e-04,8.251078632036078220e-03,-7.035141209721505100e-04,8.170501142740249634e-02
6.954117851109860027e-01,7.766055835631465731e-01,6.942348112465333010e-01,-3.220480812499028952e-03,2.057040291660180639e-02,-1.800645978647886169e-04,8.938689529895782471e-02
7.127362397359507939e-01,7.926124291887227669e-01,6.746597615924645464e-01,5.619983963287859471e-03,3.725956455795455952e-02,-6.324504672222768659e-03,1.234949529170989990e-01
6.469373865018220870e-01,7.691102644972768188e-01,7.029212421405702793e-01,4.560178969231206488e-04,1.867484533911333358e-02,2.705528074951976496e-03,1.108581423759460449e-01
6.598439767363473152e-01,7.636852961365928616e-01,6.550317625737634986e-01,-5.297503555740344650e-03,4.715902248221888471e-02,4.070947089388670184e-03,1.345797628164291382e-01
7.982449693830424575e-01,8.707379993290064180e-01,5.442147665439316384e-01,3.387753442556563910e-02,1.093430441006210257e-01,8.426704063282424578e-03,3.573874533176422119e-01
7.653208488187841496e-01,8.060687945894418061e-01,4.633557935911710723e-01,1.464184264411954109e-02,8.914763437818039316e-02,-4.339612525878761701e-02,3.678076565265655518e-01
7.166919972786619519e-01,7.337133402095213919e-01,6.843555227164305199e-01,1.348668718698226715e-02,-7.189078466650368308e-03,4.563626203897795663e-03,5.146828666329383850e-02
7.506916295899366265e-01,6.471262363738372603e-01,7.487075307256150225e-01,1.527040651477662436e-02,-1.510875231409335336e-02,1.559338561262505092e-02,1.124192327260971069e-01
8.658746820695759627e-01,8.959564368646451005e-01,5.421334232150724075e-01,2.271028302776045144e-02,1.200139334373195588e-01,-9.662040842184463352e-02,4.338384866714477539e-01
9.018368865085306663e-01,1.116666385050558485e+00,2.727379127656323066e-01,2.390995918649022056e-02,9.985069581528059623e-02,-4.693883299127424996e-02,7.844116091728210449e-01
7.696588061019490334e-01,8.293562727149993430e-01,4.685510971638229272e-01,1.753190538865560463e-02,8.918018743606452581e-02,-4.127124775503717563e-02,3.769567310810089111e-01
8.238631074150335465e-01,8.142167497528344233e-01,5.522830386477447506e-01,4.957713768286521085e-03,7.604738025467093487e-02,-4.163240264297939086e-02,3.063529729843139648e-01
9.065380094222599272e-01,9.128815193546633289e-01,5.103555216717137188e-01,-1.999652695569488926e-03,7.315158431312639153e-02,-3.711559460614355377e-02,4.239247143268585205e-01
8.097187423064831080e-01,8.777193762190607096e-01,4.380721712504302423e-01,4.526535500867322377e-03,2.437609072977581573e-02,8.724716171078873705e-03,4.124195277690887451e-01
8.159373499742612612e-01,8.901418421672561143e-01,4.509014326587701404e-01,-8.601603566231630360e-03,2.968182905932837193e-02,-4.233261228239421081e-02,4.172361195087432861e-01
5.809217563363657799e-01,7.804940724025725141e-01,6.982228387089902677e-01,-4.765900001961280441e-02,9.711903464970904343e-02,3.289993830992574836e-02,2.617943584918975830e-01
7.117633565067611467e-01,8.042439006444139782e-01,6.905752861798926112e-01,-2.477832689104532415e-02,6.454773471224713177e-02,1.448940768614320057e-02,1.610342413187026978e-01
7.402384124937234633e-01,8.112016624276270349e-01,6.322060982651006578e-01,-5.636703314599749576e-02,1.540546723412938301e-01,2.074418043565243522e-02,3.261814117431640625e-01
7.006795636102696179e-01,7.491747244427935382e-01,7.258138462938075186e-01,-1.950328408137964181e-02,3.268224361614004148e-02,2.063472734623856761e-02,8.595068007707595825e-02
7.801002445391111983e-01,7.131816996420567989e-01,7.113246717047905232e-01,-4.035818117002267641e-02,3.707342936415564116e-02,6.086406631839649112e-02,1.572538763284683228e-01
6.743300500769283667e-01,7.592121786040402220e-01,7.365297869708374856e-01,-2.406550601032525147e-02,3.620082876012494649e-02,2.438917049069929885e-02,1.150981187820434570e-01
7.942506884613538265e-01,7.200848256950517223e-01,7.203951957278131868e-01,3.388419089441589011e-02,-3.048260588007706967e-02,6.803874056889809563e-02,1.599920243024826050e-01
7.079665757505047008e-01,7.250656296535529233e-01,6.678983988100507529e-01,6.831166797570122073e-02,-7.648712679759592237e-02,7.984758016585417895e-02,2.307816445827484131e-01
7.471183887331410700e-01,7.559300278039108312e-01,6.446155228047795172e-01,1.743556509076447242e-02,-3.557306438122495584e-02,4.174394840786837396e-02,1.463683694601058960e-01
8.277653502812104547e-01,8.005977867181413021e-01,5.815987586008229959e-01,5.873315457002652867e-02,-1.230062483797133566e-01,1.378354022832839476e-01,4.091264903545379639e-01
7.860539588547912349e-01,8.116460739947308767e-01,5.788498738357830131e-01,7.820566884297433172e-03,-3.579342717718404787e-02,3.389374921293893811e-02,2.374123632907867432e-01
7.801875010187669934e-01,7.679305781295909794e-01,5.647096003384586282e-01,1.298719242707486836e-02,-3.530730111675898369e-02,4.849486859935149552e-02,2.350338995456695557e-01
7.479836743212561201e-01,8.335894615606043168e-01,6.185373561877929305e-01,5.521981275356325353e-02,-1.146751921419471437e-01,1.032365054307576580e-01,3.402032554149627686e-01
7.610429508296489010e-01,6.666205264197474500e-01,7.316621372944066559e-01,-3.526213224827742104e-02,3.713002522536747868e-02,6.309462144389837990e-02,1.637485325336456299e-01
6.443571275594596193e-01,8.173254303135742971e-01,7.151889421617536602e-01,-2.763775793617457774e-03,7.233906353682373336e-02,4.545172313052099101e-03,1.961306482553482056e-01
6.729766658249575206e-01,7.967613821484421655e-01,7.129759373456967531e-01,-7.659391665000219590e-03,3.899807161865971594e-02,1.368183478541516902e-02,1.314207911491394043e-01
6.728270152937172455e-01,7.863667001040275384e-01,7.156569994564200288e-01,-8.574764938733334466e-03,4.110953512450958580e-02,9.807879799849544486e-03,1.242654770612716675e-01
7.633657681342820300e-01,7.946445272799294024e-01,6.455565675058649866e-01,3.233604977163681560e-02,6.475144093905478571e-02,-1.138720318823631741e-02,1.861354559659957886e-01
7.098638071413504447e-01,7.496855694858393093e-01,6.751907090629721830e-01,2.225183658434327916e-02,2.951770294758163105e-02,-2.500993073209422518e-02,1.007201448082923889e-01
6.997421584133384220e-01,7.267108958091285098e-01,7.142694323063960571e-01,5.232268342944002698e-02,6.327679279782350008e-02,-2.328366098393680819e-02,1.496589630842208862e-01
7.086526750350197190e-01,7.272574396191897605e-01,7.133492190879574535e-01,1.267540173216766958e-02,1.682880184548293107e-02,-2.116568589599714459e-02,5.437277629971504211e-02
7.491108651076208158e-01,7.205179631109749350e-01,6.770701502948649475e-01,2.072037382008008397e-02,2.921790938232398174e-02,-2.912065672023942536e-02,1.016890555620193481e-01
4.231159942068404289e-01,9.948886118399392631e-01,1.180573198202928831e+00,2.733884801534711695e-01,-1.006900181438816072e-01,4.385667095370170826e-02,8.532183170318603516e-01
7.760344924653065357e-01,6.631986398681373185e-01,7.646904975740217436e-01,-2.098162791003533451e-02,2.638925576361858885e-02,4.888909156893196661e-02,1.488653719425201416e-01
6.893475184720323501e-01,6.541915839578613667e-01,7.432475267012141895e-01,4.781021085411753940e-02,3.369465855930477843e-02,-2.713346050123174522e-02,1.360447257757186890e-01
7.031700410575394411e-01,7.169775885752894817e-01,7.258773952349005798e-01,2.313802283048055700e-02,1.980309218384389974e-02,-1.334966877420676150e-02,6.090953946113586426e-02
6.823690669143058773e-01,6.662238405269975683e-01,7.454509800817391563e-01,4.286652105607038910e-02,2.844170347680117020e-02,-3.817720951136877733e-02,1.325532793998718262e-01
6.844284087806082884e-01,6.958198281667467011e-01,7.307095065878770335e-01,4.410746131625292027e-02,2.496335964502547494e-02,-3.048313925212490019e-02,1.106258332729339600e-01
7.182263849034151715e-01,8.058569574228485743e-01,7.086059521946973527e-01,3.058421344398754016e-02,7.957532248036354450e-02,-4.139521388591699963e-02,1.885690391063690186e-01
6.879537858932786021e-01,7.237350273000487944e-01,7.139382320419128680e-01,1.252086839482512495e-02,1.475147589661933434e-02,-1.849848231859906739e-02,5.635112151503562927e-02
6.936081441577353068e-01,7.113863087863249168e-01,7.716223323619757490e-01,6.349416333033720827e-02,4.083140433853905266e-02,-1.580286676215362021e-02,1.511974036693572998e-01
6.857540463629931971e-01,7.053613984382568480e-01,7.203642893531865266e-01,1.425997297841057748e-02,1.374073671036948191e-02,-1.755996038779263080e-02,5.481991171836853027e-02
7.033996168866059051e-01,7.452947725448565430e-01,7.931681435408897141e-01,6.257857323733523325e-02,3.968390588951955372e-02,-3.430458604693658459e-02,1.614181250333786011e-01
7.818089642320024124e-01,6.044293575038088839e-01,7.320775333519655703e-01,6.212156057228084179e-03,2.855224484285504992e-04,-5.782475043619528937e-02,1.877831816673278809e-01
7.060976861271596183e-01,5.710975684637412675e-01,7.140345674005944554e-01,9.804030726676304930e-02,6.876086515834414770e-02,-9.102292725715661892e-02,2.953555583953857422e-01
7.698620112857972320e-01,5.980613949253111850e-01,5.870412393544055529e-01,-5.632077028399991997e-02,-5.961346454696264674e-02,-1.567744836703302835e-01,3.541782796382904053e-01
7.746430804184321062e-01,6.262120716209631510e-01,5.915777411079681247e-01,-7.606209197183783077e-02,-6.404499862565192492e-02,-1.544432173692996402e-01,3.599886596202850342e-01
7.422675759333453582e-01,6.463390172273938417e-01,7.366229612896102452e-01,-1.952047846392146457e-02,2.533137875055321842e-02,1.957643244161309803e-02,1.136246621608734131e-01
7.917463040041634592e-01,6.378003244798999827e-01,6.859608712334304137e-01,6.739546672221911720e-04,-8.149943806624171741e-03,-6.445344849349468608e-02,1.768277436494827271e-01
7.691900783485146054e-01,6.877061782321143291e-01,6.222084966003880169e-01,-1.696811534542493408e-02,-1.350892072043759391e-02,-6.346276505300633974e-02,1.725119352340698242e-01
8.395496470762583430e-01,8.789368175281783158e-01,6.192249284700923617e-01,6.099803823059814223e-02,1.622562971137285759e-01,-9.178518486780419539e-02,4.173600971698760986e-01
7.067520759139610531e-01,7.642703089286204676e-01,6.859454806176955577e-01,-2.492056317429875226e-02,-7.665198652778458521e-02,-2.607989324555982924e-02,1.626904606819152832e-01
7.984879644651927677e-01,8.072749754544283896e-01,6.719231915607102312e-01,-7.707578456236001407e-02,-1.136042033815758273e-01,-8.510433805945460950e-02,3.089919090270996094e-01
7.657348580707613594e-01,8.285629907756808521e-01,6.546761476755545983e-01,-1.894375470025180114e-02,-5.675327803203048666e-02,-2.528545783621269361e-02,1.895164549350738525e-01
7.005540614040582925e-01,7.202446122727210742e-01,7.396754643896694681e-01,-3.468810188149138753e-03,-3.243219785150447138e-03,-7.976707121697599462e-03,3.750222548842430115e-02
7.333803867654622444e-01,8.373411895642943747e-01,5.745202673996709919e-01,-6.679686892116283581e-02,-1.067281053091038018e-01,-4.732095763804272659e-02,3.268570899963378906e-01
7.396497432526440985e-01,7.784018639338839973e-01,5.838820445683839955e-01,-2.915991094286171301e-02,-8.628139101190697435e-02,-4.346827466202655976e-02,2.497087121009826660e-01
5.637453280225328545e-01,6.832774859533488065e-01,7.675992333770323972e-01,-1.267427256338570507e-01,6.336784502028997013e-02,4.820583593097655523e-02,3.141437172889709473e-01
6.199571868490540982e-01,7.115709647408563487e-01,8.436204435212985020e-01,-1.019581732843696659e-01,1.078838849687046159e-01,6.931618074433143484e-02,3.441585600376129150e-01
7.236856582445885255e-01,8.174087370106950523e-01,7.812650926916755445e-01,-1.080299416793765455e-01,1.467657635979628117e-01,9.400940300153823315e-02,3.644834160804748535e-01
6.716042769006818069e-01,7.669625595754367975e-01,7.731679882874228360e-01,-5.945990436922728162e-02,2.984363691306234426e-02,2.377958934927384971e-02,1.571566909551620483e-01
7.084309559558654712e-01,6.930265115477219906e-01,7.803448579250823469e-01,-1.111763247642849756e-01,1.380435349723241611e-01,9.660878746225651237e-02,3.588384687900543213e-01
6.224048097031967819e-01,7.407696855188635743e-01,7.295330904905686920e-01,-4.215979394306854089e-02,5.479140804909822526e-02,3.657006303010559845e-02,1.765141189098358154e-01
6.674284211662576682e-01,7.522310053347885939e-01,7.495445359624652859e-01,-5.826827585032198775e-02,3.433831448258034547e-02,4.146276960765010039e-02,1.607833802700042725e-01
7.148133598385003618e-01,7.243930804232360243e-01,7.172943983820581071e-01,-7.997192108459432597e-03,5.415171629126249234e-03,7.393844957508222127e-03,2.275968529284000397e-02
6.853076166883412812e-01,7.341675515147338960e-01,7.228495926745323041e-01,-4.412700936529383861e-03,8.567610806084693595e-03,1.449180389361404142e-02,5.358226969838142395e-02
7.628714755622378885e-01,6.905475490424159979e-01,6.795844757958121596e-01,-3.338285598643579016e-03,-2.534918089521864901e-03,-9.549082248507386947e-03,8.043690770864486694e-02
7.047517182701543703e-01,7.283277645267115519e-01,7.097778778332616278e-01,-8.651539987653351221e-03,8.874233967978978690e-03,7.235336375663768520e-03,3.287018463015556335e-02
6.867919655611551821e-01,7.196628711835945102e-01,7.206466791545093065e-01,-6.637955811411154483e-03,8.911605082995991550e-03,1.476623244391197035e-02,4.624246060848236084e-02
7.656925432568247869e-01,5.731618199465083885e-01,8.271303826031594086e-01,-9.127226281064962365e-02,-8.182915298293749751e-03,1.375942332908058896e-02,2.800572812557220459e-01
8.016791190304942694e-01,6.040530231132629213e-01,9.270413369856550512e-01,-1.868388307978760265e-01,2.129605904717689693e-02,5.115710349739001350e-02,4.398688077926635742e-01
8.024938291973073845e-01,6.742773912340306319e-01,7.373613644446600501e-01,-2.746976421229221227e-02,3.746027045840819025e-02,6.526164262405054206e-02,1.777117550373077393e-01
7.250377153902116678e-01,5.437225675846933948e-01,8.090771249770613016e-01,-1.389755238483958155e-01,3.932614637697979393e-02,5.918766289270858266e-02,3.581440746784210205e-01
7.839549637083021993e-01,5.545075853545667899e-01,8.055688066270748626e-01,-5.915847808434029215e-02,-2.354057399840089914e-04,2.072361564828791372e-03,2.618868649005889893e-01
7.022693513369659968e-01,7.046316776667115311e-01,7.300279240910740874e-01,9.557172717455828317e-03,-1.089817122538065675e-02,1.152209488715173584e-02,4.170310869812965393e-02
8.186412016801603020e-01,8.574004953897114145e-01,5.132600333578078988e-01,-5.084080264347207688e-03,1.484492675408866369e-01,-7.054735340120982245e-02,4.332622587680816650e-01
6.925193933316241557e-01,7.063998883096915815e-01,7.302070804310016872e-01,2.764096130584340477e-02,-2.609753033171159989e-02,2.737364923170518966e-02,8.759661763906478882e-02
6.728098703693307092e-01,7.331264591899077088e-01,6.976179254944198105e-01,6.830308706475173020e-02,-8.020477865934311223e-02,6.482592740790618646e-02,2.205872833728790283e-01
7.094454944730470558e-01,6.885522745333146899e-01,7.438583009094525966e-01,7.220323368540469688e-02,-6.624093463692115602e-02,7.076807798399742389e-02,2.148665338754653931e-01
7.049002809061104546e-01,7.248176139281580221e-01,7.250554120808947456e-01,1.035935909715239231e-02,-1.184388272640663799e-02,9.832082087060420306e-03,3.787194564938545227e-02
7.947853501136761256e-01,6.442106823591312592e-01,7.348801332104256678e-01,-2.838679606283622467e-02,2.867719222137073490e-02,5.576908159184840869e-02,1.773592531681060791e-01
8.519123837456419324e-01,7.401558299035883026e-01,5.727534825366370486e-01,-2.406028253413393728e-02,-2.312912556449104456e-02,1.438722131713873198e-01,3.530730605125427246e-01
8.949897347481120535e-01,8.231234060693406462e-01,5.960222256006870722e-01,1.426726070244707656e-02,-1.981285727541719222e-02,1.443883892929714030e-01,3.706655800342559814e-01
7.752590458173961308e-01,6.749749390496275758e-01,6.257050339576920583e-01,-3.071539576821340992e-03,2.165412012486607474e-03,6.276958917563514595e-02,1.711369305849075317e-01
8.336539647778008488e-01,7.042468995186271785e-01,6.993514721537111845e-01,-4.148520398677597171e-03,-3.530425654273522743e-03,8.359592518637083691e-02,1.961058825254440308e-01
8.551089173948579480e-01,6.261147942530245203e-01,6.340525400836807268e-01,3.087995844520533342e-02,1.331647982562871729e-02,1.705220372643090065e-01,3.759117126464843750e-01
7.960562297120342690e-01,6.816867997407977109e-01,6.075349617845771100e-01,-1.852923799703139543e-02,2.787339263944693321e-02,1.274901502903395822e-01,2.813921868801116943e-01
8.235159223686496777e-01,7.651675956183514593e-01,6.190107376647431270e-01,1.809396657686990900e-02,3.994145563568023138e-02,1.326787089229360395e-01,3.031062781810760498e-01
7.043835418522305103e-01,6.995085135164931245e-01,7.394888110839832329e-01,-6.493519964701929825e-02,5.369207155390742087e-02,4.955353146474638509e-02,1.734710335731506348e-01
7.624343293118246434e-01,7.142475498537199652e-01,7.719122504315604205e-01,-9.849813107842163296e-02,8.808945567267040255e-02,7.396070789024594694e-02,2.677012681961059570e-01
7.300367923259508673e-01,7.377521830826138105e-01,7.357363499863184275e-01,-8.610893443311279372e-02,1.345944525636605105e-01,1.068880736392873593e-01,3.330382406711578369e-01
6.733456011229420612e-01,7.713566050972723298e-01,6.945075915417059376e-01,-4.519928402753429358e-02,5.454056687524672098e-02,3.426899184987191455e-02,1.629598587751388550e-01
7.489538697480273566e-01,7.012101338661289596e-01,7.472741504991332606e-01,-6.852992306650404486e-02,8.270978261814387889e-02,1.278865683080013527e-01,2.930508255958557129e-01
6.996176257727051429e-01,7.229090479566557814e-01,7.206890285020692843e-01,-1.721611938563009578e-02,1.530071077555764970e-02,1.753062586216358465e-02,5.485616996884346008e-02
7.947009162886783384e-01,7.639982129859643756e-01,6.832381300535079749e-01,4.312016639107169730e-02,6.912905594168931855e-02,-6.928591665460100135e-02,2.103818953037261963e-01
7.448698279355079332e-01,7.463622029220950971e-01,6.324937830189621968e-01,4.563773114210586956e-02,-4.583517028921602066e-02,5.046797640516088174e-02,1.816324740648269653e-01
6.228876351359724506e-01,7.225744866524222987e-01,7.696455916945781350e-01,-5.480323751992195042e-02,4.350543055533875186e-02,2.458830209399805525e-02,1.826133430004119873e-01
7.207430065531721386e-01,6.836302996727444681e-01,7.480246203940008609e-01,2.782334423435383480e-02,1.522313238230861739e-02,-1.573336126737916521e-02,8.303250372409820557e-02
6.064285694473796617e-01,7.190581214051783299e-01,7.613607502524528670e-01,-5.444492526007418953e-02,3.569682368043435028e-02,2.578837046568507180e-02,1.842555701732635498e-01
6.761277161776843014e-01,7.038611192744556044e-01,8.143874734141400840e-01,-8.588695551860611732e-02,2.613199211535976660e-02,1.575599797969426397e-02,2.024193555116653442e-01
6.183374235709274691e-01,6.975546102174182694e-01,7.747142056445063263e-01,-5.749688374770287047e-02,6.695326566169995143e-03,6.123067244401034399e-03,1.688371002674102783e-01
7.213479951123767941e-01,6.842827638128647916e-01,7.897363020551250168e-01,-3.177783563095139263e-02,-9.282546656294477991e-03,-5.540593737095111417e-03,1.093878597021102905e-01
6.824816310409110853e-01,7.097065427875624000e-01,7.839261849121322845e-01,-7.741471785198948685e-02,2.142044244235503589e-02,8.622890258837112576e-03,1.668803691864013672e-01
6.646449783655871135e-01,7.394622441279825598e-01,7.689925362945430054e-01,-2.986646893941829334e-02,1.448316101888435722e-02,6.941312902534142737e-03,1.101312264800071716e-01
6.599939500653205782e-01,7.097447476922751353e-01,7.792699418861909200e-01,-2.541155603406575203e-02,1.562332896656998781e-02,-3.954035776227314038e-03,1.161216497421264648e-01
6.197434458008086455e-01,7.435716348096448325e-01,6.910451655992847497e-01,7.818385948592775081e-02,-1.255145337970846875e-01,6.933694911989207732e-02,3.026728928089141846e-01
6.634818513622753322e-01,8.007192790452823949e-01,7.142884850834403387e-01,3.971680707656228757e-03,-5.115717281557296409e-02,1.003527982294051199e-02,1.504774540662765503e-01
8.493101483936617013e-01,8.574513999394692831e-01,2.487155897924236969e-01,1.350352021287130368e-02,1.547666802162066813e-01,-1.553003421299753439e-01,7.144435048103332520e-01
6.872336643435696946e-01,7.750266015574535095e-01,7.024914210579374929e-01,1.002432518624724565e-02,-5.960315318397570172e-02,2.588418028057100015e-02,1.398925185203552246e-01
5.809833578369317797e-01,7.429604861407592686e-01,8.384966611517414847e-01,-9.213355873903879278e-02,1.188110334943768415e-02,-3.030188857126609771e-03,2.770473361015319824e-01
6.237878706052655264e-01,7.396880011069268956e-01,8.078046339345213989e-01,-6.430344540533521058e-02,-6.030885547013334520e-03,1.040315823490820836e-02,1.969924718141555786e-01
6.930086083315326606e-01,7.044237350564921396e-01,7.837836464204410714e-01,-3.962230748119770912e-02,9.302912446685355358e-03,1.163610402520681361e-02,1.127378195524215698e-01
6.390459572751723272e-01,6.487373992817005997e-01,7.349842569558457939e-01,-1.054116266762055998e-01,6.336046967798261709e-02,6.324493724664560779e-02,2.564108967781066895e-01
7.044985418878159100e-01,7.193718955747281374e-01,8.313135068627166557e-01,-7.382745988692335226e-02,2.746905686256847796e-03,2.549072779141357652e-03,1.755297631025314331e-01
6.328940079632735527e-01,7.462992470538255541e-01,8.240290869931732320e-01,-5.328522895627735290e-02,-2.541654445030821184e-04,6.731980796687566868e-03,1.907137781381607056e-01
6.505253813503354410e-01,7.634211310278057327e-01,7.125590543194103565e-01,-2.375925099736119189e-03,-2.061788884945336617e-02,1.266400229138082284e-02,1.066004037857055664e-01
6.156903889978171396e-01,7.519452303587046416e-01,6.876794915505649586e-01,3.382294414166192587e-02,-5.071485503378103665e-02,1.934479004324454396e-02,1.618937104940414429e-01
6.671351490707857490e-01,7.722526107340796919e-01,7.131449360847866847e-01,4.145814330376139910e-03,-4.643776608917943305e-02,6.115679299032343759e-03,1.223246306180953979e-01
6.847581985425417184e-01,7.737364484653111996e-01,6.943736257387204125e-01,-7.123611636565107662e-04,-1.775691840914735836e-02,-1.570149955020001733e-03,9.004923701286315918e-02
6.351584449301579394e-01,7.892816981615059513e-01,7.035254116884118725e-01,1.368731372157597388e-02,-4.328537156943098457e-02,5.948825527548854027e-03,1.554996520280838013e-01
6.903002055442070128e-01,7.665096085297864459e-01,6.951463227928290634e-01,4.410602407749790650e-04,-2.145323846276787991e-03,-8.635835203425236417e-04,7.401801645755767822e-02
7.092203003652920446e-01,7.549120753860939503e-01,7.223662659560116106e-01,1.259463740542583754e-02,2.448596926290698764e-02,-1.431125370665316081e-02,6.744546443223953247e-02
7.495339365330986325e-01,8.055712732856700198e-01,6.157038163991498392e-01,2.234212393926708617e-02,5.212618784061556765e-02,-3.375215672493487445e-02,2.040017694234848022e-01
7.064453827008712050e-01,7.733033874759435156e-01,6.578474247943000286e-01,8.720667542562971636e-03,1.661695459662735838e-02,-1.083749889388004040e-02,1.071904376149177551e-01
6.744201298647028997e-01,7.804712481700420978e-01,6.776030753753177205e-01,9.054198086771072379e-03,2.695009696264599047e-02,-6.289391082155681642e-03,1.160299256443977356e-01
6.792864155721478614e-01,7.570814168170274527e-01,6.740279989460390420e-01,1.085690508502018016e-02,2.775559104988125150e-02,-9.369507506426153626e-03,9.704066067934036255e-02
6.841147564715657214e-01,7.862618631189430829e-01,7.118743339254137714e-01,9.031802763099909884e-03,3.384675273494535536e-02,-6.832242776448575229e-03,1.104111969470977783e-01
6.460301808846008464e-01,8.019751946340238913e-01,5.339624495991122100e-01,3.229735419569671612e-02,-1.759747103024240644e-01,4.312695357294179382e-02,3.949238955974578857e-01
6.712432659865722462e-01,7.710814574809591315e-01,6.151005259763480115e-01,-8.286669274900669915e-03,-7.471150191274371355e-02,-4.531375020581629096e-03,1.890446841716766357e-01
7.653745354558015856e-01,8.171821249956320310e-01,5.622169925348112773e-01,1.278348149081449947e-02,-9.887365650386183147e-02,2.000363795351680837e-02,2.924052178859710693e-01
7.810254639128485499e-01,8.414370420381419580e-01,5.652593669034240431e-01,5.022169088141360122e-02,-1.331651105189926299e-01,-1.802463184932995982e-02,3.535243868827819824e-01
6.877554286632995284e-01,7.948660419366914143e-01,6.356000445584345515e-01,1.296486342572950728e-02,-6.424986869171131487e-02,1.422688952835977905e-02,1.824140250682830811e-01
7.283513939041140750e-01,5.850509194334031493e-01,7.138218024664726435e-01,-8.260945864589828991e-02,5.059390429390311916e-02,9.889971097126304400e-02,2.759704589843750000e-01
7.712378284836499676e-01,5.946957040052400778e-01,7.265696175928404443e-01,-7.586438226340064261e-02,4.799040171136682853e-02,1.031208408387842002e-01,2.852257490158081055e-01
8.058633329161821734e-01,5.559678169929285207e-01,8.459057511926135753e-01,-1.698828352482929099e-02,1.391857806913774330e-02,7.111119924034847717e-02,3.011228740215301514e-01
8.182864803171643331e-01,5.604323362121704788e-01,7.789261223284310587e-01,-3.504220720254064975e-02,3.732692048168169668e-03,4.256410483299987585e-02,2.589392662048339844e-01
8.570460167803213292e-01,5.418723541001210231e-01,8.522150727296985417e-01,-6.012878815509643815e-02,4.455906654434386993e-02,8.321673457585970768e-02,3.679853379726409912e-01
8.525516908303006902e-01,5.274918935235426432e-01,7.848070935525320868e-01,-5.420158783838002065e-02,4.138194353171549544e-02,6.049869766913877622e-02,3.363974690437316895e-01
7.887748956672033795e-01,6.695760811797709655e-01,7.144185740881167090e-01,6.330827350954981031e-03,-1.778515195701177096e-03,-3.606006307555369161e-02,1.220849975943565369e-01
7.791654763121258487e-01,7.313319860173862486e-01,6.373788716330044402e-01,2.961360885214994396e-02,1.634867480504311604e-02,-6.332479633267280861e-02,1.762729734182357788e-01
8.096443532334066662e-01,6.048945570698496255e-01,7.213711122364405703e-01,-4.713926381804159696e-03,-6.479738338853525178e-04,-1.243503021348733584e-01,2.794595360755920410e-01
7.569535736642938328e-01,6.941679979865978956e-01,7.212577295677913281e-01,3.054169499873778809e-02,2.689894675715113342e-02,-5.888194166344768582e-02,1.354449391365051270e-01
8.141041799836050696e-01,7.168588941462304964e-01,7.126175372169561983e-01,3.828407321713554745e-02,4.238325554063454570e-02,-7.389729492900468100e-02,1.898829936981201172e-01
8.651176385033573224e-01,7.227061359406334873e-01,6.443350537081921070e-01,6.902494874790977841e-02,8.298702426508225427e-02,-1.990598426583611025e-01,4.375069439411163330e-01
7.695308998314355220e-01,7.179891191146743346e-01,6.816524299616534277e-01,7.620428545624806892e-03,8.489482987007858708e-03,-2.854496191464523519e-02,9.319140762090682983e-02
6.967347657517547477e-01,7.677239665496741194e-01,6.906647682447832892e-01,3.395214728283518259e-03,2.640220916045408778e-03,-8.592587449947694392e-04,7.459843158721923828e-02
7.837675031130807435e-01,6.719564773686929060e-01,6.810989961725066877e-01,-2.153433116594887994e-03,9.606619920583276545e-03,-3.276429182258359246e-02,1.227775514125823975e-01
7.863271145268971862e-01,6.242246216726697883e-01,8.685853533969579710e-01,1.396619914508626936e-01,6.417410177109424130e-02,-1.054347446274392086e-01,3.880704939365386963e-01
8.318189682151272413e-01,6.290991179177791714e-01,8.570766792396925515e-01,1.224833628366152061e-01,3.437559070775685066e-02,-9.066884908131024601e-02,3.465077280998229980e-01
7.236924347147830616e-01,7.335980835857296434e-01,7.333987458337031251e-01,4.173639491949851510e-02,3.105339728377213768e-02,-3.683204529367633401e-02,1.108363941311836243e-01
7.555294312212739172e-01,6.595797984990358076e-01,7.879380501989202701e-01,5.901436661867080075e-02,3.964866976584544705e-02,-4.103433871040256670e-02,1.832534670829772949e-01
7.602670069679646758e-01,6.295576603833163976e-01,8.045718198260383147e-01,5.837308547502900041e-02,2.600736040988044923e-02,-2.056470575100697445e-02,1.958546042442321777e-01
7.472817254850068203e-01,6.323668931890646938e-01,7.731385046286943785e-01,5.401709632175011322e-02,1.186767485276557683e-02,-2.463687619691595429e-02,1.668601483106613159e-01
7.426640771892992765e-01,5.741493238540560373e-01,8.046203202506982954e-01,7.808463841077693812e-02,2.860677182222004511e-02,-4.009870383521104559e-02,2.612407505512237549e-01
7.749905576054015865e-01,5.424924652780177547e-01,7.909953395985036551e-01,7.007650303586028528e-02,1.933775831553867161e-02,-6.368548571475436681e-02,2.933498322963714600e-01
7.910260540257944006e-01,6.116969997961561045e-01,7.826816905755588083e-01,4.367947664350882442e-02,2.387881276094120861e-02,-4.317169803927766586e-02,2.091837078332901001e-01
7.183600912454048970e-01,7.273440077973740703e-01,7.003106021273014514e-01,1.077192820564543997e-02,4.577184034690468147e-03,-5.246312270932381935e-03,3.259104862809181213e-02
7.164326230894049186e-01,7.148267796846775601e-01,7.120018984863637490e-01,9.605401179073672080e-03,7.638089782149301739e-03,-6.391001220540944334e-03,2.427843026816844940e-02
7.277867466082256209e-01,7.236863410614593484e-01,6.992319577036318901e-01,1.972045603632766389e-02,1.362394103184081176e-02,-1.465709216618381328e-02,5.552583560347557068e-02
7.223360379307791623e-01,7.043201801198910594e-01,7.185368293669838202e-01,7.829078790984711489e-03,1.028430324503339446e-02,-7.616556673079760351e-03,3.075352124869823456e-02
7.337650520431080459e-01,7.300174650633970419e-01,6.890559255481735201e-01,1.863210515936215145e-02,8.592358757309842901e-03,-1.418021516124735523e-02,6.092279031872749329e-02
7.900062125021872772e-01,7.016465552247729276e-01,7.295449087808852928e-01,5.476592531699987082e-02,4.324162843914811788e-02,-1.059576576717857904e-01,2.332577258348464966e-01
7.023245559736017718e-01,7.341563479710826456e-01,7.223540361205976756e-01,1.112661386304643861e-02,-1.808632333482084256e-02,1.212127004984969204e-02,5.069905519485473633e-02
6.943066112168964077e-01,7.528594845546547898e-01,7.047537589553000137e-01,4.445125869034501770e-03,-6.792205893428560244e-03,1.072680154286945013e-02,5.889604240655899048e-02
6.673898721250210997e-01,7.392811658682303388e-01,7.137140151793590626e-01,1.169983788678296589e-02,-1.294415535610157417e-02,1.623874896854545641e-02,7.542137801647186279e-02
7.028538877106085270e-01,7.281156998089189925e-01,7.023320333093984180e-01,4.268435898001935944e-03,-4.991813225753601035e-03,1.059980186355887616e-02,3.343793004751205444e-02
6.826739416822279471e-01,7.287540683507058858e-01,7.159050008860826653e-01,6.325967534647132171e-03,-1.076757105833364703e-02,1.334724390336851536e-02,5.194912850856781006e-02
7.590319058945844688e-01,7.761523261406637619e-01,6.639274451395014154e-01,-2.580945084178883422e-02,6.878269925016268493e-02,3.948976157135806325e-02,1.784266829490661621e-01
7.712619273793402952e-01,7.901242092271341111e-01,5.677735850979367394e-01,-1.227708677546037602e-02,6.310721416653490567e-02,2.173885743146650174e-02,2.437601685523986816e-01
8.500517562353617773e-01,7.861057707700690456e-01,5.191528183355413884e-01,-6.596484457948181834e-02,7.134655688607607904e-02,9.254458392791060917e-02,3.826775550842285156e-01
8.888184251194124474e-01,8.582192317696997197e-01,5.398881819252807635e-01,-3.083257133714832968e-02,7.532661945091730094e-02,9.921683358479069237e-02,4.017683565616607666e-01
7.982888997520470875e-01,7.526438557441330612e-01,5.314688403039693476e-01,-2.572889367548345310e-02,5.063122838456227126e-02,9.217644772280660093e-02,3.102634251117706299e-01
6.800142039772495428e-01,7.480363279262430831e-01,7.784312437498988047e-01,4.265203458909366113e-02,2.464571484112319799e-02,-1.373997506626651113e-02,1.243566200137138367e-01
6.879743674158971256e-01,7.053700446311971239e-01,7.876049761124224169e-01,-8.290936983788005366e-02,-1.516979335116992213e-02,-7.933395666709114336e-03,1.731958389282226562e-01
7.143520739863706837e-01,3.350007822519163181e-01,8.719179160191073974e-01,-2.626321415745218046e-01,-1.763076492147322080e-02,-1.231321544451348740e-02,6.609247326850891113e-01
4.040057378492074580e-01,4.601083922117999436e-01,8.670261895830997378e-01,-3.913053366052322568e-01,-5.284081659823732045e-04,-7.478658426722233944e-03,8.068996071815490723e-01
4.886136502934980141e-01,8.484588691798511384e-01,9.360488137451845603e-01,-3.310891438281082788e-01,1.069122128671500527e-01,-7.478340002220308647e-02,7.406806349754333496e-01
8.251535553779668630e-01,4.703114824001007332e-01,8.992403066689884650e-01,-3.898056459853737055e-01,-6.724644808579394173e-02,1.173943673067313724e-02,7.921589612960815430e-01
7.334559500220084738e-01,6.604941858284472112e-01,8.297255635184515032e-01,-1.746061836210274776e-01,1.561249957779906397e-03,2.748369208121093088e-02,3.396330177783966064e-01
8.016557043279090022e-01,6.318851393044869758e-01,8.855146472013513126e-01,-1.393656361927626819e-01,-3.182309657990081003e-02,-5.136817624659600207e-02,3.454181253910064697e-01
6.189534903275096811e-01,7.945397305869690285e-01,7.922305256553698882e-01,4.452066584723769066e-02,4.771159452142681445e-02,-2.463131116698871748e-02,2.121932059526443481e-01
6.781388565256945000e-01,7.819975763736937147e-01,7.106336264822459281e-01,4.320322794750008563e-03,3.050209783624765331e-02,-7.721781696372278896e-03,1.072086095809936523e-01
6.453199821269931524e-01,7.620345646705314335e-01,7.496121155527358804e-01,1.740800259395880803e-02,2.234077440151158861e-02,-1.563228605316863140e-02,1.243635043501853943e-01
6.428431182697413870e-01,7.796773092895101787e-01,7.373551013798933518e-01,8.736110363448510926e-03,5.939738214582281073e-02,-9.071646825857797997e-03,1.605728119611740112e-01
6.562520373006359709e-01,7.768045724254071249e-01,7.033665384258215303e-01,8.022556318510030982e-03,1.503836591848801973e-02,-6.725513140247921587e-03,1.099097654223442078e-01
7.085306892854192906e-01,7.134046765161038417e-01,7.158765621345070107e-01,3.329115196252170877e-03,1.596566386643240645e-03,-4.870119278904708367e-03,1.240823045372962952e-02
6.691161474264413211e-01,7.615359382285438183e-01,7.080328552099438566e-01,1.299165338402701909e-02,1.371596719321089078e-02,-1.386347680086557309e-02,9.003651887178421021e-02
6.620999775114798647e-01,7.654764148073007757e-01,7.402437106045234305e-01,1.153491418772688293e-02,1.019447729397662296e-02,-1.431480261927520897e-02,1.002027690410614014e-01
7.613598817298277144e-01,6.753609134600542241e-01,7.162734187952976006e-01,1.001066756154396671e-02,8.984223621437550239e-03,-3.428960793216354747e-02,9.808844327926635742e-02
7.688044961745985617e-01,6.257922321464995941e-01,7.242888837996379614e-01,2.421054881539000739e-02,1.587165201474969103e-02,-6.544295414200342054e-02,1.772861778736114502e-01
7.519627389501447601e-01,7.154669462158079751e-01,6.758916775986160141e-01,2.659421684149203963e-02,2.860782156521180994e-02,-3.083107058679294965e-02,1.084947884082794189e-01
7.590560450937980930e-01,6.941011220900307199e-01,7.134043927324823509e-01,1.444393026286407491e-02,2.955855275215302572e-02,-3.496240333983042375e-02,1.012523099780082703e-01
7.621196415262599944e-01,6.208389958049534973e-01,6.902760790917708000e-01,2.547340439161119297e-02,2.492913094216461442e-02,-6.130147118431197861e-02,1.733675003051757812e-01
7.846331184043556783e-01,6.446206740634418120e-01,6.787963638956223678e-01,6.712343932655122358e-03,1.468960429311091422e-02,-6.555059630215101518e-02,1.722196340560913086e-01
7.117930996983264924e-01,7.366197785742815141e-01,6.938657419615358313e-01,8.277954511362452944e-03,3.907461468742064355e-03,-2.707119577406100815e-03,4.069637134671211243e-02
7.884490854673232851e-01,7.173961557150011492e-01,6.860273600366889601e-01,-4.354777639628050478e-02,-4.628697283889010583e-02,-5.614333066554458990e-02,1.727259755134582520e-01
7.708339452798107505e-01,6.835860942883352775e-01,6.904951407351839210e-01,-2.717746751651111195e-03,-1.393701926899007341e-02,-2.779806085212702116e-02,9.990094602108001709e-02
7.529973574303218120e-01,7.125876928844615543e-01,6.864560025858130743e-01,-1.256795864474004668e-02,-1.463998794853400842e-02,-2.627998822239201865e-02,8.099716901779174805e-02
7.529078274935800952e-01,6.721078444863253232e-01,5.823915753199626621e-01,-6.357933440514339229e-02,-8.605806900849991004e-02,-1.258366269295329576e-01,3.219879865646362305e-01
7.943040870320622338e-01,7.213905515016351133e-01,7.395119518863121355e-01,-5.116685689451730412e-02,-4.016026088053351734e-02,-6.843452632211081965e-02,1.762555241584777832e-01
7.487113279520245523e-01,7.800279101042497665e-01,6.064677635890115548e-01,-4.379476478010933121e-02,-1.082472383889345330e-01,-8.319587325845441417e-02,2.955326437950134277e-01
7.306583509032881230e-01,7.819024819890424416e-01,7.166685868572891804e-01,-3.419252271136402621e-02,-5.995556679167595576e-02,-3.837829297860625294e-02,1.491597890853881836e-01
5.841060243131999119e-01,7.748703411278519138e-01,8.111702346508927741e-01,-7.399704985981758742e-02,-5.485963294142513075e-02,-2.540636025428278863e-02,2.683753073215484619e-01
6.505092361253621558e-01,7.878061332677838147e-01,7.582429424675706242e-01,-4.054380967520087448e-02,-9.820438358224131692e-02,-2.855257545500662283e-02,2.279801219701766968e-01
6.608566065829989400e-01,6.826812331984554172e-01,6.772635978972286752e-01,-8.637928190627700009e-02,-8.678214583749126187e-02,-6.410948731044949223e-02,2.401979863643646240e-01
6.410058218278169573e-01,7.498671931490045184e-01,7.015219604654063801e-01,-2.201420207412548014e-02,-5.140553321428488476e-02,-1.600857161304033993e-02,1.381137818098068237e-01
6.831950237506904111e-01,7.842733199571708669e-01,7.098654170973228705e-01,-8.660522804076946357e-02,-8.438558004571558580e-02,-9.198564749107178418e-02,2.783533632755279541e-01
6.200123096341956241e-01,7.752002552280069514e-01,5.711251037174768230e-01,1.762547926064600146e-01,-2.846065950852822435e-01,1.541903896179457334e-01,6.645178794860839844e-01
6.856704556577422061e-01,8.730518016923830560e-01,6.562687117284315974e-01,3.744258015473785756e-02,-1.776515581556985801e-01,9.446694112532347254e-02,4.088320434093475342e-01
7.024153191938335983e-01,8.073336297858602073e-01,6.547056894048240983e-01,5.404460796480055340e-03,-9.147927292824194201e-02,3.405748999739992289e-02,2.167081236839294434e-01
6.895697065785809654e-01,7.899559050052035181e-01,7.305707448491198797e-01,4.430177139746929726e-02,-7.004314167369110611e-02,3.174528915439740057e-02,1.768386065959930420e-01
4.659373572533027641e-01,1.065794518131954138e+00,5.693556675552294832e-01,2.053753501241495916e-01,3.981388268149095300e-01,-1.774106677567471591e-01,1.002492904663085938e+00
7.410150870123154432e-01,9.018039336874115186e-01,6.332553934247753258e-01,8.013393913821845183e-02,-1.934831027020932626e-01,1.047953068097344231e-01,4.683048129081726074e-01
7.313452398782497310e-01,7.100013244108722699e-01,7.262869741440024507e-01,1.168295138244145742e-02,-1.973425478140907602e-02,1.606128367613166366e-02,5.220035091042518616e-02
7.127540824805278508e-01,7.249883209813520191e-01,7.358685329490404214e-01,3.462029650095352351e-02,-3.282921383207120652e-02,2.696100564896793811e-02,9.700938314199447632e-02
6.994285153913563091e-01,7.269603823315335944e-01,7.493379742200187987e-01,2.040471077014108930e-02,-1.341897897989298254e-02,1.344738765586587018e-02,6.485844403505325317e-02
6.892827109722666767e-01,7.171691519900127432e-01,7.417912804440349728e-01,2.906848230698630409e-02,-2.017359398705771342e-02,1.788333377770655319e-02,8.237608522176742554e-02
6.827650405310556891e-01,7.233592677106467361e-01,7.262809606025812936e-01,2.696774922307952974e-02,-2.016715319114344845e-02,2.649615311982195590e-02,8.534102141857147217e-02
7.239494145940361669e-01,7.077516856591363759e-01,7.081539225207840182e-01,1.895906546286194603e-03,8.876573213931204798e-04,6.379297077090427060e-04,1.644326373934745789e-02
5.738239342714109847e-01,7.813768612595214380e-01,7.857492249605131374e-01,4.419648963127758429e-02,-2.957383165400668049e-02,9.686798792099498775e-03,2.297175675630569458e-01
6.772312110423263087e-01,7.796782394091864576e-01,7.648743772923514150e-01,5.896159929746749156e-02,-5.498394453057001141e-02,4.756115239702222303e-02,1.883699595928192139e-01
5.536043856855731304e-01,8.318686126507676137e-01,7.684219772771131440e-01,3.363425618372043596e-02,-1.048045380805974341e-01,6.317238664597123188e-02,3.348425626754760742e-01
5.803488672263575898e-01,7.426702273984107094e-01,7.485183049928781918e-01,7.074108803188673689e-02,-8.599583425534225445e-02,4.185327491459456956e-02,2.641695141792297363e-01
7.396597707037017022e-01,7.302499366393343516e-01,6.352739841573851187e-01,3.152452090911250782e-02,-3.739197645571095546e-02,5.110035856536601639e-02,1.581527441740036011e-01
7.250532735749263269e-01,7.091213288430082695e-01,7.314160291951934401e-01,6.310157917685209339e-02,-7.331515313029399183e-02,3.944881207989545113e-02,1.820304095745086670e-01
7.360540142986605749e-01,7.889684863291238637e-01,5.123549792520264434e-01,1.350242561280401987e-01,-1.601247136373761260e-01,1.570448780500228458e-01,5.198863744735717773e-01
7.666821133503439745e-01,7.585949715627251511e-01,6.941822842908584867e-01,4.152959502239968875e-02,-6.555344007344564294e-02,6.322985371951443667e-02,1.865348070859909058e-01
6.446592116809439776e-01,7.946519557373815656e-01,7.538155188454731537e-01,1.593847364409909512e-02,-4.934989924444479342e-02,4.436630073051457679e-03,1.617642194032669067e-01
7.296662460667510119e-01,7.218405617042999989e-01,7.047545035169991978e-01,1.329403290320853998e-02,1.142573810086105687e-02,-1.343271415703700157e-02,4.415919631719589233e-02
7.063362325301482114e-01,7.218946578803612235e-01,7.267248137565084365e-01,1.238605126991875784e-02,1.241125549787669077e-02,-1.039866414954701036e-02,3.984095528721809387e-02
7.444180088266976192e-01,7.048540868866427500e-01,7.241449191605419111e-01,1.320007953440548859e-02,1.585232877903798576e-02,-2.199711567474384871e-02,6.246962398290634155e-02
7.248905295397584103e-01,6.978740135849140769e-01,7.239712037730827721e-01,1.834101223704109190e-02,1.934765387874402137e-02,-1.766778281675655468e-02,6.143716350197792053e-02
6.214111134350182031e-01,7.327472826447493093e-01,7.589886076371495927e-01,3.599879886520503114e-02,-2.857398616118366971e-02,2.437460393724481811e-02,1.553237885236740112e-01
6.125571561572368262e-01,7.391377421090172817e-01,7.698146959826833724e-01,2.475569837060944897e-02,-2.162408095029769162e-02,2.147644300785738272e-02,1.595991104841232300e-01
6.186918801417967684e-01,7.910552831395466500e-01,7.947064993744545891e-01,2.604891655177780235e-02,-2.880282641428065157e-02,7.513176020471469020e-03,1.872047036886215210e-01
5.736298291943322525e-01,7.681378102512984585e-01,7.918519974555282559e-01,5.917282591893904820e-03,-2.258759623032629074e-02,1.243478693546389013e-02,2.123860418796539307e-01
6.101691151961924353e-01,7.598993118274798286e-01,7.466644232971070272e-01,1.961959903890774654e-02,-2.767475860879116747e-02,2.392711043010813457e-02,1.605696529150009155e-01
6.109208459418363768e-01,7.709816064779131395e-01,7.682392567001993244e-01,7.173370600244199057e-03,-1.399438756318065191e-02,1.279160336807197082e-02,1.625447720289230347e-01
5.778707298530937342e-01,7.808582494681378661e-01,7.900335666769908727e-01,-3.175151798165814360e-02,3.501718909769083177e-02,1.285309947479635825e-02,2.243864685297012329e-01
5.474882385684154418e-01,8.041223695450576692e-01,7.969329298797310779e-01,-2.611943472865079635e-02,3.654617299055702706e-02,1.151218659167362567e-02,2.655538320541381836e-01
5.892030455535098854e-01,7.688437453142105138e-01,7.395726325824190095e-01,-2.183717562689401967e-02,4.730988775218562814e-02,8.535436894416740736e-03,1.903499960899353027e-01
6.233385863780032121e-01,7.781923397897340111e-01,7.497450389294443296e-01,-1.163793548842037388e-02,2.240382065731609529e-02,5.824290782964220564e-03,1.496584415435791016e-01
5.589573255836438603e-01,7.872675520527248061e-01,7.602331390119360099e-01,-1.615746006069022911e-02,5.847803625426953311e-02,8.436540202691387297e-03,2.407071739435195923e-01
5.902157041506550517e-01,8.009630756239707328e-01,7.638472412686487800e-01,3.885750368829354959e-03,1.091506355159638057e-02,1.154405919427878291e-03,1.958996802568435669e-01
5.593854390368622198e-01,7.935971034531708046e-01,7.855746600578463745e-01,-2.000687873790365275e-03,2.643452295466128601e-02,2.971985520358337053e-03,2.348943799734115601e-01
7.117983511966312626e-01,7.449372689727126184e-01,6.858586603763348055e-01,1.361093229507262699e-02,6.519367904394906058e-03,-8.712828049162717886e-03,5.951207876205444336e-02
7.018983480788827389e-01,7.436812747268046753e-01,7.015735413741276405e-01,8.328529275347034549e-03,1.278676554532537889e-02,-9.564010805102230936e-03,5.227330327033996582e-02
6.746282747773095778e-01,7.593727153519639339e-01,6.632058416979266235e-01,1.498605118780039873e-02,3.803923881643222343e-02,-1.057057893500249618e-02,1.167475357651710510e-01
7.089371507708224218e-01,7.700010467284612581e-01,6.935289816283761732e-01,5.757760074562342199e-03,1.618071090268449058e-02,-4.609105148506586862e-03,7.652272284030914307e-02
7.245109229983590637e-01,7.580603752481293034e-01,7.035668291305102739e-01,1.719585524844085070e-02,2.081483422009229589e-02,-9.390829896669851060e-03,6.868996471166610718e-02
7.200355726461612482e-01,7.497154852481102694e-01,6.687656531888936939e-01,2.064699222538563320e-02,1.692333702580919516e-02,-1.023174559826475717e-03,8.469015359878540039e-02
6.855912007081856885e-01,6.964913432643755620e-01,7.530185206181866375e-01,6.320134232447017185e-03,-3.644929329419968177e-03,8.537070152436787920e-03,6.564009934663772583e-02
7.419628001358593572e-01,6.741246914046875593e-01,7.176607902090282876e-01,-2.719306993038783649e-02,2.723635456412315525e-02,3.351882738760236097e-02,1.065756827592849731e-01
7.144348419122262817e-01,7.349352209846579109e-01,6.733499930563218161e-01,-2.132504779768394990e-02,-2.126184260225823588e-02,-1.448203183057283037e-02,7.937344908714294434e-02
7.535228168792118542e-01,7.049606973986052294e-01,5.953425517819489476e-01,-3.724627741914780105e-02,6.798211631218234463e-02,1.049247185508162677e-01,2.659922242164611816e-01
7.333225666162805911e-01,7.443557619861721486e-01,6.270997029500331443e-01,-2.997487205784263309e-02,4.776139399322794354e-02,4.970240018114222696e-02,1.718339920043945312e-01
7.222196098189431757e-01,7.225163043692690579e-01,7.389134018231090506e-01,-3.919013109437865378e-02,2.699143602249622770e-02,3.050677534306157554e-02,9.929259866476058960e-02
8.094667607322822978e-01,5.959501805254996398e-01,8.005720826280150471e-01,-5.272967478360812005e-02,1.656691576390593654e-02,5.950045696175293441e-02,2.521008551120758057e-01
6.894242967424074608e-01,6.517673789498797943e-01,7.426474455204210567e-01,-5.053029918872588983e-02,2.552478813451940567e-02,2.223003960429354581e-02,1.317268759012222290e-01
7.494621130476983861e-01,7.009594056790012795e-01,7.259629148587357639e-01,-1.653803069266877868e-02,1.644448195145628566e-02,2.190011156174450149e-02,6.953831762075424194e-02
7.886331328180018474e-01,6.385905880992277517e-01,6.234343511492520529e-01,-2.440141534701791362e-02,2.760313328619298789e-02,1.300786732646654065e-01,2.825774848461151123e-01
7.962841470730221971e-01,7.111061481036222709e-01,6.103194968510171625e-01,-3.529021878084306202e-02,4.026143473987997545e-02,1.093800385572189227e-01,2.654979825019836426e-01
7.588965053317369147e-01,7.150837173730233420e-01,6.882696930863855256e-01,-1.482006929280152603e-02,1.609871320709151121e-02,3.081696556846307347e-02,8.999341726303100586e-02
7.454210065404187624e-01,7.827208185072348501e-01,6.996604252018042702e-01,-3.518510399846711684e-02,6.664943615493902629e-02,5.699742321684711510e-02,1.788258999586105347e-01
7.742626249244852765e-01,6.277112308956624975e-01,7.829549089911184145e-01,-1.471060837099296970e-01,1.149893209015917656e-01,8.001984387091135020e-02,3.829157650470733643e-01
7.781014067649331123e-01,5.849993027847587568e-01,6.744145779903025772e-01,-6.377092183184533691e-02,4.981325606631448188e-02,1.427694035715876830e-01,3.298648595809936523e-01
8.004337706972818323e-01,7.253785660275950953e-01,7.259999361678225460e-01,-1.350882235210969506e-01,9.940050001664380019e-02,1.584479004213182052e-01,4.065613150596618652e-01
6.888270353984595751e-01,7.132199997551318393e-01,7.692545779292072616e-01,-3.338595143874480836e-02,9.884335060459090161e-03,5.448345887900903246e-03,9.395615756511688232e-02
6.841242535682969805e-01,7.587970985183551953e-01,7.079898218343676497e-01,9.960429235158212592e-04,8.569836946450389362e-03,-9.339084786708392108e-03,6.963079422712326050e-02
7.636360964587773914e-01,5.958799603413185153e-01,8.083436301214094177e-01,-8.153397285593919075e-02,3.919591141424890596e-02,2.521884015204243698e-02,2.531820237636566162e-01
7.527785851191216571e-01,7.033125609181911653e-01,6.954343256260181461e-01,-1.823661000069304013e-03,1.539161839854849122e-03,2.922723037282422710e-03,5.423440039157867432e-02
7.101867779302443173e-01,6.843341299376425324e-01,7.626388844712619353e-01,-2.821313939380848401e-02,8.631761330755534020e-03,9.310640471579232497e-03,8.744791895151138306e-02
7.161244780545943378e-01,6.903545766343390788e-01,7.588282954397743696e-01,2.585045159706206644e-02,1.679568336911471671e-02,-1.324753305200080181e-02,8.346071094274520874e-02
6.851597594911784661e-01,7.174957783442291737e-01,7.639815798704399086e-01,2.787343935386502394e-02,1.232638942439020710e-02,-1.477279104330504571e-02,9.028302878141403198e-02
7.700757295342085529e-01,8.319137100456353018e-01,7.115273472483605310e-01,1.004526089272613776e-01,1.289637543091112504e-01,-1.406081869565601050e-01,3.877518177032470703e-01
6.816816339521198920e-01,6.163988271838730659e-01,7.707357477659366740e-01,6.572132006289263528e-02,9.670280644542486939e-03,-8.170401820624768538e-03,1.773270070552825928e-01
6.053229002374608259e-01,6.968098727163811734e-01,7.708666132145300942e-01,6.474827575715481898e-02,1.011050504569761983e-02,-7.673147522280255456e-03,1.835478395223617554e-01
6.799103305433333855e-01,7.133362485676219000e-01,7.684005072508334200e-01,3.219050623503584563e-02,8.150224261836981968e-03,-7.982422444599244007e-03,9.741180390119552612e-02
7.488360163467790986e-01,7.078720898870686229e-01,6.990767311263093031e-01,8.525535020480510401e-03,-7.971276699787508552e-03,9.831232971215173033e-03,5.305027216672897339e-02
7.443312330993093751e-01,7.096156716035350032e-01,7.092099220876983967e-01,8.978840094633311689e-03,-9.142564694894075167e-03,7.521088011883115577e-03,4.337901622056961060e-02
7.406168489180791070e-01,6.859420466096465274e-01,7.127354286530043215e-01,4.041937067909287355e-03,-1.132261856660552596e-02,5.599896669902488557e-03,5.263069272041320801e-02
7.507766284775808652e-01,7.157314674829892143e-01,6.799015344793848392e-01,1.656204625534850663e-02,-6.270680277845360265e-03,7.300675887694016777e-03,6.977378576993942261e-02
7.784880952662838194e-01,7.119371994982806040e-01,6.838193469305228200e-01,9.353412809189986035e-03,-8.152825487967214207e-03,3.396336103841725296e-02,1.049442589282989502e-01
8.738688782356465179e-01,6.469298126769045254e-01,6.172546719261501336e-01,5.555986980316991036e-02,-2.954465219224354511e-02,1.322303896774982557e-01,3.513550758361816406e-01
7.777219169109761410e-01,7.253817481439785997e-01,6.889064892561945763e-01,1.457778634071733512e-02,-1.509620242925151928e-02,2.752141257713050515e-02,9.783948212862014771e-02
7.487763618707765634e-01,6.974936210527842295e-01,6.966437808429954970e-01,9.987132820864929109e-03,-9.748862970947394166e-03,1.296079678215923507e-02,6.133938580751419067e-02
7.651426222794569521e-01,6.850173425876383559e-01,6.958984449332052957e-01,4.003832541581139014e-03,-8.828984301465806969e-03,8.341757909833153253e-03,7.846850901842117310e-02
6.950759567551876295e-01,6.749786031189974889e-01,6.498917502492540521e-01,9.957576507227608453e-02,1.038381127939024678e-01,-1.147561061998279425e-01,3.211500942707061768e-01
6.853939852866552940e-01,7.401969125559518803e-01,7.129650426200250246e-01,4.653644157408709514e-03,5.593929901083635747e-03,-1.326943529119598009e-02,5.421834066510200500e-02
7.191844432215148686e-01,7.081502999696807077e-01,7.160047232815638374e-01,2.088819198259012078e-03,-5.016086184162881455e-03,3.226608562351030492e-03,1.471676956862211227e-02
8.134735748506563002e-01,7.087829625646560050e-01,6.652392088202859766e-01,3.326524956157404962e-03,-2.216613462625882658e-02,9.226500946192744967e-02,2.108566164970397949e-01
8.515404535147056420e-01,6.749452498755561525e-01,6.748934867523356251e-01,-3.357059242498253160e-02,-4.120982903185299584e-02,1.943195066380017377e-01,3.910894095897674561e-01
7.890172916438857875e-01,7.130534411911200188e-01,6.749828819544136937e-01,-5.425576320385845121e-03,3.314797033493801018e-03,3.248407983286091816e-02,1.157531067728996277e-01
7.666478292225468172e-01,7.154934513358264248e-01,6.787905642651906879e-01,1.841368396656643119e-02,-1.315523950409425505e-02,3.251727909287270568e-02,1.027126014232635498e-01
7.900157357757225940e-01,7.347758323647389789e-01,6.483587445660738968e-01,2.003185694081309823e-02,-1.183109438304787977e-03,7.253666971740869995e-02,1.796823889017105103e-01
7.766192331752168609e-01,6.793483717018714563e-01,6.867712200880747853e-01,3.650808290994938827e-03,-1.469527971369490385e-02,3.149124787023457189e-02,1.116137430071830750e-01
7.720560381641985437e-01,7.120280235798427393e-01,6.738537686002447069e-01,3.648092681371890573e-04,9.673044886276015901e-04,3.054755369881420948e-02,1.007711589336395264e-01
7.648139435220265847e-01,6.693347801917527429e-01,6.701881014489100563e-01,9.851854609700897575e-04,-1.590566369219353514e-03,3.196940898246743157e-02,1.100552380084991455e-01
7.284275121828367450e-01,7.031467060648347589e-01,7.496273149859677964e-01,1.924547086442016802e-02,1.909799689502943154e-02,-1.831485012132449269e-02,6.954254209995269775e-02
7.049246338575742010e-01,6.759666270322859383e-01,7.427978262031277312e-01,1.834454505328348903e-02,9.998775454425025064e-03,-1.388853018630297614e-02,7.251099497079849243e-02
6.925416141661870917e-01,7.045230217928679650e-01,7.632553397250806393e-01,2.900147939258912802e-02,1.057297342140433964e-02,-6.937817364395872620e-03,8.543860912322998047e-02
6.877454456757516876e-01,6.236005098133206026e-01,7.593758285269924801e-01,6.018043661982462600e-02,2.317673237700422842e-02,-2.578710139489727438e-02,1.682607233524322510e-01
7.000309310596951606e-01,7.171430969655672172e-01,7.475858639641395076e-01,1.571611161948464550e-02,1.681473033491831179e-02,-1.562352759310403280e-02,6.373388320207595825e-02
7.244569782434918670e-01,6.993368253189619077e-01,7.313737751154163469e-01,1.928190118267607972e-02,1.809557213547594370e-02,-1.922520768677142902e-02,6.371157616376876831e-02
7.301550564395378196e-01,7.179530245069360994e-01,7.114954795545520572e-01,1.560810483975352998e-02,8.843790334408100848e-03,-1.375894508844353187e-02,4.245923832058906555e-02
7.274326355352559448e-01,7.087436270060329946e-01,7.071440594846785110e-01,9.191996940650790787e-03,1.007041032729069120e-02,-7.450584513794554324e-03,3.325632959604263306e-02
7.190739083182565716e-01,6.311442592411021790e-01,7.734035296802648229e-01,1.130646682633028172e-01,4.901946143553180535e-02,-6.984874054033790580e-02,2.750575244426727295e-01
7.063397699037172739e-01,7.484102295616460454e-01,7.254471529483362824e-01,1.440183140150532760e-02,1.674532073794122999e-02,-1.382647642009557191e-02,5.803558602929115295e-02
7.226652373622514114e-01,7.171512434058194829e-01,6.954647511381691904e-01,1.972052495211763443e-02,1.590791623737700458e-02,-1.916283922542671297e-02,6.039712950587272644e-02
6.745382882787992473e-01,7.120084319486086333e-01,7.081933949169748610e-01,3.008666963360476926e-02,3.031739984841283833e-02,-2.674473162888729716e-02,9.431073814630508423e-02
7.036866802028990397e-01,7.338813382928267570e-01,6.628595535250914050e-01,2.813472934433112679e-02,3.617870852418589300e-02,-2.865897067138553633e-02,1.121460124850273132e-01
7.243358623728876067e-01,7.472172094569659029e-01,6.956690092364923306e-01,1.748427109778556351e-02,2.008655523828026604e-02,-1.595617558442784592e-02,6.994703412055969238e-02
7.178696040425500691e-01,7.562786493654956033e-01,6.488269474226484590e-01,4.067249173922939109e-02,-1.134181599768682575e-01,8.232751211146246972e-02,2.697800099849700928e-01
7.459793746563019301e-01,7.607644634936597816e-01,6.431351562147334944e-01,4.129580605820423050e-02,-9.426604100692169419e-02,8.502150540896831477e-02,2.564690113067626953e-01
7.454491806065548509e-01,7.216832564176450804e-01,6.735979729635966917e-01,2.259041377343388307e-02,-2.019099753078543169e-02,2.986634338055828286e-02,9.721013158559799194e-02
6.661286678637243774e-01,7.316358501422333127e-01,7.042612657275372223e-01,4.989093303569142046e-02,-6.036935586646961088e-02,3.656170655702309369e-02,1.601820737123489380e-01
7.906426042403099652e-01,7.813092902208679247e-01,5.951113861228484181e-01,5.707665736998013967e-02,-1.024482309023264648e-01,1.284415498641472975e-01,3.567162156105041504e-01
6.576629625086138908e-01,8.308893787902328354e-01,5.486098341668954603e-01,4.519482922632675481e-02,-1.687641770390127804e-01,5.560355278367700577e-02,4.020421504974365234e-01
7.364666165498019446e-01,7.461213592977595788e-01,6.436454200249065449e-01,3.325727044767765733e-02,-4.098211265791747160e-02,4.260558812719741906e-02,1.529954224824905396e-01
7.235322279268773249e-01,7.810953632167568772e-01,5.923411110541574320e-01,2.273329737499887523e-02,-7.153519247415437987e-02,4.489880087250857493e-02,2.258901596069335938e-01
7.372479300650046641e-01,7.781353318737853630e-01,6.298673422237901498e-01,2.192905233244570387e-02,-5.640019613278424854e-02,3.630517316802171768e-02,1.803681701421737671e-01
6.544571298165676732e-01,7.032714903598478173e-01,7.612498132290351771e-01,-1.871958278711814000e-02,-6.986629316350946584e-03,-8.033913549704023785e-03,9.982906281948089600e-02
6.767653512295731533e-01,7.131231382415380571e-01,7.852599267253813631e-01,-3.307872748059583617e-02,6.195878883917567762e-03,6.893456260518741191e-03,1.126440018415451050e-01
6.796864058820569765e-01,6.836979305468966484e-01,7.534958616204880943e-01,-2.497195508938905226e-02,-1.130281385672191573e-02,-1.138957218536196248e-02,8.838021755218505859e-02
7.194380462356628758e-01,6.706375604929915024e-01,7.827221082102922001e-01,-5.556238597106673283e-02,-4.287079547462314955e-02,-3.344613499773810283e-02,1.661500483751296997e-01
6.397320327099451642e-01,6.381035974287372348e-01,8.389906354008563882e-01,-1.416798218235202911e-01,-8.144461041474225504e-03,-5.798424746771332211e-02,3.324697911739349365e-01
6.896564317436022495e-01,6.369262840540532711e-01,7.557267470543107546e-01,-5.532434833629189253e-02,-2.432508638246488192e-02,-2.343636752933773645e-02,1.524300575256347656e-01
8.285757275967291502e-01,5.299573371501741237e-01,8.527672252617410908e-01,-3.343527532105586980e-02,-3.269192504740889293e-02,-3.259115973935494681e-02,3.266937136650085449e-01
9.429296607753956394e-01,4.877194779973201832e-01,9.249977859954892079e-01,-2.401794602177968405e-02,6.678845259948977368e-03,-3.745887494736403062e-02,4.532648324966430664e-01
9.034332148344774716e-01,9.105267978997466649e-02,8.627048851892588077e-01,-5.925531507449691149e-02,-5.453923639338183194e-02,-3.432579520107190141e-02,8.071715831756591797e-01
9.187103576378232717e-01,3.434747582982806136e-01,8.343004290861707473e-01,-1.586695642704121778e-01,2.569899246490071204e-02,-1.421755732348078116e-01,6.539239287376403809e-01
7.741782509479708807e-01,6.260987139901826870e-01,7.916047878968368590e-01,8.412536386861289850e-02,-2.039897029882232343e-02,3.480793828344804636e-02,2.256681323051452637e-01
8.230679868126284937e-01,5.229738392030779393e-01,7.771060764824920808e-01,6.017465685677125808e-02,-2.806184599312609024e-02,5.279369065391235211e-02,3.161692321300506592e-01
7.780633649165151766e-01,4.945399483832668697e-01,7.622469175916042339e-01,3.721965824578400694e-02,-1.722919706132220591e-02,6.129405160848205858e-02,3.040866255760192871e-01
8.642276146666190151e-01,5.332529871908801011e-01,8.655223659250479429e-01,9.771470850998204005e-02,-1.939515429188981913e-02,8.468547019279988597e-02,4.015747904777526855e-01
8.334120254782021453e-01,5.988841022875122100e-01,7.654342501631015150e-01,6.478946964746989945e-02,-2.826746913601232633e-02,8.141452455518213838e-02,2.802798449993133545e-01
7.887967569635918608e-01,5.896210111985793478e-01,7.651773915998411058e-01,5.490833243475091302e-02,-2.716183070778784708e-02,7.860539042762755557e-02,2.555757164955139160e-01
8.065625325863762241e-01,7.394989411256195355e-01,6.342165348329519281e-01,1.638626807330061802e-02,-3.459222563126369832e-02,5.069585229493899642e-02,1.864085048437118530e-01
8.329622906272233784e-01,7.532880073049964542e-01,6.508158624009519055e-01,-2.476213639783099874e-03,8.395537939130250787e-03,7.550943828826686688e-02,2.057858109474182129e-01
8.745678108583696542e-01,6.383727796131380972e-01,6.868583286489295947e-01,2.231250701126907127e-02,-2.164329671467944347e-02,2.231213970213912212e-01,4.460215270519256592e-01
8.793806606497401868e-01,6.711050259169818455e-01,6.162486626586585192e-01,5.584467673138854976e-02,-9.664391623528931219e-02,1.508141283414283773e-01,4.042572677135467529e-01
6.407250830267811059e-01,8.016173050172465953e-01,7.004890913785114526e-01,-6.013258787608818934e-03,6.081468745793178199e-02,1.252839637032554694e-02,1.775306165218353271e-01
6.878109228690982846e-01,7.033647488871218600e-01,7.385665318469906149e-01,8.176410577050315792e-03,-5.910522915392672771e-03,1.203081542269819441e-02,5.261363834142684937e-02
6.315357535754732021e-01,7.692021660314908305e-01,6.829783092590719917e-01,8.490845504888738793e-03,5.688627371627736490e-02,-1.144791486328740511e-02,1.575882583856582642e-01
6.769703763317477252e-01,7.834337372686971390e-01,6.751159979435056302e-01,-7.423252293668487940e-03,2.995282977125228105e-02,3.196435345683394744e-03,1.200949251651763916e-01
6.220288975412165966e-01,7.776960497320052346e-01,6.937341350344733426e-01,-1.139607091193573993e-02,8.860377666962282461e-02,-4.501461276746221863e-04,2.053140550851821899e-01
6.572800030311471975e-01,8.350655681978242928e-01,7.010836744639229456e-01,2.022908823830559671e-02,8.787757474254195844e-02,-6.659578489034530951e-03,2.242028266191482544e-01
6.699544492077372793e-01,7.657358621764153161e-01,6.698496270338933911e-01,6.031675201798123581e-04,3.146567181512576611e-02,1.416605718514738030e-04,1.102522015571594238e-01
7.726006967185993224e-01,5.997881977763631633e-01,7.950816246010239396e-01,6.495383503147834914e-02,-6.373498331611132661e-03,2.891175978568935948e-02,2.225782424211502075e-01
7.318649514100346032e-01,6.136980841455297320e-01,7.390804359549010272e-01,4.415106049698930973e-02,-1.983941797514752678e-02,3.257089679816495276e-02,1.583649218082427979e-01
7.317907069220425109e-01,6.141573679465596181e-01,7.610126852448462209e-01,4.781566435287970540e-02,-1.942916302992449273e-02,2.630572444905024052e-02,1.679180413484573364e-01
7.643037675680587339e-01,6.975697353141120383e-01,6.961419637180122910e-01,-5.471789389233542439e-03,4.008103411110804960e-03,1.145646391892000612e-02,7.129178196191787720e-02
9.004937672772899138e-01,8.833531760600287219e-01,4.656664888049116269e-01,-1.344812660627534885e-02,6.832203771529741371e-03,-5.152537810875766622e-02,4.365347027778625488e-01
9.148638516416722766e-01,9.084412484886746908e-01,4.957493192788513525e-01,-4.394643579982249887e-03,3.211059696997038693e-02,-1.060052376620511209e-02,4.201127886772155762e-01
8.809500337016851201e-01,8.792625765877389865e-01,2.422394698171436156e-01,5.711074363153265934e-04,-2.322745748545426356e-02,-1.202601570929525410e-01,6.722226142883300781e-01
9.246412108756614234e-01,1.054084344622713720e+00,2.866299480432680236e-01,-6.981580625745094359e-02,-1.077312920936148305e-01,-5.663623705272830683e-02,7.519733309745788574e-01
8.622398179186933076e-01,8.780448822788859964e-01,2.680273993383678888e-01,7.581089958302037607e-03,-6.592094645940925479e-02,-1.139082704117291150e-01,6.440995335578918457e-01
8.885078402745160142e-01,9.091135107144903138e-01,2.201147615392467505e-01,1.406279195307978333e-02,4.851015733441758904e-02,3.093948940924478794e-02,6.866376996040344238e-01
7.181039501349220089e-01,7.224941693708160084e-01,7.111085538690559149e-01,6.150422257519405980e-03,6.668574084943879217e-05,2.743062779029818623e-03,1.532940007746219635e-02
1.182565000803604383e+00,1.158692361818382421e+00,4.044356171406510159e-01,-5.986805840320205338e-03,8.336977726719099757e-02,-1.044722658246504815e-01,8.007382154464721680e-01
7.561612238925868867e-01,7.006671958509750331e-01,7.971315967213691289e-01,7.473984366508355792e-02,-6.503692744695388495e-02,8.040119266946361976e-02,2.363733500242233276e-01
7.409637184797978060e-01,6.829310504729627640e-01,7.908765424647723474e-01,6.047307352969143873e-02,-3.859694992499288629e-02,3.651365769148510326e-02,1.679152995347976685e-01
6.776753708468188364e-01,6.731094341305825512e-01,7.446609707805478262e-01,4.554933385218416786e-02,-2.198666375503507270e-02,2.764568889095411416e-02,1.215775012969970703e-01
7.024475565059098425e-01,7.121638620942694065e-01,8.224647240566153039e-01,7.454852272973588878e-02,-7.360322767710606763e-03,7.829669515308921440e-03,1.742161959409713745e-01
6.922878934733959211e-01,6.989840700652391048e-01,7.777833746405978799e-01,1.688292590176073138e-01,-5.944494509200470150e-02,8.281002936849758689e-02,3.513764142990112305e-01
6.671453247664911324e-01,7.059980980725564237e-01,7.425116091631123183e-01,4.064652761201591885e-02,-3.077291114955316848e-02,2.950904346936032707e-02,1.211243718862533569e-01
6.398247955380235164e-01,7.088143796732397917e-01,7.566704257543983569e-01,4.707360852232308351e-02,-2.218621670706987653e-02,1.678904483239262307e-02,1.390014588832855225e-01
6.858545451808709670e-01,6.353766973234986626e-01,8.183285725628072216e-01,-6.586360936440630032e-02,4.475262540058904965e-04,4.788417656734691476e-03,1.996692717075347900e-01
6.919466954108727252e-01,6.436180714038707285e-01,7.939289472733618291e-01,-5.605559158671874487e-02,-3.315095716135075393e-02,-2.725015138275506399e-02,1.805991530418395996e-01
5.832559393157427108e-01,7.697218406887652575e-01,7.854892706887832698e-01,-7.064029973950597396e-02,2.841134935991552687e-02,4.268357606590664904e-02,2.466083168983459473e-01
6.009535999601843814e-01,6.830883526748032786e-01,7.819567619901837130e-01,-1.168101254032095776e-01,-4.942261013641860434e-02,-3.447427296507424299e-02,2.765296399593353271e-01
6.829578024435231098e-01,7.185681153463796544e-01,7.887964696692499889e-01,-3.387794905801505552e-02,-5.445910195354669060e-03,-4.548933104963713732e-03,1.108835786581039429e-01
5.431838485373075009e-01,9.074194516483445883e-01,9.439423531660482425e-01,1.088457737954341281e-01,2.466324240558411679e-02,3.355628126521920801e-03,4.297734797000885010e-01
7.063184566113955842e-01,7.200933110338701981e-01,7.380955107058410070e-01,-4.231632669179872033e-03,1.306611834979237122e-04,-1.183813751163497949e-02,3.515678271651268005e-02
7.097886854665464984e-01,7.138028625289816187e-01,7.182471518426801760e-01,4.761150840488803139e-03,-4.520170017874536490e-03,5.624250991553134647e-03,1.667043939232826233e-02
2.310783971489174804e-01,8.382785061586798259e-01,8.153790365273583252e-01,1.458792880293997563e-01,-1.762954040652643661e-01,2.293929421707115862e-02,7.169190645217895508e-01
6.921559733018244343e-01,7.378897796648040686e-01,7.106770540928079027e-01,3.802784693400326332e-03,-2.837521050650113844e-03,8.862945212965026368e-03,4.348293319344520569e-02
6.032736221261968401e-01,7.651675326905530428e-01,7.582492659628048415e-01,1.117453325101120352e-02,9.845916121424571482e-03,-1.505541815767069344e-02,1.627357006072998047e-01
7.020825088999468333e-01,7.247060977161329243e-01,6.940487154998056241e-01,1.482358153652951760e-02,1.642498201114275802e-02,-1.237675213125146931e-02,5.182885006070137024e-02
1.336295852111749616e-01,9.069432680333218144e-01,9.114201527701997207e-01,1.222226955132862808e-01,3.489066502615071393e-04,3.226696827513788474e-02,8.058753609657287598e-01
1.057591055896754284e+00,4.626198014238779299e-01,9.293882468778570383e-01,-1.780140074276923001e-01,4.781466365316480033e-02,-1.403678288721996736e-01,6.746738553047180176e-01
7.016645233748217692e-01,7.373168619810307467e-01,7.013206125126288937e-01,2.205996999243396359e-03,-6.515163742920773813e-05,-1.442956243926992984e-03,3.611546754837036133e-02
6.800593763811317860e-01,7.325011461681382174e-01,7.116345241457886495e-01,-3.889146825131677837e-03,5.119927620482305972e-03,1.213732128590213656e-02,5.154836177825927734e-02
2.034944583882269398e-01,7.928364330711916708e-01,8.788251387250611835e-01,2.561319655685902474e-01,7.808452323134797146e-02,-2.832332371808021776e-02,7.892425060272216797e-01
7.898456810598991629e-01,7.935749857055114376e-01,5.330973044972228125e-01,3.127815527753984547e-03,2.414804774302826713e-03,-3.274871387986009585e-03,2.587859034538269043e-01
7.077185533619249069e-01,7.317176439443877634e-01,7.130269154442577806e-01,8.893693857627183938e-03,5.224535883862885428e-03,-9.415467642484198069e-03,3.258639201521873474e-02
4.401643972987764886e-01,1.123993722808501072e+00,9.738477274767286529e-01,-5.284499559420910431e-02,2.752979601562091094e-01,-2.671863705022040764e-03,7.894670367240905762e-01
7.858854194604336652e-01,6.830390690306293866e-01,7.206715016969095222e-01,3.670385111182592180e-03,-5.753568413988010243e-03,3.499750470900531152e-02,1.092584803700447083e-01
7.800671232638242136e-01,6.532615752268635667e-01,7.023659962609961616e-01,3.346065570209274392e-02,-3.122238750438562777e-02,5.192092134114842383e-02,1.632019728422164917e-01
8.204847082151345283e-01,7.317881643956226645e-01,6.408114332159076110e-01,4.913721117467130008e-03,-1.653142375013942622e-02,7.889921346644018785e-02,2.092384248971939087e-01
7.774982246045206713e-01,6.872638250977038954e-01,6.494886739051290991e-01,9.358843172328887641e-03,-1.096144318434692094e-02,5.457395412378072269e-02,1.501199454069137573e-01
7.668223085150556173e-01,6.810806640855906480e-01,6.484095741021970172e-01,1.596136095871510466e-02,-1.480190466443950109e-02,5.535533659964395753e-02,1.477651000022888184e-01
7.223756781663783766e-01,6.974169194609899369e-01,6.885769986100340745e-01,1.666556436865912136e-02,-2.016465337799876190e-02,1.751517879741909187e-02,6.241093203425407410e-02
7.427957792849932961e-01,7.001253759949465083e-01,6.998845131129883823e-01,1.149741315746995000e-02,-1.122991473297373782e-02,1.385211016952300235e-02,5.640608444809913635e-02
9.061554885237184109e-01,7.544871021475341166e-01,6.607097679733210382e-01,2.442072680165952719e-02,-4.631277667606346210e-02,1.664730319174233253e-01,3.706535995006561279e-01
7.081720978650993814e-01,7.145477724654294427e-01,7.074494360915605240e-01,2.476524128667313696e-03,-4.916484738258067137e-03,4.265880686043340732e-03,1.383065897971391678e-02
8.066924715342730368e-01,7.182824381881822706e-01,4.903711348228732003e-01,2.540867574355889016e-02,-6.080027744055676231e-04,1.521284257959031050e-01,3.889429569244384766e-01
6.828755180179805206e-01,7.204738565054678023e-01,7.905718478248792147e-01,-3.850280270583567727e-02,4.672607108392010274e-03,1.996391660385030218e-03,1.161369234323501587e-01
7.772390463368761271e-01,7.602370051961194752e-01,5.782321658936651065e-01,-1.012647674969568458e-02,-1.037467831730685876e-03,1.423230934607585055e-02,1.934627294540405273e-01
4.288262674735913715e-01,1.137113904515628438e+00,1.090000112467094606e+00,-4.374136470848187519e-02,1.749826573020392129e-01,1.375448012906351804e-02,7.541122436523437500e-01
7.101730704478326217e-01,6.833596239128724159e-01,7.543308908880345109e-01,-5.717220081071794358e-02,5.894313608782612846e-02,6.112317865751958068e-02,1.878560334444046021e-01
6.305069760048160887e-01,7.481644698879261757e-01,7.658596553056088441e-01,-3.714008782095537531e-02,3.084431237138638218e-02,1.900529619564826980e-02,1.559302806854248047e-01
7.161913059637801116e-01,6.944921294009723800e-01,7.548276920194368911e-01,-2.497572676376199133e-02,1.800454176066927647e-02,1.618584433004940579e-02,8.019849658012390137e-02
7.679694667916169282e-01,7.848889998314541039e-01,5.888725947720627740e-01,-5.373803966583671522e-03,1.605790670582219262e-02,2.123280915783619036e-03,1.904361397027969360e-01
6.932231558756264400e-01,7.372489210880681654e-01,7.172266393825467157e-01,3.799273847008309123e-03,-2.836191740070540066e-03,1.078850424048349854e-02,4.329289123415946960e-02
7.043340013718578652e-01,7.469261420071680035e-01,6.939878875915904688e-01,8.744684991525513568e-03,-5.931675479495786794e-03,4.952906401064697053e-03,5.263413861393928528e-02
7.545152727159749606e-01,6.112870089565901610e-01,7.652548071721918532e-01,-8.717150415964080787e-03,1.240718299667273664e-02,8.300645060756934798e-03,1.518695503473281860e-01
7.064955671304384843e-01,7.571498289118596681e-01,7.693354239019264407e-01,-5.924626460563947594e-02,5.358678347430594763e-02,4.373618809206139546e-02,1.679736524820327759e-01
7.350206945300036265e-01,6.487034575544311510e-01,7.737573341434537122e-01,1.023506524393918461e-02,7.222364452740635127e-03,-1.984205857780362969e-03,1.130371689796447754e-01
6.288004255366632655e-01,7.424245390122315991e-01,7.807165633773531788e-01,-4.607227996932584946e-02,3.747924402631899049e-02,1.454727950068047775e-02,1.730448901653289795e-01
5.370019561409649089e-01,8.380182002908532768e-01,8.786454208853290426e-01,-1.794087340711622292e-01,2.871332727408540952e-01,8.472478807358573005e-02,6.855105161666870117e-01
5.952242747710413395e-01,7.655824684503147459e-01,7.786699084427882722e-01,-1.254968426446376704e-02,7.839662968065028593e-04,6.710092227925262831e-03,1.789752840995788574e-01
4.771594965893572460e-01,7.864656328289522103e-01,6.717944561720428087e-01,-1.656616154604066693e-01,2.355047195153619766e-01,1.411581861786040670e-01,6.179376244544982910e-01
7.668438390041770747e-01,6.911209535456640518e-01,6.958599466722646953e-01,1.202447455630655535e-03,-2.573720059643150055e-03,2.050656189012895272e-03,7.371830195188522339e-02
6.390139694157647154e-01,8.129163851706336930e-01,7.646930853434317221e-01,-1.137077281982900451e-01,1.455237593329556933e-01,9.399976796342238150e-02,3.911637663841247559e-01
7.114197422225455592e-01,7.463985213258277351e-01,6.892639184884431502e-01,9.796921562550322399e-03,-3.897308391001173215e-03,2.953167022102639629e-03,5.337648093700408936e-02
7.037142420083273286e-01,7.306485663772136485e-01,7.101342211214307643e-01,2.715240154639229648e-03,-3.016654429427219602e-03,7.884599880182523168e-03,2.880408056080341339e-02
6.936022501297897103e-01,7.682816644047596455e-01,7.177386160753991273e-01,-1.538093227107017666e-02,-2.697454862029875083e-02,-1.744135001305786165e-02,9.034539014101028442e-02
7.133801872077707440e-01,7.660957701661138541e-01,6.832915175942468888e-01,-1.666666851522785944e-02,-3.020110090065950686e-02,-1.619247231671857787e-02,9.811545908451080322e-02
6.666155329818438391e-01,7.965513407118183231e-01,5.460149481140291750e-01,-2.601886662504674166e-02,-1.275164727813625221e-01,-3.093645405625079781e-02,3.174612522125244141e-01
6.204964910288250923e-01,7.965737606802638648e-01,5.979191226220199606e-01,-2.966520900279693423e-02,-1.430090884040112753e-01,-3.429054349590512224e-02,3.209528028964996338e-01
7.004845684584010135e-01,7.201336839476861762e-01,6.911965380401827730e-01,1.207857190989497856e-02,-1.600508837168183873e-02,1.417449021796843983e-02,4.963637515902519226e-02
7.077470037127588931e-01,8.804970095070725478e-01,7.454532467622141390e-01,-6.022982319986857486e-02,-1.491006712395555045e-01,-6.659609674115454792e-02,3.400464951992034912e-01
6.696867584877421731e-01,8.587553186669998340e-01,6.351903299640296874e-01,-6.703161100743890155e-02,-1.194992235537327696e-01,-5.948670624495867865e-02,3.322574496269226074e-01
6.371774768443815296e-01,7.501124106703165317e-01,6.671102297834666794e-01,-2.292516930973841766e-02,-6.395229644463504282e-02,-2.708866591332679055e-02,1.622269451618194580e-01
6.893050832169846931e-01,7.558717269705129693e-01,6.458463660976392351e-01,-2.470877886695466499e-02,-5.286382261714333425e-02,-2.216907265578764441e-02,1.445766389369964600e-01
6.422475394383956315e-01,7.806740746882223636e-01,7.445962293699251999e-01,-3.295142289810189945e-02,-5.967413885390565609e-02,-9.425984758579149247e-03,1.722681969404220581e-01
7.207040777232710527e-01,7.375877332782438955e-01,6.956155505591613553e-01,1.111591150187844421e-02,2.694957915115243560e-03,-2.932910455154495201e-03,4.190898314118385315e-02
7.040481792121977556e-01,7.296479804212813169e-01,7.042632651180867898e-01,8.989397066514522722e-03,-9.578632911854671750e-03,9.534323907013067881e-03,3.795100003480911255e-02
7.410778570726062053e-01,6.363797315881556393e-01,7.834782103823402233e-01,-5.210384462808178435e-02,-1.789583909918767216e-02,-2.757198889822824392e-02,1.690697669982910156e-01
7.027062430354691358e-01,7.440628131983462179e-01,6.954871874940082854e-01,-7.947681346885667603e-03,-4.373973288651710790e-03,-2.628115983771604856e-03,4.825607687234878540e-02
7.335643746151618849e-01,7.319035221463502383e-01,7.338392569680138866e-01,-5.061462516960085062e-02,-4.369253607972570230e-02,-3.680772276949668270e-02,1.322132796049118042e-01
6.749914006968517066e-01,7.434081107643765174e-01,6.848837809680714539e-01,1.590259624229775279e-02,-2.248646713169517170e-02,1.506437023610264839e-02,8.401373773813247681e-02
6.945131845639349599e-01,7.209602734869237084e-01,7.638244164409546677e-01,-2.041186276891320678e-02,-1.133566544960051652e-02,-1.204805818305634650e-02,7.577140629291534424e-02
7.146562813588658303e-01,6.940725793059162596e-01,7.181421265512715202e-01,3.054886028665294243e-03,1.099652528088058100e-02,-3.523532960767365631e-03,3.058766201138496399e-02
6.875611355564058558e-01,7.130747034422014741e-01,7.396062963852111372e-01,3.961766577297186342e-02,-4.406286920372801813e-02,2.078135859288043896e-02,1.177313253283500671e-01
7.116849981254546043e-01,6.540980904523621131e-01,8.369300264912259424e-01,-1.831529155899328243e-01,4.208457411375250701e-02,6.066371641233021111e-02,3.784225285053253174e-01
6.290244379632142779e-01,6.538317787740623999e-01,7.752108899981859924e-01,-7.958706858894931679e-02,-1.808929999555085755e-03,-9.802872799865309638e-04,1.933245658874511719e-01
7.348488197518272536e-01,6.589051922018267504e-01,7.587382295653141151e-01,1.018028844964284294e-02,1.226592851240464015e-02,-4.511503848897575539e-03,9.474028646945953369e-02
7.130141123164239758e-01,6.959955062937847048e-01,7.749742439701420293e-01,-3.128673737575301400e-02,-1.662310223840919934e-02,-1.833414306475634331e-02,9.978552162647247314e-02
6.800002449222677381e-01,7.117370558955502524e-01,7.722780492273663144e-01,-3.462909441533148364e-02,-1.535596736784398779e-02,-1.372810702381616066e-02,1.070707142353057861e-01
7.125625106951413157e-01,6.815134245003802160e-01,7.828502902867769953e-01,-3.051394612338291165e-02,1.209953208172532407e-02,1.060648746890992603e-02,1.079665720462799072e-01
7.091941979815110653e-01,8.097973945876966173e-01,6.956713013126798462e-01,1.687065830753809240e-02,-8.167587241901812234e-02,1.295719103781988422e-02,1.817544698715209961e-01
7.617118926811135005e-01,5.882525220243364217e-01,7.797687712826062434e-01,-1.298826586569674750e-02,-5.780525933878940224e-03,-3.670495202932237168e-03,1.849137246608734131e-01
6.367331531785580534e-01,8.158233630418699756e-01,7.565036516728186333e-01,7.276976674153339160e-03,-6.388959977498120946e-02,7.674019537192509899e-03,1.937775313854217529e-01
5.867485133437808642e-01,7.423639852502784686e-01,6.608594530086886465e-01,7.471985082246031251e-02,-1.216339199469780724e-01,6.006296091789155300e-02,3.002200424671173096e-01
6.531334583146326533e-01,7.612097555075555411e-01,6.218257131299840257e-01,-5.045084563065467542e-02,1.187139210500620518e-01,5.409868163179924749e-02,2.733846008777618408e-01
7.597181724653153667e-01,6.912450580413047607e-01,6.332936005396634371e-01,2.596078359164273944e-02,-2.845690876199911609e-02,5.532489897286791553e-02,1.601526290178298950e-01
6.956394065233059143e-01,7.534724507446984854e-01,6.884280824403147259e-01,6.844507120182157303e-03,1.198346306666888197e-02,-3.808515370330232356e-03,6.654760241508483887e-02
5.912739821875629964e-01,7.593221417546947016e-01,7.374555072319978200e-01,5.551324712103370557e-02,-8.680714855171503541e-02,4.227198554662793539e-02,2.495116293430328369e-01
6.943311001274092842e-01,7.670558282994698329e-01,6.904642035970343095e-01,6.658125702967463517e-05,-2.080994307384206269e-03,-7.214908596111356152e-04,7.483063638210296631e-02
6.081402277067421425e-01,8.041741102350172810e-01,7.524946418426640138e-01,1.064194969660626870e-02,-8.120239791043067090e-02,1.491422853779579560e-02,2.275031208992004395e-01
6.985063749032305314e-01,6.946218467304245969e-01,7.449387501663323752e-01,8.079626956489591866e-03,8.472999552689073482e-03,-6.274071295596912387e-03,5.367244407534599304e-02
7.597619310112962987e-01,7.163301428373208823e-01,6.851335001023799443e-01,1.357272044614180571e-02,4.400781750162377839e-03,-3.973540748949964778e-03,6.980401277542114258e-02
6.086039042899964446e-01,8.196832239715927670e-01,8.084983586492746621e-01,1.200380172478629145e-02,3.997626863924491625e-02,-5.737107219801529379e-03,2.182750850915908813e-01
6.454058693717753536e-01,7.847601034923408214e-01,7.039135803978182615e-01,1.323634036270815613e-02,-5.411153620990354074e-02,9.923834608461301610e-03,1.558675169944763184e-01
6.958586073208089529e-01,6.870899169384119265e-01,7.541359830293191679e-01,-7.612809146047542011e-03,7.706843899503934558e-03,4.355990504923559249e-03,6.628071516752243042e-02
6.638840945780101199e-01,7.497781626257142840e-01,7.955926965986800381e-01,4.544043405065644609e-02,3.499570968124500470e-02,-2.491100727003863272e-02,1.585630178451538086e-01
6.464280236374388977e-01,7.338987347147832851e-01,7.864665364051743879e-01,9.542370744996326454e-03,-5.251383303978709267e-04,8.914406698121956881e-04,1.236487925052642822e-01
7.051440317119836987e-01,7.126124858003034523e-01,8.029587877583219679e-01,7.656157341495260782e-02,2.785440742043732501e-02,-3.228675960713722759e-02,1.786978244781494141e-01
7.343559796925699379e-01,6.753511982305100414e-01,8.157612586233149443e-01,1.445054496775879382e-01,8.235028362569740690e-02,-2.856982361453544450e-02,3.167815804481506348e-01
6.316700816886989811e-01,7.718421101939446638e-01,7.280697076739812701e-01,-1.660176297243245395e-03,9.679751720190603662e-03,-7.804660064241629100e-03,1.260977983474731445e-01
7.826771313041761546e-01,6.818442938222200045e-01,6.745289218352987781e-01,6.895052099538371941e-03,-3.516391924084595090e-03,-3.902131200299056163e-02,1.253240406513214111e-01
7.682915498465140436e-01,7.025139630831310766e-01,7.003944654170175532e-01,6.441358898474466160e-03,-8.845639655821057809e-03,1.254184153142211787e-02,7.281278073787689209e-02
6.889627413916652454e-01,7.628722347809755444e-01,6.958143474344793411e-01,2.158942874864058054e-04,2.841776088955035896e-03,8.981006074356737926e-04,7.092210650444030762e-02
7.691561983261374635e-01,7.046827417276559924e-01,6.456585793615295943e-01,5.566454150036139956e-03,-8.454391030004228822e-04,1.731558122265482516e-02,1.115381494164466858e-01
1.148400991374085134e+00,1.158189462785195190e+00,3.250687298831754779e-01,2.490515524419575043e-03,6.142705934929905409e-02,-4.460157003258080621e-02,8.386520743370056152e-01
7.035225495878084656e-01,7.029769867638360203e-01,7.361386881429136109e-01,9.918484445105210916e-04,2.249723552739545020e-03,1.831702462345927108e-03,3.331823274493217468e-02
6.510208429560037091e-01,7.646886463839366321e-01,7.655435485577770649e-01,1.399509462080246458e-01,8.490200350132649787e-02,-4.452335423820350663e-02,3.151969611644744873e-01
5.408826210171918669e-01,6.280823478042467656e-01,7.893232867713287915e-01,1.640873883019437207e-01,2.524955927003531136e-02,-1.581770062526031626e-02,3.620771169662475586e-01
6.552669135513936594e-01,7.416994721816547731e-01,8.001652271003879546e-01,6.182892585506103572e-02,4.739666128359328739e-02,-1.698223698932605635e-02,1.871233433485031128e-01
7.804211284559984252e-01,7.376915771484909845e-01,6.275605611973700260e-01,-1.108231119606485453e-02,-9.261294697457371147e-03,-5.275900118966676128e-02,1.662432253360748291e-01
7.366881468720295478e-01,6.977318843286738348e-01,7.060438315997032976e-01,3.043386405488784398e-03,-7.219662598910656266e-03,5.360076606465913156e-03,3.915641456842422485e-02
8.010315384854890253e-01,8.091139243581879636e-01,4.603330797268683217e-01,-1.121549971122366880e-02,-8.742238994265937035e-02,-1.127585453407443927e-01,4.246684312820434570e-01
8.122517102249533494e-01,8.102162482112784669e-01,5.297019440801452594e-01,-1.214371138733545859e-02,-2.642703998813909425e-02,-6.515642433677795720e-02,3.074687719345092773e-01
8.947732769518299545e-01,6.880030455817057744e-01,7.902512844871083519e-01,-5.272801625382424889e-02,3.632273598434318518e-02,1.488489613328410066e-01,3.329167068004608154e-01
7.831770034968967842e-01,5.188977274278401275e-01,7.742011910651149798e-01,-6.635650359602708603e-02,3.423710537093038048e-02,6.333331149003079696e-02,3.103407919406890869e-01
8.698288580761357469e-01,6.060327603783098871e-01,8.428826081228086853e-01,-8.975149180723276943e-02,4.602805002614925728e-02,1.307656130626076441e-01,3.808238804340362549e-01
6.900622288707940477e-01,6.967487123869360310e-01,7.669522586080627091e-01,-2.145010607137615502e-03,8.490794096420187448e-04,2.461978825210887119e-03,7.400548458099365234e-02
8.048145130325951024e-01,6.104321638635362701e-01,7.278097301221942983e-01,-6.192719456727795863e-02,4.585945505852410259e-02,9.087464392439568994e-02,2.670854926109313965e-01
7.118216302743525237e-01,7.168903789452747422e-01,7.138588658867820458e-01,-2.183736235178900583e-03,2.138278300859430218e-03,3.688815940581216014e-03,9.400064125657081604e-03
9.950639299776775637e-01,3.970936437539799302e-01,7.567891768183854229e-01,-1.179902908873240175e-01,1.146693967883907622e-01,1.832397822925486419e-01,6.736504435539245605e-01
8.368375489130588374e-01,2.955434609313236649e-01,6.702242225296816125e-01,-2.453763616161468153e-02,1.030169959331639568e-03,2.422545973380084150e-01,6.390960812568664551e-01
7.510763328001447414e-01,3.134714328462191446e-01,8.556913685071978470e-01,-1.753808693509272265e-01,8.102147156795946534e-03,1.022156763786334216e-01,6.099498271942138672e-01
7.965301722014360708e-01,5.337921182751521609e-01,7.759809028673292364e-01,-1.371752393438303332e-02,9.326970820826634492e-03,4.402201753519213029e-02,2.658830285072326660e-01
8.422138454021228515e-01,5.168001455549751100e-01,8.071891258990022688e-01,-5.389007303744226297e-03,1.488109384977765598e-02,5.188262789014079501e-02,3.233421742916107178e-01
8.241546515682336427e-01,4.709469770200194194e-01,8.325255251247235533e-01,4.328736981960051486e-05,2.501448594036480982e-02,6.320492018495814379e-02,3.763564229011535645e-01
7.175777687541805561e-01,7.228290209233046992e-01,7.086067497712189578e-01,7.126153297269725850e-03,2.624950869937257673e-03,-3.127341069941454599e-03,1.890825107693672180e-02
7.100956595303160590e-01,7.105117236173751349e-01,7.238752652471207583e-01,6.000560460094738618e-04,1.332038153195623737e-03,1.513812239181457422e-03,1.405686698853969574e-02
8.038239130585851377e-01,7.268914779077585431e-01,6.366619391454337862e-01,2.788649042510123882e-02,3.725763362566218012e-02,-1.076085190545575526e-01,2.494748234748840332e-01
7.707222839425728056e-01,7.278639223363057020e-01,7.561961093617953766e-01,5.177068440148804851e-02,4.825999422183895049e-02,-6.259382716898134746e-02,1.679491996765136719e-01
7.196676150001251049e-01,7.448328685243539304e-01,6.996779463933037180e-01,1.308683641802669412e-02,1.351636437623487258e-02,-1.168760607465519144e-02,5.484154075384140015e-02
7.110762454714136815e-01,7.165657210893233708e-01,7.233364672198843159e-01,5.994646109559004189e-04,1.330722303390394299e-03,3.301641211052816841e-03,1.233848556876182556e-02
7.223585950118007748e-01,7.633930254817558048e-01,6.929119489810632304e-01,2.301378532851995271e-02,2.501798449361220672e-02,-1.799826958288515411e-02,9.054099023342132568e-02
6.741225969326332113e-01,7.591071824942589030e-01,7.167217441678256362e-01,-2.276897461237410193e-03,9.122531972638955183e-03,1.289945592619814140e-02,7.862059772014617920e-02
6.998719832616275838e-01,7.694759547661744747e-01,6.440283741244676730e-01,2.945952739667498637e-03,1.986489630800611361e-02,-1.079468649632516495e-03,1.142958104610443115e-01
7.553238630870097170e-01,6.800903256350219195e-01,7.121538323555641758e-01,-2.650164052877126281e-03,8.553651834818353991e-03,6.794245596112100626e-03,6.822721660137176514e-02
7.721145753325255878e-01,7.238884044501545656e-01,6.838812954007138512e-01,1.677179294961458553e-02,5.782579109155409035e-03,-3.011727837134141328e-02,9.757595509290695190e-02
7.520735003423733023e-01,6.392241086480275891e-01,6.834152654167318097e-01,2.578785757238575768e-02,2.532213475640445952e-02,-5.880944830110362148e-02,1.549039185047149658e-01
7.360432323851904268e-01,7.516139826487988618e-01,6.410186492265220748e-01,1.871714680210563933e-02,1.108444382386102045e-02,-3.092755476705647683e-02,1.226411610841751099e-01
7.451897734591481637e-01,6.838936868690576043e-01,6.730441601656093065e-01,1.636051413059059004e-02,2.037681693559599203e-02,-2.433521446215618569e-02,9.146150946617126465e-02
7.047867820273518991e-01,7.212485116846528710e-01,7.199074687318706145e-01,-1.673886450175771415e-04,2.199379831419037354e-03,8.066923617721936252e-03,2.146002463996410370e-02
7.032552666281474130e-01,7.376005521374013885e-01,7.093678644147710655e-01,-1.457152204928345096e-03,4.541585543115941545e-04,4.898525432412977748e-03,3.295449540019035339e-02
8.258319452924117732e-01,7.460113039821546499e-01,5.895729556799466087e-01,-7.634637180477379242e-03,-3.190760767902067752e-02,-9.010445129305356959e-02,2.663022577762603760e-01
7.148645304968921366e-01,7.245683952642272274e-01,7.117708608350731270e-01,-1.302553101516198356e-03,7.068666066231392041e-04,1.592443535236441566e-03,1.216358784586191177e-02
8.095380634119879737e-01,7.063758958440229385e-01,5.145630361592841151e-01,-1.428335227909802510e-02,-5.632387238443346128e-02,-1.345469203570532624e-01,3.628501594066619873e-01
7.918847595561200325e-01,7.557254627026975813e-01,6.229544971746776572e-01,-8.134129727450833958e-02,-6.101974829605173040e-02,-1.735446427452609630e-01,3.809320330619812012e-01
8.451037849903795252e-01,7.121307244361633204e-01,6.108322753540043060e-01,-6.419947648521015515e-02,-8.988049381592191911e-02,-1.215474680196391849e-01,3.497638702392578125e-01
8.148437248445666858e-01,7.126627040472253150e-01,7.310645546986074272e-01,-3.305563057236933500e-02,-1.152078724380538148e-02,-8.332830490277573499e-02,1.827739030122756958e-01
8.932502727965070388e-01,6.262610365091260123e-01,5.993415198111459175e-01,-2.377388253119691250e-02,-5.011264587415556818e-03,-1.501722148378715205e-01,3.855141401290893555e-01
7.619141333075455380e-01,7.002815152837147394e-01,7.311219333645577745e-01,-4.823507408999266194e-02,-3.163517648757671608e-02,-8.320960372442777475e-02,1.833103150129318237e-01
7.577347023304716878e-01,7.247733244830526500e-01,7.204708286868706235e-01,-2.789719758885756198e-02,-2.739031965088270515e-02,-4.774055980676492061e-02,1.125598177313804626e-01
7.086837826772599547e-01,7.385936825121978133e-01,7.046235022244247137e-01,-1.799934338326668760e-03,2.672770708150427280e-03,1.647074288158461609e-03,3.273865580558776855e-02
2.496182460818403559e-01,8.295909948825106461e-01,8.733004431434313597e-01,-1.392943252974767621e-01,2.348139616090227921e-02,6.500941364147630984e-03,6.508600711822509766e-01
8.094038697582671693e-01,7.964041168215960642e-01,5.802680517779200686e-01,7.644037782655993193e-03,2.113020362722049794e-02,1.416008036108525048e-02,2.276176214218139648e-01
6.345705548431403997e-01,7.799277995685371945e-01,7.354808195258535353e-01,-1.177917043697141776e-04,1.098105671016815985e-02,-2.636034406369306467e-03,1.304845213890075684e-01
7.505276063509931372e-01,6.837006072811347979e-01,7.157719337742908250e-01,-1.890744766932850665e-02,-1.723124379570987671e-02,-2.916666205808502235e-02,8.869324624538421631e-02
7.501413208058075321e-01,6.643372154012221475e-01,7.346733914385962239e-01,5.559994722935887590e-02,2.655582482848468234e-02,-4.321882534285678007e-02,1.525374948978424072e-01
7.092201730340406129e-01,6.623951520244933944e-01,6.588494171935510568e-01,8.369224930887590730e-02,9.290350551484383157e-02,-1.108343316865536693e-01,2.934796214103698730e-01
7.590361981709261574e-01,6.377983194989523819e-01,7.298905849565675563e-01,2.721182750625728008e-02,2.559626110342158589e-02,-4.839930924827919034e-02,1.524105370044708252e-01
8.454424408854184225e-01,5.982545830737068249e-01,8.641580362682078631e-01,9.733347885436538505e-02,3.261852454606564006e-02,-6.926203890701031207e-02,3.347885906696319580e-01
6.891061076487799975e-01,7.663915573675996740e-01,6.930506468397098496e-01,6.816204442898489391e-05,1.142403155713247152e-03,8.843632311360095184e-04,7.543221861124038696e-02
7.763031742776080879e-01,7.898311907799626663e-01,5.716570499414305173e-01,-1.143344656722722341e-02,1.685783852423635223e-02,1.100305286231842775e-02,2.154981046915054321e-01
7.813729549286416720e-01,5.330470947299597029e-01,7.740918385011004155e-01,4.618559690448297006e-02,1.699598073890870933e-02,-4.702578894325419590e-02,2.716815173625946045e-01
8.034846151955432614e-01,6.064806207163746521e-01,7.763405345197263996e-01,7.169779190547025116e-02,2.058386100461203835e-02,-5.247754546742349618e-02,2.432167083024978638e-01
7.352357853750418615e-01,7.932867719528009509e-01,6.003950632204181348e-01,1.186531215101756243e-02,3.092328394935052460e-02,-3.506924465839183873e-03,1.808523535728454590e-01
7.311574543864182152e-01,6.895617972568898191e-01,7.646028140510194859e-01,9.652541282531443279e-02,6.493045843541077333e-02,-1.365525346791906791e-01,3.174572587013244629e-01
8.117371334857962362e-01,6.530170621281103926e-01,7.529763188038844923e-01,5.799573330111456454e-02,2.911101167957531877e-02,-9.775870033106519308e-02,2.462144047021865845e-01
6.935956346405912631e-01,7.356206493434644944e-01,7.136356277411205484e-01,2.363753780854252039e-03,3.986324858982585005e-03,-1.131517695130702245e-02,4.211954772472381592e-02
7.537529184741296184e-01,7.070163211238028600e-01,6.747755000688980820e-01,6.875097571042492091e-03,2.380373766916338025e-03,-6.272856641742126718e-03,7.076334953308105469e-02
6.714166529087125523e-01,7.750505817807707976e-01,6.148243066461674955e-01,-8.045830015059885973e-03,-7.413036687004662117e-02,-5.193839947566725179e-03,1.912292838096618652e-01
7.435146860327435103e-01,7.873980606115336123e-01,5.986455528529792680e-01,-2.120901915027582560e-02,3.466762655736873450e-02,5.266849183038766098e-03,1.852252185344696045e-01
6.900529763043520282e-01,7.690887175836897960e-01,6.460862811858621990e-01,1.395762789787841074e-02,-4.239956684459852271e-02,1.657736593586555535e-02,1.358554512262344360e-01
6.924129261474312180e-01,7.639230097617774051e-01,6.917642014170106712e-01,-1.304657346729830476e-03,1.616386054295499558e-03,1.148277706480779216e-04,7.192695885896682739e-02
7.093906250602362018e-01,9.183842031021185459e-01,7.288412912027282253e-01,4.871841955329043322e-02,-1.852826784501988011e-01,5.406879494852116080e-02,3.985866904258728027e-01
7.343934634915506576e-01,7.745369137741768828e-01,6.447454215465282523e-01,-7.635147809142249845e-03,1.236366525810409303e-02,4.809723807380273438e-04,1.178185492753982544e-01
7.631341917578347012e-01,8.342913494401035246e-01,6.275913430458560649e-01,1.168336698233249545e-02,-5.944978962461391209e-02,-6.210105783114741075e-03,2.102571725845336914e-01
6.255883793674864579e-01,7.769105746373814458e-01,6.679316333841822662e-01,-8.919288043070357219e-03,-7.344852730896909987e-02,-1.032715007310798516e-02,1.871538162231445312e-01
6.549788681686053993e-01,7.085421079964406843e-01,7.609175898697582152e-01,2.085476966139615529e-02,-5.870190300518300305e-03,1.042453323992905030e-02,1.007559746503829956e-01
6.892921902734385764e-01,6.913591552479436686e-01,7.575398697539480475e-01,2.493415960914191140e-02,-1.247440311118598252e-02,1.720184487541941143e-02,8.798085898160934448e-02
6.953584251276994088e-01,7.066751878689984112e-01,7.194866541670136284e-01,1.263293305676683499e-02,-2.054136895105204003e-02,1.571548534222587737e-02,5.406230688095092773e-02
7.239390643031837769e-01,6.971271523948378013e-01,7.647850274368342971e-01,2.001732945474003766e-02,-1.713838094121340055e-02,1.677323379256879729e-02,8.006064593791961670e-02
7.017517012174510072e-01,6.622825101865643660e-01,7.423307488045577385e-01,3.694870532671362673e-02,-3.263542747371477037e-02,3.420240683508661561e-02,1.249253600835800171e-01
7.689458174702989979e-01,6.676807794014444353e-01,6.504386868345730655e-01,5.298264459605028787e-02,-3.474846558105695177e-02,1.031243328166565609e-01,2.371616661548614502e-01
3.077395733879227935e-01,9.375597732246276905e-01,9.481859111166505150e-01,-6.623362503344951135e-02,-1.921066270770006856e-02,-6.111125430607976250e-02,6.549431681632995605e-01
7.132548676867711546e-01,7.130841601486155312e-01,7.131016913977594740e-01,9.454862043065463380e-04,4.831655845890780185e-04,-1.876095532761235017e-03,3.737357212230563164e-03
2.763957841211548971e-01,8.978917172443610095e-01,9.647649095561920962e-01,-1.612390177217039589e-01,-1.231979035147859475e-01,-1.908312102174917688e-02,7.462642788887023926e-01
6.643308249301422830e-01,7.733110178835760351e-01,7.032990816724942196e-01,1.328936000886528877e-03,5.919042326309259354e-03,-2.222885897288637020e-03,9.629987925291061401e-02
6.842414298210883761e-01,7.381307722517068681e-01,7.378615517418243286e-01,4.050297860652278190e-03,5.143285746575122080e-03,-1.313604485836247955e-02,5.946316197514533997e-02
4.239653858038492928e-01,9.426686228067481244e-01,1.216644522015917440e+00,-1.823470141094763741e-01,-1.777397358766356628e-01,3.654426973114434634e-03,8.251022100448608398e-01
2.975166134736852985e-01,1.055803379916985474e+00,1.048043902565405361e+00,-9.285632449247446796e-02,-1.104221377125923637e-01,5.160630850726373453e-02,7.997567057609558105e-01
7.673346539189050963e-01,8.728610598391255415e-01,5.357497205454166966e-01,-5.067366598165963520e-02,8.458245273577461032e-02,7.964503333589036116e-02,3.706774413585662842e-01
7.391934388043279736e-01,5.221994475004814174e-01,6.129981160500698190e-01,-1.678419029848366995e-01,-1.865816154101856694e-01,-2.579053636586602916e-01,6.512483358383178711e-01
7.634145249188329929e-01,5.799731279276615359e-01,8.497118269028862692e-01,-1.710824720958311063e-01,-8.998267587675461143e-02,-3.112631836468465196e-01,6.779978275299072266e-01
7.845892430465458700e-01,5.521384412577953205e-01,7.004943035818380626e-01,-4.612144808675512631e-02,-3.224713229285953303e-02,-1.083176959302659115e-01,2.936950325965881348e-01
7.265188099069843641e-01,7.040090622985776259e-01,7.081042547754030636e-01,3.300039986306734473e-03,3.008293161715530281e-03,-1.537771538459368949e-03,2.232021652162075043e-02
8.651399126209428081e-01,6.336414685610354258e-01,7.770345831828926464e-01,-7.704514319876687445e-02,-4.929250081801021116e-02,-1.294836957463079696e-01,3.411056101322174072e-01
6.063781934007852481e-01,8.385250886411755866e-01,7.784365641628198107e-01,-4.483838884552376197e-02,9.672600699865925578e-02,-2.067910492039273448e-02,2.809546589851379395e-01
9.739983023434669596e-01,3.887723388172550920e-01,7.509141442196455296e-01,-8.029407929805920663e-02,7.680613233032268505e-02,-3.415745332055843408e-01,8.054562807083129883e-01
6.682608658300771554e-01,7.191414606050539060e-01,7.837801744106083213e-01,3.789826053476484657e-02,7.363371761487424831e-03,-3.339175709995366968e-03,1.206681281328201294e-01
7.653270906483388147e-01,7.795676526625379132e-01,6.003889730536268177e-01,1.338691461398035243e-02,1.187281584263347178e-02,-1.856799481344621056e-02,1.781881600618362427e-01
4.965779744768038517e-01,7.820020455940349668e-01,8.624003163738063193e-01,-1.177147507920396213e-01,5.794540359072114510e-02,-6.979473239281848169e-04,4.031415879726409912e-01
7.227601255684354964e-01,7.140874448586977952e-01,7.090686914777442063e-01,3.567451464318178653e-03,9.185721979009047432e-04,5.548194044822914259e-04,1.362219732254743576e-02
6.152468662357662987e-01,6.439993440531048829e-01,8.287426935372567138e-01,-1.352521525294464455e-01,2.259154834768673653e-02,5.365116212217822117e-02,3.245220184326171875e-01
7.026648250577458565e-01,7.350481058799386291e-01,6.937750549990353566e-01,7.422551030049095479e-03,3.590400291101904836e-03,-3.140790194540631942e-03,4.060953482985496521e-02
7.317661207830755687e-01,7.557715372814681754e-01,6.545229563812298146e-01,9.853741418808487085e-03,8.864054571482673367e-03,-6.917671971738179743e-03,9.522387385368347168e-02
4.906481349067244313e-01,8.544331563542333363e-01,8.492609893733159554e-01,-1.351326704494213160e-01,-3.149588126046252989e-02,-9.726338250011085790e-03,4.341969788074493408e-01
6.210205456389000789e-01,7.433407140206742536e-01,7.972084217741292056e-01,-6.484557072369995234e-02,1.526010754996798106e-02,1.046301650944855312e-02,1.951792538166046143e-01
7.374244681229452647e-01,7.006349370290522183e-01,7.122287971950448382e-01,2.014077398144928019e-03,8.895000257433538157e-03,-1.416023355612803939e-03,3.628915175795555115e-02
6.441604126414909315e-01,6.886517704966933495e-01,9.186974157669123286e-01,-1.493599695669031724e-01,4.049425388149950622e-02,1.785808213292150925e-03,3.701211214065551758e-01
6.160750976025608505e-01,7.861806776063040569e-01,8.531558783677891666e-01,-1.392868045181529235e-01,3.224460493279365791e-02,5.227806679973534543e-02,3.381346166133880615e-01
7.334747318458443299e-01,7.824062726606400009e-01,6.394002595478978090e-01,8.133973524386576767e-03,1.144383954096775749e-02,-2.970505109870232290e-03,1.283173859119415283e-01
8.336390582902507562e-01,6.480971142634259774e-01,7.694609212942594700e-01,2.660245131528566134e-02,1.508798838251725234e-02,-5.902369712487604003e-02,1.997356116771697998e-01
8.782378468581386599e-01,6.765735593528077185e-01,3.899707847366640778e-01,-5.529254865766913135e-02,-3.200533391667643307e-02,-2.806416229377653448e-01,6.550810337066650391e-01
8.419191431889044841e-01,4.199153859149943879e-01,7.030192016386247467e-01,-6.126627043585905485e-02,-4.984566371096334908e-02,-2.774955917073045897e-01,6.232895851135253906e-01
9.613435216105976622e-01,7.357743720111227237e-01,5.357941850568187503e-01,2.403448474327431195e-02,-1.819207903013757288e-01,-3.684538968671307591e-01,8.026681542396545410e-01
7.364696068493986614e-01,7.130952480736798549e-01,6.933263909350918519e-01,9.073478902169404559e-03,2.992955321081275984e-03,-4.812822541624195601e-03,4.174445942044258118e-02
9.001562903931927817e-01,5.582563944109097953e-01,7.304652771413628898e-01,-1.382084807683862104e-01,-2.249375006258349033e-02,-3.647940123985713989e-01,7.387285828590393066e-01
8.498121668864552225e-01,7.791386704494762672e-01,5.912424912762046514e-01,3.233288809703937106e-03,-8.761309819119621201e-03,-1.117844598194102923e-01,3.022051155567169189e-01
7.115132182510497394e-01,7.234278898463136764e-01,7.080306339816710981e-01,2.050958087924289672e-03,8.332285298926562144e-04,-3.104636350273408830e-03,1.546609308570623398e-02
7.349905037904882477e-01,7.074748779048261049e-01,6.732319142379230570e-01,-2.795845157285594546e-02,-2.938426171583288088e-02,-3.560692367514062956e-02,1.077534034848213196e-01
7.873474018059107848e-01,7.203614613306438264e-01,6.800200180632306468e-01,-4.594192847062418018e-03,-6.767126961687072034e-03,-3.631419484441165274e-02,1.139022484421730042e-01
8.212581283522386588e-01,6.418771986728757373e-01,6.796055271624017458e-01,-7.724192182158209907e-02,-1.066119942982563656e-01,-1.505237759213537418e-01,3.831484317779541016e-01
7.450393856819735872e-01,7.800301910623834711e-01,6.377601122053103699e-01,-5.517775343659368781e-02,-7.753490379603927840e-02,-1.182180478838343457e-01,2.925444245338439941e-01
9.144888698808736338e-01,7.047782992823116155e-01,6.430099117685068588e-01,1.869093094270218695e-04,-3.295160191318492054e-02,-1.933371806884743860e-01,4.196935296058654785e-01
6.935887992140685743e-01,7.030782408261769811e-01,6.689914986512905948e-01,-3.465564774839879902e-02,-3.752294914919406671e-02,-3.284274104401666700e-02,1.095051839947700500e-01
6.754485390482061202e-01,6.676759865090606816e-01,7.659630763667102382e-01,3.136246077869408316e-02,9.024140304649283604e-04,-7.527286629955472772e-04,1.091410890221595764e-01
6.176823558363317979e-01,6.654373094792565002e-01,7.407699766262787477e-01,1.142347066250182647e-01,7.725577600625702090e-02,-6.886318971958005353e-02,2.878081798553466797e-01
6.941107578629622799e-01,5.477925151334009923e-01,7.278698235884065726e-01,1.126451623618561632e-01,6.268288467346853909e-02,-7.456840209633798511e-02,3.066330552101135254e-01
6.889825331299493927e-01,6.500837253744289335e-01,8.363280898041014488e-01,1.172464032477801982e-01,5.825574832452862922e-02,-3.671919988997854323e-02,2.905540466308593750e-01
6.364008284171837060e-01,5.837477929591284864e-01,8.859168819407452489e-01,1.643114178786002355e-01,8.699616022822435207e-03,2.610144086529515330e-03,3.992625772953033447e-01
7.100993516067060085e-01,6.585163672220144537e-01,7.660246945015871667e-01,4.220246063498144656e-02,1.868021699196511717e-02,-2.141312453334708737e-02,1.282138973474502563e-01
6.760644321368249887e-01,7.020542370244051700e-01,7.808658511150406989e-01,1.386950216548722414e-01,2.120522445240495546e-02,-9.902964772930070159e-02,3.121114671230316162e-01
6.837699039172686621e-01,6.411758930102373633e-01,7.636973217664427827e-01,1.061071098423191500e-01,5.898562601537395839e-02,-6.994426945648872518e-02,2.655141055583953857e-01
6.531854722793956070e-01,6.999769225854034493e-01,7.806922191904043240e-01,4.785237611745545711e-02,2.089510258105211488e-02,-1.711525015714120135e-02,1.467628926038742065e-01
6.864764416198224639e-01,6.323905590574411262e-01,7.870985880322052264e-01,6.237424822966021465e-02,2.968519340363929768e-02,-3.063823331966797348e-02,1.887424588203430176e-01
5.164342721107377798e-01,8.745158249083062607e-01,8.425870676005247084e-01,1.434101130270457145e-04,-5.255957492939567627e-02,-7.929702055240022904e-03,3.553659617900848389e-01
6.001788186873927566e-01,8.784495041605816512e-01,8.409206750131827945e-01,1.897395318534671194e-02,-1.184774957744301055e-01,-2.472016897940674564e-03,3.340792357921600342e-01
4.379564688075364143e-01,8.330963314390031904e-01,8.487678537067990803e-01,2.376698498737569998e-02,-1.111369370821628372e-01,1.076237258009878767e-02,4.490767121315002441e-01
5.166454427074809175e-01,1.060620189101358246e+00,6.476611257225923790e-01,-6.281483429471478031e-02,-2.599556769369164022e-01,-3.838153818351060925e-02,6.788164973258972168e-01
7.157091403273667662e-01,7.137258345419302819e-01,7.140404045016436330e-01,8.534019135692147949e-04,-2.279163463587350594e-04,-2.776534433004458776e-04,2.445519203320145607e-03
5.427905132892238971e-01,9.008028834009222940e-01,8.723085860636917710e-01,-8.906321392879855414e-02,-3.456264756137774619e-01,-5.669619177871064453e-02,7.145604491233825684e-01
4.846628262276194699e-01,8.625561711128767461e-01,6.156270533760048735e-01,-9.046999240920992891e-02,-2.633680374062276064e-01,-7.183620186557723719e-02,5.988225340843200684e-01
4.477765387517759765e-01,8.472244998338104294e-01,8.700947610477028915e-01,-1.460404531213374546e-01,6.133881089114853052e-02,2.206176574642401342e-02,4.959315955638885498e-01
6.208310459231205503e-01,8.919924949181013973e-01,7.169993424034735163e-01,-5.361397408397097775e-02,-1.789518519784359663e-01,-4.007265754577931521e-02,4.076908826828002930e-01
5.715761840964098672e-01,7.834925782648665127e-01,8.087363441847704726e-01,-4.700824726117006774e-02,-2.158197311866775006e-02,-2.789948494057614258e-03,2.427867352962493896e-01
4.917410121410197288e-01,8.564478747586805607e-01,8.470206963138534606e-01,-1.239289164532391269e-01,-5.881894941915850189e-02,-1.155083706524701048e-02,4.318752288818359375e-01
4.978927924477127842e-01,8.014475947663798339e-01,8.395085872122243220e-01,-8.716605938789755148e-02,-1.842377047145003083e-02,-2.234234061673263938e-02,3.611888289451599121e-01
7.137995660870010139e-01,7.364655234950308049e-01,6.970410435464209353e-01,-1.154000334112883705e-02,5.414213520964909418e-03,3.392257318774609225e-03,4.118762165307998657e-02
5.850355648501195382e-01,7.738577688985510683e-01,8.458030093232182800e-01,-8.281104415952150744e-02,-3.899345145192275978e-03,-1.577466248696645160e-02,2.752815783023834229e-01
6.235405307624474203e-01,7.904176313365429696e-01,7.782845041615574777e-01,-4.475997834947377518e-02,-4.673875820798872177e-02,-1.862467774561673770e-02,1.989345997571945190e-01
6.064500547874122072e-01,7.589517210697630523e-01,7.391035005952004688e-01,-5.247572614339172242e-02,-5.629937841877093174e-02,-4.583268600975677620e-02,2.114135622978210449e-01
6.189060477772295732e-01,7.427923905656766967e-01,7.421531148623486951e-01,-6.048521398892918455e-02,-3.516346928680492284e-02,-3.267322964625100218e-02,1.820891201496124268e-01
7.872665845910921112e-01,7.914201645698363263e-01,5.865697366351507736e-01,-2.530061604769632058e-02,5.844449831922046007e-02,4.127764459960418797e-02,2.416800856590270996e-01
5.906096881457137959e-01,7.670972437148644296e-01,7.742232838896436764e-01,-1.032383421794555167e-01,-1.299259796933859568e-01,-9.039353931148856602e-02,3.736121356487274170e-01
5.953772643748550530e-01,8.012602643466879559e-01,7.683540620432149915e-01,-9.489027846005633482e-02,-4.844953510088131216e-02,-6.453936758408578001e-02,2.885244488716125488e-01
6.824798009864994075e-01,7.351522050328419544e-01,7.315531873962815013e-01,-5.609495443443106820e-03,4.406192834601305348e-03,1.110175972663070797e-02,5.585835874080657959e-02
6.341408382803815913e-01,7.643711358881731810e-01,7.877656189902690897e-01,-9.157488856172353586e-02,-8.665589242198275255e-02,-4.881504479300650262e-02,2.745691835880279541e-01
6.963821394316792590e-01,6.876686217531204903e-01,7.502755512872139043e-01,-1.946388577941070633e-02,1.898540931289500674e-02,1.594120841682600959e-02,8.018889278173446655e-02
6.904193174622038631e-01,7.364756531407981033e-01,7.157485402733011481e-01,-1.931408300924019770e-03,3.142492651252129249e-03,9.321757520980303996e-03,4.356244578957557678e-02
5.682329446176530574e-01,8.757967987670580712e-01,7.683542636246583069e-01,-8.096160288529424820e-02,-1.507182139361560314e-01,-3.608633159682511637e-02,4.059715867042541504e-01
5.451842698646980345e-01,8.611495077351108973e-01,7.584822168057107072e-01,-8.964743178844132576e-02,1.262971404957200505e-01,2.596218869084502417e-02,3.897695541381835938e-01
7.613636128606457998e-01,7.428235458109823108e-01,6.007877722253833763e-01,-4.452703228758337489e-02,6.964901782097132621e-02,1.009360218188299213e-01,2.724269032478332520e-01
3.972956292244015364e-01,7.854628346982859277e-01,7.175108077695416808e-01,-1.305320828159016733e-01,2.650970732778712979e-01,1.208356904795180597e-01,6.592901945114135742e-01
4.035134846555314403e-01,9.762222403105391688e-01,8.627472384752035151e-01,2.180250431781404971e-02,1.435687494429791766e-01,-1.057150206215550295e-02,5.826500058174133301e-01
4.943784197756804222e-01,8.353862903107436289e-01,8.649678371122113685e-01,-3.062884600402447990e-02,1.165081588770709997e-01,1.303316252518114601e-02,4.138784706592559814e-01
5.007434615238076647e-01,8.596233377697490852e-01,7.968256208826363096e-01,-7.553813132012110465e-02,1.458790411351169047e-01,3.552725529836432694e-02,4.415293335914611816e-01
7.279051567914778254e-01,6.985686415662747395e-01,7.129606144991513794e-01,-8.471987254917932517e-03,1.621822833843207176e-02,6.141570612039620215e-03,4.198955744504928589e-02
7.649065636073008045e-01,5.719541246853332428e-01,8.467477736175487157e-01,-1.193736956420419909e-01,9.234238821234731776e-02,8.918308452785740637e-02,3.897596001625061035e-01
4.914561520305094633e-01,8.664583347823149317e-01,7.375661043986462273e-01,2.529880380365086192e-03,1.466207784835478201e-01,1.633928014990908284e-02,4.173943698406219482e-01
6.808928904239843760e-01,7.647232699695283298e-01,6.962244470734901824e-01,-1.202957230754114325e-03,8.641721080545757341e-03,4.128141258509975681e-03,7.910020649433135986e-02
5.497471733183575404e-01,7.800560741536418652e-01,7.828963679966287614e-01,-4.635646657145012922e-02,4.522413937160578434e-02,2.600170620668287511e-02,2.613715827465057373e-01
8.659464732471889858e-01,5.130942406027370062e-01,7.403848004554166584e-01,1.657274260105454644e-01,-6.103763988567478121e-02,2.211720806230322856e-01,5.799055695533752441e-01
1.021802680853528766e+00,4.499698435258288054e-01,8.581230642217849702e-01,1.232674309963005671e-01,-1.110115108937390072e-01,2.405807296661582606e-01,7.185950875282287598e-01
1.022009118899942059e+00,6.956507913755549666e-01,7.866059037326462722e-01,1.509175048547950759e-01,-2.952408603660690647e-02,3.404327387625316059e-01,7.097360491752624512e-01
1.151747049488181185e+00,6.158835099274369007e-01,7.539125672397481992e-01,5.733106081128669373e-02,-5.734047604508910045e-02,2.789876741420893036e-01,6.967522501945495605e-01
8.674720032675232728e-01,5.362289559646806758e-01,7.332345920241449821e-01,1.348405795396644680e-01,-5.876966478078128608e-02,2.771142335981361393e-01,6.152729988098144531e-01
7.094051170468904655e-01,7.623608509752178852e-01,6.575879916324436358e-01,6.059111698693062445e-03,2.375697927123391479e-02,-1.254902849864862786e-02,1.025138646364212036e-01
7.042814767484628646e-01,7.719328708150897667e-01,6.582775216351768321e-01,-3.342803239882257815e-03,1.119532824397619260e-02,1.736726733126796318e-03,1.011132225394248962e-01
8.217906261537073487e-01,5.381288328070887861e-01,6.102576094438987298e-01,1.215407951849393486e-01,-1.152686652513747328e-01,2.640993660018786104e-01,5.988563299179077148e-01
7.432530250013561490e-01,7.826267675969997839e-01,6.088516287662660842e-01,5.539950813656808679e-03,2.230831132661323379e-02,-3.343668360632739544e-03,1.628634631633758545e-01
7.660771446973682064e-01,7.542200864658904491e-01,7.065464248602111308e-01,-9.301443606799056352e-02,-8.380318286775392811e-02,-1.250638841622748187e-01,3.113286793231964111e-01
7.745607126511396823e-01,6.844653495847921043e-01,6.541852595504081824e-01,-2.298834055087796424e-02,-2.524202161353909096e-02,-6.312945899178959430e-02,1.649697273969650269e-01
6.975824573197162426e-01,7.082361987174818907e-01,6.899342001468041774e-01,-3.397052598275495522e-02,-4.003330204607059156e-02,-3.654269219879369840e-02,1.119355708360671997e-01
7.308919249466642176e-01,7.140540715425004459e-01,7.188203376509286757e-01,-6.221889178452668853e-03,-8.698391246526130868e-03,-5.836524668812549665e-03,2.590933628380298615e-02
6.971952551276960897e-01,7.110876929851910333e-01,7.354939081476900009e-01,4.439512671416568669e-03,3.794954499654841929e-03,-1.245938364751593593e-02,4.117968678474426270e-02
7.424724908916643384e-01,6.966260398438320900e-01,6.956638112393447315e-01,-1.389239609928628189e-02,-1.395290776971833992e-02,-1.547612355194915093e-02,6.347058713436126709e-02
8.326459664552947615e-01,6.962102629209163673e-01,7.084861636019772480e-01,3.541261314103247293e-03,-2.922345445443832231e-03,8.577425808136203422e-02,1.980541348457336426e-01
8.891292941574732156e-01,6.575413547360748900e-01,6.483665065064753152e-01,-2.950614821157490977e-02,8.843084265568365229e-03,1.298017664068270849e-01,3.305054903030395508e-01
7.934243984186779564e-01,6.748607442191110195e-01,6.795520127862708648e-01,-4.324045146857500438e-02,2.852254444118178592e-02,8.300600438646779655e-02,2.055308818817138672e-01
7.985091650717286438e-01,6.328897797539269066e-01,7.444493278338553122e-01,1.081763714723568172e-02,-6.430717734986653861e-03,6.190641677164698820e-02,1.826779395341873169e-01
5.486718447924083808e-01,8.353638759296494465e-01,6.846554670790812036e-01,9.115173840085014079e-02,2.198201015002644865e-01,-8.348492581266614421e-02,5.024899840354919434e-01
7.026211788514684642e-01,6.946734089446597871e-01,7.558047586328108247e-01,1.389274794147825213e-03,5.450250124891317140e-03,-2.213822438886594440e-03,5.851461365818977356e-02
8.053153345819759057e-01,6.091468366056524975e-01,7.445259350561264089e-01,-2.406710118001979468e-02,2.443896578599265290e-02,5.515114128598003901e-02,2.071397453546524048e-01
7.824411741809335075e-01,6.622891032469552242e-01,6.975346283322390040e-01,-3.064074338497614625e-02,1.608079875798055017e-02,5.907129413146990776e-02,1.597014069557189941e-01
7.012630458468471772e-01,7.112613835020918929e-01,7.219035868109576759e-01,4.204603044813818788e-03,4.558078994303251842e-03,-7.292064697051028888e-03,2.438266761600971222e-02
6.154492232669339646e-01,1.046836657801438530e+00,9.926149870899296790e-01,2.194095455051366939e-01,2.456882562605250675e-01,-1.050565906132376742e-01,7.240614891052246094e-01
8.068446193145895062e-01,6.898034416755367548e-01,7.424417087743652166e-01,-4.164488154982967649e-02,3.610383988415009904e-02,8.690149659334077403e-02,2.051281034946441650e-01
8.073046523648632622e-01,5.259067867976818800e-01,7.295983327233233062e-01,-2.524749873398436997e-02,1.257795746622750177e-02,1.358812257250609778e-01,3.480440974235534668e-01
9.074432643551776367e-01,5.082352369661932157e-01,8.102863629457529582e-01,-1.016089068761505260e-01,4.049538312423754671e-02,1.812737116585935448e-01,5.142897367477416992e-01
6.801579225890610481e-01,6.410685579371034892e-01,8.047200468924909922e-01,6.349271469170192361e-02,2.158854120874180785e-02,-9.849033751476518259e-03,1.889336854219436646e-01
7.173197057396055731e-01,4.784258372542759541e-01,8.954795636833023931e-01,1.294097256787232197e-01,5.902423940442301682e-03,1.271769156831364066e-02,4.268522858619689941e-01
7.607259181391923253e-01,6.902677399653671664e-01,7.144183646644356456e-01,2.658408296642315004e-03,1.162962780819419215e-02,-3.333561984676752105e-03,6.562227010726928711e-02
6.676520802793346476e-01,6.985281507011582569e-01,7.661788770401594117e-01,3.736538688913695200e-02,2.368207934577705107e-02,-2.187235100009507494e-02,1.221678331494331360e-01
6.500181660105444070e-01,7.459273205557521713e-01,8.923113546642682525e-01,1.661323824889184009e-01,5.629242146129995704e-03,-1.337139437354234982e-02,3.579075038433074951e-01
6.473485071783543487e-01,4.450536217449284626e-01,8.861241621863599205e-01,2.707667520866621214e-01,3.529885961441648484e-02,-5.188310034619350586e-02,6.148151159286499023e-01
6.742817095792058568e-01,6.301855918693766156e-01,7.600331801409938581e-01,6.252857002897772853e-02,1.634975625913695496e-02,-1.818867946885195305e-02,1.631042063236236572e-01
9.293205663888278734e-01,7.127399829767738781e-01,7.631555184156703087e-01,7.783487315031768772e-02,-6.168934073080867969e-02,1.893307428074594567e-01,4.191178381443023682e-01
6.756551416690649292e-01,7.091680663900815640e-01,7.750269829351601469e-01,-5.325761909227367912e-03,2.792693754941969354e-03,4.678497125296291782e-03,8.855389058589935303e-02
8.085398256340803336e-01,7.586864141049861621e-01,5.673549759358545996e-01,4.873964292027062328e-02,-3.662115413187427143e-02,1.440775182511482289e-01,3.493659794330596924e-01
7.690369072051055355e-01,7.270732598343643271e-01,6.301807465507325290e-01,-8.842042565065431556e-03,1.640235902239223524e-03,-9.809354339981967222e-03,1.254844814538955688e-01
7.057172282595046697e-01,7.469874616285422375e-01,6.865252142213154052e-01,2.764028766553419322e-02,-3.279336753003589400e-02,2.591974666178040523e-02,1.019671335816383362e-01
7.454960061528109749e-01,7.890667011973507838e-01,6.396969993942481780e-01,1.675749336781966539e-02,-4.259440880561303489e-02,2.026512485219932741e-02,1.588045656681060791e-01
6.812292199588283470e-01,7.810975600908182104e-01,7.125457914396784442e-01,1.370841818418215390e-02,3.808807554956471914e-02,-1.815130799722600510e-02,1.171800121665000916e-01
7.344827175221866344e-01,6.681183832030374026e-01,7.364398725218677111e-01,5.050578781873075324e-02,-3.778161776044712539e-02,5.853458776063821811e-02,1.635594367980957031e-01
8.418081016910385905e-01,5.762840766422526739e-01,7.425928278253480785e-01,6.526365912597063834e-02,-2.391221369249508025e-02,1.159405744045385322e-01,3.298828601837158203e-01
4.682153625054760737e-01,8.161518358744557222e-01,8.004164872645689321e-01,-3.127100889031770442e-02,-4.256535779529385145e-03,9.137346792699880746e-03,3.450665771961212158e-01
6.429138956068366495e-01,7.561326550886811049e-01,7.310906626437968514e-01,-3.269935078569725234e-03,1.244771954962152309e-02,1.213060416482811092e-02,1.074650436639785767e-01
6.987300804776511720e-01,7.120145057628504137e-01,7.361171891397269018e-01,-1.945239087964784628e-03,2.880852283611661218e-03,8.382161330620091153e-03,3.639556840062141418e-02
7.928574730118170821e-01,6.317424780620863878e-01,7.597692991300939447e-01,3.611019901549736288e-02,-3.245036112565823777e-02,5.101938383368387342e-02,1.913157552480697632e-01
7.790991072679929186e-01,7.393884448374894447e-01,6.469974327920393620e-01,1.331914346484309140e-02,-3.020925776424016398e-02,4.559142440653716349e-02,1.526030004024505615e-01
5.797442547936292323e-01,7.930515103229623941e-01,7.592531816995387040e-01,-4.121187691270841030e-03,1.270086610227630190e-02,7.089983810424966941e-03,2.002962231636047363e-01
7.763010211618058820e-01,6.516203187585906109e-01,7.551901286565186888e-01,4.308897793736722603e-02,-3.036544930288721106e-02,7.283206341142017815e-02,1.939291507005691528e-01
7.531958588368841134e-01,7.200437401055266307e-01,6.967689951997150244e-01,1.256930621593372634e-02,-9.661808671333876539e-03,2.433749845330937869e-02,7.030888646841049194e-02
7.278074005746878461e-01,6.733708329653183000e-01,7.372595809055231264e-01,7.300252039519132541e-02,-3.949834379179852778e-02,7.727531986097256611e-02,2.053049355745315552e-01
7.365845917223272643e-01,6.775278020056587636e-01,7.360197611001068063e-01,-6.174368151138992337e-03,1.329562392295754840e-02,6.346501681585139942e-03,6.496299058198928833e-02
6.833769332245152039e-01,7.352414836070471083e-01,7.364183461722870749e-01,-5.593524123208680129e-03,4.343188622572941547e-03,1.271565812713835487e-02,5.820541456341743469e-02
7.457368036310444426e-01,7.249364893451634151e-01,6.670028098373609327e-01,-3.248490567832119924e-02,-3.395880549194200959e-02,-4.100331888058402624e-02,1.290861219167709351e-01
7.341536637326784298e-01,7.863568943148812052e-01,6.394934720709112286e-01,6.322016132779132054e-03,1.303624337195436605e-02,-4.082414629946249165e-03,1.315561830997467041e-01
7.677916463251585055e-01,6.873327007691290014e-01,6.805503104372102596e-01,3.374003183515785669e-04,3.460354881934430988e-03,-1.173668618274764132e-02,8.668828755617141724e-02
7.929253301644175744e-01,7.345697571581710772e-01,5.693853283549341615e-01,-1.269541178355441599e-02,-1.652412472887258149e-02,-7.515495553606726942e-02,2.420292645692825317e-01
6.534759376166221490e-01,7.335244852749218669e-01,7.559763088490503158e-01,-8.822941866674585340e-03,5.170081923735236722e-03,1.115875586526479668e-02,9.693485498428344727e-02
6.426340049476709781e-01,7.574911962631181161e-01,7.282799953360420409e-01,-3.817887736641554022e-03,1.332868085049028484e-02,1.164251715310060317e-02,1.080448403954505920e-01
7.697829118227441647e-01,7.048718329431004070e-01,6.745356194058865773e-01,1.466974764966297133e-03,3.912319891793795967e-03,-7.234451640086312328e-03,8.551185578107833862e-02
7.593971640439793891e-01,6.752633986155454071e-01,6.868741229863846165e-01,-9.053723719113811533e-03,-1.304661968097940022e-02,-2.719195761807868816e-02,9.597502648830413818e-02
7.688520993544749604e-01,6.957498488129761904e-01,7.255040907604155542e-01,-2.449119633501263202e-02,-2.114606117536772453e-02,-3.185430512904691841e-02,1.011887639760971069e-01
6.361024622039128662e-01,7.886509405296199260e-01,7.352016926226064841e-01,-5.842786819541784249e-03,1.168960493827047101e-02,8.667175141283059089e-03,1.367917209863662720e-01
8.276321023393075071e-01,6.798263648797475689e-01,7.375607398968389017e-01,-3.197693794558741781e-02,-2.874265747418831493e-02,-7.299503384835556719e-02,1.953897178173065186e-01
7.707435998185971915e-01,6.890010081465471892e-01,6.793371119129564262e-01,-6.060356770491846139e-04,3.408244183466565234e-03,-1.878950756657076296e-02,9.306063503026962280e-02
7.658628672273534166e-01,7.132464334763499725e-01,6.500507971745438374e-01,5.000565594488198470e-03,-8.302483190270002270e-03,-1.964260721645278568e-02,1.073620691895484924e-01
7.173508212205547130e-01,7.073447561788831495e-01,7.217407205487283983e-01,2.444718254967984464e-03,6.717639635879751707e-03,-2.774907781841076324e-03,1.843172498047351837e-02
6.441743444476899505e-01,7.559916843739800107e-01,7.321961722921969118e-01,4.521773625831065554e-03,1.137015590340826818e-02,-1.602262946455209822e-02,1.078329607844352722e-01
7.712604100228842574e-01,6.927790689561937887e-01,6.979070313202949682e-01,1.510535279658488882e-04,5.376360631465189333e-03,-1.673296254640672595e-02,8.191414922475814819e-02
7.144474461371055352e-01,7.212783606985800899e-01,7.902197382220561561e-01,5.863160187232914489e-02,3.123201368064471711e-02,-3.741702925039718658e-02,1.506981104612350464e-01
6.948516791476904153e-01,6.912512397436210154e-01,7.165312066402290681e-01,1.970414587087048960e-02,1.432019931062269123e-02,-1.758463834232940060e-02,5.717205628752708435e-02
4.810937051501330552e-01,8.651493337242806003e-01,8.121438084552180525e-01,-1.410633646047793283e-03,-3.206546189597694104e-03,2.039724843087454588e-03,3.605558872222900391e-01
5.578871411241415057e-01,8.140103351479072158e-01,8.136265072719974789e-01,1.484311113390316761e-03,1.380311161435096795e-03,-6.870118594797108846e-03,2.562320232391357422e-01
4.908088891867432024e-01,8.430548883086382839e-01,8.420648344602994495e-01,2.627419389550396389e-02,3.115201459807310710e-02,-4.225441480389937471e-02,3.661531507968902588e-01
5.788287487513639196e-01,8.092278696740106136e-01,8.158617912080536883e-01,-1.626778877523532910e-02,1.447685461286399907e-03,-6.146259361322702064e-03,2.357323765754699707e-01
5.661250488356881494e-01,8.223700533042879179e-01,8.099152227612176347e-01,7.726152198996021070e-03,1.596888029409169671e-02,-7.631010618087414720e-04,2.521328628063201904e-01
7.068823847715519637e-01,6.477378675607761149e-01,7.806136416017159796e-01,1.723458424425190413e-02,-3.554638676244072613e-03,2.829251589511112852e-04,1.192661374807357788e-01
6.827067550640201210e-01,7.326006875721234879e-01,7.350600902444800466e-01,4.990227560969008949e-03,5.459164852142359137e-03,-1.586766458257227869e-02,5.947794020175933838e-02
5.841060487813856117e-01,7.975833761686782486e-01,7.656370828919378813e-01,2.652171401033503757e-03,5.718270268204669882e-02,1.170638427370380985e-02,2.236406207084655762e-01
5.631594612154349200e-01,8.085427983499756666e-01,7.860430226457882918e-01,1.234565522790936898e-02,2.179097240464756766e-02,-5.634753194911232277e-03,2.391133308410644531e-01
5.821721987709047585e-01,8.094524411096465366e-01,8.103053642229410825e-01,5.895200866542956927e-03,1.686325909751889771e-02,-3.220963339259045634e-03,2.298681885004043579e-01
6.786733212873301557e-01,7.365920096523543847e-01,7.356616809740763596e-01,5.866284157890682555e-03,-5.290170961163980293e-03,1.219583063611800501e-02,6.272932887077331543e-02
5.523293255889799580e-01,8.013364902015105429e-01,7.918097951035216742e-01,3.547073045443689589e-03,1.774453938512571965e-03,-5.435403093685430183e-03,2.446608543395996094e-01
4.902480195136421082e-01,8.470711505809160879e-01,9.100995928715306382e-01,-3.711419623135075313e-02,-1.820267557950949397e-02,8.324358002605676543e-03,3.988980054855346680e-01
6.750603590914571184e-01,7.642554900331778311e-01,6.695142380852801001e-01,-6.303427202678474166e-03,-3.070850804322067598e-02,-8.558696529236169831e-03,1.079315021634101868e-01
6.863041449064618549e-01,7.839792041358625285e-01,7.149594220512239806e-01,1.815959740537692255e-02,-3.332496045242448052e-02,3.523952675845292825e-03,1.091827005147933960e-01
6.449595643746904861e-01,7.926404097584073272e-01,7.533022678797727245e-01,1.699468726797623980e-02,-4.690086366758727809e-02,-4.453185358067949552e-03,1.583434790372848511e-01
6.304589477337780856e-01,6.807512389051275647e-01,7.603424934022959825e-01,-5.924540841938676777e-02,-2.233330057062305959e-02,-1.976010969331485137e-02,1.614455878734588623e-01
7.193857091664739301e-01,7.026908756648485577e-01,7.252687856696899971e-01,-3.215038312440890358e-03,8.615176257711241667e-03,1.651676078070802786e-03,2.594999782741069794e-02
6.316623084064680871e-01,8.025652311667984540e-01,7.530907132173253471e-01,-4.422102430204221876e-03,-6.158089069054764608e-02,9.412774594277265039e-03,1.868188530206680298e-01
6.919547050942764788e-01,7.644982601633177888e-01,7.182130790526640718e-01,2.035464416032960883e-02,-2.544736144267117570e-02,2.094465193432349867e-02,9.246008843183517456e-02
6.508906458829548658e-01,8.844098117648767632e-01,6.254607272554317809e-01,5.113435087125107852e-03,-1.240117950186134521e-01,2.865538019830015520e-02,3.313530683517456055e-01
6.739606495080480153e-01,7.104810853989850239e-01,7.944572896159259878e-01,7.116022863139695454e-02,9.495323618743887681e-03,-2.885800332757041536e-02,1.715015023946762085e-01
7.049892787053043675e-01,7.124979520890322160e-01,6.845571645401439254e-01,2.830994855049427314e-02,3.986932207294106162e-02,-3.291119781963081081e-02,1.051178276538848877e-01
7.245997232561246504e-01,7.184044712217561024e-01,7.387347085900765054e-01,2.491071543021871129e-02,4.028235924320168471e-02,-3.896977036961988411e-02,1.077558100223541260e-01
7.446597227248196171e-01,8.031862730245867832e-01,6.389760394466434956e-01,2.949568296413556528e-02,3.735786724870353986e-02,-3.828254701758133927e-02,1.788104474544525146e-01
6.949310037087170766e-01,7.022210802120499862e-01,7.534568047313139338e-01,-3.485801618342470719e-03,-1.709415569714752958e-03,-1.896343993151513273e-03,5.574732273817062378e-02
7.479539243612987054e-01,7.101060320069761955e-01,6.902482303647294870e-01,4.978245790985985630e-02,6.468665499282116871e-02,-5.553683385446721993e-02,1.783798187971115112e-01
1.123055932443380867e+00,8.033166153078870053e-01,6.453486456578468866e-01,-1.171915217375244789e-01,-9.671506890515711719e-02,-4.135666352476485841e-01,8.718203306198120117e-01
7.478185095685796480e-01,6.904107405962486288e-01,7.521342837979880791e-01,9.951020381482526822e-02,1.257192829200510231e-01,-7.814598134478510649e-02,3.146510422229766846e-01
6.841879393936010079e-01,7.131703995000260310e-01,7.578689664600921638e-01,-5.592119720373022081e-03,2.550119497229431237e-03,1.096035128478205223e-02,6.787585467100143433e-02
7.912334167115380179e-01,8.140126382070175248e-01,5.650429811651197509e-01,-4.425679047479652226e-03,-8.944595236918047310e-03,7.741187136568840506e-03,2.393992543220520020e-01
6.461618449230857042e-01,7.677261602078763181e-01,7.339975872131115908e-01,-8.012177058241809480e-03,-1.131134927778336408e-02,-1.424235434217424427e-02,1.140187159180641174e-01
5.777009210851824506e-01,7.825792594917505562e-01,7.588334840489429078e-01,-5.812206448511538989e-03,1.297763296817811864e-02,3.389914105733979680e-03,1.957423686981201172e-01
8.174623620223565590e-01,8.019089456537061844e-01,5.072888724493435086e-01,7.069987518360644572e-04,-1.922085015999607654e-02,-2.912417177387477060e-02,3.086741268634796143e-01
7.862312638751546290e-01,7.929461716126829929e-01,5.703693309490021068e-01,-3.951952735240369351e-03,-1.984138952008279028e-02,-3.254834299417021411e-03,2.221500277519226074e-01
7.296154329199646682e-01,6.340793294085856902e-01,7.718390147615018515e-01,-1.362198287375139018e-02,-2.611692661120348230e-03,-1.582753864762888145e-03,1.246134340763092041e-01
7.933822468855175059e-01,8.044608730126162621e-01,5.746519496919453296e-01,3.415244140257301005e-04,-6.208806957762340664e-03,-2.360568265745256744e-02,2.284219563007354736e-01
8.108768063143119154e-01,8.131919612988695034e-01,5.636694858662809615e-01,1.122524648113363503e-03,-2.336003680268192162e-03,-1.694200506062848097e-02,2.501407265663146973e-01
7.041161777381251818e-01,7.276794153029620960e-01,6.663503370770292866e-01,-2.467943442573304613e-02,3.481361502810405989e-02,2.403456414280212908e-02,1.003371253609657288e-01
6.326318362103969806e-01,7.652723461046667675e-01,7.622684622480124794e-01,-7.551250698460305021e-03,1.003193803628357229e-02,1.074898826427232550e-02,1.342523694038391113e-01
1.152912810952384959e+00,4.502414710026029776e-01,1.038541929772667016e+00,-1.211259693310636210e-01,6.524244909137807795e-03,2.455659955235840464e-01,8.071634173393249512e-01
7.110394635364430949e-01,7.892516711627528547e-01,6.817685429157197552e-01,-8.615066931311464449e-02,1.404302642228059395e-01,5.200904776753959013e-02,3.143340349197387695e-01
6.606454375249096733e-01,7.804132722855853244e-01,7.530484720361119155e-01,-3.020419811436379776e-02,3.823054686450159945e-02,2.007578917753078881e-02,1.419382244348526001e-01
7.745679574107279253e-01,6.951990888315517925e-01,6.954698407180591735e-01,-1.347103257473413352e-03,8.837234519892759720e-04,-1.646399741508720177e-02,8.425543457269668579e-02
6.545374718724109586e-01,7.304745836177636287e-01,7.744058931367416854e-01,1.140148900622408625e-02,3.962844867554592490e-03,-6.830826207876748712e-03,1.077473759651184082e-01
6.323125570837712095e-01,8.097055897246768774e-01,7.506763048269621263e-01,-1.608396001743500614e-02,5.392061163000886476e-02,6.778745373298418302e-03,1.847094893455505371e-01
5.655014463706214967e-01,7.973925001372180743e-01,8.504134804807192971e-01,-6.087565848422710896e-02,3.697834806855847256e-02,1.836636329325216921e-02,2.917387187480926514e-01
5.965576159267949041e-01,7.946410878086080931e-01,7.639960086110221260e-01,2.929056345075280610e-03,1.353525532308426545e-02,-1.958984845496357374e-03,1.862599253654479980e-01
7.149725129778081723e-01,8.214759164696178173e-01,7.209089824454339990e-01,-2.127776884438900909e-02,7.807523803602887946e-02,2.713666672110756975e-02,1.805564165115356445e-01
5.570060011213644469e-01,7.960018783287416966e-01,7.940494558785313739e-01,7.540621507825881129e-03,7.264034958093633886e-03,-5.432247650733321767e-05,2.387155443429946899e-01
7.865075516827590985e-01,5.911677410564921686e-01,7.310408300806694459e-01,1.321772684770457784e-01,8.329085601554205021e-02,-1.085046986699175070e-01,3.727515935897827148e-01
6.266395252319008069e-01,7.609453133560315496e-01,6.911611709259614100e-01,-1.800703749859220923e-02,6.282606823494144010e-02,1.740835163304436592e-02,1.651021242141723633e-01
6.099098197552165201e-01,8.463734628487956657e-01,7.610413549302701419e-01,-4.725098023826027061e-02,8.039414862609864376e-02,5.494135373966409219e-02,2.795746028423309326e-01
7.153051553953435615e-01,7.143224445694038582e-01,6.735219767348310516e-01,-8.812735477149316599e-02,-1.016458671774613381e-01,-1.027473051921191927e-01,2.960940897464752197e-01
3.476203507214312149e-01,8.468469169411364517e-01,8.276477574627374434e-01,-8.485192704462436730e-02,-5.569834603403812923e-02,-2.019317257720212172e-02,5.216711759567260742e-01
7.373988116652835378e-01,7.029064137358943531e-01,7.098129766649542427e-01,2.809859711805707747e-03,4.613162247129016548e-03,-7.290100123891040534e-04,3.298979252576828003e-02
7.121734264847777718e-01,6.918758900658827926e-01,7.363764355237818471e-01,1.273767577345027990e-03,8.251823456144223232e-03,-3.371940369510145058e-03,4.162081703543663025e-02
6.758221057350737304e-01,7.074417949762720204e-01,7.657636730196389907e-01,6.068535605206032760e-03,1.128780118930113822e-03,-4.283260361704059604e-03,8.009187877178192139e-02
6.997386662242582878e-01,7.652911654548788523e-01,6.924611562292671829e-01,-9.498479309892926548e-02,-1.728727702560854951e-01,-7.315825712890577925e-02,3.709512948989868164e-01
5.849301994547458916e-01,7.485922578782799874e-01,6.552879506200528503e-01,-9.774206936163376547e-02,-1.410818395720975227e-01,-7.520925148096815893e-02,3.543482422828674316e-01
6.856904023780172608e-01,7.126787107868589599e-01,7.566537117500810039e-01,5.810905471925149023e-03,2.366137176394696520e-03,-7.805967892942360271e-03,6.441953033208847046e-02
6.777929911587152745e-01,7.361340351539880089e-01,6.856869231941540299e-01,-1.364772749142910239e-02,-3.464822625314351034e-02,-1.803738218359323200e-02,9.023177623748779297e-02
6.745602620040340724e-01,7.394346834295685289e-01,7.154910333096580199e-01,-1.665403712257199423e-02,-3.013525205359780107e-02,-1.893793531266409896e-02,8.866265416145324707e-02
7.370627799170652583e-01,7.014646522092016223e-01,7.093063172837675845e-01,3.469614293031463449e-03,6.039502887797671728e-03,-1.942099223113316966e-03,3.473364934325218201e-02
6.973782632097849099e-01,6.872025019098660925e-01,7.574956786888045190e-01,-7.260046675757089729e-02,-2.898858656686554430e-02,-4.761574716039037453e-02,1.716527491807937622e-01
7.117172414975450057e-01,7.169051174258480597e-01,7.264526475875308087e-01,1.269497432268812745e-02,8.336765407652128521e-03,-1.476156457358392647e-02,3.890120983123779297e-02
7.032661823399005696e-01,7.269094609228057280e-01,7.056055150637469131e-01,-9.214147654729198597e-03,-1.014244040990493895e-02,-7.173528595091367872e-03,3.502649068832397461e-02
7.011419761304518161e-01,7.725185455520594546e-01,6.782852664273102405e-01,-4.384344540379986332e-02,-7.475913719795584944e-02,-2.380307234762032986e-02,1.774310171604156494e-01
6.753947347195565776e-01,7.448289164653636441e-01,7.135318429466153134e-01,-2.246813983383721264e-02,-2.881994320428488132e-02,-2.178975656496555738e-02,9.517418593168258667e-02
7.131095612967284225e-01,8.020726619270260871e-01,7.195770718700379431e-01,-4.191500538170096074e-02,-7.867805627666465962e-02,-4.951842174666402224e-02,1.964139193296432495e-01
7.071571903086032451e-01,7.050926394154902743e-01,7.085441051781280475e-01,-1.012078796145199529e-02,-9.245078875129823098e-03,-1.031773019579926461e-02,2.986840158700942993e-02
6.835033709779489985e-01,7.184696594605478603e-01,7.199979218611761711e-01,-6.410022140746787951e-03,-1.447627368704377387e-02,-1.383633935093112229e-02,5.103626102209091187e-02
7.032252825278813013e-01,7.456185132875127186e-01,6.921078813765846327e-01,-2.277440836164941473e-02,-3.166790560192432602e-02,-1.965224876267167645e-02,9.008499979972839355e-02
8.523613833422880592e-01,9.005341300973581653e-01,5.423473335801246575e-01,-5.766092578452634843e-02,-1.375685597269840910e-01,-7.416461564402362927e-02,4.434122145175933838e-01
8.223910265067694292e-01,8.333417700916554427e-01,5.216355034765676191e-01,-2.607495664347020750e-02,-1.159352990625744373e-01,-1.922477941990937550e-02,3.705924451351165771e-01
6.542773731557151029e-01,8.618233529953363004e-01,3.791485649304470185e-01,-3.039986869535269906e-02,-2.642091338852931570e-01,-4.967378271334069173e-02,6.288619637489318848e-01
8.962902925201305937e-01,9.000954029108214627e-01,1.624404717094532491e-01,2.075511869142760563e-02,-8.335615517484860904e-02,1.311392931160998247e-02,7.509962916374206543e-01
7.731067019287167774e-01,8.625384392405464062e-01,5.031682046759303750e-01,-2.339068933656742941e-02,-1.002430250029897607e-01,3.497897757836850030e-02,3.747850656509399414e-01
8.590202888232276734e-01,9.024293590580156899e-01,5.220278063666726753e-01,1.243359027823881524e-02,-5.932244621617636243e-02,1.906442814921426726e-02,3.770787715911865234e-01
7.200133058602495861e-01,6.438323414838204028e-01,7.846258491902881049e-01,-5.933187004719290419e-02,3.780634269557759525e-02,1.753968335918739199e-02,1.751349717378616333e-01
7.320969590006501937e-01,6.329033746246177650e-01,7.934897368374306259e-01,-1.473518976999029506e-01,2.724108600937744790e-02,7.469912253189744944e-02,3.221832811832427979e-01
6.931903291801686517e-01,5.281592210044514513e-01,7.631442522303770737e-01,-1.158303593377098678e-01,4.094543963575737744e-02,4.598026356226623396e-02,3.086997568607330322e-01
5.213590910447627458e-01,8.146875809098357291e-01,8.281741542001873624e-01,8.078748637314685579e-03,4.611002035206847316e-02,4.151634016239909991e-03,3.111356496810913086e-01
2.980727752174707756e-01,9.555251441348684427e-01,1.021170877615511952e+00,-4.005352267464686034e-02,1.882832450913995703e-01,-4.939643897198139899e-02,7.734316587448120117e-01
6.318211316610607975e-01,7.322186888432661300e-01,7.727525809099765608e-01,-1.384223654943472423e-02,5.598870548529607708e-05,-6.315613748201414322e-03,1.284004002809524536e-01
2.856304730668282055e-01,1.115668173090915261e+00,8.544814178560490303e-01,1.257184409539134108e-02,2.202473849881995960e-01,4.838379165876546123e-02,8.327125310897827148e-01
2.139373851462907927e-01,8.573152547658100531e-01,7.469345950304955295e-01,-1.406735217264509230e-01,2.061353297709405674e-01,4.932192081485580609e-02,7.411092519760131836e-01
4.212564230369806872e-01,8.765347867588981767e-01,7.174504224603042157e-01,-1.524281173791367482e-02,2.817683081178028459e-01,5.132652819102075797e-02,6.379176974296569824e-01
6.392852879178209102e-01,7.301781762299052181e-01,7.723006190864243337e-01,-1.264977115411751105e-02,4.564100868254375269e-03,1.615597066679072503e-03,1.200617402791976929e-01
6.758652278692965920e-01,7.098837944181253246e-01,7.670961972835379505e-01,-7.476475405282182601e-03,-1.699653553968317587e-03,-4.504513322829126198e-03,8.132673054933547974e-02
6.167643738564344558e-01,8.882924284079309896e-01,7.605170528440465816e-01,-5.000957908464214764e-03,1.779885671046782247e-01,1.190219794905783036e-02,3.884575068950653076e-01
6.424056881513038331e-01,6.977429354829525199e-01,8.044204269485208947e-01,-8.175142532827070485e-02,1.302056001707884705e-03,-2.688745245528750480e-02,2.063233256340026855e-01
5.532398752881765303e-01,9.142693422798504610e-01,8.706093527127077847e-01,-9.211468542946533999e-02,3.111480467807776207e-01,6.537710594437208533e-02,6.672354340553283691e-01
5.044059160805338671e-01,8.740019266428344924e-01,7.304086362029293955e-01,-1.207597993205693221e-01,2.428211471432613899e-01,2.691660994860391523e-02,5.718018412590026855e-01
6.834499548585444284e-01,7.094370323598382377e-01,7.564550324638374956e-01,-5.637014867975690541e-03,-1.431276889990268104e-03,-9.776064573863126397e-03,6.705272942781448364e-02
6.059607293961689622e-01,7.648605785563342696e-01,7.823910302909433678e-01,-1.282453480160551836e-02,4.425268960339800300e-03,1.707253752976481452e-03,1.700087189674377441e-01
1.017619543829309858e+00,6.256309440499494556e-01,7.064516237021369882e-01,-1.996742236632091660e-01,6.971797705869342554e-02,3.085616116074508808e-01,7.404918670654296875e-01
8.821642156407842883e-01,4.673001282707275883e-01,6.656894688209588073e-01,-9.558272090972848301e-02,1.105632219676855321e-01,2.663242638694777176e-01,6.372069120407104492e-01
7.335169853531121609e-01,6.764084190672279284e-01,7.329933321219097575e-01,-6.310633357412481076e-03,1.530107045118850144e-02,6.480251474227117885e-03,6.464966386556625366e-02
9.889091825346387754e-01,4.475922823638033843e-01,1.141968127096760988e+00,-2.966625795409124633e-01,1.893506623258343902e-02,-6.219225745895666513e-02,8.221980929374694824e-01
7.956600725240591254e-01,5.969496673440510826e-01,8.013773919899156439e-01,-8.447123564813759089e-02,6.530506964443897298e-03,1.252408795147207619e-02,2.503183484077453613e-01
6.494766925515995659e-01,7.522079275102986351e-01,7.444927977732884727e-01,-3.861228985088957510e-02,-4.325089803452713405e-02,-3.053960991205657491e-02,1.506761312484741211e-01
7.787132526443383274e-01,5.615365892710963980e-01,8.288697890717614536e-01,-1.896063082019009693e-01,1.910946859109115270e-02,8.601474420584422076e-02,4.378549754619598389e-01
8.700692081710297288e-01,5.874268916425340326e-01,7.183805763732002969e-01,-7.908711039435362133e-02,9.783684803091584337e-02,1.410377930869978480e-01,4.088739752769470215e-01
8.460434108590664248e-01,5.714685233855711921e-01,7.599365955170054310e-01,-1.505464236154881348e-02,1.511656611456595710e-02,8.149656686007346329e-02,2.836432754993438721e-01
1.119249525139331736e+00,3.928317664699561562e-01,8.211334886352610329e-01,-1.282280828154395425e-01,1.333119663725808833e-02,2.579060472008671834e-01,8.058574199676513672e-01
5.438115865539340232e-01,7.975605229943963925e-01,6.823382616945327106e-01,6.896022250447257466e-03,1.161266052773426982e-01,-8.786376090590432980e-03,2.987600862979888916e-01
6.992551998858442808e-01,7.917804579737987014e-01,6.346746438015807845e-01,1.402159127258017536e-02,6.717536773429137742e-02,-5.408970612619389169e-04,1.812048256397247314e-01
5.380571821907336183e-01,7.935885645354326945e-01,7.883003402610341270e-01,-2.392710595621863612e-03,8.156438757306417459e-03,3.910607436632192180e-03,2.534473836421966553e-01
6.363827278843769975e-01,7.887382435569176842e-01,6.920742949626546014e-01,-4.040677345184835907e-03,6.959803056773891661e-02,-1.462918278717198484e-02,1.818007528781890869e-01
6.985808951674344902e-01,7.647079566883735469e-01,6.867461415069309183e-01,-1.783900158268678093e-02,2.549159193524639516e-02,1.596524976036773485e-02,9.467981755733489990e-02
2.956653015473983959e-01,7.646923273186417847e-01,1.065505491041614849e+00,3.660650574418728986e-01,-5.920914162543903375e-02,-9.230699052321092446e-02,9.432148337364196777e-01
7.386742057328121724e-01,7.729682685730150382e-01,6.128630323505714905e-01,1.490145871099320812e-02,-2.869571401776649378e-02,1.723691915982233924e-02,1.592072099447250366e-01
7.153779026216808834e-01,7.435685363662685177e-01,7.271341944031077809e-01,-3.043645014359970188e-02,3.430962431771581583e-02,2.188578818914149043e-02,9.137314558029174805e-02
5.646122926055853197e-01,7.917575160318647276e-01,7.991520120660484672e-01,8.125904113868450893e-03,-5.185355394218105207e-03,3.467596912138959288e-03,2.316119223833084106e-01
6.483633722707166092e-01,8.397244246484707464e-01,6.780335241267353430e-01,2.308772773747717541e-02,1.512357268610884375e-01,2.259142600207622587e-02,3.218208253383636475e-01
6.615803478724454623e-01,7.595766361849232151e-01,6.709239078204115581e-01,6.713622146844937938e-03,3.730620422023490923e-02,-3.669206475743776782e-03,1.145679131150245667e-01
6.151945394537184919e-01,7.679931151378623921e-01,7.635532265291298248e-01,1.097585274455482353e-02,-9.585579087302006224e-03,1.207788384881796316e-02,1.541537940502166748e-01
6.506335377323383407e-01,7.619655556824949105e-01,6.584823167894836571e-01,-1.147445008212453349e-02,4.724506447419912075e-02,8.391299506231271813e-03,1.374231427907943726e-01
6.422253848416975552e-01,7.663141764736276507e-01,7.202514049108271754e-01,-7.677488151313711928e-02,9.027725251884045898e-02,4.645445740307999755e-02,2.457866519689559937e-01
7.363062955476178395e-01,8.189096535047669656e-01,6.303260351069128742e-01,-1.045878380128965543e-02,6.231471955060959717e-02,8.542365936283827926e-03,1.974991261959075928e-01
6.251478819897500205e-01,7.285397226682963634e-01,7.713088964328416175e-01,1.163425168823658054e-02,3.406640601079089013e-04,2.352571143623220437e-03,1.317728310823440552e-01
6.930111027714250804e-01,6.930868507518060939e-01,7.615463144553442643e-01,1.520218951862271385e-02,4.911336308339808200e-03,-4.036788322560786596e-03,7.420552521944046021e-02
8.704260216660912874e-01,8.801135698377406946e-01,8.829119656773207758e-01,2.690438912130222460e-01,2.454872606791893841e-01,-2.390564964043608576e-01,7.546645998954772949e-01
6.897995920019501792e-01,6.940437621412836044e-01,7.518103394314233912e-01,8.508485054712437148e-04,-2.324160493863721647e-03,1.480074053075920455e-03,6.020889058709144592e-02
6.970917923433151975e-01,6.840923123003441741e-01,6.750203321337808759e-01,4.928515733640657231e-02,5.039150879314276132e-02,-5.679665461345169419e-02,1.579613536596298218e-01
7.905492387061021642e-01,7.351231605051929963e-01,6.571218784154623238e-01,6.800840893210304168e-03,1.716531775411031264e-03,-9.075650721561693418e-03,1.177890151739120483e-01
7.047498311114341885e-01,8.109564746245467859e-01,6.719028585677031540e-01,-1.168744674030151696e-04,9.481814099625367198e-02,7.075670894917372028e-03,2.072896957397460938e-01
6.962848582575595913e-01,6.937121759277626865e-01,7.544588152823622496e-01,3.529079912128089275e-03,-3.053422260625951890e-03,2.420170615329137603e-03,6.019465252757072449e-02
6.884615778243168283e-01,6.926376654517880649e-01,7.621111651750251959e-01,1.985044355390978409e-03,-1.867767607056959166e-03,-4.229787684609616003e-04,7.181195914745330811e-02
7.695268126851546597e-01,7.145803479029377847e-01,6.755319630664472497e-01,1.159672157428900952e-02,4.705588659919383160e-03,-2.918315497900685063e-02,9.856119751930236816e-02
7.629640653513533044e-01,6.899229627289433786e-01,6.803538434214415620e-01,2.356066593483125034e-03,-5.668762449001579990e-04,-8.168173666150187889e-03,7.964473962783813477e-02
6.545351161949072294e-01,7.660914509598518718e-01,6.851893592624458407e-01,2.761913516706492391e-02,9.089515689977713253e-02,-2.012664191446636788e-02,1.955870836973190308e-01
7.123676763800225187e-01,7.565608379694716001e-01,6.779164850412209287e-01,1.146372668261954296e-02,7.658204925394374897e-03,-3.545859589713184264e-03,7.259712368249893188e-02
6.084190081070390832e-01,7.275274892935259530e-01,7.629953472807822212e-01,-2.946091704863932487e-02,-1.465043863740846455e-02,-1.492166098813641449e-02,1.535741984844207764e-01
7.446133218385561081e-01,6.968913412026146448e-01,6.338817423239290205e-01,2.420064202481751747e-02,3.629513982924821580e-02,-5.964334307624134801e-02,1.601110547780990601e-01
6.647727669574672316e-01,7.712852636196743106e-01,7.117244118781103079e-01,4.691157466930887671e-02,4.054289679182904865e-02,-4.039310084503528603e-02,1.580395698547363281e-01
6.803988057553931323e-01,7.046183227126737725e-01,7.535008235476553518e-01,4.589898162898714724e-03,-4.186904700553828462e-03,7.725471671164092433e-03,6.674455106258392334e-02
6.637544000064038441e-01,7.625611337393422007e-01,7.545815975106349160e-01,2.996684836693961143e-02,-4.926578204707260378e-02,3.870111275859021427e-02,1.533190459012985229e-01
7.236078000382681896e-01,6.952534654844625406e-01,7.091337586122400394e-01,1.463527758046668376e-02,1.387449924727936212e-02,-1.497970326590374220e-02,4.996316879987716675e-02
8.476181492365446601e-01,6.715142483341576263e-01,7.192439175478082536e-01,3.991635241512624110e-02,3.425606603200964662e-02,-1.057700060589815694e-01,2.583555281162261963e-01
7.161725661007593002e-01,7.214634321543766937e-01,7.040151771792501068e-01,7.221331080278013508e-03,-1.444012404103384379e-03,3.246883367780395001e-03,2.084331214427947998e-02
6.810169744302200234e-01,7.290512286599272196e-01,8.532193394453729818e-01,1.475335679896374597e-01,6.194398808814113866e-02,-6.933382209135711960e-02,3.389992713928222656e-01
7.080010121500197595e-01,7.454740897515242937e-01,7.249195496253814097e-01,1.469262399167447879e-02,2.382893383110805743e-02,-1.946838604911071968e-02,6.741370260715484619e-02
6.893841026201464883e-01,6.941748555316403779e-01,7.667560097077416037e-01,-3.163036938664959274e-03,-8.623488813011792554e-04,-3.752186489057389007e-04,7.530844211578369141e-02
7.161474099970295271e-01,6.806010979700797270e-01,7.701871704300515820e-01,3.236758581719941658e-02,1.064770567572008442e-02,-1.437588441182444110e-02,1.010339111089706421e-01
7.164844073578029437e-01,7.421061043692532833e-01,7.648817984532146896e-01,5.661034547383776011e-02,4.851952880614263108e-02,-4.550681739607575355e-02,1.569968014955520630e-01
6.541315382352603791e-01,7.116931034458782168e-01,6.987838376862197665e-01,4.014029114322235220e-02,4.284434874927121883e-02,-3.288960868181674962e-02,1.277604252099990845e-01
8.748706557238072890e-01,6.661584697930853505e-01,8.132971350652080655e-01,-7.244564023837142541e-02,-5.281634534996276775e-02,-1.501064906915274277e-01,3.552613258361816406e-01
8.425015857097889471e-01,7.322854134177734231e-01,6.731623472930763352e-01,-8.067829230849056510e-02,-1.040652418124541068e-01,-1.879972450063128742e-01,4.245044589042663574e-01
7.612327236918403628e-01,7.092105771687178262e-01,6.302855493810960441e-01,-6.322713157613886470e-02,-6.745477565298711731e-02,-1.086800355665681755e-01,2.722477018833160400e-01
7.542335453022362968e-01,7.074747441305000439e-01,6.638078534477558357e-01,-1.046411752276863588e-02,-3.777606741339126131e-03,-5.269999904575409407e-03,8.117645978927612305e-02
7.479163272294280240e-01,7.109051593620218101e-01,6.805003184017810458e-01,-3.008964666009872335e-02,-2.314891086430520203e-02,-3.650686763122935191e-02,1.083588078618049622e-01
6.530117021279120415e-01,7.003072894593010966e-01,7.313045508095949998e-01,-3.969378642625216724e-02,-2.741670397269192413e-02,-2.864349092440122285e-02,1.187724843621253967e-01
7.727904982728396321e-01,7.512170788700355262e-01,6.282573519754716118e-01,-5.298963133382367241e-02,-4.988832431222648550e-02,-8.410078732287018521e-02,2.352578043937683105e-01
7.792234463394409616e-01,7.636513511689871914e-01,5.790681214786812525e-01,-4.684674457756933487e-04,1.035973088612010887e-02,-9.607200473156878029e-03,1.943896412849426270e-01
6.775422434003944838e-01,7.333554472199262930e-01,7.348587798580664687e-01,-7.036131175801259990e-03,-7.092822236905788752e-03,-1.423615266278409341e-02,6.409937143325805664e-02
7.114164571312235896e-01,7.151043618245666034e-01,7.249231389453707486e-01,-1.654097110867677441e-03,-1.729356249374632308e-03,-9.312400333666890316e-04,1.288415677845478058e-02
7.676597285975589324e-01,6.834914541326245763e-01,6.961031473486313237e-01,5.267850560417315989e-03,-2.121847431952994696e-03,-1.439554210377304126e-02,8.306805044412612915e-02
7.038520628097099108e-01,7.354758961873231193e-01,7.012034686398245231e-01,-2.458177565239216301e-03,-2.781459912986276872e-03,-5.367329781738428875e-03,3.490849211812019348e-02
6.084709492790887353e-01,7.358262530560986114e-01,8.039784474305299300e-01,-2.941766444085883170e-02,-1.662581451294671987e-03,-1.164090416240255547e-02,1.804291009902954102e-01
8.097396010866806382e-01,6.385175173533669257e-01,7.744945167198092895e-01,-5.527245991821620741e-02,-2.350391238326241319e-02,-1.646794346730735825e-01,3.416209518909454346e-01
7.567852950519540212e-01,6.321924085811294614e-01,7.533534241323429637e-01,-5.019727326532333334e-02,-4.307007229173605289e-02,-8.006905350240596519e-02,2.178649306297302246e-01
6.650478155310927120e-01,6.898673708992290043e-01,7.202633466730735678e-01,-1.139344577277118381e-01,9.216318573131276892e-02,7.681862863076945047e-02,2.905563414096832275e-01
8.062071807942052803e-01,4.600686333601957112e-01,8.018298287236531596e-01,1.226983359339766690e-02,-1.476854342468386866e-03,1.348874980253834087e-02,3.454271554946899414e-01
7.244886069125050509e-01,8.533024119896132076e-01,5.773349924425112967e-01,-9.057315672648309779e-02,1.780062091646638645e-01,7.491117195523046279e-02,4.401213228702545166e-01
7.923642893264830622e-01,7.902909243106345238e-01,6.051101289645295367e-01,-1.655230012453023231e-02,8.172653035217419815e-02,1.219291747136214688e-01,3.164489865303039551e-01
7.887712154868671277e-01,7.701256225835149127e-01,6.427100083004658737e-01,-2.821308335103862863e-02,4.260189268689229536e-02,5.519611529189545618e-02,1.895538717508316040e-01
6.015028520039669147e-01,6.917680902348137817e-01,7.102015810467757762e-01,-1.090973248697384018e-01,1.000375007423010415e-01,7.437916593553067779e-02,3.041010797023773193e-01
7.952949708864709422e-01,6.614703679390070423e-01,7.710374752501444329e-01,3.116320651164455544e-02,-2.880447343342171923e-02,5.211466915156394430e-02,1.697101891040802002e-01
7.591632203596279105e-01,6.075761689190495307e-01,7.468540134928534080e-01,2.070391191258856220e-02,-2.782916119381418502e-02,2.560005213388674011e-02,1.638281494379043579e-01
7.839920912051342450e-01,6.186626927996701220e-01,7.893144624837379331e-01,1.799636190541474556e-02,-6.064366964161258498e-03,2.348893915373893512e-02,1.760091185569763184e-01
7.675878043674986273e-01,5.333212635312304384e-01,7.834446471622240615e-01,4.209397284088811642e-02,-5.317225776458725517e-03,1.815524535807718290e-02,2.554140686988830566e-01
7.461783621840831771e-01,6.204870981527064178e-01,7.812132865258579750e-01,2.495041826804721835e-02,-1.228778855724418570e-02,1.681629414860304553e-02,1.568382233381271362e-01
7.518215758117319236e-01,6.186682472878460848e-01,7.941498837834446434e-01,4.951505129727473004e-02,-1.819979484667234079e-03,3.026149314321850345e-02,1.878032982349395752e-01
7.724853617130950090e-01,7.316428177305768221e-01,6.396834964854015704e-01,3.648586680644973646e-03,-1.731382055473242162e-03,1.225719137249171170e-02,1.199171766638755798e-01
7.631441304651137569e-01,6.048533725582988518e-01,7.925911412984507631e-01,-1.333609720869236188e-02,-5.361410471401324707e-03,-4.512484125424987870e-03,1.768195629119873047e-01
5.443377123504098414e-01,7.578475514451593620e-01,7.840584830945406258e-01,2.898488483322578940e-02,1.755353035291914434e-03,-6.054894114000832980e-03,2.334723919630050659e-01
6.250685907573684252e-01,7.616975455144139318e-01,7.624754705932071941e-01,-9.566633596815657392e-03,7.958247773167517747e-03,1.339591409536626879e-02,1.406317055225372314e-01
7.847939797118724803e-01,7.349519401981213784e-01,6.491762468260025010e-01,6.274093969252456625e-03,-6.397733006106365479e-03,1.427453921091940622e-02,1.223483011126518250e-01
5.961010325556601597e-01,7.811578615852978746e-01,7.656842764230430420e-01,3.238556221699414109e-03,-1.208484249920119269e-02,1.761037646672590062e-03,1.791671514511108398e-01
7.874485189839590671e-01,6.812268175604300202e-01,6.524978902615301557e-01,-1.722481843657151443e-02,2.944017115553659511e-02,6.282799298640463770e-02,1.746206134557723999e-01
7.597339709904679106e-01,6.732346217990186066e-01,6.848827344647945292e-01,-8.665490319443105299e-03,1.222972147425981961e-02,2.744815954877418557e-02,9.769563376903533936e-02
6.613803124030732672e-01,7.594660228746829000e-01,7.346599636097934649e-01,-5.397343152150631262e-03,7.972112913287598274e-03,1.350874564292514103e-02,9.288995712995529175e-02
8.783180929855313179e-01,1.128294513802227561e+00,6.762674935610200055e-01,1.509500361360244791e-01,3.562228239956445885e-01,-2.079528036584867012e-01,8.559179306030273438e-01
7.880817672143392016e-01,6.858111243270804680e-01,7.136949765730192796e-01,1.638065262997197551e-03,-1.812434455416908532e-03,3.426591509828307708e-02,1.092037409543991089e-01
8.179132234389808742e-01,6.879093568931748948e-01,6.254230342895304995e-01,1.335413214279886421e-02,-1.829837530388254974e-02,6.040878330964796761e-02,2.035096138715744019e-01
5.848988746033975117e-01,7.654059640810645382e-01,7.735845614662705261e-01,-8.786064642087310084e-03,-1.488420036152413028e-02,-9.818644968030858233e-03,1.879133135080337524e-01
7.930455666959148608e-01,6.909609818530992875e-01,7.093399214758535631e-01,-3.760565792003645394e-03,3.307197779461112409e-03,8.251343666616185735e-02,1.714161038398742676e-01
8.083680599525078225e-01,6.131031364302346187e-01,6.299893061441895759e-01,1.050106211553435490e-02,-1.019089956579017839e-02,1.396168552396244156e-01,3.069808483123779297e-01
7.803258929304861535e-01,5.650311968670366225e-01,7.601243605712687534e-01,3.100053128667440601e-03,-8.378424387031860321e-03,1.384508559950163586e-02,2.079064995050430298e-01
7.905321703620238338e-01,7.513990715606670978e-01,6.643340512765488759e-01,1.191222894054362949e-02,-1.063192660228207305e-02,5.739314483686771412e-02,1.522024273872375488e-01
7.060510480990710436e-01,6.804564560349821711e-01,7.539640278304694521e-01,6.051789364006213319e-03,7.246592609747117865e-03,-3.501990168699289311e-03,6.694216281175613403e-02
5.414430288819929160e-01,7.848955030402434696e-01,7.720533511604104060e-01,-3.061336515594101360e-02,-4.606969151262840789e-02,-1.015046387062602286e-02,2.565062344074249268e-01
7.400483582373569291e-01,5.011141793683940859e-01,7.799090817697359457e-01,1.118025215076308976e-01,-5.575869866242407456e-03,6.515743670645232632e-02,3.442842662334442139e-01
7.152143647975873764e-01,6.885153857665130550e-01,7.567802316175356037e-01,4.900390670315920086e-03,-7.215407785206313235e-03,2.993002410705043140e-03,6.168812513351440430e-02
7.464332157430404457e-01,5.925117959666305056e-01,7.365833592933371810e-01,6.912104671479261941e-02,-4.799087549125336666e-02,8.098334739333618026e-02,2.513765096664428711e-01
7.012482966978170751e-01,7.071037111324612878e-01,6.735765198163968792e-01,3.258868529156400129e-02,-3.313906206074231781e-02,3.355669373837918273e-02,1.040233522653579712e-01
7.637400398599916151e-01,6.285934321964337101e-01,6.744309130341682446e-01,6.271767207326162108e-02,-5.768617016740411330e-02,1.136401019844828358e-01,2.733069956302642822e-01
5.039562406571591602e-01,1.064244512896066919e+00,6.236398293775340385e-01,8.548772676674708249e-02,-2.656191127242514272e-01,1.490451925782158016e-01,7.492784261703491211e-01
8.040358864310637177e-01,6.544783508796389038e-01,8.340847925785975780e-01,1.275955380956065865e-01,-5.482115122022609283e-02,9.384691116305206304e-02,3.347298800945281982e-01
7.082962188094762412e-01,6.608742689921596192e-01,7.348587028671773602e-01,4.000803105428572121e-02,-2.931222721028325928e-02,3.472072829977800729e-02,1.233295872807502747e-01
7.699177692828194086e-01,6.426264635037006734e-01,7.510970189306496181e-01,2.127266368015515857e-02,-1.714117816893009905e-02,5.719499607268146990e-02,1.619086861610412598e-01
7.513006763584784142e-01,6.895705170208317192e-01,7.212400779653042049e-01,1.347139921794614399e-02,-1.528007863030393307e-02,2.800892048425215192e-02,8.035536110401153564e-02
7.720178921052579524e-01,6.818286967991444847e-01,6.742565749124301844e-01,9.499676053250182342e-03,-8.015379277527406865e-03,2.578718362502407588e-02,1.064554303884506226e-01
6.995049663691854658e-01,7.923244374950157987e-01,7.093068989311890338e-01,2.173736777472248805e-02,-6.902371502082711718e-02,-1.495486528887513076e-03,1.533583700656890869e-01
4.383525885969349334e-01,1.040208127508655878e+00,1.102710304639991534e+00,2.478030220811811846e-01,1.333300990139055231e-01,-4.945018985055545102e-02,8.053816556930541992e-01
7.101671768960149400e-01,6.833201714063312782e-01,7.328647335088398496e-01,5.149886983385854738e-03,-1.249108509711747278e-02,3.416381279158848833e-03,4.927436262369155884e-02
7.073815546983203140e-01,7.762530041308968176e-01,6.962821041245315090e-01,9.836237678737714749e-03,-2.839683785956782086e-02,1.389038060943905903e-02,9.444116801023483276e-02
6.290117529019025877e-01,7.574424211246206795e-01,6.882543544004603442e-01,2.350931931945864778e-02,-5.566524851066685653e-02,1.845923683678566546e-02,1.561144143342971802e-01
6.881030972277775160e-01,7.586540386974804928e-01,6.392955690262405177e-01,1.448737814497483463e-02,-4.825601880065958499e-02,3.108602920872190201e-02,1.460056006908416748e-01
6.942572855168656076e-01,6.963657293683617189e-01,7.695165876403635696e-01,-1.567235233078899392e-02,-1.235231281494680693e-03,1.754061162055899417e-03,7.912271469831466675e-02
5.822788392566684568e-01,7.583495376690609913e-01,7.537559589895803658e-01,8.102196009138881716e-02,-8.891341437070600373e-02,3.592347272552815635e-02,2.783794999122619629e-01
6.987868500968885677e-01,7.600203120464135154e-01,6.683078820415443433e-01,2.238026634014679550e-02,-4.638958477164988048e-02,3.229194855667986974e-02,1.327846199274063110e-01
7.161263164587280405e-01,7.476919206475651780e-01,6.937004177083656575e-01,1.669277791828995688e-02,-2.685293018350496871e-02,1.483185686768575574e-02,7.659199088811874390e-02
9.832612912232342461e-01,4.314637996707448853e-01,1.188926423834160584e+00,-3.173457941024795392e-01,3.610909040002058257e-02,1.623281818358885201e-02,8.758375048637390137e-01
6.800956231233652449e-01,7.450134770646604787e-01,7.175559479155346754e-01,2.296042084461371452e-02,-2.901060983153096184e-02,2.362708563459005665e-02,9.469354152679443359e-02
6.968699916839682373e-01,7.374701770554386027e-01,7.034718691231899301e-01,4.048605396428626296e-03,-4.539727997838367834e-03,8.486682917468015355e-03,4.184488952159881592e-02
6.863787359861105442e-01,7.257041086962470189e-01,7.427738171906185238e-01,2.903984500932511176e-02,-2.357640814839670126e-02,2.270745423199188942e-02,9.084875881671905518e-02
6.727395924230764601e-01,7.088126585972470695e-01,7.667557461666812957e-01,6.497639549332883367e-03,-1.123365364082187009e-03,4.075177334348284441e-03,8.324132114648818970e-02
7.185141036225443090e-01,7.166400802370476164e-01,6.758239170505825344e-01,2.674816905280046758e-02,-2.538497100521872399e-02,3.068320140660753259e-02,9.300495684146881104e-02
7.097201673754255369e-01,6.745963546669236921e-01,7.754501249247608419e-01,-6.197383001584907437e-03,-4.995156598392271226e-03,-3.623880238142649594e-03,8.995705097913742065e-02
7.023325764552209582e-01,6.981742356067177635e-01,7.502413792907859369e-01,1.534587975518233310e-02,-7.735580474958978110e-03,6.740291800228261077e-03,5.944801494479179382e-02
7.076010090703001021e-01,7.201016253463545791e-01,7.160644788609623612e-01,1.399325694078121067e-02,-8.851571157780874222e-03,1.698237479749706638e-02,4.254156723618507385e-02
6.452469164304545091e-01,7.669129636233338321e-01,7.692765499196974055e-01,-8.647527502972575386e-03,-1.080251335244010805e-02,-8.913591335166233531e-03,1.261291354894638062e-01
7.062152065888817054e-01,6.723112060293421344e-01,7.663181692352419860e-01,-6.531162470205603698e-03,-8.660028142284902346e-04,-1.897369024070393994e-03,8.331023901700973511e-02
7.113492162934383911e-01,7.245576926690737718e-01,7.278804270435265122e-01,1.512927814138764065e-02,-1.161841689200382270e-02,1.333464082103726078e-02,4.306365922093391418e-02
7.892308350985811627e-01,6.451442919587403457e-01,7.304959381219042758e-01,-2.364354112294887299e-03,3.662270170938436171e-03,-1.297520346582064880e-02,1.277101635932922363e-01
7.968082185299015796e-01,7.766206531993534723e-01,4.726510991785840554e-01,-7.157867583853626953e-03,-2.040937501303264137e-02,-5.464608209901655744e-02,3.306105732917785645e-01
7.007753124711852966e-01,6.719442589582166336e-01,7.325782729173710983e-01,-3.304536179090930559e-02,-3.249331256338242740e-02,-3.347894649900685915e-02,1.120960488915443420e-01
6.437498829260782651e-01,7.639667320390048921e-01,7.644562790619905401e-01,-9.199809866013319848e-03,-1.198877283900052701e-02,-1.147403462505273281e-02,1.248649060726165771e-01
7.269350777354228743e-01,6.980014882138889654e-01,7.374915047104574350e-01,1.855913378888919205e-02,-1.452151358097413837e-02,1.219825970899280146e-02,5.802039429545402527e-02
6.677644098635867609e-01,7.075151912251409492e-01,7.395454767599628498e-01,-1.172219460627576919e-02,5.978342206825319229e-03,1.193789610670977289e-02,6.947146356105804443e-02
7.083364169642109021e-01,7.231413511106455916e-01,7.237223658297416984e-01,-7.609766753791096395e-04,-2.079757039221136975e-03,-5.341043976963571853e-03,1.812233962118625641e-02
7.597095749964671851e-01,6.428787728835252402e-01,7.735134791169934187e-01,-1.061622636234714617e-01,7.553951097801445136e-02,6.016980047448992203e-02,2.779277861118316650e-01
7.000868210401846037e-01,6.776106432081460129e-01,7.548731191733304424e-01,-3.971339636390161520e-02,3.064336287272680093e-02,2.887676724086682065e-02,1.216068044304847717e-01
7.623833285534680204e-01,6.703826316362615501e-01,7.595038768211320734e-01,-4.537000764874967590e-02,3.305450317753767797e-02,5.777682715761301574e-02,1.663583666086196899e-01
7.240231042773348502e-01,6.928468178183859738e-01,7.169254899531962710e-01,-3.773287840869233439e-02,2.584135422769854099e-02,3.672182744195760795e-02,1.054569780826568604e-01
8.082184862146245541e-01,7.393239131279433218e-01,6.592503576185095859e-01,-1.685646980496782743e-02,1.324060687108203835e-02,7.664527868325494986e-02,1.888828426599502563e-01
7.094498684862415860e-01,7.375353183691405468e-01,7.101489516773767940e-01,4.446605995999024750e-03,-3.798070582129664984e-06,-3.680889506548059263e-03,2.948916703462600708e-02
7.044593626519423113e-01,6.922271564923665466e-01,7.311411230176116938e-01,1.564170815827914396e-02,-9.681009780531674852e-03,1.311638533219139542e-02,5.214588716626167297e-02
6.799439272939445944e-01,7.133765102415855486e-01,7.130586558951155229e-01,2.298894450374943874e-02,-2.623321511289274446e-02,1.879828559844177321e-02,7.627160847187042236e-02
6.933957422000597282e-01,7.518587853189098169e-01,6.949464436200604167e-01,-1.970737841740065853e-03,-2.068969131444586048e-03,-4.720650773122245757e-03,5.848949030041694641e-02
7.710031387303026840e-01,7.299373237754240851e-01,6.391818376969062854e-01,-2.445028270775791786e-04,8.881352153729661289e-03,-8.698921910055314177e-03,1.188012436032295227e-01
7.402705157129564340e-01,6.520222433496506431e-01,7.380071413990753060e-01,1.181164007330978531e-02,-2.369322582777873970e-02,1.665824868247630167e-02,1.026074290275573730e-01
7.598188283405094001e-01,6.931503051178183883e-01,6.975593239408284241e-01,-5.356836658887393450e-04,2.025660435800889607e-03,-2.220646709350750179e-03,6.479315459728240967e-02
7.370950658872083006e-01,6.689215127302871045e-01,7.039055719272232503e-01,1.293270029113588286e-02,-1.984603584221872330e-02,1.416297489231108792e-02,7.597143948078155518e-02
6.784557767491875557e-01,7.405871472955577461e-01,7.158645123296299984e-01,4.391403471230058420e-02,-7.093951404714783637e-02,4.412741123660803011e-02,1.722199767827987671e-01
6.482214964967365489e-01,7.305790197452562973e-01,7.731776314336349376e-01,-9.472794714581348613e-03,-5.630019214741177960e-03,-9.740999503562053352e-03,1.129365935921669006e-01
6.732839835219448510e-01,7.649010440265878730e-01,6.890204290556456446e-01,1.448580086654083958e-03,-1.245315908034651427e-02,1.640930229244554625e-03,8.763110637664794922e-02
7.379836035752413981e-01,6.919770410461602017e-01,6.907552029485443112e-01,1.264698197731484001e-02,-1.261771408908247440e-02,2.091199131830861688e-02,6.666109710931777954e-02
6.628007107054775249e-01,7.045930320190801899e-01,7.126378466660556743e-01,5.366541625193285009e-02,-5.585188839884615980e-02,4.327719261244097892e-02,1.605132520198822021e-01
7.266576062370463385e-01,7.231910003931272257e-01,7.034245314777716196e-01,2.567559497901261353e-02,-3.801872966025590661e-02,3.539513319702591865e-02,1.026824191212654114e-01
7.094580760469194614e-01,7.077499603872523526e-01,7.212298878185536832e-01,-1.303184248902555450e-03,-1.617526907016461277e-03,-4.519029638737078781e-03,1.535609830170869827e-02
6.432337488669991332e-01,7.749779768375559819e-01,7.346790519287806909e-01,-2.364832296680425324e-03,-1.339161395098140313e-02,-6.774505112537356280e-03,1.198493167757987976e-01
6.848827449346450713e-01,6.750286112967844865e-01,7.617054875970816763e-01,-2.433795137510601572e-02,1.054694662095551246e-02,1.128374606268182402e-02,9.616938233375549316e-02
6.584218198494375951e-01,6.677581480470807795e-01,7.897470599159441829e-01,-7.513457561064190715e-02,1.645170055380923424e-02,3.749835514859831131e-02,1.951239556074142456e-01
7.171257898204030923e-01,7.241206910438660049e-01,6.978554690440292863e-01,1.084313287725217033e-02,-3.434548975255159124e-03,3.096143445799262074e-03,3.117587417364120483e-02
7.532302483833376305e-01,7.280593615714320288e-01,6.355736366352638944e-01,1.288370689681662094e-02,4.816108217628726172e-03,-9.692140113573262036e-03,1.111957654356956482e-01
7.168193782083353005e-01,6.812405963693333177e-01,7.876489659650572905e-01,-3.389272661520984636e-02,2.461215119663223011e-03,2.825646623572549299e-03,1.108647212386131287e-01
7.183950314864043785e-01,6.826326799791058164e-01,7.633617273556975169e-01,-4.811290667967479950e-02,1.916799074287254059e-02,4.117372044117011826e-02,1.343193203210830688e-01
6.975169794697277936e-01,7.154270348889896214e-01,7.599036270933771098e-01,-3.241393765161026258e-02,2.035049425496120862e-02,1.687392966370757086e-02,9.134616702795028687e-02
6.966769117714873838e-01,7.558423962398880258e-01,7.027720590260690958e-01,2.322158513464996597e-03,-1.423445873981849311e-03,4.948374082749861826e-03,5.720837414264678955e-02
6.777597121437263228e-01,7.560813793667831018e-01,7.063498841145368079e-01,4.202352406005110952e-03,6.893988225056712181e-03,-7.429067800339681817e-03,7.122910022735595703e-02
6.700514152208023599e-01,6.293897879709248189e-01,8.301597837247647327e-01,-1.292531990900655514e-01,7.203112176548606693e-02,3.706200415901925171e-02,3.218753039836883545e-01
7.111451246727245046e-01,6.428691315353500801e-01,7.605206948383641530e-01,-4.810980609981212186e-02,2.141591474878357104e-02,2.275055122190060980e-02,1.426291465759277344e-01
7.927641775114202538e-01,4.417331716567117761e-01,8.183386770981752045e-01,3.899238332077403779e-02,-1.011012259362972961e-02,1.859070414443613969e-02,3.725036382675170898e-01
6.597828543577676230e-01,7.339275803721369007e-01,7.395577259378399715e-01,8.422493259203828186e-03,-1.296791031076118504e-02,1.554947480253083235e-02,8.596079796552658081e-02
8.095426485392900329e-01,5.403458890669895487e-01,8.281537791616435662e-01,4.592358885563351326e-03,4.953607157423728195e-03,-2.827561993385909259e-03,2.792564928531646729e-01
7.542733266978175477e-01,6.923412446233541129e-01,6.821663286338693899e-01,5.983133902825532070e-03,3.619832787019923535e-03,-6.192988624654333432e-03,6.950559467077255249e-02
8.141346353874656661e-01,5.437246002101508990e-01,8.294728581672456968e-01,-6.300072845132866561e-04,4.486572638200696586e-03,-2.029681550314190244e-03,2.785289883613586426e-01
8.079462181409353683e-01,5.496493047029580303e-01,8.007785545642782665e-01,1.179344318326662130e-02,7.029760560700510676e-03,-2.331410690327893193e-02,2.590626180171966553e-01
8.053508133546358749e-01,5.663982723261435925e-01,8.113627464481488749e-01,2.501956923694169388e-02,5.907696615847946031e-03,-2.809874015797830891e-03,2.461246699094772339e-01
6.982505302408054115e-01,7.120154957427233811e-01,7.355254830169626334e-01,3.192909385763203350e-03,2.596341455503433423e-03,-7.685019747854606766e-03,3.596933931112289429e-02
8.094630649213363505e-01,5.444575631824135620e-01,7.992627268554974851e-01,-4.977257460554261733e-04,6.082147415712126602e-03,-8.771901035700297236e-03,2.607132196426391602e-01
7.921224576326342248e-01,8.165083554285592626e-01,5.797549377159773032e-01,-2.457428178959995477e-03,-2.285641097437393632e-02,8.874301012402045774e-03,2.295539826154708862e-01
7.672806707713105689e-01,7.937669976565405738e-01,6.120210184325723946e-01,5.367779613711497894e-03,-1.165708871165667057e-02,1.812373990164237170e-02,1.743526756763458252e-01
7.127756623532330860e-01,7.804367898540403026e-01,7.329191298164049462e-01,4.972459896609292274e-02,6.316405601604216380e-02,-4.146567330110477456e-02,1.678265929222106934e-01
6.825818717457770024e-01,7.770152248354290636e-01,6.352298553031626716e-01,-8.078279001814445137e-03,6.375714988238012637e-02,1.032410935995111030e-02,1.683506518602371216e-01
6.976183825686665951e-01,9.131752721324329913e-01,6.860622850245862159e-01,2.341313600002497587e-03,1.955906801024832053e-01,-1.554795968815243096e-02,4.057069420814514160e-01
6.785280423514269410e-01,7.361283141412896525e-01,7.374459105325747998e-01,-6.762348999754833230e-03,-6.845751490206959840e-03,-1.247475735674399323e-02,6.434330344200134277e-02
6.994381331655248335e-01,8.075204289453852269e-01,6.382327614406372307e-01,7.149339832599643091e-03,6.080280025473053240e-02,4.760006615019309571e-03,1.826344728469848633e-01
7.032905675641095700e-01,7.096871719113807542e-01,7.385406923653737854e-01,-2.899087959555389851e-03,-2.260978137832779771e-03,-1.806790537298927097e-03,3.329189866781234741e-02
7.367694755232241377e-01,8.379808615076570488e-01,5.246289071896053091e-01,6.525033365129698226e-02,1.003905669040626308e-01,-7.148574374314191349e-02,3.675005435943603516e-01
6.978708476938680905e-01,7.102487144404577846e-01,7.351558218466597294e-01,3.080205829582789972e-03,3.030484799611640311e-03,-5.039332540416468185e-03,3.484353050589561462e-02
6.419493314374040693e-01,7.742624000724145361e-01,6.855134595760025151e-01,1.351639316502528144e-02,5.770538562342666933e-02,-1.118237348570939871e-02,1.566953361034393311e-01
6.593201696618089525e-01,7.829259727446787887e-01,7.674623969331201279e-01,5.004933235231716349e-02,3.829418733626034632e-02,-2.656651457482784445e-02,1.662456244230270386e-01
7.481253663725652148e-01,6.760871883661632165e-01,7.047884757575535453e-01,-2.931446048219903469e-02,-2.761971502651101168e-02,-3.521712317326231023e-02,1.119507476687431335e-01
7.014747130710392575e-01,7.270158581113350671e-01,7.200108567807995685e-01,-1.414346336215927501e-02,-1.617712415614756816e-02,-2.137520712674643650e-02,5.725743249058723450e-02
8.100795140105170322e-01,8.124535071253449203e-01,5.393742583520113598e-01,-6.774354259234892893e-04,-1.490104950483700768e-03,7.419824034013576888e-03,2.722183465957641602e-01
6.768976836965059363e-01,7.111995011102260067e-01,7.352661037499037544e-01,-2.711971850410238236e-02,-1.828352865184102935e-02,-1.985578569314353989e-02,8.350688964128494263e-02
5.958132685017275554e-01,7.573141908557581292e-01,8.245079140382469696e-01,-9.294736151030311144e-02,1.111515062245813741e-03,3.414311388665410463e-04,2.595593929290771484e-01
7.627571468352390971e-01,7.241725216390849651e-01,5.825848150522935365e-01,-2.143554219423506393e-02,-3.012030605108895198e-02,-4.432268152062866784e-02,1.923346221446990967e-01
7.038027095479831852e-01,7.056520370217271854e-01,7.294323396856363662e-01,-7.335931647817323618e-03,-8.409590358533494334e-03,-8.400465010939658222e-03,3.461524471640586853e-02
7.410383773100698290e-01,7.415506408548779849e-01,6.770438622695162945e-01,-1.969989346837415153e-02,-3.828317633736354197e-02,-3.170419429182792098e-02,1.127158924937248230e-01
7.343390142795589437e-01,7.623724359076811119e-01,6.660358152885871297e-01,1.261892883916997631e-02,8.494978620474128925e-03,-6.145375191064057600e-03,9.040727466344833374e-02
7.465342304780998584e-01,7.064157834968369798e-01,6.955521893906783104e-01,-8.659680742182190166e-03,-5.711188777989819124e-03,-8.545651664076316101e-03,5.201197788119316101e-02
7.056759223702339101e-01,7.717368330931514420e-01,6.613874880329579931e-01,-3.388177220320818389e-02,-3.713883892891381433e-02,-3.564859358910980880e-02,1.436854749917984009e-01
6.876442226380075073e-01,7.437743570491479606e-01,7.312053254459440765e-01,-1.976445172056008268e-02,-2.455213435627359719e-02,-1.795083749471526949e-02,8.093263208866119385e-02
7.223719009168562133e-01,7.092901891822167570e-01,7.056147621600520337e-01,-4.952033214143334791e-03,-3.254929065299030227e-03,-4.965294968619126184e-03,2.029864303767681122e-02
7.299883563157144595e-01,5.635609452323115942e-01,8.668613262019566612e-01,-1.033259259960611909e-01,4.986135556553461350e-03,1.905969623896499807e-02,3.200075626373291016e-01
6.596301086796660940e-01,7.591565116110360334e-01,7.351178160502697123e-01,5.986973546157325562e-03,-9.683554507926720248e-03,1.112934650992583423e-02,9.408140927553176880e-02
6.662886188849326263e-01,6.697789964749047975e-01,7.654418903448516609e-01,-3.257368464177372303e-02,2.175767203619909020e-03,2.062383210146360047e-03,1.127278506755828857e-01
7.806562857344238049e-01,6.745018606574678666e-01,8.636991732971287528e-01,-1.635159690567276614e-01,3.947858737172791482e-02,4.737948265824878935e-02,3.443875610828399658e-01
7.303016297432263215e-01,6.308186992874627030e-01,7.283234706498060707e-01,-3.178352972167189372e-02,3.063714578355727913e-02,3.212806327909408649e-02,1.365543603897094727e-01
6.464286655895077338e-01,7.491574860902374677e-01,7.714976951008720718e-01,-5.802128567709908397e-02,-2.982863994864398335e-02,-1.189134091361616040e-02,1.629114598035812378e-01
7.482118836716697974e-01,6.762268763107458502e-01,7.535791861398342117e-01,-4.430791233976535265e-02,2.181726980594309723e-02,5.178146549211203736e-02,1.447706073522567749e-01
6.505986620163208833e-01,6.169402005988107174e-01,7.393562342453904312e-01,-1.232092976091861691e-01,4.545263472818078521e-02,5.670712656489544645e-02,2.708961963653564453e-01
7.474649592830380218e-01,7.364434013704805881e-01,7.646489063340159431e-01,-1.447598056042611603e-01,9.754744965111961097e-02,1.079277790294137784e-01,3.563202023506164551e-01
6.962652065498339260e-01,7.008725806398001801e-01,7.208996399870657434e-01,1.688680337475469487e-02,1.731514024446095812e-02,-1.732098801163842530e-02,5.629891529679298401e-02
5.965303528285081924e-01,7.956849877309581931e-01,7.680679009373763133e-01,-2.972787392634041771e-03,-1.531195364259789818e-02,-2.341585196171671115e-03,1.888690888881683350e-01
7.700867078137881849e-01,7.079687746207435906e-01,6.784260723241942737e-01,1.296929275380318165e-02,-2.897808067833066836e-03,3.329818672044504435e-02,1.020913720130920410e-01
6.934777971766640237e-01,7.252898947177907063e-01,6.995496575844656340e-01,1.289234357803919866e-02,1.425906517737441682e-02,-1.384756357965248250e-02,5.039428547024726868e-02
6.926379574728334099e-01,7.130273219789079464e-01,7.471338871763513190e-01,4.224023073872693046e-03,4.805147499016379498e-03,-9.409504474829891510e-03,5.160239338874816895e-02
6.525093568049493697e-01,7.361365999317528441e-01,7.523151969240254866e-01,4.278287114751742198e-02,4.170291517033115208e-02,-1.264465108722342274e-02,1.406997442245483398e-01
6.667587989476990717e-01,7.109283700369920522e-01,7.509036053062225768e-01,9.354558208296472749e-03,5.395759926694012297e-03,-1.158994261875083941e-02,7.789419591426849365e-02
5.978369841028523535e-01,7.897347841360272680e-01,6.469968760063351532e-01,4.457724657596080775e-02,1.661464942415656343e-01,-3.893127133573167503e-02,3.508989512920379639e-01
8.013199383305604773e-01,7.874640615071659688e-01,5.547415391772797522e-01,-1.005769111924446554e-02,-1.105344858562187088e-02,-2.103203565105209172e-02,2.440765798091888428e-01
7.005965810829738460e-01,7.201659266201015930e-01,7.404546218993515172e-01,1.429968704692277616e-03,3.389447662428818689e-03,-1.192594636655687837e-02,4.072973132133483887e-02
7.406099308953044691e-01,1.084514063016283725e+00,7.348660517563556649e-01,-1.236689568385567761e-01,3.874135596614687316e-01,1.248643816471539381e-01,8.143718838691711426e-01
5.300417596079920468e-01,8.707345049137433790e-01,8.245192438429527204e-01,-7.356297838424455393e-02,-1.859443425728916867e-03,-1.251099695900045536e-02,3.452197611331939697e-01
8.039783375255009634e-01,7.846089564897168467e-01,5.810613553019088329e-01,6.696915002000399528e-04,-3.595796581772855646e-03,-2.051128183626333215e-02,2.169139534235000610e-01
7.977229481526354471e-01,7.934473737048577391e-01,5.794582498100764312e-01,4.643395294425789986e-04,-1.494558395083184048e-02,-8.187079811248118913e-03,2.181659787893295288e-01
7.870332111123619079e-01,8.015903439684214371e-01,5.591168910063594177e-01,-5.695441545023812195e-04,-5.103326735961788950e-03,-2.342075262272170881e-03,2.357352972030639648e-01
8.176143521917016432e-01,8.225577609259266954e-01,5.543226575328810135e-01,-7.232907843421754321e-04,-9.811800605956461085e-03,-1.455829290599333636e-02,2.675345242023468018e-01
8.046779220088250417e-01,7.935834383465156794e-01,5.329364821576083600e-01,1.389933786380725391e-03,-6.457600823514616714e-03,-3.533317297793641103e-03,2.666833698749542236e-01
7.278078685385819258e-01,7.075001029041223521e-01,7.112411273085634811e-01,9.400176327389675804e-03,-1.147404429147566747e-02,7.869509043514725036e-03,3.458709642291069031e-02
7.361118709928613502e-01,7.628568122153057685e-01,6.604181955477309574e-01,1.290881426255027428e-02,-8.525155432080296428e-03,4.735950244590871917e-03,9.620022028684616089e-02
7.127204331427785533e-01,6.905300625791226388e-01,7.449621661050832566e-01,-5.323025661222719265e-03,-1.038043685981816268e-02,-4.463681732014280513e-03,5.210984125733375549e-02
2.327638056873553296e-01,1.050862089833173085e+00,9.671764078502638196e-01,-1.374994249015740189e-01,-7.121774513996878466e-04,1.446469776177791017e-02,8.155810832977294922e-01
7.977144542193532750e-01,7.854857052721081478e-01,5.709264620790781564e-01,-3.770953212001409115e-03,1.470924666188513051e-02,5.241455244355901211e-02,2.402969151735305786e-01
8.681934007583049784e-01,5.032972970754999720e-01,9.100739724899680194e-01,-6.541327557185201702e-02,-1.818639533622622845e-02,-8.464060928524507962e-03,4.052518308162689209e-01
7.648518690370282869e-01,6.356207534894382505e-01,7.691286053445685056e-01,6.402988241191435830e-03,1.236482542144108111e-02,-9.063493002103281682e-03,1.345353573560714722e-01
7.411603579763508254e-01,7.438047852945018912e-01,6.725074183429653463e-01,-1.796685894126441238e-02,3.118096361662536786e-02,3.225036044177367889e-02,1.091201454401016235e-01
7.671570199176992455e-01,7.511413719316409887e-01,6.473193971692355886e-01,-1.466443719899963513e-02,2.645129604720155084e-02,3.952633276972649518e-02,1.418782025575637817e-01
7.980486092759995209e-01,6.976418358776970141e-01,5.585397805913752123e-01,9.268537344660765509e-03,-1.856007232649327029e-02,1.414775012580571090e-01,3.236301839351654053e-01
7.734374525168861148e-01,5.946745381959190890e-01,7.489094011285861718e-01,-4.443680031494174482e-02,2.466092631791627285e-02,7.198761716680179834e-02,2.268658727407455444e-01
7.979476901829311020e-01,5.678120587828090482e-01,6.389146995995266254e-01,2.023992436725972205e-02,-1.646237384213188049e-02,1.691785701939076958e-01,3.599456846714019775e-01
7.093256644223955298e-01,7.208934092867232968e-01,7.110722591242167878e-01,-4.185731842698288581e-03,-2.127462936474752882e-03,-2.042706193353697238e-03,1.397556625306606293e-02
7.753537398810002035e-01,7.074705276510637741e-01,6.765679738771994689e-01,-2.785646846134747466e-03,2.515529707124442840e-04,-8.196953433393041819e-03,8.880260586738586426e-02
7.458701146342673338e-01,7.066068966847302013e-01,7.052853016061898517e-01,-8.004379881207954531e-03,-8.067588004898986268e-03,-9.190423812512948931e-03,4.728738591074943542e-02
7.305501581583909720e-01,6.681878405345600402e-01,6.390450993709031469e-01,-6.615293086782952914e-02,8.339354338344530382e-02,9.377040961312750611e-02,2.587015926837921143e-01
7.372711694290038364e-01,7.720998819667534985e-01,5.969245680863597414e-01,1.312051181988618982e-02,5.864386913704292686e-02,-1.917201321869805436e-02,1.942543536424636841e-01
8.208454419606319163e-01,8.075760269023877225e-01,6.076927498071624800e-01,-1.414876884798457919e-02,3.968947776325794374e-02,4.704797940207360030e-02,2.339841872453689575e-01
7.633585548484408401e-01,6.927653359046276327e-01,6.961288228626484331e-01,4.846564287195985346e-05,-3.218126067213089667e-03,-2.096066608169193553e-03,6.929309666156768799e-02
6.591474520515059332e-01,7.834934638024797504e-01,5.556366608247893524e-01,-3.644656365429433525e-02,-1.474833779783054077e-01,-3.857867346270629078e-02,3.357850611209869385e-01
7.215241936140258661e-01,7.420005535103513239e-01,6.799861075428885737e-01,-1.708284946499891849e-02,-9.668399550642576071e-03,-5.803311103252686148e-03,6.520876288414001465e-02
7.177034822585194318e-01,7.866421496775741762e-01,6.954394783852848594e-01,-3.463777701821263433e-02,-8.469435274203607200e-02,-3.493324358424997056e-02,1.885810047388076782e-01
5.786126910932398726e-01,8.050798210592163828e-01,8.120190901239311421e-01,-1.081386005423729535e-01,-1.247001319677758235e-01,-5.818394997519962808e-02,3.805198967456817627e-01
7.516426830672573445e-01,7.603568826420761262e-01,5.968216256278026099e-01,-3.947597805304218360e-02,-1.133784396181241605e-01,-7.355144799630554397e-02,2.913128137588500977e-01
7.679914499818683016e-01,7.069640984616193391e-01,6.831262949009204721e-01,4.893458491211317117e-03,1.688520125594265668e-03,-5.101151122147921067e-03,7.684915512800216675e-02
6.953735339221143175e-01,7.421099005915376967e-01,7.004565426212953083e-01,-1.019385024821075486e-02,-1.947798680023551249e-02,-1.109258818087501854e-02,6.157613173127174377e-02
7.118681998196338956e-01,7.236342737076660869e-01,7.148390910361047679e-01,-1.668749866817244689e-03,-1.402771745883793020e-03,-1.290262467142815235e-03,1.147008221596479416e-02
6.994782811853409443e-01,7.520740648524519845e-01,7.024220604272189972e-01,-1.727213251573270561e-02,-1.970457985617158833e-02,-1.309392472555876742e-02,7.207146286964416504e-02
6.707225510607318641e-01,6.683086729727953923e-01,7.640969962245582892e-01,-3.272485828945782133e-02,-9.626385748624748237e-04,-4.370885640878552293e-04,1.103000938892364502e-01
6.748317935802532475e-01,7.660396870300859584e-01,7.079911944955324943e-01,-1.475179774313135168e-03,-8.411861752053762659e-03,-3.542549633859479533e-03,8.155048638582229614e-02
6.438530101350927737e-01,7.334115927100445242e-01,8.566102881840157446e-01,-1.738896465033605843e-01,-3.638656681612204014e-02,-2.771889555744681474e-02,3.622457087039947510e-01
6.818890842948555076e-01,7.595093418116894979e-01,7.125648330000776687e-01,2.837986475594081719e-03,-6.254984514511592944e-03,9.919967019125432162e-03,7.086325436830520630e-02
7.101787222128852495e-01,6.884567216864698747e-01,7.673084322758405573e-01,-3.173438293702084828e-02,-2.362495281868196711e-02,-2.202690386358783364e-02,1.054883971810340881e-01
7.267636483104983336e-01,5.692378461170921611e-01,8.036096308216864603e-01,-9.740638023076395036e-02,-2.376408167557115311e-03,-3.449602983375586740e-02,2.736344039440155029e-01
6.913723693236707435e-01,7.692554523521912824e-01,6.970265704369352777e-01,1.981732276027987731e-03,-4.104182772482736254e-03,2.168631600439947620e-03,7.572186738252639771e-02
6.979196599732953032e-01,6.948405312189480654e-01,7.476596261932806353e-01,-5.851122549673211728e-03,-8.178902732765098646e-03,-4.221923420303889604e-03,5.471348389983177185e-02
7.516873493250770810e-01,6.507996480226297953e-01,7.851788870580850288e-01,-4.116691280819736315e-02,-2.534035523360146647e-02,-4.195221862234119886e-02,1.642236411571502686e-01
7.350941780876004694e-01,5.639229322065411054e-01,8.682698783823119548e-01,-9.857904433186859272e-02,-1.165841315873379636e-02,-7.543471312899327486e-02,3.412677049636840820e-01
7.353665051508859740e-01,6.936669369700774190e-01,7.142439622690539558e-01,2.779840810442952767e-03,-1.176011217839156159e-02,3.606230851173597950e-03,4.220560193061828613e-02
7.315498562347788614e-01,5.494556232923553107e-01,7.943340271560019872e-01,-9.478755373080646751e-02,1.470813672077226405e-04,-6.006646300465846681e-03,2.749457061290740967e-01
7.748412021569968111e-01,6.116746269313241280e-01,8.127653628507689465e-01,-6.992373369133407512e-02,-7.405434417606113207e-02,-1.331385052330553431e-01,3.443068861961364746e-01
8.381169732320534749e-01,6.103227014805631123e-01,7.467149375279835688e-01,-5.778756460710323534e-02,2.251924440287286864e-03,-1.521044529717498761e-01,3.447671830654144287e-01
8.097762087908143558e-01,5.368593266597937452e-01,7.058691693808598622e-01,-2.628634166318916804e-02,-1.378412848814646909e-02,-1.172090345415630758e-01,3.174572587013244629e-01
7.106820272687399687e-01,7.105956781804728672e-01,7.073768218585245737e-01,-4.279478100915522915e-02,-4.852165177386696948e-02,-4.201938298985340159e-02,1.336591392755508423e-01
7.854748823558725945e-01,6.394900841267132652e-01,7.441397324927602197e-01,-5.183656351828714454e-02,-3.066454753247320822e-02,-3.969403803166599715e-02,1.805401146411895752e-01
7.587694714526102002e-01,6.300819784260990319e-01,6.568857311838404156e-01,-8.112768571033948661e-02,-6.597074151059986735e-02,-1.251730678806058095e-01,3.060000240802764893e-01
8.113543440809125595e-01,6.549769172630200975e-01,7.023081738855728728e-01,-1.174897795355422797e-01,-1.033801897801339686e-01,-1.031741553009331291e-01,3.531306684017181396e-01
7.105477337111565372e-01,7.079066344438813552e-01,7.238167907576559257e-01,-2.958145758414903602e-04,-9.049357216475284590e-04,2.286945714298205083e-03,1.537848450243473053e-02
6.464257956059623611e-01,7.561971568675748268e-01,7.412972638638936074e-01,-1.800985516806019593e-02,-2.021723983854993231e-02,-1.475136470563567087e-02,1.161389723420143127e-01
7.419903109990716450e-01,6.871401853093302980e-01,7.130870093622123651e-01,-2.576235315953630256e-02,-2.485679414079753138e-02,-2.607707480504345768e-02,9.024026989936828613e-02
7.234001080371335046e-01,7.818186933926380977e-01,7.228209158813854174e-01,-1.102254612344634316e-01,-7.857804705709534043e-02,-1.415139534319441172e-01,3.442353606224060059e-01
6.959126524086645116e-01,7.535177520730419465e-01,6.933435863069024041e-01,2.052486593821473398e-03,-6.003648455213323517e-04,2.008261173062982248e-03,5.915029719471931458e-02
6.792185580921832333e-01,6.891725064323174221e-01,7.211041947967932186e-01,-1.206353949480239163e-01,-1.671621009003429192e-01,-1.245439545893503308e-01,4.188774824142456055e-01
7.030160644046963281e-01,7.227046738894896682e-01,7.164372092653054080e-01,2.907822519102783339e-03,-2.295998481029574729e-03,7.234438652525204162e-03,2.239904552698135376e-02
7.839290754519171456e-01,7.895459547566675562e-01,6.140183663228382382e-01,-2.099324637538186808e-02,-3.502667381644678640e-02,-6.919638432674875272e-02,2.218619734048843384e-01
4.284958402042093883e-01,9.052535130725110069e-01,8.434691037718100581e-01,-1.335339957116945808e-01,-4.992446540066130395e-02,-1.922448309082049750e-02,5.135553479194641113e-01
8.895133780347930230e-01,5.513902008079756278e-01,8.516947438944415527e-01,1.288957906008519338e-01,-1.534982387025856099e-01,3.961862072111500543e-01,8.332995772361755371e-01
8.112602213165144294e-01,7.443186078639490999e-01,6.292392006617075761e-01,-1.768143856456628332e-02,-1.778554908390931472e-02,-5.237924180550981856e-02,1.885356307029724121e-01
6.704174927578353538e-01,7.617399833771272277e-01,6.421715432095111975e-01,-6.171163956013702573e-02,-1.309682269301598034e-01,-8.805938994211959248e-02,3.128314316272735596e-01
7.630516914291036734e-01,6.768939173837837942e-01,7.095423926488473310e-01,3.548477011967680287e-03,-7.792686548042404050e-03,5.894080444547093907e-03,7.746185362339019775e-02
8.002622209594573155e-01,5.452438921282438677e-01,7.950507864653177936e-01,1.546085781334413135e-02,-2.292656617445577318e-04,1.675239378772580556e-02,2.555224001407623291e-01
6.949631443928103725e-01,8.105258336175877876e-01,7.323102892391240015e-01,-4.635404502917889885e-02,-8.312435689511718517e-02,-3.948145125902233904e-02,2.056332379579544067e-01
4.907078466401946226e-01,8.431431286821707838e-01,8.812042354709083147e-01,2.670223019041817469e-02,-3.441286096097273539e-02,2.490224098334314559e-02,3.829170763492584229e-01
7.562184815830326201e-01,5.989173729430404824e-01,8.136569899787848836e-01,7.639497375867708440e-02,8.077066722078255628e-03,8.735718541530141865e-03,2.345446497201919556e-01
5.007509160018943639e-01,7.550993035858954983e-01,8.189186849099573395e-01,1.147060335782014023e-01,4.618963626414691881e-02,-3.760568752592390041e-02,3.675782978534698486e-01
5.038210272209193707e-01,8.809337570476774015e-01,8.411148934751304651e-01,1.172317867330757851e-01,5.114119597124020672e-02,-1.483209136936822041e-02,4.225156307220458984e-01
6.429804726641037416e-01,7.392879515911850996e-01,7.338738719590999215e-01,-3.906470489012306424e-02,-3.386167962514449042e-02,-2.189120276505221452e-02,1.350507140159606934e-01
4.587196513429708800e-01,8.150322119459989523e-01,8.060966330141010605e-01,6.242637855631069654e-02,1.642389526687485293e-02,-1.439017390919353212e-02,3.701030313968658447e-01
5.427107952831092819e-01,7.813730747311731228e-01,7.911238852995494675e-01,5.057323444155140124e-02,8.615294771235284740e-03,-1.400021827127221133e-02,2.605101764202117920e-01
8.783770220970117393e-01,4.937049664350168232e-01,8.105947304014845534e-01,9.304476192407673540e-02,-1.408684912711731345e-02,4.951007686495018795e-02,4.005173146724700928e-01
6.758575221656994980e-01,7.578859588974784511e-01,7.445518397477964845e-01,-2.681390177773932890e-02,-3.324330493383580165e-02,-1.753023137946588261e-02,1.104849353432655334e-01
7.529859913118517323e-01,6.813681002261511299e-01,7.256661250766035520e-01,5.245428798924733210e-02,-3.476229211004771419e-02,5.705827561379159946e-02,1.598920077085494995e-01
7.148017881272088481e-01,6.141740011354102080e-01,7.717292050262625214e-01,1.115227255300345194e-01,-4.525359794098777338e-02,5.101133436732143561e-02,2.652494013309478760e-01
7.276702450969727565e-01,4.728786079287726207e-01,7.620008631639484387e-01,1.305290574076414523e-01,-2.874343746212150441e-02,5.865930975980961776e-02,3.725041449069976807e-01
6.534498905791265022e-01,6.168795866626741731e-01,7.639283657413760142e-01,1.177937978092846033e-01,-4.238147749268805775e-02,4.752526834316857934e-02,2.671586871147155762e-01
6.765858918040826842e-01,7.723907233654788707e-01,7.285959502044341285e-01,5.619139652212299524e-02,-5.546431116275462453e-02,5.636357970177868770e-02,1.874370425939559937e-01
7.559217713307617714e-01,6.845763045526171986e-01,7.161634961511386122e-01,3.151851780366951832e-03,-8.596948424195699490e-03,6.149603107962781090e-03,6.480201333761215210e-02
6.888432326872520051e-01,7.111695016570370731e-01,7.446352813175516339e-01,3.832198848294609671e-03,4.499754359854286900e-03,-1.181341784084653616e-02,5.374995619058609009e-02
7.839202226307973032e-01,7.547772285219452870e-01,6.243734884685612219e-01,-6.464126497954137719e-03,6.681286537775745632e-03,1.556755165273878382e-02,1.504696756601333618e-01
7.304730990275585256e-01,7.091176495164330795e-01,6.359955314497092171e-01,3.451105256957772566e-02,-4.074411883843846727e-02,4.090784283514430075e-02,1.447000205516815186e-01
6.328857809774590670e-01,7.969675513319922633e-01,7.986034240615684787e-01,3.478771495563842686e-02,-3.389186152873769481e-02,6.419123626197736562e-03,1.854563653469085693e-01
7.054268036015695076e-01,7.542044397334555228e-01,7.067792132747769962e-01,9.722403298547625111e-03,-6.274442305882315003e-03,1.004584575693336437e-02,5.495050176978111267e-02
7.083254362618379707e-01,6.750131758459190223e-01,7.686303062771764338e-01,9.908216871017155175e-03,-3.633607868097233056e-03,1.411956065802277057e-03,8.423410356044769287e-02
6.911459968078955685e-01,6.918730627318593340e-01,7.659216931677624851e-01,1.986222234731220213e-02,-4.757261302527705620e-03,1.932913434364307839e-03,8.246328681707382202e-02
7.375991920334737939e-01,7.370185701383498156e-01,6.780022294571790287e-01,-1.143283684533047580e-02,-6.053713624873037491e-03,-6.813631340772904367e-03,6.448937952518463135e-02
6.486664779243526135e-01,7.455378501859081242e-01,7.752668710088853610e-01,9.077698760637574471e-02,-1.135276627345074008e-01,8.940295364060682481e-02,3.170385062694549561e-01
5.876794711396609028e-01,6.899031431750549670e-01,7.382047330417549347e-01,1.291383453710735207e-01,-8.916552732239503565e-02,6.616828077960638932e-02,3.236303925514221191e-01
6.510047660018939419e-01,7.566285686466245330e-01,7.706310104674258810e-01,5.247319650691541909e-02,-2.102963312813579955e-02,3.087129373183878506e-02,1.589893102645874023e-01
6.898934381212002975e-01,7.630284179405811829e-01,6.962504368461935877e-01,4.878589728748732490e-04,-2.168992915308551837e-03,-1.633266921144498974e-03,7.033525407314300537e-02
7.685622240822209683e-01,6.982477378269398294e-01,8.256650496311603860e-01,1.549625417580904330e-01,-1.076809035989038238e-01,1.064525701776237454e-01,3.912060260772705078e-01
7.201161466695443769e-01,7.685768897499539731e-01,6.976946527978153956e-01,1.678143146179299217e-02,-2.636054408225423085e-02,1.488071588491144195e-02,8.678433299064636230e-02
7.012862777551026605e-01,7.270741665690796385e-01,7.458256654890992321e-01,-1.589677369453922767e-02,1.806965750085334430e-02,1.503084150982314342e-02,6.257502734661102295e-02
6.828422853153640615e-01,7.844834356713248358e-01,6.478338088624634450e-01,2.240543709766861652e-02,-5.247499747770797279e-02,9.787720343938606515e-03,1.586477309465408325e-01
5.935576813298811816e-01,7.851604415034368900e-01,7.631507748265238256e-01,-4.508898286347549737e-03,-1.580105794738107666e-02,-7.532067128659636693e-03,1.842800527811050415e-01
6.543527618016129477e-01,7.520564746290450131e-01,6.992942093193339481e-01,3.415987093113648232e-02,-4.257687953194802533e-02,3.030108281929356009e-02,1.373620480298995972e-01
7.257693168652687987e-01,6.894122918715014370e-01,7.833908630966258668e-01,6.930264904431159001e-02,-3.736922574980187928e-02,4.018104308564358906e-02,1.737196594476699829e-01
7.480449438480232249e-01,6.900294240598680018e-01,7.629838736629224183e-01,6.540949625047179361e-02,-5.124802388014564752e-02,4.609312950935098852e-02,1.776054054498672485e-01
6.447818378630010283e-01,7.810099330876687507e-01,7.596163600140567462e-01,3.175490633933053530e-02,-4.609683150881651453e-02,2.887685707579050812e-02,1.673405766487121582e-01
7.890697613051570469e-01,5.502664535776908838e-01,9.072959653794951951e-01,1.777069513342255935e-01,-2.603498892531870340e-04,1.306418071622811664e-02,4.410088062286376953e-01
7.029237533246764924e-01,7.395198211900710916e-01,7.093613804440120907e-01,2.411984805868338470e-03,3.200110641347414997e-04,5.195277009740118315e-03,3.526834771037101746e-02
7.458173587083065659e-01,6.009100500223109043e-01,7.611082760655691892e-01,7.861833606019723308e-02,5.951482919119627235e-02,-5.502799027779604890e-02,2.483958899974822998e-01
7.139018514940432825e-01,5.775486329859564893e-01,9.014481135783117827e-01,1.304007097422615613e-01,1.071875671719877028e-02,-1.369572600021175431e-02,3.622965216636657715e-01
6.440802822143096851e-01,7.350659823544097859e-01,7.539568380663409508e-01,1.272755670138151218e-01,9.277054736927660417e-02,-1.135066499590428740e-01,3.513142168521881104e-01
8.021380070989604372e-01,6.981960494062618983e-01,6.291753074765413789e-01,-2.314247417211484290e-03,8.887476686814613919e-04,-5.001828061509960149e-02,1.739708781242370605e-01
7.355936918837039373e-01,7.366324640570929283e-01,6.946849528688967546e-01,6.839824719442821888e-02,1.264680067112202155e-01,-1.464223050482750255e-01,3.578449487686157227e-01
7.356537924575053955e-01,6.455118405484473465e-01,7.524554894365278468e-01,5.338181246031224736e-02,2.397728680631700665e-02,-5.112776480262836570e-02,1.674459129571914673e-01
6.835694411994628350e-01,7.027037846178776359e-01,7.410594032023961608e-01,1.616218100255003426e-02,1.233268555069932763e-02,-1.010592870691979367e-02,6.416781991720199585e-02
8.824773751330248217e-01,4.144403810705425961e-01,9.097285781703425833e-01,2.630699090785360017e-01,1.759743352281730733e-01,-1.477586377946126517e-01,7.736743092536926270e-01
7.143304023747980569e-01,5.510718559911628178e-01,6.791695380513400604e-01,1.967795213830782208e-01,1.856387347929576159e-01,-2.756596310112593984e-01,6.853216886520385742e-01
8.219446265475420788e-01,4.763204359754054096e-01,7.439614237134398733e-01,1.935161274751912019e-01,1.010382691439487141e-01,-2.191591925016008191e-01,6.210060715675354004e-01
8.723406388985713855e-01,5.874648197244093373e-01,8.771839728083814514e-01,3.065074523716344035e-01,4.196464058204277953e-02,-1.745853980341056377e-01,6.790590286254882812e-01
8.051880972482290399e-01,6.064892324585676731e-01,8.253278975428137709e-01,2.266571452066943049e-01,2.594908570916323876e-01,-2.175578021072257784e-01,7.362130880355834961e-01
7.620437137531270722e-01,7.811692948234425504e-01,4.808331603166788870e-01,4.052098526728024203e-02,1.352481765046353035e-01,-5.208573379267052161e-02,3.908507525920867920e-01
6.988672185740267828e-01,7.293683068702981886e-01,7.168620542301074039e-01,5.946141946615541435e-03,-3.524482652374204359e-03,9.725636614740702096e-03,3.365067765116691589e-02
7.152482526998701351e-01,7.131561889064896853e-01,7.159275117360981433e-01,2.039330416381680388e-04,-5.420558941150051789e-04,1.091408213199787777e-03,3.292253473773598671e-03
7.857351870464905907e-01,8.036750453799894611e-01,5.975161575519244428e-01,2.192529384371161294e-02,3.827878721252353511e-02,-7.819368031042042699e-02,2.516059875488281250e-01
6.326518620943714089e-01,7.933992061990210454e-01,7.436379560625129281e-01,-4.278659535472823655e-02,5.528581444513010201e-02,2.399264702792637538e-02,1.915867626667022705e-01
8.009761717419229266e-01,8.254512340725786990e-01,5.890261916094818861e-01,1.477310179103780152e-02,5.704290966538960034e-02,-2.945381207289210490e-02,2.524446547031402588e-01
7.153789643001124965e-01,7.150553909619334902e-01,7.127131642318713656e-01,3.989543244669868909e-04,-1.846839202823063000e-04,5.905957844447930509e-04,2.823975170031189919e-03
7.010302043370095770e-01,7.067685748327007245e-01,7.292859013147716674e-01,5.719582656402340433e-03,-3.814260218507409522e-03,8.583272047404359381e-03,3.212438151240348816e-02
7.854778285890295919e-01,8.101068689813353263e-01,5.607304257812147918e-01,6.402995320114038443e-03,4.146464293550584934e-02,-4.159519547088136315e-02,2.590844035148620605e-01
7.500697025155046438e-01,8.049600127955103268e-01,6.024772814619602235e-01,9.002753043731604333e-04,5.675212073343027103e-02,-1.585833499478009681e-02,2.081277519464492798e-01
7.390707052119191989e-01,7.841340959850376935e-01,6.527252178166520480e-01,-2.446920560046351306e-03,5.139628021735301311e-02,6.556503987122672648e-03,1.464545428752899170e-01
8.364235252406582166e-01,9.196605512844575614e-01,5.766243020178971612e-01,-4.756269954719815826e-04,1.560739648936401158e-01,-2.367741384960775006e-02,4.132901430130004883e-01
6.944463648732414063e-01,6.949152933847331237e-01,7.513508504941822652e-01,-1.429457809035284159e-03,-2.921053553227605497e-03,-8.697498099975099935e-04,5.697063729166984558e-02
6.606812617829622702e-01,7.156170328103483858e-01,7.439558301365443160e-01,-4.596895119721802758e-02,3.268790781568719356e-02,3.901698581660102000e-02,1.396056860685348511e-01
7.343552254328888917e-01,7.335640186840793886e-01,7.568675703404896815e-01,-3.360845327965816809e-02,3.977336528432428436e-02,4.117842920180113386e-02,1.172458082437515259e-01
7.389122113123629543e-01,7.423017979289876500e-01,8.255719120076741024e-01,-1.398545678184977270e-01,1.177276747093468634e-01,1.388984691994814558e-01,4.066489040851593018e-01
6.938191098105490617e-01,7.007949485008830859e-01,7.542089288899820332e-01,3.078216274456726381e-03,1.569237780595393247e-03,-2.070610352672901805e-03,5.764545872807502747e-02
7.775569614576064437e-01,7.153996257430177419e-01,6.799455573346350201e-01,-3.369653857048564294e-02,3.636622082608056972e-02,6.823951294488954378e-02,1.693163514137268066e-01
6.926140728246974465e-01,6.938154628427624093e-01,7.546492170229097685e-01,2.761436578705931191e-03,1.657422305851660163e-03,-4.214360633365818454e-03,6.212627887725830078e-02
9.303185413072081467e-01,6.744248306353557432e-01,9.506038568244739029e-01,2.946875515694726277e-01,-1.819800795340191235e-01,2.977935153538519564e-01,8.348649144172668457e-01
6.952776496070042223e-01,6.899719371942755197e-01,7.675177474539409683e-01,2.956502747795736099e-03,2.125282983821653090e-03,-8.405618081490792096e-04,7.531242072582244873e-02
7.191067073396173459e-01,7.229359821737906255e-01,7.074359943404385787e-01,8.514805639269512616e-03,9.251610124729573196e-04,-1.849031357531667578e-03,2.063709124922752380e-02
6.695417954505764602e-01,7.643348705987745850e-01,7.362504259903553949e-01,-1.710207263786225548e-02,3.741122314032514773e-02,2.338591114315062558e-02,1.175976023077964783e-01
6.963669180409575166e-01,6.961127218819529450e-01,7.561786417940679073e-01,1.227348654236541497e-07,-4.492917947910009626e-04,3.525436538594612333e-04,5.994738638401031494e-02
5.442689102575121174e-01,7.551573236824071778e-01,7.499542193286400371e-01,-8.159624351197528047e-02,7.397956214500150951e-02,3.558175372875128917e-02,2.891274392604827881e-01
7.145229327175071088e-01,7.112871299156516836e-01,7.167338412483090782e-01,1.329364372297298222e-03,2.218521922054510643e-03,-1.168492816366493211e-03,6.831974256783723831e-03
6.249027246295915106e-01,7.851461442681499925e-01,6.638901317775272037e-01,-4.785217932031984173e-02,1.117226455288133635e-01,2.746931771108204398e-02,2.598644495010375977e-01
7.273500594975345068e-01,7.113991221045654623e-01,7.047150060242935998e-01,5.738500034418899699e-03,1.567830696848430180e-03,-1.558703117086594368e-03,2.278556115925312042e-02
7.027314383850490342e-01,7.524751271533258734e-01,6.754274105051019106e-01,6.964235718315646591e-03,6.930174741166175191e-03,-3.737166723486146525e-03,7.006875425577163696e-02
6.977028526375405049e-01,7.006755540287782358e-01,7.422082157839809957e-01,-1.227572477382598594e-02,1.208905430259553555e-02,1.463098891748195601e-02,5.822350457310676575e-02
7.103635693418904884e-01,6.981475704109819658e-01,7.176410140766952273e-01,-1.439733677143650165e-02,1.611780907000144245e-02,1.317835214220104516e-02,4.704573377966880798e-02
6.924623208372669980e-01,6.887264685563320166e-01,7.633908123941496315e-01,2.526396427034762349e-03,-1.389607950471064490e-04,-1.650304153188385378e-03,7.305588573217391968e-02
7.025856950556532698e-01,6.926307560074843606e-01,7.523378716433785085e-01,-4.128575780342712970e-03,-2.285422699232340059e-03,-1.607791680939555951e-03,5.607334151864051819e-02
7.095470981523913645e-01,7.259157555986739396e-01,7.271666577985619329e-01,-1.208669921649566971e-02,1.499475359103604952e-02,1.358795162976930530e-02,4.423418641090393066e-02
7.016314473432965215e-01,6.934978086756743432e-01,7.459660450116256669e-01,-2.641219223677904963e-03,-4.485048189208730440e-03,-1.101034796256034065e-03,4.977174103260040283e-02
7.214047830881499257e-01,7.012219246180859678e-01,7.092705191984594038e-01,3.836528189554634215e-03,5.712233395058880295e-03,-4.595950906720413717e-03,2.269577048718929291e-02
7.037601546009943920e-01,7.193809958567847218e-01,7.326554448485076421e-01,-1.720451666459824752e-02,1.184916434959291422e-02,1.035379807265378316e-02,4.752238839864730835e-02
6.598880775960924705e-01,7.414420384517257379e-01,6.388200510968244927e-01,-6.863762141048229681e-02,1.084631404832988033e-01,8.193366618237130083e-02,2.799617648124694824e-01
7.408546235805438807e-01,6.179603418104819834e-01,7.305542404487104235e-01,-5.716527163447218673e-02,3.298965648278014140e-02,4.507058676472081027e-02,1.819501966238021851e-01
7.594728902344514143e-01,6.743266937434332364e-01,7.166553695257161793e-01,8.357299884758287792e-03,1.074576975480008752e-02,-1.105008857374106639e-02,7.974790036678314209e-02
7.273023180309303726e-01,7.427011189342812569e-01,6.767517801551621304e-01,-1.533657303224773318e-02,2.690458987349971312e-02,2.228782084047462725e-02,8.909736573696136475e-02
7.551480978252289589e-01,6.837486090277854478e-01,7.157579047886453161e-01,-4.053561303751359798e-03,-7.421633246178937875e-03,-6.006230853394186470e-03,6.449647247791290283e-02
7.097988024642757354e-01,6.848463623240119702e-01,7.277908847919196678e-01,-3.005022013781257981e-02,2.211207182305912483e-02,4.766281185087040129e-02,1.112941801548004150e-01
7.097666345091856455e-01,7.113544372223078449e-01,7.242088890406003232e-01,-3.187938954088907068e-02,3.589061679759120160e-02,1.826884033880892336e-02,9.001508355140686035e-02
7.785270953848291153e-01,6.643463811826169074e-01,7.142252366193428958e-01,-4.937535103196579594e-03,1.316101941895958700e-02,2.170913475249074479e-02,1.087959855794906616e-01
7.547352942222873562e-01,6.967567300037007527e-01,7.037267503267135016e-01,2.107672268657751966e-03,5.330521444259462074e-03,-2.094302005542767343e-03,5.583647266030311584e-02
7.729259718851448913e-01,6.110687630508426782e-01,7.363203247032404919e-01,-1.292847840662106687e-02,1.484907962036999610e-02,5.699257513132128389e-02,1.803336441516876221e-01
8.128081973417315975e-01,6.468919437812912232e-01,7.166117312466810940e-01,-3.165356326034592799e-02,6.944305210951189078e-02,1.809204939301707893e-01,3.694468140602111816e-01
7.006204133793125788e-01,6.987356914902471683e-01,7.353671413309328386e-01,1.343064286113785375e-03,2.363098773776467054e-03,-6.075749985246683797e-03,3.754042461514472961e-02
6.995152416312988564e-01,7.204532014762777825e-01,7.389129026693052049e-01,3.056997863111327735e-03,3.556766221684538182e-03,-8.286193683176313121e-03,3.791619464755058289e-02
8.657298102898105530e-01,7.319825337054254311e-01,6.243512209819532810e-01,-5.387187538683247540e-02,4.627356679372012643e-02,1.068544276547131744e-01,3.053720593452453613e-01
8.172751083499509850e-01,7.866465584493563812e-01,6.283291543375417731e-01,-3.888341327327409121e-03,1.480628403214744558e-02,4.185149501221593904e-02,1.918572932481765747e-01
7.640243761897071995e-01,7.831672458968410577e-01,5.926895118712058874e-01,3.012767924491208376e-03,1.285343149063393302e-02,-4.738955407901421397e-03,1.832816451787948608e-01
8.132196928949129155e-01,7.306515741302757050e-01,6.160588997389947474e-01,3.742211199287109446e-03,1.645300320154724841e-02,3.829289017061538597e-02,1.861822456121444702e-01
6.475455406269471359e-01,7.956423050641658890e-01,6.990030034171039741e-01,3.118159269650287724e-02,6.021811551713917438e-02,-2.117657661667699323e-02,1.791667342185974121e-01
7.090605781234152749e-01,6.770028924870447051e-01,7.751240888757860992e-01,6.439095418159864956e-03,5.705899487266098517e-03,-1.497936348733004772e-03,8.796996623277664185e-02
7.473823867977509305e-01,6.447576125311651474e-01,7.447322670672142930e-01,1.572259066445958961e-02,1.834511375011394288e-02,-1.404871669570993339e-02,1.122952699661254883e-01
8.707878728380997746e-01,7.146998476259431854e-01,7.365433169903587984e-01,-7.282787958049095900e-02,7.968686105677820486e-02,1.683028875304614091e-01,3.759925365447998047e-01
8.530497185188130604e-01,6.037594630006724028e-01,8.705477054367518619e-01,-1.516341253221863417e-01,5.590687364473760634e-02,1.158299830299708011e-01,4.306031763553619385e-01
7.672743913722440690e-01,6.903684028925927141e-01,6.969175562338347785e-01,1.289039568244217593e-03,3.000353631756812103e-03,-1.720292467927357670e-03,7.412572205066680908e-02
7.650493389614118067e-01,5.973982535768039837e-01,7.920059502636064286e-01,1.312931469106015138e-02,-1.546365109923835942e-03,3.046679058576060722e-03,1.841331273317337036e-01
7.537324201865934770e-01,6.950582245360609202e-01,6.954146136868087913e-01,1.963739032164259907e-03,2.293826305090702813e-03,-4.433364722309383931e-04,5.873517319560050964e-02
3.434100785983388304e-01,7.943910339433027934e-01,8.632000961844250586e-01,2.138095021716083233e-01,-1.112715535627156055e-01,4.796281039646762417e-02,6.483355164527893066e-01
7.840209324037318295e-01,7.576029797381892417e-01,6.168826564160788672e-01,-8.764279431129430586e-03,1.032318564019055716e-02,6.400497471764590718e-02,1.925037950277328491e-01
7.687514075136520075e-01,7.424646292543396475e-01,6.574150212236604673e-01,-1.517241646821040728e-02,3.685566409173023084e-02,5.815840248895334796e-02,1.583443582057952881e-01
7.564638186877786774e-01,7.331887235863167041e-01,6.618348320309319632e-01,-2.391632326694565977e-02,2.037222109651042057e-02,4.006150654836107550e-02,1.227587163448333740e-01
7.947362853213441047e-01,7.778729441723013505e-01,6.239630820226189645e-01,-1.872982757906567833e-02,4.194767408446747198e-02,4.500895077151747387e-02,1.974252015352249146e-01
7.380703725275643556e-01,7.021947344844072791e-01,7.202481187976765842e-01,2.259800826375879795e-03,1.170110352451145252e-02,-3.296966933968817348e-03,3.773575276136398315e-02
8.613516214449292718e-01,8.310913161696675822e-01,6.255143318102132088e-01,-5.578906561352401511e-02,1.014471060148875448e-01,1.126149603561195228e-01,3.572906255722045898e-01
8.619050839984322421e-01,4.218970848953469965e-01,5.293817118770514085e-01,6.207618093046715635e-02,5.090784344705980013e-02,-3.324556874094107828e-01,7.132891416549682617e-01
7.882293452057780314e-01,7.003140039334763145e-01,4.939856633182583279e-01,-2.182288972710777486e-02,2.415440450254472196e-02,1.290003997800706625e-01,3.486290872097015381e-01
9.234277386449410985e-01,9.651237112299581034e-01,3.994097573615394414e-01,-8.128912028900424011e-03,-5.911658015831098428e-02,1.536515543248195836e-02,5.563934445381164551e-01
8.641141088536919979e-01,8.746277188548218229e-01,1.792350918797060433e-01,1.246749978608928215e-02,1.116732514667733572e-01,4.451379548810879133e-02,7.212446331977844238e-01
7.063025666902399413e-01,6.931769776617465739e-01,7.465159549598142652e-01,6.988618033652070106e-03,1.046517347651263960e-02,-4.535828044949533240e-03,5.342307686805725098e-02
7.128683105698782052e-01,6.865901510983420941e-01,7.458241099480943381e-01,4.673373449282197147e-03,1.192195850738223331e-02,-2.488846378000419014e-03,5.615289509296417236e-02
7.383993863605452512e-01,6.812297212816941228e-01,7.393692882834124180e-01,-4.960282155701061305e-03,-1.167591331001959984e-02,-4.989362110128692414e-03,6.230758875608444214e-02
6.966966925473644379e-01,7.237522280866751645e-01,6.937612559268664381e-01,1.290781324503005416e-02,1.526563084643843722e-02,-1.198207111806261216e-02,4.949446395039558411e-02
7.706118431054292950e-01,6.545845911504666326e-01,7.130619993256160916e-01,4.406723387172732653e-03,7.707589856092792076e-03,-1.232967404098555923e-02,1.038725078105926514e-01
6.852235939961508482e-01,7.079919908844283238e-01,7.589294577861920299e-01,6.870576678202752405e-03,1.697795720715198665e-03,-8.603362425562442739e-03,6.815501302480697632e-02
1.092620987334425919e+00,9.291831941779673532e-01,2.936989120005856768e-01,-3.983311902214650008e-02,1.657460054350916659e-02,6.805027129099189276e-02,7.442385554313659668e-01
7.683502279893018594e-01,5.722240276335226472e-01,7.054817561392112690e-01,4.095392539954342132e-02,4.230417015390902646e-02,-9.533265862178830208e-02,2.602946758270263672e-01
6.939171080912306389e-01,7.057831643888291540e-01,7.547936705212557884e-01,-9.169389613723540750e-03,-4.206666244591657222e-03,-8.659988777245119368e-03,6.045413017272949219e-02
7.668633570883636175e-01,6.874216498023735245e-01,6.946394763966995400e-01,-1.122313825313313757e-04,-1.310751070490834931e-04,-2.829367735156052520e-03,7.624822109937667847e-02
7.591757851692011450e-01,7.140706139049463053e-01,6.770388759185234084e-01,1.096103078519484672e-02,3.194567413434796967e-03,-5.052069679189349904e-03,7.445648312568664551e-02
7.627391659725438755e-01,6.890730645087564943e-01,6.942253559180396882e-01,1.043849443249267490e-03,6.463276639206856069e-04,-1.827614423366972531e-03,7.133185863494873047e-02
7.331618760319720263e-01,6.700651914434764267e-01,7.362105803460906595e-01,6.811957760687313915e-03,1.301167670974326916e-02,-6.648775541302480267e-03,7.044563442468643188e-02
7.845581380374634373e-01,7.489620214445151802e-01,6.339122339040443865e-01,-1.213683208618944725e-03,1.123342348746743380e-02,-5.866160410017152299e-02,1.711882054805755615e-01
7.139569422538819543e-01,7.142688455059618136e-01,7.058381485515159426e-01,2.677888402272244825e-02,3.139284999840010609e-02,-3.246434779647056068e-02,9.131377190351486206e-02
8.866962223769943030e-01,7.582473283737277692e-01,6.018316564776452493e-01,9.935819547702329224e-02,9.753589471893629737e-02,-1.950935103970509454e-01,4.831115305423736572e-01
7.534768030818034257e-01,6.941592333894404110e-01,6.953666985155743108e-01,-1.969835706737820685e-03,-3.777518478252635953e-03,-2.847607941568991875e-03,5.939010530710220337e-02
7.656486761534264662e-01,7.323882366455723991e-01,4.713895862828348937e-01,5.798190852977875426e-02,1.148602830625209126e-01,-1.472004008644383355e-01,4.388344883918762207e-01
8.071999340319830907e-01,7.497672332311557941e-01,6.419018487954127883e-01,9.972278264714447629e-03,1.852212845118893225e-02,-5.308032528073327455e-02,1.758083254098892212e-01
7.705256164853115930e-01,7.209281763095227724e-01,5.814684308960818004e-01,2.785564698035498596e-02,3.932935176660399407e-02,-7.073376514904373968e-02,2.253969311714172363e-01
7.364777051090195537e-01,7.043768962150473989e-01,7.003369371702073964e-01,-2.140148865573078627e-03,-5.585221085864799234e-03,-2.775544129863289841e-03,3.615114092826843262e-02
6.866746740840523611e-01,7.130893761710489498e-01,7.819708295817140442e-01,9.096440895236156121e-02,-1.240193108763160829e-01,5.593806758568025533e-02,2.959983348846435547e-01
6.897778763595701079e-01,7.191410565974408753e-01,7.505485603079846690e-01,2.799528192148341768e-02,-1.831515700775393496e-02,1.393619044439097128e-02,8.192097395658493042e-02
7.835312488668215725e-01,6.392755682666790840e-01,7.319507033902870052e-01,1.138886015371793389e-04,-5.882832935299183753e-03,-1.457350587154317666e-02,1.295009255409240723e-01
7.321601922058799117e-01,6.520375874606131328e-01,7.556613091117850844e-01,7.679722166930891790e-03,1.167057139071241145e-02,-5.830085061850109711e-03,9.768529236316680908e-02
6.699709306688422794e-01,7.168322349733597942e-01,7.637687701400658336e-01,3.408574798059545163e-02,-8.435880063493871386e-03,8.390023929773079633e-03,1.025120094418525696e-01
7.087792261466798749e-01,6.428428349771265760e-01,7.626048267978476902e-01,5.026007693921510228e-02,-2.285474861757982173e-02,2.160429167761294261e-02,1.460799425840377808e-01
7.140552793418142308e-01,6.916113259480142217e-01,7.684041662117857552e-01,3.326964731515198725e-02,-1.744843431945423962e-02,1.481072654692195366e-02,9.782311320304870605e-02
5.246945982239753503e-01,7.327214487783765273e-01,7.999624925837016676e-01,1.483905810641784062e-01,-5.276954822027028064e-02,5.890109321770854028e-02,3.828911781311035156e-01
6.768887790179121122e-01,7.272980325682846248e-01,8.246050535307687390e-01,8.441243697344702479e-02,8.568619766474433810e-03,-5.327279185633713131e-03,1.964604407548904419e-01
6.598852111326380943e-01,7.316541271160521553e-01,7.443615935363387948e-01,8.726408146663509197e-03,5.181610361123094657e-03,-1.782955223233354675e-02,8.652707189321517944e-02
7.109049936888534038e-01,7.141376201157874082e-01,7.162146658136636646e-01,2.462382263527862492e-02,3.319918133994722437e-02,-2.952332804843247824e-02,8.810172230005264282e-02
7.678271934270318733e-01,6.937496127822861958e-01,6.910870399980649781e-01,-1.208930997433637407e-03,-2.033269966547023282e-04,-5.002142307953995858e-03,7.596964389085769653e-02
6.511079460922731821e-01,7.110013329066509069e-01,7.147369638937683956e-01,4.362622572556661138e-02,4.189552854480669414e-02,-3.427083240515860912e-02,1.353655457496643066e-01
6.237644847619893129e-01,7.318604937150490208e-01,7.580562677994996390e-01,2.618115923635760262e-02,1.391630632472040836e-02,-2.291538985483082547e-02,1.393388658761978149e-01
7.049810469866388818e-01,7.354776060020576933e-01,7.153566395527903854e-01,2.785072411358282488e-03,6.233152632051149750e-03,-1.314494222477266029e-02,3.714119270443916321e-02
7.141515222211964886e-01,7.119542919512206192e-01,7.137253262673936005e-01,7.176101877294745364e-03,6.299119169874625376e-03,-6.461677331331939188e-03,2.007134445011615753e-02
7.001876718660121623e-01,7.002998131894556666e-01,7.360561778571738101e-01,-3.553654786264565124e-04,1.821501862778995276e-03,-2.511970309440944311e-03,3.621881455183029175e-02
7.533723877311999662e-01,6.964671080198731046e-01,6.921243488765231877e-01,-3.616057487425771398e-03,-2.044861977885694109e-03,-2.483980335414580441e-03,5.978694558143615723e-02
7.547465955230621137e-01,6.006636044876902947e-01,7.569606240959914079e-01,1.403311423793952850e-01,9.460249287505892446e-02,-9.342901764524923214e-02,3.690554797649383545e-01
7.346225102510397509e-01,7.012320247719626698e-01,7.038037682710874821e-01,-5.973386338399545165e-03,-2.819806354261755570e-03,-3.094192328024067060e-03,3.457291796803474426e-02
6.718822469654510687e-01,7.192132608843460062e-01,6.794656617060256254e-01,5.984094888408440088e-02,6.961777580794928366e-02,-5.855447876520256112e-02,1.936682909727096558e-01
6.240613566619678254e-01,7.651040113206561966e-01,6.696252958149200296e-01,7.556280543873364342e-02,1.227639604006667551e-01,-6.737087798513174963e-02,3.024918735027313232e-01
7.447751443155254947e-01,7.301993535661031043e-01,6.926027265543061029e-01,-2.046370064572540504e-02,-2.106386847423973724e-02,-2.189236215191443791e-02,7.873459160327911377e-02
7.672809513224180256e-01,7.054897011213479008e-01,6.549935668296236191e-01,2.102813368163386834e-02,2.272287818747695601e-02,-4.572085355717203647e-02,1.365099251270294189e-01
7.953935591801872818e-01,8.259896483050603866e-01,6.086069400130060814e-01,-8.137380770434577077e-04,-7.616708388839994737e-02,-3.201035390841003997e-02,2.490392625331878662e-01
7.830020302029406798e-01,7.142534587284330438e-01,5.832920193954251875e-01,6.062916343376541922e-02,1.160588452241070739e-01,-1.165323703246514131e-01,3.507944047451019287e-01
7.009505237241583364e-01,7.451406411176090261e-01,6.481864579838410023e-01,2.515492505468275297e-02,4.803281220200639884e-02,-4.291945907094169704e-02,1.463368237018585205e-01
6.886274500952133115e-01,7.393011567610207058e-01,6.833681357666712142e-01,1.916244992659413629e-02,3.118518097772917178e-02,-2.040221637685923906e-02,9.016590565443038940e-02
7.986643071415742146e-01,8.143926427470432605e-01,6.412487807503230997e-01,2.884710079195383983e-02,6.177185109132496410e-02,-7.091991911375009061e-02,2.377720922231674194e-01
7.239877140699990665e-01,7.084281982510622910e-01,7.134325067235242068e-01,-2.399481064055148955e-03,-1.422892520034326402e-03,-2.280294966035012819e-03,1.510703936219215393e-02
7.206460865738808508e-01,7.066764821893580795e-01,7.068749203090387567e-01,-2.037564313798129363e-03,-4.644502321232496338e-03,-1.192331150884338477e-03,1.654845289885997772e-02
6.983045427120485593e-01,7.194626788669536976e-01,7.230526251778087721e-01,1.973521046079793062e-02,1.398809537536874030e-02,-2.219252583276417820e-02,6.139602139592170715e-02
7.027324143573531190e-01,7.666957544491046495e-01,6.199634838598231390e-01,1.664565274973270684e-02,4.635461763019625703e-02,-2.480714244074035124e-02,1.592477560043334961e-01
7.298810869947796043e-01,6.609000481324137644e-01,7.596247019802773170e-01,-1.092900352605291441e-02,-1.303563403570391459e-02,-4.528973591946872969e-03,9.286796301603317261e-02
7.137868949977770328e-01,7.105298899443515115e-01,7.241838343785922394e-01,-1.612368720082879266e-03,-1.094017771043975058e-03,-2.038990661220969978e-03,1.328267995268106461e-02
7.219832156035975723e-01,8.037162778913141681e-01,6.941029829125806572e-01,4.501007454200479929e-02,8.857005924455142731e-02,-4.755035203444250846e-02,2.147815972566604614e-01
7.006295033374747572e-01,6.970055759875178891e-01,7.436808941035861764e-01,1.938083239280552830e-02,1.751610412579929568e-02,-1.842359022020757103e-02,7.133125513792037964e-02
7.177365418285116538e-01,7.062416865894426410e-01,7.178852837027720479e-01,-3.658964575134714819e-03,-8.756372805013918487e-03,-3.221518477667764321e-03,2.086107432842254639e-02
6.490526208514226791e-01,8.048116962985030209e-01,7.565609530741933542e-01,2.839683694726270052e-02,5.307348804484635085e-02,-1.897051864774870061e-02,1.761326193809509277e-01
7.128158903807811919e-01,7.123101981149299045e-01,7.168687664481240285e-01,-5.692873870888709659e-04,-2.444751723874176528e-03,-1.360269364212712394e-03,6.571508944034576416e-03
7.590847371860504067e-01,5.968290453980954480e-01,7.282960669229706641e-01,-2.816258525962164402e-02,-2.353054027290130482e-02,-5.133145794182178423e-02,1.849984377622604370e-01
7.496672837654791977e-01,6.916532319726304001e-01,7.513639120602122468e-01,-2.812932448869963006e-02,-1.693934055959278595e-02,-2.660141081679209818e-02,9.393850713968276978e-02
7.355980454274160252e-01,6.799178094963237440e-01,7.350559020332227966e-01,-5.315014828251938238e-03,-1.400872914551127418e-02,-5.681904913761731853e-03,6.197362020611763000e-02
7.094750855802434142e-01,7.022593218717536612e-01,7.377065053362812375e-01,-3.546580313112341416e-04,5.382263720881252239e-03,-2.507014139301886550e-03,3.404306992888450623e-02
7.261306111162950661e-01,7.054959098822064512e-01,7.040634900985073275e-01,-7.265750265250805334e-03,-4.521078623033477663e-03,-5.179158648593892682e-03,2.752390131354331970e-02
7.114069025675854308e-01,6.664150141605107436e-01,7.535152634392784377e-01,-1.485365559215508918e-02,-1.189392960609998717e-02,-5.302970891458499633e-03,8.284065127372741699e-02
6.941735020934882705e-01,7.044160778108087273e-01,7.445699198331208191e-01,-8.365382952790654733e-03,-5.807523911086972558e-03,-9.854725915351620832e-03,5.225885659456253052e-02
6.937298730491084919e-01,6.959862978069379924e-01,7.531017274702986875e-01,-4.695353310409625287e-03,-3.689147582874713598e-03,-5.256675565755332055e-03,5.988327786326408386e-02
6.943000785849164913e-01,6.880728742143671361e-01,7.410292927762216486e-01,-6.696988646710159455e-03,-7.851000994220409465e-03,-3.867025820458960383e-03,5.364434048533439636e-02
7.130571207316352966e-01,7.160968931909263979e-01,7.136596083661005396e-01,-3.169401576645437314e-04,-3.208224997868010415e-04,-7.065246457736637509e-04,3.143158974125981331e-03
6.830100044466599352e-01,7.171767472331715965e-01,7.634707030144208817e-01,-2.760348721961786503e-02,-1.097088847302679811e-02,-2.089466543165955509e-02,9.406864643096923828e-02
7.080149517786454849e-01,7.088973382089437392e-01,7.226239412769039916e-01,-5.764314071729147127e-04,1.703596517964871444e-03,-1.153700164894058168e-03,1.466311793774366379e-02
6.962873911497340362e-01,7.019220566096553426e-01,7.545408172234406852e-01,-2.123412548510472155e-03,-2.721527313281421698e-03,-4.193713289181292582e-03,5.644006654620170593e-02
6.878273921787144696e-01,7.633278612586672507e-01,6.743926104146817924e-01,3.472666057009196963e-03,-8.569235196016478789e-03,6.319481045231645526e-04,8.457433432340621948e-02
6.865037133839728689e-01,7.176375844577969065e-01,7.210157843901678909e-01,8.030569296468295648e-03,4.676153871491605177e-03,-1.073673090869538618e-02,4.111943766474723816e-02
7.003310782215819152e-01,7.751934883603639470e-01,6.953512768541466604e-01,-3.424679924988971187e-03,-1.446676051250508910e-02,-3.035990915966678937e-03,8.180878311395645142e-02
8.732114373927420958e-01,1.882374354672378680e-01,8.718193782209052722e-01,-2.846494873137513440e-02,9.131849623249610817e-03,-9.315994766371286928e-02,7.049503922462463379e-01
6.864294604625145180e-01,7.635485358113183185e-01,6.764127659322514141e-01,1.650169332410380630e-03,-8.195132568807189655e-03,-1.042125454583470341e-03,8.386341482400894165e-02
7.625707672764955314e-01,6.870414312768849951e-01,6.820247255382460017e-01,-7.997269894012549313e-03,-5.576298044151114554e-03,-9.371129190498195954e-03,8.159267902374267578e-02
6.949668682191206814e-01,7.633286694268011097e-01,6.948669876589997907e-01,-1.976324968211174218e-03,-5.829728715768870122e-04,-1.717842235249201219e-03,6.856940686702728271e-02
7.535375516789903916e-01,6.874462825094626028e-01,7.060347377269563518e-01,2.665459426191058370e-03,6.566235886463192041e-03,-3.342408880908529986e-03,6.057414785027503967e-02
6.764699299612688677e-01,7.628832987847609104e-01,6.871893609683961124e-01,-1.706909766449654772e-03,-9.213358596224891991e-03,-3.088998374151468405e-03,8.335405588150024414e-02
7.657067174365395079e-01,6.756088865014791001e-01,7.024212040088831932e-01,2.470025357034406639e-03,1.084012344511992585e-03,-5.028697981416458893e-03,8.073709905147552490e-02
5.950731952881073150e-01,7.666100556846814351e-01,7.818623306118184235e-01,1.304556827589389498e-02,-6.272718773607387395e-03,1.768477251056767459e-03,1.814161986112594604e-01
6.815399718805187357e-01,7.591566492388044374e-01,6.917543353196509148e-01,2.998666874679730213e-03,-8.740833028728115309e-03,5.496813703014379916e-03,7.538371533155441284e-02
6.843891211481468728e-01,7.518765878494481081e-01,6.915928163166419340e-01,2.480929678040930467e-03,-1.009728022778669590e-02,5.217989507835392796e-03,6.727781891822814941e-02
7.037797811992584363e-01,7.671316199773652311e-01,6.980303824636492349e-01,7.353619713564744226e-03,-9.735259829044249497e-03,6.676056580735051718e-03,7.064706832170486450e-02
6.902684712779716403e-01,7.459113650414989083e-01,6.919315696505053959e-01,3.180926240520190289e-03,-8.837498120255301431e-03,5.030440463003328991e-03,5.785268172621726990e-02
7.003454711908224661e-01,7.475608467596348561e-01,6.942190886957720908e-01,7.521956175801887585e-03,-1.027949839354901432e-02,4.784636561172313576e-03,5.578087270259857178e-02
7.140382458700964552e-01,7.228137362488341600e-01,7.173549228055361437e-01,-1.002758518833563040e-02,-1.208094785706997909e-02,-1.418030103931711486e-02,3.743864595890045166e-02
7.203208080560964399e-01,6.983808544747550640e-01,7.407188459537106251e-01,-3.472896808983425444e-03,-7.201583482807893608e-03,-2.720656025857571842e-03,3.948355093598365784e-02
6.999086396904387053e-01,6.997375526449400862e-01,7.383052074962418443e-01,-1.520812628987402168e-03,-2.889925208976914552e-03,-1.592019659358206128e-03,3.899348899722099304e-02
6.907179089094864777e-01,7.171272648856936716e-01,7.458586119701579031e-01,-2.048869162404489547e-02,-1.361113657573991172e-02,-1.194451710465974786e-02,6.726725399494171143e-02
6.698955876523697839e-01,7.113157840151330680e-01,7.413320102718520266e-01,-1.035384756212208088e-02,-7.020684780002037911e-03,-1.241509254480975717e-02,6.922256946563720703e-02
7.754492549924615341e-01,6.790482174140629601e-01,7.047670513918481427e-01,6.470257985779444060e-04,-4.121810843189879954e-03,-1.133940478944801301e-02,8.895654231309890747e-02
6.881842933086694813e-01,7.135160652364082035e-01,7.448373771164192858e-01,-3.741593779836585153e-03,-4.555567701386321368e-03,-9.897170484380464830e-03,5.304967239499092102e-02
7.736938811144504768e-01,6.780334709633449863e-01,7.077926455765736202e-01,2.428670251537332590e-03,5.451638178198882703e-03,-5.036464298790589537e-03,8.586443960666656494e-02
6.942851475366426106e-01,7.201124984850511002e-01,7.234902472683627517e-01,-3.819199632184779470e-03,-3.478398082563555552e-03,-1.037569722520030428e-02,3.418656811118125916e-02
7.021442780946101081e-01,7.223021292360721768e-01,7.252377754055225889e-01,-1.370051928780596784e-02,-1.047010994441154724e-02,-1.018312945904709804e-02,4.095368087291717529e-02
6.909408242973134051e-01,7.045958407225382247e-01,7.437937513152975688e-01,-5.652775390324960361e-03,-5.453749688191642485e-03,-8.101331160340513246e-03,5.138258635997772217e-02
7.594068474490190956e-01,6.657069620174895785e-01,7.365684533380233434e-01,-7.594240155879334979e-03,-1.141956188358375125e-02,-9.829607708113358502e-03,8.952879905700683594e-02
7.884283276251248251e-01,5.762952152138749451e-01,7.625515031468308447e-01,5.121370853008138171e-03,8.316518146066122913e-03,-1.469659301718048532e-02,2.027680575847625732e-01
7.370816193698102037e-01,6.974260094800998067e-01,7.150950138253346910e-01,-2.874933787872727652e-03,-1.058315853702646199e-02,-4.280045574905226406e-03,3.999809920787811279e-02
7.084332853956447629e-01,7.150865780754166456e-01,7.223307614149170330e-01,-6.102446527004333271e-04,-2.131076846120780188e-03,-5.248318252704805946e-03,1.556657813489437103e-02
7.089709850095120558e-01,7.064692479259639946e-01,7.285502300192584491e-01,-1.504618960587176093e-03,-4.107295827220716795e-03,-1.418654590781915671e-03,2.240595221519470215e-02
7.582170349320974667e-01,6.834616042977761374e-01,7.112614131245176274e-01,-3.230483370676622782e-03,-7.896848536318258616e-03,-7.060643856338759579e-03,6.819797307252883911e-02
6.769192240541901384e-01,7.054023631255890159e-01,7.740711584379459387e-01,6.837626836807737980e-03,-6.682243925232019075e-04,-2.247105658440775536e-03,8.740333467721939087e-02
7.184241629362776438e-01,7.137992401371578977e-01,7.117470941530715800e-01,1.970928465749902884e-03,-2.152220919119498599e-04,-1.328600654146794117e-03,7.223600987344980240e-03
7.319336685948368837e-01,7.151632715336160295e-01,7.128503383036480789e-01,3.838912654640542176e-03,6.772459478210737273e-03,-4.503721306925910495e-03,2.383370697498321533e-02
7.260778781377195124e-01,7.075260344650268207e-01,7.047780906823456482e-01,4.439364309249932417e-03,1.293720280625010365e-03,-1.895025731460975174e-03,2.185451611876487732e-02
7.616160075382827355e-01,6.690826407017081978e-01,6.710597764513376307e-01,8.357477261984162104e-03,6.263509306603956203e-03,-2.983670140668088708e-02,1.066832020878791809e-01
7.067152106813423540e-01,7.010656866284611377e-01,7.270545546442693796e-01,-2.524550160168562412e-03,-6.038893443027685756e-03,-3.545546882769879012e-03,2.695832215249538422e-02
6.915060681102713769e-01,7.660266744882543444e-01,6.987180039042052426e-01,-8.390794973605899491e-04,-1.398219519326753717e-03,-3.125914177598568267e-03,7.145058363676071167e-02
7.170799307731853256e-01,7.159071777404261150e-01,7.056027145663767985e-01,-9.652500274318815549e-03,-2.964318936703225910e-03,-3.465496379828275370e-03,2.148359268903732300e-02
7.217466488528108126e-01,7.107110210001943429e-01,7.066237641972353822e-01,5.253050769635633430e-03,2.549181938773505303e-03,-1.312340559305826210e-03,1.705993898212909698e-02
7.695332324216223041e-01,5.926236152041099992e-01,7.625948266649201779e-01,-1.880724630904317268e-02,1.626315170649922023e-02,1.245173768919874240e-02,1.801039427518844604e-01
7.808097139602809822e-01,5.707348297387579983e-01,7.825541761961876119e-01,-2.690134413761448989e-02,1.055615925749336242e-02,2.277115346886289873e-02,2.203676253557205200e-01
7.435453940570103670e-01,6.437566946741475338e-01,7.464165233050565895e-01,-1.492340264625101678e-02,1.879980820548709727e-02,1.767975476113234357e-02,1.136603578925132751e-01
7.607721217012797243e-01,6.358701294426395423e-01,7.481026418925402766e-01,-7.696047738180982617e-03,1.574279655079385831e-02,1.848851795675143794e-02,1.269852370023727417e-01
7.415507139309340801e-01,6.418093416386224659e-01,7.785779198650694122e-01,-4.694593299902013322e-02,1.064069481444027132e-02,2.244307537603429728e-02,1.532155722379684448e-01
7.379581032275865926e-01,6.268316761517770397e-01,7.628766108029355619e-01,-1.758824663826510926e-02,1.574977982466347834e-02,6.368679514024077996e-03,1.324122548103332520e-01
6.943820305388135328e-01,6.963021876347530448e-01,7.674192075935259982e-01,-1.457507088547775435e-02,5.865468935076221732e-03,1.991953128130953630e-03,7.713809609413146973e-02
6.954053544280159871e-01,6.921608939954471129e-01,7.617621897521816843e-01,-1.537695823934555730e-03,3.344488416940068903e-03,9.499380125625166713e-04,6.835500150918960571e-02
7.065523903095085601e-01,7.081521666120572656e-01,7.295377746942295349e-01,1.001144924783260856e-03,8.895570068047961142e-04,-4.201614782532660415e-03,2.350440807640552521e-02
7.025129585598426374e-01,7.241860858610569274e-01,7.038999921885114031e-01,-7.913584055780386803e-03,-3.931977873849753537e-03,-5.602783037372697020e-03,2.774916775524616241e-02
6.936994607922591927e-01,6.895229656201012913e-01,7.682955636858548321e-01,-2.070074118608663562e-03,-1.485525416001204748e-04,6.013210357767187573e-04,7.686077058315277100e-02
6.924248061879074712e-01,6.816894226927705525e-01,7.648002622985571319e-01,-1.037093165164159128e-02,3.809651541956898032e-03,1.903686756425667249e-03,8.066916465759277344e-02
7.062302383225887992e-01,7.035859755443312213e-01,7.289106294485373505e-01,-4.041904877115372330e-03,6.634061892753707890e-03,2.284874568184210291e-03,2.789391390979290009e-02
7.055303445623694047e-01,6.628971668495957648e-01,7.371111571987145616e-01,-1.336234262373274008e-02,1.173870836360036730e-02,7.493729595896554511e-03,7.265564054250717163e-02
7.697075886135089640e-01,6.340471352299726915e-01,7.286832993433434158e-01,1.033225625689020849e-02,8.591830717749068900e-04,-8.353481011073344772e-03,1.226914823055267334e-01
7.773883207187898270e-01,7.095793491002059250e-01,6.185432038184962567e-01,2.594070478081391285e-03,1.203056051169052766e-02,-4.092842184097918862e-02,1.566476970911026001e-01
7.041872915693612178e-01,6.914627612419314007e-01,7.417370895329558067e-01,-5.377874474947691788e-03,8.178845485839528889e-03,6.522479694280063425e-03,4.964653030037879944e-02
7.181722185786818535e-01,6.919038604113909585e-01,7.254221649107870373e-01,-1.171234112414460890e-02,1.133911403465140931e-02,1.341646589817931112e-02,4.764766991138458252e-02
7.159442093394682294e-01,7.080519883774220036e-01,7.466030599844890592e-01,-1.855389124148356869e-02,1.102155548516987361e-02,1.492780106444874418e-02,5.753174051642417908e-02
7.723955836935075814e-01,6.367947878885560353e-01,7.297091889905031881e-01,1.197058189616722040e-03,-1.032623115782338799e-02,-1.460965051191009424e-02,1.240399628877639771e-01
7.339082753203193255e-01,6.529316231569015638e-01,7.587985440170524898e-01,7.691421445799055158e-03,1.328009086919458570e-02,-5.780643498747036965e-03,9.999538958072662354e-02
7.399197984378139692e-01,6.950203101420728835e-01,6.904593191392888185e-01,6.238444744529871890e-03,2.467122183508578537e-03,-7.442467348531689106e-03,5.042557418346405029e-02
7.694029744088194400e-01,6.350316895339852552e-01,7.615014119632571576e-01,7.099809828890328231e-03,1.134444993364271993e-02,-1.004119116789397095e-02,1.337763816118240356e-01
6.595884028327669846e-01,5.776655490320476982e-01,7.991879673348776247e-01,-2.994622614808414296e-01,-1.174153036432805386e-01,-1.638860422562531949e-01,6.546782851219177246e-01
6.308348633212099710e-01,7.323034088222969418e-01,7.605350372220657240e-01,9.339351799548945357e-03,-3.567100363691043559e-03,1.583941117192538134e-02,1.225153729319572449e-01
7.410737923529878701e-01,6.658316810809776776e-01,7.308758411792992682e-01,1.436676580675832517e-02,-2.177874933542379987e-02,9.390928017213378068e-03,8.546800911426544189e-02
6.134902526846263138e-01,7.562312989334745161e-01,7.662991031948257481e-01,1.199731367862743106e-02,-1.001318560599092668e-02,9.065242416117056876e-03,1.513029783964157104e-01
5.851758792981206492e-01,7.493250270479541175e-01,7.943385470308144125e-01,7.665833128014286346e-02,-1.122299977559833468e-02,1.301242226537881186e-02,2.342550456523895264e-01
7.540642792506904168e-01,6.929336848727619680e-01,7.012744169471377687e-01,2.133342373306660635e-03,9.469258510820199870e-03,-8.524936550605922286e-03,6.162240728735923767e-02
5.975090857329353744e-01,7.693913912123155896e-01,7.918522157912232240e-01,1.303735341147533103e-02,-6.060076173619539062e-03,6.057416933492830273e-03,1.861150264739990234e-01
7.515664975494882327e-01,6.958170599708427551e-01,6.857287799804056005e-01,8.072816389673503554e-03,2.885359442419556386e-03,-9.263671163975039508e-03,6.519296765327453613e-02
7.414697892982486938e-01,6.964572834655105016e-01,6.991623799853776688e-01,2.496643092184873663e-03,5.307816789369626878e-03,-1.631010685048003795e-03,4.497642815113067627e-02
9.368848958011605221e-01,6.753003750351282974e-01,9.718791059996433335e-01,-2.461403683025001898e-01,1.382641220144409933e-01,2.319952597092453661e-01,6.923702359199523926e-01
8.228123909713621620e-01,7.628954483528848085e-01,4.953160504464493297e-01,3.013732045441930296e-02,-5.310521730086530112e-02,6.221479398265058330e-02,3.376664221286773682e-01
5.839093632986870341e-01,7.915414242141707302e-01,7.775736705017199935e-01,-1.221823152497101585e-02,-1.396590232476840367e-02,-1.177002761685704869e-02,2.045840024948120117e-01
6.787388691133198204e-01,7.377288872534210062e-01,7.348879742131974036e-01,5.881476842187535053e-03,-5.301946752027977307e-03,1.231439298843039175e-02,6.295512616634368896e-02
7.124971541976187206e-01,6.963886547767492718e-01,7.375899777253765999e-01,-5.643210868413280588e-03,-1.077342491365705125e-02,-3.173776652214526425e-03,4.203923791646957397e-02
7.757818560781690742e-01,7.753967365204721407e-01,5.655056269767541055e-01,2.262624094429724342e-02,2.462311288778375531e-02,-2.543727365242528030e-02,2.223311811685562134e-01
7.301753714260956762e-01,7.796365601842969451e-01,5.035822551684289161e-01,2.025466729403803054e-02,-1.032271653234317910e-01,3.352879291875208306e-02,3.186993002891540527e-01
8.847698084290255283e-01,6.272125613721292181e-01,7.871216595420859052e-01,-5.782853059415789948e-02,-3.974118292232289851e-02,-1.495532667164448937e-01,3.641290366649627686e-01
7.337433751621987854e-01,7.587964008146883543e-01,6.036550380420292461e-01,1.561170312123815601e-02,-5.329218753521271917e-02,1.835855412362361744e-02,1.762730628252029419e-01
6.260315923427413054e-01,6.408074634221935240e-01,7.926028050509941192e-01,1.327573041622302774e-01,3.280892291171267489e-02,-2.325670427614786456e-02,2.884934544563293457e-01
6.645744125616404041e-01,7.003733523236513880e-01,7.363995356077679411e-01,4.172989494569682295e-02,2.181811182868478166e-02,-2.580248938463403779e-02,1.118869855999946594e-01
7.061199852923121245e-01,7.061438913071814705e-01,6.664729408819506373e-01,2.719015957320534971e-02,2.998474918100316189e-02,-3.117435884785282538e-02,9.697179496288299561e-02
7.119178562818436751e-01,7.098510515400801024e-01,7.304466243017498917e-01,8.909312263162473544e-03,7.722732287336594136e-03,-8.300136867836961641e-03,3.177433460950851440e-02
7.086788416152403070e-01,6.979875476768346854e-01,7.368337637135452534e-01,2.984481196540655044e-03,7.825896021801372060e-03,-3.720419940276607426e-03,3.820989280939102173e-02
7.196175666331715570e-01,6.739007770590398350e-01,7.427694760903551519e-01,1.032620534298864766e-02,1.531928853033972908e-02,-7.008779641251888966e-03,6.968335062265396118e-02
6.984433211311700251e-01,7.058285448483162527e-01,8.137571076842811113e-01,-6.711883621015010681e-02,-2.741004355217418684e-02,-2.350578336995526665e-02,1.729927808046340942e-01
7.667215268634016700e-01,5.754086763708545771e-01,8.104791663135548774e-01,-6.970584576855161363e-02,-2.453585663800843253e-02,-5.755380193499515240e-02,2.705675363540649414e-01
7.317373562820319588e-01,6.972384757014162826e-01,7.768995759351796648e-01,-7.483616307616532126e-02,-4.496644634123242446e-02,-4.540509230088176501e-02,1.839565485715866089e-01
6.367059869849448495e-01,7.844837216965759863e-01,7.312715676529101261e-01,-1.376264055767529790e-03,-8.785574781721386395e-03,-8.031308556252525835e-03,1.312896311283111572e-01
7.000715581362322304e-01,6.939696112200662848e-01,7.364897635845355506e-01,-3.256843947299060960e-03,-5.287355353023503318e-03,-2.788879722914146264e-03,4.153028503060340881e-02
6.829819413839101072e-01,6.058792858483770249e-01,7.477720040376215627e-01,-1.336272390626925266e-01,-5.663167709904139840e-02,-7.221815480161232481e-02,3.065527677536010742e-01
6.675700886021578295e-01,7.008554344846009698e-01,8.282674513835410757e-01,-1.594434242106204380e-01,-8.507268450042482222e-02,-1.024779216621971717e-01,3.886728286743164062e-01
7.400951698469646622e-01,6.173483578035321440e-01,7.646434142909438458e-01,1.887116623930508441e-02,-1.590993276609959858e-02,1.281042859129985501e-02,1.449230015277862549e-01
6.986143120202389367e-01,7.011211341690332111e-01,7.475482818323887502e-01,-2.496267998865021008e-03,-3.597544551608412421e-03,-3.556607897361332201e-03,4.871979355812072754e-02
7.641705242986088775e-01,6.095848561306973501e-01,7.384031490987758017e-01,-6.799914615218378977e-02,-7.189834748562461131e-02,-8.958125778487892321e-02,2.720874845981597900e-01
7.301435867876031605e-01,7.552539249476638572e-01,6.364752578163211938e-01,-1.390457063390563262e-02,-9.369637391866853307e-03,-3.694484299376977685e-03,1.124306768178939819e-01
6.926710425453718178e-01,7.162449398416397273e-01,7.358891249169188242e-01,2.048440655620879965e-03,-5.456074146710161374e-03,-1.180454246884996700e-02,4.387082159519195557e-02
7.005057408198841484e-01,7.005132736382879699e-01,7.480327784270279778e-01,1.517174369149487927e-03,4.598255629946116849e-03,-3.763876442526017767e-03,4.869598522782325745e-02
8.304270956499921752e-01,6.131709065678598858e-01,7.906561828693163818e-01,-4.869484614837432668e-02,-2.765648759930393677e-02,-6.271589589804102416e-02,2.476884275674819946e-01
7.891915972701497584e-01,6.208141198938350591e-01,7.881018148574917559e-01,6.981377182029775350e-03,-4.179252636501318285e-03,2.754743362836856169e-02,1.750538945198059082e-01
7.306512493845430667e-01,6.654008212676942868e-01,7.717631185856166365e-01,2.562607752129303015e-02,-8.485744552133508978e-03,9.498697849377686631e-03,1.052955761551856995e-01
7.106923483947215070e-01,6.786283016411973623e-01,7.655316002966415789e-01,-4.822283516182359134e-03,-5.833317738163448958e-03,-1.585955286594956375e-04,7.723817974328994751e-02
6.941743515019161981e-01,6.849484729213132228e-01,7.527369126199653371e-01,8.117899550631520883e-03,7.381513807111913031e-03,-3.430270697447202009e-03,6.671913713216781616e-02
6.055312373210421928e-01,6.287491401678505509e-01,7.624374413877972323e-01,1.279323518029235052e-01,5.056662397199192943e-02,-6.118447337276767400e-02,2.991943061351776123e-01
7.843327374255347761e-01,5.850301547754070963e-01,7.839138530981655251e-01,1.303529330788622854e-02,-1.346380849500406623e-02,1.299853386124956954e-02,2.029745727777481079e-01
7.025113133149998301e-01,7.199019990084033482e-01,7.369858514317670917e-01,3.921558725048365432e-03,3.588769977629128159e-03,-8.660322644671385531e-03,3.465791419148445129e-02
7.285577186601024380e-01,7.298094198320591586e-01,6.953927298349211750e-01,1.712344207457285397e-02,1.138297201631107390e-02,-1.402508171942393189e-02,5.478556081652641296e-02
7.040330016190988749e-01,6.745026818926764811e-01,7.663730730725638596e-01,6.080418467622782271e-03,1.200911286107617451e-03,-2.421598458060252555e-03,8.204925060272216797e-02
6.880072124138192358e-01,6.785136047630420109e-01,7.581131359127794012e-01,1.101126272186514141e-02,5.630833405146102449e-03,-1.602638882402004960e-03,7.833961397409439087e-02
7.768023200974171205e-01,5.293527608014361174e-01,7.157388059734016705e-01,1.951458874603496235e-02,-1.451350635889963638e-02,1.102052853854988274e-01,2.967488765716552734e-01
7.091395303904249880e-01,7.548460935726545307e-01,6.597410622307587902e-01,-2.861306888786074518e-02,3.781267538228324371e-02,2.478580347905091907e-02,1.239986270666122437e-01
8.015734529134711517e-01,6.083923090599308026e-01,7.484863861791309914e-01,5.185582985189542138e-03,4.350278900220950692e-03,3.072195727584494523e-02,1.812477111816406250e-01
7.610482049155284923e-01,5.842717131324561830e-01,7.810118259184770650e-01,1.382655323787704109e-02,2.519568449788227305e-03,-6.606170153728380470e-03,1.894757598638534546e-01
8.098514154614362415e-01,5.389312099756629060e-01,7.165382695921843625e-01,9.699320024332882054e-03,-1.031952834529446285e-02,1.062853863849442387e-01,3.021855950355529785e-01
7.077221247417890826e-01,6.756366954857772056e-01,7.645193607134617153e-01,7.439988491929004286e-03,-6.153185762529190216e-03,2.891676032936213903e-04,7.973494380712509155e-02
8.377570611926641320e-01,5.991007639033953946e-01,7.347301660419469638e-01,6.585532601191405877e-02,-1.199666611025149154e-02,1.066551289856062651e-01,3.009183108806610107e-01
1.044036269566403163e+00,5.403376408891293892e-01,9.506046280396925896e-01,-1.425221499351399801e-01,6.794271024875944698e-02,2.809688915538200438e-01,7.259457707405090332e-01
7.112454192976823686e-01,7.135372814123087659e-01,7.221079733126535283e-01,3.335487089167744846e-04,-1.209491102017076899e-03,3.559924747835211626e-03,1.187829114496707916e-02
7.011145952673187853e-01,7.383085108438992572e-01,7.005056148297886809e-01,2.416392937432749761e-03,3.206020232458278068e-04,1.919847620567171134e-03,3.788523748517036438e-02
7.226396024998323897e-01,6.962703191612149567e-01,7.224923900778948971e-01,4.948709492393766306e-03,6.953049630958663997e-03,-4.234088630516484077e-03,3.104456886649131775e-02
7.878121605837389296e-01,5.053893911239678571e-01,8.154011586248681720e-01,7.934171468210476919e-02,-1.492776987882098172e-02,2.019039805242777916e-02,3.302912712097167969e-01
7.591880845570466718e-01,6.306255910507785334e-01,7.591875916962642634e-01,-5.124200745867963508e-03,-1.387667616322144429e-02,-7.623312476731303883e-03,1.317537724971771240e-01
7.144330718514673162e-01,7.262902891814735362e-01,7.139833397183914521e-01,-7.245712451860731630e-03,4.605346430620507747e-03,6.406189612147130362e-03,2.214441075921058655e-02
7.942853923014330242e-01,5.818426119125711393e-01,7.658673123960242357e-01,-1.192673984050297842e-03,-9.070437585484317049e-04,-1.563639011929396014e-02,2.015999257564544678e-01
7.043705535381918903e-01,7.212799154325043594e-01,7.106515979953084150e-01,-3.136879287897307092e-03,2.705767903192747136e-03,5.692949445880212192e-03,1.918025501072406769e-02
6.656799108555518929e-01,7.323346433413565615e-01,7.393238220741332745e-01,-7.541148344832221927e-03,6.888886949077965838e-03,1.706557624916055574e-02,7.838521897792816162e-02
7.188280251986159941e-01,6.983409883607983870e-01,7.379086309793239096e-01,2.865290260161321677e-03,7.837452184756866017e-03,-3.067691402120981906e-03,3.757435455918312073e-02
7.134154421651445199e-01,7.186878327469327088e-01,7.129681440369584067e-01,-2.713699420987872573e-03,6.032016467963109956e-04,-1.414137965477147059e-04,7.321239914745092392e-03
7.719235394755561419e-01,6.917006067025148752e-01,7.488886264029567252e-01,2.538738944344527508e-03,2.122360630736696424e-02,-2.419494874715532109e-02,9.080332517623901367e-02
7.785418853102603620e-01,6.220436258484343117e-01,6.864538854497941323e-01,1.881881532002980736e-02,2.082131409536372435e-02,-6.443091724725996672e-02,1.826946884393692017e-01
7.348792543051988480e-01,6.393343830037919728e-01,7.729532459328803951e-01,1.301283662012964193e-02,1.423421958731627959e-03,-3.953345673239172346e-03,1.215614750981330872e-01
8.949104114164216917e-01,6.482579879061015626e-01,6.300189267424665118e-01,-3.020191170283526190e-03,3.504560037895937397e-02,-1.565371957458555618e-01,3.780111372470855713e-01
7.674562150014124784e-01,6.335963039211505166e-01,7.664499248198105574e-01,-3.878136387956821959e-03,-8.710787173680288251e-03,-6.590645821200306551e-03,1.348623335361480713e-01
7.962664713774090242e-01,6.419308120492767111e-01,7.345580247961289722e-01,-2.267048205105988803e-04,6.354029502841219805e-03,-1.333426308621324732e-02,1.369609385728836060e-01
7.930521233209620879e-01,5.290381688805289029e-01,7.926907803973891609e-01,3.176567819613440851e-03,-1.504128219783598848e-03,5.711413752507902598e-03,2.640890479087829590e-01
7.322938205321500860e-01,6.431471686400845877e-01,7.855025567735773873e-01,9.851607426028559725e-03,-7.142976303169976636e-03,4.435960989339389135e-03,1.265896409749984741e-01
9.206190759884850250e-01,6.789165067556754973e-01,7.627129065654790763e-01,4.026616406899042461e-02,3.014942046458689295e-02,-1.521685097207264858e-01,3.496355116367340088e-01
6.645126885248584525e-01,6.590157485881746879e-01,8.287395481583450518e-01,-2.517492111919990005e-01,-1.634245337589007863e-01,-1.131830378037070595e-01,5.801640748977661133e-01
7.857446350190187001e-01,6.466451189297808266e-01,7.138427648906418010e-01,2.853183317116248646e-03,1.741731028262243769e-02,-2.127900903548356204e-02,1.296531409025192261e-01
7.360126270219990996e-01,6.615306121098941672e-01,7.567578602650695263e-01,-9.718394162097774430e-03,-1.195058002310008492e-02,-5.268019031583886201e-03,9.120377898216247559e-02
7.275772654793268845e-01,7.059920119790319415e-01,7.015476319006023198e-01,-8.150141337622471283e-03,4.355464586692147852e-03,4.011947095692960583e-03,2.976710535585880280e-02
7.215159533628839883e-01,7.121823604031655153e-01,7.079930932771379970e-01,-5.222627013452425457e-03,2.261055525632821653e-03,2.385393102258361910e-03,1.606243290007114410e-02
7.299514869276975126e-01,7.083741256739419789e-01,7.063802225965785109e-01,-4.605530084954503542e-03,1.973407915084376702e-03,7.668024225977812264e-04,2.428293786942958832e-02
5.706641799689896599e-01,8.763406899516715809e-01,8.553807498811888399e-01,5.178222146748060611e-02,-1.215015456037476377e-01,1.883541590433602739e-02,3.753223717212677002e-01
6.191212452754294437e-01,7.659479415819180348e-01,5.827764112279817388e-01,6.405902055245563109e-02,-1.326033017720574247e-01,7.470992148163065061e-02,3.316952288150787354e-01
5.434839555339949779e-01,7.786886187580358554e-01,7.765575414054690651e-01,4.225952150366627663e-02,-5.501993215317482755e-02,1.427764368311430603e-02,2.643392980098724365e-01
4.718341226758503981e-01,8.281077288829172822e-01,8.128045799103302826e-01,3.425331517354551769e-02,-2.169602071615721675e-02,4.707300783390617333e-03,3.559655249118804932e-01
4.967075031368926030e-01,9.187991399884215538e-01,9.161718543851227192e-01,-2.106262005423933676e-03,-7.814554418233350674e-02,-8.480508445735356060e-03,4.422765374183654785e-01
6.952707529474405623e-01,6.916707812368513286e-01,7.545238444528704624e-01,-4.798793452170648996e-03,-3.972063615699955065e-03,-1.289842162170304124e-03,6.211768090724945068e-02
4.614789868754570201e-01,8.177055271769073652e-01,6.143506442974571158e-01,-1.222158726117915789e-01,-2.940701077394430873e-01,-9.986865569349406835e-02,6.557234525680541992e-01
6.757205741039609137e-01,7.442774789003709923e-01,7.216624255144097333e-01,-7.862702730586562661e-03,-1.816497136956173042e-02,-1.779981216157784998e-02,7.607191801071166992e-02
6.961903496320002160e-01,7.553131861692428117e-01,7.039656689415197954e-01,-2.848303849362602332e-03,-1.048155854966820481e-03,-4.635765850131630915e-03,5.646567046642303467e-02
5.461650110731185448e-01,8.055102523377608570e-01,8.250627402258295939e-01,-8.958614395234393117e-04,-1.029498594591925359e-01,-1.895106405863860796e-02,3.249445557594299316e-01
2.834209208114691347e-01,9.323139249934313533e-01,7.667385263984886068e-01,-3.285117188285435752e-02,-1.947298706306949401e-01,-3.097478284005584104e-03,6.768029332160949707e-01
2.730357565098054384e-01,9.013614475351019450e-01,8.988390402464677686e-01,1.202415793228459456e-01,-1.450034031600316298e-01,-3.264210758630948367e-02,7.091284990310668945e-01
7.183315710619382344e-01,6.667061034826551325e-01,7.566663617581526058e-01,2.197258469089563571e-02,-1.845928950243460459e-02,6.180426568383692691e-03,9.326847642660140991e-02
7.397430078150846189e-01,5.344220368593464165e-01,7.407716523454758173e-01,1.773373862117953725e-01,-1.176673486389573225e-01,1.901420125656675397e-01,5.354562401771545410e-01
8.926670079653341583e-01,5.128106281532411881e-01,9.431391604611349955e-01,1.943879110651034747e-01,-2.320175602386659666e-02,2.709139295824546378e-01,7.079325318336486816e-01
7.089759304421292541e-01,7.740941482747851765e-01,6.735390973624864053e-01,-5.093648823819288060e-04,-6.002356014503183734e-03,-5.998538933293554943e-04,8.895885199308395386e-02
6.962110074541746352e-01,6.890494780693524612e-01,7.627200483194285230e-01,-2.800415733180723274e-03,-7.583514054561514995e-04,-5.115402621609077809e-04,7.054845243692398071e-02
6.872081185200734632e-01,7.573263731254247233e-01,6.636688858292796311e-01,-1.030028331468768745e-04,-2.956045306261729372e-02,-2.511598658629290298e-04,9.870601445436477661e-02
6.653601810153635387e-01,7.084505385713059100e-01,7.323901124279716957e-01,1.460891985604968919e-02,4.165096463591632173e-03,-1.267215788625358601e-02,6.808453053236007690e-02
7.633734388190699383e-01,6.341814517890703717e-01,8.132619195063560680e-01,6.091164817008677679e-02,-1.352239607148986340e-02,1.959848777510456164e-02,1.961024701595306396e-01
7.424639117612957806e-01,6.349094772995715896e-01,7.601965341676473198e-01,1.882792493176532397e-02,-1.560156366468738384e-02,7.385570672440405597e-03,1.254869103431701660e-01
8.727945646702525151e-01,6.255397211147075698e-01,8.302219980019011070e-01,6.218452796727295950e-02,-4.439972464328587748e-02,1.112203178846544738e-01,3.271784484386444092e-01
7.296399881709413338e-01,6.438110130296079703e-01,7.596817731577582000e-01,4.321757923573724819e-02,-1.905977987199868051e-02,5.000961435732437232e-02,1.582515835762023926e-01
7.322140070916502985e-01,5.506389227821978372e-01,8.737359003902189780e-01,1.112891321251232440e-01,-2.052474772531770811e-02,4.901653302512683913e-02,3.525936305522918701e-01
7.015402522410237873e-01,6.995890169406500103e-01,7.453817170884169396e-01,-9.619908291441655679e-04,5.190858069428483379e-03,3.084663075265762014e-03,4.608235135674476624e-02
6.675335986761727902e-01,7.020541327410911858e-01,7.646319450186520594e-01,6.051249171935542924e-03,-4.394913738763774405e-03,1.315709192788261893e-03,8.626043051481246948e-02
7.084761837189725853e-01,7.079708154114898733e-01,7.277728313169300467e-01,-9.987266984577474957e-04,3.663485766309713346e-03,8.597134671997982850e-04,2.068431675434112549e-02
7.084546091812000679e-01,7.111727606669212554e-01,7.458659012787203224e-01,-5.461508711038238172e-03,8.256410833121332823e-03,1.078873093930188438e-02,4.414162412285804749e-02
6.799488945850038490e-01,7.537934987211554194e-01,7.075461217344152232e-01,1.877899475412199122e-03,-7.045938275156571860e-03,6.416274312934329080e-03,6.678134202957153320e-02
8.005339703559981590e-01,7.453234711756983044e-01,5.834979851618822266e-01,-3.057822204891825005e-02,4.610874785353379773e-02,6.455813232302998195e-02,2.446559667587280273e-01
7.105390804341491506e-01,7.240048227808797421e-01,7.079978629025558412e-01,1.269080825930865705e-03,1.222031950929200993e-03,1.657325314985576325e-03,1.547757536172866821e-02
7.010131951215575752e-01,7.067270891778767439e-01,7.356015942339571012e-01,-3.575884408037321473e-03,3.372538494403508162e-03,7.398192747714625074e-03,3.560974821448326111e-02
8.731655204601619369e-01,7.379131815120808513e-01,3.370346513461918159e-01,-9.451494444300580222e-02,-1.642688351430719174e-01,-2.654931022638818416e-01,7.432551980018615723e-01
7.347354357636330935e-01,7.495195596454738984e-01,3.947180262062215395e-01,-1.324548903771461672e-01,-2.504796128325515459e-01,-2.413166632099349451e-01,7.324011921882629395e-01
8.318425205964121716e-01,8.897778042841022472e-01,4.950138722705634264e-01,-4.387916836995264802e-02,-1.039889416159875818e-01,-8.289877841823325988e-02,4.417670965194702148e-01
7.275323411003161711e-01,5.962421947709759529e-01,7.749445722727799080e-01,1.406086592402493868e-02,-7.256512228834019126e-03,1.961947521071075520e-02,1.661795675754547119e-01
9.329595850038738813e-01,8.320731258458928803e-01,4.749107829153106364e-01,-3.813185309443720139e-02,-8.249297818036024910e-02,-1.190051124929790011e-01,4.909581542015075684e-01
7.830753499690877861e-01,6.206888382563695572e-01,7.904488730579639633e-01,-3.270503409472030887e-02,2.173916472045656599e-03,3.100891809702888482e-02,1.836540251970291138e-01
7.654605329045380824e-01,6.949106503205786378e-01,6.898571390585865881e-01,3.453423448662113274e-04,-5.525459197110396833e-05,-1.927412887658562848e-03,7.328615337610244751e-02
6.979966718848360507e-01,7.028261947434971679e-01,7.451523829218122952e-01,1.696095686551377059e-03,-9.747135693823200369e-04,4.958097721915722365e-03,4.587455093860626221e-02
7.158957444221104582e-01,7.144766073839480258e-01,7.121400286730745766e-01,-2.371836774008339623e-03,-9.787148351163552952e-04,-1.051063822789895111e-03,5.818432662636041641e-03
7.148823985547814175e-01,7.166464267562856483e-01,7.128143178920192113e-01,-2.267244568083745700e-03,-8.075058519346374475e-04,-9.061908157230400820e-04,5.556783638894557953e-03
7.130136487052839422e-01,7.083927487242323018e-01,7.313382768417537871e-01,-5.182672193377792225e-03,-5.871946090492700422e-03,-7.517398592181906598e-03,2.820238284766674042e-02
7.155020171343211555e-01,7.095874716290248019e-01,7.158226654079075102e-01,-3.170742305621945551e-03,-4.604946562964267603e-03,-2.486036223685505076e-03,1.221882551908493042e-02
7.152039589128612596e-01,7.173328372976206513e-01,7.165147622709232555e-01,-8.553556054780142148e-04,-1.252518705657079201e-03,3.526253470811352321e-07,3.218865720555186272e-03
6.594153892964286223e-01,7.592060430102499646e-01,7.339157461105653146e-01,5.970541528299677658e-03,-9.613072225151404748e-03,1.075049359336256206e-02,9.383460879325866699e-02
7.662893683671818668e-01,6.908921075530067846e-01,6.840867754126310762e-01,1.822456037105937756e-03,4.180972920831288204e-04,-3.179638616482260028e-03,7.927787303924560547e-02
7.659906363466093548e-01,7.855798276815270098e-01,5.373394067622484505e-01,8.050467157707606042e-03,4.540490785780407906e-02,-2.833393598285064742e-03,2.520863711833953857e-01
7.139935738881790783e-01,7.135391009703810905e-01,7.134383744353367529e-01,-4.567452753761484574e-05,-6.685853230552732569e-04,-2.226457349215066849e-03,4.059690050780773163e-03
7.897645196364230236e-01,5.389571824862380289e-01,7.954057159550816936e-01,-5.091274380423071316e-03,-8.583677624210386999e-04,-4.145850864725100955e-03,2.539341151714324951e-01
5.919501093084589272e-01,7.657245152642115915e-01,7.803728679859818218e-01,1.279062133780650527e-02,1.728621554368960523e-03,-6.911140621591367432e-03,1.833048909902572632e-01
7.027011820806643438e-01,7.012927347595568905e-01,7.645720920800201936e-01,1.175926250952291294e-02,7.839750596141592184e-03,-9.043014683236134596e-03,6.900499761104583740e-02
6.952126214503188129e-01,6.921422909831401737e-01,7.610033251937965426e-01,1.976265839468940595e-03,3.250348345025090655e-03,-1.517447103589764264e-03,6.775073707103729248e-02
6.926331869206185932e-01,6.959246558657562476e-01,7.435971689522046235e-01,7.608010625386234238e-03,4.059046334588027605e-03,-6.666971541591342788e-03,5.288509652018547058e-02
9.278156932197615392e-01,6.938931503030503212e-01,7.882781767308507659e-01,-5.110952654920403182e-02,2.228815662751703480e-02,1.497183182097408527e-01,3.436903655529022217e-01
6.982736012627540623e-01,6.968648660594182198e-01,7.439810671996527347e-01,1.181521602105435782e-02,1.032955564671574414e-02,-6.941270322843249782e-03,5.512701347470283508e-02
6.852052722507969706e-01,6.953803393121045229e-01,7.512907102523462832e-01,9.522335197741017832e-03,3.003681660575966989e-03,-7.041231338590622779e-03,6.516303122043609619e-02
7.750451354914452695e-01,7.191017996232194065e-01,6.960371502689824963e-01,-2.256891800435040923e-02,1.288111214057453130e-02,2.405474826390880186e-02,9.334708750247955322e-02
7.679795933346633685e-01,5.922081460962392851e-01,7.941646659436504274e-01,-1.226661644697807536e-02,1.183464273893754855e-03,-1.054971548506091492e-03,1.914230883121490479e-01
6.852658949859160575e-01,6.754511474196113197e-01,7.591628227572776444e-01,-2.511736468028659408e-02,1.114968795045093858e-02,1.143718756902914122e-02,9.455361217260360718e-02
7.029851578256217648e-01,6.741707651819387470e-01,7.643527396438896115e-01,-5.712100678036144061e-03,1.347658239928766584e-03,1.219576098883547394e-03,8.045069128274917603e-02
7.049660240862621885e-01,6.737922847243856816e-01,7.696763244701259055e-01,-1.642711290867688856e-01,8.995347313104766485e-02,8.249328599704558451e-02,3.644472658634185791e-01
7.900665781852835856e-01,5.871066603542411944e-01,7.867014330271137057e-01,-4.614502958803019111e-02,8.634435025912760853e-03,3.557983699251867499e-02,2.256780713796615601e-01
7.374279167885229302e-01,6.421499750747241553e-01,7.430753941091375880e-01,-1.622005447130451736e-02,1.584361664549425661e-02,1.660321371539156751e-02,1.096229478716850281e-01
7.454393997240820191e-01,6.662309525869611893e-01,7.332007073209279024e-01,-1.333747362247090715e-02,1.752265807781466442e-02,7.572639822705709046e-03,8.414977788925170898e-02
7.745876663921824612e-01,6.173278174322113232e-01,7.390046515979165065e-01,-7.635983855107181945e-03,1.477285929173705048e-02,2.707000029057751028e-02,1.530654281377792358e-01
5.913138371415950223e-01,7.926634893483850419e-01,7.648041290373799317e-01,-2.855403831174625068e-03,-1.002658144813680860e-02,-6.423952185348780729e-03,1.901531219482421875e-01
7.146675649042891765e-01,7.090036186855775968e-01,7.053818183738468361e-01,1.053857790811595085e-02,9.525283378315414426e-03,-8.404429379492716484e-03,2.971519157290458679e-02
7.281049470281283353e-01,6.386277511434017562e-01,7.731694613419959339e-01,-8.409402660127457754e-03,-9.736155155114663978e-03,2.834462887347545101e-03,1.207884922623634338e-01
7.167467110422203191e-01,7.151995506674175829e-01,7.175741115674229009e-01,4.227632481114486189e-03,1.930506814658757789e-03,-4.738312852006680218e-03,1.168385427445173264e-02
7.087824356894860678e-01,7.062432135505627429e-01,7.296869197991812106e-01,1.063216322408757969e-03,3.955634547940860626e-03,-1.202640460160640107e-03,2.347759902477264404e-02
7.110659368189229390e-01,7.131858750492893195e-01,7.158725766988897066e-01,1.313666361863796966e-03,4.369359088000623892e-04,-2.267904674730448003e-03,6.211941596120595932e-03
7.079815644473687053e-01,7.133710692956450883e-01,7.216667545225610159e-01,2.033895440624823494e-03,2.084823226372055187e-03,-5.924564684879868315e-03,1.653257012367248535e-02
7.369253595560666392e-01,7.101596530530764895e-01,7.028575800384815331e-01,8.287935301618322079e-03,3.601125172746411952e-03,-1.989334999030824801e-03,3.495732694864273071e-02
7.156747716379366908e-01,7.345355853726497353e-01,6.829782299731242956e-01,1.347877717760473035e-02,8.707693240269565385e-03,-5.067751588934596083e-03,5.376828089356422424e-02
7.068268680954714611e-01,7.268622815167610218e-01,7.032189890146314237e-01,7.773705034863591726e-03,6.625775642295138497e-03,-5.002120450530686199e-03,2.957664243876934052e-02
7.121942400351812807e-01,6.903225004739321768e-01,7.326904978989473571e-01,9.138035901889794699e-03,-1.285021290359360940e-02,6.600808829104108828e-03,4.715257510542869568e-02
7.010372223417369320e-01,7.266856861144903590e-01,7.018782127769979118e-01,3.158118890181540583e-03,5.539607126179456852e-03,-5.851882995158762778e-03,2.935468219220638275e-02
6.530293754245997118e-01,7.122784823365996276e-01,7.733344613322218342e-01,2.119130389731921013e-02,-4.031566423250066604e-04,1.377143627992566529e-03,1.104952171444892883e-01
7.092899523388369598e-01,7.448267376967409037e-01,7.069397146467973903e-01,8.554659759456333806e-03,5.882528506202944728e-03,-7.342953137452116683e-03,4.286050051450729370e-02
7.636514707193251539e-01,6.982131843808286886e-01,7.002189663480726800e-01,-4.675782387228203350e-03,5.126298735224716664e-03,1.223825654638787362e-02,6.891072541475296021e-02
7.387673298311187020e-01,7.073632201869495262e-01,7.028593124832150929e-01,-8.948717893152548578e-03,1.640196216431955489e-03,5.395942522458081064e-03,3.851756080985069275e-02
1.142040075162737311e+00,5.635853813742994767e-01,9.402683914105958163e-01,2.408094372481690490e-02,-1.026259774116184851e-03,-2.918010979911065950e-01,7.181868553161621094e-01
7.617453577221784400e-01,7.954503415569007529e-01,5.830780411667151331e-01,4.964496920957732484e-03,1.377486003756111729e-02,-4.220736429338406946e-03,1.994408071041107178e-01
7.457011386494183380e-01,7.027950609319095765e-01,6.994032635184513902e-01,-3.335838243670461670e-03,5.383561626642309689e-04,1.427153213613851883e-03,4.514784365892410278e-02
7.515537275377577320e-01,6.924095289272371723e-01,6.857019542378376409e-01,-7.075685372306826822e-03,4.121693283159595655e-03,6.291484155552430277e-03,6.526600569486618042e-02
7.360135255135819010e-01,7.864327628261140735e-01,6.277456292287536543e-01,-3.146243373837960327e-04,1.206249075529184679e-02,-5.546398985670783835e-05,1.419846415519714355e-01
7.166006132084065117e-01,7.314046069139022999e-01,7.144691598141567068e-01,8.105642993776085437e-03,5.424911053478587153e-03,-5.046288069626207046e-03,2.484036423265933990e-02
1.115488765259492920e+00,8.663492825033243250e-01,6.453315121217950701e-01,5.585252389009640744e-02,-5.251953860176887534e-02,3.498487592674811575e-01,7.421586513519287109e-01
6.838584720215590274e-01,7.159612344322962008e-01,7.612351968491806176e-01,6.051454684854048853e-03,-3.342039297384760688e-03,1.394842540943608961e-02,7.253124564886093140e-02
7.124895490464612235e-01,7.159317855042200973e-01,7.134668611741642463e-01,1.229478547591533527e-03,2.554609374314461049e-04,-1.477382691177421461e-03,4.551769234240055084e-03
7.029939152680251269e-01,7.266793968715639096e-01,7.110766024778899519e-01,4.000657195311500824e-03,3.578217358893755716e-03,-5.988346066902656452e-03,2.507781982421875000e-02
7.920925916886105700e-01,5.573166712434641790e-01,7.905357261631505983e-01,-5.044582610592314269e-03,2.785817032344002804e-03,6.385985952170136412e-03,2.344751805067062378e-01
7.958765591511669513e-01,7.806785523054677878e-01,5.715899944746976047e-01,-6.616740200307671786e-03,8.281989665049314248e-03,2.746374549095022266e-02,2.229946702718734741e-01
7.086298395303535225e-01,7.235680659994548902e-01,7.117130787718601859e-01,3.079483665530448940e-03,2.133647915576128169e-03,-4.750719721553124143e-03,1.721667498350143433e-02
7.057842993471616921e-01,7.219647044291196414e-01,7.093969221882741039e-01,3.155799293583671193e-03,-4.248090264519831759e-03,6.738843865530398658e-03,2.089628949761390686e-02
7.596315798890723725e-01,6.963353877337421505e-01,6.927474620266252936e-01,2.492955390699536783e-03,-1.011570271873215611e-03,-1.765560672360529885e-03,6.540220975875854492e-02
6.975905018482549957e-01,7.416687062770677130e-01,7.012810047166669891e-01,1.669765330519218903e-03,2.195659779539854521e-03,-4.181405712600388437e-03,4.323328286409378052e-02
7.049641736869141084e-01,7.661412225029442524e-01,7.022207296884425132e-01,1.009149515079341315e-02,1.042457409427728285e-02,-8.624702318348591995e-03,6.908458471298217773e-02
7.661630354806179266e-01,7.788755895764871706e-01,5.807903562579487255e-01,8.408997560427623448e-04,1.520886900977274324e-02,-7.464318183112267704e-03,1.942791789770126343e-01
6.913493208363156173e-01,7.595935597326691768e-01,6.956952437386427768e-01,1.871006198961645047e-03,2.094063244264672032e-03,-3.882202816124613598e-03,6.669671088457107544e-02
7.620780789208904116e-01,7.985624576199300551e-01,6.074945927083915675e-01,8.062297901453897159e-03,3.325664670027867614e-02,-7.737107643617510862e-03,1.859022676944732666e-01
7.217552544746861365e-01,7.075166013132496712e-01,7.141175972730419153e-01,-3.234774358738235454e-03,5.747306101339541562e-03,2.636720859206169269e-03,1.742601208388805389e-02
7.006536577033067870e-01,7.533004381653694015e-01,6.898048978209736504e-01,8.513587329070820484e-03,7.319025706105181973e-03,-3.340315652508204104e-03,6.222661957144737244e-02
6.830389945714254729e-01,7.145049441703801296e-01,7.651474388029245732e-01,3.028462431828488413e-02,-8.695571660572457007e-03,1.164940722394060962e-02,9.237815439701080322e-02
6.516562100098457488e-01,7.684334504775658381e-01,7.108946455821471000e-01,9.071820355962339003e-03,-1.474396211242568790e-02,1.155112161512504218e-02,1.073673442006111145e-01
7.929900433259876591e-01,6.201283345009509507e-01,7.729340456475561894e-01,-8.694579027036505869e-03,6.130901543800079852e-03,8.256337044205362338e-03,1.654102504253387451e-01
6.760981509104097009e-01,7.483842951143873101e-01,7.161394026395361267e-01,1.433134826705327602e-02,-2.791890189829483726e-02,1.559409513901534143e-02,8.728256821632385254e-02
6.451117432704501775e-01,7.602735151799163704e-01,7.572669324537200097e-01,7.300333947915862987e-03,-1.509452443605949906e-02,1.328251958722106649e-02,1.195730939507484436e-01
6.522924137809594791e-01,7.486482943102439336e-01,7.570357790372833628e-01,1.180409519285345425e-02,-1.229440112638175743e-02,1.193388295464594719e-02,1.070593670010566711e-01
6.657055060961306614e-01,7.346153538825086482e-01,7.425601224263370659e-01,3.778202664649126657e-02,-4.015771716037294659e-02,2.479857765070953013e-02,1.277671307325363159e-01
7.858060738970612524e-01,5.572006133224562952e-01,7.962528979209591018e-01,-5.045144770065356638e-03,2.588815719336668743e-03,6.386550372895101468e-03,2.344709485769271851e-01
7.082374259809756101e-01,7.736571897007925580e-01,6.802372406688710349e-01,1.845646978758126028e-03,3.815156105488365368e-02,4.259086852288446559e-04,1.061739623546600342e-01
7.679964599047082174e-01,5.835001886298226692e-01,7.912728798400793240e-01,-1.508781131793968631e-02,8.400125182549735350e-03,8.582302830135044025e-03,1.999766528606414795e-01
7.680875358424141819e-01,6.127198774918738433e-01,7.595618981167706618e-01,-1.475636459906290963e-02,1.500193599491707330e-02,1.173452485525645905e-02,1.569353640079498291e-01
6.034044981934718610e-01,7.977901983265796027e-01,7.651018706405273706e-01,2.037266723070236055e-02,-7.800066109526755664e-02,2.556863781765015067e-02,2.322905361652374268e-01
7.134114673230392834e-01,7.718767394988063080e-01,6.731259386280599166e-01,-6.278560552696610571e-03,-3.805676424469704722e-02,-8.323256189643472164e-03,1.098519861698150635e-01
6.175822349345179152e-01,7.908616915508608347e-01,7.695915727539746065e-01,-4.479171957254969409e-03,3.413132589515882609e-02,3.065140362080419952e-03,1.742863506078720093e-01
7.086938626299270627e-01,7.379174244780254410e-01,7.029762353494334315e-01,-2.010334388205591710e-03,1.743645787910011371e-03,1.303546931630704050e-03,3.286548703908920288e-02
7.279691183969579926e-01,8.284460560114116356e-01,5.199328110807800440e-01,1.053157220859284593e-01,-1.570164948459418786e-01,1.762518971285670366e-01,5.241264104843139648e-01
7.261987271858969528e-01,7.968837628023438535e-01,6.002320268729407493e-01,-6.983088639931321617e-04,-3.448902905623031645e-02,-3.826969178020745658e-03,1.827069371938705444e-01
6.886281257577429038e-01,7.946670209599161483e-01,7.188194602369211150e-01,-1.043035608369531284e-02,-3.559112548799735903e-02,-1.028696478197538983e-02,1.157511770725250244e-01
7.052923191612471276e-01,7.728782814762666931e-01,6.709995653275820926e-01,3.353514823847505988e-02,-3.494613978694847967e-02,2.069276593274304438e-02,1.279986351728439331e-01
5.311495956267429097e-01,7.084467181447421380e-01,6.858586690234185212e-01,-1.777967582715801187e-01,2.321559444672135764e-01,1.552132512592545033e-01,5.972749590873718262e-01
7.061393316209600979e-01,7.763849770751869439e-01,6.571868539902468997e-01,4.862390114172173740e-03,-2.081508966039162523e-02,8.106821451577485640e-03,1.110737994313240051e-01
7.179917321011167752e-01,6.798782472360939133e-01,7.788761030378483774e-01,-3.116498219128342045e-02,-9.655688493169539005e-03,-1.150015596451800168e-02,1.052154228091239929e-01
7.408733437467180938e-01,6.730630426508965591e-01,7.827427774779737168e-01,-4.354225906356044146e-02,-2.998235547408469384e-02,-3.896482926758160908e-02,1.487610489130020142e-01
6.922681778454808921e-01,7.635046445822484262e-01,6.890966094644134232e-01,5.620923084731405161e-04,1.918122377362376776e-03,-1.543802442423162060e-03,7.300520688295364380e-02
6.931593769642564462e-01,6.884244123467713194e-01,7.626874529461878938e-01,-1.884545806980792359e-03,1.562088819315594857e-04,1.229328790101412699e-03,7.211828976869583130e-02
6.957692759793338011e-01,6.980411211899995028e-01,7.746223775734667472e-01,1.748576343554714488e-02,4.147318845152544943e-05,2.607550395073518750e-03,8.355531096458435059e-02
7.087102624553757169e-01,6.874666927973750452e-01,7.577000130807638456e-01,6.624672784963089173e-03,-9.046251760507904860e-03,2.406921808474116013e-03,6.547170877456665039e-02
6.935548786451667391e-01,6.953828342955056252e-01,7.565205838487301104e-01,2.187586976401877797e-02,-1.301037148992974408e-02,1.732137763125018298e-02,8.183204382658004761e-02
6.887759783970651695e-01,6.941808153363370204e-01,7.679538013044051592e-01,2.548955562162297933e-03,-1.779492372050245569e-04,-3.908606167194346166e-04,7.674921303987503052e-02
6.916078783308750033e-01,6.958827218944655391e-01,7.622275680538599385e-01,1.910712418544807277e-03,-1.243785240089908097e-03,3.266907878726528058e-03,6.892850250005722046e-02
6.952429320108503008e-01,7.199089972126244685e-01,7.357172115621394282e-01,2.244339030382043812e-03,-2.723782566918148389e-03,1.069975198759442504e-02,4.036165401339530945e-02
6.912048133466143218e-01,6.770501940140559727e-01,7.641412200863346715e-01,1.305322103373646354e-02,-1.427732601138320678e-03,3.782038529446461435e-04,8.408426493406295776e-02
7.922282533797295745e-01,7.437726692389730054e-01,5.735804565799996757e-01,-3.603832136711930794e-03,1.313349625946091427e-02,5.230051189255994354e-02,2.198239266872406006e-01
7.185543077616295404e-01,7.191357219237161091e-01,7.184000273781382395e-01,3.816909089685115077e-03,4.194186174278713777e-03,-2.969289013324664678e-03,1.110772509127855301e-02
7.099093241440221913e-01,7.171670594075579830e-01,7.164201856462283358e-01,2.433261953852346865e-03,2.658896506999846188e-03,-3.062230223330820837e-03,1.071984972804784775e-02
7.117807464216592273e-01,7.171244899354280999e-01,7.149518334851661105e-01,2.004878890188003041e-03,1.327537024473850408e-03,-2.041256119522953140e-03,7.177170366048812866e-03
7.756053974326611034e-01,6.767126731065163936e-01,7.093470103998860132e-01,-3.193330426829647881e-03,4.335657670908693757e-03,6.312757911187727271e-03,8.845344185829162598e-02
7.137629472110695872e-01,7.169809821334766076e-01,7.121494835322976780e-01,2.357881189065154631e-03,1.062206560822736559e-03,-1.689077954304336708e-03,6.839137990027666092e-03
4.755919039361637402e-01,8.537784759192323936e-01,9.482426973745209375e-01,3.660054902388536480e-01,-7.480804524672771127e-03,9.277581695369591097e-02,7.845659255981445312e-01
7.166140946563381853e-01,7.172580011984786008e-01,7.099115251095161616e-01,3.888398597380904667e-03,2.607737400981978253e-03,-2.341670565449468187e-03,1.148324646055698395e-02
6.936442405957571333e-01,7.626951095815157622e-01,6.962975197234093638e-01,5.997156296596082127e-04,-2.513982817893562881e-03,3.784442407769713235e-03,6.822650879621505737e-02
6.894313258533306676e-01,7.678600342173866888e-01,6.937828384511914859e-01,-2.883133813776250125e-04,1.683326060130090323e-03,-5.197531552236018442e-04,7.640860229730606079e-02
6.930879917833434600e-01,7.659818238584660266e-01,6.862005750339282839e-01,-3.758448754223321121e-03,7.012956322656969596e-03,2.987046898704411816e-03,7.797235250473022461e-02
6.948461022868321901e-01,7.536050858108086503e-01,6.949260214509122013e-01,2.386302622133095776e-03,-7.187804939588598443e-04,1.661934996706982033e-03,5.894783884286880493e-02
6.931094690213489562e-01,7.625669357915331181e-01,6.965254286683473239e-01,-1.133634700512161633e-03,1.205228476875272806e-03,2.621562951221770646e-03,6.802628189325332642e-02
7.140151274558235173e-01,7.117384819728896916e-01,7.132295070124325953e-01,6.567487729225383311e-04,-2.454093620991237672e-03,1.098635946024199015e-03,5.195615347474813461e-03
7.621891198356196551e-01,6.389532515893749931e-01,7.314018801140310666e-01,1.193419466381408136e-03,-1.069202531345723323e-02,1.084359963411672852e-02,1.141964197158813477e-01
6.919225282557247558e-01,7.639726190382920556e-01,6.826581449401364354e-01,-1.896341020931529469e-03,8.855907579805390867e-03,1.184528269486166902e-03,7.870719581842422485e-02
8.545519575945670354e-01,8.913891818071533191e-01,3.064882835196617306e-01,-1.262860086668186367e-02,-2.153580575248466855e-01,-1.270990549810570025e-01,7.141415476799011230e-01
8.737661117559786250e-01,8.655241681666098197e-01,5.124064138671449165e-01,-8.343002992366892190e-03,-6.273169699760232365e-02,6.946159003465199842e-03,3.739382624626159668e-01
7.237254536528645588e-01,7.692004294898471262e-01,5.947608161586167563e-01,2.430376716537018325e-02,-4.481515016693504022e-02,1.419887983056992119e-02,1.815669387578964233e-01
7.885306618690430813e-01,7.972594958660969011e-01,6.088538060497417082e-01,3.025507649929921276e-03,-3.468958436526037303e-02,-7.432834291916699289e-03,1.942463368177413940e-01
7.384793465532332180e-01,7.628338394260053557e-01,6.219642842601029731e-01,1.827715873744064148e-02,-3.356286984984368366e-02,7.017498182734210194e-03,1.467510312795639038e-01
7.617499618553378316e-01,6.920248591604298838e-01,6.976901248669220568e-01,-3.394198764791626964e-05,1.607364666928981240e-03,-2.702710625622785443e-03,6.729295849800109863e-02
9.156708178312655821e-01,5.176049197408622016e-01,9.046524960088373479e-01,-1.096828904178783620e-02,1.722734702208706184e-02,-6.489431761997307979e-02,4.099718630313873291e-01
7.364891997794245082e-01,7.104425344148370680e-01,6.896611575982953823e-01,9.486241466277807455e-03,-3.255593833124303688e-03,4.320148175974651734e-03,4.482559487223625183e-02
7.519680796399970113e-01,7.845896370384735086e-01,6.165781566662322799e-01,6.315446889723456102e-03,-2.058646237013948138e-02,5.831001963222465050e-03,1.590732187032699585e-01
3.940356165592266424e-01,8.333149016107095353e-01,8.439357884027034462e-01,8.605282679782767091e-03,-4.547845008797788899e-03,-1.787289692721221249e-02,4.460797607898712158e-01
7.755630975979804775e-01,8.113092100735134204e-01,5.400415223152571498e-01,-4.104389955527257966e-03,-5.227117648428425412e-02,-5.346649660009454401e-03,2.711094021797180176e-01
8.577082064053708210e-01,8.728974345992988049e-01,4.448836920399716344e-01,2.168108407016798925e-02,-2.046856861520902036e-03,1.582022999914877576e-02,4.232007861137390137e-01
7.048198450217511013e-01,6.767616122811558332e-01,7.538911619069148529e-01,-5.700287894390663156e-03,5.792020211549325087e-03,6.003399162470812386e-03,6.984524428844451904e-02
8.116889668811684277e-01,8.137475179139532777e-01,5.268208281397561699e-01,-6.218500780056816953e-03,-7.694231950109014194e-03,9.173737228486483156e-04,2.864204049110412598e-01
6.092597817710811992e-01,7.769026889394330393e-01,7.645427593392409849e-01,-2.191063335231855508e-02,-1.382720734794008061e-02,-1.285081506897345349e-02,1.693933010101318359e-01
8.064665479312067564e-01,8.021295202240639188e-01,5.401017883912919704e-01,8.877869082671680737e-04,-1.113053339838183768e-02,7.052983440887120731e-03,2.652112841606140137e-01
8.091012781446408342e-01,8.118963953734514849e-01,5.452157395827625930e-01,-1.853980983747401112e-03,-5.807543679494151130e-03,4.603883520281791195e-04,2.655054032802581787e-01
7.877626190715975030e-01,5.423336485629417503e-01,7.956730223028680715e-01,6.405488144603019643e-03,2.628670312385016344e-03,-5.722434526367229518e-03,2.499629110097885132e-01
6.924815333732868838e-01,7.666601901771534777e-01,6.910702671802353425e-01,8.033108485441746004e-04,1.525490092514500840e-03,1.546622629397635456e-03,7.500162720680236816e-02
6.979676717572159683e-01,7.709739895415904654e-01,7.006531025618289998e-01,3.680221664967600528e-03,1.497711807016860464e-02,-8.246436613993187890e-04,7.652904838323593140e-02
6.918099051893036311e-01,7.587176623085178928e-01,6.963591111404281442e-01,7.091023467768721661e-04,2.071683727382568185e-03,-3.308657638372854148e-03,6.511675566434860229e-02
6.923863656400716104e-01,7.602387044313650977e-01,6.789630905805114081e-01,4.703948361336690934e-03,9.374691386369321186e-03,-1.247792820927793580e-03,7.765070348978042603e-02
6.954583055418075421e-01,7.401396733027301167e-01,6.964683685117493139e-01,1.292661036751351772e-02,1.371769914200595027e-02,-1.183721670871255328e-02,5.863864347338676453e-02
7.209016188578913908e-01,6.858472960428443344e-01,7.177755497854065858e-01,6.930870694627033410e-03,1.272946011702276968e-02,-4.627410044070172195e-03,4.270202293992042542e-02
7.062126617409932861e-01,7.297363536887532254e-01,7.094805770484464702e-01,1.404296592063509737e-03,1.710263889805946434e-03,-3.324242796721971639e-03,2.313034422695636749e-02
6.969644654560696040e-01,7.342615353342983875e-01,7.026937793509455688e-01,3.909639006505111029e-03,5.054812930648567432e-03,-7.077930779624847825e-03,3.850987553596496582e-02
7.623258861842839851e-01,6.899261994249276109e-01,6.931103250298497054e-01,-1.482717454588786034e-03,1.317280869956819356e-04,1.770125380896911665e-03,7.097443938255310059e-02
6.957860113159617388e-01,7.432256073706517974e-01,7.028662561889649218e-01,2.946976794117584213e-03,3.494514282104336633e-03,-7.228367234012510190e-03,4.673540219664573669e-02
7.663561564295949813e-01,7.040737762546397382e-01,6.470632089477784676e-01,3.357578875571082169e-04,3.905917337338015555e-04,1.500356401826517284e-02,1.065653339028358459e-01
7.833484496992577650e-01,7.393595083726081096e-01,6.097958425895138035e-01,3.381624482533591818e-03,1.947151597489456883e-04,2.276622721115130130e-02,1.612775921821594238e-01
6.971549831107677342e-01,7.014404968055908407e-01,7.375005936044438659e-01,6.552046061238852919e-04,2.110954931366214142e-03,2.495622989546905212e-03,3.881459683179855347e-02
7.066136569811213297e-01,7.656332376324275213e-01,6.779866246837107369e-01,-4.269845406820419777e-03,5.577257180589898465e-03,7.697975288690322496e-07,7.836060971021652222e-02
7.476469793195111846e-01,6.942775343552722855e-01,6.963846501860450067e-01,-4.654235061741614915e-03,7.431452437309912958e-03,7.250622149346228063e-03,5.593444034457206726e-02
7.610384423706468837e-01,6.962224914568964085e-01,6.922044203169859244e-01,-3.172128375990767787e-03,1.168850073321507426e-03,1.609448089514118208e-03,6.722903996706008911e-02
7.434952845714315472e-01,7.007571426877603482e-01,6.967296758576426718e-01,-4.570507991823992422e-03,8.616864988855196632e-04,1.364031509731714661e-03,4.566588997840881348e-02
7.517736138756349051e-01,6.868971414983562340e-01,6.947867771349298671e-01,-2.915934608878255774e-03,6.467878152556634681e-03,9.619482159398975302e-03,6.471446901559829712e-02
7.650886651950223882e-01,6.946448404778505781e-01,6.887714737152137445e-01,4.355891230991992298e-05,-9.162695892475014245e-04,-2.076473254628905321e-03,7.366159558296203613e-02
7.685328548061760578e-01,6.970361874896915388e-01,6.961740622617030860e-01,-4.863592230133662042e-03,2.871936449453827301e-03,1.451431712373779659e-02,7.682356238365173340e-02
7.591500010483402949e-01,6.936407448343787641e-01,6.833760640556770793e-01,-4.751324268184887838e-03,1.822871790959190719e-03,9.101348452531929020e-03,7.345376163721084595e-02
7.370532060949909203e-01,7.016828632865425019e-01,7.012948073865004073e-01,2.191029330512731920e-03,-1.940982390138644214e-03,5.315510856961405120e-04,3.593729436397552490e-02
7.339103488786463680e-01,6.835612397969064169e-01,7.327785952916756607e-01,6.298060869442487913e-03,-1.655611753298642103e-02,5.842517109586216166e-03,5.935526639223098755e-02
7.379548041430212812e-01,6.852546178133132049e-01,7.379289611653154779e-01,5.776913308647229142e-03,-1.354353964035006318e-02,5.090514685176589053e-03,5.919534713029861450e-02
7.679481113826140959e-01,6.936477443137206711e-01,6.890687939214396041e-01,-4.841304341675878829e-04,6.738538657669441122e-04,1.979841543912705219e-03,7.678250968456268311e-02
7.637191565162440021e-01,6.810493633955732040e-01,6.920619048150701280e-01,-6.137526424287023186e-04,1.605805481310497830e-03,1.074031786215404009e-02,8.000059425830841064e-02
6.778868999874662071e-01,6.778027887191111489e-01,7.562187029753668632e-01,-2.548693382486245940e-02,1.078569981704049531e-02,8.765913055174805874e-03,9.311679005622863770e-02
6.999753735362818086e-01,6.838343590975880515e-01,7.609049363134150479e-01,-8.884127004969176455e-03,8.003209356580859302e-03,3.027873522496060243e-03,7.357207685708999634e-02
7.719721971734415655e-01,6.411277832540918098e-01,7.334031081870554525e-01,2.495711746072639282e-03,-6.623911612503142511e-03,1.216932604666446163e-02,1.189784705638885498e-01
7.639897764383263290e-01,7.512761941017968015e-01,6.264227160926664206e-01,3.644348611772171842e-02,-6.608454218145097536e-02,6.966584409473813855e-02,2.213215678930282593e-01
6.838089951573792513e-01,7.216395313575301174e-01,7.516275463219350694e-01,-2.922638621479291959e-02,9.939891764805815211e-03,1.521515157599185111e-02,8.377556502819061279e-02
6.521314164423291926e-01,6.836674555763766481e-01,7.418381432715625001e-01,-5.358037303025366127e-02,3.016830367017002412e-02,3.126662306719350110e-02,1.431383192539215088e-01
7.005256942020148259e-01,6.984214342636174688e-01,7.506253066355489389e-01,-1.211772518438106010e-02,9.557800084722787790e-03,9.763281853186872236e-03,6.016942113637924194e-02
7.999316831294523977e-01,6.108897411989253623e-01,5.102159908675104605e-01,1.071267072053966041e-01,1.835230942261243392e-01,-3.219031732261494749e-01,7.150098681449890137e-01
7.889941353656224621e-01,6.045759399596448702e-01,5.035956910390871899e-01,1.907188458110074814e-01,1.752871037940398335e-01,-3.237518515407410979e-01,7.606399655342102051e-01
7.997230990899427683e-01,5.175761210870784002e-01,6.974768653241022465e-01,1.383613523156689180e-02,6.964737969839190218e-03,-1.226817184798677240e-01,3.272384405136108398e-01
8.345977344459316605e-01,7.672039828016005147e-01,7.301548455037212282e-01,8.702110518631590852e-02,9.614445266127036316e-02,-1.507595613388834910e-01,3.564352095127105713e-01
6.326049747083817287e-01,7.334833074354185634e-01,7.845798237627780169e-01,8.796502187812778664e-03,-5.484379797153859579e-03,7.778126213951457903e-03,1.358149200677871704e-01
7.590276424031207059e-01,6.615633057643515169e-01,7.392627674206762034e-01,-6.280431362095500666e-03,1.411331583012270796e-02,1.026446498549921614e-02,9.484483301639556885e-02
7.368735835448810834e-01,6.940536616087016331e-01,7.189480977362803227e-01,-2.245442759037072616e-03,1.108838961627255440e-02,3.179816881150966668e-03,4.244546964764595032e-02
7.392602188341247382e-01,6.799171423476972898e-01,7.356866404352437883e-01,-7.099999928926755896e-03,1.039246892483917245e-02,7.459879063400305828e-03,6.296422332525253296e-02
5.138670018879494261e-01,7.915425237287347926e-01,8.420283974510309744e-01,-7.631616263923736432e-02,-5.591952429874113423e-02,-7.191974041859332256e-03,3.473900258541107178e-01
7.385331882331065412e-01,6.953939919658893576e-01,7.205946452093915378e-01,2.399152138823142967e-03,-8.649787208429522700e-03,2.437180264372640261e-03,4.084692150354385376e-02
7.653617090686180013e-01,6.922042786841012818e-01,6.824759126299063672e-01,1.313852970940190129e-03,-1.202186104338324926e-03,-6.220381280914116275e-03,7.927134633064270020e-02
7.138053075633928879e-01,7.065238874030287386e-01,7.074747527702318628e-01,-1.202116656832803200e-02,-1.005720804329080474e-02,-9.275117557961789008e-03,3.228081017732620239e-02
7.306035212165306048e-01,7.111532963802784657e-01,7.074652203315585641e-01,-1.870552462541410924e-03,-2.557218847159724740e-03,-1.388889574544408282e-03,2.235059440135955811e-02
7.378843327633664018e-01,6.802692476509540898e-01,7.389943967909700095e-01,-7.103314114316481090e-03,1.102192867905394877e-02,7.467230308603849988e-03,6.377919018268585205e-02
7.131543115402801947e-01,6.748556104888637774e-01,7.346433711666481292e-01,-8.521432715006202474e-03,1.208718120527256870e-02,1.119423351169688630e-03,5.840785056352615356e-02
7.955957253289576148e-01,5.980219374324866610e-01,7.765139017078092065e-01,-1.070655248210513888e-01,-3.804850684082578677e-02,-7.329249391230142907e-02,3.007938861846923828e-01
7.039596499568127053e-01,7.375946821585512847e-01,6.974801211984225091e-01,7.625344274548561882e-03,-4.362908552963648372e-03,3.521226993255249446e-03,4.074283316731452942e-02
7.339186724009346685e-01,6.396478600618719090e-01,7.726440980766333677e-01,-1.060546001024733308e-02,9.649798815812985538e-04,7.903012631491425398e-04,1.199142038822174072e-01
7.172356967437523156e-01,7.118466449634742732e-01,7.128513692115434619e-01,-1.653117023138717676e-03,-3.042100154560671826e-03,-7.694787658498486883e-04,7.897761650383472443e-03
7.216680638947885473e-01,7.069358148172086853e-01,7.124931669027774195e-01,-2.403514637208056977e-03,-5.407423670513666035e-03,-8.890266744723824676e-04,1.653703302145004272e-02
7.223312015146298171e-01,7.068721398640014364e-01,7.119269621184297625e-01,-2.406108811996717379e-03,5.572770120443569508e-03,2.188929125492256392e-03,1.764371246099472046e-02
7.321943913479739274e-01,7.092217482288690755e-01,7.077415844166792258e-01,-4.289993001930638566e-03,1.560588815771886363e-03,6.271412455534961612e-04,2.505264058709144592e-02
7.652994227344621647e-01,6.746334692336042327e-01,7.080578970777158254e-01,-1.131819495048072685e-03,5.590785817864979542e-04,6.142222277603549656e-03,8.015616983175277710e-02
7.426964968012069734e-01,6.734041514073516588e-01,7.420774756728092392e-01,-3.139980334438361581e-02,1.889684741185799349e-02,2.850404729701003920e-02,1.059503480792045593e-01
7.573242393364048031e-01,6.596801887715177948e-01,7.307984679211179113e-01,-6.290076879603328022e-03,1.078052778006768214e-02,9.773696711062439951e-03,9.166146069765090942e-02
7.798300469369788823e-01,6.929324589993071104e-01,7.103190986858561873e-01,9.228603002940909822e-03,-8.591938924035331243e-03,3.394051172219167412e-02,1.013679876923561096e-01
7.592352435559002188e-01,6.981332003928861774e-01,7.106718390562812848e-01,-1.881093275318188041e-02,2.819773608460461600e-02,5.192546037681361470e-02,1.210792809724807739e-01
4.207307863828360639e-01,9.392492524472101367e-01,1.015928121816985108e+00,-1.214734067560957753e-01,-1.221799037122793669e-01,-5.929338508865244356e-02,6.435050368309020996e-01
8.168976257326333590e-01,1.845795250559184586e-01,9.020994260795405228e-01,-2.104001023991090569e-01,2.241107857814831142e-02,4.094011836850985214e-02,7.747901678085327148e-01
8.918192083147372662e-01,2.448487448917479603e-01,8.523371675647890555e-01,-6.315268488061014096e-02,-7.853203871323688121e-03,1.613412051480137277e-01,6.962963938713073730e-01
5.064862602568040995e-01,8.682406947781630135e-01,9.122279426981203532e-01,-1.315452385274136493e-01,-1.458733485968028050e-02,6.210758169610323921e-05,4.486251771450042725e-01
8.281400947523622769e-01,2.801123426836186758e-01,7.423355685047245967e-01,-2.203690023710188628e-01,8.064889868562201414e-02,2.674226361102006733e-01,8.002614378929138184e-01
6.954024277318329172e-01,7.001884490600698285e-01,7.331636076085439324e-01,-1.460361889078145431e-02,-1.184820320350671655e-02,-8.842516710909667857e-03,5.063194781541824341e-02
6.241342493803855307e-01,6.908986120861408953e-01,7.707781816095858884e-01,-6.013866564002255666e-02,1.469131999671567136e-02,1.252444438025985575e-02,1.677480340003967285e-01
6.682529106542410835e-01,7.123704202575382727e-01,7.571215179008137230e-01,-1.918596793358350733e-02,-5.952742826012796806e-03,-1.350235828436228622e-02,8.764059096574783325e-02
6.781738828588622647e-01,7.085205171676881575e-01,7.664652314214600581e-01,-5.554272989907587180e-03,-3.258994238391359037e-03,-7.388643053523502764e-03,7.953064888715744019e-02
6.941870680204331734e-01,6.894774964063522527e-01,7.674668032474055712e-01,-1.596425937367750318e-03,-2.961031750985013253e-04,4.772110290011082864e-06,7.579660415649414062e-02
7.116365923653905634e-01,7.043954909010775589e-01,7.394871848651132229e-01,-8.145829987906256196e-04,7.462361672949943854e-03,2.597407406631783294e-03,3.491487726569175720e-02
7.896791806715864892e-01,5.982541977040409797e-01,7.366640118309349949e-01,4.406763059747616749e-03,4.532450627150308615e-03,-3.755360509978222794e-02,1.834568381309509277e-01
8.066122362861805062e-01,5.840511579523575136e-01,7.681641291520643344e-01,-2.632941130366009842e-03,6.180724968212847857e-03,-1.478450403709145357e-02,2.079562097787857056e-01
8.024797989220777694e-01,5.490642432162093911e-01,8.282446733764023961e-01,1.248597696588267525e-02,8.356316793847367100e-03,-1.169585456794601935e-01,3.363444507122039795e-01
7.593664698698368021e-01,6.840875767217821091e-01,7.102331316510420711e-01,2.218875197893328387e-03,-9.421859219749089895e-03,7.474158790459339320e-03,6.950515508651733398e-02
7.326431441559283497e-01,7.181047959009201342e-01,6.925398695896901602e-01,1.937810546954661303e-02,-1.476430949067721911e-02,2.078357826512297613e-02,6.567312777042388916e-02
7.146367236275482648e-01,7.243050522709048034e-01,7.005295881581562467e-01,8.516021664268149521e-03,-4.119806455148230899e-03,4.974884327154711905e-03,2.777795866131782532e-02
8.968951483141069936e-01,5.823521938801997644e-01,8.652105469113142711e-01,6.472429845472148224e-02,2.048980612098738607e-02,-9.226870452023894220e-02,3.596425354480743408e-01
8.517189018891271335e-01,4.744868121191418431e-01,8.262080695582288969e-01,2.901896859129234063e-02,4.493936711197452777e-02,-4.717284592574063490e-02,3.854764997959136963e-01
7.116503298937001398e-01,7.039480437332416018e-01,7.221942298812736860e-01,4.319995728498398843e-03,-7.377331177155384972e-03,3.435951995708814901e-03,2.250312454998493195e-02
8.056970282442298403e-01,5.523793439744701939e-01,7.893492122407282929e-01,2.145457920938139904e-03,1.218921816602360365e-03,-3.114340425789742517e-02,2.514436542987823486e-01
7.521185656099792505e-01,8.159908342383449531e-01,7.287028658303923434e-01,8.973558163964126533e-02,-1.396363756456589500e-01,8.610930091692252375e-02,3.331972062587738037e-01
7.738636497817891202e-01,6.752309356552497199e-01,7.096440519767296395e-01,-3.193215234993727176e-04,-1.751796594301910977e-03,7.848338530515728412e-03,8.782207965850830078e-02
6.612663308285106067e-01,7.726597969108275343e-01,7.241543271003784144e-01,3.219510180970430735e-02,-4.168043599371094865e-02,4.124453729287229364e-02,1.509396433830261230e-01
6.892010814058107115e-01,7.826467133224949135e-01,6.876920893401090584e-01,1.160924885529571182e-01,-1.041149038636496188e-01,6.741613572304706870e-02,3.089697659015655518e-01
7.346311465836047327e-01,7.848561605318351564e-01,6.386428095765358526e-01,5.702654378659605984e-03,-1.487821095455524149e-02,4.970103449332333514e-03,1.318828165531158447e-01
7.668852011402002011e-01,6.739868830074027262e-01,7.096730336358250124e-01,9.777111294737568341e-04,-4.018265069162457043e-03,7.579189331660601825e-03,8.253517746925354004e-02
6.944430382084764153e-01,7.464502886426687134e-01,6.934153148708342984e-01,1.235916680175881167e-02,-1.477847771297179091e-02,1.467162889130646693e-02,6.721968948841094971e-02
7.317417478409771192e-01,7.703983476907805272e-01,6.440718217471954610e-01,1.353504059374941240e-02,-1.031548547545521090e-02,6.681461279575519503e-03,1.164994239807128906e-01
7.103233506219631677e-01,7.665975929420494328e-01,6.487331357661811904e-01,1.895826786630692290e-02,-1.594181967654837925e-02,1.076958633651095738e-02,1.123152375221252441e-01
7.586902472878036541e-01,6.836346544990882235e-01,7.142750804090262085e-01,-3.718537235897488233e-03,1.121488503516537664e-02,3.997304488357905465e-03,6.884171068668365479e-02
5.589698167530237072e-01,7.997972544362097480e-01,8.064133829272148724e-01,-8.985015291697751733e-03,-1.022705491554630171e-03,-3.617071052819453370e-04,2.447053194046020508e-01
7.969928262306710254e-01,7.629552265857644233e-01,5.822954440490151207e-01,5.318868349108657814e-03,7.283058017594142529e-03,-8.882642597933729928e-03,2.010632902383804321e-01
7.154960603265336783e-01,7.460690465967603213e-01,6.704465963984317378e-01,1.301691495543604721e-02,-1.124999441933532442e-02,6.943463061501271502e-03,7.330825924873352051e-02
7.364185763941278884e-01,6.927316962465678296e-01,7.120672775736803795e-01,-2.449356569275177534e-03,8.698127566444686237e-03,4.575357548454024766e-03,4.177881032228469849e-02
7.539327674763225406e-01,6.950798168501957086e-01,6.938059499272543063e-01,2.049100894572631996e-03,-4.186382997566364360e-03,2.695312908093069545e-03,6.022650003433227539e-02
6.858191530347438336e-01,7.572284035759607734e-01,6.782109090519242711e-01,-6.233731215628669602e-03,1.277301825590512231e-02,2.920436699673747537e-03,7.957436889410018921e-02
6.933321157491212361e-01,7.659392447397755932e-01,7.025627221595407423e-01,-6.481566334317200029e-03,2.030099089194212225e-02,6.637189865367711453e-03,7.862169295549392700e-02
7.212125224834133874e-01,7.609899054057974732e-01,6.566696015994752944e-01,-1.907940361093956455e-02,1.457055909064421985e-02,8.081182312691021635e-03,1.011942103505134583e-01
6.928697059536449432e-01,7.620184768104489859e-01,6.998800600920032089e-01,-5.943173929603771076e-03,2.046599232815957820e-02,4.401577323034473570e-03,7.593810558319091797e-02
6.815059468802318055e-01,6.920168645751810788e-01,7.660804264071869873e-01,7.897239706757586825e-03,6.364021188651806341e-05,-2.886819100203422486e-03,8.115712553262710571e-02
6.923883581655312369e-01,6.823844800992369120e-01,7.724090809219892328e-01,1.010966905866145064e-02,2.484876392214978389e-03,2.149520804973625767e-03,8.742374926805496216e-02
7.418318530187806292e-01,7.060358316667288969e-01,6.899014542173558251e-01,-9.746613465700257328e-03,4.729643525965714947e-03,4.433076900921716773e-03,5.030183121562004089e-02
6.795208034409158104e-01,6.912076429738398531e-01,7.636932261344017148e-01,8.562564284525460423e-03,1.485013759997178776e-03,-3.567757090301331476e-03,8.063884824514389038e-02
7.527083227494201223e-01,6.810873815965001743e-01,7.062065431417847705e-01,-2.836233562749624747e-03,6.627904849081193810e-03,5.398287047080695122e-03,6.484457105398178101e-02
7.092520837263250888e-01,7.079902305207851354e-01,7.222718847796048003e-01,-6.092859610142747689e-04,1.683255116836746912e-03,1.444032896298278476e-03,1.426204759627580643e-02
6.933261179051809497e-01,6.897324898630340373e-01,7.672780695787242422e-01,2.103562463457029925e-03,-5.342890771925343403e-04,5.015874080553712246e-05,7.590585947036743164e-02
6.801519975001856233e-01,8.999316821231958530e-01,7.758060396748549525e-01,-1.557488111841983042e-03,-1.359341825691563199e-01,-5.028173460575874679e-03,3.032283186912536621e-01
7.520801854396540476e-01,6.944403458103923787e-01,6.948914656307350057e-01,-2.325236182324972017e-03,1.437106286794547589e-03,8.730643002373014933e-04,5.763033032417297363e-02
7.121040211473567139e-01,7.168870605758881354e-01,7.080556772140420563e-01,-4.751840421163734327e-03,3.013715873145682202e-03,1.797747126714805029e-03,1.277939882129430771e-02
5.168127763462369018e-01,1.012890339603996104e+00,8.686538731929918100e-01,-1.832348295701555219e-01,-2.081393751606758491e-01,-1.001419427173714793e-01,6.753672361373901367e-01
5.676982890917562363e-01,8.116078592873484654e-01,7.959835666876334814e-01,-1.791031858650471084e-02,7.382558451335946050e-03,4.657981212648210079e-03,2.389895766973495483e-01
5.341809045157931424e-01,8.346382451635334654e-01,6.297222976160053998e-01,-1.516881492880675086e-01,-2.719382075519005126e-01,-1.695782130553825373e-01,6.692129969596862793e-01
6.606548164304770765e-01,7.529097740459224086e-01,7.090724986280070308e-01,-3.867655769893080936e-02,-5.848201603812235722e-02,-3.002151259332786620e-02,1.544034332036972046e-01
7.216689424270944508e-01,8.866075761877377781e-01,7.301243015669411918e-01,-3.710533997148073027e-02,-1.836694721246847350e-01,-5.262653072058777470e-02,3.735292851924896240e-01
5.886422457359140603e-01,7.885874047999369418e-01,7.499176394853425132e-01,-2.734950987712016224e-02,-9.285916315647667341e-02,-1.918566993396274289e-02,2.509149610996246338e-01
9.147536350401237470e-01,7.549277518841548407e-01,6.879160927664773606e-01,-1.099046016650077721e-02,2.243188196095598913e-02,1.715040521010132435e-01,3.617429137229919434e-01
8.119839104124236817e-01,7.656731495286956957e-01,6.271081615210131188e-01,2.488871869574262995e-03,1.109004077929932712e-03,6.119503980558108763e-02,1.975316852331161499e-01
7.828143152709022834e-01,7.058856199682509436e-01,6.532401401603775692e-01,3.245772613838263055e-04,9.113750831350662246e-03,2.230387232499207381e-02,1.203387081623077393e-01
7.892531408496837875e-01,7.410934125644127457e-01,6.502313908075955107e-01,-5.524986853601529697e-03,1.195044496410155831e-02,1.347818789746123465e-02,1.265549510717391968e-01
7.663601493901637252e-01,7.008154667973989227e-01,6.450246384847920789e-01,-3.730335206257678974e-05,-1.252694932921004280e-03,1.815634923034318768e-02,1.098143234848976135e-01
7.756163480155601198e-01,7.226040966439727375e-01,5.993093936476793226e-01,1.339718330681861393e-02,-7.466467263998539244e-03,3.329920627519548232e-02,1.690568625926971436e-01
7.826063498273623242e-01,7.444347497672252345e-01,6.112893167106967507e-01,-2.169205756557672417e-03,8.080449099640469451e-03,3.248179256367947354e-02,1.662598848342895508e-01
7.885865127273462560e-01,7.427360085968293113e-01,6.178388295659873464e-01,1.173692783077066133e-03,-8.065478719546201325e-03,2.802536074818509637e-02,1.611946821212768555e-01
7.185326267457390337e-01,7.422187840030005646e-01,6.747380321394792491e-01,2.351284148932111795e-02,-2.946913102961488604e-02,2.481070387967978380e-02,9.811671078205108643e-02
8.853899037516247406e-01,7.735525926711691591e-01,5.998967584506216255e-01,5.658683800299958711e-02,-8.164651064391212354e-02,1.440967341718321082e-01,3.924046456813812256e-01
7.067195617815986708e-01,7.497312907977887741e-01,7.214056374761105284e-01,3.145731476476086586e-02,-4.413894390328174794e-02,3.005476710404927920e-02,1.138301789760589600e-01
7.691530941565136725e-01,7.727533898966608694e-01,5.604844757319161763e-01,1.595208731838608507e-02,-4.276580249276025480e-02,5.806101829224981359e-02,2.463132441043853760e-01
7.668163656966300312e-01,7.707955706945648355e-01,5.649039385473545449e-01,1.855275311904659719e-02,-2.136937141479125501e-02,2.973689710308594775e-02,2.159706652164459229e-01
7.799769987538618388e-01,7.391017287050474227e-01,6.076659743162637906e-01,6.226397440208458929e-03,-1.935874456759976167e-03,2.367760424746946993e-02,1.616417318582534790e-01
8.044046813233420856e-01,7.700204373632596466e-01,5.891826499817190976e-01,4.066209518907729775e-02,-1.317879330710184510e-02,7.032419152646003646e-02,2.458053827285766602e-01
7.349132368932104198e-01,7.364142164461440210e-01,6.788225531300475790e-01,1.372799130535804456e-02,-4.542091886190757766e-03,4.441730246582971560e-03,6.260240077972412109e-02
7.865135410725867526e-01,7.701940050992399645e-01,5.664922485621509685e-01,1.111630065270376340e-02,-1.395315258471465508e-02,3.211153326545643921e-02,2.216603010892868042e-01
7.181166926705421227e-01,7.086031317414913655e-01,7.118295798755417403e-01,2.382589313678306481e-03,-3.868274243106040178e-03,2.870347283951749356e-03,1.252438873052597046e-02
7.610327171850405081e-01,6.984072341959699504e-01,6.837019238278684297e-01,-4.480110103079162215e-03,-3.722434218098438340e-03,-7.859090438543657117e-03,7.311774045228958130e-02
7.666893550240992949e-01,6.886630478573666503e-01,6.936392333912313468e-01,7.251949575861580148e-04,-3.840619898160081767e-04,3.237499928170124112e-03,7.588186860084533691e-02
7.596746367403319766e-01,7.341691531077283450e-01,6.697428495374597723e-01,-1.387379775964708330e-02,-3.361307463305359799e-03,-6.443835044719350806e-03,8.473731577396392822e-02
7.664041868381159528e-01,6.934030094825447410e-01,6.905945258648061857e-01,1.276154328746762065e-03,-8.271908947526171582e-04,-2.549389161473820421e-03,7.462250441312789917e-02
7.640523699919080647e-01,6.883287162495319578e-01,6.943293622306329071e-01,3.706536639478685575e-04,-1.015659151025108571e-03,3.396331639374756961e-03,7.316967099905014038e-02
7.636406927313849069e-01,6.984722137939408659e-01,6.932727504437806720e-01,-3.628534574570987242e-03,-8.318022336151316637e-04,-2.485302237194547421e-03,6.835868954658508301e-02
7.637714891853970567e-01,6.769921197752567510e-01,6.864546366260614318e-01,-1.989176754561407766e-03,-2.009752381370577112e-03,-8.787914400397727963e-03,8.399236202239990234e-02
7.664426585200482256e-01,7.027388497956024160e-01,6.994080618705856844e-01,-4.588525376801428149e-03,-8.260183507419301824e-03,-1.342497869511644591e-02,7.134422659873962402e-02
7.662335032625444686e-01,6.912927461112597927e-01,6.967863345532373520e-01,-1.078348593226659876e-03,2.604505355778721602e-03,2.125026819284773182e-03,7.260846346616744995e-02
7.536525835968114206e-01,7.003686517253823185e-01,6.973534171302925300e-01,-6.227334403856477074e-03,-1.024937299313827613e-02,-1.443887807145046061e-02,6.376413255929946899e-02
7.523502587965377186e-01,6.972460084599129138e-01,6.853203549665990435e-01,-4.582909066695023230e-03,-2.489393016443834476e-03,-8.187727460726450593e-03,6.417609006166458130e-02
7.453927267868531992e-01,7.022280502553543968e-01,6.988849141008928179e-01,-4.168054866282028779e-03,-1.369210629368330066e-03,-1.387281897722183674e-03,4.563098773360252380e-02
7.140565410400590007e-01,7.250173320410808753e-01,7.124080392496295877e-01,-7.961589829056769235e-03,5.428906026387893442e-03,6.051928416834643013e-03,2.300831861793994904e-02
7.547613034870434001e-01,6.963823988493959005e-01,7.029326538362314913e-01,-2.213237536487872633e-03,4.932485385274456777e-03,1.649043529572164542e-03,5.625341832637786865e-02
7.027147001134524951e-01,7.263629600546419596e-01,7.003619756689050124e-01,-8.685311568759450374e-03,5.165664184801113147e-03,2.653730851859902040e-03,3.078792616724967957e-02
7.379575743695637735e-01,7.043640213403353778e-01,7.093161852693660174e-01,-2.002731520968959594e-03,4.821905786139895830e-03,6.422274235461530000e-04,3.270645812153816223e-02
7.128294893479301120e-01,7.223370727500519894e-01,7.077931372779074914e-01,-5.330627913413063176e-03,2.011961205286026070e-03,1.784428818092153712e-03,1.644949242472648621e-02
7.070095858900071750e-01,7.278479725611195494e-01,7.058088078022379808e-01,-4.919805375666315081e-03,6.582844709646712075e-04,9.121942164745823608e-04,2.317568287253379822e-02
8.669034547470974017e-01,2.402080575407661289e-01,1.043578301943006270e+00,3.886971301423509245e-02,5.302052242436049861e-02,1.560473010309073871e-01,7.878456711769104004e-01
7.127308979034813197e-01,7.543913287949834956e-01,6.816579100459533302e-01,-8.925289236498932730e-03,5.411784471291350776e-03,2.204744860324504580e-03,6.585638225078582764e-02
7.092052494897065351e-01,7.070315145112683330e-01,7.319331510378925820e-01,6.462857652226631448e-04,-3.880871086213976209e-03,8.191225525738774242e-04,2.488245256245136261e-02
7.136814699981137711e-01,7.098551857625684525e-01,7.311509529716373468e-01,8.434033000852611886e-03,-8.513925230529325108e-03,8.236736056165936196e-03,3.195399045944213867e-02
7.141442446153589696e-01,7.166875064192238520e-01,7.160502399131997153e-01,-1.289677622529949823e-03,8.132004605280149538e-04,-3.451627492567932527e-07,3.496747696772217751e-03
7.092073225864808927e-01,7.057829234650748740e-01,7.155315230909486957e-01,4.917243479792186844e-03,-4.614406379304820775e-03,2.201630639474076549e-03,1.497785840183496475e-02
7.160841086938557476e-01,7.165178254649602341e-01,7.269350076525840088e-01,5.236122566021017555e-03,-8.934827925313523073e-03,7.940482211952232250e-03,2.498243562877178192e-02
7.111606809474223523e-01,7.151549035550646138e-01,7.189154730181591679e-01,5.880269775051657870e-03,-4.682784887635447514e-03,6.202461320449612417e-03,1.816716790199279785e-02
7.083752805571345013e-01,7.455883283126859551e-01,7.133281162951441434e-01,-7.806726576118010880e-03,8.966667008543200215e-03,7.305176922299477273e-03,4.253429919481277466e-02
6.981340693080075877e-01,7.407909739765318191e-01,6.971703198360252873e-01,-5.299707316946165349e-03,1.203033792810364504e-03,2.411520034329681355e-03,4.435876011848449707e-02
7.041877224171513294e-01,7.415646795474599706e-01,6.943205480907144178e-01,-7.872784376399072359e-03,3.979734169768506941e-03,3.317941160602796719e-03,4.614852368831634521e-02
7.115761397870997707e-01,7.225646785994274124e-01,7.008336277489677357e-01,-7.986359445829184500e-03,4.673290603123630114e-03,3.978179045416303621e-03,2.566196583211421967e-02
7.000976008893293745e-01,7.269770002930330266e-01,7.081051070118702384e-01,-3.702483900894629198e-03,5.654090324847412495e-03,7.738237701600245155e-03,2.980029582977294922e-02
6.962381311706461462e-01,7.409648637879093780e-01,7.013250462745727054e-01,-2.730050963985262199e-03,1.773341315067332143e-03,5.038066611954959695e-03,4.366664960980415344e-02
5.938955740521103532e-01,7.364025893332006856e-01,7.420732256262887461e-01,7.034876117696886588e-02,5.261431648969245450e-02,-2.792275209634271366e-02,2.159610986709594727e-01
8.022486464791465099e-01,6.366761547655470643e-01,7.905288835972437145e-01,1.151120502537690826e-01,9.843203206386105797e-02,-1.410959117264306562e-01,3.926248252391815186e-01
6.681184282016155995e-01,7.488472745884916515e-01,7.454687010728876517e-01,3.001561884631806856e-02,2.180271889601805707e-02,-2.111524558999756593e-02,1.082693934440612793e-01
7.246643577163407457e-01,6.830313194812313027e-01,7.448156181091233341e-01,2.509664536945991481e-02,1.508132285965395857e-02,-1.274190290931240081e-02,7.769989222288131714e-02
6.128442100411368720e-01,7.314763717664958254e-01,7.590792003248864050e-01,2.707065976080875666e-02,9.804712972460554940e-03,-1.906013524035260129e-02,1.472644358873367310e-01
6.542632739572443734e-01,7.286293921566543430e-01,7.636977155043277454e-01,1.035552235841747520e-02,6.890847937457686423e-03,-1.169479448748777725e-02,1.012050807476043701e-01
6.536806977621585357e-01,7.073932833333519410e-01,7.591035296077273120e-01,1.633678109537606629e-02,7.960436716923920825e-03,-1.569358815562029927e-02,1.003300845623016357e-01
7.631475863893377731e-01,6.921365720865286786e-01,6.800303588756114737e-01,1.875155869852640099e-03,5.890438499652775545e-04,-6.329265026115343112e-03,7.861658185720443726e-02
6.497740031227628998e-01,6.918795584127972464e-01,7.540990005260240769e-01,1.911914818758209123e-02,5.482353941564060799e-03,-9.071504366627007598e-03,9.847635030746459961e-02
6.683888765235583840e-01,7.059025034771981844e-01,7.397102701967206428e-01,1.260288840036127844e-02,7.274508551967829792e-03,-1.368406115209630861e-02,7.082021981477737427e-02
9.189141967603710048e-01,7.180764797273883060e-01,7.294845209748204162e-01,6.921488163550248984e-02,-4.326055940228362012e-02,1.893696919526833278e-01,4.071166217327117920e-01
7.816648454032338877e-01,5.291651705442295128e-01,7.393905033452452535e-01,1.472467427181461258e-02,-1.238592939110530998e-02,9.931847958819170485e-02,2.925271093845367432e-01
6.054626092975686769e-01,7.671773333245847093e-01,7.974178430434496478e-01,-1.424739505917407834e-02,1.768109866668825811e-03,-3.788421561535387349e-03,1.806041896343231201e-01
7.909179362313637496e-01,6.271426528678595291e-01,7.471910904630166828e-01,1.085468445806958386e-02,6.073228671777321664e-04,5.722107134737992179e-02,1.781862378120422363e-01
8.890521413200911383e-01,6.014307891352705937e-01,7.348141783545799610e-01,6.787703782914328299e-02,-8.628988561597684959e-02,1.336350840682234142e-01,3.897280693054199219e-01
8.238135370483584685e-01,6.550147784347515323e-01,7.103993463237664452e-01,7.504453916611280272e-03,-8.293810992936767948e-03,9.166197832282793612e-02,2.186153978109359741e-01
7.681481763187709699e-01,7.746717985477040713e-01,5.971323128279836245e-01,-1.502749633593630958e-02,2.404589455988852265e-02,3.172518057943343739e-02,1.893044561147689819e-01
8.238234447495703661e-01,8.055752477401046940e-01,5.975255458589157076e-01,2.308340400135959827e-03,7.961935583551607576e-02,1.282279393499934916e-01,3.402574360370635986e-01
7.251274233650460976e-01,7.760647609153215054e-01,6.189299893654380824e-01,-5.174269664854450751e-02,1.015544080800371146e-01,7.572661574357246461e-02,2.746949195861816406e-01
7.657498412738011906e-01,7.459001000497827993e-01,6.204692822651075579e-01,-1.488497218449583853e-02,1.109300839099086958e-02,1.711293202531656218e-02,1.432797312736511230e-01
7.115704201225971914e-01,7.247632820801696019e-01,7.162588455955305466e-01,2.062427364998150117e-03,7.000421092296078927e-04,-3.295211379039133127e-03,1.345308311283588409e-02
7.597404051979610440e-01,6.826172281096262173e-01,6.879693168900231637e-01,3.243282630056762948e-03,-4.465251913036281939e-03,9.121102164609606183e-03,7.684279233217239380e-02
6.941912978359799924e-01,6.942570822383929974e-01,7.529259079925693099e-01,2.569681059112024178e-03,4.042664220071920389e-03,-2.039615224170753405e-03,5.939035490155220032e-02
7.633193292060731494e-01,6.968722893615810765e-01,6.927617536418572142e-01,3.475813753489044935e-03,-1.915585383634648168e-03,1.717241167948648905e-03,6.900244951248168945e-02
7.630645665018307433e-01,6.933591432721917247e-01,6.956125968414677008e-01,1.854001971625933226e-03,-3.443159770946908199e-03,1.465593015987753933e-03,6.898672133684158325e-02
7.242915152508339061e-01,7.081631163411010732e-01,7.087356701702678397e-01,1.696161893296370968e-03,1.374265420984825941e-03,1.398424994565632324e-04,1.629644446074962616e-02
7.141356796922788686e-01,7.134450586551989160e-01,7.139795089085688717e-01,9.506801812804974204e-04,1.778983486698885877e-03,-7.850199926130416476e-04,3.801050595939159393e-03
7.677331659524864182e-01,6.902108099839151523e-01,6.944853466701437217e-01,1.258009635843597321e-04,-6.469644825038471875e-04,1.901747376208688840e-03,7.555638998746871948e-02
7.014142979785021881e-01,7.739045624311484683e-01,6.966766014749038449e-01,-2.987890367862728117e-03,-1.315933468514746997e-02,-4.906374220040075375e-03,7.898876816034317017e-02
6.985324545086778469e-01,7.606488381809535237e-01,6.939350644707921179e-01,-6.888717144031053508e-03,-1.329945955826985528e-02,-3.031265547723015815e-03,6.975464522838592529e-02
6.793857998373544760e-01,7.625021721437720279e-01,6.897802690667047543e-01,-1.321069772827256419e-03,-9.256321547325420743e-03,-3.846999829870941748e-03,8.036851137876510620e-02
6.944142349134065917e-01,7.608142831703985642e-01,6.946764083599717976e-01,-2.295127291634261116e-03,-9.961781279253937096e-04,-1.480319617429402216e-03,6.646037101745605469e-02
7.049724777765626893e-01,7.062373577626680499e-01,7.334987257299807606e-01,-9.957079944893415871e-03,8.897758854170849038e-03,9.298517988298728512e-03,3.966853022575378418e-02
7.139271938204028167e-01,7.091879030939238771e-01,7.318647859738137695e-01,-6.483669960989302088e-03,7.004088513400646109e-03,7.440263213442896949e-03,2.947181276977062225e-02
7.440717383434445331e-01,7.058232003944716615e-01,7.175388608737057750e-01,2.237548337786821745e-03,1.508790057605387085e-02,-1.506623503949729159e-02,5.030933022499084473e-02
6.970863313912518677e-01,7.014792554943992675e-01,7.485355058601600442e-01,-1.024602420408570911e-03,1.250015142369457740e-03,4.658789907728719433e-03,5.013235658407211304e-02
7.613800117207313312e-01,6.841102312675653163e-01,6.922703034583117532e-01,-1.408172918412290515e-03,-6.474358331804070700e-03,-9.132338841781870165e-03,7.608270645141601562e-02
7.008595173297326175e-01,7.064749916027258658e-01,7.290339165809458510e-01,-4.205728404416481797e-03,4.997487019151621371e-03,7.475179957645793592e-03,3.102808073163032532e-02
6.970723426828275837e-01,7.065347581612360095e-01,7.371840867861602087e-01,-2.587945342880042850e-03,3.794433019816980789e-03,7.673188076479993402e-03,3.948232904076576233e-02
7.139826536560129888e-01,7.162336138831293386e-01,7.131314618818090922e-01,1.770870119555102923e-03,6.897151710399059043e-04,-9.721923815756415045e-04,4.623622633516788483e-03
7.362593360130738063e-01,7.027673584051026268e-01,7.037801752887274942e-01,1.888162723086479668e-03,1.590154293611068925e-03,1.095642097397544644e-03,3.332716226577758789e-02
7.189461919272818191e-01,7.120427917500452564e-01,7.148140158422837676e-01,5.291290831465787423e-04,1.866684158555172212e-03,-1.065481997288938998e-03,7.134771440178155899e-03
7.157158267270798957e-01,7.133320165993976003e-01,7.144730605262973322e-01,3.114828379307111152e-04,5.231606910110833675e-04,-1.535934616877554818e-04,2.333972835913300514e-03
7.142729751492682411e-01,7.155885276541050777e-01,7.163829308256999262e-01,1.240653444728706317e-03,9.336441551722929506e-04,3.811565266578855179e-07,3.261835547164082527e-03
7.130203384513251752e-01,7.169087122955758451e-01,7.087055496919120179e-01,4.055807987697897243e-03,3.209579345808683936e-03,-2.032996653236331802e-03,1.196522172540426254e-02
7.168579298456984050e-01,7.111941133320476283e-01,7.123628235717315293e-01,3.729287399524617783e-03,5.924566728130143019e-03,-1.756691767110748949e-03,1.353172026574611664e-02
6.311010960272236403e-01,7.056563120279191192e-01,8.072486017281973458e-01,6.830662240828179466e-02,-9.942446110865282849e-03,-1.391685112385096859e-02,1.957771331071853638e-01
7.362772860223945059e-01,7.199019158034601906e-01,7.003854506680431413e-01,9.587563073636168678e-03,4.156286320731211910e-03,-3.553001926856272363e-03,3.652525320649147034e-02
7.383466027848902824e-01,6.068460584869912466e-01,7.563034959046200933e-01,2.398979790518613112e-02,2.461133786923760947e-02,-2.030391319102300279e-02,1.573423594236373901e-01
7.073631269236342334e-01,7.154216898943259739e-01,7.104014674223260162e-01,1.659764343292891063e-03,3.383893606907874448e-03,-2.644591425772959813e-03,1.064356788992881775e-02
7.010269030580378313e-01,7.070817006481471267e-01,7.451569244304945272e-01,-8.467997848334503017e-03,9.906826167212284470e-03,8.837233734706673866e-03,4.960612580180168152e-02
7.832317596255731207e-01,7.876044017698404787e-01,5.579537987625884377e-01,-3.139915244091544787e-03,-3.888727139478514484e-03,-4.090991825072456956e-03,2.277707010507583618e-01
6.988918878438398208e-01,6.990925416360453948e-01,7.650192886334955533e-01,-1.416849465643811069e-02,8.475683650037878908e-03,7.118037284681087533e-03,7.300242781639099121e-02
6.870792123370442761e-01,6.974532874103787083e-01,7.538326213987878166e-01,-6.131602330093832362e-03,3.323749546310034945e-03,7.075529599679442928e-03,6.455428153276443481e-02
6.928999723685211887e-01,6.969449111425733978e-01,7.639647554607593705e-01,-1.824984711022269472e-03,1.048887867855972933e-03,3.404189601920726976e-03,6.947784125804901123e-02
8.113376319856109298e-01,5.183187928378535370e-01,7.828122073501190270e-01,1.021555351183150648e-02,-9.725311737431413181e-03,-5.562914381725828084e-02,2.969779074192047119e-01
7.057689861645970453e-01,7.373974922542155808e-01,7.099548600820906330e-01,-2.456139790797091417e-03,-3.060811310635748548e-03,-1.892198898714292105e-03,3.069911710917949677e-02
7.225120634370968409e-01,7.101895597550935690e-01,7.015086696893590990e-01,-6.630280066165137286e-03,4.429622860450512303e-03,4.635913339617859195e-03,2.427743561565876007e-02
7.453657949958727436e-01,7.098954371191155133e-01,7.065753356749649994e-01,-9.280623359675345060e-03,8.403052941264740894e-03,6.018548384176539839e-03,4.433764889836311340e-02
7.610956847266707737e-01,6.944319990949295862e-01,6.913917489862015930e-01,7.934564163701366931e-05,1.489033382053876232e-03,-1.607580386425250035e-03,6.834023445844650269e-02
6.886199536104903318e-01,7.586805025213561038e-01,7.092419997601635551e-01,-2.315644306176842509e-03,-5.042462792388841333e-03,-8.355842711573295556e-03,6.473626196384429932e-02
7.468261285706008223e-01,7.012947953848782667e-01,7.043272104449628257e-01,-8.147792423757271515e-03,7.092069796727593078e-03,8.770728558833968888e-03,5.024994537234306335e-02
6.767177458535927892e-01,7.763260050684286373e-01,7.082463804572320942e-01,6.318250787322083912e-04,-8.791068830885867894e-03,-1.104959713014219745e-04,8.948983252048492432e-02
7.012264200858334684e-01,7.003728954045584931e-01,7.363678804585651605e-01,-1.782583514033763599e-03,-2.237651923859950570e-03,-5.552440494446878039e-03,3.718451038002967834e-02
5.577713569751066025e-01,7.434128747715248453e-01,8.412332554620601810e-01,-1.243839459200427461e-01,-2.608899558083189324e-02,-1.871132088336027732e-02,3.342117071151733398e-01
6.949546451617918397e-01,7.527332134429958188e-01,7.026133664008553659e-01,-1.821098321774099714e-03,-3.592567620560643740e-03,-1.924858136341877019e-03,5.490257963538169861e-02
7.370147203413390802e-01,7.067699631053219189e-01,6.986452482001423991e-01,-8.196247177633581710e-03,3.443172698561127332e-03,2.911166760956953453e-03,3.858772665262222290e-02
6.634571410060418062e-01,7.346325422909939507e-01,7.572339231931133341e-01,-6.961453967574247545e-03,-4.392934995812897668e-03,-1.310867988115988793e-02,8.890564739704132080e-02
6.395679004101788578e-01,7.835813148454626731e-01,7.344014473549612676e-01,3.006218494059526968e-03,-1.196395651251190399e-02,8.600653714928324645e-03,1.294387727975845337e-01
6.854778393536058445e-01,7.661312115099574438e-01,6.955085598684154213e-01,3.738828705668158052e-03,8.508011336949165837e-03,-4.321279832965267860e-03,7.817727327346801758e-02
6.938218355759013800e-01,7.603481722658328446e-01,6.977747603726165426e-01,5.483801847139384636e-03,1.347749561040394520e-02,-6.849091305947974280e-03,7.038664817810058594e-02
6.887990218772492845e-01,7.543640505103493821e-01,7.143639323216175452e-01,-3.165014733291457352e-03,-4.094488029346280908e-03,-8.081888007058838502e-03,5.960260704159736633e-02
6.955447621952497439e-01,7.739916492157886685e-01,6.940990215132588625e-01,2.739582040232809660e-03,1.541723380086109339e-02,-2.001798369860998111e-03,8.376770466566085815e-02
6.792003637122984161e-01,7.643682963432923971e-01,6.920442711907098809e-01,6.368389015853030818e-04,1.129843998571372632e-02,-2.637397450303157701e-03,8.203475922346115112e-02
7.405176140017850628e-01,6.923529362774648588e-01,7.062250489552113208e-01,3.871955963863259881e-03,6.529515008379158970e-03,-5.629130861127721631e-03,4.595723003149032593e-02
7.422126016766298351e-01,6.920346592421195986e-01,6.998025484712259159e-01,2.663443836430849209e-03,6.500666596184710537e-03,-6.505465481593634101e-03,4.963275417685508728e-02
7.434081262415223046e-01,7.012984592344685408e-01,6.975314101101310893e-01,4.973322318273270225e-03,2.381679422785408940e-03,-2.048455981644000268e-03,4.527528584003448486e-02
7.005794799541882334e-01,7.383249485981268068e-01,7.209877246501248393e-01,-3.479712344182875165e-03,-4.079898252480077848e-03,-7.950679402937407825e-03,3.669877350330352783e-02
6.985743084331700326e-01,7.354265838465087191e-01,7.128435236888683857e-01,-3.735336407083675488e-03,-5.679596278432582843e-03,-1.155040533269475686e-02,3.968267887830734253e-02
7.631573938462284934e-01,6.943220820245962210e-01,6.883730050164940106e-01,-6.907456346013655848e-04,-5.505086934143533974e-04,-2.094680764754554194e-03,7.210202515125274658e-02
6.595642828429155724e-01,7.619299387679376867e-01,7.354233144641454389e-01,-4.692014040999188847e-03,-8.670163886414171059e-03,-1.124480134346213418e-02,9.559737145900726318e-02
7.355963468804607164e-01,7.032415761307522217e-01,6.980590032434356162e-01,8.156725939992226504e-03,3.485217861096979401e-03,-7.638083320797613672e-03,4.065008088946342468e-02
7.020012807760858120e-01,6.940556353731134331e-01,7.733540465768329319e-01,-1.436692712856516355e-02,-2.832836424287278089e-03,-2.386869926635169000e-03,7.988546043634414673e-02
6.914735643661923392e-01,6.940574240265043882e-01,7.677518170714131562e-01,-2.023768222346415593e-03,-7.538794383486949581e-04,-4.974725973774219399e-04,7.511784136295318604e-02
7.008555075024419656e-01,6.927523052043310647e-01,7.647013335764463182e-01,-1.495261993900245424e-02,-3.300531115543859847e-03,-3.209130851213451430e-03,7.344130426645278931e-02
6.769480598349575384e-01,6.874127357468409194e-01,7.614364383141777326e-01,-1.183996934765858128e-02,-1.378392066930942978e-03,-2.415067519879077196e-03,8.250699192285537720e-02
6.830111069774870147e-01,7.729652466971136393e-01,6.932054057691470206e-01,-1.296864418899545913e-03,-9.821816223519722402e-03,1.246681500970491354e-03,8.705035597085952759e-02
6.819957493661212844e-01,7.596439424931596962e-01,6.894716058844586604e-01,2.172895230594844209e-03,-1.011948100874602088e-02,4.963736221638720240e-03,7.681103795766830444e-02
6.482330578212153194e-01,7.562238524803683859e-01,7.005636759988256301e-01,3.312296352869971254e-03,-1.686829002819864934e-02,8.409048815819603409e-03,9.923683106899261475e-02
6.269229795095101476e-01,9.041676457215299667e-01,7.132246433887614590e-01,-3.019423291504014575e-02,1.890436029207031576e-01,3.604587140497739119e-03,4.127619266510009766e-01
6.693619440043137025e-01,7.655836183808599760e-01,6.701424578236249152e-01,-5.325392705393641095e-05,3.122789414682830902e-02,4.263100535762335132e-04,1.100464239716529846e-01
7.236364106353825321e-01,7.337789421071446716e-01,7.018970323986172266e-01,-1.742325076265447553e-02,1.700539202765288457e-02,1.738482046514334967e-02,5.899931117892265320e-02
6.487114551517206840e-01,8.230854858695607623e-01,7.416028570622560379e-01,-3.181972749523481053e-02,1.610087677608844359e-01,5.834349967111249549e-03,3.220998942852020264e-01
1.074480359893321468e+00,8.657505726702878768e-01,4.258927604089861596e-01,6.933730885336360575e-03,-1.826515574562576766e-02,-1.759142802944747563e-01,6.502591967582702637e-01
6.025427999345613905e-01,7.754764443469814861e-01,7.399570092211704697e-01,1.627481766127917466e-03,2.467068073301365710e-02,-6.556496928617810450e-03,1.642802655696868896e-01
6.455005399606268401e-01,7.664881131080690801e-01,6.996387976552239651e-01,6.694104313701510281e-04,1.607089666157771046e-02,-9.215368053896948576e-04,1.086167618632316589e-01
6.459076438806981013e-01,7.894920521775122824e-01,7.346447131158002630e-01,4.719086812689319969e-04,-1.395278053832399792e-02,-2.017902101183583017e-03,1.278530955314636230e-01
7.159296575037545907e-01,7.153909261156897736e-01,7.142434874266316847e-01,2.980632321935769154e-04,-7.978230009755789059e-04,-1.456666089709107779e-04,2.112996531650424004e-03
6.048265772609010549e-01,7.782832102493707493e-01,7.420185786786250848e-01,8.567980257864749299e-05,2.180264016685742184e-02,-1.091380718978691771e-03,1.629160791635513306e-01
7.293089922894743227e-01,7.162820443433066675e-01,6.985327364818638696e-01,2.272384362510618955e-02,-1.713735173156879024e-02,2.629320384517329703e-02,7.225055247545242310e-02
7.235410367630386030e-01,7.065842839941227638e-01,7.107197061508221392e-01,1.132552163412034116e-02,-1.101672440260949987e-02,8.251120740959608582e-03,3.446244075894355774e-02
7.216117997991572386e-01,7.229372851580022630e-01,6.878870641877462555e-01,1.470460590229658027e-02,-9.097652519842286747e-03,5.623683355525262856e-03,4.664409905672073364e-02
7.237511398244149685e-01,6.950844135906334431e-01,7.179810584355751368e-01,1.747899690935196234e-03,-8.448845180059092602e-03,2.549647985955358093e-03,3.053657151758670807e-02
7.117335166784964917e-01,7.216399925171965712e-01,7.243822813336346922e-01,1.452839828328449621e-02,-1.166990518225983868e-02,1.090840340401358008e-02,3.913550451397895813e-02
7.267492688836155734e-01,7.027517676151940895e-01,7.143301504549731673e-01,5.401975781878925152e-03,-7.589570710726603782e-03,5.229400657624736284e-03,2.782939933240413666e-02
7.230248761895190501e-01,7.080209811754507587e-01,7.106306264444592902e-01,-3.755637337905181304e-03,-2.460520256351041851e-03,-2.348779996783838253e-03,1.642557419836521149e-02
7.165591716630060892e-01,7.162950872178363015e-01,7.032567403581144738e-01,-1.045240440453642713e-02,-3.000928594530208413e-03,-3.533279340924509390e-03,2.378526143729686737e-02
7.655674252323961815e-01,6.917409332419700574e-01,6.925485507439329558e-01,-4.779984058847989016e-04,2.053383963950743216e-03,-3.239809646953153120e-03,7.373061031103134155e-02
7.338675533243298466e-01,6.535446071702751825e-01,7.726717881627318540e-01,-1.069357138816746759e-02,7.312845990746157099e-03,2.727430726318477456e-03,1.077043265104293823e-01
6.964915224142079753e-01,6.975419885271330056e-01,7.750542972626764948e-01,-1.395628615043315729e-02,1.668049986618561163e-03,1.586762880165046123e-03,8.179804682731628418e-02
6.903304469491362561e-01,6.794399150465936232e-01,7.653313703324489126e-01,-7.694762556242341206e-03,3.363148588854052265e-04,-1.518324917943700584e-04,8.208884298801422119e-02
6.821522558478204656e-01,6.953827029631493017e-01,7.610116457667202017e-01,-9.286105224736176944e-03,3.927295726693030321e-03,7.420018211452284948e-03,7.629311829805374146e-02
6.937141161470204986e-01,6.930320301372253633e-01,7.630653893213009686e-01,-1.407681963329207413e-02,1.905202706799150178e-03,5.427991204005009132e-03,7.450582087039947510e-02
7.527812426652598088e-01,6.916113708906066471e-01,6.940704891393670861e-01,-1.227803603442289594e-03,-1.808705754874270375e-03,-1.388322740779560300e-03,6.014562025666236877e-02
7.392069817415652944e-01,7.092203344462203463e-01,7.014649509766135438e-01,-5.852210527750718828e-04,-2.880990037143520838e-03,-2.853874885567866167e-03,3.524577245116233826e-02
6.900707473576364048e-01,6.781187097255030327e-01,7.628788850862483484e-01,-8.469285775351076753e-03,1.764781572537891868e-03,1.014503938454836994e-03,8.088076859712600708e-02
6.960860401316085744e-01,7.755773137035867348e-01,6.958080422547485711e-01,1.294879223579018012e-03,-1.598278475408087748e-02,1.290684357045242172e-03,8.436477184295654297e-02
6.955000157680067963e-01,7.608061244244054278e-01,6.839295328103580651e-01,6.023619007676778506e-03,-8.702381132249310813e-03,3.003479500278276575e-03,7.427985221147537231e-02
7.372949975209368567e-01,6.780280649418253258e-01,7.357881313801633016e-01,-6.614159794893932458e-03,-1.540284959308082548e-02,-5.720716164233701981e-03,6.608098745346069336e-02
6.946582152419310541e-01,7.681254173964556786e-01,6.934552302163593529e-01,9.113253679213768974e-04,-1.545310201590846706e-02,-2.883118286938945313e-03,7.893719524145126343e-02
6.918881939413178417e-01,7.622323499104516342e-01,6.951507294394209113e-01,1.580955030028332025e-03,-1.720592435448857265e-03,3.555885187075041171e-03,6.916470825672149658e-02
7.376415803795333126e-01,7.179887746914715985e-01,6.921866529487364916e-01,-9.006133551686487659e-03,-2.675268432189765924e-03,-3.948452551289380330e-03,4.325089231133460999e-02
7.829121318064322654e-01,6.394957967874583815e-01,7.348513759155824721e-01,-4.724657572729108225e-03,-9.785336674386373515e-03,-9.045607581612364820e-03,1.287830621004104614e-01
6.914589559033508248e-01,7.642494652886232531e-01,6.784505850053687004e-01,1.402333510412503894e-03,-1.149670963780974678e-02,3.857562381381183939e-04,8.256773650646209717e-02
7.160153165898440752e-01,7.119974539733184837e-01,7.136607579528086998e-01,-1.567874384627471933e-03,-1.950685232222541506e-03,-9.196850519926631599e-04,5.792628508061170578e-03
7.428231181772689817e-01,7.074389216551438819e-01,7.098879593829884316e-01,-9.876076781924703063e-03,-8.213264260412710127e-03,-6.845294169638382366e-03,4.250811412930488586e-02
7.490744084808242942e-01,7.060638468915017008e-01,7.004375918048653116e-01,-8.039594609285582658e-03,-9.305773908217357046e-03,-1.030067883948938660e-02,5.381041765213012695e-02
7.242719082541129172e-01,7.009018423924394670e-01,7.100356429725568352e-01,-4.390153224181659285e-03,-6.365054371495990418e-03,-3.729792116984596926e-03,2.524331398308277130e-02
7.535855602142107479e-01,6.964156714267387693e-01,7.014184172799083905e-01,1.801059133306586292e-03,-1.807606301705657215e-03,3.661315895917273151e-03,5.538200587034225464e-02
7.185954821129266756e-01,7.186532489846718663e-01,7.148100787406642675e-01,-5.499409049094846486e-03,-5.683547949461274958e-03,-3.667231145899670346e-03,1.557355746626853943e-02
7.335766767078074624e-01,7.026990723326317356e-01,6.962082604670171149e-01,-8.594560731807369264e-03,-5.283631095787283058e-03,-5.325777599276908768e-03,3.982987999916076660e-02
4.803451013771915523e-01,8.657562812700417831e-01,8.233590671956270146e-01,-1.945383796404135390e-01,-1.440367437781605031e-01,-9.803224382332594022e-02,5.818979144096374512e-01
7.757862654188444340e-01,7.431923846169101733e-01,6.450413710565895409e-01,9.916595875467504317e-03,-2.822328082889473053e-02,5.217006912839104726e-02,1.573052108287811279e-01
7.596112513511761311e-01,7.195659416985236145e-01,6.043461869060293701e-01,1.880184859230646030e-02,-1.127178070693862777e-02,3.249173423967374047e-02,1.552483737468719482e-01
7.146288547976388239e-01,7.144963867411007197e-01,7.135214792668579387e-01,-1.371498017723261085e-03,-3.682187929198448180e-04,-3.939903384488442411e-04,2.759093651548027992e-03
7.490232864215169428e-01,7.120727100494066431e-01,6.871869806874699727e-01,1.319144819378014442e-02,-5.982672890598499972e-03,4.530090107530368795e-03,5.995975062251091003e-02
7.660417190680467447e-01,7.058210048452192575e-01,6.787133444355475387e-01,6.590477427071700020e-03,-1.771275397790626066e-03,4.396488598967111631e-03,7.868611812591552734e-02
3.973131955842184038e-01,9.304342751675466205e-01,9.580478072965208369e-01,-2.436785236011091149e-01,-9.293395997998801783e-02,-1.336675946628249068e-01,7.465593218803405762e-01
7.106630264445593648e-01,7.145550145881640614e-01,7.240727345539511584e-01,2.141413083082808859e-03,1.723575725726162952e-03,-1.129674731688723281e-03,1.301057264208793640e-02
7.100922313559027144e-01,7.206646934646208091e-01,7.077847948141137158e-01,-1.695593727159350325e-03,-1.509168741229568143e-03,-4.545250541117361667e-03,1.479636132717132568e-02
7.162378640832693932e-01,7.171190752795137957e-01,7.142675320248157433e-01,1.156143864774978200e-07,-5.061186647127469303e-04,-6.940119557993631788e-04,2.934015356004238129e-03
7.138117291551453469e-01,7.288956164641769986e-01,7.030860600790423964e-01,8.343503501351360110e-03,3.747704707538659311e-03,-3.168383201242110959e-03,2.802574448287487030e-02
7.093699944315695616e-01,7.010758902145187710e-01,7.287220278636170612e-01,5.204772750472879024e-03,8.110054388873121425e-03,-3.280903053680528283e-03,3.024371154606342316e-02
7.019075687753498771e-01,7.066345245435958766e-01,7.282082708851879138e-01,4.781749546509772401e-03,3.182190171389512930e-03,-8.857507788727665352e-03,3.039884008467197418e-02
7.087222395872795344e-01,7.069852413716015693e-01,7.206833184838666861e-01,1.369779473399061927e-03,1.524321098708738805e-03,-4.691584780292298168e-03,1.566822826862335205e-02
7.159654855614809854e-01,7.143937217246751903e-01,7.138521719971651081e-01,1.002166282900663263e-03,2.678278480775450349e-04,-2.966785139049170285e-04,2.665927167981863022e-03
5.426788719151993678e-01,7.933970764555348110e-01,7.862955399608229090e-01,-2.551717562270281337e-03,-7.566320019408266304e-03,-1.591401797069789178e-03,2.476458102464675903e-01
4.562675224935768270e-01,8.188961770318825550e-01,1.018922446906452173e+00,-3.580459182798001461e-01,-1.838506784483037171e-01,3.724591247062839644e-02,8.568552732467651367e-01
6.992682841052237919e-01,7.175835768417806459e-01,7.226728502715131786e-01,2.886539211336352530e-03,3.864101845037512615e-03,-8.716697150973394190e-03,2.742799185216426849e-02
7.063130507112505008e-01,7.366934542714427270e-01,6.963212961708302728e-01,7.557609197341244762e-03,3.968281622593062760e-03,-3.464807798870749370e-03,3.976136818528175354e-02
9.647674149916154462e-01,1.104006786065020895e+00,5.876272628902698969e-01,8.274315955038584469e-02,3.162059526932945452e-01,-1.837390762050214177e-01,7.974416017532348633e-01
7.368071453121282088e-01,7.037382499315918416e-01,7.049437974712986499e-01,-3.676199053306090665e-03,-7.758517269089026600e-03,-7.869600833450817942e-03,3.823686763644218445e-02
7.111283536665541360e-01,7.148787328139931674e-01,7.162880505537277953e-01,1.510685968796833447e-03,2.193398870491926420e-03,-2.207157778127706756e-03,7.565126754343509674e-03
7.295843054278953188e-01,7.116905740925849599e-01,7.129854868717212524e-01,7.516104688537042500e-03,6.069136058228626063e-03,-7.668429698175091569e-03,2.747880667448043823e-02
7.226694521856080744e-01,7.123121031964859684e-01,7.046581054368531438e-01,7.359194646001853031e-03,3.446637960210729729e-03,-5.489989981683005525e-03,2.310118265450000763e-02
7.743956883530030977e-01,7.076599019887972464e-01,6.808846557952360490e-01,4.051197718881982893e-03,3.020561668897996186e-03,-5.919560903090873710e-03,8.449365198612213135e-02
7.165710664926827622e-01,7.095413098797958007e-01,7.164258911893542914e-01,3.355302706195478074e-03,4.149671146372760876e-03,-2.385689634678332758e-03,1.228519529104232788e-02
7.132706968624690225e-01,7.375299066615974564e-01,6.942638357486637934e-01,8.679771954039424905e-03,2.542207594658214918e-03,-2.905230777830329191e-03,4.100714996457099915e-02
7.035710453064091263e-01,7.005535819948662812e-01,7.378008061488414704e-01,1.618033584234009753e-02,1.590930558319165675e-02,-1.523444030707315003e-02,5.937222391366958618e-02
7.052636703660252193e-01,7.114589727609866854e-01,7.226423962657201328e-01,5.516760483174704133e-03,4.284615506936897272e-03,-7.319225174509743845e-03,2.323416247963905334e-02
7.050440752115092469e-01,7.224302367054977747e-01,7.094093949694034729e-01,4.124173409020879741e-03,5.978675672819355920e-03,-7.432664146319885312e-03,2.386277541518211365e-02
7.734153530235953200e-01,7.668248453309092216e-01,6.064306149670057877e-01,-1.302030469106777930e-02,-1.761133800662624191e-02,-1.144480146708390378e-02,1.692892163991928101e-01
7.085317295129069937e-01,7.294245116215450908e-01,7.058570673602392320e-01,4.091853037650615595e-03,1.262063522493056100e-03,-6.343610092540464835e-04,2.357453480362892151e-02
6.921145020999008857e-01,7.632575221152583245e-01,6.851646382360050413e-01,9.573808977985214788e-04,-1.682454091277835878e-03,9.287665394329264190e-04,7.495260983705520630e-02
9.565724988883531621e-01,1.061138244394312258e+00,2.873266108667677510e-01,8.189703899980677049e-02,2.678477410702307087e-03,-6.150072000339939365e-02,7.485280036926269531e-01
7.102463970064685217e-01,7.243252078314661446e-01,7.092468969880753038e-01,1.848547348123222821e-03,-7.214743973594783810e-04,-8.822080520924008079e-04,1.508083287626504898e-02
7.368950381335009903e-01,7.037497676780393174e-01,7.080366556742382356e-01,-1.209336525358359121e-03,-4.484155193159282925e-03,1.957339020758359764e-04,3.224471583962440491e-02
6.815150996173733322e-01,7.755201195430834193e-01,7.109857899604629106e-01,2.921834305171539838e-03,-4.170344460364695804e-02,6.879136472686716696e-04,1.103613823652267456e-01
7.532848908665297216e-01,7.205927272587320243e-01,6.856933977237732458e-01,1.989892246272023310e-02,1.837514061467847640e-02,-3.497110975292189172e-02,9.642328321933746338e-02
5.428062117482692628e-01,9.090201891943583412e-01,8.463368283674934656e-01,-6.567050981392094818e-03,-1.012732519270217318e-01,2.919128163764350171e-03,3.821127116680145264e-01
6.990087753191007724e-01,7.141521735167465357e-01,7.372669387197144930e-01,-4.617800560971794220e-03,-3.478093276261559012e-03,-1.074620428972541432e-02,3.950135782361030579e-02
6.127365806589039066e-01,7.986130302214508037e-01,7.622738934021220381e-01,1.539516364264795515e-03,-2.999914414302685267e-02,-1.022545028396681412e-03,1.783986836671829224e-01
6.358841552190596103e-01,7.571112476488249809e-01,6.741213559196479466e-01,-2.824544145116615612e-02,-6.410342791713929955e-02,-2.433991158691602499e-02,1.673952341079711914e-01
7.729794368900472223e-01,6.434179661882483137e-01,7.277508786950112052e-01,-3.487166069647568405e-03,2.543743477425799201e-03,1.128551131055915112e-02,1.158011183142662048e-01
6.347229809181099691e-01,7.704541288443562674e-01,7.014194905382550305e-01,6.426334889675994894e-03,-2.223324867475292774e-02,8.533622381417187153e-03,1.250755339860916138e-01
6.055054178766270390e-01,7.817321011311572088e-01,7.475661030277103158e-01,-1.738188660111266316e-03,-3.329103452172833821e-02,-1.271013734896163892e-02,1.732650697231292725e-01
7.834011265027944759e-01,7.677438064058694778e-01,6.025578343359907496e-01,-6.371669291143977794e-03,-6.254819048285419070e-03,-1.278274387885047943e-02,1.756339520215988159e-01
7.205319430076472242e-01,7.001197265610948905e-01,7.313533568574481780e-01,-1.623156445432513348e-02,-1.322056239305109508e-02,-1.109685552318127530e-02,4.938432946801185608e-02
6.964626667212744371e-01,7.775771225773744355e-01,7.034137549353400853e-01,-4.592448089620493161e-03,2.026764671177805344e-02,3.187336316996989671e-03,8.596581220626831055e-02
7.035838211096880901e-01,7.645474597611311429e-01,7.025052532968293351e-01,-1.051476129896330297e-02,1.700751503062583603e-02,1.158090986567444566e-02,7.338447868824005127e-02
6.914502353643088295e-01,7.618863458505643615e-01,6.968754806318352424e-01,-1.581418514594417008e-03,1.640055078245077807e-03,2.699512973392069037e-03,6.816142797470092773e-02
6.886129737939066242e-01,7.633991730369595885e-01,6.924377302980974092e-01,-1.065717622435547428e-03,6.190426120917081427e-04,3.539062349416615804e-04,7.298286259174346924e-02
7.862428740395022153e-01,7.953549042669131319e-01,5.600327530665234477e-01,5.365565525696826005e-04,-3.943105732962567944e-03,-4.366626821708282334e-03,2.311276495456695557e-01
6.796255339609322821e-01,7.737337116915521396e-01,6.975489019637944876e-01,1.306636915483641494e-03,8.220234033332021045e-03,3.695343706715782921e-03,8.797537535429000854e-02
6.932714526637835384e-01,7.692677177270069722e-01,6.928601547202020150e-01,7.109164382175367156e-04,1.614798156403199824e-03,1.147125333901589407e-04,7.626425474882125854e-02
6.112857296866875956e-01,7.637693031595969018e-01,7.760232190086299164e-01,-1.079767457403092192e-02,1.232964794017343824e-02,1.414204399768548108e-02,1.633270978927612305e-01
6.999678377102517279e-01,7.190970832054244255e-01,7.115991012303179986e-01,-4.509599890722792818e-03,-3.386873994492269231e-03,-6.362926088173732724e-03,2.226207032799720764e-02
7.126570487398934395e-01,7.092596628211703669e-01,7.203233151180234994e-01,4.529967954605922283e-03,7.923539367274039583e-03,-5.237817294246941563e-03,2.070199511945247650e-02
7.143202663233285676e-01,7.120344505664741863e-01,7.164414656948445703e-01,1.502535740187591496e-03,2.864991466038936067e-03,-1.769131800080330939e-03,7.440427783876657486e-03
7.361741328825349706e-01,7.149432545904652603e-01,6.913690181651999112e-01,-1.048340903106941523e-02,-2.658917616665901294e-03,-3.890826603380870014e-03,4.362713918089866638e-02
7.177722095790411982e-01,7.252713873247005338e-01,7.002970966531644192e-01,-1.058303686043990909e-02,-3.444335053843342737e-03,-6.740581677912147254e-03,3.163170814514160156e-02
7.270204342810708820e-01,7.206287213589621654e-01,7.078071157085721321e-01,-1.210778257374674769e-03,-9.017024915796237675e-03,-1.086112111368407046e-02,2.982297167181968689e-02
7.001292365261296835e-01,7.351084428851352159e-01,7.034514437021852640e-01,-6.119805436555947505e-03,-2.914834040218904857e-03,-2.498387768608926855e-03,3.570636361837387085e-02
7.350606848890588463e-01,7.013931108086007837e-01,6.936311485718545944e-01,-6.866166287331758149e-03,-3.768661539259420077e-03,-4.532227625376915835e-03,4.124008491635322571e-02
7.255733257871377351e-01,6.975072815417534544e-01,7.181451288233877683e-01,-2.015441872109639473e-03,-1.122009417523696199e-02,-2.647359257131053165e-03,3.233085200190544128e-02
6.650221045563476929e-01,7.366414018371930661e-01,7.636240976875792175e-01,-6.827605107028477706e-03,-3.264286889192303046e-03,-1.034759542569016651e-02,9.101046621799468994e-02
7.199042455546295072e-01,7.169921201325282212e-01,6.959479565395138012e-01,-1.867691403666574962e-02,-1.486368935272947001e-02,-1.972881807229034251e-02,5.821999907493591309e-02
7.001001400738909863e-01,7.298780404728612003e-01,7.037810160997223230e-01,-5.121769112906018710e-03,-7.799828175205526272e-03,-8.614023369206497138e-03,3.569981828331947327e-02
7.067446012111315845e-01,7.234748829349277877e-01,7.073893139884230852e-01,-2.100420156439452516e-03,-6.926165853242394459e-04,-1.931501402971813651e-03,1.718715578317642212e-02
6.833392553955046633e-01,7.027117411906259603e-01,7.588445284082685482e-01,2.418784557732594001e-02,1.290063285267270023e-02,-2.282173647563381230e-02,9.181799739599227905e-02
7.360106951471245829e-01,6.809079151554133791e-01,7.125099351183590279e-01,4.691206807945006753e-03,1.251239502335811486e-02,-3.032068634561051450e-03,5.345023423433303833e-02
7.074680001979325450e-01,7.343750536392252837e-01,7.094330758294051797e-01,-2.098392363182554048e-03,-1.597919885158686311e-03,-4.287713978656766158e-03,2.740437723696231842e-02
6.338895875607912789e-01,7.747143127173112820e-01,6.893989205764131656e-01,2.243178324263273970e-03,5.506662138214939856e-02,-2.660608133243091110e-03,1.556570976972579956e-01
7.092429317665741584e-01,8.001719669849995942e-01,7.927632472227942317e-01,1.144764591014109656e-01,1.419597431302404289e-01,-1.050449043439849045e-01,3.748664855957031250e-01
7.070907332931258837e-01,7.095245357227006888e-01,7.080154086406545977e-01,4.413222389584109395e-03,4.638248182136393838e-03,-8.289582395897244008e-03,1.826606504619121552e-02
6.301995003752749458e-01,7.282580422610924753e-01,7.885383583462337587e-01,-5.287947212799491009e-02,-1.144633507249140716e-02,4.219874888346223166e-03,1.673182249069213867e-01
6.968312185669242043e-01,7.483503701078572101e-01,6.964811075785881656e-01,1.397851899542398336e-02,1.328863688157424019e-02,-1.063240624012579821e-02,6.424552947282791138e-02
6.935537981028099264e-01,6.934183967443929841e-01,7.419593015754194498e-01,-5.871513395087765534e-03,-6.252545593128098697e-03,-7.611869324302894708e-03,5.238505452871322632e-02
6.498456425010026294e-01,7.625675820762694013e-01,7.375607437574516201e-01,6.842473971183976947e-03,9.568699426150132498e-03,-1.499445834149912456e-02,1.077144294977188110e-01
5.839422495708851413e-01,7.765918314793481825e-01,7.672043883422936528e-01,3.036109035572547889e-03,1.340191492291742219e-02,-3.943921435664271558e-03,1.897541880607604980e-01
6.921268885594356046e-01,7.347536968216027420e-01,8.541356055161157812e-01,1.642591726772614502e-01,7.243217520480518812e-02,-6.913184151835768954e-02,3.635630309581756592e-01
6.061366837630173254e-01,7.787791807344986994e-01,7.780162365978031680e-01,5.885744898215378856e-02,2.219000895301068838e-02,-1.660841517811143322e-02,2.058436423540115356e-01
7.016323036511038502e-01,7.417315633546667231e-01,6.968571678082691179e-01,4.375261821048246832e-03,2.031830638932868513e-03,-1.578040600670127741e-03,4.358344152569770813e-02
7.038531378118036974e-01,7.074860038597360345e-01,7.274078455418503397e-01,1.221575470970540263e-03,-1.421827947006344727e-03,4.260504846429797807e-03,2.339760959148406982e-02
7.140288908735507034e-01,7.124369832926017443e-01,7.175656894501591943e-01,1.134104656317326369e-03,-1.909491862829579409e-03,-2.007055003241211600e-05,5.955806933343410492e-03
8.293166931155321331e-01,7.448453513493431544e-01,6.429571350306654276e-01,2.933822462292366273e-03,-7.316996204240183016e-03,-5.797724263546880086e-02,1.907715052366256714e-01
7.720958657207385167e-01,7.298608680953837524e-01,6.356116408039056420e-01,-8.127651284240675761e-03,-5.209595662950351541e-04,-1.225475092778055899e-02,1.236804574728012085e-01
7.085754634768886007e-01,7.051576513432320503e-01,7.200189756211099468e-01,3.149556111193284151e-03,-6.146550506620859604e-03,3.390607442715173024e-03,1.895613968372344971e-02
6.359260306380197791e-01,6.947329754740012575e-01,7.603727235528098261e-01,5.299107310352030309e-02,-1.768333043166023591e-02,1.945169923643774029e-02,1.487423032522201538e-01
6.001951570726572482e-01,7.349934581203627637e-01,7.809381054286890222e-01,3.280818638828254113e-02,-8.158309553283961055e-03,1.145982247759623658e-02,1.740618944168090820e-01
5.551033556380056133e-01,7.410805837180555189e-01,7.910255867468389823e-01,9.309992860777668855e-02,-1.766388211028264987e-02,7.313699706260513508e-03,2.710534334182739258e-01
7.422864068335306431e-01,6.904561082374084391e-01,7.016359288758805546e-01,-3.957361551535600562e-03,-8.269046593702847683e-03,-7.756943194590477063e-03,5.161917209625244141e-02
7.695331157435668645e-01,5.673781226424838842e-01,7.581512213410467327e-01,-4.908427903183931046e-02,2.167723446693294032e-02,6.077263186482336627e-02,2.416872531175613403e-01
1.111231826157361269e+00,8.458683368280053294e-01,7.005111560010208738e-01,9.173372012340723358e-02,1.136254640650048442e-01,-3.664974283755616513e-01,7.726950049400329590e-01
9.122948069820274730e-01,6.035336707385638988e-01,7.662624958822932264e-01,1.181984169479997071e-01,2.005723508755603290e-01,-2.583534712371494124e-01,6.590976715087890625e-01
7.635105879582249067e-01,7.648579944363569361e-01,6.306575788819056561e-01,1.078146773040831834e-02,-1.010339057129951840e-02,9.480977057637262825e-03,1.369502395391464233e-01
6.428709147346893804e-01,7.736096167815428304e-01,7.308049890112064961e-01,-1.072917155825345087e-03,1.094260209708375862e-02,7.968785292130575737e-03,1.178210601210594177e-01
9.619263786914852288e-01,1.062415818917918253e+00,4.934068287505947170e-01,1.116014264037135800e-01,-3.504309175254037845e-01,2.618108537395704150e-01,9.423878192901611328e-01
6.727268023876640246e-01,7.563559572512466023e-01,8.642763029837707833e-01,1.435409697231568305e-01,-7.801216093637988735e-02,6.589745535955197908e-02,3.475098013877868652e-01
7.243871775616851361e-01,7.036826370338323811e-01,7.307642261625976188e-01,-1.354255997982995244e-02,-1.558277918439595830e-02,-1.316675162668624367e-02,4.899122938513755798e-02
7.904179175974050953e-01,5.377514245188085296e-01,7.885005689561899178e-01,-5.299702685960638870e-03,-3.017118528540427193e-03,-3.404970134625571760e-03,2.520038485527038574e-01
7.394788498179798442e-01,7.988729120035673592e-01,4.925592398131768412e-01,-2.337132125952141176e-02,1.055740679334160464e-01,4.655253972288155018e-02,3.474769592285156250e-01
3.653727676750269660e-01,7.394323479372550967e-01,8.799895710075746891e-01,-2.641079831020322621e-01,-9.225325640388774839e-02,-4.860673099425077970e-02,6.738936305046081543e-01
8.193703367417279892e-01,8.227647975119305457e-01,5.414136817026546922e-01,2.169966955034810172e-02,6.272929445790301206e-02,8.860074605301151984e-02,3.390910327434539795e-01
8.062635851057035064e-01,7.763451898679506469e-01,5.390383280787298670e-01,-9.778044576459931497e-03,-1.597058167116830601e-02,-3.204487426978836623e-02,2.616144716739654541e-01
7.742852713172602153e-01,7.134008535725901989e-01,6.764835398370215858e-01,1.148807204239235720e-03,-1.894937835787568244e-03,-3.937489126374268955e-02,1.094685643911361694e-01
6.930877292190122940e-01,7.493944094640005993e-01,6.942706965803943087e-01,-1.012495979284864026e-02,-1.717951440699836893e-02,-1.451336239404992130e-02,7.021465152502059937e-02
7.889414406974076810e-01,7.894689971571158260e-01,5.218112486426074170e-01,-1.316418505058797490e-03,7.130186021671782587e-03,-3.129152469815981753e-03,2.677439749240875244e-01
8.072103059874227160e-01,8.014917403028660736e-01,5.725547535871575722e-01,-2.951028817882963683e-03,6.561292526418661735e-04,2.318868951385238963e-02,2.353605777025222778e-01
7.330179900930247072e-01,7.307697973352791365e-01,6.760142005226298378e-01,-1.499524285446187516e-02,-6.279556828800003827e-03,-7.172721280222629781e-03,6.382433325052261353e-02
5.916965041951087745e-01,7.273395446558303945e-01,5.729560360819023757e-01,-1.635987394099735759e-01,-2.589863552215176390e-01,-1.416906405108668832e-01,6.025249958038330078e-01
7.673248260085769878e-01,7.381098652328487164e-01,5.222409977108495305e-01,-2.470645758996499464e-02,5.495529798292354134e-02,8.062054111614097573e-02,2.900861501693725586e-01
7.380139597242544314e-01,7.657841423267144343e-01,6.611060965867729955e-01,-9.296046499258752913e-03,-7.642218703325116998e-03,-3.321533892997986098e-03,9.638104587793350220e-02
7.636105007263366273e-01,7.645571833701632070e-01,6.299262772026995583e-01,-1.101426123000141463e-02,-1.015495826239839854e-02,-8.174638133754392674e-03,1.373779773712158203e-01
7.881847366281267142e-01,7.693641360203871127e-01,6.037935243291879805e-01,-4.229116049726595016e-03,-5.038079626672287842e-03,-1.258954514205398029e-02,1.774521768093109131e-01
7.945563538403727089e-01,7.595692320541023168e-01,5.590505330886050839e-01,-1.181921661053985523e-02,-6.011979233981363559e-03,1.294923326598892109e-02,2.224364578723907471e-01
7.679536240895871169e-01,7.800487901552575210e-01,6.185987639518599757e-01,-1.117793020785007828e-02,2.416338163878880771e-02,4.030848161708629890e-02,1.768061220645904541e-01
6.381359367267182003e-01,7.569226521872037816e-01,7.271467994340305996e-01,-8.693164218433378776e-03,-1.877845238486822860e-02,-1.571248281942879896e-02,1.161256209015846252e-01
6.954661912388503398e-01,7.762417311227559624e-01,7.203246542087187176e-01,-1.764618999185490339e-02,-2.944445941861700833e-02,-1.372888812325662178e-02,9.610002487897872925e-02
7.565875103400528934e-01,7.853143232058972245e-01,6.244731254345924354e-01,-1.039359713461195447e-02,-6.299515586548089241e-02,-2.558369142623419593e-03,1.852661669254302979e-01
7.529962493407531543e-01,7.818369046690907265e-01,6.599176317965645966e-01,8.779413696018114471e-03,-4.291706839751409375e-02,1.682001880782769271e-02,1.370600610971450806e-01
7.123644696687829736e-01,7.350415221874876393e-01,6.913016696712024345e-01,-1.178784806223106413e-02,-5.007610988292028956e-03,-2.764590184231863201e-03,4.416503012180328369e-02
6.399025679234466857e-01,7.370028081766091255e-01,7.228103026510729334e-01,-1.784360739882032837e-02,-2.095072181975360034e-02,-2.021564544972359601e-02,1.083964332938194275e-01
7.117373851597162959e-01,7.530889452092353054e-01,6.705493209680515321e-01,-8.758685884315308909e-03,-7.414807624355855033e-03,-2.542947236855480370e-03,7.432416081428527832e-02
7.091921197360002704e-01,7.655050185521717898e-01,6.723057911041896428e-01,-3.960670213417721332e-03,-4.398045294540881868e-03,-1.905944941374902203e-03,8.200553059577941895e-02
7.786729110211307869e-01,5.856296106111428257e-01,7.657730265339942610e-01,-4.143820477303041157e-03,-5.154267057613686961e-03,-1.123670036146908781e-02,1.882867217063903809e-01
6.649947675886335174e-01,7.369082857091563410e-01,7.060199973340270940e-01,-5.662533543594445475e-03,-1.443844720587154559e-02,-1.128892471479469271e-02,7.076915353536605835e-02
7.026561792097461012e-01,7.471105930921693172e-01,7.261422703367426124e-01,-1.550490918980978496e-02,-2.004731203384505639e-02,-1.555806212691280416e-02,6.431781500577926636e-02
6.492170631890792354e-01,7.636757017886142140e-01,7.075610030534948969e-01,-8.625101092541160100e-03,-1.746023597394568555e-02,-1.661441656083093368e-02,1.085942015051841736e-01
7.085765564545267736e-01,7.121035646976421329e-01,7.149591365140688382e-01,-2.847251830728562624e-03,-2.638273783408095780e-03,-6.005997342784395385e-03,1.356774475425481796e-02
7.453485263874366495e-01,7.080187964572610682e-01,6.937693748177081732e-01,1.094392378708116016e-02,2.739976644054572998e-03,-6.867235169124375274e-03,5.149552971124649048e-02
7.257638790202488588e-01,7.099385111845345486e-01,7.154042311366856088e-01,2.350630714188734448e-03,7.137754861220268988e-04,-2.584304806294784786e-03,1.523023471236228943e-02
7.327101938913267443e-01,8.040047712362943244e-01,6.705503208022318695e-01,2.427838930357598818e-02,8.446409690157528904e-02,-2.872867879057257670e-02,1.975482553243637085e-01
7.363837703423754544e-01,7.276206317303298698e-01,6.933734653881101773e-01,1.274806600049859483e-02,5.944549444835020742e-03,-7.547325023709506274e-03,4.810626432299613953e-02
7.410641709850935843e-01,6.970493897845885245e-01,6.996429231851359898e-01,5.760071414694389359e-03,1.049955622857036246e-02,-8.954975358950642214e-03,5.000705644488334656e-02
6.948392769646022371e-01,7.525278465729037247e-01,6.948003953041490544e-01,1.931297288030206245e-03,-4.109148407319833970e-04,-2.207472253239064520e-03,5.793557316064834595e-02
7.422606860191082179e-01,7.025193971003739213e-01,6.965630795979450562e-01,5.788737149536851180e-03,2.155039401353048105e-03,-2.678942668292086295e-03,4.458195343613624573e-02
6.703545958334466981e-01,7.424265545983474990e-01,7.333742088409802573e-01,-1.408294924492259521e-02,6.631141216235481896e-03,1.661429038281983170e-02,7.860597968101501465e-02
7.379441123414737236e-01,7.067752262972305521e-01,7.095258576431613395e-01,1.928743787338073768e-03,1.544797584477663414e-03,-2.071592139411876712e-03,3.040600568056106567e-02
7.419571589934850220e-01,6.926838691456209673e-01,7.141447801188463007e-01,5.907501351684596273e-03,1.546102982333587110e-02,-8.414066022561996969e-03,5.352750420570373535e-02
6.808319946063673411e-01,6.889140890077518620e-01,7.602066615518905390e-01,-1.047085078564788906e-02,2.735199085277490155e-03,5.028824658052551133e-03,7.843068242073059082e-02
7.024372966131330331e-01,6.995784145528838316e-01,7.496374015373818978e-01,1.422060586822332861e-03,5.406949741390647962e-03,-2.665670606491059389e-03,4.986032471060752869e-02
7.627034277335706935e-01,7.639196255543834191e-01,6.186921527272470911e-01,1.373678139660795480e-02,1.023748302536416251e-02,-1.047618355870334403e-02,1.487468928098678589e-01
6.992927926851694176e-01,7.008670662311561328e-01,7.489243647192497244e-01,8.073807529986199577e-04,2.992707132746974270e-03,-5.005902401411583234e-03,4.991632327437400818e-02
6.909630716547059404e-01,6.940305293068028680e-01,7.456459132928175970e-01,6.817336622040553844e-03,4.928556118279221222e-03,-7.557502636728265395e-03,5.670566856861114502e-02
7.068690353817893568e-01,7.534117212024106225e-01,6.842857664308364951e-01,7.599571599174642471e-03,3.194612440343435646e-03,-3.802373388524408343e-03,6.304413080215454102e-02
6.811344960025266237e-01,6.947841101891112370e-01,7.597658482075717590e-01,6.658490464861435351e-03,3.405271747224516282e-03,-6.032540858151275165e-03,7.465174049139022827e-02
9.061726646071407432e-01,9.063894792081134133e-01,2.894087858688966231e-01,-3.962849990725101496e-02,-1.373653435143590007e-01,-2.009192662605411850e-01,7.503039836883544922e-01
8.520674149953897381e-01,6.944867995170386221e-01,6.298392007000874759e-01,-6.955534691887875487e-02,-2.295701409475258206e-02,-1.308445221566857664e-01,3.265791535377502441e-01
8.784787986198995258e-01,7.136707347324190431e-01,6.049891514520366886e-01,3.207639310017339207e-02,8.267073305120390542e-03,-1.338282661072559554e-01,3.375006914138793945e-01
7.162524664096410199e-01,7.139351223357081055e-01,7.109570384880286031e-01,3.339670912457670063e-03,2.285001598931938379e-03,-1.575474956833263981e-03,8.815360255539417267e-03
7.357139004293471451e-01,7.584141771408516863e-01,6.655706465256224780e-01,1.177752497344824664e-02,8.423732404186317843e-03,-6.003387019659225422e-03,8.811798691749572754e-02
7.887756717173511900e-01,6.436440418641101724e-01,7.304349096123923246e-01,-9.994850598731585579e-04,-2.082464308152983615e-03,1.342820506039151159e-02,1.286728531122207642e-01
7.649638953782053052e-01,7.827005110380866881e-01,6.021164383385406715e-01,-5.733374198972549657e-03,-1.578999215432241865e-02,-4.402397145548811452e-03,1.750056445598602295e-01
9.265089054041223404e-01,7.891359537941237123e-01,6.159679515231701874e-01,-7.366470064553487518e-03,2.284042232243552878e-02,-1.666340309359897465e-01,3.970839083194732666e-01
8.801270038151166597e-01,7.570641505901078983e-01,5.337231172167113957e-01,-2.386446612505022102e-02,-4.573627015114409972e-02,-1.946074313627184638e-01,4.627210497856140137e-01
7.340245993194096652e-01,7.718379354113291679e-01,6.451438102921962514e-01,-8.855900240229528861e-03,8.793989585846255508e-03,3.677751096305529026e-03,1.148842200636863708e-01
7.102534750419849940e-01,7.053858234624604817e-01,7.212777887003001265e-01,-3.729833720787566025e-03,-5.313258084011327799e-03,-2.494502785484486486e-03,1.854688115417957306e-02
7.681903646126037044e-01,7.704256416267507568e-01,6.319364950214844123e-01,-7.546338651666372431e-03,-9.195439076041556428e-03,-6.785988317162276219e-03,1.394178569316864014e-01
8.713267260859685059e-01,8.398163599881807162e-01,4.647384375405866908e-01,1.568799092394996403e-02,-4.104546017370116345e-02,-1.486012422177596937e-01,4.749049544334411621e-01
8.901823753790788496e-01,8.968727783892483929e-01,2.252475959088459656e-01,-2.175296438670002233e-02,-4.969154803959607153e-02,-2.119183012531312416e-01,7.682363986968994141e-01
9.380307826112100900e-01,1.001276226224768306e+00,3.919820862778836679e-01,-1.657405503803247374e-02,-1.712019402852109351e-01,-2.937504185888712427e-01,8.272403478622436523e-01
7.489019736342356071e-01,7.017389697016598316e-01,6.980243499173465205e-01,-4.613619171266982594e-03,-1.864174017786203843e-03,-9.994972009196394485e-04,4.990610107779502869e-02
9.272158610703701287e-01,8.189420968582430405e-01,5.620122827059144122e-01,-6.448384187353364827e-02,-8.353646203564515926e-02,-1.658880195959361592e-01,4.706600904464721680e-01
7.052108319775004519e-01,7.706340548550423275e-01,6.454215486965264592e-01,-4.138256051455454360e-03,-1.945814817110145048e-02,-3.187056083713056629e-03,1.139485388994216919e-01
7.896261367802070996e-01,7.917779701698242079e-01,5.567808916937140307e-01,1.852209447967182940e-03,-4.237234680661973278e-03,8.023472996540139714e-04,2.340697944164276123e-01
8.717754560527970487e-01,6.681620746755754237e-01,4.416035017434319920e-01,-2.641510656474525820e-02,4.207581025595497244e-03,-2.722227123519437297e-01,6.028097271919250488e-01
8.688685463971120848e-01,9.194807773069879619e-01,2.975675711253013556e-01,-3.209438559849182859e-02,2.039200111848686880e-01,1.426147462747708906e-02,6.973605155944824219e-01
7.413987751239751178e-01,7.389220548670970556e-01,6.473445275134510624e-01,2.217901303141416036e-02,-1.268283160817566292e-02,1.365860305195790679e-02,1.055336445569992065e-01
7.637641287984493488e-01,5.805441023140280876e-01,7.799123807641544781e-01,-1.511022601524609002e-02,3.126469820830488858e-03,8.671857604250978943e-03,1.942393183708190918e-01
5.991255869804541501e-01,7.930633813576523083e-01,7.696424044899957684e-01,4.939627766100359620e-03,-1.180810660308532871e-02,7.075097260421269428e-03,1.850941926240921021e-01
7.930381148806264768e-01,8.060560819093151030e-01,6.136250398556196695e-01,-2.749197500015872903e-02,4.818802935848313929e-02,5.256199203939396908e-02,2.285083979368209839e-01
6.561361241289669355e-01,7.627581476366215307e-01,6.639220649913371020e-01,4.348686397474450967e-03,-4.148124245229763835e-02,7.050704134253652985e-03,1.263593137264251709e-01
8.844960960653791560e-01,8.913674909331064100e-01,4.366242151544699190e-01,4.064287826484991317e-03,-1.485674001901252962e-02,2.670749312072793341e-02,4.544948041439056396e-01
7.578636710548177780e-01,7.033192113139370427e-01,6.387145519514281222e-01,3.264203002960829048e-02,-2.959535928131242291e-02,4.740797935455034334e-02,1.524447351694107056e-01
8.028021512369026835e-01,8.090513861534323059e-01,5.750954903787901529e-01,-4.244550363639262511e-03,1.005617264526582032e-02,-2.990466349382734160e-02,2.373871654272079468e-01
7.355484165101087157e-01,6.996939845723055829e-01,6.988582958551491364e-01,2.561412846203908918e-03,-5.789666484393972586e-03,2.168155618214074286e-03,3.808605670928955078e-02
7.648078943118810091e-01,7.809854670476750194e-01,5.875390204572648045e-01,6.977928470903840873e-04,-1.313566230521539743e-02,5.834993800818997177e-03,1.875499635934829712e-01
8.542057093838597570e-01,8.123490616287920574e-01,2.749072210409995720e-01,-8.350086944113420742e-03,2.646922707658891372e-02,1.591728222256646452e-01,6.256278753280639648e-01
6.931762761052534527e-01,7.539613738448062152e-01,6.940333628859941539e-01,-4.090066816012188217e-03,-1.636126393095467535e-03,-2.663837554594609015e-03,6.101613864302635193e-02
5.284848549401794937e-01,8.344150791488871288e-01,8.501707629205150774e-01,3.293490807770743656e-02,-7.138709742790573520e-02,-4.504715264772528836e-03,3.424398303031921387e-01
7.707021891240326550e-01,6.355194164925727085e-01,7.256639912429161399e-01,-2.179992119627311049e-03,-2.699436398632063493e-03,-1.071888161271733475e-02,1.208107396960258484e-01
5.792507717053039240e-01,8.060151707861400450e-01,7.958727513420913446e-01,1.365356960959740983e-02,-7.465432573562224769e-03,1.981999241654853160e-03,2.235246449708938599e-01
5.690524925849119731e-01,7.931016688588629071e-01,7.889124081032861113e-01,5.002125641693263691e-04,-2.043450226201150299e-02,1.008859509094132923e-03,2.247965633869171143e-01
7.181446875094519289e-01,7.363210507742589117e-01,6.925817192058140170e-01,-9.473543430605028265e-03,-5.001190269853285526e-03,-2.761044603108926774e-03,4.261029511690139771e-02
7.072033487047273415e-01,7.559953089049267216e-01,6.702285212145610016e-01,-9.303326929669916354e-03,-6.384937121476372615e-03,-3.319180827768829310e-03,7.724555581808090210e-02
5.811674904958274990e-01,8.121525728269542999e-01,8.115398607985592205e-01,-1.401392240465394561e-02,1.708013692098409378e-02,1.232381316188341409e-03,2.338415682315826416e-01
4.901317521249839437e-01,7.982512460056230275e-01,7.921517396961499369e-01,3.971205051879497100e-02,2.598993374522200542e-02,-4.609600858571575102e-03,3.160961270332336426e-01
3.979072780713383550e-01,9.961265009587538799e-01,9.003338459048073616e-01,3.308075271860764360e-02,-9.087460800916588588e-02,4.937670079956697072e-02,5.874599814414978027e-01
5.556194521322802560e-01,7.951149897579647963e-01,8.047413936877729768e-01,-8.001475272145292710e-04,2.564626090443424423e-03,1.678284635685776960e-03,2.445124983787536621e-01
5.468881601274637738e-01,8.188001550032273368e-01,8.120472025868180621e-01,4.728993954898910723e-03,9.955854815675319047e-03,-2.532769757679693978e-03,2.693125009536743164e-01
7.183946090733850376e-01,7.033698352099034823e-01,7.362233026291716831e-01,-3.832210972295622010e-03,1.016592647266628853e-02,-3.374859606693388363e-04,3.414550796151161194e-02
7.212167818928399976e-01,7.120537114181131333e-01,7.109868577766411679e-01,6.369274784308169048e-03,5.168356360413907738e-03,-4.082860746708840381e-03,1.862051710486412048e-02
6.954077046026710951e-01,7.630213938174262855e-01,6.902565351473488597e-01,-6.339081699702208165e-04,3.155120390746260842e-03,4.323147740147460766e-05,7.055147737264633179e-02
6.735153070004642473e-01,7.142754502660518812e-01,7.855504697784645440e-01,-3.610144787194466409e-02,4.495009171547168295e-03,2.468390343708641837e-03,1.167712956666946411e-01
7.026035344955042783e-01,7.294370738507953700e-01,7.219488336384964899e-01,1.300426055458593286e-02,1.647871416889469531e-02,-1.162917271233917041e-02,4.798818752169609070e-02
6.827943574224472068e-01,7.241428718737736858e-01,7.523609728931075491e-01,2.948816495513438204e-02,3.022194010866085037e-02,-3.647676967030681616e-02,1.140752136707305908e-01
7.067847764910867303e-01,7.251173211653195727e-01,7.074853434476280345e-01,3.258789937445097460e-03,-1.405113855245802895e-06,-2.214303285144894173e-03,1.924313791096210480e-02
7.070550864068704255e-01,7.222766186715282588e-01,7.118132024391720103e-01,1.014412927891620003e-03,-2.385517986192387495e-03,-1.954217553900097510e-03,1.461249403655529022e-02
7.097621747092000000e-01,7.769656241823772458e-01,6.778693796749224454e-01,7.357874878848831741e-03,5.725287727720827953e-03,-2.553511392921471029e-03,8.920242637395858765e-02
8.751643810787715916e-01,8.097296395938464730e-01,4.809519732473240827e-01,2.042970923497584509e-02,-6.437198499399532890e-03,-4.379255453060160175e-02,3.755259513854980469e-01
7.251769941634197414e-01,7.037045217615109927e-01,7.020721090539787657e-01,8.001472745528899824e-03,3.811862980557104760e-03,-5.092333249948231486e-03,2.849984169006347656e-02
7.135328973188601598e-01,7.223588662290969520e-01,7.097018549120236441e-01,6.089620917882081555e-03,1.869178887077535978e-03,-3.278798507680205469e-03,1.674427650868892670e-02
7.152908521301091227e-01,7.233244205413691397e-01,7.134576220621086096e-01,4.020500656422875893e-03,-7.697179810706702898e-04,-2.092568346052119197e-03,1.208443380892276764e-02
7.937298840088662377e-01,7.912178098426871919e-01,5.496807065583162455e-01,4.827590239458241415e-04,3.315000591344441534e-03,6.079098617640066489e-03,2.431003451347351074e-01
7.164670156917550825e-01,6.884341516760787982e-01,7.949799458519603013e-01,-3.801268289575113896e-02,-3.721080242747792661e-03,-3.273394723249866897e-03,1.164458692073822021e-01
6.838162266062768335e-01,7.153460211438227301e-01,7.888001305847790467e-01,-3.444729700298706371e-02,-6.837724171768424022e-03,2.032505277638899273e-03,1.114366725087165833e-01
7.330496367891601306e-01,7.717297741432221914e-01,6.244675057847023369e-01,4.474541458778268262e-03,1.329324325194708271e-02,-1.536130005905069970e-03,1.344748288393020630e-01
7.024603112703778907e-01,7.669333627332607373e-01,7.040703139493826868e-01,-6.877036351035809361e-03,1.248824507620967944e-02,7.878927915679619781e-03,6.965304911136627197e-02
6.539378002108451327e-01,7.473316776550713580e-01,7.961642487506398469e-01,-4.226156934240288265e-02,-4.729487367869965320e-02,-2.441507890840462908e-02,1.718270182609558105e-01
6.191649215747813129e-01,7.474020055577921262e-01,7.768045438074323572e-01,-4.444798722579577921e-02,-2.994805796527993599e-02,-2.162478049351667514e-02,1.763524264097213745e-01
7.532318082864958297e-01,7.547856321117973888e-01,6.742607127967474856e-01,-2.586645562777752441e-02,3.932640033433887350e-02,2.374036878502429684e-02,1.212406232953071594e-01
7.648907681204305531e-01,5.955460413586075585e-01,7.824336766773214435e-01,1.285021059558853068e-02,-4.806829266938878430e-03,4.700166498044271168e-03,1.805191487073898315e-01
7.879132276540934399e-01,7.868832049058294142e-01,5.477174805083550035e-01,-3.002061278140964566e-03,3.195722455154976008e-03,6.007746438199937714e-03,2.400283366441726685e-01
6.193870098537209712e-01,6.399307949723167521e-01,8.348995190977369640e-01,-1.312128099190780495e-01,-3.565147242187377552e-02,-3.780112865613080575e-02,3.196724951267242432e-01
6.981317029545955899e-01,7.429506897349065220e-01,7.014791212979002433e-01,8.059698206148641140e-05,-1.337022898111418345e-03,-4.291252487411008863e-03,4.393797740340232849e-02
6.456381871074476919e-01,7.037951405951266004e-01,7.772032809621622906e-01,-2.068350811962473348e-02,2.555863830880396401e-03,-1.677771763345105001e-03,1.197983473539352417e-01
6.401933013505943793e-01,6.961013628571017797e-01,7.841395037868841289e-01,-5.795843488960985418e-02,-7.547191159555394907e-03,-4.714534635745571030e-03,1.615969389677047729e-01
8.706690484913384154e-01,5.624938228323020928e-01,8.730548036524152788e-01,-5.492273895727847050e-02,-1.290150092479961513e-02,-4.946475705637894821e-02,3.355622887611389160e-01
6.974450211583651527e-01,7.650586765563468505e-01,6.812251851781796486e-01,-2.277035559092717171e-03,-4.969559309390072718e-03,-3.360826051932538049e-03,7.781324535608291626e-02
7.356960929196808552e-01,6.996283750643030874e-01,6.991172397200574595e-01,-4.861762611324554721e-03,-2.595241265018921606e-03,-1.154287197810859858e-03,3.761236742138862610e-02
7.909978443328643527e-01,5.111602041461764667e-01,7.903616748433445194e-01,-2.735094372653796777e-02,1.209206026738604599e-03,-3.953692449431522177e-02,2.916669249534606934e-01
7.669440883586231550e-01,7.641803110945268873e-01,6.020212459697602547e-01,-8.652795443172586753e-03,7.820518496805007116e-03,8.714744501572406835e-03,1.654911041259765625e-01
8.886366339772117096e-01,2.904501945814418895e-01,1.107379504083717103e+00,-2.283530524971110753e-01,3.584894824957826631e-02,-8.334992947882230441e-02,8.471463322639465332e-01
8.047147816318884761e-01,5.825796975741067696e-01,7.888764864568383883e-01,-1.379173223384970275e-02,-4.990806827062090013e-04,-2.666172620945192126e-02,2.208631485700607300e-01
7.839186115697956980e-01,7.038127073008003665e-01,6.501602763852420974e-01,-5.263285775666272891e-03,-9.129216192116226467e-04,1.609816332713251766e-02,1.202350854873657227e-01
7.940880351013944738e-01,5.416320981414692870e-01,7.856656707174041188e-01,4.960257084962876178e-03,1.371837356963168109e-03,-3.746065268922078428e-03,2.485964894294738770e-01
7.367066668946508079e-01,7.842143549339580799e-01,6.374387269936790945e-01,-1.847401401799211342e-03,-1.274365913295989576e-02,-4.629105231855102395e-04,1.316251456737518311e-01
7.263472968818849296e-01,7.079434290531092522e-01,7.069345058756530964e-01,-8.568432673814393996e-04,-3.326830812369392914e-03,1.967433780639552475e-07,1.984173245728015900e-02
7.795137665903976165e-01,5.400500431502429644e-01,7.612006816124449182e-01,-4.361751210562866965e-02,-1.319523018375499610e-02,-5.803177416692535673e-02,2.638669908046722412e-01
7.836614261770837864e-01,5.681628249058762181e-01,7.623480300270764065e-01,4.859719816798967196e-03,-1.597544289595227707e-02,-7.832582531931630079e-03,2.081380337476730347e-01
7.770777394478162181e-01,6.231677329432726564e-01,7.824076153145170798e-01,-1.617335488143078689e-02,-1.272975847618431494e-02,-3.178389210133482357e-02,1.698191314935684204e-01
7.819920702199142371e-01,5.554841255142013434e-01,8.150152278212796642e-01,-2.289436591992390774e-02,-7.718741931112009860e-03,-8.082947637258615717e-03,2.486434876918792725e-01
6.584858930493433515e-01,6.210369521822570738e-01,7.416344625004105406e-01,-2.194825050224303853e-01,1.490657180083383992e-01,1.860293338840713073e-01,5.713406801223754883e-01
6.942212851790858785e-01,7.665674623908286245e-01,6.934283509426841796e-01,5.092274564524110333e-04,-1.900880823378200014e-03,-6.544921264965902286e-04,7.283451408147811890e-02
6.703027926534924630e-01,7.721794977861639042e-01,7.089397077993490059e-01,1.120908426172260563e-03,-9.338097915679469813e-03,4.997575399752538991e-03,9.097125381231307983e-02
6.970251203215321878e-01,7.669047103609815119e-01,6.867143105685366011e-01,3.755774997818463190e-03,-1.679934678959811014e-03,9.273788592974644253e-04,7.591672241687774658e-02
8.091648234779672544e-01,5.591901736978991400e-01,8.203772747744975113e-01,-1.924967242071617263e-02,-1.123832617120460071e-02,-8.566857285375227560e-03,2.590880095958709717e-01
8.456551906658219542e-01,7.897476944979543445e-01,4.829501549524664039e-01,1.034542232164152725e-01,-1.993509066910854055e-01,2.257382740248009834e-01,6.469981670379638672e-01
8.613507566619340583e-01,4.497535582656858599e-01,7.217970430871795129e-01,1.401311774244415886e-01,-1.239870103813509455e-01,2.661030545189613794e-01,6.700064539909362793e-01
8.048352555810863729e-01,6.229509356271820675e-01,7.887879621519637841e-01,-1.118215516760282142e-02,-6.600549071447000919e-03,-3.053890380353707634e-02,1.836419552564620972e-01
7.085582175962112927e-01,7.761614828789404896e-01,6.751885950786710167e-01,-8.582835140107344159e-04,-7.245807262556041954e-03,-3.030963020937970666e-04,8.999788761138916016e-02
7.601780608057217004e-01,6.603673218333805384e-01,7.077154892461986480e-01,6.947109419685816405e-03,-1.177059316985870976e-02,1.248764216112416801e-02,9.223029762506484985e-02
7.699678419830752185e-01,6.217223276107571861e-01,6.938433250779562078e-01,1.381664899426530632e-02,-1.496650610992458601e-02,6.345910913469912651e-02,1.726627349853515625e-01
6.983558083775575076e-01,6.981028279925988178e-01,7.654086335974231714e-01,2.880201825288593573e-06,-3.443064595278319279e-03,-4.177569906591422494e-03,6.783088296651840210e-02
8.565408551092219547e-01,5.903987497585633237e-01,3.640139951527390783e-01,-3.004578160315754878e-02,3.119600553100475640e-02,3.015668081271625223e-01,6.788133978843688965e-01
9.037581806376764337e-01,7.552640670454702221e-01,6.409154291354858257e-01,-2.007247670694257968e-02,1.642029477511507130e-02,1.475648968400554428e-01,3.456153869628906250e-01
7.058947159697641638e-01,7.386729525957197451e-01,7.101417430380294604e-01,-1.569515565135199547e-03,3.271116766438875167e-03,1.730275987720693949e-03,3.164983913302421570e-02
7.227689012908072863e-01,7.101499120168397461e-01,7.076803650899505804e-01,-1.980714165787376621e-03,1.470945382799167559e-03,-1.254220254084672907e-03,1.481487974524497986e-02
8.507347933169553400e-01,7.286325678253778859e-01,4.411966576870465784e-01,6.831998571635017337e-02,-1.447524787185116013e-01,2.738061344644547312e-01,6.590880155563354492e-01
6.924107574556851441e-01,7.665460641830889044e-01,6.829734323582561384e-01,-6.410000233239800853e-04,8.225679630896124903e-03,8.553654332554183788e-04,8.056772500276565552e-02
8.094601536744713277e-01,7.389225887377618429e-01,6.638192393452849727e-01,1.294978552006603029e-02,-3.110774415784675270e-02,6.313192544037526943e-02,1.768523454666137695e-01
6.550649126720907711e-01,6.898775271001169607e-01,7.585599038789738735e-01,-5.296675260338578467e-02,2.915514667634859156e-02,2.546609910484097170e-02,1.457129567861557007e-01
7.665688917191305629e-01,6.869973925575378892e-01,6.944672992424787417e-01,-3.694945094696230718e-03,2.838902101408743300e-03,9.023053884943180863e-03,7.811794430017471313e-02
6.929662645008526356e-01,7.401480624317656742e-01,6.809857397052072603e-01,-2.030973816191928433e-02,2.596279842852875636e-02,1.871342356462684861e-02,8.511845767498016357e-02
7.671048768562965803e-01,6.624861581936924981e-01,7.029595979424706487e-01,-7.460142681086538198e-03,4.310539970379879265e-03,1.661945198575884991e-02,9.695472568273544312e-02
7.322650438612294810e-01,6.960117229240053716e-01,7.212910807732116902e-01,-1.290929205636882383e-02,1.951647159275902987e-02,2.119630279290755231e-02,6.346152722835540771e-02
7.202571510373866337e-01,7.394684932306448966e-01,6.983592404335436932e-01,-7.779791947956122763e-03,4.652457263156294098e-03,3.347416446743749392e-03,3.936253860592842102e-02
8.684984713832857306e-01,8.001174808793238835e-01,5.174723649370319700e-01,1.631900491401634332e-02,9.935405396665510092e-02,3.998133536175207253e-02,3.729610145092010498e-01
7.396960810990214075e-01,7.387200803906113222e-01,6.403278213811767205e-01,-2.361735936806499611e-02,2.164701355680334963e-02,1.840217494759358724e-02,1.177839487791061401e-01
7.615473477363440269e-01,7.564175700606974306e-01,5.995283038099120665e-01,-1.311068813897673518e-02,6.995003647433179622e-03,7.280425955046436123e-03,1.620704680681228638e-01
7.136817680455845858e-01,7.128392480059522196e-01,6.833601125666114440e-01,-1.654780952360839635e-02,9.493065770598154915e-03,9.274918635936629796e-03,4.737597703933715820e-02
6.910959017600248888e-01,7.430557815400333777e-01,6.884679155487796187e-01,-1.009308922525477790e-02,1.928432668009566822e-02,1.330754442219429096e-02,6.925189495086669922e-02
8.660259218650325774e-01,8.665939213355762227e-01,2.281200459612907072e-01,2.147612721555519459e-04,-1.209274056152506716e-01,4.888166428424305793e-02,6.769972443580627441e-01
7.907016964467881159e-01,7.501483135333965047e-01,5.034910421282703386e-01,-2.099433214012180055e-02,2.920571874184765479e-02,9.031850276459045535e-02,3.175542056560516357e-01
7.888895009198909625e-01,5.667099696641222373e-01,7.604755642572391672e-01,4.350859927417356776e-03,-5.322898456743683192e-03,1.363982123408139999e-02,2.110877186059951782e-01
3.280814552435497022e-01,8.288599708367671015e-01,8.461364013684727903e-01,-6.805641378798242547e-02,-5.287425305669754549e-02,-1.539595291067302231e-02,5.317165255546569824e-01
3.805650628270867974e-01,8.457453087532380565e-01,7.338042820723920112e-01,-1.040924960043708158e-01,-2.245269416273248386e-01,-4.596294957695585409e-02,6.057485342025756836e-01
7.345548176961292919e-01,7.722789690076550251e-01,6.363259007404115097e-01,1.539116126664440533e-03,-1.443598277871773784e-02,2.596396869698802505e-03,1.242181882262229919e-01
5.086145233980785552e-01,8.163162682164324391e-01,8.576653808011317492e-01,-1.139015379139155654e-01,-3.291757410337898815e-01,-6.448433068817242819e-02,6.968347430229187012e-01
4.585808847732769089e-01,7.776767210522741447e-01,7.735376864702913080e-01,-2.095157030736176026e-02,-6.195655841660440560e-02,-5.297345611570487139e-03,3.368018269538879395e-01
2.328514268263669473e-01,8.363417359143876517e-01,9.750125834387005641e-01,-1.222310739331461671e-01,-1.243646928012967362e-01,-3.544936082789168497e-02,7.497383952140808105e-01
5.747465100095463519e-01,7.658195264952176728e-01,7.874831205943043644e-01,-1.033221322227634124e-02,-5.328212435009783109e-03,-6.161077332652379647e-03,2.040510922670364380e-01
4.650079038895165717e-01,7.973951726299121079e-01,7.615403048054059099e-01,-1.171542240448932536e-02,-6.137688834114099490e-02,2.664657639919015310e-03,3.340412974357604980e-01
7.680196535115595413e-01,6.261303081351288213e-01,7.686844846300445733e-01,8.497666560944980643e-03,-7.087705374726684278e-03,8.508421361868192048e-03,1.442632228136062622e-01
6.860886569209223573e-01,8.902546454320142688e-01,8.029024206588498691e-01,7.312039600741015999e-02,-1.561677636856665385e-01,4.044213117596445056e-02,3.543887734413146973e-01
5.010713038253788998e-01,8.258134891674709932e-01,8.728135935364399467e-01,-1.792263274826915234e-02,-3.223715037664171695e-02,-2.569192931006194711e-02,3.591531813144683838e-01
5.173107707265687250e-01,8.975269426871842482e-01,8.819265583630782057e-01,-8.805001583862846542e-04,-3.368086355664109965e-02,-3.778466053138509074e-03,3.772592544555664062e-01
8.185987566637137336e-01,8.175429872286008592e-01,5.669171842273534878e-01,-3.250775423896275305e-03,-5.957987046500200050e-03,1.430635301562479395e-02,2.526484131813049316e-01
4.528800607197215333e-01,9.115918348244560487e-01,8.651186144618943086e-01,-6.515170717173666970e-02,-1.232443923495147795e-02,7.129443064351646472e-03,4.523282349109649658e-01
5.397573119205575365e-01,8.808336662604110412e-01,8.975332819922189342e-01,7.145676317641568021e-02,-4.933956333561936511e-04,8.440085722743642660e-03,3.712686896324157715e-01
6.969467598029011057e-01,7.621821627282138190e-01,6.907390930201858792e-01,3.534617823090097262e-03,-1.898423251617172404e-03,7.110920731978734094e-04,6.891271471977233887e-02
3.966421123287043882e-01,1.158788235219186280e+00,1.053560388093405020e+00,5.229089258733602558e-02,-2.182651490059416000e-01,1.233766922359038828e-02,8.144441843032836914e-01
5.574584087742433525e-01,8.124578363785872614e-01,8.065154643649071753e-01,8.464387511110471954e-03,6.626305140169758481e-03,3.385764094218365189e-03,2.528354525566101074e-01
5.282430635169295119e-01,7.861303207991664488e-01,7.667885006654868718e-01,1.105695301542131831e-02,-4.971715112052468855e-02,3.328593978708057656e-03,2.640214562416076660e-01
8.111306378156470931e-01,8.147578647448547873e-01,5.541812199985447496e-01,-2.651620420519339768e-03,2.015008606071897260e-02,9.538587795467703273e-03,2.616873979568481445e-01
7.749288620740087952e-01,7.711312493311713867e-01,5.714851777162449631e-01,-1.976427496780940041e-02,-2.868426066826710447e-02,-1.621311277842164486e-02,2.122733891010284424e-01
8.474686678145385565e-01,8.608520706002975587e-01,5.170729084045047053e-01,-3.586155650913542409e-02,-4.215011268900935998e-02,-3.239839024148827296e-02,3.551046550273895264e-01
8.763488361310564079e-01,8.755535498608059131e-01,5.629655195731708694e-01,-2.640942976804009495e-02,-7.180652104285271953e-02,-5.693465247194377105e-02,3.539012074470520020e-01
7.079505983625117294e-01,7.744558689995562073e-01,6.747589621275312810e-01,5.777780960459788680e-03,-8.507438743449974305e-03,2.856977619277115826e-03,8.985443413257598877e-02
5.134077341249383419e-01,8.304504992520298501e-01,7.439959892914455031e-01,1.385939962310721307e-01,-1.686147340561747754e-01,8.610792224813204609e-02,4.957238435745239258e-01
6.745807557385159470e-01,9.960485843357431701e-01,6.238856111529984538e-01,-7.510833414656684082e-02,-4.060741790791156380e-01,5.653675799600409863e-02,8.021284937858581543e-01
1.075658701664714778e+00,5.125099640598413941e-01,1.057427534374510092e+00,2.484120458938673393e-01,-7.123323269807788072e-02,1.685290751432435286e-01,7.699066996574401855e-01
7.122975354490269639e-01,7.126912906776073919e-01,7.126020342228296389e-01,-2.575382682687600219e-03,5.156253026580321242e-04,8.093481651542329446e-04,4.773719236254692078e-03
6.970659173301437805e-01,6.897831862771203193e-01,7.630729851234784311e-01,3.702840188823824409e-03,-1.013235820246094271e-03,4.154134813776599031e-04,7.025250047445297241e-02
8.178953850085810551e-01,7.761104125105633411e-01,5.712051585224495742e-01,-2.080399983264986236e-02,-2.575590498434685016e-02,-7.081209592013153198e-02,2.657549381256103516e-01
7.037448007784968818e-01,7.365996177481686225e-01,7.002582366356675525e-01,-1.573384371268642503e-03,2.582587134997271511e-03,5.623713048384998935e-03,3.644804283976554871e-02
7.993623980804660523e-01,8.075576181958834532e-01,5.735400729326527447e-01,2.810314062897175703e-03,-1.428918460318409633e-02,-6.533391360010670085e-03,2.316847890615463257e-01
7.913507787797611215e-01,8.128226457442788710e-01,5.809990485581892905e-01,-2.500448514700563153e-03,-2.414978735432707704e-02,-8.122326478444848435e-04,2.258227318525314331e-01
8.214997176661246181e-01,7.989271800341178897e-01,5.119308589059734516e-01,-9.211160113641425617e-03,-5.001076634887131889e-02,-1.491542827322757565e-02,3.126976490020751953e-01
7.154463089904122830e-01,7.165951667576879736e-01,7.115557797174669741e-01,1.904185024462278419e-03,-1.275914672559300524e-03,8.995817182484527842e-04,6.254209205508232117e-03
7.130562760628411656e-01,7.169468657034046011e-01,7.136402386078595228e-01,1.206196573489028276e-03,-9.741242306118260081e-04,2.063930000281766642e-03,5.761653184890747070e-03
7.023381425439071402e-01,7.522356803664900227e-01,6.961235449436612432e-01,-1.854317603123163899e-03,3.748182660634669008e-03,1.635730021409428870e-03,5.384206026792526245e-02
7.035058308820346662e-01,7.292403040096872013e-01,7.003616137994677082e-01,7.654888835367475164e-03,-5.637345480519569650e-03,2.376812714894274703e-03,3.226674348115921021e-02
7.066506829780438981e-01,7.305815282921904741e-01,7.084610411485590120e-01,7.268854921053706985e-04,-9.206850376265767388e-04,3.947181779525900554e-03,2.415591292083263397e-02
7.792092320335640698e-01,7.096816325250298041e-01,6.881418502919627311e-01,-5.675522458452850888e-03,-1.675299297063970877e-02,-3.840188968344054876e-02,1.102651208639144897e-01
7.674641497896748099e-01,6.486182816172668675e-01,6.991971893417296968e-01,-3.533157884194932860e-03,-9.500226176258192573e-03,-1.987580100597116997e-02,1.102942749857902527e-01
6.394886085184768865e-01,7.317546229235782906e-01,7.808072407620028077e-01,-1.467729249660893950e-02,9.615318077957678376e-04,3.557955360313424728e-03,1.270121484994888306e-01
7.306182816189304985e-01,7.567038606781231191e-01,6.417066514923779330e-01,-1.359701304620891324e-02,1.036262887464702367e-02,5.524386324893104661e-03,1.089650914072990417e-01
7.514659870969073729e-01,6.830041830691377935e-01,6.900740876402594592e-01,-2.815854204449270027e-03,-8.230656235175909385e-03,-9.848219116394125311e-03,6.907216459512710571e-02
7.144615866173192886e-01,7.373623966079829728e-01,7.210212809967414538e-01,-2.590098870331124584e-02,3.284577211623471854e-02,2.909884512639620072e-02,9.059029072523117065e-02
7.500129311302262680e-01,7.053770060504505057e-01,6.940125781329063992e-01,-6.638577078990689530e-03,-8.033293367085032888e-03,-1.083005563193679965e-02,5.750184133648872375e-02
7.635456662819879448e-01,6.332322086491358748e-01,7.641974470416492693e-01,-7.484277402761782376e-03,-9.388745487461784903e-03,-1.237646361647120295e-02,1.340111047029495239e-01
8.089626253188131333e-01,8.010072534346052153e-01,5.350916730960872947e-01,-2.350155077317526552e-03,-7.005235586503063411e-03,-2.629114137652477194e-03,2.703227102756500244e-01
7.067571065274145248e-01,6.798284276526553871e-01,7.169432292525365069e-01,-5.184515585829910927e-02,4.001259495573833425e-02,6.519009611681875205e-02,1.634602099657058716e-01
7.419176974317627238e-01,6.749980602633909310e-01,7.168804294999736593e-01,-7.872786168451322009e-03,-1.711510011777617191e-02,-7.577934474385951240e-03,6.831263005733489990e-02
7.539074323130665611e-01,6.951778200964907617e-01,6.932877679914581925e-01,-4.208741887533648356e-03,1.836893667286247991e-03,2.347237174089189960e-03,6.036168709397315979e-02
6.415435408199577916e-01,7.011400234731512970e-01,7.662045634894966151e-01,2.024711909933634563e-02,-4.783392804433746204e-04,1.463147665354181835e-03,1.135768443346023560e-01
7.827079825418254977e-01,7.672860045159062281e-01,6.056200303198624457e-01,-6.586400615489648898e-03,6.619825914118585702e-03,8.307455211686106192e-03,1.712763309478759766e-01
6.803993955623757195e-01,7.099042865600886376e-01,7.679991924364749645e-01,5.459728473185878998e-03,1.918420884882781523e-03,-7.117468349431117780e-03,7.881676405668258667e-02
6.850186859520464022e-01,6.934780620361084003e-01,7.660325635206580719e-01,8.665187418500081354e-03,3.332638205860465139e-03,-4.292842310741806257e-03,7.914128899574279785e-02
6.818574626097745339e-01,6.947625197311297907e-01,7.718717324188373308e-01,1.085018862235585628e-02,1.034777138637677472e-03,2.360397411519961526e-03,8.649032562971115112e-02
8.904239215438781718e-01,7.399411832456945781e-01,5.237086418436824875e-01,-5.349204242632326495e-02,-1.395789578087804073e-02,-1.439646603118938661e-01,4.162774980068206787e-01
7.824741787161791917e-01,7.661225655605227169e-01,5.973543493463726595e-01,3.132356417802418733e-03,-3.190157868450109024e-03,1.244692675842625114e-02,1.789817363023757935e-01
6.964407745273933914e-01,6.953932330178561605e-01,7.738643358332832900e-01,1.579814298456362620e-02,2.404257463436839173e-03,-2.209010936572071166e-03,8.280902355909347534e-02
7.149584285993727528e-01,6.726471473202347839e-01,7.388860465390594268e-01,1.232211444895597169e-02,-1.441996614974708907e-02,1.173688233060672832e-02,6.976930797100067139e-02
6.901208502372994102e-01,6.807029383928586697e-01,7.582315480271663022e-01,1.161411346451989360e-02,5.110832034800967712e-03,-2.366106752021181203e-03,7.660969346761703491e-02
6.926957901450646604e-01,6.783032375305827477e-01,7.705177212881197946e-01,1.127270832329364120e-02,2.266997821913867023e-03,-7.212391362156100102e-04,8.821368962526321411e-02
6.942813001449205101e-01,6.951525912789184858e-01,7.678500794216168712e-01,1.611495071214390576e-02,4.771293422478192423e-03,-4.306704818507240025e-03,7.906983047723770142e-02
6.912303075207895109e-01,6.786675557722807728e-01,7.639878700665887479e-01,1.159222064379570975e-02,3.643244133898706702e-03,-1.891958212703287283e-03,8.257855474948883057e-02
6.447020995290142498e-01,7.761831257353339897e-01,7.507244562307451297e-01,-2.067667532317033971e-02,-4.370922122157389761e-02,-1.068912798905041067e-02,1.481381356716156006e-01
5.857357291492508722e-01,7.643460481928819883e-01,7.971833780658238444e-01,-7.314766482241243095e-02,-2.097936345618900411e-02,-3.885385509487210114e-03,2.371970862150192261e-01
5.679220675781304628e-01,7.766317979307815200e-01,7.735108409799347218e-01,-4.520457541416511571e-02,-2.964348483028703823e-02,-1.671206620786239161e-02,2.291780263185501099e-01
6.963650819135279724e-01,6.675658463224199979e-01,6.973667309070525899e-01,-3.129534125687261081e-02,-3.221493522048922420e-02,-3.364021135568844717e-02,1.015176773071289062e-01
6.605816774918551459e-01,7.073515932749788737e-01,7.893325803276581842e-01,-4.279798184689979218e-02,-4.193239827934862329e-02,-3.584851840166958931e-02,1.654324084520339966e-01
7.090059282657299455e-01,7.075156430154203591e-01,7.235086255905933683e-01,1.072804889647605009e-02,-1.059449261619753446e-02,9.718744648033402628e-03,3.463419154286384583e-02
7.621566338599963242e-01,7.348680142418734240e-01,6.510613821428692383e-01,1.338479301917219755e-02,-6.128880083911636065e-03,9.410132037463006527e-03,1.047424823045730591e-01
6.925294474767360597e-01,7.990994118385214007e-01,7.511864612852207079e-01,-1.149959093854181075e-01,-1.358290852580113506e-01,-7.673932997896194819e-02,3.481871485710144043e-01
7.071251388102299806e-01,7.399314744934403221e-01,6.666926521367789737e-01,1.231288282196875764e-02,-1.398871843813316064e-02,8.381400316612056672e-03,7.273308187723159790e-02
7.173236179941427926e-01,7.271432277030696056e-01,7.137967851719744239e-01,8.255052109527422424e-03,-3.422276978452821940e-03,8.624359888203645894e-03,2.462128736078739166e-02
7.864946638889362962e-01,6.516392931900294450e-01,8.217939314807122253e-01,-1.212756754239543155e-01,-8.634225706973486236e-02,-9.684168882169535975e-02,3.446963429450988770e-01
7.030688221882349653e-01,7.551602494092328755e-01,6.949435017881370191e-01,4.923188272218727811e-03,-1.375466605654255582e-03,1.985818548571968104e-03,5.738481134176254272e-02
7.897139523593138533e-01,6.816484057928446916e-01,7.181933761564770480e-01,-4.156216762159606923e-04,2.063844443728282425e-03,3.688142750011618592e-02,1.147103309631347656e-01
7.861022595728026641e-01,7.136357906159291886e-01,6.835631427881577737e-01,-8.121942746502930702e-03,6.074881741950155685e-03,3.068212684266117402e-02,1.070878207683563232e-01
7.134986180270891376e-01,7.592154271202363747e-01,6.884679742049621964e-01,1.084424364902952104e-02,-3.367624583103173003e-03,2.680073682508212103e-03,6.533946096897125244e-02
6.055613283236884747e-01,7.626378268584058651e-01,7.964784968917664187e-01,7.350678600427366927e-02,-3.226545737282730808e-02,1.938764892797981143e-02,2.271439135074615479e-01
7.192658592286613750e-01,7.154302279492740224e-01,7.091656563176306216e-01,4.634571522903613294e-03,-4.368873650877218122e-03,3.606778762107066411e-03,1.545027550309896469e-02
7.184364161999429177e-01,7.361673592564235147e-01,6.934880669833082267e-01,1.084300749033989368e-02,-3.432017377284722875e-03,2.719291718753907936e-03,4.230125993490219116e-02
7.658416068830599110e-01,6.464191988781009535e-01,6.994518593686236407e-01,1.296409782542312953e-03,-5.471242823164676906e-04,1.890349837587149487e-02,1.087145507335662842e-01
6.927084384636971182e-01,6.891908968380424660e-01,7.643007936791401669e-01,3.037864690893572316e-03,-2.043206148424141569e-03,7.260381131283928603e-04,7.369843125343322754e-02
7.730552757949115117e-01,6.930664736296290318e-01,6.961785315527552198e-01,4.592676174665713822e-04,-9.570735493682940367e-04,1.584323735891743704e-02,8.315869420766830444e-02
7.177079175360135954e-01,7.242236863752002929e-01,6.989330135664137966e-01,-9.701859402339323493e-03,3.712695054454685784e-03,3.380354360395443000e-03,2.958540432155132294e-02
6.968277860079811203e-01,6.979070077105884451e-01,7.477514190631232571e-01,-1.283009238996637297e-02,9.676421545763942006e-03,8.548687706491146093e-03,5.944238230586051941e-02
7.176860972572295383e-01,7.141668497386821635e-01,7.180256935529275575e-01,-4.093051912060052810e-03,2.970992113017864155e-03,4.276855291004307003e-03,1.205444429069757462e-02
7.149957052274397151e-01,6.999329614308815728e-01,7.202579282697885166e-01,-2.542194431196467645e-03,6.622804980682608401e-03,1.969655348221541723e-03,2.228120900690555573e-02
7.736528074483086659e-01,6.789626617443421663e-01,7.145943478134163529e-01,1.019342156108399332e-03,-7.284166531516365764e-04,3.674134413197030491e-02,1.044813841581344604e-01
7.848814332320727116e-01,7.607632682439654515e-01,7.518043504851218417e-01,-1.069346547553071819e-01,1.205846491124403924e-01,1.097727507508960143e-01,3.390504717826843262e-01
6.891864908470917150e-01,6.936776409869784832e-01,7.673098701179297265e-01,1.938825105864541666e-03,-7.870159392337986587e-04,-4.919192344609419308e-04,7.606858760118484497e-02
8.119965423043618014e-01,5.618177793900128725e-01,7.136318945307608130e-01,-1.852144852441091685e-02,-1.462900113248603168e-02,-1.016811876499822548e-01,2.834512591361999512e-01
8.403152704119413174e-01,1.858391292277282725e-01,9.323818337782521226e-01,-2.019242809513235593e-01,-1.143552313257093986e-02,9.325955789048429381e-03,7.874287962913513184e-01
7.144149593316636571e-01,7.088054785877946351e-01,7.217061072396637744e-01,-6.087821580941432317e-04,3.176585029229885438e-03,1.442841565323372795e-03,1.277325209230184555e-02
8.564933616561742902e-01,2.194270862315184645e-01,8.518155065773880263e-01,9.970172459453660596e-02,-1.033318821312431864e-02,4.770427233868616140e-03,6.581072211265563965e-01
8.782658310959995385e-01,5.933216175857413122e-01,8.294058251118630043e-01,-2.870553218869170350e-02,-1.482276642750028454e-02,-9.914595703429890383e-02,3.198109567165374756e-01
7.362997848289906111e-01,7.357480455986619150e-01,6.760149340642505056e-01,-1.292328341156444640e-02,7.390581987160175885e-03,6.578387129254555619e-03,6.630254536867141724e-02
7.210113606646381124e-01,7.074227064934475173e-01,7.098538800979261598e-01,-4.663614268541538786e-03,2.005653315695146710e-03,8.141311781440682379e-04,1.538928225636482239e-02
9.150977597740099778e-01,2.873660513901548086e-01,9.523809810754173544e-01,3.131844109298666246e-02,-5.931866641074724084e-02,-2.048474528542539863e-01,7.471459507942199707e-01
8.797003266595214699e-01,5.934886139801357485e-01,8.309366635384821675e-01,-3.028259633472653312e-02,-1.700381487230911981e-02,-9.889340004061586420e-02,3.213977515697479248e-01
8.598066812634661549e-01,3.592470686109940359e-01,8.418553652249984864e-01,9.706865676173348501e-02,3.833456463655281893e-02,-1.425281194992594203e-01,5.792364478111267090e-01
7.587881904430890945e-01,7.352469520391066160e-01,6.575711760049433030e-01,-1.305662760443021021e-02,5.397692866077900310e-03,8.776106227373240559e-03,9.615711867809295654e-02
7.363158403267222596e-01,7.002872356959478628e-01,7.010699001453490897e-01,-5.681483050954648679e-03,1.774624668689166575e-03,2.475155091681173220e-03,3.735156357288360596e-02
8.915133636953305185e-01,5.365124472714316584e-01,8.686448766492408380e-01,7.293635501593583037e-02,1.549181786338981945e-02,-5.776080941764891175e-02,3.809440135955810547e-01
7.691011618029861552e-01,6.934367391233114963e-01,6.864317462912187251e-01,5.570500786565084697e-03,-4.858199117303674264e-03,8.971647650696796053e-03,8.191198110580444336e-02
7.710372978314028458e-01,7.108022421705967320e-01,6.806900897291318087e-01,8.606832874007538242e-03,-3.332806000453495971e-03,4.919006608796068318e-03,8.171264082193374634e-02
7.596912045402103297e-01,6.857102420580858393e-01,6.950851542449805187e-01,-2.634506091028204072e-03,5.641654386987632330e-03,8.221857432683575551e-03,7.201812416315078735e-02
7.648887393371494037e-01,6.728999603483076797e-01,6.691311860455823046e-01,-1.473381158927111875e-03,4.387535482048858428e-04,3.166799708224736498e-02,1.088048741221427917e-01
7.684087332873987819e-01,6.916027936778809115e-01,6.940141013818039717e-01,-3.781024299807231250e-04,1.528543978984669201e-03,1.648716646878474468e-02,8.088684827089309692e-02
7.532914752709206629e-01,7.020532112069397535e-01,6.944418957686043781e-01,-2.157525882487569546e-03,1.599908220789110231e-03,3.143292888429608748e-03,5.589782819151878357e-02
7.686553754988345588e-01,6.453668015829028271e-01,6.987984592189130373e-01,-3.022614957805544803e-03,4.195712407836638472e-03,1.974859711902433868e-02,1.127729713916778564e-01
7.680242217515564906e-01,6.813026735309483106e-01,7.088845141887195611e-01,-2.246440049848403338e-03,5.736361659301419599e-03,4.943731955685281600e-03,7.795269787311553955e-02
7.729871082036395835e-01,7.319183014443890745e-01,6.415909424378173354e-01,-5.541390249656912535e-03,4.078094833367087134e-03,1.184563981584253918e-02,1.188203990459442139e-01
7.724702363353541656e-01,7.184734756259336663e-01,6.852195672712299013e-01,-1.327481604052512497e-02,1.437461573936823535e-02,2.746397619482923713e-02,9.606475383043289185e-02
6.819641257669535328e-01,6.936330487303359327e-01,7.613293121343149839e-01,9.270409676814693120e-03,-1.614516117789093451e-03,4.971894150607615061e-03,7.647673785686492920e-02
7.707782171921510050e-01,6.815288769459593166e-01,6.938164777527680016e-01,-1.831722990608241198e-04,-8.242323651959564210e-04,9.687190994352090287e-03,8.546012639999389648e-02
6.972951264557812889e-01,7.478444283771815693e-01,6.988782744739187036e-01,7.848393961042164635e-03,-1.211457857038407068e-02,1.016369870921817603e-02,5.841827020049095154e-02
7.039423754227581709e-01,7.468916728446262088e-01,7.017294539876813841e-01,7.364084948866336973e-03,-8.504239353862639086e-03,8.389572720367105899e-03,5.035268515348434448e-02
7.681082849422989911e-01,6.979833092203099332e-01,6.886382144834264363e-01,3.458885876125127826e-03,-9.116801857769273694e-04,2.830012158345190064e-03,7.564773410558700562e-02
7.535415069468822669e-01,7.079177142312944593e-01,6.814415354235543454e-01,6.390672436185861754e-03,-3.225667898946175949e-03,3.843305387799277051e-03,6.471871584653854370e-02
6.933307387657624554e-01,7.249999160004995113e-01,7.146131409948016655e-01,2.568137543295402961e-02,-2.623361358214768707e-02,2.642480902686352578e-02,8.318593353033065796e-02
7.211032024579617783e-01,7.186066181825719879e-01,7.099946184527157200e-01,7.384249589190186938e-03,-6.462870803863633110e-04,2.510104121440123130e-03,1.690078154206275940e-02
6.931221415715445033e-01,7.279027847409559326e-01,6.900439186409605963e-01,1.307997769328495853e-02,-1.578586651611108699e-02,1.202926444733798741e-02,5.496525391936302185e-02
7.459947312999473112e-01,6.984154046990337372e-01,7.004519857446560582e-01,1.186323691194503737e-03,-4.764159643840060708e-03,1.401490881626642595e-03,4.742622748017311096e-02
6.902028497645237293e-01,6.968635167563822508e-01,7.675707640450584179e-01,2.191498651981592036e-03,-1.545077827263366919e-03,2.735939169745321697e-03,7.455778121948242188e-02
7.365203033231896290e-01,7.355039446365868594e-01,6.789486913295819104e-01,1.395504847429991820e-02,-4.585638961442764332e-03,4.471733856756462087e-03,6.296279281377792358e-02
7.152143089043042634e-01,7.326774523812591422e-01,7.092000890266975111e-01,6.782479103379806563e-03,-4.348651365751649706e-03,6.930646326496227132e-03,2.801783941686153412e-02
7.083277420525647683e-01,7.307961653092689414e-01,7.066855702239486225e-01,4.182322324941744121e-03,-8.042244671521571030e-04,6.407945465682760760e-04,2.449635602533817291e-02
3.085873479589103519e-01,7.432260698649481023e-01,8.664681118589154796e-01,-2.422979698049864128e-01,-8.563315388940909156e-03,-1.271640267076992563e-02,6.591625213623046875e-01
6.289111802483519087e-01,6.858365009024590675e-01,7.749603417820408735e-01,-6.294397957500225127e-02,-9.228083205781778542e-03,-9.270797683107970255e-03,1.692811399698257446e-01
5.838254720811049125e-01,7.672475496044107723e-01,8.516159370915978855e-01,-1.638181816384432499e-01,-4.367673727101953340e-02,-2.322138581443893013e-02,3.795873522758483887e-01
6.754983877036895290e-01,6.710826330755710334e-01,7.565522728411911979e-01,-3.006460109730505273e-02,-7.036726839707758280e-03,-6.824731583590974704e-03,9.973496943712234497e-02
7.104900353933614188e-01,7.378283588489168432e-01,6.923506198441045090e-01,8.794508974947783456e-03,-3.220270868520782107e-03,2.635947353120222329e-03,4.308490082621574402e-02
6.302635711273798513e-01,7.435913123583692830e-01,8.269403999306084163e-01,-1.649192490711990366e-01,1.820657961150729670e-02,8.260696158581238083e-03,3.347091972827911377e-01
7.394043961339736848e-01,6.573179369782380377e-01,6.935726812442245537e-01,2.100210068651036169e-02,-2.191531094243829442e-02,4.452452602243325841e-02,1.174222156405448914e-01
6.911462460966177890e-01,6.962897399027259127e-01,7.632855118889640966e-01,1.746607885651610273e-03,-8.740554508200516380e-04,3.267453733777576919e-03,7.002109289169311523e-02
6.801492401885897987e-01,7.443258926021754096e-01,8.111808605287180729e-01,-9.024353522060325761e-02,3.105861976402720867e-02,1.925345562733992225e-02,2.032644748687744141e-01
8.274313001622287667e-01,7.835964233112393540e-01,5.711576385155686664e-01,6.774140593058548127e-03,1.866794771180467841e-02,-6.588752858968086046e-02,2.656512856483459473e-01
7.191775887142084489e-01,7.157370586755980035e-01,7.111057419796424917e-01,4.734680252085368864e-03,-1.382803488211694319e-03,2.518887226604326485e-03,1.188456732779741287e-02
7.211928682808593782e-01,7.153309256671700478e-01,7.137855951002560762e-01,3.609320679616434373e-03,-2.485141910783636074e-04,1.542480113507141122e-03,9.602794423699378967e-03
7.073029030382831372e-01,7.217993980368038187e-01,7.110338128069982888e-01,-4.702253019226724368e-03,1.833872130721884769e-03,1.850908814287494705e-03,1.602134108543395996e-02
6.646330061121645816e-01,7.470094570227794328e-01,7.745658816920228951e-01,-2.992174413049688078e-02,2.102893420904464530e-02,1.929330440194513413e-02,1.222477480769157410e-01
7.342097063460335526e-01,7.528815704804300291e-01,6.655996870518855468e-01,-1.593781303201474361e-02,8.113459183143201942e-03,1.294869673219091293e-02,8.831524848937988281e-02
6.973198053094286086e-01,7.202021079399176795e-01,7.395729387554618173e-01,-3.131044718342192515e-03,3.962580551243912765e-03,7.305366377377513556e-03,3.973285481333732605e-02
7.120869722922428258e-01,6.881857895084493304e-01,7.425192689684644298e-01,-3.041002564005506476e-03,9.868413453742518743e-03,5.679146504981742553e-03,5.139471963047981262e-02
7.157209711050726009e-01,7.248375418433594675e-01,7.116495245680943826e-01,-1.414263378181993686e-02,8.625502722404572095e-03,1.109329669256827605e-02,3.645860776305198669e-02
7.131905452205049567e-01,7.136371544941590983e-01,7.136856497766806973e-01,-9.865356997481159775e-04,6.091220857645859984e-04,1.755556511915545891e-03,3.674541134387254715e-03
7.125638166607625168e-01,7.184051627702231491e-01,7.144128456697318441e-01,-1.329627577840898720e-03,5.198908817814467537e-04,1.578132012480784304e-03,6.350236479192972183e-03
7.105608650401740167e-01,7.065373291162445613e-01,7.074858033032230820e-01,-9.051275694305249697e-03,9.052351404012242211e-03,1.025488486396444222e-02,2.864214032888412476e-02
7.155789102817100567e-01,7.135667672795127370e-01,7.134012446003364927e-01,-4.239597217683485500e-04,7.577123382592338948e-04,2.202949781935424991e-05,2.583067631348967552e-03
6.970577951605242406e-01,6.974633293139790302e-01,7.277480171940483578e-01,-1.200882752605639085e-02,1.143615841975782407e-02,1.199506105267562905e-02,4.675730690360069275e-02
8.033525536246067800e-01,7.477723116679740878e-01,8.308268359178012652e-01,-1.368537954907740051e-01,1.139513797862983652e-01,1.438754655138269056e-01,4.032531678676605225e-01
1.751038851498318838e-01,1.150179438328410075e+00,9.638901944703562874e-01,9.267812404772689250e-02,1.445049961981934722e-02,-3.821752584377464262e-02,9.135676622390747070e-01
7.230254278793857292e-01,7.033583751462862965e-01,7.195213682918949472e-01,-1.923217587374214874e-02,1.501398923466191505e-02,1.413551924247118119e-02,5.211031436920166016e-02
6.952338839995484410e-01,7.127299808821758731e-01,7.355416737267702620e-01,-4.494476616958148485e-03,4.476659953850080538e-03,1.105995417654000688e-02,4.139193892478942871e-02
7.234802044383648045e-01,7.239944731293591618e-01,7.074315172192935375e-01,-5.363571095801990610e-03,2.183533851673084576e-03,2.280579809099582932e-03,1.955219730734825134e-02
5.867653595625230700e-01,8.795720135021589670e-01,9.449048130405921508e-01,1.393681767190930731e-01,-2.989843939329123179e-02,2.899025572023119016e-02,4.154605865478515625e-01
7.210883644130585690e-01,7.004965874879433008e-01,7.173488605911102489e-01,-1.393356619324620993e-03,7.659938762529681575e-03,1.251768671703239362e-03,2.339981310069561005e-02
7.296098703112783301e-01,7.326681252753801665e-01,7.264315289084598559e-01,-1.987177330581388693e-02,-1.953649583823982919e-02,-2.093505342879641712e-02,6.061097607016563416e-02
7.394769882414443662e-01,7.208738768236281347e-01,6.988526085584373382e-01,-8.017391684956695977e-03,3.518352134290198517e-03,3.432514538016351747e-03,3.880714625120162964e-02
7.097925453935461926e-01,7.084960115282213922e-01,7.172855708770559113e-01,-4.387950736121032889e-03,-4.083882655267972311e-03,-2.508908829351384675e-03,1.393635105341672897e-02
6.998535693526106716e-01,7.200444396181306939e-01,7.176780459169525006e-01,-2.993319273061268403e-03,-3.438264735941245348e-03,-9.406132863373044273e-03,2.632987685501575470e-02
6.520190726118730851e-01,9.603630975374346512e-01,4.951013668858218475e-01,-8.966777841096688906e-02,3.604662702962553311e-01,2.648375101651476715e-01,8.901849985122680664e-01
7.887369060074497229e-01,7.790655311206668987e-01,5.600013555411486044e-01,-6.642623871868219392e-03,2.252887863593074948e-03,2.679431814907870871e-02,2.291346937417984009e-01
7.932677124034027694e-01,7.672794283325520270e-01,6.170461642992606244e-01,5.424848684868834731e-03,-1.240869362717548184e-02,1.341757412768978565e-02,1.680477261543273926e-01
7.647633602086223448e-01,7.090661112802091326e-01,6.519887125193999378e-01,-1.434286696699600336e-02,6.965811755615305273e-03,1.410761136743939916e-02,1.043976172804832458e-01
7.091372630884977823e-01,7.151461695786882622e-01,7.124710116411751004e-01,-1.402360764339235415e-03,-2.758726306362644428e-03,-3.003677703673886690e-03,9.109689854085445404e-03
7.179115121136884214e-01,7.198321126771016765e-01,7.185754084542895770e-01,-2.260144553290867504e-03,-4.911210510906696344e-03,-5.011251894998908739e-03,1.287932600826025009e-02
7.660498765437460111e-01,7.081050358711240555e-01,6.768421295207340815e-01,-4.775642174413627719e-03,1.313097566521173988e-03,5.011969459791681958e-03,7.934387773275375366e-02
7.079117938135679466e-01,7.211071527656458535e-01,7.125087738463374842e-01,-1.366651297398903224e-03,-1.432046303401112580e-03,-4.138126728705868000e-03,1.406124699860811234e-02
7.754801853461029681e-01,7.087870256506316746e-01,6.786582197476995759e-01,-1.481091333054005083e-03,-5.995763973488167121e-04,5.274207853114957524e-03,8.634939789772033691e-02
6.258668469305516124e-01,7.940866890811897338e-01,6.077484747286003852e-01,-1.765489594460180334e-02,-1.344219237930475430e-01,-1.591288377915697771e-02,2.959333956241607666e-01
7.702791551353224131e-01,6.325766242016866991e-01,6.629255164370281284e-01,-1.221600536809763597e-02,1.560520277752908830e-02,7.240590802019432337e-02,1.805824786424636841e-01
7.501174631592947284e-01,6.910646310327267505e-01,7.141441938154844404e-01,-3.365126287293474135e-03,9.993456164239682138e-03,5.202245933030751057e-03,5.542345717549324036e-02
7.620506574269091393e-01,6.597950651908625064e-01,7.215202204673898390e-01,9.983219961474009557e-03,-1.151366586728079164e-02,3.370534647505035730e-02,1.098148301243782043e-01
7.662413104411921472e-01,7.056167990681136981e-01,6.700327254029606605e-01,2.313713883962290746e-03,-1.882042885754147061e-04,7.644761660033031619e-03,8.538335561752319336e-02
6.650054580837790885e-01,7.846378132821837381e-01,5.317631915766891648e-01,-3.127366031820558168e-02,-1.365349732866943389e-01,-3.507206668041299574e-02,3.324983716011047363e-01
7.442817300715095508e-01,7.779863759289893377e-01,6.192958207320146125e-01,-8.982626084645110864e-03,-2.473520311753452799e-02,-6.132580662575737654e-03,1.521856337785720825e-01
7.605635152730942927e-01,7.135227309870999512e-01,6.837219141722786775e-01,1.050767217081042572e-02,-4.424863562419153150e-03,2.994546100353289754e-03,7.014022767543792725e-02
7.234122993146825387e-01,7.812479127843564575e-01,6.623171529777930333e-01,-1.340280154582217456e-02,-1.580495802010086631e-02,-5.164604700554016430e-03,1.094502881169319153e-01
7.484029989441345343e-01,7.825094478298173506e-01,6.214469054626999833e-01,-1.176755140544055896e-02,-2.087089174686860074e-02,-1.049340963136635545e-02,1.538299918174743652e-01
7.302063984604232338e-01,8.121328217896744972e-01,6.198577197119726767e-01,-1.344206973381925109e-02,-4.203618137018073908e-02,-3.083102033766679101e-02,1.913742125034332275e-01
7.975503300019914921e-01,6.125936507080819160e-01,6.366077659697968461e-01,8.821009373312658011e-03,-1.084120016164603038e-02,1.725030673403747383e-01,3.467016518115997314e-01
4.095187354344937414e-01,1.069053296646397033e+00,8.100791254093409055e-01,5.740982849308842381e-03,-2.499435875455999767e-01,1.214496935102755970e-01,7.503435015678405762e-01
6.816797417729439923e-01,7.727938133490462880e-01,7.217452863701243615e-01,1.570848763715607110e-02,-2.810112409668369046e-02,1.153323872937381429e-02,9.881711751222610474e-02
7.152193901240613272e-01,7.152037127818627882e-01,7.137146672355862975e-01,2.628605686394531386e-05,-3.552437678762586045e-04,1.037972466145958058e-03,2.419436816126108170e-03
7.076256298692031876e-01,7.077883449723860743e-01,7.221620689025783912e-01,1.103171644900114443e-03,-4.519005603921811415e-03,2.111538865199102076e-03,1.694875210523605347e-02
7.388810005787034285e-01,7.107276448368097244e-01,7.032451394907687225e-01,5.726231569262337819e-03,-1.944035022435565765e-03,1.456767588703238589e-03,3.428309410810470581e-02
7.157351553969424351e-01,7.097389408540016875e-01,7.250415743454047268e-01,1.961017238464829275e-03,-9.466679467338780284e-04,2.240765659651815841e-03,1.441026385873556137e-02
7.184973825321709917e-01,7.075745956007561954e-01,7.055747466054429484e-01,3.625728301360063577e-03,-2.403413252641105162e-03,1.455830666450974240e-03,1.443176437169313431e-02
7.198143542440217368e-01,7.120715858613271276e-01,7.091891340507532338e-01,4.590231302110433197e-03,-9.558305917856431281e-04,4.432907630484182043e-03,1.467925962060689926e-02
7.224817045683824546e-01,7.095859685291155960e-01,7.129948285273554065e-01,2.165227099130328115e-03,9.038914822351336439e-04,-1.215459622105891438e-03,1.244621537625789642e-02
6.815152025901420885e-01,6.946689829225118906e-01,7.657417271024259398e-01,9.398526204735213954e-03,-2.088126310721677165e-03,3.909562690625418939e-03,8.051809668540954590e-02
7.183520696699295938e-01,7.130718361812117267e-01,7.164583534497015460e-01,1.942630588569286502e-03,1.221364046485561728e-06,1.909297219228263051e-03,6.612522527575492859e-03
7.206766780878655076e-01,7.162358579397224423e-01,7.167156343717522304e-01,4.395549680152650678e-03,-3.480802009662802531e-03,4.701580289987647085e-03,1.335835177451372147e-02
8.196585317435536311e-01,8.064448923497368193e-01,5.890931694364254234e-01,-5.413589293609108455e-02,-4.827025442447135939e-02,-1.667139266789293139e-01,3.865890800952911377e-01
7.618930358316761131e-01,7.882894120236826341e-01,5.657710832747953056e-01,4.186379740892189234e-03,-1.105452120084168127e-02,-1.335559573931758420e-02,2.128186970949172974e-01
7.796528815452103967e-01,8.153072840591109038e-01,5.984785319017145166e-01,-9.658607530582227069e-03,-6.577900082154414241e-02,-2.652157928665570957e-02,2.364861965179443359e-01
7.798831288808623086e-01,7.766794286975455819e-01,5.631927288061019388e-01,-1.540887127332862643e-02,-4.527865815923652615e-02,-3.420233745080917404e-02,2.379978001117706299e-01
7.900634660521017594e-01,8.108304011474313233e-01,5.817518727621868724e-01,-1.390984126666660941e-03,-2.094275069712402126e-02,-1.214498530281282219e-02,2.234168350696563721e-01
7.502437374823813787e-01,7.793510338186756536e-01,6.128624040696314390e-01,-3.104264251930260749e-03,-2.607652988182458317e-02,-1.928821044948637094e-03,1.606228202581405640e-01
7.379715215157363062e-01,6.742357480720398977e-01,7.338746445051166356e-01,7.674640211495290833e-03,-1.267140738882481001e-02,6.787189945089501346e-03,6.793016940355300903e-02
7.091422450306337222e-01,7.233295149413812020e-01,7.100209174808486123e-01,1.751890953177780933e-03,7.386141150227719734e-04,1.049493302240832272e-03,1.427350845187902451e-02
7.642810798180696974e-01,6.891166116959437371e-01,6.744504699807093440e-01,-2.604047622011694714e-03,-1.592041008213476326e-03,-1.181000774768761231e-02,8.610192686319351196e-02
7.527318680978946075e-01,6.874881110895058045e-01,6.976222151664185356e-01,-3.846276311969478064e-03,-7.855743564433690859e-03,-8.475224647258835023e-03,6.436822563409805298e-02
7.674159560284973258e-01,6.758845066538392565e-01,6.694546479735200561e-01,-4.230840009305185238e-04,1.791439384774105999e-04,-3.666023432930112097e-02,1.141947284340858459e-01
7.542594003597393737e-01,7.132801034089829573e-01,6.913141255648314054e-01,-9.526785866892543281e-03,-4.420356260485695798e-03,-3.713535975669428075e-03,5.860226973891258240e-02
7.230452027674442173e-01,7.336927959835424229e-01,6.941743798025499235e-01,1.309544258877757411e-02,-1.805281894721325400e-02,1.192706582347256676e-02,5.633160471916198730e-02
7.488761735613755910e-01,7.072147092563697557e-01,6.682217970488268932e-01,-1.311986226169897969e-02,-7.956286079441581699e-03,-1.442821430208261410e-02,7.881273329257965088e-02
7.589605123159627320e-01,6.826772557352224213e-01,6.855287610963434197e-01,-4.776992148311493165e-03,-4.242775007941502335e-03,-9.352664560751214676e-03,7.742495089769363403e-02
7.154945866608168892e-01,7.139944662963221278e-01,7.134500960038897555e-01,1.437644836471985176e-04,-8.141395866437061259e-04,1.772178966448332183e-04,2.346915891394019127e-03
6.968704814071147169e-01,7.411896129774829811e-01,7.006756146872227253e-01,-1.148287638941274461e-02,-1.741114897410157153e-02,-1.041916377158829884e-02,5.865760520100593567e-02
7.120283764650500169e-01,6.906463048346980216e-01,7.367602308953343782e-01,4.481193279007972610e-03,-8.665572406597365010e-03,3.209147142823723636e-03,4.375033080577850342e-02
3.908054109682757016e-01,8.448968060944710423e-01,7.586264492512109214e-01,3.259052370892128597e-02,-2.619581950447403829e-01,4.240093188825894144e-02,6.236290335655212402e-01
6.811924726009779274e-01,7.947127511273165412e-01,7.234239506965497446e-01,-6.182290291619113413e-03,-4.155474873538760744e-02,-9.992434033107410601e-04,1.231838911771774292e-01
7.145890153672163070e-01,7.162421733577246652e-01,7.132695396113643005e-01,8.829035765351417710e-04,-4.184250076703903030e-04,1.538112792219048562e-04,3.096775384619832039e-03
4.573942911114208254e-01,8.118750082910732857e-01,7.783696791046555985e-01,1.985587407085978931e-02,-5.818903789916458208e-02,-6.466122082406993050e-03,3.554831743240356445e-01
7.599268341836432628e-01,8.066161386065509031e-01,6.285762038341753399e-01,-8.147069656831812086e-04,-6.501774693776847525e-02,-3.506416750751500944e-03,1.956689804792404175e-01
6.980323595324654518e-01,7.584713244674899935e-01,6.508202988474953710e-01,1.238785289927840649e-02,-1.855357825961709978e-02,3.753355241142111807e-03,1.013441681861877441e-01
6.924357373995781995e-01,7.614197479414337444e-01,6.946065899910182084e-01,2.610254055009861469e-03,-1.138815623085883723e-02,5.746193312708968229e-03,7.157038152217864990e-02
7.528297015540279524e-01,6.878195825983253187e-01,6.950497551004048979e-01,3.652852005135852082e-03,-8.388747408318068810e-03,6.668495666012819525e-03,6.475420296192169189e-02
6.952978140843948385e-01,7.716481375615565907e-01,6.797314911965054440e-01,-3.971640561701985511e-03,-9.383030929332810896e-03,2.155581925400423392e-04,8.701586723327636719e-02
7.377792974891730360e-01,7.035542043335564211e-01,7.000800214243225739e-01,1.648134243849114396e-03,-2.178578210008620761e-03,-4.895993347185183774e-04,3.640656545758247375e-02
7.385174581479835298e-01,7.053024744032617699e-01,7.090726267155744722e-01,1.802636469888956343e-03,-5.341012314407549491e-03,7.178122249239701465e-04,3.300147131085395813e-02
7.027760510305053332e-01,7.685720152338112454e-01,6.446432322558208750e-01,4.156247534824226639e-03,-2.135364375665261757e-02,1.383355323062929231e-03,1.138373240828514099e-01
6.808181570823707007e-01,7.612587855555398297e-01,6.857795171470065787e-01,6.400734614520525549e-03,-1.209217787220968378e-02,6.777792539571912689e-03,8.243543654680252075e-02
7.002385334446079579e-01,7.639078776584913300e-01,6.840530880933001212e-01,7.864114634272773366e-03,-7.378972869936864000e-03,1.564663549364011738e-03,7.551487535238265991e-02
7.670306625321126059e-01,6.881458290917001897e-01,6.962951614004370127e-01,2.871434653561780181e-03,2.361793869918235155e-03,-1.558445851588143895e-02,8.010284602642059326e-02
7.662643699560822697e-01,6.984255602176651090e-01,6.422282552894974517e-01,5.407474020966125759e-04,1.296262411797370574e-03,-2.042495129134607595e-02,1.132698282599449158e-01
7.231077600707493946e-01,7.091270121535218074e-01,7.112190341436354091e-01,1.625319682417785327e-03,-1.384432301519812700e-03,-1.627487792105488133e-03,1.386401616036891937e-02
7.012872006149728499e-01,7.363388465291953455e-01,7.023876061829751327e-01,2.089074237370148069e-03,2.698801620032902429e-04,2.125682794048914994e-03,3.490164130926132202e-02
7.639927522879075283e-01,6.874310238213237056e-01,6.787972438103569983e-01,1.045098518103422178e-02,7.158995301082932486e-03,-2.592406199911146888e-02,9.536693245172500610e-02
7.232565690664979341e-01,7.288367296965289066e-01,6.965889211166406136e-01,1.374528259484520190e-02,1.760800659574500784e-02,-1.249133382584335060e-02,5.344282835721969604e-02
6.872674535835685550e-01,7.254938968487276707e-01,7.177362642871295551e-01,5.380586802988919851e-03,7.370932108581589211e-03,-1.227396896785037071e-02,4.389407858252525330e-02
6.189867677713761784e-01,7.305180790381943234e-01,7.366749211345315906e-01,3.374407797190858566e-02,-3.124736892941110816e-02,2.150451149020526226e-02,1.445556432008743286e-01
6.870791429262377292e-01,7.202797655340279492e-01,7.353098731138720812e-01,6.736024617262384613e-03,4.856802148108416498e-03,-1.380695126943985371e-02,5.104877799749374390e-02
7.375364912177183596e-01,6.862413481457767528e-01,6.273247422093669590e-01,2.341631358748878095e-02,-2.363962673738987871e-02,5.629927006257645639e-02,1.481714695692062378e-01
6.874660058452120026e-01,7.114157476002325176e-01,7.428335165438544330e-01,2.173942883728599909e-02,1.181145596707308676e-02,-1.391828071306395673e-02,6.877942383289337158e-02
6.991655402034963052e-01,7.053566487573227350e-01,7.362544512562193555e-01,2.285389575634489377e-03,3.517114423566896839e-03,-8.396737274782222621e-03,3.806035593152046204e-02
7.157385256379006355e-01,6.999798690510248278e-01,7.233043826001909204e-01,5.050827215575878250e-03,9.569520740595692174e-03,-5.803095381817407854e-03,2.961575053632259369e-02
7.224303566387973996e-01,7.061737426100642701e-01,7.214599790997996420e-01,1.529155771982464683e-02,1.455600262958326938e-02,-1.548077748226195545e-02,4.801598191261291504e-02
7.143666253023009949e-01,7.168148393870498181e-01,7.147623994951236570e-01,-3.408711201400451253e-04,8.947004681570568585e-05,5.002676839397314414e-04,2.510945312678813934e-03
7.171757803797891295e-01,9.128421223175142707e-01,6.917523265674162536e-01,6.494152478003804851e-02,1.874384924612955139e-01,-5.390664914022458287e-02,4.131292104721069336e-01
6.225941318766385901e-01,7.680385482422371624e-01,7.405234068138225600e-01,-1.888782255500463456e-02,5.463230664588082652e-02,1.466934700828351201e-02,1.690536141395568848e-01
5.725101244655852462e-01,7.379841589899842624e-01,6.961703390689880644e-01,8.279354547375232520e-02,1.032286305868186510e-01,-5.713882711398170222e-02,2.907546162605285645e-01
6.819307917548270703e-01,7.468163408549451932e-01,6.482423716034697581e-01,3.850138512746179714e-02,5.907923704077358562e-02,-3.714755891234521740e-02,1.630610227584838867e-01
7.630212789419903441e-01,8.007044577366070337e-01,6.098917714169470594e-01,2.295658613957379454e-02,6.811843632456920927e-02,-3.531137685503622087e-02,2.233408391475677490e-01
7.784871836123142819e-01,8.067955267971037570e-01,7.863325080976979464e-01,1.148932875769218959e-01,1.158778063254656959e-01,-1.160370786941039428e-01,3.477341532707214355e-01
7.703305142106916525e-01,6.944688097253600700e-01,6.928486779988054511e-01,5.571051518281051364e-03,-5.450010320059053837e-03,1.668919491938760519e-02,8.305621147155761719e-02
7.875706573943398459e-01,7.141244781295490451e-01,6.952548518258790944e-01,1.332509273415625681e-02,-1.425826657482102446e-02,3.252548332281907789e-02,1.070168018341064453e-01
7.531759965838604742e-01,6.950362315672615754e-01,6.924133943022836579e-01,1.566894727173009190e-03,-2.491393712260787843e-03,7.750627496442971318e-04,5.972764268517494202e-02
8.560410761044997541e-01,5.946644801031828464e-01,7.427810200485883696e-01,-8.452496075022616906e-02,2.060099830327328380e-02,1.164227176952111337e-01,3.389858305454254150e-01
7.579297012402698153e-01,6.746844943715155640e-01,6.817071532246852250e-01,1.046633275867145038e-02,-9.494225902097697123e-03,2.758169776838267917e-02,9.631086885929107666e-02
7.737467365128571917e-01,6.982702858693441428e-01,6.970527928978020871e-01,-4.126821075122555013e-03,3.101257760501729792e-03,1.451750151095343271e-02,8.063676208257675171e-02
6.909007843425821749e-01,7.651742420281431034e-01,6.814973675335850301e-01,2.299367994287874334e-03,7.660076527788692996e-03,1.350619339973876693e-03,8.062728494405746460e-02
7.791948540363808906e-01,6.499549729475408988e-01,7.103529990404905403e-01,1.347664334784943411e-04,-8.983503458893664709e-03,2.057285670808236752e-02,1.185619086027145386e-01
7.638594056893212025e-01,7.018682394309559980e-01,6.944484575358516043e-01,7.596831685154597190e-03,-4.769541594451642830e-03,1.346574611292738338e-02,7.171665877103805542e-02
7.658096624072094905e-01,7.035133553582650912e-01,7.004685968396847651e-01,7.995978083317298313e-03,-7.123274517905493416e-03,1.260056817935384897e-02,7.000093162059783936e-02
7.628324254979766961e-01,6.926650641864580127e-01,6.893720157992591080e-01,6.004091070975386187e-04,-1.658270541973474012e-03,1.523978802139744218e-03,7.198379188776016235e-02
6.948766741160949945e-01,6.952062045175245730e-01,7.530534668796410314e-01,-9.099446282880820297e-04,2.328821841879414722e-03,1.432454430393466632e-03,5.822702869772911072e-02
7.647201939417220817e-01,6.594516629684368247e-01,7.098312730140017290e-01,1.465513738622071030e-02,-1.427969359444378541e-02,3.769423791451069483e-02,1.176214069128036499e-01
7.226333755774049239e-01,7.107421275096336144e-01,7.009184794470717517e-01,-6.967764055389253502e-03,4.564645674119297697e-03,4.914808806715587237e-03,2.520604059100151062e-02
7.629140928532744947e-01,6.407167369779881438e-01,7.541653917781840910e-01,6.956181399676126913e-03,-1.627550265794720785e-02,1.519168340229813674e-02,1.247872933745384216e-01
7.298102515298912074e-01,7.380169423117732830e-01,6.352514559036374076e-01,-1.928258973297735865e-02,-2.107543013332032616e-02,-1.747282938175079986e-02,1.146673709154129028e-01
8.100989448431270556e-01,6.237723658506860724e-01,6.225124196954375799e-01,-1.663160669146103443e-02,-4.065379127336100906e-03,-1.378679968884414242e-01,3.047229945659637451e-01
7.491863813463984778e-01,7.156277092084935010e-01,6.735308659624827943e-01,-1.569031960176049678e-02,-7.783438079577717841e-03,-1.035943065865747859e-02,7.452046871185302734e-02
7.630302153180036351e-01,7.788715785713495876e-01,5.979255058416463875e-01,-5.686174804496612993e-03,-1.339336859093957777e-02,-7.879941787626613351e-04,1.753938496112823486e-01
7.351484256256233252e-01,7.796539927595628194e-01,6.391526043314617045e-01,-1.094905659991640343e-02,-9.329764632751277528e-03,-5.508807207504123372e-03,1.272010654211044312e-01
7.633081072888543428e-01,6.957216844634284136e-01,6.902555888324766187e-01,-8.641908433900286372e-04,-2.205776441905776028e-04,3.137690860904744899e-03,7.070472836494445801e-02
6.994107525265220726e-01,7.472395735473823519e-01,6.931492793112090656e-01,7.239362759348756671e-03,-6.147767555414092484e-03,4.744143743025924786e-03,5.444641411304473877e-02
7.141589716482602546e-01,7.092437933088051594e-01,8.090130582448242791e-01,-6.627544762543369217e-02,2.605675066664776829e-02,2.818396641352660659e-02,1.645747721195220947e-01
6.932691063116842578e-01,7.543918913486060696e-01,6.449721610107066461e-01,2.196569008551932725e-02,-5.270375868158136412e-02,2.068883262281905402e-02,1.417224407196044922e-01
7.755480476134234413e-01,6.759670090372642548e-01,7.062616589491241825e-01,8.555711707973540818e-04,3.845879589341914644e-03,7.599767086486717421e-03,8.965051174163818359e-02
6.785102524850042949e-01,7.730519051896928007e-01,6.392187428824132045e-01,2.772852022836715807e-02,-8.433503831019667496e-02,2.341521333369807681e-02,1.987089812755584717e-01
7.660895683310763316e-01,5.346714255254054748e-01,5.174061020031704983e-01,-1.800068008599283453e-01,-1.681096879087346507e-01,-3.267541676118992933e-01,7.484268546104431152e-01
5.212448683560964025e-01,7.580545304841944665e-01,7.822641055302468338e-01,6.823594530630484878e-02,-5.685684000323647236e-02,3.445608307497297768e-02,2.993763089179992676e-01
6.747526301242882107e-01,7.639954135244052535e-01,7.083499186051575025e-01,5.651231920608995769e-03,-7.964729860092807992e-03,8.329081683962463387e-03,8.117251843214035034e-02
7.079118776657070677e-01,7.496906631285245037e-01,7.086619345693985217e-01,8.730711339350440484e-03,-9.668807707612542962e-03,7.719526887451358052e-03,4.901632294058799744e-02
6.997179319871469350e-01,7.419456560380159882e-01,6.937922767496964571e-01,1.470459919951237066e-02,1.606472120549221408e-02,-1.336284241282966086e-02,6.345959007740020752e-02
6.553718175795457679e-01,7.707599376273359670e-01,7.158325991685717815e-01,1.852793489676176708e-03,-2.296305188836645847e-02,6.765340557326689035e-03,1.082727164030075073e-01
8.385633115872681564e-01,7.392019070180909646e-01,6.270796232874281673e-01,-7.367151164525481515e-03,7.781949886590340537e-02,1.589093873785178690e-01,3.573118448257446289e-01
6.951038185299035499e-01,7.375299182309340562e-01,7.200341352246782956e-01,2.300207810937939922e-03,3.342641108336449115e-03,-8.599230455279662302e-03,4.043552279472351074e-02
7.080570841639480806e-01,6.750720500442924932e-01,7.741164515123433176e-01,-5.433754494251264756e-03,1.339912030632251470e-03,4.653050893825487846e-04,8.789445459842681885e-02
7.079953071339323278e-01,6.597810062414116716e-01,7.554821535770741558e-01,-1.282129690477914336e-02,1.206223599409127906e-02,4.871779568042907543e-03,8.871311694383621216e-02
7.355059805112879046e-01,7.576216960737292005e-01,6.561147800939027830e-01,-1.196676224506960581e-02,9.300553223555500099e-03,7.544432746166016349e-03,9.699343889951705933e-02
6.852691565036379551e-01,6.930897550180422639e-01,7.602140481369007441e-01,-8.131422379502373232e-03,2.506316594149701413e-03,4.865598226134752041e-03,7.334856688976287842e-02
6.906451161007947093e-01,6.386645537655568639e-01,7.652792801773945497e-01,-2.275175949765871272e-02,1.264096610627585097e-03,3.800057838594456052e-04,1.170893609523773193e-01
6.699415960633924305e-01,6.768106470842041311e-01,7.748913820575575873e-01,-3.167712252571468212e-02,9.785450645352926705e-03,1.087786900191672380e-02,1.182933002710342407e-01
6.713101052338406038e-01,7.059014110352873628e-01,7.188476797198336543e-01,-3.332457224465666668e-02,2.079159269310941471e-02,2.197576943472881114e-02,8.882144093513488770e-02
6.256796061226129746e-01,7.257628006590683967e-01,9.170129606332021455e-01,-2.358403394437698086e-01,2.379048297489350441e-02,-3.218605592139915476e-03,4.840715229511260986e-01
7.243870094230362433e-01,7.104033152653489447e-01,7.143716751977583490e-01,-1.984001117262297956e-03,1.443891275181944170e-03,1.924471384329654337e-03,1.360048819333314896e-02
7.389580262153534473e-01,7.098595008062530409e-01,7.046642830343498032e-01,-1.987913093910941963e-03,1.817917224102802995e-03,2.514905452364118825e-03,3.264401480555534363e-02
7.062142325468749871e-01,7.475380381239075112e-01,7.034437886434711240e-01,-5.702786467963006506e-03,8.807766597262923006e-03,8.035148454351423442e-03,4.851601645350456238e-02
7.253767503598699262e-01,7.014962927334328358e-01,7.045236970094412854e-01,-6.559884373432675608e-03,-4.967461830561754194e-03,-4.023260860540053135e-03,2.754684723913669586e-02
7.023078872717692933e-01,7.447810151016840408e-01,6.951357224019399927e-01,-6.940719208777382243e-03,3.017093129241303195e-03,1.484058365365671650e-03,4.835770279169082642e-02
6.974934345211361020e-01,6.982931436983297324e-01,7.762540121433501028e-01,-1.524671509748094095e-02,2.674002887060715657e-03,2.793731556718399064e-03,8.296465873718261719e-02
6.868872795079056237e-01,6.951492644768517692e-01,7.659766489181087934e-01,-9.188417997110738533e-03,3.611215174134453903e-03,1.917040803221306587e-03,7.728765904903411865e-02
6.981747897147421167e-01,6.985311911678458996e-01,7.502554584790526171e-01,-5.375284389259086908e-03,6.101837963372593217e-03,9.647287793698482855e-03,5.631651729345321655e-02
6.983689571170259569e-01,7.269812445424429503e-01,7.187835421099151301e-01,3.572628275912826876e-03,2.777809619425923322e-03,-9.590801476231846853e-03,3.144360706210136414e-02
7.059073526162426004e-01,7.278988953282621299e-01,7.081408857517261790e-01,-1.896713394183557064e-03,1.046217228230528554e-03,3.952890062689343002e-03,2.237074077129364014e-02
6.987286996734118905e-01,7.084530718862540599e-01,7.463144731089847994e-01,-3.165551684254760446e-03,3.660630082898332950e-03,8.938520196303322701e-03,4.697000980377197266e-02
7.349089811630836744e-01,7.356244075611739763e-01,6.735828512068422480e-01,-1.414594104661438985e-02,7.622075939534220246e-03,6.755696187138953909e-03,6.867903470993041992e-02
7.390067450739621346e-01,6.955649296258755721e-01,7.198095550203027493e-01,-3.254858167832401852e-03,7.558063409701122268e-03,5.454682392578133823e-03,4.140264168381690979e-02
7.089563146192964238e-01,7.153681935136537717e-01,7.323913870336717924e-01,-4.242756636743591318e-03,6.545587571683355449e-03,5.376936168708422795e-03,2.663312666118144989e-02
7.028357577044263005e-01,6.973702604563727370e-01,7.636797517075505359e-01,-1.115839001161285544e-02,8.035475680734238332e-03,6.025857427970486221e-03,6.885182857513427734e-02
6.873941370284079033e-01,6.938433191733467398e-01,7.524812125917208494e-01,-1.039518171440096360e-02,2.525094161211603391e-03,6.446950634188686712e-03,6.577353924512863159e-02
7.130191491960452543e-01,7.134867932561346215e-01,7.210833712482381808e-01,-4.688219266520264605e-03,5.744558347487800989e-03,3.347721014243418194e-03,1.612572371959686279e-02
7.177879649256202477e-01,7.232908880922724881e-01,6.988352585596961930e-01,-1.027589119406612829e-02,3.297127524326784204e-03,2.834167667562352902e-03,2.944953367114067078e-02
7.128646068259283375e-01,7.139377956658159441e-01,7.129700660373774479e-01,-1.073960373972605159e-03,2.644176287108854738e-03,7.951506917329623616e-04,5.232747644186019897e-03
7.116045904826524549e-01,7.068779970544737390e-01,7.165944835078135178e-01,-3.415865187110673443e-03,4.412783757882986387e-03,1.609296925509954993e-03,1.311551779508590698e-02
6.480257060372294209e-01,7.405131959031016065e-01,7.361382141742378593e-01,-2.679698167705910072e-02,2.831144570384920914e-02,1.951988100548997587e-02,1.177725419402122498e-01
7.065797365485489978e-01,6.826373952782420762e-01,7.809278007333856353e-01,-3.488832930303124857e-02,9.480191486226413958e-03,6.271777205459275542e-03,1.091794446110725403e-01
7.793760501233708560e-01,8.649722771510875985e-01,6.895296427059168787e-01,-6.247703117994560934e-02,1.720239932889296441e-01,6.148344141270970648e-02,3.673107028007507324e-01
7.565757240183086374e-01,6.798351524605759089e-01,7.095751061503181578e-01,-2.702523504868861639e-03,8.992509735854244818e-03,6.714567541115747107e-03,6.993626803159713745e-02
7.999044942171550376e-01,8.005231099115561744e-01,6.245065703944713276e-01,-1.140963862442188476e-01,2.054811985923171158e-01,1.829631893573800405e-01,5.449967384338378906e-01
7.080531432609160625e-01,7.112404765186670641e-01,7.220551100844198045e-01,-1.733975135776412912e-03,4.396580794751206445e-03,1.650916375667512391e-03,1.538738422095775604e-02
6.908030062649772596e-01,7.345871128561862751e-01,7.197461249959055118e-01,-2.386577100795920624e-03,3.876011306532583123e-03,1.001056315692730979e-02,4.301505908370018005e-02
7.367256822506474956e-01,7.121953909828895313e-01,6.954478641705954534e-01,-1.216618332813485144e-02,3.478345356496232582e-03,5.574803751176534740e-03,4.320435971021652222e-02
7.355913396278421779e-01,7.175378126828593217e-01,6.732147367227766521e-01,-2.663620568525832885e-02,2.753104408141721776e-02,3.179318565954254022e-02,1.025934219360351562e-01
7.932385513121124054e-01,7.247836318700066061e-01,6.093196157074373120e-01,-1.076295396103102292e-01,2.165115945658377672e-01,1.644491563997534656e-01,5.314478874206542969e-01
7.219404180680490946e-01,7.087967276237072678e-01,7.077581386920001050e-01,-1.806472993807338662e-03,4.388297531963686847e-03,8.752106185054466924e-04,1.604199595749378204e-02
7.296586202834390855e-01,6.533023727899582855e-01,7.585855465101212225e-01,1.046961903580213675e-02,-1.052790418645838805e-02,5.387448061453369713e-03,9.810309857130050659e-02
5.370945593354123915e-01,7.027640099026583043e-01,6.360054764936668992e-01,-1.793729787243737162e-01,2.485597014660096693e-01,1.592006181032528667e-01,6.154246330261230469e-01
7.172956051534079558e-01,6.916662599487891638e-01,7.371526487317976439e-01,3.414574612241392214e-03,-1.051255634739372245e-02,3.061988243726779073e-03,4.421238973736763000e-02
7.072094825074819457e-01,7.657285696985989265e-01,6.717130828922101005e-01,6.917210748326940370e-04,-6.491859579124887800e-03,7.334520362613613153e-04,8.301310986280441284e-02
7.252377980960574844e-01,6.968143649094988845e-01,7.169083047036423073e-01,3.049365015690695766e-03,-9.802473261999679680e-03,3.332867263013075936e-03,3.146433830261230469e-02
6.936080367778375555e-01,7.669384524828108951e-01,6.897808654851893539e-01,8.487144510546407736e-04,-1.574269676388534694e-03,-1.779702083363024359e-03,7.544364035129547119e-02
7.029322253099151707e-01,7.494123617785755087e-01,6.997105566006863731e-01,4.906184089004323075e-03,-1.385253521748974022e-03,3.149701186559730314e-03,4.927734285593032837e-02
7.071355383268209671e-01,7.659540743618455938e-01,6.861650178836926628e-01,1.187026876418287476e-02,-2.463051203839859704e-02,6.304727610121099030e-03,8.657241612672805786e-02
7.001235799374728730e-01,7.492294508355155092e-01,7.022418701347283854e-01,2.861970180743961603e-03,-1.278960306353306214e-03,5.145989655781295705e-03,4.920138791203498840e-02
6.869607406708333475e-01,7.386827646619039678e-01,6.829200075604250353e-01,1.400529291916582098e-01,-1.537869525302482943e-01,9.417672998100010129e-02,3.991290628910064697e-01
7.071561896514043655e-01,7.584109750665160021e-01,6.490118336766999008e-01,1.800374099864854305e-02,-1.731318749740113141e-02,8.508852498893279895e-03,1.052465736865997314e-01
6.477201940413860326e-01,7.712652201162437660e-01,7.078714683559265142e-01,1.372137735813845237e-03,1.926694931377270423e-02,-2.307584463953467769e-03,1.121847927570343018e-01
6.841729963985916374e-01,7.707432611930591371e-01,7.098149136076566945e-01,5.843301614716601977e-02,6.959375948423075775e-02,-3.224271183269798724e-02,1.839130073785781860e-01
6.845389372341045275e-01,7.536816359684094246e-01,7.151345814683095492e-01,2.122903079387981201e-03,7.169639900815490997e-03,-8.658036227141951979e-03,6.319776177406311035e-02
7.140015718294036029e-01,7.900357858178711501e-01,6.803526581666529127e-01,1.159417098128895027e-02,3.982780435679907083e-02,-3.599524112746213728e-04,1.209724992513656616e-01
7.736832882697201041e-01,7.119710428755481324e-01,6.802466063445977706e-01,-4.534198699320657046e-05,-5.205725191511050530e-03,3.442886554177598118e-02,1.020292714238166809e-01
7.657045688722827759e-01,6.757882027274892955e-01,7.045294334853380303e-01,2.681340463047428031e-03,-5.274575096210488675e-04,6.821906288610710828e-03,8.055260777473449707e-02
7.060389102756580160e-01,7.632039390194033102e-01,7.034861526736946313e-01,1.163120447892995041e-02,1.408137083159446100e-02,-7.601865520628001832e-03,6.778170913457870483e-02
7.284053808489571180e-01,7.312305744523717177e-01,7.119549619226994697e-01,1.580419402762130512e-02,-1.211402888012823482e-02,1.617681097511121380e-02,4.795527085661888123e-02
7.812113446266126804e-01,7.352402447635987270e-01,6.397564586668175179e-01,6.500572279052746656e-03,-2.129684825458281767e-03,1.195498440218350361e-02,1.272365301847457886e-01
6.808476945160754079e-01,7.548285153721043805e-01,6.969295785972201562e-01,4.373862666447045182e-03,1.082744448446209921e-02,-8.735628063058931830e-03,7.197266072034835815e-02
7.769391234868022744e-01,6.785585949531516281e-01,7.086327691039300269e-01,2.674723751414145693e-03,-5.531736212706311537e-03,6.805071465524658095e-03,8.875055611133575439e-02
7.353846363014623355e-01,7.988906766063916809e-01,6.494009524190216265e-01,4.138082931963735223e-02,6.399267273839780168e-02,-6.599628257362201607e-03,1.855792701244354248e-01
7.027125987879039304e-01,7.581930373642327137e-01,6.904321255108490929e-01,1.096141818208669003e-02,1.504631175630603661e-02,-2.395556145664103683e-03,7.047739624977111816e-02
6.910103590689651298e-01,6.773441038128826808e-01,7.655129483672731272e-01,1.235330866061025087e-02,-3.451375324341833029e-04,-3.308695093898075899e-05,8.493378013372421265e-02
7.654360767428560752e-01,6.749011075464818044e-01,7.101930654565089540e-01,-1.392052810888145869e-03,5.846401985062302763e-03,6.366996671203437215e-03,8.047929406166076660e-02
5.714983117700649373e-01,6.301694514771832845e-01,1.068763384883406609e+00,-3.153837392683760399e-01,1.141370979473581709e-01,7.622675717053432887e-02,7.592455744743347168e-01
7.735333660111904930e-01,6.384157270358824521e-01,7.293713769283231008e-01,2.909462677349688303e-03,-1.263301971754607865e-03,1.280403262917386223e-02,1.214989945292472839e-01
6.555120432925027885e-01,7.546353558507706838e-01,7.061801710325652515e-01,4.813030384311699043e-03,2.121120948359746586e-02,-1.342146089673461502e-02,9.659165143966674805e-02
7.331406885353549674e-01,6.787743573719651202e-01,7.143405212161491047e-01,-5.799447962962007985e-03,1.431482320185176356e-02,9.082959699483878629e-03,5.701045319437980652e-02
5.537176736352229511e-01,8.794047846903241261e-01,1.272225983744087685e+00,-4.115128806519158244e-01,-7.159501670510790006e-02,-3.603436384828039019e-02,9.568797945976257324e-01
7.300232342618107051e-01,7.020750458074045408e-01,7.032801194977768011e-01,-3.840245074072382719e-03,6.715000199483415512e-03,4.982307887583040107e-03,3.166796639561653137e-02
7.056452030359626759e-01,7.039750987963578899e-01,7.258185103217930090e-01,1.472443925067817199e-03,4.597683504551284411e-03,-2.714623627154537280e-03,2.314024604856967926e-02
6.691389152104837423e-01,7.130216335117723903e-01,7.477392312561971233e-01,-1.303637265410204950e-02,7.632537470887243262e-03,1.563564806393160506e-02,7.792647182941436768e-02
7.566312087395771213e-01,6.569798864940297189e-01,7.334478769272314569e-01,-5.833103398860312906e-03,1.233484177164138017e-02,1.002986865410048986e-02,9.496272355318069458e-02
6.887597159021122684e-01,6.934126821498047821e-01,7.630556956435591287e-01,-1.832487251132722305e-03,1.260634207733806996e-03,1.029680942471451164e-04,7.218531519174575806e-02
7.704454960691667909e-01,6.939206797362440504e-01,6.942726949529789415e-01,-2.296210251920378573e-03,4.631270612126198519e-03,1.502464500153972461e-02,8.115797489881515503e-02
7.629354943943784662e-01,6.948961638120638717e-01,6.479752586168949779e-01,-8.983919395001441210e-03,7.213984178462291494e-03,2.136389670054478912e-02,1.085858866572380066e-01
7.520958534157680120e-01,6.976302713612779760e-01,6.471143821778509997e-01,-1.172831698736014928e-02,4.653753125715470208e-03,2.299153958410922460e-02,1.016523316502571106e-01
7.629608172481264772e-01,6.805700681578863431e-01,6.955489508251837538e-01,-4.231842241680030571e-03,6.743612814028381551e-03,7.147910267843649544e-03,7.824265956878662109e-02
5.370285626239026389e-01,8.144795596142764271e-01,8.178672143720839838e-01,-1.102305288499685725e-02,-2.026560302894992675e-03,3.334135987546879131e-03,2.798939645290374756e-01
6.996887014929933368e-01,7.172607312884307085e-01,7.361941665703336524e-01,-8.724991276069313110e-04,2.668242785869076334e-03,1.011189427963340819e-02,3.647387772798538208e-02
7.455421991779020985e-01,7.811659214087030012e-01,6.206929252379256301e-01,-1.325437719634124656e-02,2.049648121187124666e-02,1.369266053702875713e-02,1.537979394197463989e-01
7.439700040757665223e-01,6.943715938992883752e-01,7.031911941545604394e-01,-2.545033340064239719e-03,7.349944742848280900e-03,3.478890837636763878e-03,4.814721271395683289e-02
7.613464508603403624e-01,6.570529460453817805e-01,7.292380627040665475e-01,-5.311305962825756295e-03,1.217332295570879019e-02,1.051286352206547668e-02,9.705744683742523193e-02
7.224450535125415129e-01,7.405918057611957650e-01,3.765682693726978281e-01,-1.266972780597782067e-01,-2.711983933470950014e-01,-2.282625472655785970e-01,7.425296306610107422e-01
7.443826742122844342e-01,7.161177500515899519e-01,6.753564396738400699e-01,-1.626422461196008057e-02,6.224893206353177173e-03,9.155998539889024374e-03,6.909287720918655396e-02
7.056771294350927537e-01,7.122881310131380372e-01,7.216471384938385469e-01,-2.526265555340994305e-03,3.546471359535852304e-03,5.524482253020805526e-03,1.848261058330535889e-02
7.466048139081230550e-01,6.869109559550578004e-01,7.118783429096282589e-01,-7.898094186621582372e-03,1.152612152609705856e-02,5.344328909663645377e-03,5.803195014595985413e-02
7.176360648096890005e-01,6.836793945762964508e-01,7.338789961212189850e-01,-9.602122786097148574e-03,1.445976798768832186e-02,5.738393126696068186e-03,5.450769141316413879e-02
7.054621483427039319e-01,7.661978134106732785e-01,6.775107911337674427e-01,7.097304668546146854e-03,6.971776735552893609e-03,-2.180151824378443078e-03,8.049183338880538940e-02
7.426254223461663528e-01,6.684853205906098328e-01,7.140044196352386408e-01,-1.314246432943004701e-02,1.712491501727327059e-02,1.067296029519930120e-02,7.703018933534622192e-02
7.540482128407685058e-01,6.208066782644343640e-01,7.507102785830893632e-01,-5.694415154898026243e-02,4.418948062721545639e-02,4.557910337867891043e-02,1.978335231542587280e-01
7.113423059992924902e-01,6.771649918762274734e-01,7.685966560265340419e-01,5.699523684067785666e-03,-5.596253840525091186e-03,2.778449213671173746e-03,8.134812116622924805e-02
5.990803162614664057e-01,7.207310931460850778e-01,7.769689027628762235e-01,-3.505994098091080174e-02,1.971970650988670061e-03,-1.674494053687601569e-03,1.688509732484817505e-01
6.061485448986587699e-01,7.677281226257005597e-01,8.000487983714454909e-01,-1.444463483889374920e-02,5.840860646736684841e-04,3.871315539703091852e-03,1.817879974842071533e-01
5.952771622973834775e-01,8.087649161905231532e-01,7.847266209562225869e-01,-1.471391670633476201e-01,6.343278022936327254e-02,3.368945646535508043e-02,3.484951555728912354e-01
6.993475147599153008e-01,6.996638601708550231e-01,7.362960373783591361e-01,1.979829863601761941e-03,-2.542451050861060415e-03,5.616413711769603981e-03,3.846282139420509338e-02
6.655287813909775974e-01,6.724283115841426239e-01,7.558072482894517830e-01,3.393050691388608403e-02,-8.620028456508947029e-03,7.921657335861493482e-03,1.069576367735862732e-01
6.052109300811776560e-01,7.819770367736269545e-01,7.797038246756294866e-01,-2.579873654374821579e-02,3.418275389530575636e-02,1.907007149276623154e-02,1.935011744499206543e-01
7.653278169712658396e-01,5.865664979403155677e-01,7.888255572361999590e-01,1.409318144513705545e-02,6.610356244833361442e-03,-5.851785475062652384e-03,1.937470287084579468e-01
5.452478826417388458e-01,8.500483050311911093e-01,7.851323222876667174e-01,-6.065481447827451161e-02,6.006343328829440165e-02,1.395971816798271224e-02,3.158725202083587646e-01
5.840182511310972879e-01,7.808377554419745348e-01,7.728217515800742676e-01,-1.753481023254041191e-02,1.769578194668765259e-02,1.751333446762488519e-02,2.000161260366439819e-01
6.272203715209053732e-01,7.491254212792330947e-01,7.622596074503279473e-01,-1.883132919942253833e-02,1.243082623906351276e-02,1.963332515651624449e-02,1.389903128147125244e-01
6.530746651760818144e-01,7.837607185044609404e-01,7.475996052025772887e-01,3.156319932376188547e-02,-3.388609222652204378e-02,2.408462128962978593e-02,1.477647870779037476e-01
6.939289000300152832e-01,6.976677697544227952e-01,7.618079196257504515e-01,1.527319498958050990e-02,5.007662513634234501e-03,-6.859292072425372463e-03,7.269071787595748901e-02
7.554531711584059339e-01,6.581966202929936394e-01,7.329137582598375111e-01,6.106562661917981638e-03,-1.080400109637499884e-02,7.921506929866158064e-03,9.178810566663742065e-02
6.924888447826941240e-01,6.952115327875562079e-01,7.510412021314826214e-01,6.692933017589982724e-04,2.488948731898357400e-03,-1.576849643863941939e-03,5.747833847999572754e-02
7.591540733405907071e-01,6.057606539436917181e-01,7.274279238152434601e-01,1.566313029500957313e-02,-2.103967492953910320e-02,2.932583076292072724e-02,1.559279412031173706e-01
6.796276623274706274e-01,7.070619811364643459e-01,7.523052364676786619e-01,5.487096374401301963e-03,2.953719645977022790e-03,-7.141255937824908875e-03,6.565289199352264404e-02
7.168230403836379772e-01,7.044874317858774715e-01,7.213343986010448683e-01,2.869076004119319387e-03,-7.791200985875847834e-03,2.563615733429286045e-03,2.132344990968704224e-02
1.162639965381882634e+00,1.009032227149294636e+00,6.029286801335878021e-01,-9.667843243567286748e-03,4.568441308283177973e-03,3.046109414811970506e-01,7.277379631996154785e-01
6.543268689964005791e-01,7.043974454039907407e-01,7.715881012528650329e-01,1.650258583107782132e-02,2.710075170969079763e-03,-4.508081336565603232e-03,1.062352582812309265e-01
6.513637634620067507e-01,7.046503538984826287e-01,7.562602387457029174e-01,1.653185041001510244e-02,9.735443305938682249e-03,-1.568398932032282617e-02,1.004756763577461243e-01
6.980424788448238438e-01,6.818128692482515740e-01,7.608879828866176309e-01,8.697180434635763679e-03,8.109306256778969768e-03,-4.767810014295427619e-03,7.566582411527633667e-02
6.682475747201628291e-01,7.093580641832143430e-01,7.437888395078274817e-01,1.223795895754097897e-02,8.788198115225621249e-03,-1.410119423027021701e-02,7.462270557880401611e-02
6.946824561340245729e-01,7.040220586202853292e-01,7.543580021167108907e-01,1.591259634416580500e-03,2.310645659018895504e-03,-5.532880664468763435e-03,5.662601068615913391e-02
8.861234831554732905e-01,5.968837217295503983e-01,5.869742827926170969e-01,-2.548116864081255775e-02,-1.052516865825686883e-02,3.019110124076808122e-01,6.019593477249145508e-01
7.725738433910662728e-01,6.376440327633231542e-01,7.276186304817680028e-01,1.373848331254191174e-03,9.434945952331318109e-03,1.242425308774697604e-02,1.220533922314643860e-01
7.647060163320900106e-01,6.892162765436434801e-01,6.770510349000773420e-01,2.104868271442855796e-03,-2.937672436793055289e-04,1.270267174933436063e-02,8.522129058837890625e-02
7.828155164903970453e-01,6.199289797829807824e-01,7.484976013918319682e-01,3.837113926486655779e-02,-2.504503184185074421e-02,3.444808531721476469e-02,1.788256764411926270e-01
7.561038052882206317e-01,7.318891040390576030e-01,6.442036380741578139e-01,1.156343246969954684e-02,-6.314231102649082820e-03,9.644914351534210686e-03,1.058215051889419556e-01
7.599114893951295358e-01,6.825348208021277951e-01,6.902432966376167434e-01,2.915918191405324298e-03,-4.768886980116435019e-03,1.048489277969089778e-02,7.663971930742263794e-02
7.868974304621492166e-01,6.411327913465079131e-01,7.320735748217022110e-01,-1.611306858512069607e-04,3.203758407209480238e-03,1.255652689512267231e-02,1.294815689325332642e-01
7.960973611536574790e-01,5.698046546022009773e-01,7.899279150463228705e-01,5.892062831532120064e-03,2.869155430190983283e-04,9.581980400495130473e-03,2.241209298372268677e-01
7.675341977296029627e-01,6.580055150460077940e-01,7.097579269201994556e-01,1.045073446918306365e-02,-8.273280922592539735e-03,1.648594146503751245e-02,1.017586588859558105e-01
7.480417999145919650e-01,7.129461637019680609e-01,6.683173427389549337e-01,1.164028667083887025e-02,-6.999849538075147634e-03,1.232279648320314114e-02,7.614951580762863159e-02
6.340523819125402083e-01,7.314537447090131428e-01,7.857198480300631172e-01,-1.442097475988218455e-02,2.394079837391964276e-03,-2.280799372955623003e-03,1.355511844158172607e-01
6.890110031048394257e-01,6.947520974243763803e-01,7.640190690657492345e-01,-3.310509832390821743e-03,-4.980812530431811798e-04,-1.076089770826302869e-03,7.256472110748291016e-02
7.529289549009311466e-01,6.990133905591588981e-01,6.866504188956854549e-01,7.187431290751708501e-03,-2.825855535699180708e-03,7.662176630476161439e-03,6.388543546199798584e-02
7.368870901083547365e-01,6.072362263095048007e-01,7.787038977157056951e-01,3.000395252915465799e-02,4.015143015107852133e-03,-3.756799165422582219e-03,1.636184453964233398e-01
7.942140986884366205e-01,5.365468399629482743e-01,7.878188827108825176e-01,-8.194973717389794632e-03,4.306072298831384315e-03,3.888790298669097742e-03,2.551233768463134766e-01
6.990652370288132911e-01,6.524783430989833377e-01,7.555208267050907978e-01,-1.535084052733876568e-02,9.528654329621149069e-03,4.333247602207567807e-03,9.499118477106094360e-02
7.523717608059353745e-01,7.132199344654388540e-01,6.898281813750399838e-01,9.268751201028688907e-03,-3.768051620501072525e-03,4.219295787113978673e-03,5.787573382258415222e-02
6.066301710183432672e-01,7.947793906360376415e-01,7.356234335249739464e-01,-1.234854802275069856e-04,2.162617284948441243e-02,2.612596209372286017e-03,1.708596050739288330e-01
7.287004444365569045e-01,6.968251545154586779e-01,6.764609103633058007e-01,-6.781835640497076156e-02,8.025590739830479325e-02,1.018525414005960056e-01,2.575319409370422363e-01
5.790300453386878488e-01,8.390826879731346777e-01,7.959851820002801226e-01,-2.093494216517967355e-02,6.201044671798158076e-02,4.367157165921971979e-02,2.772173881530761719e-01
7.069048978384676607e-01,7.072609644407349405e-01,7.311117245111993235e-01,-5.655013589022125746e-03,6.999639422226144013e-03,7.557749760682782279e-03,3.149220719933509827e-02
4.479882018156818302e-01,1.033281239887551717e+00,1.263418088502728631e+00,-2.866876166645571655e-01,5.084944361988741335e-02,1.323430560984221148e-02,8.860475420951843262e-01
7.134870748380832683e-01,7.019123048872217829e-01,7.363316136774741283e-01,-5.052358456702283479e-03,1.185241744362445365e-02,3.204646743197574893e-03,3.806699439883232117e-02
5.581232902368565840e-01,7.910504381410937702e-01,8.060245705366775315e-01,-4.403416209543501575e-02,4.025752602652628298e-02,5.690669778222259834e-03,2.621895074844360352e-01
7.461090680973527789e-01,8.072857695182057425e-01,5.876257639204204297e-01,-1.080292515563554059e-02,5.175057746876447762e-02,1.834992984307924971e-02,2.189741283655166626e-01
6.940521941452577614e-01,6.873693652541790211e-01,7.670053627010923192e-01,-8.868452093201488820e-03,-4.528611114592023465e-03,-4.691085614937464017e-03,7.885334640741348267e-02
6.926359830163751896e-01,6.963599159366634650e-01,7.620034144152917355e-01,-1.935457172673988625e-03,1.545717474707957893e-03,2.778114385128056547e-03,6.788923591375350952e-02
5.453695209211807393e-01,7.801137894133771677e-01,7.629149873608113142e-01,-4.644292178229544876e-02,4.842510187621400231e-02,1.520222658405731390e-02,2.560517191886901855e-01
5.788275277063141822e-01,7.713277643995188892e-01,7.816777439639217562e-01,-2.161194237427033205e-02,1.619608046206006888e-02,1.296450092730253717e-02,2.045684158802032471e-01
6.071057533321133626e-01,7.768755643375442332e-01,7.687347675029487792e-01,-1.400632499176819590e-02,1.056768490009489872e-02,1.186783818006660260e-02,1.698590517044067383e-01
6.877243022597563371e-01,7.519657557640453405e-01,6.968393481164281145e-01,2.879219285437823687e-03,1.015611562629285987e-02,-6.507936950584218734e-03,6.392068415880203247e-02
7.188140395958115825e-01,7.267184086164257817e-01,6.955844492833980208e-01,1.007688018478845350e-02,3.164881489200012561e-03,-3.073291489884398802e-03,3.389282524585723877e-02
7.059026452337550106e-01,7.414789920905763276e-01,6.894148673204342215e-01,9.198349994471265514e-03,5.545488282689954238e-03,-4.307956951795458359e-03,5.025793239474296570e-02
7.026906488378927840e-01,6.961472488232831601e-01,7.561159226588665128e-01,1.492097665489951295e-03,-5.182422317555842629e-03,2.197776052651834958e-03,5.786537006497383118e-02
7.074007603696388369e-01,7.625220529973012473e-01,6.785672244315450463e-01,9.251992590826554896e-03,4.807423645465642645e-03,-2.717806022917880395e-03,7.620605826377868652e-02
6.962256762418794764e-01,7.486988142701731519e-01,6.991770645242357807e-01,6.232163482660782634e-03,6.781669079629825021e-03,-6.502923309480226031e-03,5.466835573315620422e-02
7.068088166162573849e-01,7.594872075644317766e-01,6.611100325091826546e-01,1.305006877363836665e-02,1.059411494600176473e-02,-6.449480527511168917e-03,9.079171717166900635e-02
6.935958006098232875e-01,6.948722825486435273e-01,7.543402204778442144e-01,2.592160326738792743e-03,-2.002674202829676960e-03,4.136639738055945467e-03,6.080707162618637085e-02
7.067737661709460051e-01,7.419837983854518093e-01,6.746736100926720159e-01,1.698249497017484400e-02,1.193433874165016062e-02,-1.371991826250010781e-02,7.250946760177612305e-02
7.082579849091670265e-01,7.223974224210281125e-01,7.016910617479242829e-01,1.137049802089457225e-02,1.478002463622682394e-02,-1.385380374215804990e-02,4.421421140432357788e-02
6.921682618340524451e-01,7.727267210090411620e-01,6.295064240358280161e-01,8.398872823445362179e-03,6.264187537847956677e-02,-9.826923926252359096e-03,1.665456593036651611e-01
7.016961751805743663e-01,7.497865683799687098e-01,7.001140697348722242e-01,9.928289331451928268e-03,1.057028208290168407e-02,-6.586547745711311165e-03,5.614558234810829163e-02
6.153162402992193858e-01,7.764727707681461366e-01,7.423833009208099520e-01,6.401536856664786189e-03,2.389704603046829967e-02,-7.201784912537151015e-03,1.537254750728607178e-01
6.932101406284656431e-01,7.506155373982903445e-01,7.134363504306003856e-01,4.750302487524695610e-03,4.794510222145056781e-03,-9.449245204723023470e-03,5.429464206099510193e-02
6.662884586893262906e-01,7.453635264934047600e-01,7.095402768680877381e-01,1.027461858348367729e-02,1.471841563550844133e-02,-1.507247434333624722e-02,7.969681918621063232e-02
7.268331190938847053e-01,7.053507016505443650e-01,7.063949760921168775e-01,5.769836958271732340e-03,-7.397085327444133732e-03,8.398806218021017886e-03,3.026210144162178040e-02
6.534794514681074862e-01,7.622121989623427130e-01,7.041361956339617922e-01,6.188019321509645627e-03,1.461312754408637497e-02,-1.002383502730929202e-02,9.968854486942291260e-02
7.049304328642647111e-01,7.013014969056976522e-01,7.475343505439638880e-01,-1.023013253003728779e-02,-7.689496024320419468e-03,-7.045866236937213360e-03,5.121674016118049622e-02
7.142346677543625066e-01,6.800804209256814392e-01,7.606175365759956231e-01,5.096595793957554854e-03,-9.807321513821324818e-03,3.679121856466760834e-03,7.286383956670761108e-02
7.127369965311290967e-01,7.268275507563637383e-01,7.490778096532210162e-01,-2.044707064626428983e-02,-1.852486119333079592e-02,-1.523964614156785198e-02,6.314773112535476685e-02
7.786403546344206061e-01,5.659004905718817424e-01,7.594469613523684437e-01,-2.475446201539287933e-04,7.589898153861686717e-03,1.251688867445141518e-02,2.053934186697006226e-01
7.020062597903119483e-01,7.135247471748845660e-01,7.237018610873643398e-01,-3.494373972654189666e-03,-3.879532188432010219e-03,-7.873998874461602196e-03,2.492504753172397614e-02
7.648754305986708024e-01,5.941276643748465425e-01,7.892259088751653051e-01,1.052025021445268313e-02,-3.534340364626823057e-03,4.626889738339124564e-03,1.853085607290267944e-01
7.033456967486904077e-01,7.027368592444058759e-01,7.288517178040424538e-01,-4.119833375761134710e-03,-8.318772123235009322e-03,-3.423438299793943145e-03,3.098615258932113647e-02
5.705333599265173250e-01,7.487055015914232392e-01,8.183178311501141389e-01,9.518531476325491070e-02,-3.576893291078865156e-04,1.140372147809168291e-02,2.767045795917510986e-01
8.330590087006004563e-01,6.354411620424214036e-01,1.174001567265360757e+00,3.766231175337592108e-01,-1.121798306751566610e-01,1.223164417532150855e-01,8.548934459686279297e-01
7.751687971912535335e-01,5.606968463782653345e-01,7.633873771116289619e-01,5.538669450801276921e-03,-5.273305287789089267e-03,5.680063547735742999e-03,2.094814479351043701e-01
8.086250881984891059e-01,5.439180217877921386e-01,8.021146832213352784e-01,-1.006604702885102384e-02,-2.447032590495332779e-03,3.740808734169855793e-02,2.700164914131164551e-01
8.024286202854499228e-01,6.102413094776538705e-01,7.713910827824499439e-01,2.647776984787985136e-02,-7.599937256374513818e-03,1.426134772381884401e-02,1.866036504507064819e-01
7.631893362538741954e-01,6.107667268190778431e-01,7.601323194008651196e-01,9.723561599755651749e-03,-1.000801892824296040e-02,8.304530655407916379e-03,1.535156667232513428e-01
8.005578327340937550e-01,6.292685225143450634e-01,7.585347260589586638e-01,2.007287358649971140e-02,-1.043641023602672087e-02,5.391596408238460286e-02,1.848355233669281006e-01
7.817993579597248832e-01,5.622874217093607463e-01,7.652146470205424267e-01,2.928299643312574745e-03,-8.175472890208141177e-03,5.916433647868267302e-03,2.124882489442825317e-01
8.054311025240078470e-01,5.240711129641364430e-01,7.030013547846677424e-01,-3.947634244270584007e-03,4.056121326913165147e-03,1.147703550057360411e-01,3.169360756874084473e-01
8.656818173434480679e-01,5.499586936776043045e-01,8.673544241251679443e-01,-1.662433058718327389e-02,-1.340618838339858142e-02,7.826448472705828385e-02,3.463470041751861572e-01
8.105944312771748983e-01,5.653419570450582965e-01,7.987064904299603363e-01,-4.922645495444034555e-03,1.993369959381840453e-04,1.998030692095016658e-02,2.421673089265823364e-01
6.426031190936721815e-01,7.362532753230552895e-01,7.840749753939781908e-01,-1.292589725205153632e-02,3.642717403148938455e-03,7.517443759192518268e-03,1.274611949920654297e-01
8.018126288029236992e-01,5.884551119746693759e-01,7.954964472015129129e-01,2.219191590498395192e-02,-8.901563326115165611e-03,2.242593443344699511e-02,2.178018391132354736e-01
7.837362596268404591e-01,7.318761141746297216e-01,6.381371254766418089e-01,-3.604458083788202559e-03,1.530123689812821651e-03,-1.229600308481597522e-02,1.297588795423507690e-01
7.537820133433510428e-01,6.932136465926597158e-01,6.912064406175426612e-01,-4.166543436342257448e-03,-2.084707481201795738e-03,-2.609749472947280047e-03,6.228707358241081238e-02
7.636044455204835657e-01,5.984502844871720795e-01,7.935076826933215033e-01,-1.274805629740665205e-02,3.024086231816343080e-03,1.641132347845482460e-03,1.833897382020950317e-01
7.234755406029335090e-01,6.420122261915002237e-01,7.809696085645522201e-01,-2.033504762738550312e-02,6.373313131102183171e-03,6.277602794191169608e-03,1.269098967313766479e-01
6.779141772817293132e-01,6.917187329246984318e-01,7.711551373081831917e-01,-9.349370665837741790e-03,5.634742964286622080e-05,1.937984297115021405e-03,8.871753513813018799e-02
6.895806054831792320e-01,6.934197211599776312e-01,7.660998318103768856e-01,-3.445766721128480561e-03,4.935183207031759028e-04,1.471237886911598005e-03,7.496004551649093628e-02
6.896319673001896078e-01,6.962460799160522518e-01,7.634058406504580230e-01,-4.014080827042828918e-03,-6.103292541854747828e-05,1.420966674405305758e-03,7.108297199010848999e-02
7.088233110563791906e-01,6.833044983568383746e-01,7.595953800639224651e-01,-4.989098658453729879e-03,8.777136364459058038e-03,1.671944453382298145e-03,6.956169754266738892e-02
6.809420434243892428e-01,6.749888721779774281e-01,7.754306179122312237e-01,-2.947034074849787938e-02,1.180484744086580245e-02,5.693177856539981957e-03,1.124581694602966309e-01
7.340960465215674580e-01,6.550467486238308323e-01,7.589583436197584465e-01,-8.201165202160364681e-03,1.293307008665912743e-02,4.471639183744062843e-03,9.795830398797988892e-02
8.073024053451250959e-01,5.362167965442692363e-01,8.094502494291692107e-01,7.549691170885928539e-03,-8.000097742485364274e-03,1.371439450230789621e-02,2.738640606403350830e-01
6.642832731142739311e-01,7.544355665009495615e-01,7.085636367296084259e-01,-5.702849269183274915e-03,-1.343499136595396187e-02,-1.192917971979184054e-02,8.462972939014434814e-02
7.014763126820755534e-01,6.474487397724816296e-01,7.655894434810303073e-01,-1.477533871417053939e-02,-1.664375354891478890e-03,-1.242432323128104046e-03,1.056466847658157349e-01
7.931319852446662155e-01,5.943499821706514918e-01,7.695503178076850137e-01,1.270610785764000666e-03,1.783292328671060110e-03,-1.317326783560150531e-02,1.895198076963424683e-01
7.326015687721295633e-01,6.555142603409228608e-01,7.630230766125877251e-01,-8.627177514437976355e-03,1.208760123068382264e-02,3.664686043655395603e-03,9.957378357648849487e-02
7.803381885754726577e-01,5.090680813836945262e-01,8.081253227586406851e-01,-5.581712217760916722e-02,-5.591529572614013094e-03,-2.049403129948566826e-02,3.042989969253540039e-01
7.045495516111094370e-01,6.478482517786181560e-01,7.692932418708189335e-01,-1.565799577931354519e-02,3.123460840110843951e-03,-3.111689180678792188e-04,1.088251397013664246e-01
7.136734579583671190e-01,6.836454135111583730e-01,7.564499386595102681e-01,-3.859893398282172091e-03,8.209029201719886953e-03,2.526048175810302002e-03,6.543705612421035767e-02
7.483413393097301247e-01,6.356347395555922430e-01,7.986215346781549984e-01,-3.633265961291297363e-02,7.779419715541116684e-04,-8.081057777479900769e-03,1.582899242639541626e-01
6.796138647908055441e-01,6.910491837633299106e-01,7.636165021606402536e-01,1.085029899985265854e-02,7.361154512038668805e-04,-2.266155009556036683e-03,8.122088015079498291e-02
6.908967669650617482e-01,6.799142672745952520e-01,7.662185571334862999e-01,-1.031297193331784552e-02,-1.270640010895696202e-03,9.753079827189025015e-05,8.333758264780044556e-02
6.965527908232113097e-01,6.932581014672067887e-01,7.635954827109976417e-01,-1.841058476181893196e-03,2.128293398645314527e-03,1.891280622610286202e-03,6.899964064359664917e-02
6.694093590090332002e-01,7.670352496411154686e-01,6.709499222424715192e-01,2.346334986447873739e-03,-3.279149904558365664e-02,2.479421240650046647e-03,1.124437376856803894e-01
7.322518772857559144e-01,7.734481036389880826e-01,6.367667001147070405e-01,1.437293943573859749e-03,1.292776133802595734e-02,-1.736891231381352619e-03,1.235508248209953308e-01
6.773537578693101802e-01,7.744663408672528560e-01,7.079470502907767582e-01,-4.986450891081940567e-04,-5.763222928838570430e-03,-3.430021129352058039e-04,8.658263832330703735e-02
6.031406774649050728e-01,7.606209033617161719e-01,7.175425339041492379e-01,9.609619928935709404e-03,-3.098139337054955228e-02,1.681422983957072195e-02,1.545202434062957764e-01
7.372699129253830197e-01,7.098164106465483236e-01,7.052262083744529342e-01,4.506965912394918228e-03,1.677716240938844283e-03,-2.096083934736368273e-04,3.114957548677921295e-02
6.471924941643837359e-01,7.692336596762003875e-01,7.029375447360716178e-01,2.269077518630355662e-03,-1.849240387407521599e-02,4.119172426250134085e-03,1.108630746603012085e-01
8.031266998757150555e-01,9.240322436517857119e-01,6.204516359643470480e-01,2.543327860673723871e-03,1.634863605795796593e-01,-1.428267423832628447e-02,3.884449899196624756e-01
6.931986533411853557e-01,6.888132995306490702e-01,7.660153144447457985e-01,3.041545441410330262e-03,9.775588344162679678e-04,-6.669507480083560228e-04,7.531785219907760620e-02
6.924759806492779557e-01,6.877461718354265230e-01,7.630033232760656814e-01,2.460636519608360665e-03,7.191057491432293982e-06,1.161771707974746347e-03,7.315921783447265625e-02
6.793698868647799483e-01,7.635745026410543090e-01,7.091433422125675845e-01,-9.009868001135519066e-04,-5.830529664102338319e-03,-7.164077185834252098e-03,7.568491250276565552e-02
6.502862796690090930e-01,7.701351084324741247e-01,7.123214043658350203e-01,-1.976391441858556773e-03,-1.450287829297782979e-02,-4.866585644749197269e-03,1.071962267160415649e-01
6.855690649126215952e-01,7.631429422055044931e-01,7.003379615933059688e-01,-1.748670628840847145e-03,-8.002480954102188931e-03,-7.900753983989440218e-03,7.401826977729797363e-02
7.332050926002865454e-01,5.989807050861387649e-01,7.807521135542538904e-01,2.618219961388479344e-02,4.952638528880903140e-03,-3.090550764453269851e-03,1.697575896978378296e-01
8.427985263333819255e-01,5.178838565571575181e-01,1.137718674920184192e+00,4.023647521017121864e-01,-7.236043215549185781e-02,6.201572447334103427e-02,8.951588869094848633e-01
6.902350416831303237e-01,8.136104496464392488e-01,6.993891793842088589e-01,1.740394060261312575e-02,-8.234234116162576778e-02,1.861462999415287867e-02,1.909577995538711548e-01
6.962786826228123394e-01,7.698979846624154355e-01,6.793994583906743934e-01,-3.637140733451652355e-03,-8.784226908441621420e-03,-1.225122412177335595e-03,8.498837053775787354e-02
7.024282850645072740e-01,7.755080102921079188e-01,6.757976082108569926e-01,-2.748924523775804485e-02,-5.802585346426841068e-02,-4.798132924019155726e-02,1.651381254196166992e-01
7.437580629183311309e-01,5.532096128350748598e-01,7.613250817059447062e-01,-3.288488679916356378e-02,-2.398259468322599258e-02,-2.563909593264879910e-02,2.165791094303131104e-01
7.649675956924264497e-01,5.928062838713744620e-01,7.821483835972645737e-01,1.051501966601140620e-02,-1.186612337667257520e-03,4.553297605504410921e-03,1.824573427438735962e-01
6.269629049651390673e-01,6.255548195705477044e-01,6.081917892366540679e-01,-2.482797941289558163e-01,-2.698541665797729583e-01,-2.389390449626447865e-01,7.582848072052001953e-01
8.081989349352833862e-01,4.818562602123166450e-01,8.665791346810121087e-01,-3.174209464631858740e-02,-8.637480656142596316e-03,-6.971044002221814251e-02,3.831251561641693115e-01
4.897297438963147398e-01,5.804116238843262110e-01,7.760953602604563351e-01,2.784650568065670240e-01,-1.729566560908024075e-01,1.430185705429975196e-01,6.693232655525207520e-01
6.472984808554407277e-01,7.546031677737377041e-01,7.316511592571829370e-01,5.265974117919415207e-03,1.059633286703635414e-02,-1.042037915454827220e-02,1.016072034835815430e-01
7.119124760142470087e-01,3.829305837030548831e-01,8.409949053525204166e-01,2.078676612922616684e-01,-6.699630322579104569e-02,9.944283952745623656e-02,5.831947922706604004e-01
8.472579835608192722e-01,4.829976673912172447e-01,8.303721745275305377e-01,-6.842871571244572848e-02,-4.325826734253691852e-02,-1.001413559405649710e-02,3.831214308738708496e-01
7.627162184076728968e-01,4.919016813298546786e-01,9.896199467377291281e-01,1.585015593061687988e-01,-1.274500002057633030e-01,2.121752518362026996e-01,6.674042344093322754e-01
7.942224811594276179e-01,4.694679891370208136e-01,7.735492182174980025e-01,-3.417767899827303668e-02,-6.135878703325467302e-03,-6.873664066276141682e-02,3.420096337795257568e-01
8.614398605093789296e-01,5.808247612473076416e-01,8.879919697820112257e-01,-8.993117560309356329e-02,-2.329239698905554573e-02,-6.843641298282426844e-02,3.561486303806304932e-01
7.219197841111533176e-01,7.201278927628249615e-01,7.009402696027138280e-01,-1.431657460638954479e-02,-1.314954549354428043e-02,-1.422634396494184238e-02,4.633086547255516052e-02
7.319278072766355336e-01,6.366142818492747102e-01,7.832219384003441531e-01,-1.183102637327593937e-02,1.710096602776782840e-03,2.836576724521298800e-04,1.305132806301116943e-01
7.253148371759972068e-01,7.285109831497206256e-01,7.094984002238476917e-01,-1.214596486935574579e-02,-1.071055064187192464e-02,-8.763688617964079594e-03,3.644248098134994507e-02
7.485138759261324992e-01,6.887432302729555866e-01,6.815293389100992583e-01,-1.090036412120413446e-02,-1.560249179036753142e-02,-2.302136575930942286e-02,8.205160498619079590e-02
7.841482267736095135e-01,5.696069093172128062e-01,8.051972294050432355e-01,1.963204814900081085e-02,-6.354921060658415277e-03,5.671935380961289769e-03,2.288249135017395020e-01
7.533437552383668301e-01,6.995236236824907694e-01,6.967509331288630481e-01,-6.444386582007487208e-03,-6.747779890348706844e-03,-6.357574137853865860e-03,5.861710757017135620e-02
7.279599807111606369e-01,7.025088359367456237e-01,7.094625434218736482e-01,-2.972354040839357038e-03,6.515045553760387062e-03,5.294673225774189883e-03,2.751504629850387573e-02
7.339615576262094043e-01,7.179869829171309226e-01,6.848962589164733217e-01,-1.329407248768124834e-02,-5.205791163485383628e-03,-6.806558266332780362e-03,5.127649381756782532e-02
1.151334416084227374e+00,4.724348281110663517e-01,1.031992541056780510e+00,-9.157473539017260689e-02,-2.294194586459831920e-03,-2.317566963295288329e-01,7.618615627288818359e-01
6.940324281341443413e-01,6.815993746486893601e-01,7.728834631862511184e-01,-1.017535068787266649e-02,2.628394182421408317e-03,-1.827706786191314701e-04,8.765765279531478882e-02
7.385317679511517186e-01,6.966854625106203569e-01,6.956800698008835937e-01,-1.293601983087250447e-02,-1.183179911242100008e-02,-1.470204063798301840e-02,5.800553783774375916e-02
7.383748196307647893e-01,6.859132818106277174e-01,7.055368493683329412e-01,-6.125978785775245891e-03,-9.736228086205842361e-03,-3.882419253763732484e-03,5.049752071499824524e-02
7.287334601491824992e-01,7.069980320100895943e-01,7.050847184121306066e-01,-7.425332435504872382e-03,5.695390511266434398e-03,7.128323112206146062e-03,3.054233826696872711e-02
8.525145694600800850e-01,7.831196700907510078e-01,5.753975433722723354e-01,1.190007853210391098e-02,-2.653732291063713375e-02,9.655761542147058007e-02,3.047730922698974609e-01
6.434592228374829137e-01,7.016990805655832775e-01,7.809799165129931442e-01,-1.799805841856866317e-02,1.928916277712114076e-03,2.790228955736581088e-03,1.236969903111457825e-01
6.618826054135458214e-01,7.941384943948990305e-01,7.621628649052765159e-01,-3.974545942590820141e-02,1.438967807961340772e-01,4.121452392351468430e-02,2.936647236347198486e-01
7.080825722244232789e-01,6.768051526604611512e-01,7.723756886084157669e-01,-6.595721847528372705e-03,2.516929271284270436e-03,4.598447362272722861e-04,8.528161793947219849e-02
7.030549645597757857e-01,7.090939322980149839e-01,7.472773885665020543e-01,-8.633293578096402562e-03,7.952023046381699600e-03,8.963854536137162710e-03,4.877900704741477966e-02
6.771177301451819508e-01,7.029371672896261858e-01,6.730199245011871945e-01,-5.162209085942091186e-02,6.270710042804039652e-02,4.946698623406851902e-02,1.670965254306793213e-01
6.775828557087945070e-01,7.097460816982682497e-01,7.768248462614165684e-01,-7.915098575457133953e-03,3.091551320819238796e-04,-1.382258884780310140e-03,8.880016207695007324e-02
6.804959396288020601e-01,6.909242356321609879e-01,7.647258902638167655e-01,-1.063905636234309567e-02,-2.253648392501845284e-03,-3.395557478872949543e-03,8.194176852703094482e-02
6.977172458107269160e-01,7.207105723559862342e-01,7.136219224155292418e-01,-7.125106411845172523e-03,4.729472449295067486e-03,7.492397827716025527e-03,2.835072576999664307e-02
7.725964691957085684e-01,8.836588083314886877e-01,6.744165032168568663e-01,-5.052551987092925023e-02,-1.510128639737337297e-01,-6.615667509427473891e-02,3.494016230106353760e-01
7.934603473408863294e-01,5.591178739238166218e-01,7.815880042384641957e-01,-1.669481498968319140e-03,-5.976684733585536403e-03,-2.142898957479832944e-02,2.318798899650573730e-01
7.150980710247224481e-01,6.858249013294404062e-01,7.550252988469005055e-01,5.780107686911040675e-03,8.345281026829597104e-03,-2.999199342924326658e-03,6.289709359407424927e-02
7.129917928248534764e-01,7.062789760475293166e-01,7.247917045509770784e-01,-7.805166005587672352e-03,9.490437654297962169e-03,8.218265301991873120e-03,3.031661547720432281e-02
6.983044691689875849e-01,7.010923328264069276e-01,7.348562457779749257e-01,1.999436737517055074e-03,5.806381995319594320e-03,-2.420599866802986000e-03,3.704883903264999390e-02
7.271548499503510676e-01,7.106212232853414967e-01,7.042810322195920403e-01,-6.577531282498639241e-03,-4.330380495568105642e-03,-4.288362105857294708e-03,2.568275108933448792e-02
7.364570143867069651e-01,6.999701118854181336e-01,7.053220132610631410e-01,-4.121044542592574092e-03,-6.353904729871072930e-03,-4.836082002553181852e-03,3.750854730606079102e-02
8.590701152132436125e-01,8.371747889236390572e-01,6.468354211136977394e-01,-8.016186136665484629e-02,-1.079625260677163773e-01,-1.418826074288062900e-01,3.943520486354827881e-01
6.800804057488336607e-01,7.674179189110355015e-01,7.086377741954644760e-01,2.679028886532324079e-03,4.630710970980739076e-03,-6.443334488305086684e-03,7.848341763019561768e-02
7.435113916059592487e-01,7.436521422908293211e-01,6.663366257240805890e-01,-2.065487054591614441e-02,-2.922220742631164575e-02,-3.439802959350779510e-02,1.155776083469390869e-01
6.666066922964292152e-01,7.319977064208663675e-01,7.781315711041769667e-01,2.778471215214043874e-02,2.688465374786135412e-03,-4.474919752018077963e-03,1.087142452597618103e-01
7.344564264485192728e-01,6.803086554822661558e-01,7.166596979645807330e-01,-6.308445596086929147e-03,-1.618532625546598505e-02,-8.894747712961907984e-03,5.854643508791923523e-02
7.462834848584668501e-01,6.882447030099170249e-01,6.902388759358665249e-01,-3.328730779580842819e-03,-8.157621097702249385e-03,-1.054299160566873547e-02,6.183108687400817871e-02
6.741251370175338486e-01,7.614129443475714520e-01,7.194703896479283101e-01,-9.843579160309744169e-02,-1.533928166673363125e-01,-5.554138968830653333e-02,3.385685980319976807e-01
7.352208422589890935e-01,6.032534382910323956e-01,7.792662248803429170e-01,2.485238807627331709e-02,-5.543065943799370919e-03,2.994243817903497265e-03,1.647420525550842285e-01
7.276448190045861075e-01,7.000340376884147675e-01,7.151961698404338819e-01,-4.406255588897586492e-03,-9.008200850577447946e-03,-3.288393110053655557e-03,3.012865968048572540e-02
7.634888401791696255e-01,5.761789907923571263e-01,7.910721023191247259e-01,1.323997870642177645e-02,2.340096866789084795e-03,-3.357938755655272278e-03,2.039327770471572876e-01
7.190508589332416101e-01,6.832316310434777273e-01,7.145332050562789306e-01,-7.770894063320311212e-03,-1.564819627470579941e-02,-9.004792972847279475e-03,4.796482995152473450e-02
7.704831058684117329e-01,6.909843257301759856e-01,6.948012484182949366e-01,-5.011354398884886908e-03,5.567982854904086724e-03,-9.012513491560762355e-03,8.026959747076034546e-02
7.930614502245659780e-01,5.480020239458233133e-01,7.940389691689220264e-01,4.657445497354713478e-03,1.478744671067169867e-03,-5.876838963778302505e-03,2.459062337875366211e-01
7.515588411507491129e-01,6.484337027160712585e-01,7.529798687743936014e-01,1.490557620241179937e-02,-1.348785448281264975e-02,1.458309170984580308e-02,1.123995184898376465e-01
7.646630703325294487e-01,6.402067928124129947e-01,6.897254642636672095e-01,-1.983226355435922030e-05,1.504560251702377095e-03,-2.292646511955995572e-02,1.155950501561164856e-01
7.639551756189341125e-01,6.889187722428173899e-01,6.803707669186278562e-01,1.159934062772156665e-03,-9.020013183456532637e-04,-7.298301569002675800e-03,8.069209754467010498e-02
7.684906142258138839e-01,6.849352588807412490e-01,6.886487405590124844e-01,2.262787309674323122e-03,-1.360557045479353876e-03,-8.256854400131088956e-03,8.312910050153732300e-02
7.348984292892687398e-01,6.594181811637177537e-01,7.614597999922410043e-01,1.027462156222526748e-02,1.135315930278252457e-02,-3.990718297595196619e-03,9.570160508155822754e-02
7.942783665406655258e-01,6.828531643528478190e-01,7.186144987362879100e-01,-4.967923283318867456e-03,-7.910190693908109028e-03,-3.844569061512654456e-02,1.200237572193145752e-01
7.436401486102360847e-01,7.043671974911892564e-01,7.178683352138726104e-01,-1.217530345982161845e-02,-1.454336077593619894e-02,-2.148273911481271906e-02,6.048290804028511047e-02
7.684222112090723922e-01,6.420924141021673304e-01,6.994231028024522345e-01,-5.287959610298073642e-04,-5.301759969851980482e-03,-2.434881832813014582e-02,1.177591234445571899e-01
7.573393356060589277e-01,6.506992196657181982e-01,7.119708363223453684e-01,-1.363985766002171092e-02,-2.390481092176426070e-02,-2.140096345825888771e-02,1.106289923191070557e-01
7.661978450526845119e-01,6.975038767631269732e-01,6.928565012494755093e-01,2.739489858619796256e-03,1.809863314033142035e-03,-1.464410592654166168e-03,7.140364497900009155e-02
7.647892383311146736e-01,6.074341844136723623e-01,7.673033915507467828e-01,1.533038009735007874e-02,1.312554146224753117e-02,-1.728933706213992005e-02,1.651702523231506348e-01
6.242946336926545881e-01,7.376614919462104458e-01,7.812918748096057131e-01,-5.116076553030871749e-02,7.864339510317912632e-03,1.772812687598331917e-03,1.665807217359542847e-01
7.212959756088190844e-01,7.724872260421231651e-01,6.828246724471637163e-01,-1.032772873742822048e-02,-3.180209047359558450e-02,-1.522341718190803848e-02,1.005949378013610840e-01
6.043662644595247935e-01,7.846602281462186079e-01,9.077853588419875219e-01,-1.565567306465434627e-01,-1.091860032264893587e-02,-7.326414191009272478e-03,3.793588578701019287e-01
7.905887139420217924e-01,5.776374650828275392e-01,7.834523483366749863e-01,1.506409536559759170e-02,1.054704102593838691e-02,-2.205936606706412201e-02,2.152993530035018921e-01
7.656922640051549989e-01,7.115692370120478838e-01,6.756123936501275962e-01,-4.585844318964350970e-03,-1.910669375543673889e-03,-6.949532428639665881e-03,7.992008328437805176e-02
7.881730477583502870e-01,5.462350308714937208e-01,7.898377522710645637e-01,5.419290255052566091e-03,4.600138167545382226e-03,-6.490795746190378308e-03,2.433464825153350830e-01
1.086942786731790456e+00,3.816288931738354151e-01,1.141051803696377043e+00,1.187920669072553004e-01,-3.181793067316229795e-02,9.720903480945243536e-02,7.824831604957580566e-01
7.634085943291464282e-01,6.269329639301494117e-01,7.311052832625898334e-01,-7.656290046993346338e-03,-1.644682501439804351e-02,-1.017321535611202983e-02,1.286791414022445679e-01
7.550169282265480897e-01,7.057198631020620283e-01,6.860618329075424127e-01,-8.405995920215028616e-03,-4.116601037246691956e-03,-6.582239888714109394e-03,6.464148312807083130e-02
7.489796214067512281e-01,7.495044185890642474e-01,6.974423218276862846e-01,-2.012773438466371537e-02,-2.102474601689195352e-02,-2.436662657424265924e-02,8.370250463485717773e-02
5.916552461314963374e-01,7.757385830083505240e-01,8.815845235520375356e-01,-1.450106057918600366e-01,7.926145130452125209e-02,3.474684503613473946e-02,3.874634206295013428e-01
7.031059175515389503e-01,5.741143391380461036e-01,6.571327693915384183e-01,-2.212818867454185712e-01,2.173088300740532164e-01,2.740743949734484874e-01,7.257678508758544922e-01
8.323605762127110896e-01,3.315190985603283513e-01,1.102778648583511822e+00,1.688157888606683366e-01,-2.282063981918210430e-02,9.179534333594985274e-02,7.561365962028503418e-01
4.836567871754370862e-01,7.792059732193993282e-01,8.329028439639567516e-01,-6.726082879283727667e-02,5.126600359069013318e-02,1.009199325144332846e-02,3.575820922851562500e-01
7.296782713214533533e-01,6.634212426934779083e-01,7.419240706869035806e-01,-7.833490582013670142e-03,-1.596927622478142364e-02,-1.195158750042628858e-02,8.203041553497314453e-02
6.878000325581332675e-01,6.884410858351887041e-01,7.448710053269239628e-01,-1.906261642142707130e-02,-1.280921767056540303e-02,-1.200429437102294890e-02,7.235750555992126465e-02
7.147038321961740603e-01,6.840472517322032653e-01,7.275701714347052595e-01,-1.015868682383639504e-02,-1.428323249841607911e-02,-6.267116670135865729e-03,5.039112642407417297e-02
7.842757616163021916e-01,7.311940422148729413e-01,6.338728889819233991e-01,2.801121151934253106e-03,3.006149547500763537e-03,-1.280565231439368019e-02,1.341553330421447754e-01
6.934211258586007176e-01,6.937639403357809265e-01,7.536978097629235540e-01,-2.416091316113051952e-03,-1.966093513978395789e-03,-4.588489747455176161e-03,6.086874753236770630e-02
7.304999666002116587e-01,6.363762955142190370e-01,7.835294498588326606e-01,-1.381961015464681052e-02,-6.765279607370261634e-03,-3.315371025410087345e-03,1.319316029548645020e-01
6.879911137930129206e-01,6.990933575742191985e-01,7.536750267529116476e-01,-7.021278570389808890e-03,-2.783955209065428014e-03,-6.374290912647367739e-03,6.325692683458328247e-02
7.000884994994429622e-01,7.062286585203809697e-01,7.371794325001795878e-01,-2.749483739599233034e-03,-3.308139161640084435e-03,-7.875034228558477206e-03,3.777900710701942444e-02
6.842875451031353862e-01,7.146843961516126109e-01,7.556723415381115805e-01,-4.526650879654765813e-03,-1.815449400469936088e-03,-8.306708274019088123e-03,6.425144523382186890e-02
6.657455509749441447e-01,7.327910780167615767e-01,7.365093090464041037e-01,5.323703931387408113e-03,3.821271978256058407e-03,-1.455850734950977360e-02,7.431622594594955444e-02
6.737449769750757378e-01,7.445592814240838964e-01,7.120361337723790651e-01,-9.242040246718036603e-03,-1.625276125965836871e-02,-1.544387215770625342e-02,7.438789308071136475e-02
6.773660547308358870e-01,7.087337332815329960e-01,7.588286533981281057e-01,-5.130001353194932855e-03,-2.650815844091752600e-03,-9.280986326519856042e-03,7.364261895418167114e-02
7.128831608941946785e-01,6.855939502272380137e-01,7.605985755259934145e-01,-4.269515956824012151e-03,-9.790394368431577787e-03,-4.740314246369327529e-03,6.879848241806030273e-02
6.789588831467102681e-01,7.083783558525098556e-01,7.359565730307850995e-01,-5.893922292105276822e-03,-9.521363628369432361e-04,-1.111672864640778427e-02,5.399147793650627136e-02
6.841645147349115774e-01,7.134424597956060543e-01,7.600346061193774538e-01,-5.847969270470839039e-03,-4.898623203404371858e-03,-1.111268940155664235e-02,7.026527822017669678e-02
6.808396302006353151e-01,7.139231821750715579e-01,7.340895068346596775e-01,-1.056014462644703535e-02,-6.380130973359311904e-03,-1.371872372058610678e-02,5.647702142596244812e-02
6.831647139077487996e-01,6.975788685799784172e-01,7.579420716536678926e-01,-9.353028155299432378e-03,-3.614470266807120070e-03,-7.345023196741942186e-03,7.200727611780166626e-02
7.240818821298846686e-01,7.151294918492527852e-01,7.099356681465938124e-01,3.887557431513571655e-03,1.719392597261605333e-03,-1.300380853257904938e-03,1.459107454866170883e-02
7.163447022897982963e-01,7.108905009545314346e-01,7.139181989098986048e-01,2.818573708979261582e-03,3.041774197362938619e-03,-1.425779206936981505e-03,8.949322625994682312e-03
7.600201505882230313e-01,6.261222129162239414e-01,7.598114671509107465e-01,9.729661045281763274e-03,1.130222767406734684e-02,-1.124387944476259830e-02,1.376490294933319092e-01
7.110465822681494297e-01,7.037606344723220664e-01,7.217955369274111632e-01,6.873455430025600735e-03,8.130223006662449028e-03,-3.402053296108602850e-03,2.493387274444103241e-02
7.221905595580433435e-01,7.169143650749943975e-01,6.973448984095651504e-01,7.597378940649864541e-03,3.243980461636210202e-03,-3.897102469720134261e-03,2.764683589339256287e-02
7.003160865421572678e-01,6.952831484266390749e-01,7.523766132578263433e-01,3.217532987086053030e-03,2.215829158806516437e-03,-1.846155240447188350e-03,5.525991693139076233e-02
7.095926736791066114e-01,7.006582712557889447e-01,7.126734296332006835e-01,-1.094785511836105299e-02,-1.180665574174760354e-02,-1.224787127443552337e-02,3.666917234659194946e-02
6.609818754342222658e-01,7.121933762651988520e-01,7.566310555056726672e-01,-9.282923503430146744e-03,-5.803642255026120363e-03,-1.249643529828891458e-02,8.775587379932403564e-02
7.062884392946954248e-01,6.561475354459347376e-01,7.757015407978122834e-01,-1.596262196238758604e-02,-9.220683166671930081e-03,-5.536871215962152308e-03,1.091978698968887329e-01
7.107756696399937235e-01,6.658177953915570546e-01,7.389421852324109530e-01,-1.173530806224966708e-02,-1.819325177481200678e-02,-1.322017268171061209e-02,7.753273099660873413e-02
6.797052517990735954e-01,7.110646336805139800e-01,7.728069655306402108e-01,-3.101688235822434858e-02,-1.514807439723125579e-02,-1.058213418152052256e-02,1.031610667705535889e-01
7.791064844049944149e-01,7.575065907957750921e-01,8.101509366276836710e-01,-1.197254436037259173e-01,-1.080442813521322321e-01,-9.152479982790177881e-02,3.244294822216033936e-01
6.849439616840304890e-01,7.180917531555655042e-01,7.882868293174222218e-01,-7.957666323660415875e-02,-1.000407310682738943e-01,-9.479379564224392485e-02,2.904002666473388672e-01
5.802980638972722316e-01,7.927353535289057840e-01,7.920005596339984022e-01,1.159192948828165724e-02,-2.275422631165587364e-02,8.867898890927471481e-03,2.171781510114669800e-01
6.111994119272888826e-01,7.526011279765468798e-01,7.734603496110834531e-01,9.162261598835415299e-02,-1.220317466078473106e-01,4.349872549733566074e-02,3.145073056221008301e-01
6.378172567735763687e-01,8.827593454990030342e-01,7.994621647300241829e-01,7.211687887070857006e-02,-1.217001082031317488e-01,4.795183017737809222e-02,3.368463814258575439e-01
7.544508159432876671e-01,7.042450932097925609e-01,6.943492139779752215e-01,5.515821520909342315e-03,1.455707701592982807e-03,-2.824704293346593040e-03,5.689410865306854248e-02
6.175011351884798216e-01,7.914222278447509140e-01,7.413558356731846377e-01,7.624935643625556717e-03,-2.748416551542057565e-02,2.998746189457899940e-03,1.628346443176269531e-01
7.042822948582907472e-01,5.792431556238604173e-01,7.169267243277896995e-01,2.042550304040901821e-01,1.415181390174012899e-01,-1.995327215077645489e-01,5.675016641616821289e-01
7.580681605717904947e-01,4.781795769115286809e-01,8.170877169807887475e-01,-1.466993076584464373e-01,2.016882893198169990e-02,5.584694544503070873e-02,4.165079593658447266e-01
1.089862429490530138e+00,2.968011040689809699e-01,1.097791611586844240e+00,3.357801132925147813e-02,-1.849600671279408304e-02,1.268558309096918801e-01,8.294476866722106934e-01
7.151178203228518715e-01,6.592895439485120246e-01,8.202031814730792458e-01,-9.758115175349410531e-02,2.195960156266470523e-02,-2.647062112786166196e-03,2.237418144941329956e-01
8.627065656774223212e-01,4.530116523113743576e-01,8.847925605355568823e-01,5.055107829322667140e-02,2.464862304315462022e-02,-7.746687416608244448e-02,4.526350498199462891e-01
7.623201759094746510e-01,6.642922066123069236e-01,7.334483271188982911e-01,5.178181654245564425e-03,1.248115288380907510e-02,-1.146930966928875854e-02,9.249449521303176880e-02
7.408895083411318749e-01,6.860591176386270362e-01,7.359844264012931347e-01,4.733989856051235186e-03,1.229781860625098373e-02,-6.737521448546532170e-03,5.846885964274406433e-02
6.803351547240351627e-01,7.364062403029700832e-01,6.957189334490866406e-01,8.899439724774289850e-02,9.152572538076933495e-02,-6.810320566241254148e-02,2.555837631225585938e-01
7.414710014690374384e-01,6.431856611629780396e-01,7.677906773764022752e-01,-4.074611250914692701e-02,1.377807795251671970e-02,1.574798764217363520e-02,1.386860162019729614e-01
7.716561865450493052e-01,6.363081925491890223e-01,7.723169854530174128e-01,-7.784511579709814909e-03,-1.473824464576966101e-02,-1.202443971969391345e-02,1.402717381715774536e-01
7.549319825137078555e-01,6.570068656610463798e-01,7.137888942237259338e-01,2.041792976632992099e-03,1.110886069550827589e-02,-1.425290032488407688e-02,9.080365300178527832e-02
7.304070096475586693e-01,6.586695869553651494e-01,7.588941504046103903e-01,-9.392544978972953984e-03,-9.629564464354345085e-03,-6.705122178495593298e-03,9.316163510084152222e-02
7.664020378842025805e-01,7.255300754883943215e-01,7.166532173692775620e-01,3.520185691637138514e-02,6.147334787235399917e-02,-5.588588136851869309e-02,1.628995239734649658e-01
7.414805106667046175e-01,6.063347665565999023e-01,7.680330858168176178e-01,2.086813846218360524e-02,1.909865572438732700e-02,-1.931588925350873065e-02,1.614865362644195557e-01
7.470196313700113722e-01,6.043436232894094928e-01,7.725988568677626400e-01,4.374058910622945912e-02,1.490085283128016885e-02,-4.231214531182923150e-02,1.908849328756332397e-01
7.345030888934814817e-01,6.264954895075457442e-01,8.339230660172188836e-01,1.290429463846678448e-01,3.023455985347027475e-02,-1.060546142505726097e-01,3.445714116096496582e-01
7.247439300532676487e-01,7.226726830844716343e-01,7.058548251473020230e-01,-5.708066419421234210e-03,-2.993120638681318925e-03,-3.524085853632188525e-03,2.199646085500717163e-02
7.431988020230577696e-01,5.859796100692272747e-01,6.553373513330660316e-01,8.577715581064743189e-02,6.846040882245174597e-02,-1.425836037759896369e-01,3.402174413204193115e-01
7.031731602345604459e-01,6.955520413416501624e-01,7.546929821439060104e-01,-1.672545900426509720e-03,-4.925191091574312140e-03,-1.951331345521577221e-03,5.654732510447502136e-02
7.491656162881937808e-01,6.492963182641962039e-01,7.363926473009378970e-01,2.454824764263861467e-02,1.524061159225609946e-02,-6.809227846338404035e-03,1.072621718049049377e-01
7.219235667740194762e-01,6.961080165920880969e-01,7.426367818186668801e-01,2.262169531390297375e-02,-1.494815217722253800e-02,1.581087003779459849e-02,6.771793961524963379e-02
5.862464180226789612e-01,6.308903413780057035e-01,7.728787204316817094e-01,-1.329829194336079601e-01,4.871257114712049946e-02,4.771209189436140946e-02,3.090212643146514893e-01
7.324483185681328612e-01,6.512828002219053225e-01,7.790417696192433183e-01,-1.012205240621563002e-02,-1.076645012551741797e-02,-7.327043366076214578e-03,1.155713945627212524e-01
7.180954722560509706e-01,6.952300207334194404e-01,7.375558141063862649e-01,-1.879121898259528047e-03,-1.195466181265461732e-02,-2.479581742560652956e-03,4.247685521841049194e-02
7.057082401657533977e-01,7.083082013840032998e-01,7.282135435026012571e-01,-1.043841842842924573e-03,-1.281908610060766016e-03,-4.227187325417695700e-03,2.272755093872547150e-02
7.116729669086433452e-01,6.797913847908005902e-01,7.760231414792059246e-01,3.463354295834748103e-02,-8.736371873999159224e-03,2.819931537822274476e-03,1.051676794886589050e-01
7.117560929940998093e-01,6.613197973620997816e-01,7.686275990549896742e-01,2.472598192048476584e-02,-8.020587283542530196e-04,1.073032681537440698e-02,1.040579080581665039e-01
7.057878779504778155e-01,6.922446495765386398e-01,7.558216458370038415e-01,4.517114915373350928e-03,-6.087041208344347483e-03,3.898266187242682788e-03,5.985293909907341003e-02
7.076603949163091656e-01,7.033270333790336837e-01,7.379854422739643427e-01,2.883050021004136647e-03,1.733547447464853144e-03,-2.535667841125426383e-03,3.351173177361488342e-02
7.184807624907076917e-01,7.273166401282452620e-01,7.146725643607714229e-01,8.152865891427427125e-03,7.308899647286620782e-03,-9.109408588471064674e-03,2.710784971714019775e-02
7.796623966026341446e-01,5.747896705156795294e-01,8.601083414206436295e-01,-1.491417770509247398e-01,-1.513035143115706166e-02,-5.364138237792224345e-02,3.754655122756958008e-01
7.731432058232936555e-01,4.798205177241886554e-01,9.259747152037899331e-01,-1.471620091794389740e-01,1.702458257873258954e-02,5.236726924737656469e-02,4.777981638908386230e-01
7.084714071090617571e-01,7.242547779877444025e-01,7.106180958306844708e-01,1.968068033509508003e-03,-8.520236499837449250e-04,-7.623101518261767235e-04,1.534216850996017456e-02
6.963076237785534861e-01,7.010534508850321256e-01,7.356477865796291482e-01,1.156763318785676320e-04,2.263606444397156699e-03,-2.201496834624553766e-03,3.759549558162689209e-02
8.384080297916750579e-01,5.665182489410829358e-01,7.944166993051255954e-01,1.376417272960975963e-02,-4.534693128275497920e-02,-8.021993056860091120e-02,2.999026477336883545e-01
7.925289467912847163e-01,5.444708332664884853e-01,8.563735143904432912e-01,-6.153606758353857842e-02,1.614387490655685249e-03,-4.681243792764495926e-02,3.152589499950408936e-01
6.754457717557900143e-01,7.096786137670113570e-01,7.732748677238329149e-01,6.215077156059995930e-03,4.894766066646379869e-04,1.270765671398473799e-03,8.668850362300872803e-02
7.495353930129808884e-01,4.223646182934102100e-01,8.326069463444428775e-01,-1.585585844055496241e-01,5.780672304980877078e-03,6.116516954538597263e-03,4.655697047710418701e-01
7.652722758724030960e-01,6.857007433307092947e-01,6.969874027698559349e-01,9.961245523609993120e-04,2.926403208466943524e-03,-1.589883542806517017e-02,7.967375963926315308e-02
7.168822232049287813e-01,7.256986543995108674e-01,6.979316805315125549e-01,1.143330116449368765e-02,1.232499989302803835e-02,-1.119699874502100810e-02,4.275424033403396606e-02
7.372133142176158227e-01,7.150352016864113258e-01,6.996756230983259828e-01,8.313674608717794984e-03,3.578252558460209582e-03,-2.057749928898549869e-03,3.642661124467849731e-02
7.219914927165602681e-01,6.793018252052992478e-01,7.374983336901608233e-01,5.826452618468911694e-03,1.516999825844075368e-02,-6.747412509519065335e-03,6.044554337859153748e-02
7.707157253995323698e-01,6.889944748076100023e-01,7.087951944090854495e-01,1.146066900163503557e-02,8.498535870812052445e-03,-3.070723555080430087e-02,9.429639577865600586e-02
7.804643010752301269e-01,7.056300115320986999e-01,6.444313596412668543e-01,8.240812471645445059e-03,4.277330946920796309e-03,-2.013291710911545643e-02,1.240960359573364258e-01
1.108306576076484529e+00,5.968922202233918339e-01,4.499706670205808612e-01,4.723985941881531959e-03,1.018101064412790663e-01,-3.525362826444526365e-01,8.730846047401428223e-01
7.697957076896385642e-01,6.903747333414059772e-01,7.031908934800034094e-01,4.976043332914928570e-03,4.927801234531512149e-03,-1.256983203193087067e-02,7.794362306594848633e-02
8.125226830108029930e-01,6.514614523904898036e-01,7.587112987987570945e-01,-2.508420704002240625e-02,-2.165670131660340017e-02,-5.546063451971128960e-02,1.808087229728698730e-01
7.534495712830342473e-01,6.928744027069673184e-01,6.909039944460450000e-01,4.706562266473274941e-03,8.799846665305234572e-03,-3.501849386375371388e-03,6.425066292285919189e-02
7.529986325304555139e-01,6.875754491195564810e-01,6.997900860046475380e-01,4.292638723358169900e-03,8.151846087279366812e-03,-7.050128918589151049e-03,6.351394206285476685e-02
7.720507057520963334e-01,6.420972218187381841e-01,7.310722419997667254e-01,9.187968123071034617e-04,9.123041469924852639e-03,-1.222662543626729624e-02,1.180785372853279114e-01
7.719005547847861415e-01,6.657734936055405006e-01,7.056045278504328166e-01,6.759825887494919690e-04,2.893701338591054759e-03,-7.058411322612267308e-03,9.379908442497253418e-02
7.590849819837875989e-01,6.637523181812078343e-01,7.337571404988743051e-01,5.784657027848324681e-03,1.344184492264947385e-02,-1.129434924557973056e-02,9.132561832666397095e-02
7.526600784604765559e-01,6.950462535757033766e-01,6.923512700899024930e-01,1.929222462771053217e-03,1.439231676649233406e-03,-1.199231900482364277e-03,5.919103324413299561e-02
7.494249215145364351e-01,6.810702909249081172e-01,7.060217721599348906e-01,-4.760610326621188965e-02,5.346135921649159545e-02,6.560591565920510793e-02,1.785361766815185547e-01
7.674953099161543335e-01,6.940528710383924160e-01,6.930220762368279885e-01,2.740514487800584098e-03,1.825277959018576724e-03,-5.166689754090465769e-03,7.472060620784759521e-02
7.053468083580788361e-01,7.790827888309365123e-01,6.327655523413403538e-01,-3.140958231418027047e-02,1.213166782938035620e-01,5.381699216262682273e-02,2.680645287036895752e-01
7.092716518435595585e-01,6.764707179086840716e-01,7.619207228939518517e-01,5.522893066265340510e-03,7.369612603681882472e-03,-4.504517234443766900e-03,7.674683630466461182e-02
7.126070685330990750e-01,6.794572992830225644e-01,7.274581797920769421e-01,1.285555630790304396e-02,-1.479884071682028776e-02,9.389553747606773498e-03,5.682497471570968628e-02
7.043336247490403768e-01,6.595475004522995954e-01,7.462948487640536088e-01,1.781733394694833689e-02,-1.332572881768325467e-02,7.482524907378230658e-03,8.543350547552108765e-02
7.108206925174938018e-01,7.162579892065221721e-01,7.244477667256259412e-01,1.054120391241356773e-03,2.190799370107539019e-03,-3.117069834715843844e-03,1.371304411441087723e-02
7.073465830671513688e-01,7.080274731736477811e-01,7.472031190702925763e-01,-6.902272353419749290e-03,-9.791306086553888677e-03,-8.230611788208726243e-03,4.685756191611289978e-02
1.158742628687213339e+00,9.826502849716050036e-01,5.677293342695191036e-01,-4.851020506699873364e-02,-3.936557134128942925e-02,-3.644700889427596180e-01,8.285266160964965820e-01
7.707979319703622823e-01,6.967290285106624292e-01,6.982073428977730867e-01,3.491637672545516800e-03,1.919588041987623514e-03,-1.212624782785529619e-02,7.660063356161117554e-02
7.550991908103139583e-01,6.933498468497044653e-01,7.013488860175016715e-01,-1.219373735728841507e-03,-4.943371001365347295e-03,-1.437338163546518586e-03,5.888123437762260437e-02
7.134389052290064370e-01,7.484057568085992207e-01,6.672036545194859336e-01,-1.514985219543732962e-02,-1.313088327849798974e-02,-6.057371943698566970e-03,7.932823896408081055e-02
7.624861201803044830e-01,6.972978491744877827e-01,6.936883637177037043e-01,3.790357180488407047e-03,-8.720911930042278299e-05,-2.152548659558311400e-03,6.748969107866287231e-02
7.644795409613424075e-01,6.787162431653218642e-01,6.918568335406110048e-01,1.432082189403617459e-03,3.156902264836465750e-03,-7.146794551945860260e-03,8.118078112602233887e-02
7.774963327630119991e-01,6.758848101974679334e-01,6.873178762934819552e-01,-1.004353292049587568e-03,-1.357223005442404276e-02,-4.076491917956513722e-02,1.217984557151794434e-01
7.114771756530113844e-01,7.310354064288532294e-01,7.056803081957061519e-01,-6.481764184482941178e-03,-5.944992569021556941e-03,-6.667190870635399634e-03,2.991533838212490082e-02
7.379051518796624354e-01,6.968102256170497499e-01,7.201620607215835079e-01,-1.815425409585537646e-03,-1.160574916866326418e-02,-2.447506851566965715e-03,4.130856692790985107e-02
7.100665470977924887e-01,6.935197032683318996e-01,7.360646243162067837e-01,-3.464334206439456144e-03,-8.855443138615486445e-03,-2.520481604166203808e-03,4.086812958121299744e-02
7.651091108317480405e-01,7.070022270179722179e-01,6.768990506600243151e-01,-1.041183052080720504e-02,-4.524246430235070657e-03,-6.091599256073197861e-03,8.080693334341049194e-02
6.986790828456490576e-01,6.997304610802859148e-01,7.486099974410329594e-01,-1.191398619251005445e-02,-8.227810397786599131e-03,-7.423157676697114682e-03,5.688527971506118774e-02
6.796283971651271294e-01,5.704942219433200012e-01,7.770328467317014765e-01,-2.161116739164164191e-01,1.183764741934815456e-01,1.563858902651177607e-01,5.362363457679748535e-01
6.424609399559003675e-01,5.600186807128308963e-01,8.627234018503202595e-01,-2.442443189315425534e-01,6.877885657865845381e-02,9.675650892250928226e-02,5.428758263587951660e-01
7.147132876678475855e-01,7.141427591599804892e-01,7.192439905950293033e-01,-5.969007219364043555e-04,-2.420784836376200112e-03,-1.321703647750228699e-03,6.879522930830717087e-03
7.063887650339878421e-01,7.175635812009033554e-01,7.183946357871957566e-01,-1.676541886152624946e-03,-2.935767720498504325e-03,-8.886068763747922983e-03,2.015016786754131317e-02
8.031819303527661935e-01,4.352261300525879228e-01,7.896213707357524481e-01,-1.565060102089378125e-01,7.696388088386772741e-02,1.845830835017114591e-01,5.692548751831054688e-01
7.736504005075430790e-01,2.455625217955615391e-01,1.098298644320913731e+00,-2.310459820243083162e-01,-5.934062237221605918e-02,5.198229737563764274e-02,8.570491671562194824e-01
6.807309658656908180e-01,7.119636057390325012e-01,7.534484338611409093e-01,4.529427980424925206e-03,2.979638219507818337e-03,-9.121801541052283399e-03,6.580238044261932373e-02
7.059821183421931545e-01,7.096828749632416722e-01,7.219471164594428725e-01,2.405617107152579429e-03,5.524135878377846483e-03,-2.111921401911299925e-03,1.821493916213512421e-02
8.042850840338526819e-01,5.571935620654420163e-01,8.724931324701342694e-01,-5.670948016557754434e-02,1.856817460372423858e-04,3.043432056658194884e-02,3.081994950771331787e-01
7.121081327181131293e-01,6.724632606932223755e-01,7.867852732056570542e-01,-3.155245029737534929e-02,-2.546999109474501390e-03,-1.547709152413506359e-02,1.176167950034141541e-01
7.219385868688038554e-01,7.077488654012619174e-01,7.068892457166304766e-01,2.355831944776960729e-03,4.724626922953844427e-03,-2.590024970456607668e-03,1.783327572047710419e-02
6.869982315863216726e-01,6.923906074935327615e-01,8.214725149524914061e-01,-8.371981276473954015e-02,1.776168811831481051e-02,2.821797391482257569e-02,2.043269276618957520e-01
7.181234181725606458e-01,7.209477412193343593e-01,6.973419624258752059e-01,7.589657500061825803e-03,1.740881279943518349e-03,-2.401946733504002184e-03,2.641491964459419250e-02
7.159674282576506954e-01,7.121233159940880686e-01,7.257107812035888950e-01,2.399676818894174585e-03,1.058850249786229530e-03,-2.106708891208795235e-03,1.345801539719104767e-02
6.419685975676673317e-01,6.999389360008978489e-01,7.671125299711073486e-01,-1.924732449649006055e-02,-2.638941067657158746e-04,1.970822883257040536e-03,1.135348752140998840e-01
6.816022703594826204e-01,6.938008200980000373e-01,7.726759748443623455e-01,-9.422560824008151606e-03,-1.013330116162686298e-04,-7.048712760118409134e-04,8.717873692512512207e-02
6.759883180857391149e-01,7.089978936031722245e-01,7.742561424376049883e-01,-5.409649656740521222e-03,-1.039127415934396450e-03,1.169806166771260878e-03,8.716396242380142212e-02
6.777498686054309607e-01,5.906750004799056208e-01,8.075010943412199715e-01,-1.620221174282106547e-01,-1.447085656590412113e-02,-4.872453403070534962e-03,3.393647372722625732e-01
7.002240699050323869e-01,7.011545408790966771e-01,7.614337272809225121e-01,-1.095832302381150210e-02,-7.210409055784042405e-03,-7.446554366650338756e-03,6.612951308488845825e-02
7.213550051655547302e-01,6.091242414898557778e-01,7.583529272687704603e-01,2.967355442738512164e-02,1.676509149715239150e-02,-1.047284260226969896e-02,1.480901837348937988e-01
7.135799591941782705e-01,7.161253752203794454e-01,7.261826328080648318e-01,-4.422226615247933784e-03,-5.879391934298138292e-03,-7.628362581801909244e-03,2.168347872793674469e-02
7.540262851743183559e-01,7.122288847808859735e-01,6.555257130511643604e-01,1.353602790349375980e-02,4.263151117352531085e-03,-1.482953952803457535e-02,9.271600842475891113e-02
7.756042428964939894e-01,3.830488685814153471e-01,7.461481074078846198e-01,-2.483532895955267439e-01,1.217286927519395517e-01,2.298259190732817592e-01,7.289415597915649414e-01
7.353400662607832983e-01,7.045169690949444341e-01,6.995429302009249506e-01,1.928079807899874681e-03,5.642259259882264309e-03,-1.981402899244699266e-03,3.530659154057502747e-02
6.667229976826094529e-01,7.128811201770753891e-01,7.541882907033643502e-01,-9.903772584845363033e-03,-4.495975255258300753e-03,-1.290975598404559693e-02,8.123051375150680542e-02
7.659217591245118806e-01,6.932575557640690000e-01,6.844282541655433150e-01,2.436407887371218849e-03,2.919781768234284546e-03,-5.807263109297077473e-03,7.838477939367294312e-02
6.322131741418884898e-01,7.605647739922791750e-01,7.438735228640467323e-01,8.820109898316073893e-03,1.572815526647043660e-02,-1.755599409828909052e-02,1.284933090209960938e-01
6.490364032040312203e-01,8.126531756652755067e-01,7.439439987222423722e-01,1.890282578635107610e-02,5.953073004970103194e-02,-2.000167896169208551e-02,1.820804774761199951e-01
7.579213397469504176e-01,6.828169304003260942e-01,7.072026134359207239e-01,4.334000768546177398e-03,9.511106342403926467e-03,-8.090971255191842237e-03,7.019962370395660400e-02
7.533546597946986223e-01,6.930904325104602082e-01,6.964214071225448555e-01,1.613488139058080750e-03,3.401988400059451599e-03,-3.601148679860601606e-03,5.935966223478317261e-02
7.393743802423290434e-01,6.093292768464576570e-01,7.955365331113140037e-01,-2.477774804027921968e-02,1.905122261507473749e-04,1.571062560089324118e-03,1.709352284669876099e-01
7.109424289935060148e-01,7.074681572959519160e-01,7.102665541887399625e-01,4.899954080319463522e-03,7.988670148335921470e-03,-3.927356877338627865e-03,1.788677647709846497e-02
7.231232224340854442e-01,7.043436162513893040e-01,6.972714546370906152e-01,1.401802307519612809e-02,1.566704214891902203e-02,-1.367792742310523606e-02,4.922034218907356262e-02
6.804833167270801786e-01,7.646986171309146929e-01,6.926269485474940701e-01,-1.815930346759657334e-03,9.447281234804946401e-03,3.233420795782562980e-03,8.078376203775405884e-02
6.808384322962309776e-01,7.714313197839248737e-01,6.940883742425696390e-01,-4.173045838494048726e-04,9.615976196681577312e-03,1.627380102428961466e-03,8.641845732927322388e-02
7.001828893232532325e-01,7.641526311161209728e-01,6.956050584532408321e-01,-5.054083612981137216e-03,1.455516207871652111e-02,4.407730515726045531e-03,7.194720953702926636e-02
7.648079859706838901e-01,7.142561981195005849e-01,6.686600757196947686e-01,8.334738249760321321e-03,1.228137861779683704e-02,-2.064776906835229936e-02,9.423028677701950073e-02
7.007893069530634067e-01,7.079065875997373469e-01,6.673288868134984453e-01,3.053339012424360552e-02,2.932621115387713459e-02,-2.934047077303652412e-02,9.678810089826583862e-02
7.351677391529720662e-01,6.975978026785298880e-01,7.041469200697917374e-01,-2.763766632224816736e-03,-7.006176082166888121e-03,-3.975383041263087433e-03,3.776144608855247498e-02
7.605691534072245297e-01,6.824077410913158559e-01,7.152376371634929786e-01,-4.590566165947297488e-03,-1.175457117962397380e-02,-4.674475065374977117e-03,7.186277955770492554e-02
7.143468106764524483e-01,7.917706200866273525e-01,6.857602882846486336e-01,-3.118097351816921312e-03,3.678345978050870380e-02,4.242646703316826744e-03,1.147482022643089294e-01
7.119899069384143520e-01,7.021979527515747055e-01,7.374003958007140369e-01,3.717415725907918800e-03,7.999780885459988056e-03,-2.952994697217969141e-03,3.535535559058189392e-02
7.525605136052686550e-01,7.129406574349520520e-01,6.645207854524824986e-01,-9.200777333937351990e-03,-3.047699492035697410e-03,-6.775977992246628480e-03,7.907069474458694458e-02
7.100988761940649763e-01,7.153102209562661740e-01,7.178333951579349836e-01,-1.757500322479186531e-03,-2.422460601767141737e-03,-4.734659644030211542e-03,1.186574995517730713e-02
5.947661521729248335e-01,7.839236337841446467e-01,7.779755889549007097e-01,-1.240485361561420585e-01,6.781966277719564395e-02,4.966250165531255201e-02,3.194566369056701660e-01
6.739316325086321946e-01,7.725186099595331424e-01,7.081796343559768614e-01,-5.507411059532689359e-04,3.197442247283817374e-02,-9.946813991277201044e-04,1.028925627470016479e-01
7.628299930006946505e-01,7.102922720333976203e-01,6.713433037006824033e-01,-9.502648590417845514e-03,1.488761658423612194e-03,-4.542258951573409885e-03,8.162702620029449463e-02
7.533795303962150802e-01,6.792993190909059065e-01,7.053029709061646724e-01,-3.717465299845079847e-03,-6.160689442203702917e-03,-6.124705812465402500e-03,6.712353229522705078e-02
7.363553132643503307e-01,6.953112883365772934e-01,7.133749778504115957e-01,-1.818061363208144923e-03,-8.896899820131507625e-03,-2.451059365860334873e-03,3.917787596583366394e-02
7.234070399595572409e-01,7.037677444915889646e-01,7.188716478715057034e-01,-6.892981561848861771e-04,-8.882967297184614017e-03,-3.356789497720302903e-04,2.357296273112297058e-02
7.181004788854424836e-01,7.686805602984360108e-01,6.778845113093310282e-01,-9.766961355073666001e-03,3.092090668076576815e-02,7.667428018848645305e-03,9.767626225948333740e-02
6.944537076053646230e-01,7.640801959797844933e-01,6.351258541319434459e-01,1.721675606552493763e-03,2.144261087414291861e-02,-8.466794254487037489e-04,1.178508922457695007e-01
8.398241423269395822e-01,8.569896204917178961e-01,9.606588009549502649e-01,2.688779666651892053e-01,2.033283106499830795e-01,-1.884275810933213058e-01,6.784170269966125488e-01
7.149458533532500049e-01,7.115460572611868040e-01,7.231724326697396288e-01,2.439493731708984841e-04,-3.431651083687726426e-03,-1.165106891224046990e-03,1.211542636156082153e-02
7.251367437814529859e-01,7.161574990279011566e-01,7.124516422708275787e-01,-4.295864884192001883e-04,-2.455613359298702055e-03,-2.336725334667060124e-03,1.275384705513715744e-02
1.082491292849709463e+00,7.254267723877253493e-01,4.815681124077414443e-01,-1.449759958369194468e-01,-2.050698670533287332e-02,-3.380833193895562139e-01,8.253799676895141602e-01
1.117313980492309788e+00,3.880188826872458252e-01,1.138039308408404837e+00,-1.120834080067146798e-01,4.295445355418607558e-02,1.090579268739036434e-01,7.914038300514221191e-01
6.944412207514309987e-01,7.686654376034364189e-01,6.936855131887137427e-01,-5.948105437680239679e-04,1.456443102742317926e-02,-1.436825844257302821e-03,7.880050688982009888e-02
6.961839936473107615e-01,7.745175904718956117e-01,6.972078732538007362e-01,-1.273582392911278916e-03,1.389014868789481202e-02,1.643416816364236385e-03,8.154001086950302124e-02
7.230663402749453184e-01,7.176905213617542634e-01,7.072075775522688179e-01,8.097682809689716460e-03,1.080580394497623843e-03,-2.035688043466564890e-03,2.019401825964450836e-02
7.380204486390472551e-01,7.015105375434728119e-01,7.039323424167626131e-01,2.619962088400170849e-03,1.796538275342427328e-03,1.883087485663709312e-04,3.578827157616615295e-02
7.201111078470440185e-01,7.645889448925876630e-01,6.618129871766934569e-01,1.401890012094605432e-02,2.748037171092891987e-02,-1.004799388557517555e-02,1.054889112710952759e-01
7.194272222832513997e-01,7.371138014346397815e-01,6.953308532837384481e-01,1.092581755395196849e-02,2.359832682842916834e-03,-2.477878213201480974e-03,4.138694331049919128e-02
6.741123452582841180e-01,7.723553164830163631e-01,7.064497313250504007e-01,-8.969501624239692222e-04,4.691708383567400227e-03,6.643781968529589290e-04,8.712199330329895020e-02
9.006527205571430716e-01,7.087536097814319813e-01,6.706815673910864195e-01,5.273643427192243986e-03,4.936248688274477020e-02,-1.949439877536293386e-01,4.086362719535827637e-01
7.060230260596233043e-01,7.180665545175123343e-01,7.185840746259425371e-01,3.974003156198841445e-03,2.994053962578116165e-03,-9.789309587136668656e-03,2.265634760260581970e-02
7.128071367281070270e-01,7.238259005556278991e-01,7.149120602040657246e-01,2.073331569527635428e-03,6.727729420271241420e-04,-7.418990192991847202e-04,1.088831573724746704e-02
6.017404698021264764e-01,7.813394281815846387e-01,7.491717387819822882e-01,1.934306588080253117e-02,4.143596273886783476e-02,-1.811490476907994668e-02,1.864698082208633423e-01
6.889280033580558182e-01,7.662627721699994954e-01,6.929986465199641232e-01,1.676290300596372377e-04,3.415935952284565157e-03,-1.417856669992043723e-03,7.565418630838394165e-02
6.834565999701939232e-01,7.629675791505532434e-01,6.996566999226522254e-01,-3.617134388702452751e-03,7.693679593680267416e-03,7.979754890785124843e-03,7.552623003721237183e-02
6.912412952356382645e-01,7.618827127116467590e-01,6.888683914810559417e-01,8.319687372971419463e-04,1.554107979942776548e-03,-6.747271272962876258e-04,7.193159312009811401e-02
7.114997029237483117e-01,7.644308557846236640e-01,6.587857345569163581e-01,-9.952985151636948788e-03,9.817246463844240753e-03,5.580117785523457802e-03,9.513366222381591797e-02
6.629754236428769820e-01,7.639004796203051617e-01,7.049906594470298771e-01,-5.063164164475267813e-04,6.606991297008298590e-03,-4.756801630278102884e-03,8.894023299217224121e-02
6.486259345018754452e-01,7.795467717360262672e-01,7.040621004155728224e-01,4.802345420638795786e-04,1.576801449821954582e-02,4.815770979277539734e-03,1.173534914851188660e-01
6.851074923892638280e-01,7.350091704982917307e-01,7.186584284903111408e-01,3.992402069867547441e-03,6.322218763902440544e-03,-1.330030624463069203e-02,5.138110741972923279e-02
7.629173504013065932e-01,6.639893090394989317e-01,7.046205670396523679e-01,-1.463057746272998071e-03,6.177101025785953180e-03,-7.285668625431562795e-03,8.773949742317199707e-02
8.617475484765283467e-01,8.437446174980604008e-01,5.200577573633302642e-01,3.820826942739381175e-03,1.000594313297654969e-01,-1.198350147185453796e-01,4.290516972541809082e-01
6.900760269272762093e-01,7.664708427725168693e-01,6.974221168308768481e-01,-6.407136044360810505e-04,1.498631039393572440e-03,2.984606344507574702e-03,7.323675602674484253e-02
6.495875740381622521e-01,7.574413487714491966e-01,7.004342370594527356e-01,-3.186971145415374868e-03,1.555716696181098924e-02,7.598047653171145777e-03,9.830337017774581909e-02
5.525651734498360224e-01,9.510809078029950347e-01,5.988675063779563823e-01,9.287161704480345614e-02,3.400913311994490651e-01,-5.999960443563099460e-02,7.253744602203369141e-01
7.531376982423861888e-01,8.520845272705084295e-01,7.562757742199937017e-01,9.784869924130663865e-02,-1.823325713790446834e-01,9.924937672041490855e-02,4.092673063278198242e-01
6.826550416575819513e-01,7.539327787709680928e-01,6.859073433705729084e-01,8.160566796137722761e-03,9.026575614573296991e-03,-4.425308177722176578e-03,7.322737574577331543e-02
6.421777821732811420e-01,7.864773040253445480e-01,7.082902489699457460e-01,-1.968780013459078826e-02,7.199982810002288069e-02,1.933581532469818079e-02,1.830016076564788818e-01
1.044852984262020890e+00,7.326306594228596536e-01,5.171959289653977887e-01,-1.218379381536242034e-01,1.956605040991012817e-03,3.117290514232969878e-01,7.397488355636596680e-01
6.921252507855665259e-01,7.611127414304339478e-01,6.928679567245171755e-01,-3.215436946734472404e-03,6.716957934941071573e-04,8.946629912360093504e-04,6.887205690145492554e-02
7.351157311321390164e-01,7.393402861757460975e-01,6.419959951254792241e-01,2.507685598716693359e-02,-1.917552898149150337e-02,2.232761902266998735e-02,1.164806336164474487e-01
7.876969753637884653e-01,7.152362446780454741e-01,6.769169924583692266e-01,5.125948252477135515e-03,6.260696819398764608e-04,2.956121550474961890e-02,1.104407608509063721e-01
6.822439863588082298e-01,7.600528190238298176e-01,6.957411922552064754e-01,-2.452784613596683833e-03,9.008931286907533725e-03,4.056191494817005735e-03,7.414226979017257690e-02
7.369940241864563202e-01,7.017934720100987844e-01,7.018240179593673300e-01,-1.925677427613300876e-03,5.031227390008388527e-03,3.134532635488283293e-03,3.680414333939552307e-02
7.637271161623812032e-01,7.373514836913355186e-01,5.963915091126917867e-01,3.004315206734914367e-02,-4.676012481704470286e-02,8.454924682161797655e-02,2.345129549503326416e-01
7.683663126725369663e-01,7.861648861982413194e-01,6.312536335625691386e-01,7.948752751002012215e-03,2.613553409698905414e-02,-9.624799598832065387e-03,1.551571488380432129e-01
7.615989310152012637e-01,7.457766810836965465e-01,6.375562184827149315e-01,1.729346551580776548e-02,-7.918050563227434571e-03,2.011878659112186288e-02,1.263878047466278076e-01
7.636874852293349392e-01,6.759433360394204726e-01,6.713859558688890505e-01,5.294891664766906807e-03,-5.201390328508890409e-03,2.977944152541085049e-02,1.046202927827835083e-01
7.361259480631461294e-01,6.953916317675887804e-01,7.031485240607437959e-01,-3.642619291363363276e-03,6.812882540096854532e-03,4.889613447885261116e-03,4.067258536815643311e-02
7.279524835016452089e-01,7.054650257418767501e-01,7.008910573161010182e-01,-7.379485770469421634e-03,4.701752015314742544e-03,4.561516603728497585e-03,3.035747073590755463e-02
7.038218314416745391e-01,7.300961375822970778e-01,7.591131477055846899e-01,-2.183941184161467680e-02,1.769259792807367088e-02,2.027587757743830668e-02,7.679860293865203857e-02
7.681439054931831212e-01,7.430306651682476726e-01,6.115017834199309998e-01,2.506636536902342310e-02,-1.639778317500487428e-02,2.601336945230957320e-02,1.611066609621047974e-01
6.581665664692694095e-01,7.182560743756640775e-01,7.645244728750975050e-01,4.448680929044607213e-02,-3.241733436208871916e-02,3.880359568563988837e-02,1.487911194562911987e-01
6.819673037008036065e-01,6.992936703584469171e-01,7.624959931993775530e-01,8.488403967792591126e-03,-4.098141498068866122e-03,7.952736750321955789e-03,7.645969092845916748e-02
6.981607884024847444e-01,7.357273240497428368e-01,7.022217987442305187e-01,-6.164870875699029161e-03,1.945339442709121671e-03,1.601931590611170662e-03,3.752661496400833130e-02
7.128319559385062343e-01,7.160555535284625073e-01,7.143588662879313267e-01,-1.082136812585483528e-03,1.284953168720735436e-03,1.690969902823255240e-03,4.984516650438308716e-03
6.912482452761733454e-01,7.049758908554984993e-01,7.421639900873696627e-01,6.110995776655078933e-03,-4.715493953893742929e-03,8.369268119827008579e-03,4.970696568489074707e-02
7.204898507048567158e-01,7.389629077661967749e-01,6.987111048680493264e-01,-8.542248875365665919e-03,4.143960385184130603e-03,3.164362722896667864e-03,3.896606713533401489e-02
8.246310953176205771e-01,7.776984854878732367e-01,6.007639683703482891e-01,2.657004612808927524e-01,-1.773185090232995420e-01,2.174780195745971700e-01,6.998702287673950195e-01
7.171496428847123905e-01,7.117366293314013603e-01,7.133355103152874133e-01,-3.812631815925039583e-04,2.654991782479198398e-03,8.045596695696594211e-04,6.835740525275468826e-03
7.582979830215677008e-01,7.842019317981310245e-01,6.090619896197162486e-01,2.495948666098573437e-02,-7.062522220741658530e-02,5.437859301565792225e-02,2.291549444198608398e-01
7.132501607795096454e-01,7.165407901943147140e-01,7.156935929995192902e-01,-4.012868760707146744e-03,5.364177901520353516e-03,4.261367033423266171e-03,1.406657323241233826e-02
7.184133244623264192e-01,7.045337742588965169e-01,7.178164396513617707e-01,-3.640692041623404002e-03,9.035357934290751472e-03,3.466294241559741366e-03,2.248190902173519135e-02
7.066200078202165002e-01,7.216028009229257245e-01,7.097829093089326191e-01,-4.943669519832097001e-03,6.866813481094389193e-04,1.592199604968887574e-03,1.641457900404930115e-02
7.143434049722642287e-01,7.324851355912062045e-01,6.785654335677626658e-01,-1.417047297650207184e-02,1.107285909542865716e-02,6.095436636604698727e-03,5.779233947396278381e-02
7.726659751934796816e-01,6.660149739492994270e-01,7.061690838937972892e-01,-1.284563466428501576e-03,-5.151869023369936088e-03,-6.167778073706645450e-03,9.435577690601348877e-02
7.367127510612166974e-01,7.177594440534749154e-01,6.942106400526716348e-01,1.067271491590606088e-02,2.884092999478239747e-03,-4.137093182666220365e-03,4.216779395937919617e-02
7.165013754062894424e-01,7.514583913234053059e-01,6.892848107266553725e-01,-1.412429159633891464e-02,2.429792252682154083e-02,1.419816030503250753e-02,7.673696428537368774e-02
6.960986574341446742e-01,7.447694915053898468e-01,6.935746237992972407e-01,-7.303875304600396592e-03,7.149560153913878287e-03,3.649238014434511707e-03,5.339856818318367004e-02
7.294229404282120965e-01,7.246296067447227651e-01,7.028965330031569092e-01,-1.795598345704760637e-02,1.450852156693789585e-02,1.927858315496465413e-02,5.756049975752830505e-02
6.869742568472890776e-01,7.535795991920595238e-01,6.787037500547556945e-01,-1.701189087277088161e-02,2.643618738010155775e-02,1.576008360834226310e-02,9.362426400184631348e-02
6.966908647552672029e-01,3.483845958317595692e-01,8.583429115801126663e-01,2.725715734452794359e-01,-5.713147206577760123e-02,8.251410676461193305e-02,6.759116649627685547e-01
7.169842290547723263e-01,7.309731379436654741e-01,6.978718217334339835e-01,-9.731600951409473746e-03,1.266655121624531317e-02,1.964623980591292951e-02,5.245661363005638123e-02
7.242700825839318846e-01,7.091297757320282891e-01,7.086202923179708568e-01,1.633248872736426218e-03,1.205155302251947501e-03,-5.790713384485415849e-05,1.579784601926803589e-02
6.053891240097093451e-01,9.600951043529529771e-01,5.778815991478777336e-01,7.324567571750252581e-02,-3.501591322620542512e-01,2.595667435492803321e-01,8.499316573143005371e-01
7.626529521118500243e-01,6.868655470247676531e-01,6.956250100073491094e-01,-1.122820289655232376e-04,-1.177567404762164347e-03,-2.830661339081942587e-03,7.200581580400466919e-02
7.429416656660909890e-01,7.026532339220330492e-01,6.934332267921140547e-01,8.598874108344402301e-03,4.063883831782112710e-03,-5.478112504439937996e-03,4.940670356154441833e-02
1.061872835975089080e+00,1.055118608840499350e+00,4.141419067818908895e-01,1.153848017139061655e-01,2.393928810115501515e-01,-2.501763378669185633e-01,9.026951193809509277e-01
7.684114788897248305e-01,6.792073306083763473e-01,7.122495814226017519e-01,-1.194854318603247052e-03,-3.944776635217150246e-03,-9.426286463966220344e-03,8.011988550424575806e-02
7.777857707873738757e-01,7.126934832988295332e-01,6.831366919992358788e-01,7.794974395770039657e-03,2.306022490048534757e-03,-6.030131373408863064e-03,8.568461984395980835e-02
7.122287131599093213e-01,7.233155462031645166e-01,6.991522860107627357e-01,-8.033436596680203212e-03,3.726757076037323386e-03,4.217154396866791902e-03,2.697247825562953949e-02
6.500369506700777178e-01,7.523832107402230740e-01,6.965017562113074989e-01,2.643043440867731339e-02,-4.919789543417101008e-02,2.623916183998951934e-02,1.389270275831222534e-01
6.649401336302032117e-01,7.549942150216120140e-01,7.094466787378186368e-01,5.567265378742636273e-03,-1.171743211537589965e-02,1.230266875702742957e-02,8.391375839710235596e-02
6.919644214909559388e-01,7.416629665128676718e-01,7.046549155308349244e-01,5.401431491202601104e-03,-5.047971546324324377e-03,8.340009401680116910e-03,4.871277511119842529e-02
7.481964470069739637e-01,7.254264340287702728e-01,7.038272782681125328e-01,1.815430540902491369e-02,-1.996691779084042509e-02,2.183228221593094473e-02,7.135492563247680664e-02
6.216146001653514164e-01,7.768260671761519909e-01,7.445403436165649591e-01,3.341730803130441019e-02,-3.246096486628743255e-02,2.538509873234899919e-02,1.690158396959304810e-01
6.930170259100435493e-01,7.647614713687662658e-01,6.894962684636373185e-01,1.151269949242235500e-03,1.159458705534331842e-02,-6.902086646016803405e-03,7.721691578626632690e-02
6.639874188114702758e-01,7.590089977124563347e-01,7.091401764110777384e-01,-1.610349502446564024e-02,3.692640970589986665e-02,1.236281792771984182e-02,1.100206822156906128e-01
7.725211110495663336e-01,7.171653801785909943e-01,5.630537818433332120e-01,6.740417839284415513e-02,1.432901673122003450e-01,-1.839222792753794911e-01,4.604932069778442383e-01
7.653181666017252471e-01,7.050140812500118592e-01,6.794674545637983121e-01,1.237402650272287916e-03,-6.435334376130398060e-05,-7.134419597654123590e-03,7.737625390291213989e-02
7.244225047178959320e-01,7.434401594363574395e-01,6.991206236138657326e-01,1.297266996381231906e-02,-1.937912146787433912e-02,1.746075565673262109e-02,6.347593665122985840e-02
6.661891060127089759e-01,7.376443720129320925e-01,7.068469051598811337e-01,6.752565569372057618e-03,-1.234550832446875204e-02,1.176091919591745923e-02,6.973293423652648926e-02
7.343532047126342110e-01,7.617402683622767068e-01,6.560906472373581044e-01,1.266935610815832398e-02,9.009804350972736714e-03,-6.272589493254253704e-03,9.930540621280670166e-02
6.950638519643402846e-01,7.523419754113567226e-01,6.856242435000959867e-01,6.879290136062189871e-03,-1.009220256339758356e-02,2.882532007841157561e-03,6.620446592569351196e-02
7.147405651230835932e-01,7.246748846283064260e-01,7.143354316490130307e-01,6.013870378663051589e-03,-5.187716784009619581e-03,5.992755526191354161e-03,1.999640092253684998e-02
6.800894169484807961e-01,7.629927594886426467e-01,7.097877984999300116e-01,1.021833742999234823e-02,-3.164088238628814942e-02,7.824241089409345387e-03,9.377206116914749146e-02
7.055070007553634337e-01,7.444817585666909654e-01,7.075154532644334360e-01,8.429886249311693835e-03,-6.095700139820604650e-03,8.393747946209386898e-03,4.450633004307746887e-02
7.128339287853172612e-01,7.546693116566612902e-01,6.742382780956729382e-01,-8.667409570033621918e-03,7.395483742493064866e-03,2.724601814258537005e-03,7.256865501403808594e-02
7.081264701271673401e-01,7.658639259745806394e-01,6.579208200213506608e-01,-4.065817429396177685e-03,1.103378510655009075e-02,1.959020880379312105e-03,9.580869972705841064e-02
7.051805436310663033e-01,7.507667603928968036e-01,7.288292044774530298e-01,1.560389351630974385e-02,-1.891060069718118394e-02,1.706533868205705601e-02,6.508658826351165771e-02
7.013861934406877552e-01,7.451753662901133834e-01,7.158194165835340961e-01,1.421456625139234063e-02,-2.089155634410071183e-02,1.104599487705616896e-02,6.144400686025619507e-02
7.152700898079512593e-01,7.404821895610647076e-01,6.694782521746387438e-01,1.261847999976983131e-02,-8.754868286231679703e-03,1.189841411449194149e-02,7.084764540195465088e-02
6.702615899061723503e-01,7.065044542194783839e-01,7.753175244468302196e-01,6.424845728063048426e-03,-2.638948428064111403e-03,6.283625011147204835e-03,9.384000301361083984e-02
7.932636952516108897e-01,7.968450905031378984e-01,5.631053015865760125e-01,4.022928515401221101e-04,2.658332261439965913e-02,-1.826049722478179224e-03,2.365174591541290283e-01
7.455251309029368167e-01,7.815707983739151876e-01,6.344303061443296032e-01,-4.559643554885806083e-02,6.531187651237618796e-02,4.363121197129819773e-02,2.058905363082885742e-01
7.619693053098219870e-01,7.913020748724013398e-01,6.178212674604320886e-01,-2.136879959981650978e-02,3.245512695513221718e-02,8.094221407382147515e-03,1.749107241630554199e-01
6.927249543663910325e-01,7.198445202459603509e-01,7.175475502705096487e-01,-4.538844194223329472e-03,3.952705948139015150e-03,9.854924780933345049e-03,3.284033760428428650e-02
7.061128030413763579e-01,6.772832791191087942e-01,7.754303552472842087e-01,7.429714224440966269e-03,-3.122942848300677178e-03,2.887659591262096786e-04,8.848483860492706299e-02
7.785715449344703387e-01,7.877716198008830606e-01,5.617450050686726426e-01,-8.957624755697890517e-03,2.946783430610201010e-02,6.586193807281251131e-03,2.281865924596786499e-01
7.555993165545763501e-01,6.970998432627394381e-01,6.966302805340355286e-01,-1.458753758115265142e-03,3.585518122190142331e-03,3.988820011522801502e-03,5.951942503452301025e-02
7.954633928031749068e-01,7.760512361778743040e-01,5.644870783978536144e-01,-7.856368460228394315e-03,5.684434387491566106e-03,2.829486134241063905e-02,2.278750687837600708e-01
7.238375273388253373e-01,7.240980189456363014e-01,7.068776424031495420e-01,-5.855906139066172772e-03,1.609689815704504895e-03,1.516908327276503396e-03,2.024042233824729919e-02
7.898612934492446058e-01,8.241667888284052168e-01,6.150167807023794175e-01,5.092220903195286523e-03,6.322898706040838701e-02,-3.310915014283733609e-02,2.304468601942062378e-01
6.810200550674084807e-01,7.755451890545425053e-01,6.836463825294684105e-01,1.461031646421386172e-02,3.820165137843024861e-02,-2.248226952895893832e-02,1.234037429094314575e-01
7.564849321829651974e-01,8.176082505961369540e-01,6.348977515923748260e-01,-1.900897513108175223e-03,5.942897408884236649e-02,7.016877121077133919e-03,1.915861964225769043e-01
7.338869945525404725e-01,7.064508207853825716e-01,6.608365054143202633e-01,6.702738062117596929e-02,-7.195290961768834037e-02,1.569372049337569575e-01,3.270816802978515625e-01
7.180350164538501501e-01,7.186171614033122212e-01,7.048601487369402507e-01,-9.526548210447367132e-03,2.567021045118145391e-03,2.393614024911148302e-03,2.215418778359889984e-02
3.400151008464294411e-01,8.564097749309413921e-01,1.036241964265216531e+00,-1.344072362436900814e-01,-8.052316392489415608e-02,-8.032373373044993103e-02,6.963267922401428223e-01
7.244358717992299690e-01,7.067391972662163679e-01,7.241279665701766399e-01,-2.671624683807476402e-03,5.023858004914318921e-03,2.425702063894048972e-03,2.055724896490573883e-02
7.124459688434950921e-01,7.235806696268924920e-01,7.085457010617635110e-01,-1.132741997461169910e-03,-1.116953421013001111e-03,1.764353871007106906e-03,1.412631850689649582e-02
7.449005500595594631e-01,6.995653424305283696e-01,7.028044026077920892e-01,7.886994367974243126e-04,3.998957897277146713e-03,1.915408599987329522e-03,4.449468106031417847e-02
7.570346923651555260e-01,7.337431964567737719e-01,6.418145242466545275e-01,-1.448749070695864831e-02,3.664380154239548718e-03,1.312923359418533692e-02,1.110027283430099487e-01
1.556936999004407962e-01,8.471482371901539743e-01,8.573968553696138528e-01,2.078930307951131623e-02,3.328673858707345556e-02,-3.003869789171850855e-04,6.999440789222717285e-01
6.142937339344471948e-01,7.912199155469445966e-01,7.708309386959389942e-01,1.461886359094910492e-02,-1.401857128666250327e-02,2.926901896166483018e-03,1.713698804378509521e-01
7.885753440351493948e-01,6.391777207386261095e-01,7.374252212185056221e-01,7.066243046606689691e-03,1.001065769843341620e-02,-9.225637871194817749e-03,1.341642737388610840e-01
7.802039536187229674e-01,6.217547062698479676e-01,7.295165366276540331e-01,-4.203293600280443715e-03,-1.238286116032907488e-02,-2.434775964856353975e-02,1.481061875820159912e-01
7.340791367414987167e-01,7.366515768404288123e-01,6.783746070904606018e-01,1.201803609340333472e-02,5.546396956921235272e-03,-6.721640184856179923e-03,6.256226450204849243e-02
6.115017084901952504e-01,7.851814730172499424e-01,7.388496812551209603e-01,7.941479787043941724e-03,-3.050975027535217723e-02,-2.627453857376380909e-03,1.651267558336257935e-01
7.368718959184982209e-01,7.347529805972706773e-01,6.785364802619067159e-01,1.230908326486755862e-02,5.614287173440251667e-03,-6.774085162165649834e-03,6.301324069499969482e-02
6.410810070676431494e-01,7.745505826983974940e-01,7.186913677361217445e-01,-1.848094690692343028e-02,-8.300412028229832428e-02,-4.154958712971471707e-02,2.008772492408752441e-01
6.500426424202467857e-01,7.373714224021642449e-01,7.527940132021236908e-01,1.925752034875093457e-02,2.586623286205078434e-02,-1.799341648784022127e-02,1.153344660997390747e-01
7.041492494519082657e-01,7.378323656789695928e-01,7.019561686825848135e-01,7.401095384753142437e-03,4.721186763731712900e-03,-6.161750575706476975e-03,3.947569802403450012e-02
7.434429758185832071e-01,6.972107068512315431e-01,7.018337640120877463e-01,2.088710117982622936e-03,5.250705728165781620e-03,-2.139130257600318618e-03,4.532754421234130859e-02
7.658185723837219738e-01,6.945980996199252466e-01,6.902051294468557474e-01,-6.198690070129039484e-03,-7.286217292740084991e-03,-1.527250056708091830e-02,7.986744493246078491e-02
6.029017623993644381e-01,7.809001520565258536e-01,7.424489221802140770e-01,1.640253011650770346e-03,-2.581241134262606332e-02,6.317776944281342996e-03,1.686544418334960938e-01
6.475315118974713791e-01,7.576174355261622306e-01,5.707947184107742267e-01,6.918982444439242263e-02,1.549947803612251040e-01,-8.546790042209363725e-02,3.671528398990631104e-01
5.806835486234753763e-01,7.894391901427298963e-01,7.821479807888774838e-01,1.001978960519731877e-02,-2.160696573773551732e-02,8.508977153421186379e-03,2.098308354616165161e-01
5.627418802613378679e-01,7.902491362992370982e-01,7.804166815904451937e-01,-9.592990175962791616e-05,-1.657651794018831851e-02,-3.308339026079716062e-03,2.246697098016738892e-01
8.098118026858613927e-01,8.792291531629254919e-01,9.924427825561481509e-01,-3.288454852867170874e-01,-2.455765163280038410e-01,-2.016301224197798725e-01,8.079608678817749023e-01
6.915095987226416163e-01,6.965595610288315420e-01,7.634176651511735967e-01,1.424293392665845238e-02,-2.556915873631839062e-03,4.869823847432184008e-03,7.438065111637115479e-02
5.711342413535143159e-01,7.952101829796784926e-01,7.929198202876127644e-01,-6.458744910454014901e-03,-2.241157173350890458e-02,-7.131318465552599281e-03,2.269065976142883301e-01
5.555251550312517717e-01,7.918465429322937288e-01,7.906173821976006932e-01,8.173889479081134293e-03,7.743838347336503593e-03,-2.643436037978777117e-03,2.365589439868927002e-01
7.096562379732214154e-01,6.874391635432317571e-01,7.745014795158916554e-01,3.197010802474782587e-02,5.097176681016476855e-03,-4.499072706464069329e-03,9.666492044925689697e-02
7.523296890232279432e-01,7.151377401851085613e-01,6.893997348578414508e-01,1.046128197561951682e-02,4.994787226935326098e-03,-5.525635666657038696e-03,5.914126709103584290e-02
6.835101663523621696e-01,6.967143389580117141e-01,7.739464115412617584e-01,8.949341878026888589e-03,3.351026757967987750e-04,2.728201547319050301e-03,8.615025877952575684e-02
8.379564879210652517e-01,8.380005417701585912e-01,5.920132482816000685e-01,6.636438535703922947e-02,-1.292872335206616541e-01,1.156256159820222423e-01,4.049259424209594727e-01
7.635254968586884239e-01,7.656862330684561790e-01,6.272391962565775358e-01,1.189352329822788469e-02,1.108704700265389538e-02,-8.813323846211860643e-03,1.410647481679916382e-01
5.956974763421252206e-01,6.265255209653292079e-01,7.920487377395974971e-01,1.384940372820523680e-01,-1.170240551088542157e-02,1.123587332571537693e-02,3.029561638832092285e-01
6.957949668075817939e-01,7.965745287794527840e-01,6.476578504409190584e-01,5.646678996082278752e-03,7.385617645566780465e-02,-4.085172110328327139e-02,1.969552934169769287e-01
6.920203648235742078e-01,5.501007498175022326e-01,7.910659696756222603e-01,1.338711674546089747e-01,2.285726896967827868e-02,-3.619942892498573261e-02,3.213576674461364746e-01
6.849080121240742614e-01,6.824962889222014883e-01,7.659515891662534992e-01,1.468603710960762927e-02,-5.082919537571362403e-03,9.119230051096351847e-04,8.658160269260406494e-02
7.198261005141650681e-01,7.406281553072625590e-01,6.968191020904156430e-01,-7.343589505773528286e-03,-5.044986993564298111e-03,-4.430889629521221097e-03,4.168548062443733215e-02
7.042923892995424096e-01,6.683141678111192974e-01,7.520422640179683649e-01,1.191331255445689241e-02,-1.283132917008336475e-02,8.589286265024463976e-03,8.020894974470138550e-02
7.626357253522195734e-01,7.807569879787354949e-01,5.963768374555934448e-01,-6.518701647747209178e-03,9.737713224071048446e-03,4.209415737787451130e-03,1.773367524147033691e-01
6.939571481022862587e-01,6.997306721364064952e-01,7.759514594826684153e-01,1.405536434794525148e-02,-2.110954248698258557e-03,2.755826717399623496e-03,8.313733339309692383e-02
7.465741330604310777e-01,7.057785206251038224e-01,6.984221628287795580e-01,-6.099657926446773980e-03,4.474418487633619219e-03,1.052636676274407504e-02,5.022546276450157166e-02
7.419181435072162989e-01,7.530938713511563520e-01,6.174282100899698422e-01,-4.815411840314387515e-02,7.645349478796988063e-02,8.898468280706595124e-02,2.554615437984466553e-01
7.425391946749546612e-01,7.684359267897818979e-01,5.974773646714186537e-01,-1.543076304905793665e-02,4.105064908002416940e-02,3.633674628232311243e-02,1.876194924116134644e-01
7.291247389252432098e-01,7.080562217786696699e-01,7.106091132365853769e-01,-7.090496363955618199e-03,6.672644203208852667e-03,5.619946074633478880e-03,2.785252965986728668e-02
7.695419056898785692e-01,6.930655384302746302e-01,6.896519233687428141e-01,-2.306435496283480800e-03,5.060327292696031355e-03,8.365382467524941704e-03,8.015027642250061035e-02
7.633151466784449113e-01,6.799918375046645203e-01,6.922726170186898065e-01,-2.357441360492135325e-03,3.910811121790182254e-03,9.898111972066277534e-03,8.016726374626159668e-02
3.001494301084240424e-01,8.313916594573880214e-01,8.350180842975372109e-01,-1.139104259704362132e-01,-1.283095537535554054e-01,-4.059910492319186714e-02,6.143448352813720703e-01
7.371422611684235182e-01,7.364446555963670704e-01,6.741446576058107709e-01,-1.314002998308551329e-02,7.533552998374536472e-03,6.737606369617678628e-03,6.891783326864242554e-02
5.152243089556879374e-01,7.991105503394195786e-01,8.663165585863786822e-01,-7.842154772573348143e-02,2.046463305901587149e-02,2.938555757378325667e-02,3.556454181671142578e-01
7.446621073716772621e-01,8.931633382988587444e-01,4.674259944314518300e-01,7.443605766886721153e-02,2.639346861734337413e-01,-1.530879383290080498e-01,6.603006124496459961e-01
7.400853840360253066e-01,7.211863245196290517e-01,6.976939708187511746e-01,-8.134685052965192134e-03,3.170437492074491305e-03,3.868366805126168245e-03,4.033132269978523254e-02
8.372410614045814325e-01,7.487463888426023617e-01,6.092503446925591204e-01,2.458712856721735618e-02,-4.744788253123435884e-02,9.339332164688102234e-02,2.727077901363372803e-01
4.447921537977487239e-01,7.116873878385111540e-01,8.456592950598219582e-01,-2.256195238312454499e-01,-1.030083994607113168e-01,-6.601327646542008709e-02,5.679401159286499023e-01
4.333858238264761686e-01,6.609388061614674958e-01,8.319518957743914367e-01,-2.706481280596755301e-01,1.193738680141087222e-01,8.755004889428573411e-02,6.367393732070922852e-01
5.500524290744613909e-01,7.618291870716631387e-01,8.503881861399538167e-01,-1.493761809958549791e-01,3.508939125189836777e-02,-2.205718537271592755e-02,3.788666129112243652e-01
5.919495995461911964e-01,7.242323075834491419e-01,7.692273838422249987e-01,5.023632215793936984e-02,2.086113577871968883e-02,-2.360729782287908016e-02,1.897995769977569580e-01
7.651161649397376641e-01,6.891790752291894195e-01,6.938386531651368205e-01,-7.651954732184872718e-04,6.380517204994430331e-04,2.577365018741591476e-03,7.387302815914154053e-02
4.828828122354251740e-01,7.676744669127033571e-01,7.866300292704301311e-01,8.679420501737750149e-02,2.607254621922512963e-02,-1.060501309613833681e-02,3.344255089759826660e-01
5.436435201935645445e-01,7.596451832151743799e-01,7.766188673844859336e-01,3.083304042597870276e-02,-1.645135287807072922e-03,-7.173725749174707234e-03,2.315722405910491943e-01
6.013930086607646164e-01,7.636601227988486507e-01,7.847621024901194620e-01,1.176365077859404390e-02,1.241359005290171118e-02,-3.687720523427529852e-03,1.764038205146789551e-01
7.529944112014275159e-01,6.830624399830211857e-01,6.952228755131115712e-01,-3.884551001363505639e-03,6.028035376317671633e-03,8.944250978312197689e-03,6.769219785928726196e-02
6.565005612767359500e-01,7.391411945676256146e-01,7.797920769175906708e-01,1.178189973464969370e-02,2.903509836294259142e-02,-1.088886558149037946e-02,1.230554133653640747e-01
5.876607861063651850e-01,6.990850291262400429e-01,7.698570713468719795e-01,5.758130762689282756e-02,1.074092252258132020e-02,-1.053823683458673596e-02,1.895675361156463623e-01
6.293920443086880034e-01,7.693433578372331771e-01,7.841163066788419123e-01,1.055507905942988309e-02,6.689763903296273330e-03,-1.015574270793484155e-02,1.504991948604583740e-01
7.605581173116073845e-01,7.373291271804816027e-01,6.827716878824331426e-01,-2.417497259887035205e-02,9.157196762189890454e-03,2.391629342415677734e-02,9.221839159727096558e-02
1.116099228757297279e+00,9.555901217423266036e-01,4.659760279989425547e-01,6.125453627523277239e-02,-1.665346294405515848e-01,3.613555476085901219e-01,9.111881256103515625e-01
7.250995882570845374e-01,7.134518652985467613e-01,7.123818777497490373e-01,-6.899495313272924375e-03,6.005510946306992330e-03,8.260587636811774978e-03,2.459668181836605072e-02
6.803531550693233676e-01,7.161136992138590340e-01,7.324879639799654063e-01,8.820000530033166378e-03,-4.919386010099422585e-03,1.317135923811446271e-02,5.439593642950057983e-02
7.087541654160492977e-01,7.025795586387409974e-01,7.367315972094672372e-01,5.295385457969236861e-04,-7.259879636280046344e-03,2.400325833170225982e-03,3.420315310359001160e-02
7.389258036407204688e-01,6.986969696554988785e-01,7.202411130853790810e-01,-2.716168549406616697e-03,-8.303563359445747388e-03,-3.301275850272705325e-03,3.843811899423599243e-02
6.819799716443892823e-01,7.140875523769798505e-01,7.172881001290343228e-01,9.866973153604931962e-03,-7.425448173896438339e-03,1.180895747910613337e-02,4.494151473045349121e-02
7.609033379711312994e-01,6.652881384958003741e-01,7.328971990383337243e-01,-7.207237243379711368e-03,-1.213829523406886705e-02,-1.051915720010137417e-02,9.043563157320022583e-02
7.006613265888353981e-01,7.131949565937757418e-01,7.235070849187191788e-01,4.828189422724138771e-03,-5.519085432882714880e-03,7.942126008118981922e-03,2.726219967007637024e-02
7.012364585873968048e-01,6.887928249518132651e-01,7.298594946826677532e-01,6.131344794319888020e-03,-1.041203566040763487e-02,7.857884238650126446e-03,4.419895261526107788e-02
7.568043223451745849e-01,7.280998677617027681e-01,6.495668412196177188e-01,1.040315393313123032e-02,7.611502436170845126e-03,-1.069696093539631958e-02,1.004359796643257141e-01
8.280268619078468006e-01,7.492802714937409903e-01,4.860142437280381422e-01,4.022656126445490338e-02,1.110149240980084773e-01,-1.445289274794692991e-01,4.480341970920562744e-01
7.074141008264789310e-01,7.051858009817212336e-01,7.083976359925306943e-01,1.166251831666386199e-02,-8.908293895612963420e-03,9.456962402214327129e-03,3.037338890135288239e-02
8.904267705673867273e-01,6.507057253912491568e-01,4.194241481620922807e-01,-6.901875814417014754e-02,-1.157345014490208102e-01,-2.950521986156047216e-01,6.942924261093139648e-01
7.677930444778475749e-01,7.114346333660338528e-01,6.833602647880345771e-01,-1.392969670175820372e-02,-1.858545838906107070e-02,-2.984015381655634111e-02,9.917832165956497192e-02
7.590294819590136521e-01,7.066876121776157760e-01,6.809234520743469021e-01,-7.926677794192607540e-03,-8.868199855044396184e-04,-5.014242754344470053e-03,7.083989679813385010e-02
6.747526805202320732e-01,7.200963776447034670e-01,7.663282401566390289e-01,1.932351248075795183e-02,-1.061040504513173846e-02,1.419873893936237155e-02,9.139206260442733765e-02
5.002342461761648540e-01,1.148150277420054266e+00,9.472572982217318804e-01,-3.373454006137176220e-02,2.862654829080234498e-01,1.566326278228426933e-02,7.615675926208496094e-01
8.405030502559215355e-01,7.230171115222132627e-01,7.025436513501500668e-01,-9.027722785131334082e-02,-1.001882494580616512e-01,-1.657353046469739466e-01,3.919120132923126221e-01
7.921753188516671429e-01,4.542001191656913628e-01,7.339690969805204857e-01,-1.494091184896815250e-01,-8.919846372076344065e-02,-2.118746677114888566e-01,5.687301158905029297e-01
6.765780826057864461e-01,7.645316521648262142e-01,6.950380319079784153e-01,1.147664921196925661e-03,9.516276867258727234e-03,-2.822231508649817276e-03,8.217363804578781128e-02
6.002317272318727914e-01,7.818545310367142065e-01,7.652087271357980169e-01,9.804002795169738244e-03,1.011259763429713313e-02,-1.345755875278987698e-02,1.771415621042251587e-01
8.099238819863210370e-01,5.766289565990938559e-01,7.477883356436140216e-01,-1.540163612854034657e-03,5.859088213595102686e-03,-9.596846676464085291e-02,2.674535214900970459e-01
9.216604218182066210e-01,6.699212781421790552e-01,8.072440840951643493e-01,-2.974356483070964355e-02,4.504014753921860791e-04,-1.559959853002443331e-01,3.511687815189361572e-01
9.322736576200459924e-01,7.807366539901405833e-01,6.540841295875446937e-01,-3.193002902954417827e-02,-5.514717354865356080e-02,-1.731025316744641551e-01,4.003405272960662842e-01
7.128254947120571394e-01,7.468889428858183077e-01,6.893423798015783088e-01,-1.004569385162130957e-02,4.301015542030615750e-03,2.278439629979048687e-03,5.371693521738052368e-02
7.339806735789180525e-01,7.167000136438301805e-01,6.811847125557143334e-01,-1.456785966311041278e-02,6.485452860707683134e-03,8.655619497613176172e-03,5.622540041804313660e-02
7.467791196767616935e-01,7.343941787930906573e-01,6.641390294159547070e-01,-1.602679390047210065e-02,1.142684817717864315e-02,7.465155755922923443e-03,8.537422120571136475e-02
7.395219420710249514e-01,7.324506808002859692e-01,6.414404037688608007e-01,-1.969828543354545589e-02,1.823966046523929629e-02,1.859046224295441904e-02,1.103420555591583252e-01
7.317135762108539776e-01,7.497916216511515408e-01,6.073877813792846192e-01,4.233703557347993224e-02,-1.152693165043395390e-01,9.226156877747784812e-02,2.980036735534667969e-01
7.653268836959941090e-01,7.866745064187657954e-01,6.471384308389271922e-01,-4.019445297201749284e-03,-6.020048279164914168e-02,-6.646503794026516199e-03,1.673336923122406006e-01
7.485355534090289975e-01,7.853371328990988998e-01,6.564304499397710657e-01,-1.015512111117072430e-01,1.494890446454569255e-01,1.488699914146094372e-01,4.215364754199981689e-01
7.702195662140093324e-01,7.632698888791785707e-01,6.386289509072984316e-01,-1.284422344757182172e-02,8.119459690881751859e-03,1.265754411931946724e-02,1.327524632215499878e-01
7.616165214033560060e-01,7.007648410553304341e-01,7.153239322909890063e-01,-1.525121034845902494e-02,1.284887802107460668e-02,2.393390913324569547e-02,7.707479596138000488e-02
7.318340921165928936e-01,7.702942015396399000e-01,6.290163907295022172e-01,-5.382467674554307531e-03,-1.491279223029855563e-02,7.812210356442376904e-04,1.294641196727752686e-01
7.683935092254419175e-01,7.694537487299302203e-01,6.394755400865707040e-01,-1.140286398112357220e-02,9.012016123895285821e-03,1.075022037859157259e-02,1.331843733787536621e-01
5.890104171838677072e-01,7.518867187777411587e-01,7.306532710708948386e-01,-5.435135154674372582e-02,7.717134274168291341e-02,3.717991214040671649e-02,2.332308292388916016e-01
7.623123033538296012e-01,7.306591005777380854e-01,6.451031151113396644e-01,1.321146855634303813e-02,-5.173432474323442880e-03,9.202192029549938548e-03,1.090313494205474854e-01
7.533126538177180587e-01,6.946563686051624442e-01,6.939390812683021714e-01,-4.484448342291471462e-03,1.541568104126269344e-03,2.927304049424968822e-03,5.980230122804641724e-02
7.552859439687014120e-01,7.138055602285443557e-01,6.865236998862724871e-01,-9.244147060656954587e-03,3.016963134328394872e-03,7.439341222443998473e-03,6.361041218042373657e-02
7.862058916074906589e-01,6.748424661633567467e-01,6.768769444891125087e-01,-2.807979960333764711e-03,2.044767948833699667e-04,2.996127508861505875e-02,1.220499873161315918e-01
7.103449551864144951e-01,7.562560193945040421e-01,6.585146103640479032e-01,-1.319826545376298968e-02,1.141378096715737513e-02,5.863713850391519787e-03,9.050056338310241699e-02
7.444117594039992847e-01,6.926137874768349967e-01,6.929769431035502913e-01,-8.563812097661769804e-03,1.055128137640686144e-02,9.438718523754089165e-03,5.903917923569679260e-02
7.664701183852017374e-01,6.172881749517921124e-01,6.879840255159137552e-01,-1.411784205147335707e-02,1.236279975663560730e-02,6.408843843978816179e-02,1.734504252672195435e-01
7.291876379257655749e-01,7.001527671121569041e-01,7.189193405140444915e-01,-1.575439015903308494e-03,9.309791846568245613e-03,3.724854017010787843e-03,3.097433224320411682e-02
7.329617683411022711e-01,6.988092944532112716e-01,6.827873738934794323e-01,-3.430464606472495570e-02,4.468049892693916336e-02,4.469957096241100603e-02,1.322267204523086548e-01
7.671590241851063974e-01,7.050376035207174263e-01,6.922410209267872983e-01,-9.379368091789113543e-03,1.050230785130223422e-02,2.474308339576645685e-02,8.514246344566345215e-02
7.720874918767740569e-01,7.187702285346588837e-01,6.565811629041377051e-01,-4.665298475343690639e-03,-1.085823701435956927e-03,-2.315223068281945656e-02,1.081798076629638672e-01
7.546429261917755316e-01,6.664491420941160982e-01,7.116810581113126588e-01,-4.917534613109477565e-03,1.442358055217662222e-02,1.935609076894342917e-02,8.749592304229736328e-02
7.722110667560007080e-01,7.046170485117279059e-01,6.708463509807341962e-01,-3.706811878946354895e-03,-7.010626792801100430e-04,-8.973666011542633103e-03,9.097463637590408325e-02
5.488064153113850763e-01,7.947869287512224767e-01,8.364138445815905154e-01,6.062276675099965983e-02,-7.550668073772715330e-03,-2.691348566119611350e-03,2.893038988113403320e-01
7.575632235512367307e-01,6.925384852418166037e-01,6.787389721743101179e-01,6.851565853229750307e-03,3.844461527110874452e-03,-1.056781151475030302e-02,7.639476656913757324e-02
8.073464210791250206e-01,6.046116556279432785e-01,5.717205492880870210e-01,-1.259408103755844388e-01,1.390176532728184533e-01,2.657632013246465363e-01,6.052293777465820312e-01
7.851346961655290002e-01,6.566208597466201002e-01,7.021632097154903995e-01,-1.110689033040792445e-02,-3.114393189982979458e-03,-2.571814621979872512e-02,1.229656264185905457e-01
7.460660921980585281e-01,7.324325016569254165e-01,7.135372030679346667e-01,-5.636013629732512104e-02,5.121623091090370117e-02,6.220849371303380226e-02,1.726525723934173584e-01
7.483101088887278429e-01,7.438621880653225604e-01,6.716738345461995552e-01,-2.323378335105701076e-02,3.235578598301141334e-02,2.638159778321146412e-02,1.113557964563369751e-01
7.663173257402431382e-01,7.059592592555702373e-01,6.700482711944908409e-01,-5.194247660826746549e-03,-2.492886706255803661e-04,-9.167009072541846063e-03,8.621741086244583130e-02
7.329897814913038934e-01,8.095202111047797855e-01,6.935953496245971239e-01,-9.376003896581294739e-02,1.559831346210116820e-01,1.203796881142112640e-01,3.914876282215118408e-01
6.563533875021391184e-01,7.091059589476320646e-01,7.525925521914093030e-01,-2.197778418988838994e-02,1.023128432383392170e-02,2.104610693621108281e-02,1.002989038825035095e-01
7.722833041467723758e-01,7.323195443273865513e-01,6.317794649650126937e-01,3.141649442782612489e-03,-1.438191792173453042e-03,-9.825280431607042245e-03,1.266838312149047852e-01
6.538335115938617159e-01,6.882200759162850900e-01,7.558106136643469863e-01,-2.159281445475054462e-02,8.026896951654909768e-03,1.267698348310677785e-02,1.007436513900756836e-01
7.930445220065396317e-01,7.843926690457352358e-01,5.322197472060725687e-01,-7.180681174137180543e-04,2.227834938680374032e-03,4.567510006151801610e-03,2.567622065544128418e-01
6.997568377908305326e-01,6.937568462183444362e-01,7.691206673732259302e-01,-1.388806968071341907e-02,6.481778871050338300e-03,6.651866471714541762e-03,7.810851931571960449e-02
7.194060981510910224e-01,7.565105339639881521e-01,6.651451690092922142e-01,-1.544072157634204107e-02,1.428460489351479970e-02,5.594255253734518006e-03,8.806584775447845459e-02
7.479340293090446234e-01,9.192764024918835819e-01,6.603938969579695728e-01,-3.248225700375156726e-03,-1.633660637447164610e-01,-2.568515206256868303e-03,3.635074496269226074e-01
7.839766166036968853e-01,7.611883431264494515e-01,5.939498100373535872e-01,1.466012602928027644e-03,5.756369687163474455e-03,-1.269051256333147797e-02,1.813507974147796631e-01
6.944281135906509306e-01,6.902519646581238844e-01,7.463066486879638139e-01,-8.413868437171635392e-03,9.930481700268044623e-03,4.328115243723291983e-03,5.907534062862396240e-02
7.424938276875007181e-01,6.868707902648935049e-01,6.956398522895844705e-01,-1.636440753983418525e-03,-9.971390295068069051e-03,-8.847589777039815626e-03,5.678218230605125427e-02
6.992421798944173927e-01,7.154422514178790937e-01,7.462759399545846328e-01,-1.883654879336320656e-02,1.503855688291731198e-02,1.110669017047342423e-02,6.185194849967956543e-02
7.714028887360077080e-01,7.344608930246235845e-01,6.298460171105654259e-01,-5.587748027840980410e-03,-2.804251520803768285e-04,1.354497075351994428e-02,1.296841055154800415e-01
1.079563474902174303e+00,8.024462013963160611e-01,7.549934102905958566e-01,1.428523433105988172e-01,-1.528125165882950331e-01,3.295397657962134130e-01,7.411211133003234863e-01
7.606696990574810524e-01,7.494985929108891609e-01,6.919300425106492680e-01,3.298387366535181220e-02,-5.470350259961354045e-02,2.349775537968394612e-02,1.340883970260620117e-01
6.783839447770929620e-01,7.108856640873394417e-01,7.629297087077867578e-01,-6.208166161767132013e-03,3.513200917462091285e-03,7.738465012922771287e-03,7.608395814895629883e-02
5.375193972855530911e-01,7.746172862013422922e-01,8.133205447208247119e-01,-6.817900131075671499e-02,1.281149325686460790e-02,1.189478994443601660e-02,2.859227061271667480e-01
3.979656416290424659e-01,9.700059581006122977e-01,9.761902874739983860e-01,-2.842998815232424259e-01,-9.928383390364663164e-02,8.615298974764921958e-02,7.906479239463806152e-01
5.258596156887194173e-01,8.489536672480527679e-01,8.709701715074579242e-01,-7.987558579622165700e-02,6.604941227715246943e-02,-1.002345626486920446e-04,3.797575831413269043e-01
6.069448777039562204e-01,7.807503503377554166e-01,7.395330560253248198e-01,2.162164544869514960e-04,-2.931743226384969300e-02,-5.131382614871993902e-03,1.655327379703521729e-01
8.167353191811612678e-01,8.860842617798733167e-01,3.285009387555009597e-01,5.893251325175165312e-02,2.077746183580663764e-01,-1.201292584131988112e-01,6.784273982048034668e-01
3.108360039689351817e-01,8.648690174426988397e-01,9.008246059106354009e-01,-2.227392293051509709e-01,2.530649089006201547e-03,-5.506370515665321222e-03,6.907346844673156738e-01
7.728737186085841149e-01,6.745631203293872558e-01,6.705138219066488769e-01,4.232538655601734978e-02,-9.580020187402028820e-02,1.524058251710931344e-01,3.356626629829406738e-01
6.887217149202476962e-01,7.531767383895294765e-01,6.988543297455037662e-01,-3.561505322993622699e-03,-6.965855471414297319e-03,-6.076652003545731512e-03,6.243734061717987061e-02
3.653230571316149478e-01,8.514303958758241420e-01,9.088428836525677124e-01,-1.941553501172153806e-01,1.081184771748694984e-01,1.103418586209995583e-01,6.724498867988586426e-01
8.614927941038437176e-01,4.732044154173659645e-01,5.532554820619968172e-01,-6.365244079557980106e-02,7.597521684361531469e-02,3.219584799741035952e-01,6.830347776412963867e-01
7.808224754999577577e-01,5.765934789265262372e-01,6.075339368213293900e-01,-1.569939220726603579e-01,1.805948485280524374e-01,2.806166825873325221e-01,6.666106581687927246e-01
7.983460899717613746e-01,7.728441383807692633e-01,5.846900891392118327e-01,1.319894593832543527e-03,7.280799743381126529e-04,1.495543103527746838e-02,2.037851810455322266e-01
7.148232373363377912e-01,7.866322160165971633e-01,6.882055302944134478e-01,6.621617895756737662e-03,3.503821619898226519e-02,-5.733232504901720691e-03,1.081184521317481995e-01
6.950415876466927712e-01,7.680233909741737142e-01,6.972587479622549544e-01,5.810670009894703530e-03,1.395152859928806832e-02,-4.362034594398158174e-03,7.688794285058975220e-02
7.663925299093676813e-01,6.934745155533909022e-01,6.903800747021674455e-01,-5.982088658344452943e-04,4.585308468764230086e-04,2.587935889525954606e-03,7.465955615043640137e-02
7.551904758531257089e-01,6.952405496151309316e-01,7.016208890273563092e-01,2.058902407442162949e-03,-5.176580873249227339e-03,7.499142268261225173e-04,5.785323679447174072e-02
7.750177788841324800e-01,7.062702318297210402e-01,6.783950457231336939e-01,-1.295395150073509359e-03,-7.603391524337890740e-04,6.148325517877903379e-03,8.683188259601593018e-02
7.635686683169156108e-01,7.324506651500805043e-01,6.285350550354704691e-01,-1.667414458621944984e-02,2.728372129822047819e-03,1.072325805743641267e-02,1.272863298654556274e-01
7.023155619195008414e-01,7.461112914724390421e-01,7.056303310359333114e-01,7.106186743971464742e-03,7.496550588536910441e-03,-6.201446039904931137e-03,4.710990563035011292e-02
7.238422811065626794e-01,7.276156394232364821e-01,6.972408827994165392e-01,2.024380992819593134e-02,-1.794647191044729251e-02,2.098687949003312861e-02,6.587305665016174316e-02
6.959569437509373069e-01,7.528104898447355309e-01,6.953544603192174378e-01,2.330117119636299604e-03,1.262542097501490404e-04,-1.805332947037918993e-03,5.738515406847000122e-02
6.486801896103968623e-01,7.700306470832738448e-01,7.025655421944100310e-01,-2.329897504680775513e-03,1.638357410857487970e-02,5.176766703959154170e-03,1.095102727413177490e-01
7.532351921460647137e-01,6.683763738711201441e-01,6.737108060422880573e-01,1.026573253411481972e-02,8.254143556230691958e-03,-3.205930457238683612e-02,1.018859520554542542e-01
7.695552765583749677e-01,7.105486804104081955e-01,6.792629859988559282e-01,7.347109106269290348e-03,-1.554859081791904428e-03,-6.491728272216379207e-03,8.125426620244979858e-02
9.133545702851800785e-01,7.526868726521732667e-01,5.601039090181085811e-01,-5.728214559228460290e-02,6.495603989329722106e-02,-3.890378285532310465e-01,7.552463412284851074e-01
7.635260799700698264e-01,7.132946410869732690e-01,6.750144057773665995e-01,2.257438491882518203e-02,5.207699734835018884e-03,-2.605451651484688713e-02,9.776567667722702026e-02
7.532916006089602767e-01,6.952759652688377257e-01,7.016331035030942687e-01,-1.662068706950439864e-03,-1.786529829178889204e-03,-4.131393716963248884e-03,5.573581904172897339e-02
6.870616419508444039e-01,7.397935867093028417e-01,6.925893768304995923e-01,7.074153115437534223e-02,6.206842923434864601e-02,-6.784226461567288702e-02,2.071183323860168457e-01
7.174934276522462184e-01,7.158853240039372290e-01,6.885614353985189950e-01,-1.562559285104866275e-02,-5.849296492437388098e-03,-8.534091502737248258e-03,4.297363013029098511e-02
8.157551230266325559e-01,7.496750591840846134e-01,6.675318099580207498e-01,-1.976381196970436460e-02,-3.238591035194231943e-02,-7.149715250759476615e-02,1.902524977922439575e-01
7.455403287928646927e-01,7.050115105551397754e-01,6.647446825409205617e-01,1.596799162689714613e-02,1.060623749503407029e-02,-1.716481847213283118e-02,8.295944333076477051e-02
7.595404297486076928e-01,6.838284034788210120e-01,7.012414716191576192e-01,3.365226228780754999e-03,7.234571983013710766e-03,-7.341852011452078275e-03,7.120285928249359131e-02
6.337597168379410784e-01,7.701430853829623890e-01,7.295416568582598904e-01,-3.504398485040204764e-03,-8.985951191211594136e-03,-2.701633026372951725e-03,1.225255876779556274e-01
7.108751100841977921e-01,6.875991985290010877e-01,7.570392445669753556e-01,-7.063442056949842916e-03,-9.241087962083898918e-03,-2.981859626266127831e-03,6.465254724025726318e-02
7.565798792735951572e-01,6.549148109768117010e-01,7.105710042126790471e-01,4.879250489715376664e-03,1.015258335577388059e-02,-1.150191537164759956e-02,9.248045831918716431e-02
7.860828515811832951e-01,7.887724059769484208e-01,5.452743899737121369e-01,-1.283365876641478012e-03,-5.232190541738761767e-03,-4.930645862292784912e-03,2.424945682287216187e-01
7.595450470958757805e-01,6.795022773933367954e-01,7.056243618676839580e-01,3.315491098727136546e-03,7.371485545829187074e-03,-4.118918755961953684e-03,7.242385298013687134e-02
7.377166280538768328e-01,6.952489546305042900e-01,6.940511946514981156e-01,1.442027141106489753e-02,1.246001642085628122e-02,-1.445223952392706533e-02,5.976616591215133667e-02
7.370660449618566812e-01,6.705406728267535588e-01,7.130915675149012145e-01,8.080556304779237461e-03,1.648313345050131037e-02,-9.608221468917221147e-03,6.850846856832504272e-02
7.078579474310913167e-01,6.958126089674572246e-01,7.389874553808705171e-01,-5.504985352219731246e-03,-1.920518796393751908e-03,-3.059979375500142696e-03,4.023893922567367554e-02
7.349196499606386324e-01,7.348950879753601839e-01,6.828823180701435458e-01,-1.433910122704454108e-02,-5.469946840016957738e-03,-5.823809596861117925e-03,5.928698927164077759e-02
4.951992778578331311e-01,6.261740070146576409e-01,7.303486539168038139e-01,-2.918301823281110319e-01,-1.719397870753311131e-01,-1.385032408822008954e-01,6.658715009689331055e-01
7.469301703251555180e-01,6.949142318859904410e-01,6.928157340663654296e-01,1.095087649942404380e-02,-4.532158777450611374e-03,5.897147154134167388e-03,5.783538892865180969e-02
7.662857594728708088e-01,6.987481808296531760e-01,6.867230661805086012e-01,6.705497342010020498e-03,-2.588778266588420956e-03,7.170535260888119718e-03,7.633689045906066895e-02
7.660607917914179499e-01,6.795347933146091979e-01,7.069312794897658625e-01,3.152557224804955743e-03,-8.075570598631627572e-03,5.566138625101089803e-03,7.864613085985183716e-02
7.898032423883868391e-01,8.038587005039995459e-01,5.656656256637766500e-01,4.755907162350333887e-03,-1.076697775047059588e-02,2.774094109454235992e-03,2.324313074350357056e-01
7.690198622255750571e-01,8.640879948123767473e-01,6.141677191324491636e-01,-5.106396383755136548e-02,-1.140297429993906847e-01,-1.054443835994023221e-01,3.576662242412567139e-01
7.615749618035511093e-01,6.950744236261767739e-01,6.851956029815293725e-01,4.003321757136385495e-03,-2.921303436335300884e-03,6.888760266397355413e-03,7.343640923500061035e-02
5.316208854631729874e-01,6.787891738292547439e-01,7.561526568302771034e-01,-2.430151827752843052e-01,1.718705580715774450e-01,1.503153611924877564e-01,6.104103326797485352e-01
7.987867192728890231e-01,8.442890129289969403e-01,1.581403234524632606e-01,-2.335983902324340056e-02,1.751957593714155159e-01,8.856894997364953004e-02,7.475963234901428223e-01
7.636865624647233286e-01,6.795557576425488300e-01,6.885225120947644495e-01,1.467176896729791707e-03,-2.972732147383642248e-03,9.374548400673648682e-03,8.185737580060958862e-02
7.168349448206006169e-01,7.098423564032936284e-01,7.129865843025077199e-01,-2.897166945933048968e-03,-5.638763627064211949e-03,-2.420071053489391069e-03,1.322626508772373199e-02
9.090580197237653204e-01,8.699058058612574307e-01,7.294280782646203054e-01,2.077486902107567313e-01,-2.590318533653133137e-01,2.849369598118063895e-01,7.753097414970397949e-01
7.531635176407451837e-01,6.934723523752494012e-01,6.939028939091334003e-01,2.062558497300580416e-03,-1.996088681217144355e-03,7.512444653021949732e-04,5.969865620136260986e-02
7.712271576883967805e-01,7.070667988740554355e-01,6.733232187164287508e-01,-1.811953684033754813e-03,2.510752784490389092e-03,5.605042842602119338e-03,8.685155212879180908e-02
7.598694186157001207e-01,6.456355492762071435e-01,6.954296599759547393e-01,-4.190487041947157237e-03,7.745771050438356869e-03,2.075905039368355562e-02,1.066121086478233337e-01
7.681904025869941144e-01,6.900128401980083481e-01,6.941506137593221881e-01,-2.426781566131689359e-04,9.194225535275064171e-04,2.367971458615306286e-03,7.632107287645339966e-02
8.807305101837447081e-01,7.987275855625584065e-01,2.682657601691370020e-01,3.838923886013167076e-03,-2.542156256842176276e-02,1.328489295820671212e-01,6.217259168624877930e-01
7.843282293606138600e-01,7.655359385665669869e-01,5.631256044427617180e-01,6.138252089951303642e-03,-2.929233054117860637e-03,1.052827671058782256e-02,2.135372459888458252e-01
7.585713918905554465e-01,7.839349825938547456e-01,5.500148077359141574e-01,1.258106865921041840e-03,-1.047837418159016862e-02,1.572431370018475064e-02,2.247327417135238647e-01
7.524526969231833951e-01,8.207880983599582514e-01,3.914477016933442521e-01,-7.365061679416450013e-02,2.168482865022536843e-01,1.632984958602143044e-01,6.300839185714721680e-01
7.625845545036356032e-01,6.974947784663068084e-01,6.912074045796956501e-01,4.129480643118139081e-03,-9.212081919288703322e-04,2.311326911041339856e-03,6.895784288644790649e-02
7.733858308944703275e-01,7.070339633841383753e-01,6.784208315543750478e-01,5.840205510501530160e-03,-2.210280218090403606e-03,4.818052549538507333e-03,8.547770231962203979e-02
7.826119196285247215e-01,7.353350997334947570e-01,6.333465243401976696e-01,3.112675342582514951e-03,-1.337632027026715775e-03,1.237857734734031101e-02,1.339872479438781738e-01
7.634834119154658705e-01,6.924507363913692259e-01,6.867995605789137814e-01,1.418000426210813106e-04,-1.247526158444671332e-03,2.406500670381239888e-03,7.416938990354537964e-02
7.431584845208677459e-01,6.802538894481294784e-01,7.441004174107550551e-01,-3.488073373593422039e-02,-2.260152947045882335e-02,-3.438791905727529158e-02,1.129034906625747681e-01
7.981111065291792706e-01,6.789131085721088477e-01,8.171878346946345184e-01,-3.149260945014520363e-01,-7.742689458127162416e-02,-1.644453152164878085e-01,6.430341005325317383e-01
7.648189830930703925e-01,7.041322492177568559e-01,6.763565406360964039e-01,2.096623601722856153e-03,-2.467383257956809635e-03,4.792862092479229300e-03,7.899590581655502319e-02
7.732116084542645096e-01,7.005216984151670934e-01,6.944627057370671430e-01,3.705032512536912247e-03,-2.647880482007858999e-03,1.221185070430661629e-02,7.918690145015716553e-02
7.377872625415189400e-01,6.181898454843411939e-01,7.536994111574483179e-01,-9.052110651378202089e-02,-5.002224973036428074e-02,-1.334425663304331378e-01,3.193265199661254883e-01
7.592127538185661217e-01,7.126950681789582243e-01,6.809256266407182068e-01,1.203158587953473066e-02,-3.737638375688558112e-03,5.284890439785147088e-03,7.218732684850692749e-02
6.157186262782565755e-01,7.718474945606146331e-01,6.871442363417888943e-01,1.305842017261064220e-02,6.731121730466528563e-02,-1.555220662801353772e-02,1.820874065160751343e-01
7.847236702381474860e-01,6.822873025082447640e-01,7.135467842603040456e-01,-5.220992879298062351e-04,-5.162470637781406413e-03,-3.642096031922853472e-02,1.110337227582931519e-01
7.154253296290791209e-01,7.076457092475019195e-01,7.024231306051331725e-01,-1.030659947392097327e-02,-6.360848994065972442e-03,-6.866423588055908626e-03,2.664451114833354950e-02
7.118826243300103718e-01,7.135669393788931503e-01,7.146489584680688623e-01,-5.339508937220548319e-03,-4.980451697980686591e-03,-5.965833513245323225e-03,1.650907099246978760e-02
5.980498346256521991e-01,5.975194333961499904e-01,7.399844232765604435e-01,-2.482534883978536056e-01,-1.687405769595325677e-01,-1.363206109467730576e-01,5.884559750556945801e-01
6.791895933895110149e-01,6.930447247063944438e-01,7.652230103927901705e-01,1.112474404226265062e-02,-1.594341050547932364e-03,3.126560146050090007e-03,8.252236247062683105e-02
7.194313003120774708e-01,6.616622520040595923e-01,7.844735921267725898e-01,3.760805942491415865e-02,4.751172278479300071e-03,-3.890236782450298605e-03,1.252254545688629150e-01
6.730529274619667657e-01,7.055929955066969628e-01,7.969807362858580824e-01,7.147904019947508292e-02,3.600418827926069737e-02,-6.624440463802358167e-03,1.781366169452667236e-01
7.378508429022189175e-01,7.122302270891298637e-01,7.063588760058674421e-01,-1.344024078672403531e-03,-2.690332773136140752e-03,-1.710152954033870940e-03,2.961795218288898468e-02
7.113734071622374033e-01,6.502407509289868104e-01,7.778431773071227129e-01,2.059485867582202742e-02,2.824337461059022673e-03,4.579005899894411299e-03,1.165254563093185425e-01
7.694599556094106063e-01,7.957883967084324883e-01,6.024003217094646701e-01,2.139908283537432076e-03,-1.277126220914904034e-02,2.140655074038192666e-03,1.830773800611495972e-01
7.095747027374590399e-01,6.485964113074578208e-01,7.684975217184100149e-01,1.415059020990659493e-02,-1.300458315350630153e-03,-1.624102114025938203e-04,1.067198812961578369e-01
6.905473149875149819e-01,7.460254256178318055e-01,7.048649287771920902e-01,-6.321851723321956877e-03,-6.479196681421629626e-03,-9.354100060921601706e-03,5.474336072802543640e-02
7.854452430361811288e-01,7.905702616557152007e-01,5.879099438335717576e-01,2.678452146110079334e-03,-1.013406821607172950e-02,7.516242750334015642e-03,2.013900130987167358e-01
6.943040454282627394e-01,6.936802384904207086e-01,7.687458992792591816e-01,1.682408532218594710e-02,-2.624920315024976253e-04,-1.013533260714972453e-03,8.025493472814559937e-02
7.109150156827144240e-01,7.337711032385842991e-01,6.939655250003207154e-01,-1.249318102780079716e-02,-6.426804953368789666e-03,-5.362145163095376199e-03,4.330696165561676025e-02
6.661871566560076952e-01,7.126244001153957397e-01,7.723704733993341787e-01,3.931629869032854385e-02,3.565395684654237233e-03,2.694474891344019948e-03,1.148811727762222290e-01
1.042685613670178313e+00,4.950944364925955465e-01,7.403730460022610593e-01,1.477518034742331988e-02,-1.226064534743911139e-01,-3.063866943023519362e-01,7.436905503273010254e-01
7.368506831625756259e-01,7.363777230195245327e-01,6.835105862688575229e-01,-1.322039439566753335e-02,-5.218076888271745532e-03,-5.655202270367862445e-03,5.934751406311988831e-02
7.009233646037793530e-01,7.034270141965469625e-01,7.667947799950792787e-01,1.253281929441953275e-02,-8.581352419302022347e-03,7.793527298248636472e-03,7.109671831130981445e-02
7.024263544523593472e-01,7.115272932236885728e-01,7.405296790740765189e-01,-2.337802802886790841e-03,-2.899935880281753493e-03,-6.149334261106864652e-03,3.664672002196311951e-02
8.761329852380143057e-01,5.996214353437948619e-01,1.092603326265443098e+00,-3.514939673426941691e-01,-8.542248465745325148e-02,-8.827015313227333515e-02,7.740054726600646973e-01
7.093980877731117518e-01,7.563320426004332964e-01,6.738969131027291448e-01,-9.257029780819624187e-03,7.568531317852005003e-03,2.618306758577976408e-03,7.469157874584197998e-02
7.206716145078356783e-01,6.827683098060450817e-01,7.893832023358318128e-01,3.314412481392257914e-02,9.259726765262271328e-03,-1.068080441944623503e-02,1.125051304697990417e-01
6.527440035642761984e-01,6.991327324355062212e-01,7.615904043860909356e-01,1.779892538469915464e-02,4.032682458100017228e-03,-9.298849111924988031e-03,1.010386347770690918e-01
7.509088970693136300e-01,7.404389730171597739e-01,7.631087540595373753e-01,-1.547603223030701580e-01,-1.336069652547599296e-01,-1.447642567865692897e-01,4.343512356281280518e-01
7.889086552034165756e-01,7.898788307413857623e-01,5.687148330155650244e-01,-1.895284147948862155e-04,-2.648123529553295802e-03,1.006280020753160497e-02,2.214154750108718872e-01
7.319257920832141773e-01,7.613469137385533436e-01,6.379277067327867590e-01,-1.126963834444909100e-02,-9.475867312885853308e-03,-4.941581410324769399e-03,1.148495525121688843e-01
6.958819528636189800e-01,6.957174545739269744e-01,7.690754140602210631e-01,1.808504288227009288e-02,-3.103834223122989462e-03,5.324810246981325282e-03,8.040223270654678345e-02
6.947293314047577883e-01,6.832593361520241659e-01,7.607615613564027157e-01,9.648368377732252643e-03,-5.853856002268250855e-03,2.393982025350771189e-03,7.515633851289749146e-02
6.968269135400104730e-01,6.954859529547511299e-01,7.630948356766908969e-01,1.639111596061418666e-02,-5.986394567757240444e-03,4.776186390495542125e-03,7.391922175884246826e-02
6.882753092087261493e-01,6.955082999618046324e-01,7.635980995786851855e-01,3.496715467720124416e-03,3.462264550174615907e-05,1.191321723824628016e-03,7.226321846246719360e-02
6.521896361702606004e-01,7.110005774227584618e-01,7.699261742932318464e-01,1.418909323851798299e-02,-3.473513499048799802e-03,5.562284497294216028e-03,1.054961010813713074e-01
6.526958462409968575e-01,7.322366995304485648e-01,7.639018341924531663e-01,8.811388013537587577e-03,-4.091456519596982887e-03,1.145683848739894629e-02,1.025915145874023438e-01
6.706043346267586136e-01,7.561750728587741666e-01,7.140061999528963810e-01,-4.123329975400815903e-03,-1.509364966348963021e-02,-1.325699594698681073e-02,8.218179643154144287e-02
7.345511804881039719e-01,7.865785385845228683e-01,6.447094413245229028e-01,3.139982232680972509e-03,-1.279206360532998341e-02,3.318234571810549198e-03,1.265153437852859497e-01
6.962723976242020107e-01,7.668372752916197133e-01,6.890802940977827085e-01,2.459156754360982203e-03,-2.554407887735346463e-03,8.773930291509683893e-04,7.469046115875244141e-02
6.885789992613770005e-01,6.939711536544596049e-01,7.669538827843495055e-01,3.212015012530452292e-03,-4.338377069484025553e-04,6.037952333010795881e-04,7.603747397661209106e-02
7.629530667133034294e-01,7.628603970232694653e-01,5.989984312224023721e-01,9.821474879499855065e-03,-1.036081646710633811e-02,1.050147379592591967e-02,1.667579263448715210e-01
7.327995486288488847e-01,6.936620499303282061e-01,7.195807543143010188e-01,-1.361263010152066223e-02,1.135794634628163255e-02,1.429712272860404060e-02,5.239535123109817505e-02
7.820724766481298440e-01,5.433451082616969074e-01,7.783981605139592697e-01,-2.779994675092130330e-02,1.005055695528901845e-02,4.686218498943582611e-02,2.556107342243194580e-01
6.966221205815876782e-01,7.210353266399098793e-01,7.394935758113149182e-01,3.663651515591612780e-03,-3.349335076875290581e-03,8.203224840024022843e-03,4.078156873583793640e-02
8.331517130553985906e-01,4.795422928533724649e-01,7.163112840045761098e-01,8.038314412293082190e-02,-7.380134169099969443e-02,2.230526054254833024e-01,5.313728451728820801e-01
7.562951311027200640e-01,7.036476583370647742e-01,6.945401429828332862e-01,5.393619122137459539e-03,-2.486140663013226317e-03,7.734322147912167178e-04,5.866686999797821045e-02
5.622757170743530875e-01,9.086897142372896141e-01,8.208210978058678720e-01,3.186923184094376249e-01,-1.671911860633077951e-01,1.082868077138411933e-01,7.218142151832580566e-01
8.381356063267551004e-01,3.869009577142154543e-01,9.148749925229198166e-01,1.333037463191543703e-01,8.080530502874001819e-03,4.249800707282372358e-02,5.505024194717407227e-01
7.215913524317567607e-01,7.098814143217612171e-01,7.138112483598376690e-01,3.174708437484990552e-03,-6.643595290339918309e-03,2.071371880880070945e-03,1.679488830268383026e-02
7.332517444395099115e-01,7.360714655343053581e-01,6.817466261282232320e-01,1.418168462110939131e-02,-6.284141679065519126e-03,4.177222467349646362e-03,5.983424931764602661e-02
7.662067423215924711e-01,7.060870327977208927e-01,6.767885359705071435e-01,-4.228333219275812703e-03,-7.613984849227277765e-04,6.156871941715012786e-03,8.002059161663055420e-02
7.535198057590661858e-01,7.035847639176443513e-01,6.782431666353843092e-01,7.190793221399508113e-03,-3.983609161292574717e-03,4.815267379776298762e-03,6.836248189210891724e-02
8.082317417981504937e-01,6.387082326627295803e-01,8.821902879470371328e-01,3.375796330659283084e-01,-7.373607325473791052e-02,1.626640093291746025e-01,6.959278583526611328e-01
7.263517919804259870e-01,7.005179641554794001e-01,7.127155968409867315e-01,4.968427220234409789e-03,-8.983399380187700317e-03,4.611639300105379626e-03,2.968196757137775421e-02
7.362029971791821392e-01,7.181743519254761843e-01,6.922782488091898667e-01,1.153215090690733191e-02,-3.126497575728015392e-03,9.211950498635310342e-04,4.351269081234931946e-02
7.871857310075117686e-01,6.380481742454142680e-01,7.572443473589210994e-01,1.063597973874024979e-02,-9.151320534564534245e-03,5.492997994684031132e-02,1.682724952697753906e-01
7.077036510094126820e-01,7.102600746609634141e-01,7.230680721529388899e-01,-8.089625936718281528e-04,-1.901685544075144276e-03,1.107193995803306156e-03,1.482608821243047714e-02
8.976161193129248428e-01,5.804171409326952524e-01,7.877394383168458969e-01,-8.281045602074781076e-02,6.824389422804805205e-02,1.061138147001637333e-01,3.823089599609375000e-01
9.179121298443222443e-01,5.061580719693639097e-01,8.912030400172554767e-01,1.537605103194680627e-02,-1.051504695795019671e-03,6.334740518225592809e-02,4.147390425205230713e-01
7.054556399815868906e-01,7.121331935959980264e-01,7.212715008692992535e-01,-4.220727997243062073e-03,-3.216404297645111647e-03,-5.529724149913496298e-03,1.911368221044540405e-02
7.339639287543396895e-01,7.100245315007837066e-01,6.927432236593871195e-01,-1.257333126342314450e-02,-4.636012339766229159e-03,-5.375471346897016042e-03,4.371353611350059509e-02
7.248133602984332402e-01,7.236563170844166892e-01,7.083669746052275729e-01,-4.618541401640563135e-03,-1.440321927595182355e-03,-1.936487509944750246e-03,1.828276365995407104e-02
7.357281142261398177e-01,7.171578994398876139e-01,6.943529349129927697e-01,-9.657153506247012978e-03,-4.634108341318786232e-03,-5.507859520219884897e-03,4.151660576462745667e-02
9.080627546366002445e-01,1.031000582186886172e+00,6.580514108146779950e-01,1.507759602056654713e-01,-3.019046357509552192e-01,2.509761565506128389e-01,7.993507981300354004e-01
7.034195884468726900e-01,7.093421670266609746e-01,7.349603751978061039e-01,-4.868382066738632073e-03,-5.919867132515740232e-03,-7.378058021497191886e-03,3.438954055309295654e-02
6.824888129174353502e-01,7.196294660823731038e-01,7.338493559358305607e-01,-1.324748512377613846e-02,-4.160619790452292979e-03,-1.669004613832054604e-02,5.936212837696075439e-02
6.326593816564316519e-01,7.653889645305130829e-01,7.391090893825368324e-01,2.511128293827227104e-02,-5.416268612530474730e-02,1.726513985126708686e-02,1.625005602836608887e-01
6.331196443006179564e-01,8.085981055536980433e-01,7.959012869726812545e-01,1.067521474105821294e-01,-1.132396122152446727e-01,6.223690092912466387e-02,3.361604809761047363e-01
6.890356710245770788e-01,7.901298870192483559e-01,7.812897516018011412e-01,1.497706070884610996e-01,-1.629489379561960272e-01,8.140432392910530723e-02,4.198038578033447266e-01
6.045513282049309600e-01,7.662767614490914037e-01,7.958906360501123434e-01,2.285637863086751320e-01,-1.800454074858119369e-01,1.477011225481406897e-01,5.926563143730163574e-01
7.072269882181738687e-01,7.469833313152705045e-01,7.094483675946779977e-01,-7.117052874909989522e-03,-1.072393309338937062e-02,-8.378054238859282410e-03,4.695453494787216187e-02
7.269500497906338232e-01,9.454289091154450819e-01,6.790592163600227549e-01,7.302415161197607640e-02,-3.474000612602353155e-01,2.159713244148047107e-01,7.605777382850646973e-01
6.876219136226954243e-01,7.667412214565361150e-01,6.919302792551940140e-01,-6.687587129989180056e-03,-1.505314262795453585e-02,1.451215182235434048e-03,8.220604062080383301e-02
7.025861613060175870e-01,7.371887441312939826e-01,7.019509822745532146e-01,-2.444611782053349343e-03,-7.991648294690486707e-04,-1.970748095246525541e-03,3.537254408001899719e-02
6.127732302527840735e-01,7.778125683615746411e-01,6.082097644054732521e-01,1.776167460147821120e-01,-3.181685323836129786e-01,1.559919608665947532e-01,7.066464424133300781e-01
5.988669275931088887e-01,7.669044098440523927e-01,7.745368108400862983e-01,1.140940135725834574e-02,-1.266941784930194700e-02,1.266545923724543207e-02,1.758712232112884521e-01
6.812455177192208167e-01,7.651727433034906101e-01,7.207105140326065529e-01,-1.055224178556408293e-02,-3.192279843296173814e-02,-5.958783625825008617e-03,9.373816102743148804e-02
7.921367806163698289e-01,7.722826506669338009e-01,5.678049694097810907e-01,-1.308061253750143933e-02,-4.586559385566409998e-03,-2.940016520955067089e-02,2.223388403654098511e-01
7.061079283697313524e-01,6.797256490396809125e-01,7.765025260141324992e-01,-6.002242194532149584e-03,-3.771579748570966662e-03,1.900027861836963653e-03,8.757956326007843018e-02
7.183444125053385365e-01,7.346979715017772916e-01,7.031980918338880393e-01,1.065112634213119178e-02,-3.109520995454541446e-03,3.618476351771745658e-03,3.395840153098106384e-02
8.597903507316966287e-01,6.254766192045848605e-01,8.089006596338544908e-01,-7.573476222734917829e-02,-5.350243074778850833e-02,-1.405361349560087514e-01,3.614063262939453125e-01
7.310215646119885280e-01,7.573802564199285658e-01,6.522142736607876579e-01,1.061101248913850006e-02,-7.765641408505876038e-03,7.209171097834331243e-03,9.827125817537307739e-02
7.012041364698203827e-01,7.284912415836327648e-01,7.059432418798758935e-01,2.995840374374618593e-03,-3.890121213773940247e-03,7.079267420788123294e-03,2.933259494602680206e-02
7.263088531458971042e-01,7.127474629437835496e-01,7.010769030447226990e-01,6.940480337106365999e-03,-3.625916854690958927e-03,4.244933424608202978e-03,2.676552347838878632e-02
7.250463895000933690e-01,7.171815539257105909e-01,6.975577219804005580e-01,8.843470569724861882e-03,-1.227029120092311019e-03,3.597353136190552508e-03,2.965213730931282043e-02
6.859181784039408702e-01,7.127381459319395152e-01,7.284194498358400605e-01,-9.598491654456017819e-03,5.623718733047666611e-03,1.156468569077122484e-02,4.645733162760734558e-02
7.052212802614082898e-01,7.134158780305893677e-01,7.300720837180963985e-01,-1.842611864066806679e-03,2.555594136818203476e-03,6.361435555849346071e-03,2.514466084539890289e-02
7.355544021723626757e-01,7.734171673488173804e-01,6.424775648943173989e-01,-8.595638538261955470e-04,-1.290215920533689664e-02,3.638025643433026937e-03,1.190056800842285156e-01
7.111646520583918551e-01,7.036018842117884864e-01,7.240007407076899382e-01,-3.691688665427931334e-03,6.646535871322671422e-03,2.637727720463768372e-03,2.265667356550693512e-02
6.838110188484599616e-01,7.114772503353553601e-01,7.324563275659702333e-01,-7.866438876125541810e-03,4.600101657190946297e-03,1.209704440884394779e-02,4.974027350544929504e-02
7.137064223751017344e-01,7.151735084471567694e-01,7.264679498034278815e-01,-4.702927543568415081e-03,6.171415584828876706e-03,4.918883443894760121e-03,1.998711004853248596e-02
7.100529802471621243e-01,7.067964291085735429e-01,7.379266422080973387e-01,-2.327673065147136972e-03,1.866813522688254160e-03,2.204777044029173749e-03,3.032507933676242828e-02
7.007309223766337025e-01,7.046888027958250200e-01,7.355074964492603895e-01,-1.323630024692284577e-03,5.688191186459396094e-03,2.156925877197605861e-03,3.469456732273101807e-02
7.461981545104658942e-01,7.024440705809665841e-01,6.976191411627765682e-01,4.643367718972852415e-03,-2.182153933265608393e-04,1.519645648973460932e-03,4.712285473942756653e-02
6.946318660140140544e-01,6.914172195796962628e-01,7.677676845105785297e-01,-1.508911980580366838e-02,-4.555316842715636215e-03,-6.497698970600726195e-03,8.041296899318695068e-02
7.149960507631459850e-01,7.123500431115359355e-01,7.130731711314886034e-01,8.387931642510090650e-04,-1.406103589388588626e-03,7.685634462957543610e-04,3.927472513169050217e-03
7.257902245388577755e-01,7.431393592503163781e-01,6.747968718844613578e-01,-1.531148196800937236e-02,2.485908263007013952e-02,2.090077068925053072e-02,8.748587220907211304e-02
5.027826150538573513e-01,7.558811884042818674e-01,8.048641376169836104e-01,-1.176784395799290728e-01,-6.572169057551700833e-02,-4.868446988370952327e-02,3.747918605804443359e-01
6.798765644050747126e-01,8.071292039735019630e-01,8.574544276461114611e-01,-1.086506537718137794e-01,-1.255549827011705200e-01,-7.827954912270680687e-02,3.552745282649993896e-01
7.055140742742127546e-01,8.077034075647040456e-01,8.073093266067967733e-01,-1.197163654068439109e-01,-1.155130930121073124e-01,-7.811336862177706286e-02,3.342655897140502930e-01
7.287002522540187988e-01,7.045578338170302990e-01,7.043435116317767752e-01,-6.719794758074435111e-03,-6.837351710286684696e-03,-7.497257323914818805e-03,3.213126584887504578e-02
6.415049964061374510e-01,7.321245075462523566e-01,7.588761224265778704e-01,-1.662584792405721532e-02,-1.061393274502949943e-02,-1.853985354423049944e-02,1.164051741361618042e-01
6.962133185172934002e-01,7.573485268019504169e-01,7.041843634182317624e-01,-2.651869318119331933e-03,1.689405175791572648e-03,5.208577628258589075e-03,5.852168053388595581e-02
7.172167370687699828e-01,7.135212181901477990e-01,7.113246833937123537e-01,-3.071870342547563647e-03,-1.597986304442983651e-03,-8.286369810589025182e-04,8.039198815822601318e-03
6.427365755510746625e-01,7.337212765508998036e-01,7.700973604656027316e-01,-1.032236438618551119e-02,-9.623251741985508825e-03,-1.431295295510054584e-02,1.188408955931663513e-01
7.341331859191617681e-01,6.350920504320206605e-01,7.343377512879155633e-01,-2.117557477212862749e-02,-2.295785052237693871e-02,-2.052931800411512270e-02,1.184069737792015076e-01
7.558854813553836927e-01,1.079342079101345941e+00,6.561187964989955157e-01,-8.873154968925343888e-02,4.323846623138207779e-01,1.343768700584999920e-01,8.862891793251037598e-01
7.012715252922024911e-01,7.379989834513894786e-01,7.000528476654334087e-01,-5.119388724759070357e-03,-1.673383521326515019e-03,-2.016129506602903042e-03,3.865707665681838989e-02
6.210848970155942173e-01,7.440113107308522489e-01,7.997861180850138751e-01,-4.861686259697770018e-02,-1.626847026862445270e-02,-6.747032486204105652e-03,1.819320917129516602e-01
7.084158370833383289e-01,7.321949709106172488e-01,7.045603277650216434e-01,-4.005920976604902470e-03,-1.152503496903639580e-03,-1.129854952693572483e-03,2.698053978383541107e-02
6.278320665715710902e-01,6.438088675489856971e-01,8.197577385707006670e-01,-1.248033243109716306e-01,-6.319113797032146346e-03,-3.313648712275151387e-03,2.844375371932983398e-01
7.417765267410394436e-01,6.737470255846199629e-01,7.139092172297876182e-01,6.885806658847791820e-03,-1.740948878214441595e-02,1.145340303148989665e-02,7.038363814353942871e-02
7.345498098417257982e-01,6.755038494546932171e-01,7.121968856360195721e-01,6.829798730918558089e-03,-1.535067235714448509e-02,1.148490952482566357e-02,6.252044439315795898e-02
6.845118045582645472e-01,6.820008805589139467e-01,7.619229771098220416e-01,2.560664800776498579e-02,-1.751540091541709671e-02,1.486233598873307193e-02,9.870817512273788452e-02
7.262456179195224681e-01,6.998306721170637346e-01,7.048433454444589241e-01,3.357094962963521993e-03,-7.485910668220689852e-03,6.246233888116793122e-03,3.015692159533500671e-02
7.167049722341553020e-01,6.779472466846050427e-01,7.097638994126956868e-01,1.009833402654026872e-02,-1.538922171331330233e-02,1.239773233465285562e-02,5.252470076084136963e-02
7.248129449249696155e-01,7.118398080485198731e-01,7.188013961580340672e-01,1.401865785024813786e-02,-1.412500423614372093e-02,1.928766483488355762e-02,4.930121451616287231e-02
7.077454568238406019e-01,7.741035822418367296e-01,6.733038081606693703e-01,3.598030721534885550e-03,-6.727186949812394116e-03,2.390788825958286169e-03,8.981570601463317871e-02
8.540991956681716069e-01,5.606721697328367338e-01,4.324055984839073052e-01,3.637218893299293959e-02,-6.252626395526722503e-02,3.339095916232182604e-01,7.002663016319274902e-01
7.089703517749401662e-01,7.343841372629424935e-01,6.699459396808153944e-01,2.318047369288259510e-02,-3.333954261138202119e-02,2.842675046676122405e-02,1.026223301887512207e-01
7.558814798787996114e-01,7.065521091719867419e-01,6.623507269518877916e-01,-1.258460054718775305e-02,-5.043779979393575759e-03,-1.193626925448298091e-02,8.687021583318710327e-02
7.612790603151247115e-01,7.422292338310784166e-01,7.233307897604976944e-01,1.092205423090884253e-01,-2.256884889337094080e-01,3.144371078955054410e-01,6.973416805267333984e-01
6.928881806021151002e-01,7.240059043598926491e-01,7.456627842639385051e-01,2.281596806320710519e-02,-1.227748370904020551e-02,1.269515672495989851e-02,6.788712739944458008e-02
8.000688531215855992e-01,7.155716877530867714e-01,6.876752816653985967e-01,2.835306506435309598e-02,-2.360254145320008975e-02,7.353993092848905289e-02,1.748783588409423828e-01
7.292467721834098304e-01,7.575070735828812740e-01,6.956556594821884376e-01,-9.607410926547437988e-03,-2.116700496133967768e-02,-1.684608943616429377e-02,7.313486188650131226e-02
5.913991156838389607e-01,6.202939788293577728e-01,8.017783238089979392e-01,-1.488417374833683471e-01,1.955930853162008917e-02,2.327428805953608848e-02,3.290133774280548096e-01
7.081465645633877593e-01,7.653123145748914613e-01,6.762561172411247767e-01,-4.318392262648682207e-03,-4.548919468292983610e-03,-1.872493982123173183e-03,7.897155731916427612e-02
7.131750759305561793e-01,6.327589291730807419e-01,6.174400324198208168e-01,1.626534122116041203e-01,-1.526245832784862699e-01,2.294169652813219107e-01,5.613207221031188965e-01
7.966146919354841760e-01,7.619353793048502244e-01,6.280534854642030318e-01,2.506120713362496380e-02,-2.343314159211015713e-02,7.169015162164116273e-02,2.066879570484161377e-01
8.035140151461374058e-01,6.012178270641139743e-01,7.420142144897622360e-01,3.502191694186470444e-03,1.246332188735930178e-02,-3.667788677837266476e-02,1.918421238660812378e-01
6.970670400730035743e-01,7.625564038724769178e-01,6.925076428950097673e-01,5.982774383439262711e-03,-1.444517155649645106e-02,5.081087307497375409e-03,7.361425459384918213e-02
5.856802293867617859e-01,7.824756435619093509e-01,7.946993802803561380e-01,-1.600675256686534889e-02,1.905381617856462609e-02,1.771925391924870571e-02,2.099598497152328491e-01
7.448461144814609858e-01,7.047500429150992396e-01,7.024734093556294079e-01,8.520485281468386310e-03,6.601551466012475777e-03,-8.004775090992916758e-03,4.738067835569381714e-02
7.732291854691393240e-01,6.765068214289908788e-01,7.065101685026744516e-01,-2.258703517118663354e-03,2.087009711254779378e-03,-4.011259753812674439e-02,1.104936897754669189e-01
7.625898984351255905e-01,6.314550092520913038e-01,7.359537463693717196e-01,3.251856258706845460e-03,1.741084809606291764e-02,-8.120589459826351580e-03,1.247071921825408936e-01
7.604360536444323415e-01,6.968192623426372467e-01,6.962715509977123185e-01,7.403095587880501385e-03,4.383439981558636712e-03,-1.475831198804930695e-02,7.041110843420028687e-02
7.535037127258740197e-01,6.915817222839003575e-01,7.016808193803774074e-01,2.668459431692065970e-03,6.553957008816100639e-03,-6.441149905788890254e-03,5.988037213683128357e-02
7.133086957803680406e-01,7.160991536505049160e-01,7.150405300281039711e-01,7.456247263528274554e-04,5.763028655955508561e-04,-4.488025330349075981e-04,3.036743262782692909e-03
7.138696166465409165e-01,7.159730438963985977e-01,7.137611806431215511e-01,8.347956665980650962e-04,3.436984866088703058e-04,-3.598849731966107944e-04,2.738218521699309349e-03
6.893902402465301726e-01,7.541739401299007994e-01,7.002429080931736882e-01,3.484100407125675144e-03,-5.598985190777242861e-03,7.508220719022198897e-03,6.253971159458160400e-02
7.168557550470159301e-01,7.317103469863355247e-01,6.881731030339093280e-01,1.414567874642715280e-02,-8.509537737094509738e-03,7.105888946481544489e-03,4.938057065010070801e-02
7.276367282595215258e-01,7.081314004918816130e-01,7.052589150837355048e-01,2.868657710351699489e-03,1.419131710784009683e-03,-1.027613406035082864e-03,2.187773026525974274e-02
7.277951193284573073e-01,7.060995228894204612e-01,7.076205092129927987e-01,9.906240550184063423e-04,3.304109835287034370e-03,-1.169636229418820469e-03,2.190463803708553314e-02
7.274286837694723395e-01,7.030553666414672831e-01,7.081302242707463446e-01,3.887292342827907646e-03,9.193023528349070911e-03,-3.553946651267647985e-03,2.885968610644340515e-02
7.241237676495808628e-01,7.055649213696483235e-01,7.216292822639406301e-01,3.880783088728109991e-03,7.758538951384669549e-03,-5.683002351691680484e-03,2.504025213420391083e-02
6.809530827676525400e-01,6.916458765346730209e-01,7.597034897079875115e-01,1.096403827497070479e-02,-2.061884127663081434e-03,4.963894086593765090e-03,7.694937288761138916e-02
7.139220355069409996e-01,7.140507510989297923e-01,7.153423131779802491e-01,1.437562932465140777e-04,-9.177280151958015731e-04,1.772078002604260405e-04,2.129277912899851799e-03
7.208424061138233307e-01,7.131104106297725398e-01,7.088868093736337972e-01,4.974663948572106108e-03,-2.808756462808056128e-03,2.403462383506127335e-03,1.501727383583784103e-02
7.165348186197250113e-01,7.144124465901161569e-01,7.170694383295584950e-01,1.250368923316274531e-03,-5.061597464330122482e-07,-1.229827821806196188e-03,3.892639186233282089e-03
7.207963485734484310e-01,7.176044237961204386e-01,7.041519430232660026e-01,7.471091767227319887e-03,-3.485793409162394772e-04,2.272775473712368693e-03,2.043060399591922760e-02
7.108425490028998928e-01,7.020287280629672333e-01,7.283153454589805786e-01,4.985946912760212679e-03,9.837429025745096992e-03,-3.598092863218354653e-03,3.067127242684364319e-02
6.979658992939209439e-01,7.613247472586378573e-01,7.046408150645415702e-01,-1.993598184143287322e-02,-1.763924233487249374e-02,-1.479896256357437871e-02,8.011722564697265625e-02
7.024190678166939428e-01,7.364515310428728645e-01,7.209950204979425070e-01,4.054724205681742473e-03,4.890241941896285825e-03,-1.038472396068498838e-02,3.627233579754829407e-02
6.415509125909870658e-01,7.295356921288487229e-01,7.475023401827698422e-01,2.020528399763181146e-02,1.956276188659917745e-02,-1.538505593487682517e-02,1.128178983926773071e-01
7.097733401729903191e-01,7.104750215813514513e-01,7.243393214537767744e-01,-1.289553914272214066e-04,1.962494731948555542e-03,-1.208206228548408361e-03,1.477913465350866318e-02
8.097109496500718429e-01,5.123408185980734553e-01,8.026121866048590014e-01,6.477642830880109281e-02,-2.684776527119225875e-02,1.660866809629069421e-02,3.192903697490692139e-01
6.364089278544351469e-01,6.592096664737682188e-01,7.741167639272810153e-01,7.069746823417179249e-02,-4.581485330879181417e-03,5.083725086214706257e-03,1.774214804172515869e-01
6.927783778859724073e-01,7.610135500920224283e-01,6.980765811915147223e-01,-7.769518079653589060e-04,-1.504244700338931880e-03,-2.970105832553630865e-03,6.601249426603317261e-02
7.062002868673974421e-01,7.197136348140347195e-01,7.043615789199972888e-01,-5.486974534825122922e-03,-1.948442161457710365e-03,-2.002832587638443077e-03,1.801617257297039032e-02
7.143217760464726229e-01,7.246652150792971536e-01,7.066726128482394564e-01,-1.226191518055127615e-03,-4.422865854414109558e-03,-3.137238640338077360e-03,1.836675591766834259e-02
7.132941701036501492e-01,7.130266941580654105e-01,7.124278352216331101e-01,-2.176783139064325003e-03,-8.452374431508073759e-04,-3.848394779398384147e-04,4.170503001660108566e-03
8.672398984521554333e-01,4.959312573915812816e-01,8.267376296885872167e-01,6.908508466817050997e-02,-2.502443401971622336e-02,2.350934119761905264e-02,3.772620856761932373e-01
6.935340912312325523e-01,6.888460338402787597e-01,7.643878317258904209e-01,-2.220324478799286325e-03,-1.093967058750681129e-03,-9.415311617292773314e-04,7.345363497734069824e-02
7.067787255537861801e-01,7.221541755628961834e-01,7.163248714555273677e-01,-2.913053344131382328e-03,-2.154147346614740301e-03,-5.716955432765281203e-03,1.783778332173824310e-02
7.963402554080232232e-01,5.344272391826021540e-01,8.121168097635200755e-01,4.105430342347680256e-02,5.552228398497529444e-03,2.141128086970842462e-02,2.819638252258300781e-01
6.944769022288300730e-01,7.657603084318749254e-01,6.924707317261769024e-01,1.371678133153648950e-04,-2.012073113358351859e-03,-4.847892260694989597e-04,7.239656150341033936e-02
7.909599896629559979e-01,2.266753189565675619e-01,8.569256284495813114e-01,1.838140341721658244e-01,6.280490167745492961e-04,-5.464859916096008810e-03,6.792978644371032715e-01
7.141146693332982576e-01,2.815079554729413847e-01,8.534881663479536584e-01,2.291961261918748494e-01,3.163836539624992339e-02,-5.533821743468629595e-02,6.607949137687683105e-01
6.939220729670293464e-01,7.546743060413362292e-01,6.978198912654296482e-01,-5.055188075251128635e-03,-3.736081106108430673e-03,-2.443746312269666834e-03,6.004732474684715271e-02
7.559850341895189008e-01,4.307846024740681345e-01,8.509551126151485567e-01,2.418442888322070994e-01,-6.831032826012622960e-02,9.610617298186448221e-02,6.023561954498291016e-01
6.998577111672243944e-01,7.619904067458435071e-01,8.745365218921942185e-01,-1.364224618347211482e-01,6.779862787389302758e-02,7.747241714876855478e-02,3.333902359008789062e-01
6.946105125981277828e-01,7.536938407636285531e-01,7.020998995875460391e-01,1.934279208123679001e-03,-3.470829809773285247e-03,1.947293343460534216e-03,5.624208971858024597e-02
6.942800977622263225e-01,7.629334850405068424e-01,6.919384096816334484e-01,-8.450392339099659523e-04,-2.021031602146998452e-03,-4.299079699402976644e-04,6.996060907840728760e-02
7.969499713573938715e-01,8.321139307589032752e-01,1.666346688235796902e-01,-3.046927049616626748e-02,1.740390649448183558e-01,9.806487180787348823e-02,7.370226383209228516e-01
4.271292741987027242e-01,6.610703501429815443e-01,8.648075164198228970e-01,-2.761091225120747561e-01,5.486336125126890784e-02,2.518283359567029603e-02,6.193068623542785645e-01
3.381616272291650960e-01,8.439745517320366153e-01,1.103538290823259826e+00,-1.968327769186050680e-01,1.126743690166089884e-01,5.666750235099121680e-02,7.864224910736083984e-01
7.027517742269732137e-01,7.165535083983267661e-01,7.215683678362069253e-01,-2.222039036866197900e-03,-2.534890176951597185e-03,-6.904052518144770077e-03,2.149273455142974854e-02
5.135926522336065059e-01,6.624693430314423370e-01,8.503696562751470456e-01,-2.683377636906720820e-01,1.347587958456064050e-01,8.661718902037697509e-02,6.151809692382812500e-01
6.811810526372434893e-01,7.706211894695501607e-01,8.846720616856886821e-01,-1.446731533764915312e-01,7.156654299378872874e-02,6.743939507217214246e-02,3.507254719734191895e-01
7.052707792055910030e-01,7.077852955492461851e-01,7.450564648888398089e-01,8.461523650056795159e-03,-8.456265224816959455e-03,8.477888587323040293e-03,4.619656875729560852e-02
6.932017836102860597e-01,7.633084579634579203e-01,6.878919447568788703e-01,3.054559114725528650e-04,-2.265523134135393087e-03,1.248984954305038713e-03,7.304623723030090332e-02
6.868674517831954152e-01,7.560408061689027903e-01,7.138454005724663709e-01,3.172167234591673386e-03,-3.966425352534187591e-03,8.118728431386086977e-03,6.262375414371490479e-02
6.978821514916624391e-01,7.058138955079316101e-01,7.284979985672935809e-01,5.025402249203034070e-03,-2.694058391715099636e-03,7.551166318065604885e-03,3.203129395842552185e-02
6.972422762107887140e-01,7.063245286397423772e-01,7.370757863527317433e-01,3.766924975781476941e-03,-3.554329793290608719e-03,7.818518337180281955e-03,3.963930532336235046e-02
7.002331391024881890e-01,7.363269247283649177e-01,7.062186059363233515e-01,3.491769538596228416e-03,-2.513577096105049178e-03,7.753411605289613553e-03,3.685684129595756531e-02
6.974218107047910342e-01,7.011039408490320479e-01,7.465377496803401458e-01,1.380295401543719632e-03,-2.093557576277419244e-03,4.728948101712491907e-03,4.828080162405967712e-02
7.030170434419256154e-01,7.052289950305531407e-01,7.302536527281421330e-01,9.128953393601627400e-03,-9.002442257764274591e-03,9.625140772174297504e-03,3.817793726921081543e-02
7.075163191454597600e-01,7.476329546767834788e-01,7.133143760943857492e-01,-6.534329172013787074e-03,9.792314311214415229e-03,1.095328454849173877e-02,4.675518348813056946e-02
7.136916356092761760e-01,7.595282814374388902e-01,6.815359876484072821e-01,1.152771889586267501e-02,-3.552577253136171651e-03,4.052636239223767617e-03,7.137709856033325195e-02
6.914576010564316144e-01,7.439846766968828407e-01,7.085266010168294049e-01,-5.085592230482043931e-03,5.285654739463871953e-03,1.125621877941149727e-02,5.191696435213088989e-02
7.140097290826414866e-01,7.153560404215953961e-01,7.260586005346678640e-01,-6.653341975929301898e-03,7.016833227490922031e-03,7.558906102657266153e-03,2.413889393210411072e-02
7.129162339047917518e-01,7.131664291823630597e-01,7.124307181491291718e-01,1.037503778036756282e-03,-1.095685739773525312e-03,2.218046176147370121e-03,4.691461101174354553e-03
7.044910497311320796e-01,7.306261929773608665e-01,7.127013085983500140e-01,-6.748442896524951828e-03,6.037547852054781644e-03,6.372824331715504047e-03,3.006155043840408325e-02
6.699585076939109651e-01,7.376812921721476179e-01,7.079173864264889371e-01,-1.004926929406159235e-02,1.279889688287801953e-02,1.121484543523778785e-02,6.803151965141296387e-02
6.966106260733735400e-01,7.170404522496102162e-01,7.220649274512616067e-01,-2.600930115912003081e-03,2.929983629498420557e-03,8.402425613809038143e-03,2.833943441510200500e-02
6.820368563820332630e-01,6.890689855177291046e-01,7.592019040599088386e-01,-1.004010046709608722e-02,-2.651144445323986697e-03,-5.851263046605735541e-03,7.672984898090362549e-02
6.912216620502045217e-01,6.787481752431537840e-01,7.649126625233598764e-01,-1.117134920002282004e-02,-2.856912854459973342e-03,-9.091657373289282465e-04,8.310534060001373291e-02
6.920883532354422663e-01,6.949437350252902768e-01,7.618695532510638690e-01,-1.579578945482806081e-03,-1.498386619699996602e-03,-3.342326682227941739e-03,6.874628365039825439e-02
6.955546241556692655e-01,6.963598864868970617e-01,7.754296333296879506e-01,-1.518441621026266238e-02,-2.260518636465907311e-03,-7.784258222536436607e-04,8.381642401218414307e-02
7.075746771270006175e-01,7.218349774018266718e-01,7.136993118942155379e-01,-2.167057545319479254e-03,-8.450049038163911976e-04,-3.449807253942866782e-03,1.433395314961671829e-02
6.978680017035642225e-01,7.433953526874564899e-01,7.021848256154595846e-01,-3.813962369045095432e-03,-1.724212537323437404e-03,-3.278886839719052058e-03,4.449328035116195679e-02
7.238590981452990292e-01,7.083581875797800853e-01,7.236107251425449860e-01,-2.644149935792549939e-03,-4.905768892055682381e-03,-2.306887270483768716e-03,1.859110966324806213e-02
7.552626619467972535e-01,9.027474927714101982e-01,4.006284739250013383e-01,-8.608836353842345968e-02,-2.415113582861111718e-01,-6.993478298705817220e-02,6.416461467742919922e-01
9.743702531435458614e-01,9.295511469971950991e-01,3.782790243978867428e-01,-4.884203306202663381e-02,-2.863835735495709467e-01,-9.398933880093698900e-02,7.812314033508300781e-01
7.108598837596616926e-01,7.535905443705224194e-01,6.746511019845040646e-01,-1.050733374056636062e-02,-7.927167737715987844e-03,-1.992887459634372707e-03,7.222089171409606934e-02
7.850270489442249255e-01,8.372446393241845808e-01,4.783340317314288548e-01,-3.882911989727715757e-02,-8.867112770087762219e-02,-6.199106847078609747e-03,3.755371570587158203e-01
6.942367338363629736e-01,7.374463808871952741e-01,7.124209870426021496e-01,-3.309099625160172135e-03,-3.844926829637299211e-03,-8.383074491578353452e-03,4.123146831989288330e-02
8.035430403112118203e-01,7.821169578533933020e-01,4.970404069907592981e-01,-1.053901639342822230e-02,-2.687322674065752495e-02,-4.139070632494313423e-02,3.089904189109802246e-01
6.769929500210111195e-01,7.138586125063433041e-01,7.667405256054417029e-01,-3.420854471294505761e-02,-1.059544138183747021e-02,-7.283161736180105393e-03,1.005569398403167725e-01
6.782164079374326526e-01,7.746095825759092834e-01,7.108319806316952816e-01,-4.077032315010296025e-03,-6.026497325619023515e-03,-6.940965269616701690e-03,8.668826520442962646e-02
7.039927720117774568e-01,7.540225557430138004e-01,6.995566568693847298e-01,-1.975665551912548796e-03,-3.729279182964135003e-03,-2.439302932346999048e-03,5.306485667824745178e-02
9.054659213286991859e-01,9.016971556688109235e-01,5.114499891605168713e-01,3.214925723248476287e-03,7.483671612266014350e-02,8.194869112023986032e-03,4.132939279079437256e-01
6.753820119643756392e-01,7.668748446927144968e-01,7.079054373715093496e-01,1.163715404847990480e-03,-7.045542419915611088e-03,3.965947244628964703e-03,8.156726509332656860e-02
6.993234934810130810e-01,7.224880710910566162e-01,7.172959203358889591e-01,1.883835873002798460e-03,-2.649851929172471546e-03,9.126269006886121235e-03,2.692322619259357452e-02
6.962548303889545265e-01,6.895475142869217366e-01,7.658207971865933494e-01,-1.782836639234630823e-03,2.189283567683244364e-03,1.332162011036412252e-03,7.335019856691360474e-02
7.387102873207664899e-01,6.910905464078143101e-01,7.183920443843183623e-01,-1.891087198654529955e-02,-2.629993537745656251e-02,-3.160692452817841919e-02,8.864444494247436523e-02
6.697463350244231561e-01,7.663490248986243314e-01,7.372936491610592169e-01,-4.959245820333659654e-03,-7.962319343592516238e-03,-1.425998738583176759e-02,9.079364687204360962e-02
5.617893722393002554e-01,7.803671089698530627e-01,7.948342261936334197e-01,4.680893255078456827e-02,-1.552682119872345230e-02,3.806326675510753738e-03,2.418422102928161621e-01
6.942676153081850376e-01,7.518932863925892329e-01,6.967544778622359880e-01,-3.252226155595765861e-03,2.738700286219747501e-04,-1.172937945085069864e-03,5.674221366643905640e-02
8.354266379271709786e-01,3.556027929540607202e-01,6.948694061417974854e-01,-8.346178578759352873e-02,-5.139215609986294564e-02,-2.624501311403040216e-01,6.465337276458740234e-01
6.674655210871112132e-01,7.587283368322437216e-01,7.325406295096119624e-01,-5.061755842179038560e-03,-7.934479247619608336e-03,-1.022470699937681922e-02,8.487696945667266846e-02
6.983901679094350889e-01,7.539274606587557104e-01,6.889725897658932618e-01,-8.173862728288848120e-03,-1.048592382945260151e-02,-3.986505822991361254e-03,6.537649035453796387e-02
5.165702601489001733e-01,7.588209367166522945e-01,7.469925390179210645e-01,1.529326445504303189e-01,-1.566637646784286297e-01,8.537569519574968180e-02,4.707681834697723389e-01
4.941948951270813684e-01,9.046473606644600540e-01,8.586814636217856567e-01,3.508081631749092044e-01,-1.200354618526741912e-01,1.139177496128293554e-01,7.765781879425048828e-01
6.945321582532689719e-01,7.676136474518605590e-01,6.850789310415416056e-01,3.324302881796848980e-03,-9.207585971162080343e-03,3.829953077697406758e-03,8.032821118831634521e-02
4.340427325906427436e-01,7.832893978960457915e-01,8.254390373752590326e-01,8.543678994868848797e-02,-2.352666602247073524e-02,1.306223152383490481e-02,4.031639397144317627e-01
6.427738300108225555e-01,1.047801830470438844e+00,9.607635995775007931e-01,-1.632599629637080108e-01,-2.753883073212740062e-01,-1.172632552920902099e-01,6.964912414550781250e-01
5.787278954060623981e-01,8.646957956135049583e-01,8.858970443212519363e-01,1.326726667932880688e-01,-5.566892668328014132e-02,1.672272076742426297e-02,3.888857960700988770e-01
6.904013526030425840e-01,7.643010057575247984e-01,6.782156428305712303e-01,3.054849555464935655e-04,-1.081565748049051999e-02,3.554451685188974273e-04,8.283576369285583496e-02
5.156957551306748933e-01,8.529773032309222458e-01,9.331153512418915996e-01,3.405422739280964950e-01,-1.885203470170787876e-01,2.610256467412512549e-02,7.770334482192993164e-01
4.360278165193433031e-01,8.655956212258905103e-01,8.385197423569091812e-01,6.215908902314913609e-02,-6.437961772756566059e-02,-2.698009291228364859e-02,4.470345675945281982e-01
7.105978875343204049e-01,7.374680746712962698e-01,7.042606685747486717e-01,5.482947698690294157e-03,-6.786763350419317171e-04,2.207913246143143778e-03,3.222800418734550476e-02
5.418157085225023817e-01,7.882936758765287655e-01,7.868648280582259957e-01,-1.491905321558529987e-03,-4.099934526894557889e-03,4.326865193059682875e-03,2.459969967603683472e-01
6.862937553768478915e-01,7.584488700895520852e-01,7.084511805364415160e-01,2.446756986669328289e-03,-5.176126183744197452e-03,9.104640786198143695e-03,6.667503714561462402e-02
6.826836266221976146e-01,7.578778060216981860e-01,6.896664922330523195e-01,-1.457370828330732063e-03,-8.612334265695936741e-03,-3.375620013749163449e-03,7.376264035701751709e-02
7.521775509651434932e-01,6.464703580728308197e-01,7.011268628069345921e-01,-3.696664795429911287e-03,-1.096281202606405256e-02,-2.076181552072226336e-02,1.003915518522262573e-01
7.671489346381163976e-01,7.152707092259148469e-01,6.795508759087838246e-01,-9.479178699547504555e-03,-8.808703608146180308e-03,-3.625460881865208429e-02,1.013206392526626587e-01
7.489091287753205650e-01,7.037219847711250198e-01,6.935261422917537999e-01,-7.516459963556780879e-03,-3.158077803038496830e-03,-4.088872364127469836e-03,5.344270542263984680e-02
6.959814412369015324e-01,7.622603166664829732e-01,6.918294795432787803e-01,3.319677401075236435e-03,-1.981633679969511692e-03,1.725772672117039958e-03,6.884106248617172241e-02
7.009819572301280166e-01,7.192814864888539272e-01,7.216589872472084499e-01,1.664670410946170881e-02,-1.796570261991992101e-02,1.236694575117622437e-02,5.140519514679908752e-02
7.495424891948407886e-01,7.002606647602439560e-01,7.016388761864246204e-01,-1.867012689294445665e-03,-4.862905693537803407e-03,-1.509304751581343109e-03,4.950668290257453918e-02
7.434205061802429126e-01,8.056471968340326306e-01,6.068059550821544024e-01,-1.062535401864772404e-02,-3.840646572459318481e-02,3.193081377516907016e-03,1.892913579940795898e-01
7.013612993782492033e-01,7.354743505621315069e-01,7.001364634715976365e-01,2.411329378302280810e-03,-1.579908219965444173e-03,5.425590239219317198e-03,3.633491694927215576e-02
8.011901965833193584e-01,8.225763251630237027e-01,5.567693129996001966e-01,-2.970341720746440001e-03,3.803699310696576769e-02,1.226301141946112977e-02,2.650362253189086914e-01
7.602306504512889029e-01,6.894915714677906093e-01,6.812356284262981454e-01,-4.713028316926382889e-03,-3.022530266495163011e-03,-9.568293078448732170e-03,7.762021571397781372e-02
7.091246724639319599e-01,7.274244477991808067e-01,7.058749181521474236e-01,4.165730938961578929e-03,-1.665122087287439863e-03,1.068477786136089788e-03,2.164983190596103668e-02
6.988604145638703802e-01,7.364577135023394616e-01,7.126152987901975822e-01,3.568695734152610866e-03,-4.743623919584450885e-03,1.120540090531657769e-02,3.959801793098449707e-02
7.122032494838114181e-01,7.180340876125291816e-01,7.131598759347764771e-01,-3.097396474762576781e-04,-7.482043716865018155e-04,1.871219429407091619e-03,6.465872284024953842e-03
6.335363268459890396e-01,6.787337091323492055e-01,1.158251868637106829e+00,4.543134861698754356e-01,-1.268340275919948856e-01,1.194726007737889339e-01,9.818031191825866699e-01
7.542843280309059484e-01,7.017396396444958162e-01,6.928590165269071788e-01,-1.206230687943139280e-03,-1.824440921001942119e-03,-4.312155496464650448e-03,5.810829624533653259e-02
7.628151208311895193e-01,6.948292394412090012e-01,6.914473714962993123e-01,-1.557950750955752880e-03,-1.522386046275563815e-03,-1.274312515456844843e-03,6.987519562244415283e-02
7.213319994859774820e-01,7.046269129565175815e-01,7.176062844813742014e-01,1.779492090647354129e-03,-8.046164099275386269e-03,1.600872641327845142e-03,2.102648094296455383e-02
6.746161214378705306e-01,7.217278591562426016e-01,7.911615312105760855e-01,3.467714548274463543e-02,-1.018769852363280055e-02,9.335866079582273019e-03,1.203829199075698853e-01
7.100239311058548219e-01,7.039364945561561449e-01,7.298596198149813752e-01,2.417566493278318698e-03,-7.466173493867848954e-03,2.654315817960071610e-03,2.751656249165534973e-02
7.165068500590432432e-01,7.289280242638531693e-01,7.087270783399738372e-01,-1.156295693665612689e-02,-7.761070328162055811e-03,-7.205319434702231636e-03,3.238831087946891785e-02
7.034349929862456774e-01,7.092497123700732820e-01,7.264960015205808030e-01,-2.918897025041520665e-03,-3.555490842634439781e-03,-4.942029974683712773e-03,2.383869141340255737e-02
7.031605039576684923e-01,7.219021141344996728e-01,7.185211940220597171e-01,-9.956746622885031140e-04,-1.680007910498147652e-03,-7.652860528049530361e-03,2.205572277307510376e-02
7.103357618504374527e-01,7.005732660711693205e-01,7.277006582380421973e-01,-4.111194316776724082e-03,-6.771541518033322681e-03,-2.764791825914529426e-03,2.788494154810905457e-02
7.398227711936594675e-01,6.906911686683039342e-01,7.053272796435107184e-01,4.316639831892506857e-03,-9.640796723196513179e-03,7.750777343774766827e-03,4.923406615853309631e-02
7.136836874495087191e-01,6.923661862996188798e-01,6.898816999596825150e-01,-1.426142786031373878e-02,-1.571368836997442606e-02,-1.534736251000660273e-02,5.070622265338897705e-02
7.835275479155237033e-01,7.327343205560274964e-01,6.482452789175080499e-01,-6.381185278491990041e-03,-8.753857020850396367e-03,-1.242390095844326733e-02,1.217576712369918823e-01
6.845983568792157747e-01,6.971983002952492070e-01,7.221077684912090566e-01,-3.329518946966371351e-02,-2.549519702592570325e-02,-2.437116832695788299e-02,9.028113633394241333e-02
7.346506724238313080e-01,7.800342483857296561e-01,6.313432164097724231e-01,-1.189073527275103480e-03,-1.503292914331003961e-02,-8.743560689477673786e-04,1.345550566911697388e-01
6.531264982857480916e-01,7.288151300422691659e-01,7.572715386365750367e-01,-9.847310708691882700e-03,-7.838211659405382170e-03,-1.012368718191398315e-02,9.733987599611282349e-02
7.241828796117015798e-01,7.192446518649384668e-01,7.091678656242688117e-01,-3.197415134329697432e-03,-2.751270995084535709e-03,-9.815110550882512504e-04,1.523017231374979019e-02
6.438151728522891748e-01,8.091373379621563666e-01,6.830054148255304547e-01,-3.199499673400076766e-02,-6.212703022069139547e-02,-2.213870168059917792e-02,1.962370723485946655e-01
7.200426196960745262e-01,7.337697387188724107e-01,6.849788669477043790e-01,-1.297569263107845559e-02,-6.882913714075650224e-03,-5.781018974621552481e-03,5.144623294472694397e-02
6.735606669991425210e-01,7.348605611179629404e-01,7.348762069905524497e-01,-5.752203645168076952e-03,-5.205440153085278375e-03,-1.447589593893071173e-02,6.758583337068557739e-02
6.985043923451450532e-01,7.651799679276678479e-01,6.849990004736362659e-01,-3.287199786168346332e-03,-5.603986075627741953e-03,-2.756475925850734171e-03,7.535206526517868042e-02
6.822333423260533714e-01,7.581403624485431036e-01,7.138379912453486353e-01,-2.648477166260963540e-03,-6.067986867940335961e-03,-1.020595345130102111e-02,6.932318210601806641e-02
9.073671594210716007e-01,5.513337304160687014e-01,1.143457428889509186e+00,-3.489049914893559423e-01,4.607179908828576420e-02,5.372983052538415211e-02,8.042306900024414062e-01
7.518976390293496959e-01,6.994450090427912770e-01,7.025316341577011459e-01,7.745265793748773615e-03,8.970477867571664821e-03,-1.064011167351657135e-02,5.796477943658828735e-02
6.869800661274934050e-01,7.473660402623576449e-01,7.128350366780997760e-01,-6.826394466904844166e-03,-5.574598159765202857e-03,-1.129987914484865789e-02,5.804960802197456360e-02
7.214415242097271808e-01,7.248548419017287747e-01,6.919867276752713625e-01,-1.215403253486576837e-02,-3.812968075581733927e-03,-5.388761789276653308e-03,3.941660001873970032e-02
6.963831740979813389e-01,6.864475165214839469e-01,7.538333056582806613e-01,-6.474640921295002349e-03,-6.566532085051881261e-03,-3.603251102866387307e-03,6.530015915632247925e-02
7.017923996235040374e-01,8.050250055550178807e-01,7.461289271190365557e-01,-1.203703837405568078e-01,-1.639954506526528633e-01,-1.368943387715984561e-01,4.340697228908538818e-01
7.503231225717463815e-01,6.976769996654500483e-01,6.939675041763513352e-01,7.652682482205109236e-03,6.751819095361682142e-03,-8.073873234491392090e-03,5.906504392623901367e-02
6.490693491241495972e-01,7.061688217863819617e-01,7.689069032108111212e-01,-1.667095027414980390e-02,-2.597914187365154420e-03,-4.096013528969726439e-03,1.080882474780082703e-01
7.693957710825464202e-01,6.176409943645657652e-01,7.368113143441703539e-01,1.791234093171754915e-02,1.017996023837785396e-02,-3.526379096582561712e-02,1.554042100906372070e-01
6.947930521800665948e-01,7.201796288128349266e-01,7.167569060355032384e-01,-4.606072631462685210e-03,-4.413752921649007933e-03,-1.069925752157533001e-02,3.216855227947235107e-02
6.705997241903901562e-01,7.738184935912487683e-01,7.100731125652273157e-01,-5.275579774297609395e-04,5.470847576789535441e-03,8.864162167626308750e-03,9.200116246938705444e-02
7.047629251287294005e-01,7.728393313289338984e-01,6.780175185171890551e-01,1.185737432740136308e-04,4.287762791673392290e-03,7.246724056837983933e-04,8.501303941011428833e-02
6.682890850065447141e-01,6.805607380629064007e-01,7.591340716344224804e-01,-2.923809401453080284e-02,-9.842368462845576746e-03,-1.162336863155988623e-02,1.027088612318038940e-01
6.956176433888064947e-01,6.514970768646479726e-01,7.576465628957501641e-01,-2.062029866403396888e-02,-8.441363673713257396e-03,-5.944866396426208739e-03,1.006297469139099121e-01
6.791616604399024482e-01,7.233607596306558252e-01,7.753426731341082068e-01,-3.213794238502150347e-02,-1.291229520376159338e-02,-1.340772117539167259e-02,1.053150445222854614e-01
6.956841736621991457e-01,7.379160657946101098e-01,7.199833583644917878e-01,-3.372880216948713310e-03,-4.299441959797905416e-03,-1.099490785914566428e-02,4.242677241563796997e-02
7.118501838008201021e-01,6.766486549942053452e-01,7.720734168367369143e-01,-3.499764096357790844e-02,-1.878966900108584382e-03,-7.423993141510871476e-05,1.033007651567459106e-01
6.456669819250218101e-01,8.106177788932665829e-01,7.386861594047569035e-01,-8.233487594291674302e-03,6.079746901961942396e-02,2.724867899539698980e-03,1.784163266420364380e-01
6.278027096114001671e-01,8.908594531053222187e-01,8.323804834632039240e-01,1.738276388080303367e-02,1.346879514726522509e-01,8.575977423466807012e-03,3.358348011970520020e-01
7.817285507767530728e-01,7.652935582217147426e-01,6.019584424242916398e-01,-5.993889078771134221e-03,-3.982410044392308002e-03,-1.233230402415510379e-02,1.739094555377960205e-01
5.864940661546863554e-01,7.281904049612019092e-01,7.778738711981493248e-01,5.563086970050427904e-02,-1.060176041639754492e-02,1.050734636532487873e-02,1.988442838191986084e-01
6.517352937010254532e-01,7.674473475488582386e-01,7.094983176875993003e-01,6.748591743395180448e-03,-1.342626784683759004e-02,1.508815334684852558e-02,1.067817881703376770e-01
6.491990465346162420e-01,7.085135642324499328e-01,7.827354002830517743e-01,-1.709704425259946786e-02,1.150933789572329753e-04,-2.290301431973046104e-03,1.196755096316337585e-01
6.963259978871395584e-01,6.813539934022057043e-01,7.702938676549613284e-01,-7.477916473725997049e-03,-3.236038522023317043e-03,-3.123609732170967799e-04,8.367986977100372314e-02
6.879969505559312415e-01,7.228655592029346044e-01,7.183871410867681551e-01,-4.364116037035650070e-03,7.825661428552191379e-03,1.135382723710500787e-02,4.131957888603210449e-02
6.493836736018026023e-01,8.846316389937333158e-01,7.903740575857113315e-01,-8.036211467703160971e-02,1.249121748265886594e-01,3.189825815570362239e-02,3.335986435413360596e-01
6.931697420080485950e-01,7.223164319682042755e-01,7.225530705348033322e-01,2.624602284841182076e-03,-2.943655787795406917e-03,9.881716369769975514e-03,3.458451479673385620e-02
7.007082477378655527e-01,7.388522963413618472e-01,7.203904020681213272e-01,3.408695047636705125e-03,-3.247383298693812259e-03,7.890442380773309700e-03,3.667246922850608826e-02
7.120896905848033143e-01,7.361308524955402222e-01,6.950621478852284651e-01,8.927086005623205769e-03,-4.352064693935233167e-03,1.915202454616977490e-03,3.980176523327827454e-02
7.138098014450456885e-01,7.494524388968049067e-01,6.917624860155374700e-01,1.012601609617591256e-02,-4.928490821181538348e-03,4.119181552631344737e-03,5.453152954578399658e-02
6.733508223927171521e-01,7.360785458629739431e-01,7.364972975900772045e-01,7.071436211607967648e-03,-6.431159071325420057e-03,1.328279920857339431e-02,6.902610510587692261e-02
7.523661583551595200e-01,7.199740128943338258e-01,6.795344351168832731e-01,1.472599949073126642e-02,-1.259921047005836334e-02,1.599816099377092404e-02,7.674075663089752197e-02
5.834316830676216092e-01,7.940721811005529984e-01,7.426847850864374267e-01,1.838498727629456079e-03,5.324589324014497582e-02,1.071989658042853295e-02,2.122406214475631714e-01
7.103403167826799480e-01,7.176766944826252770e-01,7.129701995104108514e-01,4.356673788575417781e-03,-2.195471654128020901e-03,2.712330268711894959e-03,1.161538716405630112e-02
6.428734875180451835e-01,7.352675823707246483e-01,7.385853852971774325e-01,-2.001877164990076285e-02,1.729984665068335509e-02,1.985508144179881640e-02,1.101680621504783630e-01
6.913669803962602112e-01,7.610879204768836725e-01,7.182176853225269442e-01,-1.677315637694340444e-02,2.681601728453713446e-02,1.763047648690373864e-02,8.742841333150863647e-02
7.030205107936161602e-01,7.272351025865252394e-01,7.071450210741793141e-01,-4.575235697567574429e-03,5.010965661838430452e-03,9.407023833330809340e-03,3.011791221797466278e-02
7.002452747345213613e-01,7.010838331287475578e-01,7.370356276315691568e-01,2.192827169809489552e-04,-2.109895693517421528e-03,2.299461004563412188e-03,3.677967190742492676e-02
7.090772410359217348e-01,7.029074580466181388e-01,7.383717682403992955e-01,1.028639380002641145e-03,-5.418359734365081094e-03,2.343675918603565101e-03,3.441954404115676880e-02
7.027236837774619715e-01,7.182342308473020909e-01,7.171557334562046471e-01,2.158610163552996709e-03,-2.550590765618195293e-03,9.018301949892676070e-03,2.241644077003002167e-02
6.533205932158365759e-01,7.688706480475695493e-01,7.101798454807533023e-01,-6.304057737596580231e-03,1.242573843798195320e-02,1.461069491678354190e-02,1.060072556138038635e-01
7.614282167844652616e-01,6.929331569051331297e-01,6.963702388560131240e-01,3.390164283054515788e-04,3.316678895959084689e-03,-1.418254440035839233e-03,6.713675707578659058e-02
6.456159682000670585e-01,7.827191653991791842e-01,6.928382310836934677e-01,-4.061823026082577934e-03,5.424468227851193119e-02,-2.228098253491315583e-03,1.531167924404144287e-01
8.102063822067522292e-01,7.535900847083927268e-01,1.084419472816156915e+00,-3.895990667111368655e-01,-1.244936470827727182e-01,-1.199442780004459919e-01,7.993380427360534668e-01
6.734367876306104339e-01,7.362211702679830605e-01,7.328330647443722645e-01,-5.784126399560919618e-03,-5.246834920909571390e-03,-1.425171390805419526e-02,6.732702255249023438e-02
7.574813091543953769e-01,7.304076700739307038e-01,6.493823227388492159e-01,1.037123104056347084e-02,-6.791952686657176837e-03,8.821483415560448654e-03,1.009270772337913513e-01
6.939862928111691920e-01,7.533787174929889030e-01,6.958543678855212411e-01,-3.089609566249358705e-03,2.726442976447139436e-04,1.203091113476913946e-03,5.876395851373672485e-02
9.962411160053799009e-01,4.765011455602289892e-01,1.085851426945284581e+00,-2.217370918135514457e-01,-5.834098092808620573e-02,-1.255657378184864836e-01,7.278372049331665039e-01
6.941817036930272300e-01,5.659640288986775847e-01,7.988965188189102173e-01,1.038313773821455677e-01,1.785476918055661430e-02,-1.993850462609489393e-02,2.744506001472473145e-01
6.757444921632546064e-01,7.110544428096556846e-01,7.667047103588910950e-01,-7.683267247628603087e-03,1.215205199966410419e-03,4.468595510417587222e-03,8.093322068452835083e-02
6.781314142076628748e-01,6.901448045376549212e-01,7.636418399366370346e-01,-9.907173655221245337e-03,1.763942307575348117e-03,3.284343484072745761e-03,8.225105702877044678e-02
6.556143399699048135e-01,7.740412070707761716e-01,7.476638761459537541e-01,-7.542620146660820868e-02,-6.935712140309673035e-02,-4.486904161427808513e-02,2.216645181179046631e-01
8.138523832297417382e-01,4.596630568958465224e-01,8.438790059667631294e-01,9.840578452959484589e-04,4.097560834543527257e-03,-8.431799334681241986e-02,3.979555666446685791e-01
5.473043956594393356e-01,7.902039074022219056e-01,7.894943374651693935e-01,-5.278867789439588808e-03,2.272323263532735269e-03,3.675333813299197765e-03,2.428331375122070312e-01
7.061607186043127316e-01,7.594113101162101032e-01,6.813335807513292153e-01,-9.447836102776923511e-03,5.414101203301347268e-03,2.205676317549937898e-03,7.172439992427825928e-02
6.852944872473137883e-01,7.116322871195640554e-01,7.599263280952972544e-01,-5.823171323330001044e-03,2.232125852140766104e-03,7.329950272471270380e-03,6.764475256204605103e-02
8.258000130336599076e-01,5.786066583865507873e-01,7.583959262543793489e-01,9.785070514851555712e-02,3.625063302642799606e-02,-7.054748519788685279e-02,3.107788264751434326e-01
6.812089880827572053e-01,7.342714417660879400e-01,7.176850481346799260e-01,6.498811993341757978e-03,-8.811078072017362525e-03,1.421015910183207574e-02,5.635612085461616516e-02
9.912152267086931090e-01,8.674683432822118956e-01,6.678546641318017230e-01,-1.751894824535669137e-01,2.823724246121621095e-01,3.692242136295669774e-01,9.056029319763183594e-01
7.035366622524120706e-01,8.390786106683165713e-01,1.136258171550990292e+00,-3.906940626655031612e-01,1.210855635169842404e-01,8.610050433576769968e-02,8.192180395126342773e-01
8.179034529216152594e-01,6.056625274791145319e-01,8.708238684257160189e-01,1.111594746201716583e-01,2.307912722772486117e-02,-5.000418505508322925e-02,3.244181573390960693e-01
8.846210427975307322e-01,8.172092159596883176e-01,2.692663952310987430e-01,1.268832206538313134e-02,1.835441813084147389e-02,-1.816772109490493725e-01,6.650090217590332031e-01
8.598020818998464154e-01,8.183242062166239394e-01,5.215353101649842227e-01,3.647646820323557915e-02,1.346035566877727685e-02,-9.015999679110503484e-02,3.619887530803680420e-01
5.221374098246278628e-01,9.066620576665803677e-01,1.139505057589154990e+00,-3.815425821240370219e-01,-2.228889051936473742e-02,-1.491663126328861971e-02,8.546876907348632812e-01
7.851667511418137790e-01,7.950455336770467785e-01,5.463032319623635225e-01,5.598879595498914901e-04,-5.334030329085950352e-03,-4.597683954783586373e-03,2.442596256732940674e-01
6.609912206056679507e-01,7.586558440689682437e-01,7.356843861441358934e-01,5.001003083153758577e-03,-7.848288318693918617e-03,1.352406071608881592e-02,9.290363639593124390e-02
8.012285556233770256e-01,7.850071085861398679e-01,5.669484119796038835e-01,-1.711533377889471992e-03,-7.789743234630846017e-03,-5.975934852471299907e-02,2.495081722736358643e-01
8.174252505390118273e-01,8.193297010435327543e-01,3.817208806531657839e-01,-4.817650802177383951e-02,-1.531726137192351844e-01,-1.187675713560635282e-01,5.570793151855468750e-01
7.048589110237575284e-01,7.079134686278566457e-01,7.297541708103613134e-01,-9.342320204933827164e-04,3.393441651449255296e-03,4.002225793148702845e-03,2.526417188346385956e-02
7.537278402691459656e-01,6.959184931643744854e-01,6.945275304745519573e-01,1.974160395407464127e-03,2.283391869372775225e-03,-4.302691021622525583e-04,5.875504389405250549e-02
8.412478687805158284e-01,8.272117288622973241e-01,4.469395733710413987e-01,-9.741047628076662801e-02,-1.244562146893441884e-01,-1.863027351668749276e-01,5.737613439559936523e-01
6.207364250564517683e-01,7.780362143215813209e-01,7.915158426565264138e-01,-3.057109586842871041e-02,-8.652824392748484708e-03,-3.196712358571714087e-04,1.734184622764587402e-01
6.435061253908969103e-01,7.864058279510495186e-01,7.340091146668200617e-01,-1.681896446087210355e-03,-1.288300074863174202e-02,2.508372482852107288e-03,1.272931396961212158e-01
5.509635139721573704e-01,7.765256016850609067e-01,7.963769317506201872e-01,-2.551001804061179407e-02,-7.715470669440532836e-03,-9.568505189291939481e-03,2.411546707153320312e-01
5.818219265855238964e-01,7.765860221425507914e-01,7.913167826912861358e-01,-2.095405387523407992e-02,-2.020862503521253517e-02,-1.535048507512129859e-02,2.104004919528961182e-01
5.638314359523284303e-01,7.776433856659308308e-01,7.890974462706267234e-01,-2.189143466124731860e-02,-5.162510067935299242e-03,-5.587686743974635065e-03,2.233989387750625610e-01
5.299209222533595165e-01,8.255462204575326757e-01,8.777857101858617117e-01,-1.428237555001178050e-01,-8.713342607948162954e-02,3.303951104257607605e-03,4.353985786437988281e-01
7.568424199731447199e-01,7.034542541797980109e-01,6.964571061985813660e-01,5.442942125186498413e-03,1.962734338844073292e-03,-1.808696409399995287e-03,5.816415697336196899e-02
6.113458758591646669e-01,7.366940687214243999e-01,7.660064625713470798e-01,-5.002357115349673200e-02,-2.459855150464718143e-02,-1.503680424697301406e-02,1.739146262407302856e-01
5.979775502931119480e-01,7.199482402440758877e-01,7.732056240271102387e-01,-3.511355647688579884e-02,6.372297938364524829e-03,-6.177549541267632555e-04,1.674242764711380005e-01
7.386849608509423737e-01,7.146726245268777422e-01,6.685305852887245548e-01,-1.478893323305173479e-02,-1.228837223389064003e-02,-1.063627718136071765e-02,7.254102081060409546e-02
8.904648230759071303e-01,8.154321883773202329e-01,6.142074814200390032e-01,-4.122545745086319408e-02,8.361994460633564996e-02,1.230257068620292243e-01,3.642817139625549316e-01
6.257909884765576747e-01,7.648585453909082510e-01,7.685848140671053264e-01,8.392968527908578613e-03,-8.003554709248269020e-03,9.921535911287611767e-03,1.434248238801956177e-01
5.908063087459168861e-01,7.931763219741715387e-01,7.653373190681627136e-01,1.951110730273508806e-03,-1.063011632148049175e-02,3.349041037748740849e-03,1.909945607185363770e-01
8.587488838977499483e-01,5.498073817089583759e-01,4.800652149807068669e-01,1.526700120261790562e-02,-1.573536339443025109e-02,3.394478642028999626e-01,6.848150491714477539e-01
6.945018187854729019e-01,7.126592268225633298e-01,7.362032306819920047e-01,5.246600634284995755e-03,-3.670106567442158168e-03,1.201407566441507410e-02,4.321473464369773865e-02
7.806851680291335693e-01,6.124165019732638049e-01,7.365656257346728797e-01,4.512462200530031886e-03,-9.165663735885766494e-03,2.555801128871493591e-02,1.584603786468505859e-01
7.145301369643667355e-01,6.889289490999772614e-01,7.529956217294944132e-01,5.049542772490143647e-03,-9.847949018373915175e-03,4.094575326934859864e-03,5.947699397802352905e-02
7.181817916355682785e-01,7.014319746126761457e-01,7.322222969567361295e-01,3.939474336782732879e-03,-9.966283920855098163e-03,4.631379480118373582e-03,3.349262475967407227e-02
6.944531621505376506e-01,6.940117865421785437e-01,7.525448625403212688e-01,5.510668620949715941e-04,-1.333888369313231993e-03,2.441534934737267602e-03,5.852019041776657104e-02
7.927936628334109059e-01,6.838405615797245041e-01,7.102768263356266099e-01,-2.115207536510872212e-03,1.497755887784517912e-03,3.614935858772918426e-02,1.167468279600143433e-01
6.938472184289260491e-01,6.846386303371243542e-01,7.669010002109718505e-01,1.101465277886552047e-02,-3.068083645861543595e-03,3.974857271945814001e-03,8.083304017782211304e-02
7.529777309832329513e-01,6.936145920698847389e-01,6.834730960595641891e-01,6.625696720601344583e-03,2.498382449478569328e-03,-1.268059553787731150e-02,6.972575932741165161e-02
6.555299292596260541e-01,7.363610347489417673e-01,7.627767913531269262e-01,-1.074643328573086226e-02,-7.246123370603731011e-03,-1.441885812510037071e-02,1.024419888854026794e-01
6.461013624590634663e-01,7.035541898458261834e-01,7.676218856952745639e-01,-1.817258412211058063e-02,2.608673943246089463e-03,2.100338163800219687e-03,1.100488305091857910e-01
7.181256106350313306e-01,6.855157573225972856e-01,7.727908497194766468e-01,-3.131225075949298220e-02,1.219572996110486994e-02,1.094788491282413720e-02,9.788495302200317383e-02
7.580058293282787574e-01,6.821154005926085562e-01,6.908698456780982822e-01,2.575277642416832786e-03,4.763125378317611611e-03,-7.725854846471121376e-03,7.374715805053710938e-02
6.966949214269961832e-01,6.750906630280276710e-01,7.397343778088094624e-01,-3.997299063508352041e-02,2.847281515645398373e-02,2.949119431045238091e-02,1.143843904137611389e-01
6.846365511375156476e-01,7.348692457889743901e-01,7.346309382709668157e-01,-4.425248549942305785e-03,5.636593300398545954e-03,1.465413602871911553e-02,5.753001570701599121e-02
7.098809757232988904e-01,6.669813176772156904e-01,7.686575920488698532e-01,-2.436219683126789048e-02,1.209623834461121678e-02,1.090221478007846918e-02,1.019443497061729431e-01
8.418079679520462655e-01,7.306218027282720406e-01,6.148678876064284093e-01,-5.444718717153003429e-02,3.121383891847464426e-02,1.286742236841114662e-01,3.164160847663879395e-01
6.532942660706217985e-01,6.206920141299199223e-01,7.706199170009209176e-01,-1.199219802580782923e-01,5.463424872297677204e-02,5.601200457967996788e-02,2.831322550773620605e-01
7.142905173854608991e-01,7.122674734225941107e-01,7.129820533532920113e-01,4.748377908487513323e-03,-4.483777594605668076e-03,3.197972198061762184e-03,1.271978206932544708e-02
7.154818361236605639e-01,7.142895134000153412e-01,7.130829827557257916e-01,5.394381199449001978e-04,-4.185045756289337230e-04,1.538418816472660370e-04,2.405274193733930588e-03
7.803847393773761798e-01,2.787691659831106339e-01,1.147198724057353347e+00,-2.517330689135395261e-01,8.459458865265154226e-02,-1.667197320698699664e-02,8.846363425254821777e-01
6.956376143730664818e-01,6.820177580082956714e-01,7.635920621977504430e-01,-6.483028847581210133e-03,-2.667096061526129987e-03,-1.854165369948160714e-03,7.672405242919921875e-02
7.141200358993525787e-01,7.166093926878845943e-01,7.158270929886839662e-01,1.036242830684523490e-03,-1.094353991560605708e-03,-3.731983591946245169e-07,3.416972002014517784e-03
7.150272333993017426e-01,7.139241872661796773e-01,7.114590069105580783e-01,1.212031991240706619e-03,-1.092519640670770471e-03,8.258297188694857863e-04,4.477374255657196045e-03
8.321643333307705559e-01,5.450576515367493435e-01,1.129430754337944931e+00,-3.726387938046397119e-01,9.062617031527800404e-02,9.162640103386561485e-02,8.500289916992187500e-01
4.991725797242031470e-01,8.542019722584295316e-01,7.908229038412102341e-01,3.397870929528042788e-02,-1.645734512785263504e-01,8.765616367326150779e-03,4.387582242488861084e-01
5.988942309611908765e-01,7.685925760957913466e-01,7.948494094241470576e-01,-1.255020839758020333e-02,-2.405891827074492940e-03,2.769548012209020076e-04,1.855607926845550537e-01
6.370339930287912678e-01,7.287281812187117458e-01,7.706015815983792150e-01,-1.485825359688488188e-02,2.517915241530695094e-03,7.944695327184697620e-03,1.219484731554985046e-01
6.101935533467541806e-01,7.676393535525486422e-01,7.599856835044106473e-01,-1.068480073586532998e-02,-9.705682443960006109e-03,-1.179869450547663470e-02,1.571160256862640381e-01
7.939994994781311988e-01,6.571740592185810748e-01,6.140502739992249603e-01,-9.453173417616519969e-02,1.454856357419357371e-01,2.777139313083650807e-01,5.900536775588989258e-01
6.927990709259219670e-01,7.653834901768632459e-01,6.901873120555735985e-01,-7.212890886623453271e-04,2.520940979065888418e-03,6.414120184642820282e-04,7.407261431217193604e-02
7.115644983641820076e-01,7.137957440051054814e-01,7.173720328395465362e-01,7.762630659774782732e-04,6.796656752883895296e-05,1.957863954938483548e-03,6.250534672290086746e-03
7.146955832132744213e-01,7.182454862140199570e-01,7.118759426982568250e-01,1.604771843952840400e-03,-1.138984453314329870e-03,-4.335758995233791587e-05,6.494998931884765625e-03
7.891824021391593558e-01,5.889359040670503198e-01,7.620467903924382780e-01,-1.825192658723340938e-02,-5.136264835376719816e-03,-3.274593233386058344e-02,1.992401033639907837e-01
7.877760963171497322e-01,6.290990034771544170e-01,7.690255066089478619e-01,-4.422422531395707457e-03,-9.134006247026923292e-03,-1.523205089562820226e-02,1.534917801618576050e-01
7.702329645098666688e-01,1.108235574278262137e+00,7.381566041734963779e-01,-3.809583881021733759e-02,-3.413241858604318391e-01,-5.346457713640829362e-02,6.989652514457702637e-01
7.923820290993845994e-01,5.498318662331960205e-01,7.888505181104445985e-01,-1.767015531073272850e-03,-1.793204796186261950e-03,-3.036039674174322023e-02,2.465172559022903442e-01
8.723731952596184280e-01,4.898819273357730708e-01,7.831644875274632600e-01,-1.368194166125235624e-02,-9.869094739702987795e-04,-6.240181858928215558e-02,3.638443052768707275e-01
9.043279711422249623e-01,5.914433482258604213e-01,8.455100329285768490e-01,4.702018945491977242e-02,1.628884533179397048e-02,-1.084229021878256871e-01,3.544691205024719238e-01
7.817062123427870324e-01,4.660150611965299672e-01,7.697055845207819713e-01,-3.160275628144951221e-02,-1.421787714534377377e-02,-6.803259294372152044e-02,3.369041085243225098e-01
6.740344055840594706e-01,7.094301318318784189e-01,7.733402903015358376e-01,6.622467534021285462e-03,-1.325704741683562546e-05,1.722301267507303935e-03,8.797717094421386719e-02
7.001571261718675387e-01,7.040670178327685935e-01,7.458044106307443188e-01,-1.952578215449409351e-03,2.285490534189396107e-03,5.957840948286650430e-03,4.532197862863540649e-02
7.010648607745012528e-01,7.624126463381435403e-01,6.841963801516963706e-01,1.000498111910057622e-02,9.020419825059692448e-03,-2.331496293813404338e-03,7.512423396110534668e-02
6.635050526434115303e-01,7.147775436278955841e-01,7.546060007433650352e-01,-1.172474948319974716e-02,4.173987630939101842e-03,1.266029988137465194e-02,8.486933261156082153e-02
7.698724312220475152e-01,7.934886089870046844e-01,6.051409509265118780e-01,-4.842161171221860141e-04,-1.522492011231535089e-02,-2.513140377393287273e-03,1.797207742929458618e-01
7.110109706607339319e-01,6.738956323223902478e-01,7.740911447251330735e-01,6.924700766816585702e-03,1.288909378633062378e-03,-7.971552239811630644e-05,8.858191967010498047e-02
6.779171045074549040e-01,6.808820945537036318e-01,7.621005401249878464e-01,-2.482303064300311890e-02,9.811603803363138504e-03,5.916033629396885533e-03,9.533303976058959961e-02
7.300097433416429249e-01,7.103089202147184755e-01,7.513546914285107459e-01,-1.904493275141070502e-02,1.712494851918943545e-02,1.593122017928801787e-02,6.319472938776016235e-02
6.473772667887964793e-01,6.984122691302411257e-01,7.599432699856490947e-01,-1.969144283083149732e-02,4.347908448143708061e-03,6.861881512221014966e-03,1.043652147054672241e-01
6.960710642629593936e-01,6.891093696956248627e-01,7.669774888242619770e-01,2.716011984658190000e-03,-2.463670525555047668e-03,8.508363607335914323e-04,7.491546124219894409e-02
7.089939420123931857e-01,6.779490902225943083e-01,7.540751619014185447e-01,5.896323380450517633e-03,-5.959254214279046530e-03,2.560480466173277892e-03,6.801576912403106689e-02
5.188863726726977710e-01,8.657038443366390501e-01,8.210736009232789678e-01,7.264063634894017685e-02,-1.395928005532294687e-02,1.017279436270462738e-02,3.514551222324371338e-01
5.633178279976567282e-01,8.063144690784990187e-01,7.946048459426892085e-01,-1.549190864977982758e-02,5.590999472667941388e-03,-1.324596072442577261e-04,2.390667498111724854e-01
7.852714773808755488e-01,5.915063960288720057e-01,7.626484215132516287e-01,1.171775953212535496e-03,6.760219040782780402e-03,-1.312073353533158189e-02,1.852858215570449829e-01
5.778337331152797463e-01,7.871538305156189352e-01,7.911992439998944970e-01,2.090204861734502352e-03,7.339613635246395457e-03,-1.863423490022131932e-03,2.118093222379684448e-01
5.729649418050908327e-01,7.642141928889039093e-01,8.017730735534053244e-01,2.813232859620150642e-02,1.685065999418725383e-02,-5.368569292260226555e-03,2.201877236366271973e-01
5.219246092407038295e-01,7.792159323452466646e-01,8.098227987069742673e-01,5.229780914275649478e-02,-1.997696459202044986e-02,5.351803362212133146e-03,2.906868159770965576e-01
6.863804900617546112e-01,7.102366666139222628e-01,7.604943138894121324e-01,5.699202672098028707e-03,-2.179317029674417497e-03,8.289441408740520420e-03,6.790978461503982544e-02
6.799375069619583156e-01,6.908936563960470512e-01,7.659140316700441264e-01,1.004775534013386228e-02,1.956368682528488042e-04,-1.111160953703871660e-03,8.292599022388458252e-02
7.938398609460912692e-01,7.683622287194030731e-01,5.999640913080700466e-01,-1.335045971854847014e-03,-1.744223763599450205e-03,1.101511393689089298e-02,1.835099458694458008e-01
7.238928238401765025e-01,7.198046414879877286e-01,7.098354889034609316e-01,3.414688365582188578e-02,2.513334525900470448e-02,-3.849841780042895234e-02,9.998160600662231445e-02
4.540902444137392413e-01,7.865946264382734920e-01,8.000757803299873849e-01,2.596318229757085122e-02,-1.580413154973632842e-02,9.043896270760952774e-03,3.438610136508941650e-01
6.492711723307790228e-01,7.412863904479751742e-01,7.642604977736816574e-01,4.761205256489357829e-02,2.328355694281599580e-02,-2.147647275485934856e-02,1.446353644132614136e-01
7.561664906314599088e-01,7.974654666944452908e-01,6.097188097665262596e-01,3.797074035656105781e-04,4.962339574875211656e-02,-1.879055379597554740e-02,1.940304040908813477e-01
6.453623046705556643e-01,7.313928911853564419e-01,7.723639301398101953e-01,-1.065388498302652885e-02,-4.202838299598517409e-03,1.957180953844432354e-04,1.140099689364433289e-01
7.467114076416823121e-01,6.704387423595268292e-01,7.747412033090906869e-01,5.134721668840593056e-02,1.140482092662157068e-02,-2.306481954395232445e-02,1.365169286727905273e-01
7.427541161676993742e-01,6.454243436825826130e-01,7.426025477874053093e-01,1.728273291410449899e-02,1.975399131190436197e-02,-2.127615951244483591e-02,1.135038286447525024e-01
6.440399125623836873e-01,7.706395784629845869e-01,7.330561819098401211e-01,1.032673425206683676e-02,-1.078188966442249208e-02,1.231569203803681289e-02,1.174974143505096436e-01
7.469198395444247573e-01,6.135192757366326743e-01,7.758298074803844369e-01,3.718175358432298377e-02,1.661900237900550831e-02,-4.012805055589227510e-02,1.797078400850296021e-01
6.488306183295344809e-01,7.333737571407412670e-01,7.891896815357650752e-01,-1.057928125098019610e-02,-3.708604580355579893e-03,-5.989139408991208183e-03,1.243641749024391174e-01
6.266876940993919565e-01,8.942723428482823866e-01,7.762215726707525354e-01,5.346028371310636296e-02,-1.271981366051935236e-01,3.212953986427422720e-02,3.378727138042449951e-01
7.049307215361504397e-01,7.727849006410019150e-01,6.789454306167900244e-01,-2.491794186511028710e-03,5.572886027964778048e-03,7.622142418533552798e-07,8.458388596773147583e-02
2.375470708651223894e-01,7.906494194676443321e-01,8.503854630956459992e-01,-1.791167201128925912e-01,-2.180279966861361075e-04,-2.428375319326451977e-03,6.624175310134887695e-01
8.237510148182012326e-01,5.277462797548297946e-01,9.101657282797137594e-01,-1.512983080525927559e-01,1.018924650773663509e-01,2.828335307043123859e-01,6.785791516304016113e-01
6.651223558814998160e-01,7.560212732512756606e-01,7.099470545908320718e-01,-5.754334067843744349e-03,1.155393337867457147e-02,1.276362293465675181e-02,8.476967364549636841e-02
6.063702035558883319e-01,7.670621833252989630e-01,7.367022934342245533e-01,1.530886857827936168e-02,-2.645136959107708893e-02,2.635636563302741486e-02,1.635577231645584106e-01
6.527488288878404710e-01,7.841582278740882872e-01,7.581937266295777356e-01,3.296683403941212676e-02,-3.822092668724108577e-02,2.725579538481772562e-02,1.562120169401168823e-01
5.831296222899976511e-01,8.129048087183935456e-01,7.501562932927233751e-01,1.531796432485274702e-02,-1.159156855765992172e-01,5.084564207855316736e-02,3.018030226230621338e-01
5.727519812076773409e-01,7.618695830018697990e-01,7.809061368716182505e-01,-9.763196923994960433e-03,-6.609852168394631834e-03,-2.576967694333694159e-03,2.004119753837585449e-01
5.751845937005781728e-01,7.713284936659643432e-01,7.766975373064481936e-01,1.489667617539055557e-02,-2.283340438866187858e-02,1.879158792342896719e-02,2.069868594408035278e-01
7.327073932538079593e-01,7.370731251805527906e-01,6.809628223965533689e-01,1.308481526214118687e-02,6.855029827529965022e-03,-5.232353885833191005e-03,6.049138307571411133e-02
7.296028599768142886e-01,7.160306641939162553e-01,7.160103125721352102e-01,6.658914433880311172e-03,-9.005993664969010742e-03,5.045869297072697740e-03,2.524303272366523743e-02
7.039777410888676812e-01,7.550754310832024085e-01,6.969207588012600318e-01,5.738873056376830525e-03,1.342762529336132601e-03,-2.066761005646967561e-03,5.602140724658966064e-02
6.433370254992154536e-01,7.318651103709042927e-01,7.718166598404092582e-01,9.392712295710706899e-03,-3.022143232621730177e-03,6.390142944053389847e-03,1.156924962997436523e-01
7.470373588418744992e-01,7.057483028333599862e-01,6.937067089710187151e-01,9.116361225860708517e-03,-2.457416410065506318e-03,3.868570709673843123e-03,5.156850442290306091e-02
5.433650393462146067e-01,7.911671864925501341e-01,7.920214105381554459e-01,-8.992983763720767149e-04,-5.514754309913544664e-03,1.559694245883179193e-03,2.484336346387863159e-01
6.286953896774567507e-01,7.657869370910859175e-01,7.630046622094086572e-01,1.106714089252677433e-02,9.435588682990443676e-03,-1.091670919260908333e-02,1.393286287784576416e-01
7.065769486208990369e-01,7.151114611582376490e-01,7.424795961442933745e-01,4.937839172275405170e-02,4.425277908282924944e-02,-6.298553674062519481e-02,1.616989821195602417e-01
7.358592800703087633e-01,7.047430104066549905e-01,6.945650623854895400e-01,8.162927046213262761e-03,-3.894844321827033076e-03,5.180793585042606751e-03,4.140584543347358704e-02
7.279850295834797702e-01,7.089005777034410594e-01,7.051324725354134459e-01,4.083032771725818993e-03,-1.781995296378294062e-03,8.197531350110221068e-04,2.262483350932598114e-02
7.530933871371359167e-01,7.247769982577236814e-01,6.840683623055954232e-01,1.460491801707208652e-02,-1.280608161348763610e-02,1.957901731743308393e-02,7.677007466554641724e-02
7.110301504921515692e-01,6.704999670119172750e-01,7.739214846934685532e-01,6.965274396913585797e-03,-4.293231859043931259e-03,2.255492442088229740e-03,9.145007282495498657e-02
7.636003688799326561e-01,6.387746528230912046e-01,6.713420066612975079e-01,1.784236757908848336e-02,-1.742296637446792695e-02,6.475117507976009545e-02,1.643798053264617920e-01
6.598302887104164904e-01,6.337782195744375846e-01,7.813210932349619053e-01,1.207922680071252530e-01,-6.121835525030586145e-02,5.110424840403396396e-02,2.854016721248626709e-01
7.042013647889769912e-01,7.110765003042252008e-01,7.683897533097312493e-01,7.401708699556358573e-02,-3.841564882201383563e-02,2.090031147304057674e-02,1.609330773353576660e-01
6.002527454818330499e-01,7.647732417475882061e-01,7.930388915605509625e-01,1.124057539392641150e-02,-1.287275137151093702e-03,2.164102764058364100e-03,1.814229637384414673e-01
6.251476097653726471e-01,7.676649612960485536e-01,7.834649472160409855e-01,1.104402932339182061e-02,2.712902945456509198e-03,-2.777162949085468322e-03,1.523933559656143188e-01
6.948719351041596770e-01,6.885639021264082782e-01,7.628235118590018793e-01,3.338810787125567198e-03,1.467387890150842261e-03,-2.157761420765213264e-04,7.159532606601715088e-02
7.911496053648104931e-01,7.912112261881368847e-01,6.215353968662647999e-01,3.465456999437177988e-03,-1.488232150127110839e-02,2.779692131705291391e-02,1.783197075128555298e-01
6.443492556512329106e-01,8.041315759526710405e-01,6.534107166883416085e-01,1.725962819260834849e-02,-1.108823741623548437e-01,8.579447592022625829e-03,2.493267804384231567e-01
6.327654970995307826e-01,7.407594161011751277e-01,7.618764573252527761e-01,1.760761969826668202e-02,-7.353523542809803880e-03,1.621838605410714368e-02,1.275560408830642700e-01
7.910136858155107920e-01,8.182106308923337012e-01,6.182982728989714349e-01,2.095723439095305545e-03,-3.816049520841278270e-02,3.901414762888247983e-03,1.992363631725311279e-01
6.713037559749527317e-01,7.535467917053082498e-01,7.067521254496482719e-01,-3.051721604667863817e-03,7.253635787613454088e-03,7.806686468481371932e-03,7.398472726345062256e-02
7.091442249495123473e-01,6.720662808072594974e-01,7.658483067884603868e-01,6.956052369263839887e-03,4.595181620195240048e-03,-1.416875382384793916e-03,8.310912549495697021e-02
1.026722242916515038e+00,4.321185466554294807e-01,9.226348252321003862e-01,-7.705855713995467260e-02,6.697888901494043756e-02,1.183828234470967744e-01,6.130359172821044922e-01
7.649294485344227956e-01,7.516366158380515250e-01,6.113378426207131122e-01,2.484106802745391501e-02,-1.406281273001383850e-02,2.684742960656210167e-02,1.622722744941711426e-01
6.458125949733437565e-01,7.679648498794156009e-01,9.181899400098848529e-01,-1.630253139244229321e-01,4.576307750557728760e-03,-1.625595541367673078e-02,3.693594932556152344e-01
7.084712448786729677e-01,6.770591506651474356e-01,7.748315220797937775e-01,-5.032057007793782483e-03,6.563417824542753728e-03,3.140898769093167665e-03,8.780499547719955444e-02
1.101622696396518775e+00,7.555433406990900158e-01,8.480817893434055010e-01,-6.652361794247317606e-02,8.490443269088993050e-02,3.388025441913797842e-01,6.896176934242248535e-01
8.310078810216341427e-01,7.225279294659743279e-01,4.986561560402525961e-01,2.203148966844609147e-02,-8.855745657721769692e-02,1.378465047160802592e-01,4.100737571716308594e-01
8.109020042841580400e-01,7.900168623310966920e-01,6.113880286489946636e-01,1.664040156336854797e-03,-6.638783083387360048e-03,3.133151945425312335e-02,1.978905200958251953e-01
7.990662236456352874e-01,7.092817809831853948e-01,7.041648186501734408e-01,-2.936821555833830921e-02,3.117846064794239924e-02,6.711140211961225122e-02,1.660193949937820435e-01
8.013019306131372588e-01,7.724206212992941190e-01,5.796927679301754344e-01,7.136092761776871747e-03,9.481641414955619199e-03,1.357155209377671271e-02,2.109962701797485352e-01
6.768924781076749442e-01,7.099469743678499256e-01,7.742746316550085384e-01,-8.187634019736230936e-03,-2.687853188560318106e-04,2.368748506816435555e-03,8.703520894050598145e-02
6.858856479418956598e-01,7.380353861546997685e-01,7.382428074376254923e-01,-3.871783377285747084e-03,4.958049220535326942e-03,1.243620598418079988e-02,5.755998194217681885e-02
6.851990093445636809e-01,7.145288035520156456e-01,7.563863928608901555e-01,-5.077431593851248863e-03,3.085075184256636481e-03,7.533110797310612478e-03,6.415688991546630859e-02
7.839509677926874698e-01,7.689187933425667421e-01,5.834070137736496742e-01,7.785231077985935513e-03,-1.136769327825504390e-02,9.157983895996675908e-03,1.955769509077072144e-01
7.829948709151448583e-01,7.940298119580411207e-01,5.582445999829738215e-01,1.058958196702522794e-02,-2.006972474604679785e-02,1.006295292776490831e-02,2.344422042369842529e-01
7.259521344557121614e-01,6.997196662752350749e-01,7.418816117925308706e-01,1.686586236812178188e-02,1.512058518673469257e-02,-1.505788958993053463e-02,5.982682108879089355e-02
8.378656911124687801e-01,6.872929171531895198e-01,4.967182264853209350e-01,3.548709412797353135e-02,-1.636551121672726386e-02,1.360830163321602171e-01,3.844782114028930664e-01
6.873130773048516939e-01,7.127288833745437646e-01,7.437603834192247909e-01,-3.715768212633813270e-03,4.395646953853929451e-03,1.030274726592094944e-02,5.306065827608108521e-02
6.644653961653210761e-01,7.326380048564337111e-01,7.645431866738727766e-01,-1.040632008861679635e-02,3.471814586981313965e-03,1.125158021327569632e-02,9.263549000024795532e-02
5.645045312864889198e-01,7.895100107582666560e-01,7.658434007370656937e-01,-4.075803724550179641e-03,1.222627796960233312e-02,1.031695234464205437e-03,2.153228521347045898e-01
8.582431727220367623e-01,8.652877071671447595e-01,5.291246275915270081e-01,4.031176542402689633e-02,-9.794637238335932028e-02,8.963749194051190416e-02,4.104233980178833008e-01
7.156063323989197977e-01,7.587193550978369450e-01,6.868369652537178460e-01,1.217508057401886501e-02,3.186915090687098689e-03,-3.793215589781682214e-03,6.667140126228332520e-02
6.467021312800923516e-01,7.404425720604379535e-01,7.383578777073498411e-01,1.330594634924391235e-02,-1.586166347752607231e-02,1.944971124651569475e-02,1.049618571996688843e-01
7.326944100336636456e-01,7.339462082699714784e-01,6.750221010647281528e-01,-1.470393011776712118e-02,7.545106215821792937e-03,6.632506740864401763e-03,6.596384942531585693e-02
8.648387558391300578e-01,3.635032645439572607e-01,8.800877951594611170e-01,-2.364990860614408358e-02,5.111343254316128015e-03,1.420792207787230921e-01,5.670366287231445312e-01
7.029830749429119008e-01,7.660713752060196446e-01,6.746595569094476774e-01,1.583803794181590013e-03,5.741976583239992958e-03,-2.560957067708798628e-03,8.182511478662490845e-02
8.344170156793760951e-01,4.804291750643138736e-01,8.123042770826462977e-01,-6.846979776696798803e-02,2.035224889647828037e-02,6.475146035695257714e-03,3.652416765689849854e-01
5.070567424132745860e-01,7.859520058790583352e-01,8.606988894882368069e-01,9.003693123603827286e-02,7.606964692147173690e-03,-2.506832256204758261e-02,3.613793253898620605e-01
5.834488665821179199e-01,9.029482960353232279e-01,5.209368305083390549e-01,-6.646563655755084732e-02,3.063495874917803730e-01,2.241083578811434510e-02,6.498231887817382812e-01
7.909513887112604724e-01,5.286614224800540995e-01,8.115769269980340761e-01,-5.035325708766609509e-02,6.743053400663470004e-03,1.742454200191677740e-03,2.870247066020965576e-01
5.657083069180607326e-01,7.856373713133998349e-01,7.947891691049449037e-01,3.696428315482194055e-03,4.268692404355611640e-03,-1.308340850967442954e-04,2.248577326536178589e-01
8.022910139311809630e-01,5.693034511672109277e-01,8.196117222590996176e-01,-1.680840299549260508e-02,3.141385412311136199e-03,2.036379277362338879e-03,2.439433038234710693e-01
5.619590101459838172e-01,7.803677799939767734e-01,7.615453714743328772e-01,-2.281640974750367805e-03,1.169698583903746453e-02,5.643708650414138231e-03,2.108727693557739258e-01
6.318341563744478417e-01,7.442891970586957839e-01,6.878383370346851100e-01,2.672871913964553273e-02,5.736601568370662541e-02,-2.940741332658392687e-02,1.552252918481826782e-01
7.105196911762620138e-01,6.857368665445203737e-01,7.592880119511767889e-01,6.598185727405430495e-03,8.457255356756248135e-03,-2.216768529277929247e-03,6.753576546907424927e-02
8.122556972200385417e-01,5.389999963716692877e-01,8.165886215916924318e-01,-8.152422837933857164e-03,7.933284850248264672e-03,8.222926537625933549e-03,2.765185236930847168e-01
6.745450813386383304e-01,7.082010144274070162e-01,7.656100240646147581e-01,7.312783366043737639e-03,1.394863945838088932e-03,-9.352466897013361194e-04,8.080570399761199951e-02
6.292356811997467103e-01,7.719989744186607217e-01,8.004602309065065313e-01,1.072960546897098327e-02,7.955422055615430851e-03,-9.783518854673762047e-03,1.614837944507598877e-01
7.095810816536328725e-01,7.383929348321761621e-01,7.029352848925920494e-01,5.131862116735838933e-03,4.070472671416803666e-04,-1.476375393728997145e-03,3.393834829330444336e-02
6.719982699083804079e-01,6.741853291099337842e-01,7.606695455295536812e-01,3.013549591045206963e-02,8.226261164316572838e-03,-7.999816357784069604e-03,1.038888767361640930e-01
7.103808591808300488e-01,8.056482248737563134e-01,7.052279981699832723e-01,4.558158208987504040e-02,8.265107885301699320e-02,-5.181393260404499462e-02,2.106514126062393188e-01
4.675800152759489459e-01,8.026348647305340256e-01,7.911695802248619458e-01,7.359204897977117410e-03,4.564417015077430750e-02,-2.495971547134844849e-03,3.390914797782897949e-01
3.483244123207870357e-01,8.491719140481575057e-01,8.048338834462338554e-01,1.660251444521812503e-01,1.594614363926992184e-01,-4.723514196236228840e-02,6.295060515403747559e-01
7.862158834952932551e-01,4.724549349509247209e-01,6.486327506283414701e-01,-1.564512107071739933e-01,1.107943873772715276e-01,2.650102288885839430e-01,6.286137104034423828e-01
8.259033115276835924e-01,6.238733794625593854e-01,7.558321337605985457e-01,9.873162562141572784e-02,1.764590320789250974e-02,-1.099211383132616265e-01,3.130423128604888916e-01
8.741474474273214224e-01,5.286476257613380580e-01,7.900850779091469489e-01,-1.642240801250113890e-03,-3.777322153609842352e-03,-5.195422934806506049e-02,3.248718082904815674e-01
6.913927937904217336e-01,6.967858846401936423e-01,7.612140789746797420e-01,2.251465953609014040e-03,1.092194479938543659e-03,-3.724295220933635832e-03,6.773434579372406006e-02
8.827679490771789261e-01,1.433132786631106659e-01,8.481254852684350087e-01,2.761863743871893762e-02,-1.407429440520413522e-02,1.300642432619684812e-02,7.250978350639343262e-01
7.760056012176176354e-01,4.850232615092695543e-01,7.760715999485128247e-01,1.568604120694216120e-01,1.109044174803834326e-01,-1.975305791026539248e-01,5.589810609817504883e-01
6.958550949098487592e-01,7.027248495302561571e-01,7.457057912903825025e-01,1.890782190630013867e-03,1.432313665770978874e-03,-5.115861257632446819e-03,4.780396819114685059e-02
1.041847347544576419e+00,4.790943316845477362e-01,8.113452290263368782e-01,1.480419472103214618e-01,9.032740633481023407e-02,-2.021195661831473589e-01,6.729708313941955566e-01
7.350983984849223107e-01,6.422849548828092336e-01,7.857964609082268570e-01,-1.098373923468217231e-02,5.680379517734378964e-03,4.218436916932036262e-03,1.280710846185684204e-01
9.257579399800159869e-01,6.403333894354428235e-01,8.004050724592070010e-01,2.507021986858409476e-02,-2.507532468153524010e-03,-1.443496877417498880e-01,3.547064065933227539e-01
7.966588357765187478e-01,5.569302661692315803e-01,7.553902352054489011e-01,-2.217298081617318645e-02,-1.087188476329214656e-02,-6.402400184150000562e-02,2.518061995506286621e-01
8.401498224806660531e-01,3.251158058074203328e-01,7.307971135138465746e-01,2.615847057988146106e-03,3.520701786693216859e-03,-2.028063829437813381e-01,5.868105888366699219e-01
8.242925204184861077e-01,6.385621011867985697e-01,7.584872685599237663e-01,-1.159155325166193878e-02,-5.147135067888391688e-03,-6.192582585210904683e-02,1.964461207389831543e-01
1.048321160349556136e+00,8.731462410059022128e-01,6.818536149515790346e-01,-1.138891273596399356e-01,1.701402686052898572e-01,3.687609419968968516e-01,7.965538501739501953e-01
7.029359119240420339e-01,7.089938274472764590e-01,7.380213536824280496e-01,3.324304907911832235e-03,2.462059672667949502e-03,-1.861821641907498341e-03,3.341974318027496338e-02
6.958510626858549486e-01,6.953600003755157077e-01,7.464878190733680308e-01,1.037632673281911264e-02,7.221155326846685936e-03,-7.586401508921573715e-03,5.693231150507926941e-02
8.135554428928816195e-01,6.179179848957565557e-01,7.451217828676133248e-01,-3.757058602218300153e-03,-1.069778589120307620e-02,-5.261943603025270172e-02,1.956043988466262817e-01
6.527360641710355793e-01,6.964671001614183288e-01,4.316085434300459545e-01,1.851991893749965479e-01,2.940850624855549378e-01,-2.557528533767466361e-01,7.868054509162902832e-01
7.081488897402125060e-01,7.629499757049892361e-01,8.208735974489076437e-01,2.281442484703245510e-01,2.993899575288769821e-01,-1.293882211478327160e-01,6.962822079658508301e-01
5.262827534785672334e-01,7.194626518652769143e-01,7.670843429762949084e-01,1.952068301381058024e-01,2.152348240713654881e-01,-1.546864810397990397e-01,6.114448308944702148e-01
7.482363928190460811e-01,6.534326695786590866e-01,7.096801799080212358e-01,-3.991018567260010141e-02,4.594855598616870429e-02,4.391170567841023303e-02,1.540001481771469116e-01
7.639926676288640861e-01,7.933532328233524611e-01,5.584031700388667474e-01,-1.133390133512923552e-02,1.163539002401727668e-02,-9.989662868550276686e-03,2.241789549589157104e-01
7.891367085258245151e-01,8.234285478805039027e-01,4.643047010782150874e-01,-1.765456113867423099e-02,6.697364006368765332e-02,1.755655441914117862e-02,3.648931384086608887e-01
6.857630649490726871e-01,7.548167128525835601e-01,7.164772039457273367e-01,-3.965574096003280334e-03,3.730054172983401483e-03,8.597749518105608779e-03,6.246216967701911926e-02
9.261136728060155310e-01,1.028466437931002675e+00,5.458987669806978360e-01,-1.627940041915166836e-01,3.562559610319712688e-01,2.471401104441756091e-01,9.151234030723571777e-01
5.638352145819979233e-01,7.965939908026306027e-01,7.903224155472644563e-01,8.166530524571346400e-03,-5.242159299761941539e-03,2.110660209963441478e-03,2.303304076194763184e-01
6.894172890938023990e-01,6.967349876302425526e-01,7.462380396443825115e-01,-7.242772990957704535e-03,3.151345248135252203e-03,8.394295629248683943e-03,5.713937431573867798e-02
8.071225808957570580e-01,5.024173499547563981e-01,8.002914994310503793e-01,1.791275734383533311e-02,1.261397277755639361e-02,5.119977720247295000e-02,3.164090216159820557e-01
4.229749113933128357e-01,9.208020971037081948e-01,5.531521611060212784e-01,-3.755125073290885990e-02,3.329642994604560258e-01,2.674095650611640895e-02,7.341277003288269043e-01
7.057335826299215853e-01,9.029291018580878347e-01,4.264975143464687091e-01,-2.524650731537859613e-02,2.654125757179509049e-01,-5.176622448075485217e-03,6.206827163696289062e-01
7.115173662592162440e-01,1.054442411026581539e+00,5.132150616934783027e-01,1.426110377902373161e-01,2.657415278423626015e-01,-1.846575330850967755e-01,7.746540307998657227e-01
7.323516397612636064e-01,7.681536858875501750e-01,6.003831933894943074e-01,1.882221529425751744e-02,4.718032408993799026e-02,-1.425120855653481088e-02,1.782477647066116333e-01
6.905636456551675906e-01,7.571653046808263232e-01,6.820151796484137385e-01,5.399089964386639268e-03,1.001762185669777608e-02,-1.593215347960898632e-03,7.398866862058639526e-02
8.341335821968111075e-01,8.713550936379428347e-01,5.720332813515858206e-01,-8.507547169528160980e-02,-1.467683711984773542e-01,-1.177601698894919918e-01,4.558250904083251953e-01
7.511289768849405135e-01,7.678311034750511244e-01,6.487249081796127026e-01,-1.654327736213028616e-02,-2.038876359160887719e-02,-1.714550238084666320e-02,1.242013275623321533e-01
7.691053049785694373e-01,7.674509757195111526e-01,5.659916943934039102e-01,-1.605134160605176802e-02,-1.498560850853564164e-02,-2.573517488677845924e-02,2.106072157621383667e-01
9.317989590062042415e-01,6.691059952591740245e-01,7.771608784527775926e-01,2.187871748972312208e-02,4.210176857040847515e-02,3.876115411990383453e-01,7.139888405799865723e-01
7.101994528259131245e-01,6.712571942839575811e-01,7.722154860979094648e-01,6.372977537659305254e-03,6.720849653025840528e-04,-1.582465435723305223e-03,8.892831206321716309e-02
7.630996759443149369e-01,7.406128360103162445e-01,6.279604137500205407e-01,-2.166932529067457439e-02,-8.668110161296524452e-03,-2.290874960516123618e-02,1.376152038574218750e-01
6.654819394766140483e-01,7.304118604238670764e-01,7.092564895023865112e-01,6.322052287972845970e-03,1.691873183031800468e-02,-1.592419401108273805e-02,7.091687619686126709e-02
6.287617576146559140e-01,7.634891815505603363e-01,7.656549991966051794e-01,1.109636918552498429e-02,9.467817098598342931e-03,-1.103140798873071711e-02,1.394680887460708618e-01
7.751320377406175632e-01,7.648292972505625897e-01,6.053311349900201144e-01,-1.323828760224607208e-02,-1.353032386877275027e-02,-1.093651108454840939e-02,1.691829413175582886e-01
7.792570666342243380e-01,7.060839120875787023e-01,6.419123609403289965e-01,-5.449376554155622998e-03,3.160813864032709910e-04,-3.985082918903204430e-02,1.379187703132629395e-01
8.804705564909696136e-01,5.119319426935666772e-01,9.454169121800521935e-01,-1.256512300326956821e-01,2.108541519259941877e-02,5.125111436940091997e-02,4.696301519870758057e-01
8.049892934728660743e-01,4.531782489562764527e-01,1.031527400028096064e+00,-1.851000332105282586e-01,-2.068915369947550709e-02,-4.619480159885142739e-02,6.043684482574462891e-01
8.438593559131108979e-01,4.267022851301552344e-01,1.049217546820879532e+00,-2.667287524068876481e-01,-6.356681412808511122e-02,-3.905705807865653828e-02,7.293763756752014160e-01
6.702193171196597632e-01,7.376593766251182682e-01,7.559486563002781878e-01,5.622129248011446465e-03,5.859659694947875856e-03,-8.857605439768729411e-03,8.092769980430603027e-02
6.723579401201101868e-01,7.389966180039847510e-01,7.662394965674813596e-01,5.609321790781739148e-03,5.819471370895118977e-03,-1.264119109057266696e-02,8.759970963001251221e-02
6.545959863502659459e-01,7.325438598171444271e-01,7.334419984777331702e-01,6.782544869130764480e-03,1.025892063778137235e-02,-1.505050915014047828e-02,8.532282710075378418e-02
8.922885750636687652e-01,4.955787964455592998e-01,9.044025458187885391e-01,-1.075778358257503398e-01,3.025512666602473560e-02,8.861833363150173337e-02,4.726053774356842041e-01
7.145253512186965361e-01,7.250595292488341004e-01,7.128924858036422840e-01,-1.300348547681083209e-03,2.010070421840382156e-03,1.895016112535382507e-03,1.260171364992856979e-02
8.419790199576899781e-01,5.073303221381634254e-01,8.616767645087879401e-01,-8.739071082239228960e-02,1.779016233219895063e-02,1.914808614715361734e-02,3.793815970420837402e-01
6.997431103791834639e-01,6.913790555813210670e-01,7.352005780169500460e-01,-1.181213267875210436e-02,9.339018834130421998e-03,3.450474154810707038e-03,4.837051033973693848e-02
1.108077897841809323e+00,2.858523872971473478e-01,9.367825420118804924e-01,-1.454161347027865259e-01,1.266902964041906332e-01,1.431767931155599194e-01,8.588603734970092773e-01
6.249769971787212386e-01,8.696462699110967254e-01,8.389760179274985408e-01,-3.646651912933551731e-02,9.875230123026947082e-02,2.930868449287187677e-02,2.985332906246185303e-01
4.979014190014414698e-01,1.069566743553257204e+00,7.576437943575596856e-01,-9.029523719475461563e-02,2.671776275195545391e-01,6.886823879965513207e-02,7.061313390731811523e-01
8.259681300934696990e-01,5.441753640171828055e-01,7.489365064844454301e-01,2.760136687972660971e-02,2.400322127772012287e-02,1.599164460085203132e-01,3.799577057361602783e-01
6.855966793801752113e-01,8.912627889444182383e-01,7.770796201112548651e-01,-6.540518225745815817e-02,1.637318913502067430e-01,3.135912027011546199e-02,3.578558862209320068e-01
6.235774316556329522e-01,7.382929512871247990e-01,7.246440084410719074e-01,-3.847833716865040748e-02,5.783021979479254643e-02,3.360429262006751211e-02,1.721705347299575806e-01
7.019424163060722366e-01,7.173226304316540070e-01,7.182730446284191217e-01,-3.065254229303021778e-03,2.425994917584894245e-03,8.854906573856926449e-03,2.308990433812141418e-02
7.849793068369212978e-01,7.337211689012215210e-01,6.423632515240682572e-01,8.445643273501647619e-03,-3.993683422908961798e-03,1.231967083991237881e-02,1.279596090316772461e-01
6.667231819080120525e-01,7.620527879920016012e-01,7.779013701890549193e-01,-8.302625498760594913e-02,1.242489505377161463e-01,5.619234666308151049e-02,2.954927682876586914e-01
4.670465763936113568e-01,8.167054948897843891e-01,7.397375008272180086e-01,-2.850543597156876899e-02,1.352153138927471021e-01,1.352970189900718108e-02,3.988850414752960205e-01
6.616338263968977174e-01,7.631185415661411175e-01,7.324353538987289358e-01,-4.634241652334239459e-03,8.522441349838113731e-03,1.304352967443095541e-02,9.444287419319152832e-02
7.429638790609712773e-01,7.894300897161482533e-01,5.764864502199102958e-01,1.175381682162073005e-03,-4.844761826603971588e-02,2.461360808633680439e-02,2.155749648809432983e-01
6.959006575079687007e-01,7.523210150592333223e-01,6.861176308571711457e-01,-6.399767666694098148e-03,8.454944163082173461e-03,3.469631690209662792e-03,6.484112143516540527e-02
7.254717584816438025e-01,7.037237205555130215e-01,7.077685108104933009e-01,7.490371396671526363e-03,-9.587432187609164214e-03,1.007030797813571882e-02,3.390690311789512634e-02
5.950802405498322178e-01,8.739987395772881307e-01,6.870692171222579914e-01,-1.071296606966361253e-02,1.657469774940270313e-01,2.469693831588713404e-02,3.810385465621948242e-01
7.433419478030419691e-01,6.889035727280647947e-01,6.945480895611302330e-01,3.065208445117885948e-03,-8.826251745390322617e-03,9.473290723775609420e-03,5.673837661743164062e-02
7.370391223245443824e-01,6.977061898681991003e-01,7.095634632899001648e-01,3.164108241405762245e-03,-7.126628661418776822e-03,3.943508581162529641e-03,3.808343783020973206e-02
7.464986858626252442e-01,7.027449459602768123e-01,6.980221148863091640e-01,4.178057411078082810e-03,-1.870979218924733855e-03,1.970428701798328415e-03,4.709410294890403748e-02
6.805083495866666166e-01,7.523059401409568636e-01,7.061154736227627238e-01,2.764078305593384473e-03,4.794686217223209299e-03,-6.747026547830999900e-03,6.481160223484039307e-02
6.983372436702421915e-01,7.413232549787572845e-01,6.883510782019252039e-01,7.003554263129191555e-03,8.111234568011396751e-03,-1.822381343770027940e-03,5.226160213351249695e-02
8.157063453991199031e-01,7.827221710136460509e-01,5.664273571941627061e-01,-2.497823753192787797e-03,-1.631902500041500790e-03,2.517574822719399058e-02,2.386081963777542114e-01
6.669053892668396211e-01,7.689239018939740822e-01,7.124203990138867626e-01,6.582504113289010250e-02,-5.846754640678464982e-02,1.994774373956407013e-02,1.796772927045822144e-01
8.559459767482947568e-01,8.147961614522769569e-01,5.846625023924274522e-01,1.270234106021582085e-02,-3.838403709988866264e-02,1.459727490066624056e-01,3.646271228790283203e-01
6.392119428903167977e-01,7.710224386208465175e-01,7.295755838340398647e-01,1.590326734280547369e-03,1.209396083261272611e-02,-3.170476593873164817e-03,1.187655404210090637e-01
6.937586674202014247e-01,7.721049774046001568e-01,6.845540118902341264e-01,2.666835134894695886e-03,9.095612838996338864e-03,2.003501290070971996e-03,8.500346541404724121e-02
8.745658595554136605e-01,8.090135445456708707e-01,5.405398661024956031e-01,2.676386098040746050e-02,1.099155701318562349e-02,6.638762759858436724e-02,3.312213718891143799e-01
7.076012892259505582e-01,7.537922136077125357e-01,6.657751494452565089e-01,1.381771149778274720e-02,1.251614723149507315e-02,-5.356507456517082752e-03,8.332971483469009399e-02
7.075375596568643788e-01,7.285485225536009191e-01,7.056952875634850963e-01,-3.564443454341070013e-03,2.393016650583100230e-04,-6.977628894689738353e-04,2.287598326802253723e-02
7.718912194037780283e-01,8.030466261572213327e-01,5.920873421475743026e-01,1.126695809270604346e-03,1.536222464808053960e-02,3.808688913020700020e-03,1.991413533687591553e-01
7.150693759432119601e-01,7.118635147742534697e-01,7.077927072998395630e-01,-4.260126731278695081e-03,1.287398301764652257e-03,3.512853245957086104e-03,1.167639065533876419e-02
7.039422464679928604e-01,7.156889036143575522e-01,7.340550050946882399e-01,5.420897861997573189e-03,3.400021353624619637e-03,-1.180624442672910737e-02,3.510041162371635437e-02
7.160612536519578297e-01,7.120740713723796578e-01,7.132231201977629054e-01,-1.512450866987249173e-03,1.907258769932966991e-03,6.207629284960280731e-04,5.618535447865724564e-03
7.140378693821108902e-01,7.113962520002955481e-01,7.169471590862894761e-01,-1.324411830860842097e-03,2.460312577868908630e-03,7.407616313541171438e-04,6.942271720618009567e-03
7.172108994183356012e-01,6.927120344632372584e-01,7.213840082531014497e-01,3.235694457318788637e-03,1.010701242756596729e-02,-3.627559283617196820e-03,3.312382102012634277e-02
6.653915410912563111e-01,7.522435256519712787e-01,7.597628487236367523e-01,4.420226409107821941e-02,3.732159135357700219e-02,-2.504297905272165337e-02,1.420371532440185547e-01
7.146486653930487210e-01,7.407700883777763590e-01,6.786094141533922652e-01,1.310418978399091605e-02,6.439962552921157241e-03,-6.696628648506930057e-03,6.080021336674690247e-02
7.162337492090508073e-01,7.166943289058779198e-01,7.139990470033797942e-01,7.069416934572108120e-07,1.316741576843222022e-03,1.631226122425734641e-03,4.406746011227369308e-03
7.122498708507971621e-01,7.173958767946720938e-01,7.156812573635132901e-01,-4.062389748915263589e-03,4.046472388736183610e-03,2.942463566559238956e-03,1.205001957714557648e-02
7.141945165671063078e-01,7.136984477199732613e-01,7.155336629745148169e-01,-2.719565420528356238e-04,1.000148603744920126e-03,-1.785376802580546270e-04,2.453997964039444923e-03
8.172052486402814342e-01,5.139564608392510614e-01,7.911102656320516680e-01,3.585660247085618174e-02,1.275785037336538141e-02,-3.519417259430453887e-02,3.046124875545501709e-01
8.206094027272295977e-01,4.772351150450297452e-01,8.300637954033607269e-01,8.446649598316040286e-02,-2.074117394718574814e-02,-2.580391082374530395e-02,3.820125162601470947e-01
8.171466569005558789e-01,5.081000480032562550e-01,8.038535890031353048e-01,5.506539338981022297e-02,-2.158511546988892485e-02,4.868024581619385949e-02,3.304269611835479736e-01
8.341855901227235304e-01,4.812482686998035275e-01,8.265274980219873280e-01,5.957571122074362124e-02,-1.009498337513259521e-02,-7.512882264646440766e-02,3.870492279529571533e-01
6.457448491553489101e-01,7.518511098559956807e-01,8.296101850218581264e-01,8.305394614367452022e-02,1.907179953728271220e-03,6.442176681139792117e-03,2.153718322515487671e-01
7.098158661476574594e-01,7.217414936089151523e-01,7.078639546888575440e-01,-2.069997396816426576e-03,1.651821221876092300e-03,4.566339821081501389e-03,1.590292155742645264e-02
7.070737964075284321e-01,7.065183333027764689e-01,7.195246099546315222e-01,-1.244291637690519113e-03,1.974237818129291090e-03,4.615302663089604872e-03,1.557202450931072235e-02
7.053999585509911352e-01,7.228397089379650087e-01,7.032076110825969950e-01,-1.101736596587664721e-02,1.101000581045393292e-02,1.016859173637723809e-02,3.721819072961807251e-02
6.817899327381867769e-01,7.358300860795036202e-01,7.179125455214081519e-01,-4.534109860930686693e-03,6.892145669318347836e-03,8.968361745492920215e-03,5.214003846049308777e-02
7.035977866291187599e-01,7.230799374830411130e-01,7.217953472324400988e-01,-3.060181807014833357e-03,2.421979467526462308e-03,5.829322302262899234e-03,2.244577556848526001e-02
7.039417932430882541e-01,7.037661047184261554e-01,7.330545507401491356e-01,-6.874216362581125547e-03,9.105361986027696308e-03,5.820692876031333118e-03,3.667188435792922974e-02
7.441696608018113501e-01,6.985626212158835280e-01,7.014758971008772104e-01,-1.244057299451850921e-03,4.349196715508002291e-03,2.087112124717903448e-03,4.505642130970954895e-02
7.072687499026100166e-01,7.130306975454436813e-01,7.221309840681657821e-01,-9.115948824819039911e-03,1.092280437975553034e-02,1.061571707070615121e-02,3.337297588586807251e-02
7.108656879049138899e-01,7.135947896464077678e-01,7.166938827596510686e-01,-1.591510993265820477e-03,2.306816554187090910e-03,4.897085898556624746e-03,1.100079063326120377e-02
7.276190741206678414e-01,7.067843871598171734e-01,7.023440572466858045e-01,-8.296745085004523720e-03,5.330422524340555808e-03,6.660491988915223302e-03,3.116325102746486664e-02
6.954329938630069430e-01,7.363959435420885935e-01,7.073662888569252072e-01,-4.384614778453630769e-03,4.513566105391103069e-03,9.075176696481977029e-03,4.119965806603431702e-02
7.005283083866993277e-01,7.365765690259162835e-01,7.012664636595618006e-01,-5.110547638788914132e-03,1.261803770833334589e-03,1.328794492561585815e-03,3.690310940146446228e-02
6.823183611672297699e-01,7.750527714714471328e-01,7.195409065265012671e-01,-1.529245174245028559e-02,2.882869393697821275e-02,1.388114226551768852e-02,1.015199199318885803e-01
7.119973367284569976e-01,7.351054969217939439e-01,6.960700974498035265e-01,-1.189881308287817074e-02,6.167253328285886467e-03,3.894650714214036372e-03,4.171412810683250427e-02
6.985434288081489029e-01,7.463201298101145298e-01,7.003062783320871398e-01,-6.824413503891485488e-03,1.305583030843297278e-02,1.003724573178995869e-02,5.616777017712593079e-02
6.947148553563440299e-01,7.677980607722473261e-01,6.954999256377920602e-01,-3.749793590818458356e-03,1.512552699234922561e-02,3.154276761054998230e-03,7.773526757955551147e-02
6.851311968888564863e-01,7.592285853172620058e-01,7.088385427496018965e-01,-2.731930013377869594e-03,5.485993821756227941e-03,9.665893141388636964e-03,6.847463548183441162e-02
6.898327799147987438e-01,7.438217092814556342e-01,6.995525705977249098e-01,-3.997515251479755519e-03,6.358765627417351310e-03,8.348787797639601813e-03,5.350576341152191162e-02
6.937649615371442868e-01,7.525258586543509542e-01,6.948922387865249517e-01,-2.023297465428486840e-03,1.833613295726129995e-03,3.605643445204113114e-03,5.873025953769683838e-02
7.054419892657333158e-01,7.791936740310539955e-01,6.400337568391601950e-01,-7.439478323291709612e-03,1.811747517001011457e-02,5.426810802020283313e-03,1.256209909915924072e-01
6.880425619262319215e-01,7.524440647838207541e-01,7.001130535579808134e-01,-4.412659965846218307e-03,5.103941739237254603e-03,7.723991764116489196e-03,6.189861148595809937e-02
7.374990069682793026e-01,7.019863056707886795e-01,7.145519642516328096e-01,4.208394545323588219e-03,1.030164988621254558e-02,-3.644949455293808923e-03,3.720440715551376343e-02
6.891236063273116219e-01,7.662856847474475153e-01,6.934521915231838252e-01,-5.764886590810107967e-04,2.221139319755103484e-03,5.627601907562065518e-04,7.520284503698348999e-02
7.731498537995570297e-01,6.914029458834702879e-01,7.199510489533126334e-01,1.124050620523717181e-02,1.214635636695490448e-02,-2.992589352337785349e-02,9.312441945075988770e-02
6.763210120287265203e-01,7.754363557182933908e-01,7.073938924423559538e-01,8.180099407410659600e-04,5.982886586689737350e-03,1.981575431658506858e-03,8.849151432514190674e-02
7.639624321801576912e-01,6.542596684206430924e-01,7.023394220536222088e-01,3.972248325129862541e-03,8.227792424420119974e-03,-2.028158072790155197e-02,1.027440056204795837e-01
6.897445121779414157e-01,7.669141399732364306e-01,6.966767260315784860e-01,8.511087758351471542e-04,2.488125143558229425e-03,-3.083946416519639695e-03,7.428006827831268311e-02
6.739595313944072297e-01,7.734738394618489998e-01,7.085514675470876433e-01,2.638102740702416311e-03,5.444526975475391314e-03,-5.615549659990849360e-03,8.866632729768753052e-02
6.717956434738802107e-01,7.652446586062355838e-01,7.048094210817836824e-01,1.104391760973693270e-03,5.864381498827243508e-03,-1.700408005932325635e-03,8.278302103281021118e-02
8.076598561082359851e-01,7.731819378359040540e-01,6.722932469581637260e-01,3.507853410405274708e-02,5.469995073067634994e-02,-7.379009009041090361e-02,2.094000577926635742e-01
6.788338250486301018e-01,7.616325626103909174e-01,6.751309878718824153e-01,9.246598200301728299e-03,2.628207924381171373e-02,-7.776889865544464597e-03,9.841805696487426758e-02
6.978281269902797401e-01,7.548380219788063394e-01,7.036295315432888886e-01,2.261642659797479145e-03,1.700860148545985410e-03,-5.160860063075032797e-03,5.528990924358367920e-02
7.547588458830960523e-01,6.657831361901961342e-01,7.055683337987991299e-01,6.152873274938271478e-03,1.236733614356813095e-02,-1.799608432837512123e-02,8.662347495555877686e-02
7.305921456741574227e-01,6.668248127760194599e-01,6.981198365924076166e-01,1.430140973025941301e-02,2.112133437407026290e-02,-1.896119320850394446e-02,7.797791063785552979e-02
6.919256713951555948e-01,7.443653512581650533e-01,6.992795977934854745e-01,3.678964619507406157e-03,-6.701353188217874617e-03,8.299885699205552733e-03,5.291838943958282471e-02
6.826467269173907004e-01,7.575277678511272983e-01,7.127112553778549575e-01,3.554386320467252218e-03,3.663749392472057456e-03,-1.060772496036898466e-02,6.837780773639678955e-02
7.024640772428458746e-01,7.462038617277632069e-01,6.993279759549937413e-01,5.052677047359998078e-03,-1.844211338611686547e-03,1.969669804864329545e-03,4.646081104874610901e-02
7.032943843446197718e-01,7.366349178860046587e-01,7.101686152967365828e-01,1.884806224575117121e-03,6.353431272013903902e-04,-4.600757057693550915e-03,3.170213103294372559e-02
7.041897885786471134e-01,7.110760043270009101e-01,7.490300510681042745e-01,1.731912722679600572e-02,1.652257375702750192e-02,-7.287126797840947495e-03,6.022822484374046326e-02
6.959594559104000933e-01,7.355634828485633214e-01,7.113141385043236786e-01,3.026153118752424737e-03,4.507221003150971295e-03,-8.834519023874621776e-03,3.897053003311157227e-02
7.130945389249604416e-01,7.302004431102468995e-01,7.047750991686162481e-01,7.807584299515128202e-03,-1.981304894985285239e-03,2.827043260481566442e-03,2.688428759574890137e-02
7.009496850929325396e-01,7.217165561145940655e-01,7.111972286374509400e-01,3.151973493465510829e-03,-3.737416957687893747e-03,6.588159307544559813e-03,2.292131818830966949e-02
7.033882899866450433e-01,7.378486759609084178e-01,7.090609688311545478e-01,2.464367069368348599e-03,-2.539630511499962363e-03,1.741162367327231874e-03,3.272427618503570557e-02
7.054377374822121682e-01,7.270548179464381144e-01,7.075351111014737127e-01,1.421610056085568065e-03,-1.005837618202090307e-03,3.814097287435271565e-03,2.188831008970737457e-02
7.993984655659361893e-01,5.815331797672567138e-01,7.704442964731704757e-01,2.740142197765693677e-02,3.692333302599267158e-03,-1.597343689880236992e-02,2.122601866722106934e-01
7.114996480978209581e-01,7.230757606415646466e-01,7.517594784216224957e-01,2.308682706635137652e-02,1.250268635566010970e-02,-1.358093375246345429e-02,6.253071129322052002e-02
7.454708483696361743e-01,6.397895531772960220e-01,7.598179553649223594e-01,1.552232746755750903e-02,1.623069773726202453e-02,-8.034548633345999641e-03,1.208196729421615601e-01
7.146690834536648662e-01,7.228185205135335689e-01,7.114651275765965233e-01,3.512033957776391959e-03,4.852450450466816965e-04,-1.328207488189423434e-03,1.207439601421356201e-02
7.006388961075298294e-01,7.170956804710081345e-01,7.228136184400757447e-01,3.552290783494372727e-03,4.130571612422779572e-03,-7.562679111309221491e-03,2.565624564886093140e-02
6.973022680962823738e-01,6.962919087223717884e-01,7.464968795562104686e-01,-1.371259199404952119e-02,-9.685391234325898754e-03,-9.347352291496538457e-03,5.982039496302604675e-02
7.219010054362822171e-01,6.896991798345938340e-01,7.345695810422007144e-01,2.325907137166818861e-04,1.290790736760728981e-02,6.101357013848410227e-03,4.708594083786010742e-02
6.518502968964117184e-01,8.620380507755518451e-01,3.442654320866139761e-01,1.023776652598371029e-01,-3.095527174651072633e-01,1.295710116268547207e-01,7.567800879478454590e-01
5.950151756861231656e-01,7.684501326543973221e-01,7.936653758828896565e-01,1.275833979383640161e-02,1.666376468669015284e-03,-1.511992710252773025e-03,1.886589825153350830e-01
6.665097550488373601e-01,7.448995344823389209e-01,7.166091376967906879e-01,2.777676037224331013e-02,-3.089775958610189652e-02,2.703812394256874252e-02,1.099975779652595520e-01
7.398780154506895412e-01,3.911376767404721733e-01,1.048606656862093978e+00,2.188826288872380843e-01,3.538611791053972860e-02,-1.532166765046995838e-01,7.365532517433166504e-01
7.331422588500386972e-01,6.438312199157751881e-01,7.882369951285642662e-01,8.505209240817108995e-03,1.995491177982903434e-03,-6.022261078365153016e-04,1.271318644285202026e-01
5.536215137208801984e-01,7.917922722718727657e-01,7.895438097541170874e-01,-8.005221986486517338e-03,-5.912595827205443556e-03,-3.316744377621738942e-03,2.377498149871826172e-01
7.229270024818588158e-01,7.014366592124691158e-01,7.237114655563504639e-01,2.547799287280335702e-03,-5.925894154106843732e-03,4.138816855808079807e-03,2.560313604772090912e-02
6.833062323897443058e-01,5.504462403885940214e-01,7.500779862435901224e-01,1.110166995485256519e-01,6.146372527111162998e-02,-7.070376839912277667e-02,3.070604205131530762e-01
1.034543798287741456e+00,3.047404498402429551e-01,8.354289157658039144e-01,5.169229907185218104e-02,9.246445934319046100e-02,2.001815486042970715e-01,7.621208429336547852e-01
9.132103643791216196e-01,2.974957428083779276e-01,1.074027937579686398e+00,5.574257739602146884e-03,-6.726904320297361073e-02,1.420518640844565805e-01,7.603875994682312012e-01
8.066850728521769431e-01,7.881046893063375913e-01,5.582295058284054701e-01,-1.743867231527919143e-05,-4.892546269216825269e-03,-3.320119795465280993e-02,2.466531395912170410e-01
8.328072905846561902e-01,8.159377853614877552e-01,3.026407628767330271e-01,2.900745127733942580e-02,-1.037359307704303762e-01,1.621449401512242428e-01,6.213679909706115723e-01
7.312165840620259427e-01,6.463638875326462863e-01,7.577741836331444159e-01,-1.280456598431330660e-02,1.066699504148813267e-02,3.026798809288321502e-03,1.049737110733985901e-01
7.306094599884294105e-01,7.035702546544251312e-01,7.147558363566864914e-01,-3.343160656620860951e-03,9.195302097649500281e-03,5.390457004823964553e-03,3.046553209424018860e-02
7.921156585562870722e-01,7.641976096477981484e-01,6.037221063052502501e-01,-2.894077765292555563e-03,-1.070953838411841611e-03,-1.318047465827156504e-02,1.776561588048934937e-01
6.616314634409463658e-01,7.628595435512368628e-01,7.349521961927137914e-01,4.183832339783245986e-03,-8.144511819437611627e-03,1.238309501489725552e-02,9.440589696168899536e-02
5.929742757016551735e-01,9.438415937269868383e-01,1.088773313725678538e+00,-3.357595662621882804e-01,-7.721157851648345616e-02,-5.967796691093016359e-02,7.494915723800659180e-01
2.836012391022028623e-01,8.605319992970603682e-01,8.113619319465120716e-01,-1.213126525425054780e-01,1.421789865383370766e-01,2.621019635052669605e-02,6.432378292083740234e-01
8.545876822077358437e-01,5.803580237278860299e-01,1.159356985417706154e+00,3.752266779863684953e-01,-2.274528737194707328e-02,2.061032665438382316e-02,8.227238655090332031e-01
7.709406655116645135e-01,6.384340404979521599e-01,7.403692448530559966e-01,-2.258107714012845199e-02,1.984045276098816632e-02,2.903697755326529323e-02,1.402917802333831787e-01
6.761903135967803902e-01,6.960364062757895542e-01,8.187493113044289617e-01,9.252586082932391653e-02,2.997964022902113029e-03,-1.040932855511015644e-02,2.095777392387390137e-01
7.880749700953639802e-01,4.380070267708497389e-01,8.491867007162496872e-01,1.435616898137301034e-01,-9.395842048869519625e-02,2.186763727886860686e-01,6.159934997558593750e-01
5.632879607939926814e-01,9.072176427395640674e-01,8.791872050498941160e-01,6.579845605336971659e-02,6.153449168250971907e-02,-8.449544734229265733e-03,3.660530149936676025e-01
9.225250068489376787e-01,3.486429558485857338e-01,1.173838840609364498e+00,6.747630833306993148e-02,4.352017160012890823e-02,-1.105856489668820275e-01,7.699041962623596191e-01
5.491111627986915433e-01,7.955315015487229857e-01,7.934941329061463433e-01,-6.224828712271168220e-03,2.894783471343189037e-03,4.735015075311728287e-04,2.456972599029541016e-01
8.471361101010204120e-01,8.650421704750421714e-01,9.032501286297042187e-01,-2.582381309059508245e-01,2.184480915658549849e-01,2.421187994835390378e-01,7.221832871437072754e-01
7.402043368992438088e-01,6.589512251314620928e-01,7.630555523200611701e-01,-1.471258065048472972e-02,1.380784406755755471e-02,7.443011952565824207e-03,1.018259450793266296e-01
7.364418192338402225e-01,6.423948252180211593e-01,7.849228321877824710e-01,-9.984809621101566751e-03,-3.065213783912752211e-03,6.090029488846069233e-05,1.268149316310882568e-01
7.101449306322660249e-01,7.036208635798096855e-01,7.200588622745721645e-01,-4.777291136788368309e-03,5.488446448578837393e-03,2.593233410735096452e-03,1.960968784987926483e-02
7.383075531882139497e-01,4.251067838461649595e-01,8.488999452436352122e-01,2.058333582027845610e-01,8.235497950319418947e-02,-1.499105419544571050e-01,5.998597145080566406e-01
8.035772874516174946e-01,4.875734909925817928e-01,1.125898651098825587e+00,2.353302916552863777e-01,-4.402465490656532615e-02,5.642216429191570376e-02,6.979327797889709473e-01
7.962846354320601838e-01,7.656484920334006850e-01,5.971416352437043384e-01,7.101354345145228196e-03,4.442732219934792184e-03,-1.288809386152373407e-02,1.876282095909118652e-01
7.700947001199943687e-01,6.982074444013930403e-01,6.538901165173575114e-01,1.438903833183308861e-02,2.371688391345109018e-02,-5.035463145992426226e-02,1.422428339719772339e-01
7.619575994929821405e-01,7.002408694927593213e-01,6.901697062109716230e-01,-5.393235876693318331e-03,-4.129640559625563298e-03,-1.252876284167777840e-02,7.170268148183822632e-02
6.744627089281040044e-01,9.758813018873138123e-01,9.805552279663001247e-01,-3.160802788678837572e-01,2.414757716629729600e-01,1.599288912882178837e-01,8.022888898849487305e-01
7.862636479015894242e-01,5.618194682441856047e-01,7.918472633273280215e-01,-1.786347687713320601e-02,-2.067745265774290769e-03,-3.990109660263570744e-03,2.295157462358474731e-01
7.336442725375645901e-01,7.131700230056394751e-01,6.636114354844634411e-01,2.076381671244074620e-02,1.669303417494586925e-02,-1.414962787134012301e-02,8.136301487684249878e-02
7.666550568721455239e-01,6.887684522632145923e-01,6.948514556740269521e-01,2.608401751342283846e-04,7.772505680986290660e-04,-1.932559896796118195e-03,7.511832565069198608e-02
5.427797028732465057e-01,7.886148280682664380e-01,7.915535508254026853e-01,-1.033469238406189289e-03,-5.944261972189933754e-03,-1.761258736977987889e-03,2.475570589303970337e-01
7.625418033163509079e-01,6.925408019191815479e-01,6.895778069953150125e-01,9.504202199533917607e-04,7.601958627511722294e-04,-2.229798459279449391e-03,7.166373729705810547e-02
6.943938211832570984e-01,6.932357491499457902e-01,7.548291945428019512e-01,-2.350956295268255124e-03,4.385997844664467696e-03,1.925952254628758489e-03,6.171858683228492737e-02
7.884701292167060060e-01,5.865902557076184687e-01,8.004170195174112878e-01,5.935936836540059436e-02,-4.199566446383031296e-03,-5.377666887319658418e-03,2.324227094650268555e-01
8.375389311264066494e-01,8.359116473230613353e-01,5.088649858254107317e-01,-6.100839894594284329e-03,9.003738616867219477e-03,-8.888644848075147320e-02,3.627004623413085938e-01
3.265434443380208496e-01,8.232198018561966979e-01,8.573444091212732987e-01,-1.837377372548811838e-01,9.698528310456377977e-02,5.668711920757005251e-02,6.355612874031066895e-01
7.660182952174284798e-01,6.974355916523439225e-01,6.910940251948272106e-01,3.681972657794169764e-03,7.279761048221732641e-04,-2.278002909394009207e-03,7.236403226852416992e-02
7.653125076119877690e-01,6.879334947520652221e-01,6.877496354603073181e-01,7.878349451008891027e-04,1.355016360427885357e-03,-4.424344550462918496e-03,7.789651304483413696e-02
7.731081683606600974e-01,6.778788396198444088e-01,7.041164818574858764e-01,-4.560732190116891373e-04,1.947710597377976145e-03,-5.798612078047199643e-03,8.585640788078308105e-02
7.637976767538231515e-01,6.981185339097443210e-01,6.911910784592355528e-01,-1.084924288928187713e-03,-2.032802443723626964e-04,-5.001022472351029750e-03,6.996724009513854980e-02
6.824619782773548859e-01,5.747002411437315272e-01,9.961841357086187454e-01,2.943153455219435499e-01,-2.260208151503807078e-02,-1.594332434504963369e-01,6.938987374305725098e-01
7.943492332632615671e-01,6.101271680348193671e-01,8.437100638825481003e-01,-2.080767144027952931e-01,2.439215587704166022e-01,2.098207973191132947e-01,6.970816850662231445e-01
6.918068497982322596e-01,7.234649405902811026e-01,7.701954899049275882e-01,2.877159960398815650e-02,-1.675012695442564675e-02,1.701726909101445445e-02,9.412362426519393921e-02
4.134885566097092902e-01,7.127505906304425487e-01,8.214068818009189199e-01,-2.045659578104457865e-01,-1.364044055608666373e-01,-6.280277214440012357e-02,5.719032883644104004e-01
7.415423198590447296e-01,6.972965417269323396e-01,8.845606979986613272e-01,1.668877353560210275e-01,3.707266623901569330e-02,-4.677588093400269348e-02,3.506872653961181641e-01
4.988346378399208803e-01,7.183225420035240782e-01,8.253866348559319999e-01,1.312872899709784380e-01,1.899311735650884014e-02,-8.437160831519152984e-03,3.689739406108856201e-01
7.539645596918126413e-01,7.113364387404713662e-01,6.808821146693994075e-01,-8.053758307730606025e-03,-7.497419359729591342e-04,-5.143005201113497356e-03,6.571499258279800415e-02
5.436740331145334393e-01,7.687470031911801671e-01,8.076787554195051788e-01,-2.157792474509268310e-01,-2.171382628220062116e-01,-1.266348186278010990e-01,6.246393322944641113e-01
7.397960808129664390e-01,6.862879394407445099e-01,7.135683012097003841e-01,-5.621896204588246009e-03,-1.072311632199432832e-02,-4.385417133103755409e-03,5.143040418624877930e-02
7.743087035637321591e-01,6.752315298773006180e-01,6.732635970213781684e-01,-7.601157403729901928e-05,3.786055713693827103e-03,-2.504947646086038565e-02,1.092729866504669189e-01
8.902235662116652071e-01,7.302405451880265019e-01,7.133533124683157922e-01,-5.438129408172791973e-02,-5.574465342463962719e-02,-1.545352552521239153e-01,3.441209495067596436e-01
8.516573612973528107e-01,4.233138511340667764e-01,7.089545870456015475e-01,1.006646420856511376e-01,6.413134420748725639e-02,-2.627486400041625925e-01,6.265505552291870117e-01
9.076291035216431657e-01,9.230766786378648003e-01,4.134697897665922106e-01,1.657099451238547849e-01,-2.629933298242704276e-01,1.384259432428898706e-01,7.742264866828918457e-01
6.551304143140788128e-01,7.737127298533815756e-01,9.352751071312384035e-01,1.529847964058152210e-01,-7.814620368049213922e-03,9.511897868968033007e-03,3.605416417121887207e-01
6.771961295018583682e-01,6.841257731779769591e-01,5.299279690956166800e-01,2.143357655637390946e-01,-2.515806872817025197e-01,2.932313194384123523e-01,7.800052762031555176e-01
7.053795754880509694e-01,7.575471671375276772e-01,6.754331003937945610e-01,-1.669761633916643645e-02,-1.953523568892074486e-02,-1.021708618506664279e-02,8.645784109830856323e-02
7.316105603161844328e-01,6.390872633324744534e-01,7.731447203746094621e-01,1.078531369107967389e-02,-9.102311087291280189e-03,1.363013333902501727e-03,1.213738992810249329e-01
7.286895818200999075e-01,7.022995323549897639e-01,7.094611331503105633e-01,4.915183034252540092e-03,-7.123835689247157849e-03,5.534380952413994227e-03,2.958615496754646301e-02
7.060197538895944813e-01,7.316506662439379305e-01,7.112415180071476328e-01,7.309092870492163267e-03,-6.932578143057002880e-03,7.462780990633274651e-03,3.196719661355018616e-02
8.691095144232915404e-01,4.943315253693124633e-01,8.707496781964274568e-01,1.082507434828118842e-01,2.090136309882209553e-02,-1.558744484664684356e-02,4.222204387187957764e-01
5.086891158612569797e-01,8.306133615522124369e-01,8.225757199434796663e-01,-2.214114153656753653e-02,6.936425841469662235e-02,2.003242004772184254e-02,3.438329398632049561e-01
6.681145634212020123e-01,4.440252854424356910e-01,8.855207131239648533e-01,2.792476274240544010e-01,3.650584786962918910e-02,-4.706688921297196015e-02,6.251251697540283203e-01
8.197141584692246852e-01,5.983212521577795373e-01,7.283277047615167588e-01,1.031413051023209043e-01,-3.912655402079565081e-02,1.468490609524527035e-01,3.719341158866882324e-01
1.106895480944054988e+00,3.114916928480169211e-01,1.065990353804064483e+00,-3.022035734487914238e-02,-1.856663170610256541e-03,1.503911478893971421e-01,8.200042247772216797e-01
7.473250996716667149e-01,7.014969372340320586e-01,7.214111416248569775e-01,-1.633818954447923896e-02,1.511119519370251671e-02,2.028505057294884353e-02,6.560844928026199341e-02
6.599293537484700600e-01,6.719138628663683388e-01,7.672463868066341508e-01,3.455099792483668636e-02,-1.770329244333317641e-03,3.656480075897634244e-03,1.183438152074813843e-01
8.520710622342416718e-01,4.346640524259579030e-01,8.416885359938286459e-01,-1.472456736059427583e-02,4.325450370763887775e-02,6.290027819872714976e-02,4.337456524372100830e-01
1.072667910503535493e+00,3.736929525219797044e-01,1.071927456636544651e+00,-9.491054412221133774e-02,5.894846197874025785e-03,1.363956208628192557e-01,7.556378245353698730e-01
7.538721234585693542e-01,6.993966901807436853e-01,6.888569362897082327e-01,-7.706907688738861770e-03,3.457471733167929301e-03,6.056915211236846112e-03,6.306288391351699829e-02
1.148940530854933861e+00,4.108319300010261910e-01,1.155170693510852331e+00,1.400690550793917688e-01,-1.086511729769432805e-02,7.460604688411140439e-02,7.907920479774475098e-01
5.566905808766016150e-01,7.982465113436790771e-01,7.987952301952261358e-01,-6.853016323901205305e-03,-3.966687885833763971e-03,2.041098671587044961e-03,2.422451376914978027e-01
7.337210030028018526e-01,7.575148360171609641e-01,6.589975383086648097e-01,1.037295591791146179e-02,-8.413267214677340455e-03,5.206309653115248626e-03,9.243462979793548584e-02
1.064398885918540483e+00,3.127517822105281842e-01,9.537503849503451425e-01,1.368625497047367412e-01,-8.657910231022142300e-02,-1.126090400878793259e-02,7.570403814315795898e-01
8.120884619565081897e-01,7.173922070214924229e-01,5.622050800173667984e-01,-2.271738090708069063e-02,-4.563082006888854493e-03,9.998869302559530714e-02,2.816912829875946045e-01
7.343580193677984314e-01,6.630522215932720398e-01,7.637190323630803634e-01,9.434554352206222030e-03,-1.084035454143344492e-02,3.485357481488810319e-03,9.325347840785980225e-02
1.112230016987454606e+00,4.015650091122859311e-01,1.137222466872760851e+00,1.486032949065945741e-01,-4.828578918268174730e-02,7.057573237300390767e-02,7.820593118667602539e-01
7.736922033975133228e-01,6.925808517610245740e-01,7.189717186929029946e-01,-1.722023651610947448e-02,1.203587431701111030e-02,2.921831126908368964e-02,9.497502446174621582e-02
7.596568342196613477e-01,6.505409570491287319e-01,6.905544872749148633e-01,-2.877278025422326524e-02,2.346470490734287040e-02,5.203921192887724090e-02,1.462903916835784912e-01
8.653897205022375028e-01,2.632455095206042706e-01,8.521035059391848243e-01,6.203933179319899571e-02,5.358784033800738367e-03,1.019386563077992469e-01,6.305245757102966309e-01
7.508009226934446723e-01,7.873226905739212356e-01,6.561983631272276796e-01,-1.069571250827482112e-02,-4.974792994679936436e-02,-3.394773645346726293e-02,1.579988896846771240e-01
7.716470526414030973e-01,8.838877847215033112e-01,6.402121886707266007e-01,2.889769924110754395e-01,-2.921807188367768759e-01,1.874684329186114828e-01,8.103644251823425293e-01
6.685219154348164272e-01,7.047804058094793156e-01,7.310925836928756638e-01,-1.888362424418683558e-02,-1.094122765510980970e-02,-2.242730571530318975e-02,7.680433243513107300e-02
7.869151620288838966e-01,5.721962573553611708e-01,7.911029017600050839e-01,2.218881186870274094e-02,-7.137928925633934933e-03,6.903932698581453746e-03,2.208932042121887207e-01
7.346550308569004262e-01,7.736318807343437465e-01,6.350892283830210649e-01,-6.028203119863899395e-03,-1.274842725589182824e-02,-2.218367262613055169e-03,1.261929273605346680e-01
6.945943825905629421e-01,7.632589431977049310e-01,6.929172017369836789e-01,-4.415376882847219528e-04,-1.835428655771015674e-03,-8.644674221510162404e-04,6.961128115653991699e-02
4.663945784979877107e-01,8.508056145977445084e-01,7.756583211096241826e-01,1.927534797103231945e-01,-2.339647271596154710e-01,6.090359117385541615e-02,6.413574814796447754e-01
6.883856922477235019e-01,7.593147226942531525e-01,6.810012892760920478e-01,3.708962743488238532e-03,-8.087519123024586656e-03,1.259464705233514668e-03,7.649494707584381104e-02
1.106681333440024728e+00,1.006592041307305063e+00,4.146533352317961496e-01,3.135962318507536789e-02,-2.755248292450912517e-02,2.569262536287960641e-01,7.892509102821350098e-01
6.762535854456352968e-01,7.177599469947303357e-01,7.407926194836143008e-01,1.052090463287983814e-02,-4.651929339821781785e-03,1.634230274113699158e-02,6.638890504837036133e-02
8.967032228070431765e-01,5.383948867464313226e-01,9.188365501633593002e-01,8.564568963372323762e-02,-3.632609405749490615e-03,1.526791124210749757e-02,3.994368314743041992e-01
7.688460088056393582e-01,2.513407052448249357e-01,8.645427365832568656e-01,2.190807662325275906e-01,-2.421444828554504547e-02,5.852887503719342993e-02,6.946353316307067871e-01
9.175210187407322193e-01,5.024922987313418243e-01,9.171782361483915569e-01,1.952727303872655099e-02,1.648110810227127951e-03,3.946659610509751365e-02,4.218194186687469482e-01
7.503760874020359850e-01,7.036395464721685311e-01,9.229397180748877272e-01,1.673774293830467275e-01,1.389692772636327671e-02,-1.920340235293840903e-02,3.546249270439147949e-01
1.093387346756751199e+00,1.072052337264413069e+00,3.941179958395548688e-01,3.728337122755337463e-02,-8.627649707900339471e-02,1.710415687441921295e-01,7.673203945159912109e-01
6.885668008130557682e-01,6.967368241670262030e-01,7.437104493798312177e-01,8.637233857361524894e-03,-3.469867644732495433e-03,1.014604424126425673e-02,5.679611116647720337e-02
7.347277008868987602e-01,7.586563918725677258e-01,6.591599077084048242e-01,-1.272493757528867647e-02,-7.988015097135809164e-03,-4.529708382803032674e-03,9.396842122077941895e-02
8.134204153509057011e-01,4.665548123751798726e-01,8.990592410653168720e-01,4.609236424059887094e-02,9.526118097575963020e-03,3.962265881893838049e-02,4.107438921928405762e-01
6.121902171320163788e-01,8.329287316794274920e-01,8.728899178477144138e-01,-9.377614370012042622e-02,-6.808835677225774652e-02,-2.808948272710963881e-02,3.190617263317108154e-01
7.464076206321714757e-01,7.468567775492079841e-01,6.737618892172729801e-01,2.121522583554000946e-02,-2.361923271038143118e-02,2.517145713918823163e-02,1.011676937341690063e-01
7.972044853026007960e-01,7.031875621871215287e-01,6.992782754775646037e-01,7.301099393527760856e-03,1.424379075861488889e-02,-8.145133912202155713e-02,1.728974878787994385e-01
5.453130307939553223e-01,7.671558083110820991e-01,7.565532155456572427e-01,-6.386454729623958215e-02,-7.491104305613489889e-02,-2.836658478004708273e-02,2.801063060760498047e-01
9.294296808700035495e-01,4.524295447177053564e-01,8.349900043716161901e-01,-2.379862665603147964e-01,-1.326133708544542933e-01,-1.366661049532011951e-01,6.856415867805480957e-01
6.888734388198576308e-01,6.800890005824954399e-01,7.621393919752925683e-01,1.045349791216534409e-02,-3.696812345486345970e-03,1.514128711495413152e-03,8.040130883455276489e-02
6.867446081345098818e-01,6.892517958814858847e-01,7.625935643378134454e-01,-1.171888938519818381e-02,-5.344563064057917048e-03,-1.859137999061477933e-03,7.795666903257369995e-02
5.946462501986155003e-01,7.603387377012674753e-01,7.836493649903700787e-01,-1.369205990364098617e-02,-4.053897992684283615e-03,-7.142986885747472370e-03,1.806227266788482666e-01
5.972884011267020066e-01,7.649776558705995155e-01,7.927734696926405089e-01,-1.312208749303585276e-02,-2.474345912554022555e-03,-2.514233771643485053e-03,1.846814900636672974e-01
7.707381488979976325e-01,5.814932083280375252e-01,7.725815214537965492e-01,-1.779310564928455324e-02,2.013785802428401731e-02,1.822542043712408605e-02,1.983148455619812012e-01
6.415585073401310900e-01,7.283088248082364435e-01,7.392934837118687597e-01,-1.927625639778462671e-02,-1.861766098436811595e-02,-2.183567392998031140e-02,1.103819161653518677e-01
6.341862812439145181e-01,1.025694821734553619e+00,9.260368719376639302e-01,-2.318870180476548248e-01,-2.509818989717442217e-01,-1.187029808406342146e-01,7.188569903373718262e-01
6.132369304933752430e-01,7.630097692668245113e-01,7.691073884101863323e-01,-7.492746431295121967e-02,-6.121957221032701957e-02,-2.593893641211008141e-02,2.312719374895095825e-01
7.393879454283566188e-01,6.894307289777100722e-01,6.973326576788871911e-01,5.549528067139589647e-03,1.053950354337753262e-02,-6.627968818014549034e-03,5.216158181428909302e-02
7.958247004126272062e-01,8.095202858871523022e-01,7.455171349703201278e-01,-8.762309769085711852e-02,-1.128648145498814953e-01,-8.794040613722298172e-02,2.964064478874206543e-01
8.450221717444408309e-01,8.178048727381178606e-01,4.902271722263346621e-01,2.717786100142681460e-02,1.202638974118893506e-01,-3.558026877437409086e-02,4.078819751739501953e-01
5.427615800760640097e-01,7.269862052882594128e-01,7.873472823498215423e-01,-9.937582281607228174e-02,-1.957314915423509494e-02,-1.365133515607489662e-02,2.829085290431976318e-01
7.964975853376188297e-01,5.894164477961720827e-01,7.680062699082718103e-01,-6.405209496198007411e-03,-1.189695928383206411e-02,-1.136254930028153011e-02,1.967977434396743774e-01
1.149028097334707788e+00,6.749349150355400395e-01,7.215584058270445578e-01,3.909707083841181680e-02,1.836587656185888207e-02,-3.921037795790435210e-01,8.195535540580749512e-01
7.343839321470011505e-01,7.667315884693000072e-01,6.399632188879476047e-01,-1.304511585595547959e-02,-1.088437015804041320e-02,-1.108229202421412256e-02,1.193746849894523621e-01
7.369039395014077565e-01,7.175997972232165401e-01,8.448982451844573305e-01,-3.983768199264986487e-01,-1.914577682735607300e-01,-1.065936589937376278e-01,7.964215278625488281e-01
7.697532099390020921e-01,7.912459530648594530e-01,5.904332909481642133e-01,-2.625775107947142875e-03,1.605545483378445146e-02,2.320345530233272353e-03,1.930849999189376831e-01
6.767164286036904119e-01,1.102492013940270965e+00,8.837799811800138849e-01,1.670242001757285821e-01,-3.213556976715540303e-01,1.158144701091269740e-01,7.548087239265441895e-01
6.480127131955563113e-01,7.504004026942703298e-01,7.775490480126794335e-01,-4.645328690231514956e-02,-3.990159987580188528e-02,-1.454443969544648441e-02,1.608873307704925537e-01
5.247485364255206619e-01,1.004983639599434930e+00,1.148607980136519213e+00,-3.106708121439478720e-01,9.886101995316630420e-02,5.711283965032498688e-02,8.055323362350463867e-01
6.650419530698238324e-01,6.157302702658038474e-01,7.661917758156552294e-01,-7.273931397128119425e-02,-1.298225972489270783e-02,-1.026531372334111604e-02,1.853255778551101685e-01
7.626773970225015908e-01,7.343436279405159972e-01,6.517936306900093957e-01,1.439940321671553947e-02,8.473336212676936541e-03,-9.720600462942641934e-03,1.052480340003967285e-01
8.040860555661600850e-01,5.509360775998541904e-01,8.093346951483973983e-01,1.396799208244660084e-01,2.274214004519393983e-02,-5.660405670977131098e-02,3.676088452339172363e-01
7.064240807108753684e-01,6.843707204647871967e-01,7.472448044144955892e-01,-1.000732491668916008e-02,-1.353986121728969691e-02,-8.286172084606515872e-03,6.410399079322814941e-02
6.642492623452728173e-01,7.356116549102891256e-01,7.603190183265091662e-01,-9.695575084654215609e-03,4.369276270594022078e-03,1.165710750503224508e-02,9.062654525041580200e-02
5.561555732323397727e-01,8.057850270490779510e-01,7.962193699949369208e-01,8.205047316470186897e-04,3.084669148563878600e-03,1.116932444735556926e-03,2.450567334890365601e-01
5.840823850497486314e-01,7.835961279431301607e-01,7.611015083753324140e-01,4.390682683763873564e-03,1.463547826151271117e-02,-4.232680979865772672e-03,1.912535727024078369e-01
7.947500647198949553e-01,8.141667075583518542e-01,5.722076996239440216e-01,-5.080628877643869265e-03,3.014201490800585623e-02,-9.567490988782283157e-03,2.393758744001388550e-01
6.704738866928311447e-01,9.709730834810372802e-01,1.071140881541452039e+00,-3.318918983249476429e-01,2.173869275791879829e-01,1.290949505557257015e-01,8.078725934028625488e-01
5.413059816390950463e-01,8.861840531497939821e-01,8.981096563101789165e-01,-6.645277026318792413e-02,1.579896161161351703e-02,2.625358393900012447e-05,3.703953623771667480e-01
6.682910750366835018e-01,7.481229802524332895e-01,7.807414108245579465e-01,-3.308079644255502993e-02,2.406745460890478971e-02,1.545878977056752181e-02,1.256135106086730957e-01
8.157350585822802369e-01,8.210795487964211992e-01,5.643212962827555135e-01,6.594460039095312830e-03,-1.168685289066494562e-02,-2.221785167868521593e-02,2.580740749835968018e-01
9.996923396438579523e-01,6.218158322197302468e-01,8.924655908537705296e-01,-1.854634528744144029e-01,-1.254676854965666999e-01,-3.095229767493882234e-01,7.426975965499877930e-01
7.708199158342715629e-01,7.773491732376573982e-01,5.717919384297249774e-01,-1.879761460416607896e-02,-2.260734792438099175e-02,-1.589456660023661969e-02,2.104887366294860840e-01
8.223573311625776983e-01,8.168637156056903770e-01,5.687030606684084777e-01,-4.835655183864705914e-03,3.047227279442096468e-02,2.736417355317871582e-03,2.566232383251190186e-01
8.867724806016392680e-01,8.283449897518722072e-01,5.137584612253649485e-01,-2.084540237574573473e-03,-1.530257282012964168e-02,3.568904965017208331e-02,3.539712131023406982e-01
8.663820466003531173e-01,8.704500110762399823e-01,4.104458271280980175e-01,-1.108425027801965279e-02,-4.065765667242875192e-02,-4.086669731743462070e-02,4.691344201564788818e-01
7.020528050492532701e-01,6.559199213771195192e-01,7.797173871000234735e-01,-2.002618771599904562e-02,-2.838855148009326521e-03,-5.180076642184006097e-03,1.142398491501808167e-01
4.150672306681638113e-01,1.101084158520680756e+00,1.113669008069190891e+00,-9.706209835211881964e-02,-7.080429615825714618e-02,6.926428363843172703e-03,7.230890989303588867e-01
5.885873211492016477e-01,7.820077369777025389e-01,7.648524909394687210e-01,1.283543331384408466e-03,-1.075190769708610043e-02,7.284152668194831398e-03,1.868114471435546875e-01
7.939793640943551001e-01,8.156932712438385025e-01,4.560935322285181170e-01,1.332386064486727230e-02,6.043982341288235000e-02,-1.068448899028644206e-02,3.657992780208587646e-01
9.085066021714705009e-01,4.528503769371507448e-01,8.264152579365110496e-01,-1.277350016521231965e-02,7.140053956928528109e-03,-1.567661536694652316e-02,4.222982823848724365e-01
5.977936798629500670e-01,7.622272391294463434e-01,7.827290375884224938e-01,1.137426527259179608e-02,-3.470567946537571769e-03,6.476504233221454417e-03,1.771439909934997559e-01
8.076364271531938366e-01,5.885808535313703516e-01,8.086790774708805252e-01,1.848798878417212341e-02,5.567615863143617928e-03,-1.692640017387513074e-02,2.240373939275741577e-01
5.673524341600023613e-01,7.954060439836464491e-01,7.934630501215330645e-01,4.674975161737890059e-03,4.576537399686768370e-03,-2.991706297592806527e-03,2.274299263954162598e-01
6.176616256653302273e-01,7.359682721594362764e-01,7.635473781208509392e-01,-2.488679061933993242e-02,1.276132209835195187e-02,2.059721351514004137e-02,1.471027135848999023e-01
6.332508388193843762e-01,7.279890056014460820e-01,7.889102171494482008e-01,-6.368763813662403628e-02,1.066401232571876669e-02,2.977711106329597804e-02,1.833788901567459106e-01
7.337467605837766360e-01,7.677053553893020688e-01,6.546022496272655422e-01,1.490562603507597852e-02,-7.851593928110649559e-03,5.536411153872961011e-03,1.051099747419357300e-01
5.996000644328001172e-01,7.703956814914850737e-01,8.054255944952626312e-01,-1.322125397308033905e-02,1.018212775148026432e-02,-6.837465407265172143e-03,1.932792812585830688e-01
5.668478474758942287e-01,8.178560174541281702e-01,8.102603105733565680e-01,7.825436019879878843e-03,1.333375914958359956e-02,3.511363301996364532e-03,2.488177716732025146e-01
8.808030194030325166e-01,8.441684970215111994e-01,3.669520295349723016e-01,8.177947737374846593e-03,-2.011903341908230156e-02,-2.399137100524495470e-01,6.485760807991027832e-01
6.450149811442086323e-01,7.672567626905948401e-01,7.000115433427898104e-01,1.151371760211245075e-03,1.747916585520937344e-02,-4.155626736003587007e-03,1.105311959981918335e-01
6.421757448751428399e-01,7.814065141835403461e-01,7.351650403896046182e-01,3.402528500443105508e-03,1.138810095695581663e-02,-8.445741156084866919e-03,1.253915280103683472e-01
6.908801158475503801e-01,6.857879185425127533e-01,7.624619942727790534e-01,-6.373332462232310369e-03,-3.075839897072378971e-03,-2.841461068077122919e-03,7.542458176612854004e-02
7.936408705229219818e-01,5.428695107464764913e-01,8.047163743469678554e-01,-4.981893379246574508e-04,-8.609968351517597110e-03,-9.584641495200673517e-03,2.574589252471923828e-01
6.832871207755286669e-01,1.044315591291433254e+00,8.768863530631880732e-01,-1.989501794186169792e-01,3.123050815225220656e-01,1.109064916543465729e-01,7.390365600585937500e-01
7.324063796165768414e-01,7.812012655958078255e-01,6.260673649854486822e-01,7.396999899329001482e-03,1.384727535220601179e-02,-3.701665096490891482e-03,1.402077823877334595e-01
8.204435042942490597e-01,5.805390944520409935e-01,8.151597091229083603e-01,-2.024223322343811360e-02,-3.634800232140064213e-03,-1.569484909845722878e-02,2.415001094341278076e-01
6.023695143776435224e-01,7.623364423397603895e-01,7.229533956079181589e-01,-1.010740404055805210e-02,2.883200248881536906e-02,1.668126216232329248e-02,1.564467400312423706e-01
8.940267983957270737e-01,5.717816478095407717e-01,8.415226995324635029e-01,-9.766980544841825929e-04,-7.627028344664581704e-03,-1.088199587321826700e-01,3.540934324264526367e-01
7.948228389075103761e-01,4.552343151326919690e-01,7.798380460493286037e-01,-3.104749637004660529e-02,-7.950749718268900965e-03,-4.746898611483803959e-02,3.468395173549652100e-01
6.929697653883667430e-01,6.971617165986073728e-01,7.657441597878260620e-01,-1.616779097746217199e-03,-1.256626158510739093e-03,-2.224719731512119544e-03,7.096510380506515503e-02
1.092138907696248662e+00,1.064902063774136209e+00,5.256428219647019118e-01,-1.053978969631753915e-01,2.541836409654895657e-01,1.752390640422842316e-01,7.908921837806701660e-01
3.845583039403121517e-01,1.061617052700775554e+00,8.069680349897604410e-01,-5.003559804432831937e-02,3.120611908598869833e-01,-8.270603298932906189e-02,8.191583752632141113e-01
8.112476456159336546e-01,7.944818364434896862e-01,5.718727974423175597e-01,-2.939369352427607766e-03,1.827856408951614858e-02,5.990492841137236291e-03,2.338888496160507202e-01
8.006134266502753505e-01,8.844969657893109183e-01,4.495962276871119379e-01,5.050306511456850896e-03,6.709653180578400988e-02,-1.496300273360595505e-02,4.170708656311035156e-01
7.142475337629773380e-01,6.826723353896707591e-01,7.579442634644142363e-01,5.242053052664357241e-03,1.122481737727432614e-02,-3.746096859942473108e-03,6.920012086629867554e-02
8.559393238890525835e-01,2.956325843892197436e-01,9.180379819964384902e-01,-1.511046824885773909e-01,3.923512781491350632e-02,1.008888513164130363e-01,6.754598021507263184e-01
7.533465650484929554e-01,6.980609847795076206e-01,7.040141903106198473e-01,-1.457230179204797166e-03,1.903745612247106402e-03,3.984652214036625215e-03,5.317598581314086914e-02
7.261316291733734829e-01,6.995652058104977478e-01,7.017825468759774088e-01,-9.989970882943363314e-03,9.572670024053854532e-03,1.122255137775412560e-02,4.004907235503196716e-02
7.679904362247795824e-01,7.026501411233242456e-01,6.505491274121523171e-01,5.314946398993862335e-03,-1.775770198135365836e-03,1.885191685614641399e-02,1.074642091989517212e-01
6.916961705475626054e-01,6.932083501626006283e-01,7.626621786519449664e-01,-1.675371888222628629e-03,-1.218610964002489992e-03,6.868717960037117065e-05,7.031384855508804321e-02
1.085181512347373811e+00,5.356431025303687310e-01,8.274779166706504041e-01,1.317132591820110998e-01,-9.578233697230971455e-02,3.929549368847913282e-01,8.772652149200439453e-01
7.328598760158134828e-01,6.572977223108228406e-01,6.958204785906073608e-01,3.160710203035673599e-02,-3.478976300486224388e-02,4.623966861910226711e-02,1.316248774528503418e-01
7.969774969686200805e-01,5.711042456090873465e-01,7.684889519232147581e-01,-2.973327161016621045e-03,-1.768541046158522093e-03,1.337077434189372360e-02,2.144009321928024292e-01
8.025111776214008952e-01,7.889045315643157252e-01,5.509649860899262785e-01,-6.289936914327557554e-03,-1.423620884403934903e-02,6.878751826339318809e-03,2.467925846576690674e-01
8.174680964369246405e-01,4.721059659517219398e-01,7.635328629208925078e-01,1.103414681576032896e-01,-6.967998796128932470e-02,1.748615555177802650e-01,4.963649213314056396e-01
7.604743224057232132e-01,7.680558296258902518e-01,5.994956417828399831e-01,1.072746891932985745e-02,-1.112798111368649978e-02,1.175352646158142264e-02,1.682951152324676514e-01
9.069113701359691193e-01,7.147568655910621072e-01,9.752486528350460260e-01,2.805638250010186185e-01,-1.350706029298546496e-01,2.198929688030779594e-01,7.004739642143249512e-01
5.569227045275663146e-01,7.716116842142701771e-01,7.781775408422051399e-01,-2.832395729249930633e-02,5.602713298871738606e-03,7.964902721228094007e-03,2.241323590278625488e-01
7.793160196203429146e-01,6.522717149320030883e-01,7.313777509802128485e-01,-5.596635850206106884e-03,1.170320897230896912e-02,1.015880690629415890e-02,1.147280037403106689e-01
7.605850613435334306e-01,6.122023380544879823e-01,7.704562585677987574e-01,1.045836851616895741e-02,-1.257995310278659309e-02,1.004150650984044456e-02,1.571145504713058472e-01
7.953461790521849650e-01,5.378259524240132095e-01,7.932775620235869019e-01,-8.187012530131519000e-03,2.032533033785733755e-03,3.894503955770390897e-03,2.569965124130249023e-01
7.775153649815674806e-01,5.018871303421865715e-01,7.435015547404224545e-01,3.459561187728459747e-02,-2.032846151871478546e-02,7.223051588169310255e-02,2.970433533191680908e-01
7.457787255623592459e-01,5.873559214751701285e-01,8.077310409241388323e-01,8.943606652130624279e-02,-3.965941723048230921e-02,1.117364375499165230e-01,3.239145874977111816e-01
8.221210099706790508e-01,9.702703210276497625e-01,5.640351838295128983e-01,1.830878432382913035e-01,-3.020887487492484591e-01,3.960556677068328979e-02,7.112199664115905762e-01
6.294182747460660421e-01,7.742673426611175191e-01,7.294811398235043765e-01,6.879995934201506812e-03,-1.568105186031057072e-02,5.565466855142933711e-03,1.321833133697509766e-01
7.236060429174747677e-01,6.975149267232353401e-01,7.219759123682449875e-01,-1.297773713598162140e-02,-1.392585420212567003e-02,-1.829667470190962306e-02,5.227073654532432556e-02
7.618892765804061717e-01,7.584589331178717142e-01,6.175144839118609230e-01,1.164375601039363377e-02,1.027024391435783258e-02,-1.094168741697214980e-02,1.464340090751647949e-01
5.800950935069698611e-01,7.785581031082544623e-01,7.799341982418501740e-01,-2.011287912177652654e-02,-2.083865598047049059e-02,-1.138136373116919488e-02,2.063189297914505005e-01
7.917690325408086593e-01,5.758077232228669962e-01,7.851168923804801025e-01,-1.481687999600699718e-02,7.133225482608450581e-03,2.245219010373251251e-02,2.181066423654556274e-01
7.348587363004452921e-01,6.819672808966117383e-01,7.194758678932179352e-01,3.751627502072107413e-03,1.059343082723119764e-02,-5.615467978515521937e-03,5.190378800034523010e-02
7.611163710453119347e-01,5.737991510806739193e-01,7.808909488941057075e-01,1.321234621787161119e-02,6.619247942401883938e-03,-2.133481449309073460e-03,1.996288895606994629e-01
9.059186362572961837e-01,5.838356364599484039e-01,1.094936086573846445e+00,3.416656289197393948e-01,8.736493592551154708e-02,-1.140702930114456254e-01,7.826139330863952637e-01
8.024318251883963971e-01,5.535857013221863188e-01,7.976857234507815919e-01,-2.222349249575071226e-02,-3.749848852208984007e-03,4.062722169663600391e-02,2.593095004558563232e-01
7.928586549027963892e-01,5.986962758857150568e-01,7.672745700633692989e-01,-1.460389677321228749e-02,8.157578375831959702e-03,1.174069770260379071e-02,1.861158162355422974e-01
1.059394630962699813e+00,5.231923071059929597e-01,9.245295647699558472e-01,1.766126009366615346e-01,-8.237920258026888709e-02,3.052713833184208525e-01,7.917660474777221680e-01
7.035047757808460256e-01,6.421054777288632831e-01,7.752503567876669610e-01,-2.160575001956974162e-02,-1.068213138587608378e-02,-3.605452350725139778e-03,1.228990554809570312e-01
8.490781958906619131e-01,6.920815241803031093e-01,6.732017694239235128e-01,-8.108564107525943754e-02,4.152061859372524477e-02,1.196888629863992193e-01,3.095823824405670166e-01
5.361454367019889977e-01,8.003681946228213828e-01,7.258716033133267853e-01,4.040362331443156374e-02,1.020813902452084310e-01,-1.100300606313480735e-02,3.036479949951171875e-01
7.790251880269754015e-01,6.098378684946362815e-01,7.357587825206673982e-01,5.932343590845812892e-03,-1.108333286561547296e-02,2.721679496165975085e-02,1.608495116233825684e-01
6.168246191432943393e-01,7.315099059699038397e-01,7.763115887623270872e-01,1.411558394834977991e-02,3.632559259295579414e-03,-7.132235161905987539e-03,1.452168822288513184e-01
7.202696274834085033e-01,6.936478868551951837e-01,7.381387329304188727e-01,2.709100608147401237e-03,1.145804858292911489e-02,-3.351161560065971535e-03,4.419612884521484375e-02
6.046542221754440671e-01,7.393919906685373356e-01,7.834848701191161613e-01,3.075151247958063036e-02,2.669182664807747459e-03,-7.424782139370801571e-04,1.699982881546020508e-01
6.241144825101707649e-01,7.610402441754887670e-01,7.636568062602219209e-01,8.928818009957293494e-03,-8.787239079173635170e-03,1.283939660383569444e-02,1.417009234428405762e-01
6.520259453509427150e-01,7.339180548985199115e-01,7.585464047091234896e-01,8.497751452220023149e-03,-4.747342202673822051e-03,1.266882619784840715e-02,1.004762947559356689e-01
7.366236112276305370e-01,6.555062217937706048e-01,7.635656389938778599e-01,1.058717286633799153e-02,-1.445829221346326549e-02,5.293405141355800488e-03,1.026587635278701782e-01
7.090147848980794532e-01,5.051935416002699686e-01,7.824909947254256037e-01,1.203128604250254946e-01,-8.077468885501388335e-03,5.968716227922210397e-03,3.250323534011840820e-01
7.932589154830996803e-01,8.084607908790502062e-01,5.314655860822636857e-01,-3.405774664478595278e-03,6.660720447408261663e-03,8.268663552613346457e-03,2.704063653945922852e-01
8.153001370333825548e-01,8.178268214411136272e-01,5.194784846578770487e-01,-9.261327688547808801e-03,-1.464315035512575233e-02,3.665613212721278991e-02,3.052799999713897705e-01
8.049104274204668119e-01,8.294090403608823658e-01,5.792966786957208791e-01,1.282547755334044817e-02,6.067717995851433510e-02,1.838365374887144729e-02,2.637830376625061035e-01
8.742450722386848616e-01,9.351072007012586340e-01,5.352522436145947804e-01,7.913732026453526580e-03,1.111812962768653212e-01,-8.867335655307087517e-04,4.201502501964569092e-01
8.549438916884267714e-01,7.983865013942805788e-01,3.815522274708214034e-01,5.377849510956675405e-02,1.271824528898220785e-01,-2.179805011765982570e-01,6.326718330383300781e-01
5.931277820143751045e-01,7.773191662272650460e-01,7.632908739628031514e-01,4.880815851108129440e-03,1.326793089918337255e-02,-8.025921624390523756e-03,1.798115521669387817e-01
5.378644704968646995e-01,7.907619963796175266e-01,7.901034701140488004e-01,-1.760028368731735970e-03,7.691998649375337595e-03,3.560468075545714008e-03,2.530135810375213623e-01
7.954958726741652164e-01,5.517234919600778609e-01,7.800246332513357528e-01,-3.468329255963663489e-03,-1.052657788364017325e-03,2.175453356308944611e-02,2.394829094409942627e-01
8.473404606141126116e-01,8.662041230134849279e-01,5.346981342577211693e-01,1.461873094312900363e-02,-3.809429085511285840e-02,6.279528751775739250e-03,3.303204178810119629e-01
7.820430560231371730e-01,8.012049456478390619e-01,4.330564457705648462e-01,-9.334931876540213114e-03,4.650304009938231731e-02,4.045285934919915644e-02,3.748391568660736084e-01
8.002913713970918330e-01,8.765838934323832987e-01,4.172790286865527554e-01,2.916810925491912510e-02,2.240398260176788836e-01,-6.755640277764395074e-02,5.903943181037902832e-01
7.088407651512821372e-01,7.105514640468393317e-01,7.236773881054449076e-01,6.526829518592848836e-04,-1.615961294278973328e-03,-1.047654754373823901e-03,1.449398510158061981e-02
7.928800258097674636e-01,5.447482518656623363e-01,7.934853243678587909e-01,-2.620380507907071280e-03,-3.608590418160235232e-03,-7.252233437237849516e-03,2.488722354173660278e-01
6.905490355122096968e-01,6.983826346607503455e-01,7.445861071933764785e-01,-8.212447522053531804e-03,-3.060066469183472630e-03,-6.899754530530638648e-03,5.414157733321189880e-02
7.841558568188716771e-01,6.413746954124156519e-01,7.346795592555547261e-01,2.561549075837578175e-03,-6.533633437994253342e-03,1.288211801253049717e-02,1.281236857175827026e-01
7.541238615543682799e-01,6.670957146033568153e-01,7.157285115302086664e-01,5.108734685914431348e-03,-1.294498549528322849e-02,1.531468493923555073e-02,8.361375331878662109e-02
8.047767090355740782e-01,5.554526213998403072e-01,7.976518752051440231e-01,6.635253930748224831e-03,-7.682446029941587947e-04,9.199154883440202254e-03,2.466264218091964722e-01
7.446076823672370670e-01,7.592871722235340348e-01,6.398296063222399521e-01,-1.791166109110122612e-02,1.742441969615709380e-02,1.147557241434784409e-02,1.224761232733726501e-01
7.862918690211169181e-01,5.773363413546976908e-01,7.622438762892953523e-01,-2.198459723531418983e-02,1.439782518932696161e-02,7.048734985324356384e-02,2.370506674051284790e-01
7.697887749422979153e-01,5.470533138485584868e-01,7.890399665295438902e-01,-3.055493108627493556e-02,3.798626458022384602e-03,1.862354108514483516e-03,2.390065342187881470e-01
1.080355443285838657e+00,3.796120020566387532e-01,1.108668096995038876e+00,1.080306195026738969e-01,-2.197748421983903785e-02,1.116217022447271862e-01,7.651940584182739258e-01
7.390958915785682537e-01,6.224893660129093842e-01,7.668826847204084363e-01,-7.945735154108551912e-02,-4.365437736351065329e-02,-5.410786213211028067e-02,2.259420603513717651e-01
9.201060045434723556e-01,2.670450309727884775e-01,7.758201463680697296e-01,-1.351857536610762481e-02,6.106439763043571695e-02,2.462900593229996882e-01,7.394530177116394043e-01
1.038362919368884363e+00,6.550397743363218783e-01,8.615041458877508163e-01,-2.017369673713919620e-01,1.359597967731998869e-01,3.220475542194491392e-01,7.740246057510375977e-01
7.640678780049561247e-01,4.461119569062607093e-01,8.228176533055406860e-01,1.800647130385858163e-01,6.222322353393917177e-02,-1.440093716661337564e-01,5.425205230712890625e-01
6.822762800668142891e-01,7.067317220654291132e-01,7.537801182518114596e-01,-6.741422344769868423e-03,1.984822825330032851e-03,7.525043046657450829e-03,6.542360037565231323e-02
5.587543253921065656e-01,8.379332364850801129e-01,7.994291509161715048e-01,-1.262619973580639092e-02,4.145621471831945071e-02,1.439385600576147291e-02,2.737326622009277344e-01
7.428113189008951345e-01,6.155117358944881545e-01,8.040948889445405090e-01,-6.576169394541742097e-02,9.568556827691171440e-03,-5.569564214297072213e-03,2.027406394481658936e-01
6.545265591269069372e-01,7.342621422796741237e-01,7.609907461091958147e-01,-8.769958811525065470e-03,4.406804486287922533e-03,1.305269902234572343e-02,1.000175848603248596e-01
8.022674888966799811e-01,5.571448299708338103e-01,7.809633753868138184e-01,6.124039601050607247e-03,-6.010405402351993651e-03,2.157864600797862811e-02,2.386098504066467285e-01
7.878978596155187253e-01,5.696873283759132933e-01,7.974933021877795847e-01,4.465965603725943929e-03,4.990239549274312061e-04,8.231692262072199534e-03,2.237534373998641968e-01
7.564739752868150369e-01,6.431663546379380314e-01,7.311722822278416967e-01,-3.516035921552195052e-03,-1.153064607081851281e-02,-1.110675739735596072e-02,1.068548187613487244e-01
7.671966463623648425e-01,6.381095116958697133e-01,7.342264645527948330e-01,-2.808237382795800152e-03,-1.723605656722468002e-02,-1.459663393660588435e-02,1.226726695895195007e-01
7.464329710560357878e-01,6.198432358946053267e-01,8.198206036677881947e-01,-6.608284652751425514e-02,7.543559612192753984e-03,-2.763864473894062871e-03,2.097505331039428711e-01
7.814994831526276275e-01,6.415783803294519139e-01,7.430291801946609098e-01,-3.267516075385988594e-02,-8.622504907166315610e-03,-5.137886169624988897e-02,1.643790602684020996e-01
7.523610658748646207e-01,6.425539501780690443e-01,7.662748054179505663e-01,-1.354569391633137498e-01,-5.342796757133968372e-02,-6.336744563700484612e-02,2.990563809871673584e-01
6.326383227378408192e-01,7.712425836530181211e-01,7.337199067919182305e-01,-1.458568220796365225e-04,1.103954325802176256e-02,2.438300594915691379e-03,1.257052272558212280e-01
6.202009050370864696e-01,8.686308669715795405e-01,6.704875212016526698e-01,-4.814330353159967241e-02,1.198323924954302067e-01,2.494683082850564573e-02,3.219522535800933838e-01
7.446493850555135907e-01,8.449126254269245795e-01,7.690577555727937664e-01,1.008726485876071666e-01,1.432100684218343412e-01,-1.214251001017631892e-01,3.801139593124389648e-01
5.105259558080050830e-01,7.291431732948853162e-01,9.684342538050585425e-01,-2.610486269266863446e-01,1.818472029510374566e-01,3.347149173790252979e-02,6.814486384391784668e-01
7.425219504334495957e-01,5.769183963838008244e-01,7.725135547898195343e-01,-8.167595993845405689e-02,-3.078491262237753254e-02,-3.817616646358659716e-02,2.460061609745025635e-01
1.090820180534867845e+00,8.254272435025613586e-01,7.036940492143682890e-01,-1.177604279698523659e-01,1.249717180445681503e-01,3.776829711547138313e-01,7.962092161178588867e-01
7.790017086541932700e-01,5.331541129969792348e-01,7.579626811604109893e-01,-4.655436715344168225e-02,-1.695735432341674218e-02,-5.801058638521994909e-02,2.705024182796478271e-01
7.605058898411642954e-01,6.844233719097222446e-01,7.360488555150406231e-01,-9.378012936687083606e-03,-2.529955724896879379e-02,-2.427232693816034834e-02,9.207293391227722168e-02
8.326533171407102252e-01,5.193974901738779293e-01,8.474515352151874570e-01,5.563328408844604722e-02,-3.487415924325845684e-02,5.813793677746869476e-02,3.550460338592529297e-01
6.942349182153149112e-01,6.917965580430199823e-01,7.684584092252608745e-01,-1.448943686302799419e-02,1.142501020004691240e-03,-2.408403431741797628e-03,7.966934144496917725e-02
6.478846158671225375e-01,7.951296946845370917e-01,5.771893478105116770e-01,-1.710109528950660152e-01,2.452565591934072198e-01,1.657519166961187174e-01,6.226524710655212402e-01
7.360415635472048468e-01,7.851161708558270780e-01,6.470198434899530060e-01,-3.609413932975910188e-03,1.244303463228171695e-02,-1.449434707682949880e-03,1.233359798789024353e-01
9.386205723967813164e-01,3.147078424667387186e-01,9.691744710608695135e-01,1.573633694464426358e-01,-1.658128709044774940e-01,8.451079829722134285e-02,7.664601802825927734e-01
7.938922882422171368e-01,5.418411109269060111e-01,8.065392399209297958e-01,5.806417529197766686e-03,2.813770068649795210e-03,-4.761782534026868727e-03,2.589794099330902100e-01
7.105288328729132408e-01,6.803128318190401203e-01,7.752669769382076748e-01,-4.015364721698978789e-02,-1.684088448608713241e-05,3.683834478689917112e-03,1.092603355646133423e-01
7.667446964809030430e-01,7.362434407658365876e-01,6.440798737946054064e-01,-1.042154095280582553e-02,5.273389271145338675e-03,1.319158904180301427e-02,1.147469356656074524e-01
8.157590808400096982e-01,6.600037766050406152e-01,7.393029419228399624e-01,1.622877833286273663e-02,2.448563777026260130e-02,1.886324828712109269e-01,3.571165204048156738e-01
7.424631563871997297e-01,6.569800685191783396e-01,7.565925226300364015e-01,-3.629592095845848854e-02,2.599131630188868461e-02,3.372038914020959038e-02,1.345542222261428833e-01
7.341130436371384738e-01,7.604011395093703829e-01,6.563654070247976202e-01,-1.151062829629106651e-02,9.361945535953503789e-03,7.443915365945425605e-03,9.801150113344192505e-02
7.220266837509765612e-01,7.039630713123071759e-01,7.390689350407307900e-01,-3.413899739623861042e-03,8.182890727718744595e-03,3.009510019110338708e-03,3.446145355701446533e-02
6.987230470308952723e-01,6.993062373873880633e-01,7.486529311274314757e-01,-8.714428780306779452e-04,4.248164994132096542e-03,1.637331937151910227e-03,5.028594657778739929e-02
7.668350725194786888e-01,4.983557758896318690e-01,8.077609884285762432e-01,6.167701579408597229e-02,7.113567926280098090e-03,-1.456820688778968746e-02,3.113591074943542480e-01
8.498800333265408291e-01,2.614427484343621044e-01,8.199941010228261051e-01,1.204712955719669798e-01,-2.714258912922335940e-02,1.275233488097424484e-01,6.512314081192016602e-01
9.856322367350198732e-01,5.251339763379169190e-01,7.462561081697985932e-01,-8.022643375234222995e-02,-7.029873001787081965e-02,3.430457593431187058e-01,7.391231656074523926e-01
9.188166545059366364e-01,4.554323995008464077e-01,9.104849920550016629e-01,-7.568158115240038175e-03,8.455911627300284616e-03,-5.417032584571229541e-03,4.597912430763244629e-01
1.176771260212584158e+00,3.481261817915646262e-01,1.076124238439538860e+00,-1.764574007967315006e-01,4.779560428283038259e-02,2.329150132799923945e-01,9.361596703529357910e-01
1.122681368093677134e+00,8.222578876576029927e-01,6.918378828044805529e-01,-7.658536211908989477e-02,6.710477978113668640e-02,3.863517755149186161e-01,7.907927036285400391e-01
9.190238564121850917e-01,1.989735131542506030e-01,1.160734955014315783e+00,-2.391801804074959389e-02,-4.656943915871956247e-02,-1.243072726101580316e-01,8.975077271461486816e-01
8.235736673008379194e-01,2.628346079522984047e-01,8.998849695429896878e-01,1.681794078191427011e-01,1.984368370965804845e-02,-4.914788698805798613e-03,6.701859235763549805e-01
7.087332925281987217e-01,7.028551689529526358e-01,7.397596686009793032e-01,-5.022221355005707100e-02,-6.523744784632824756e-02,-5.083785956847839543e-02,1.710778027772903442e-01
1.084235782940098813e+00,3.186500369703915703e-01,8.854066706673435760e-01,8.345080515952776889e-02,2.947863281147235226e-02,-8.877154761208182199e-02,7.215082049369812012e-01
6.854758242963838732e-01,9.654246411153362128e-01,9.542834557148370811e-01,2.744555843746234736e-01,-2.480185919873272582e-01,1.395288795698696183e-01,7.377660274505615234e-01
5.496423573125499562e-01,7.781823749028468074e-01,8.297420910480651779e-01,6.675967022599517409e-02,2.444292577067222819e-02,-4.957106401724340611e-03,2.861975729465484619e-01
7.355443144603935890e-01,6.744074081287296796e-01,7.372441664495144042e-01,7.610418409012509496e-03,-1.297976941811885936e-02,6.708018232126165999e-03,6.825470924377441406e-02
7.577988848590684334e-01,7.188459674790018683e-01,6.667353291061897114e-01,1.357371361194581287e-02,-4.520475373853049574e-03,1.501854334419571932e-02,8.691041916608810425e-02
6.965705885185937696e-01,7.180662488093382256e-01,7.224172731498368361e-01,2.897900465642254918e-03,-2.842884724537397909e-03,9.775542043919048865e-03,3.017691336572170258e-02
6.864989067484547069e-01,7.147242639420926524e-01,7.564888191596615963e-01,4.606927806342329956e-03,-3.195982862863463395e-03,8.122058844304478470e-03,6.334023922681808472e-02
7.369012660075072718e-01,7.329109245645304416e-01,6.818334160509565978e-01,1.433998969392517343e-02,-6.689278853105972041e-03,4.545997098602066154e-03,6.034728512167930603e-02
7.373800170078380622e-01,6.941894338184132485e-01,7.136441366314262291e-01,2.410635374509072573e-03,-8.488674057019545208e-03,2.812547560451817211e-03,4.075523838400840759e-02
7.880615997147717433e-01,5.042773463945368073e-01,8.103284968288192447e-01,5.480803989784378827e-02,-8.343276622541426560e-03,-1.538361206147015325e-02,3.118956089019775391e-01
8.131393645177946716e-01,5.465022574128597377e-01,8.113676977466547369e-01,1.115431701257778904e-03,6.806662833067815901e-03,-5.914946515106982161e-03,2.662212848663330078e-01
5.218580881950717343e-01,7.029983096144383214e-01,5.801966299771595947e-01,2.045232383257698794e-01,-2.752882161693002150e-01,1.807324169089180588e-01,6.902756094932556152e-01
7.051014452314414704e-01,7.528686142705681705e-01,6.787737373917535066e-01,6.543514550091303512e-03,-5.031345660894666685e-03,3.052698488629314050e-03,6.681918352842330933e-02
8.677893781780910976e-01,8.369576627229140531e-01,8.594942121903433874e-01,2.475129962920519511e-01,-2.121590091678111634e-01,2.444353472630734214e-01,7.062803506851196289e-01
6.922515458625260187e-01,6.951406996048258291e-01,7.543145062146592306e-01,-2.218602010627370152e-03,1.878153415804302475e-03,4.183291413014565696e-03,6.130821630358695984e-02
1.137829719818531204e+00,6.267763911937157539e-01,7.808546506232771911e-01,-6.097819062105679089e-02,-5.523935074119723510e-02,-3.754870602904705756e-01,8.058872222900390625e-01
7.600732204923115187e-01,5.901852725868920180e-01,6.879432108255024714e-01,5.937479872011275361e-02,-5.721566417758016526e-02,9.564794426696975049e-02,2.639189660549163818e-01
6.452064904468022277e-01,6.453367644475289655e-01,7.881370007074193218e-01,1.139247951416875876e-01,-5.744274961971440607e-02,6.281634293913870848e-02,2.847521603107452393e-01
6.060292045749195999e-01,7.829706672697662739e-01,7.919217240137146341e-01,6.081351402892203745e-02,6.689198962055048839e-03,-2.717168380406029867e-03,2.102937251329421997e-01
7.047065202731237488e-01,7.233639201395337670e-01,7.231300467405614718e-01,1.360968337332663048e-03,-1.541700515523796410e-03,5.401480464760872319e-03,2.107142657041549683e-02
7.644537900741955605e-01,6.486194032013390398e-01,7.130642061638258200e-01,1.077091345047735682e-02,-1.738528820597758096e-02,2.019271904206727808e-02,1.121776849031448364e-01
8.814456715441782997e-01,5.075935214740037171e-01,8.248646560593660970e-01,7.505423329497179497e-02,-3.493074811238527211e-05,-1.099091923976303412e-02,3.729285895824432373e-01
8.107518885293140132e-01,5.646723661552520701e-01,7.894781519890117227e-01,8.508327065167155083e-04,3.508511865931767336e-04,-2.071929661478806237e-02,2.388788014650344849e-01
5.305905862880657686e-01,5.761457442200295098e-01,8.416477920838421056e-01,2.955242772042735999e-01,-1.243420308447950318e-01,1.501446763320264943e-01,6.787329912185668945e-01
8.358327460282215515e-01,3.602266851413161719e-01,7.516189030467168575e-01,-1.014293866925769644e-01,-5.794611624429602675e-02,-1.816702516815425494e-01,5.772259235382080078e-01
4.523300594500841432e-01,6.446575065418873596e-01,8.663446870934952138e-01,3.265240290696944103e-01,-8.897340408146436896e-02,5.476936043295205225e-02,6.938107013702392578e-01
6.076988046725175785e-01,7.761916914325792671e-01,7.514781627272699716e-01,-6.074445845475854189e-04,-3.108097760700027565e-02,1.240797407716684626e-02,1.679214686155319214e-01
1.144932356438872256e+00,6.483510803584161541e-01,8.022919430108623740e-01,4.857203473543942468e-02,1.158241554657810785e-02,4.039067681522608977e-01,8.311129808425903320e-01
7.307455174588143310e-01,7.425075629452206893e-01,6.614525882744779484e-01,1.584563085561358983e-02,-7.465074643873447977e-03,1.251155007087985035e-02,8.452770859003067017e-02
4.203444296104379974e-01,8.502502560142639609e-01,1.064878123690912393e+00,2.052274633074198107e-01,-8.366142386491368099e-02,9.762382280678660873e-02,7.064685225486755371e-01
7.957573674722594470e-01,6.213852748334078857e-01,7.695907788947538020e-01,1.442127060700866027e-02,8.389394467623184637e-03,-1.146071676119022643e-02,1.666034311056137085e-01
4.458707636798896479e-01,6.259755409546163829e-01,1.024683824646035468e+00,4.448863214360412321e-01,-1.226475889236639145e-02,1.435892569970516897e-01,9.587970376014709473e-01
5.571247188760231062e-01,9.440515682719992085e-01,1.111402848657211395e+00,3.336735914849152662e-01,-2.183207734822933399e-01,1.190001351122034895e-01,8.729035854339599609e-01
5.369623215661357696e-01,6.020833705540561409e-01,7.025572171944040045e-01,2.451058057004217861e-01,-1.896143353089431438e-01,1.649657916428110549e-01,6.249889731407165527e-01
1.063509201149004380e+00,9.422349100306932623e-01,6.050972575875808168e-01,1.259407743787729350e-01,2.262416098514614116e-01,-3.014296449570535996e-01,8.018565177917480469e-01
1.150871186563906079e+00,5.749297113076323740e-01,8.189730008318650833e-01,4.795558282610522943e-02,3.305376920369083871e-02,-3.711257919545505879e-01,8.210304379463195801e-01
6.768446640502178147e-01,7.750102081652716635e-01,7.079521989441629470e-01,-5.095423587447340955e-04,-7.379160759334897103e-03,1.300157597466143101e-03,8.786165714263916016e-02
7.164825973779198609e-01,6.997811944570564435e-01,7.551499877346660172e-01,2.728502735314454475e-02,-1.174603613040875807e-02,1.319412350943995928e-02,7.476285845041275024e-02
1.023488563466345536e+00,2.524820446405248164e-01,8.734291090006515157e-01,1.590204300056778375e-01,5.469043137369401786e-02,7.934413077318172233e-03,7.657000422477722168e-01
6.769686623327572095e-01,7.089848186600637980e-01,7.632684682398899190e-01,4.843013382874709546e-03,-4.355290843031521704e-03,7.445324611579465582e-03,7.748077809810638428e-02
6.300442292963072122e-01,7.309768577444972770e-01,7.868077603435846834e-01,1.318107320794823997e-02,-5.701041095051629336e-03,-2.651171261639650393e-03,1.399266123771667480e-01
4.340782354547867983e-01,1.123605280839078846e+00,1.131039647330438491e+00,1.041867986809066060e-01,-8.955614731875008450e-02,1.419562795185636515e-02,7.333887815475463867e-01
6.553491463389794491e-01,5.704910694899788526e-01,7.971242089576430212e-01,2.465875285640345138e-01,1.121993596627772760e-01,-1.276695828030287305e-01,5.553491711616516113e-01
5.348190915267156953e-01,6.883264990756239321e-01,1.089003445653519808e+00,3.313996920362823895e-01,-1.892853988936162302e-01,2.670179851504433585e-02,8.274760246276855469e-01
5.568138536495071955e-01,8.522190048937156037e-01,7.930527352754770387e-01,-3.085012606688327871e-02,-4.862465189041353247e-02,1.682247196417357982e-02,2.899725437164306641e-01
7.940133539949635333e-01,5.159398529140264422e-01,8.362635024189087884e-01,6.000778919978327214e-02,4.763906836239974879e-02,-5.165602507681230082e-02,3.412841558456420898e-01
1.127498338059863325e+00,1.049427864687123568e+00,3.919972167036939736e-01,-1.010840873321030078e-02,7.926779948551943011e-02,1.860001585239356992e-01,7.826754450798034668e-01
1.054672313257890792e+00,1.023427746488938084e+00,5.167302630637593541e-01,-6.598937166256074738e-02,1.964878139028330140e-01,2.083996535339185108e-01,7.298818826675415039e-01
1.050123828663049430e+00,1.070122584443632840e+00,4.619321075803778931e-01,5.201296492440751068e-02,-2.341418156447492016e-01,2.734399653185694556e-01,8.689211606979370117e-01
7.839867630133295906e-01,7.343406920962629592e-01,6.440841079885248899e-01,-1.112605622287499759e-03,2.400295119084464718e-03,1.179713269892748023e-02,1.246209591627120972e-01
9.200212854616212077e-01,8.422267361226254412e-01,5.327627496714137934e-01,3.676757929231997540e-02,1.986297319043878878e-02,-1.292984540315916531e-01,4.257793128490447998e-01
5.234996267306180062e-01,8.765089933484506712e-01,1.144121527810692873e+00,4.020780079431620635e-01,1.039600289713560333e-02,1.565550513655105617e-03,8.809276819229125977e-01
8.978182949370947519e-01,8.852563812857144887e-01,1.611002669201295201e-01,2.157552911481043501e-02,-3.789832824575898457e-02,-7.616954572836549808e-02,7.461684942245483398e-01
8.369282953250850587e-01,1.081491686511818928e+00,6.685274453883288670e-01,2.611308057139059835e-02,3.720438050895880644e-01,-3.216586518359017960e-02,7.414540648460388184e-01
6.398351308933140080e-01,7.641890086067304466e-01,6.917077498370243216e-01,2.676662494486417923e-02,5.888907494785970698e-02,-2.842002268993090372e-02,1.633410900831222534e-01
8.218164913125085569e-01,8.085944269246952976e-01,5.895247669072802843e-01,9.844112672840582209e-03,2.670970238298203334e-02,-5.098323007294398163e-02,2.475716173648834229e-01
7.670052830262119592e-01,7.953975190411950447e-01,5.955819226941749811e-01,8.126730450107273046e-03,1.290906481224666016e-02,-3.007649864820651549e-03,1.891676038503646851e-01
8.399720961737840996e-01,7.900368940745492452e-01,5.313643699122216901e-01,-1.068526807613823411e-02,5.191563939623607821e-02,-1.127919262634515529e-01,3.590489327907562256e-01
7.890840325595729343e-01,8.088257731397636707e-01,6.389843698725776733e-01,1.434019416726468529e-02,2.661025595618813147e-02,-5.929433967954760021e-02,1.979180872440338135e-01
9.399556779553029928e-01,9.605021603386868501e-01,7.474493980900560608e-01,-2.125580430263435683e-01,3.063625089571900828e-01,2.448510087540900770e-01,7.990049719810485840e-01
8.738251131506412639e-01,1.102875922630266903e+00,6.210405656595411328e-01,-1.428160315207800957e-01,3.928507710925168706e-01,1.878981954452241254e-01,8.968647718429565430e-01
6.708531206662350366e-01,7.070104555225213971e-01,7.636511502526495132e-01,-7.601157661727773150e-03,-1.821473517677485183e-03,-1.514788848023240590e-03,8.218070119619369507e-02
8.168227078061214286e-01,8.191227550708795047e-01,5.534140987038701498e-01,7.753485332698129527e-03,1.389520629228367318e-02,-2.472547537189756159e-02,2.694232165813446045e-01
8.046789434794887619e-01,7.781591778851810748e-01,5.423036718882350282e-01,1.874952558663208965e-02,1.529502148975736379e-02,-2.867251059870061167e-02,2.584738731384277344e-01
5.375435831347541438e-01,7.680615222650954976e-01,7.986775362330971184e-01,-6.125342757607717126e-02,-4.192399732236223864e-02,-3.447149854846616457e-02,2.850036323070526123e-01
1.020385907455671592e+00,9.268811022722500681e-01,6.946088521455696663e-01,-1.337617490015627075e-01,2.152484444654411411e-01,2.844894513252438362e-01,7.210320234298706055e-01
3.684474154161329618e-01,1.083189492695429523e+00,1.120253929648269420e+00,-1.338358724414718814e-01,1.086219785677518951e-01,2.759755208325070236e-02,7.938127517700195312e-01
7.672402961947599742e-01,7.620932507141373602e-01,6.272623035317479445e-01,1.193614204070474714e-02,1.093602582933225764e-02,-8.665800762362192017e-03,1.411075890064239502e-01
7.938420141647073436e-01,7.890303800971318893e-01,5.329912370647504893e-01,2.938011088939076944e-03,2.449461725042066315e-03,-3.312864411941745038e-03,2.586271166801452637e-01
1.080229105400649869e+00,8.660463276798769927e-01,3.599319197849593088e-01,6.209393201601607487e-03,-1.763331425009427855e-01,9.673225384160651086e-02,7.293108105659484863e-01
7.803141645738119747e-01,7.692778565904458965e-01,5.635472146794429094e-01,1.720149508880853759e-02,1.636286967649245097e-02,-2.425715686480432384e-02,2.194847166538238525e-01
8.027755628316199932e-01,8.850605779431255371e-01,5.227790605490854059e-01,-4.424253305948780413e-02,1.183569980309180369e-01,1.897023382023571569e-02,3.964660465717315674e-01
7.667429394622988781e-01,7.929988772248091067e-01,5.995098332428198118e-01,-1.030300147821263963e-03,9.359788051439551365e-03,1.795543292356117536e-03,1.825453937053680420e-01
8.657791595020286612e-01,8.776514490941265123e-01,5.429591976037108081e-01,2.774273237764019254e-02,-2.900290353357807757e-02,2.074459188474678251e-02,3.380973041057586670e-01
3.588571248548608761e-01,7.401644591779095173e-01,8.908550852400534126e-01,2.575083419139397867e-01,-2.752610925952811427e-02,1.463603682356665048e-03,6.532790660858154297e-01
7.658566248299939483e-01,7.668253788501956381e-01,6.253315044651749366e-01,-1.039570166870809435e-02,-8.297602096488082557e-03,-8.552647794953044391e-03,1.436474472284317017e-01
8.867738871810926238e-01,5.062303678449449063e-01,8.796936119097396034e-01,-1.029435840693893392e-02,-4.285074182382102304e-03,-6.466549679966808462e-02,3.938108980655670166e-01
9.942634950456334941e-01,1.091786328941663831e+00,4.623387013136272539e-01,-3.409245324419802464e-02,3.070284473069869180e-01,1.620925289489430141e-02,7.946093678474426270e-01
7.813142768004921468e-01,5.190401002841800171e-01,7.969490953011280077e-01,-5.515026593020964235e-02,-7.732027415962816315e-04,-4.550329275978348340e-03,2.869170010089874268e-01
8.177483540546459650e-01,4.750435207227484691e-01,8.186021976739695782e-01,-9.836508071313504464e-03,1.207499056642028293e-02,-2.254978398307784168e-02,3.464002311229705811e-01
8.039845601672651609e-01,5.432584524956050043e-01,7.982382409655404132e-01,-9.684102459534147051e-04,-7.428196642799313534e-03,-8.107666307461378757e-03,2.586086988449096680e-01
7.790987825948698653e-01,8.025775357351212502e-01,5.718110377788407916e-01,1.391446209217650498e-02,2.975506944070112000e-02,-2.068592262795742806e-02,2.300151586532592773e-01
8.092888475748041266e-01,8.213210265116893671e-01,4.857358258204882429e-01,7.714227655137568911e-04,2.514587760890352186e-02,6.173302236958567654e-03,3.327723443508148193e-01
8.261619352595777066e-01,8.124973425999439947e-01,5.825430385186094462e-01,5.068003765548233924e-03,1.363136764198024688e-02,-2.002608059892046002e-02,2.409264743328094482e-01
8.103840518093394785e-01,8.709864468482344524e-01,4.844410232797455307e-01,-3.152704613474045792e-02,6.919172492229645755e-02,5.389925666711363472e-03,3.835308849811553955e-01
4.138446670108227310e-01,8.170423605662063826e-01,8.191152127089542656e-01,1.913932477155201317e-01,-1.111268083896947562e-01,6.722500831818635503e-02,5.691288709640502930e-01
6.332023459808876487e-01,7.506948191435438567e-01,8.055141340210525414e-01,-5.349442620195313247e-02,-1.097995049255600340e-02,-1.363147983800609003e-02,1.809822767972946167e-01
8.674039715331427480e-01,9.050303881303565223e-01,5.416268509994923708e-01,-6.922904846712804594e-03,1.016564566758427213e-01,2.637768762820664331e-02,3.912001252174377441e-01
7.938338681236969396e-01,8.080141573461296911e-01,5.781355630381863620e-01,8.632370020919410622e-03,6.057790544613504691e-02,-2.057921080782060264e-02,2.495768815279006958e-01
7.962996158396069557e-01,7.876470398315245092e-01,4.527999274832099630e-01,2.874105215893702717e-03,1.986555334011757407e-02,-4.389785068597554935e-02,3.494059443473815918e-01
8.018630669916063658e-01,7.966157917010603384e-01,4.633216119845907643e-01,7.096858162690846197e-03,2.874820772275050312e-02,-3.433648531763116435e-02,3.450056314468383789e-01
7.012247385516232612e-01,7.232292095223238348e-01,6.998360943724412087e-01,3.505880309368305994e-03,4.337773602606182465e-03,-2.877501248672578813e-03,2.519610896706581116e-02
8.452393916365233961e-01,7.864007802679819914e-01,5.379064220746632152e-01,-9.018023577237114022e-03,-8.477520094061882089e-03,-6.528152451175425752e-02,3.050853908061981201e-01
1.011624784797569010e+00,1.117929108058073107e+00,4.756981012320468105e-01,-9.617859145148360822e-02,2.968750635630988954e-01,1.282925644503972729e-01,8.348782062530517578e-01
7.364763955894111369e-01,7.596216841400528219e-01,6.051576992270940591e-01,1.928636334753656978e-02,-2.715784161717153811e-02,1.829953170723361278e-02,1.585965603590011597e-01
7.974161179455614423e-01,8.083776536393457723e-01,5.375281053882203786e-01,1.388829567460481661e-04,1.709989823940034773e-03,-1.110695910991571110e-03,2.655621170997619629e-01
7.228957838327503271e-01,6.122215298460681465e-01,7.665419865306943858e-01,2.252311895323717283e-01,1.540221619577265277e-01,-1.707547206993003386e-01,5.742922425270080566e-01
8.103016167794776514e-01,8.613893732172793749e-01,5.224247760760518666e-01,-2.205690434043126175e-02,-2.637477172829424260e-02,3.967906206914127709e-02,3.293322026729583740e-01
8.193497088596060074e-01,8.176233353861398490e-01,5.825265575434442900e-01,4.574377416540675347e-03,1.753479614781357221e-02,-1.602458178750714238e-02,2.396557629108428955e-01
7.964731816207047954e-01,8.098540236327240738e-01,5.583828001646395922e-01,3.009946600318169629e-03,2.471424156463082351e-03,-1.755013398306084008e-02,2.470252066850662231e-01
7.865073390002522702e-01,7.636989791837259789e-01,6.519066047128356800e-01,1.873592722655388967e-02,-3.391048614374586601e-02,4.109199658405605221e-02,1.585436314344406128e-01
8.099340257511096208e-01,8.040949147861454760e-01,5.627256619888119094e-01,-1.122268778192390569e-03,-5.072996638498486477e-03,-2.043114630536911613e-02,2.470543980598449707e-01
7.761914554191841065e-01,8.057444275828941072e-01,4.989467607948983030e-01,-6.263451437660052037e-03,-4.091761323692166830e-02,-1.043595673297589670e-02,3.023219704627990723e-01
8.608619148125952192e-01,8.276596755697329666e-01,5.047508698931688631e-01,1.611844184991861190e-02,-9.218840463570156935e-03,7.838381970274841543e-03,3.425090909004211426e-01
5.868074183057927495e-01,8.647933844330096820e-01,7.347138753700287461e-01,3.127801431658202430e-02,-1.083725290201977831e-01,-2.114310066793900419e-02,3.123242557048797607e-01
7.151971561286046830e-01,7.100309696070977727e-01,7.218343409855978443e-01,2.140994145788791588e-04,3.777873194495390882e-03,-1.401124932853436761e-03,1.240461971610784531e-02
5.730709118262733437e-01,7.913880367087273715e-01,6.800043471773840054e-01,2.357779925656602188e-02,-1.093618407146231958e-01,2.551893112306750921e-02,2.743230760097503662e-01
7.153791719807429672e-01,7.879987054522765710e-01,6.820948601856174909e-01,-1.596897348967056865e-04,-3.641423271764022973e-02,4.296719952230388133e-04,1.130360662937164307e-01
7.381917043180035165e-01,7.841441030523452760e-01,5.976315043532466342e-01,-8.276539319950109233e-03,-3.606254130597295188e-02,-8.323536325619832615e-03,1.806730180978775024e-01
7.107170970128402487e-01,7.831370525113939829e-01,6.330315202740710578e-01,9.653416006626541063e-03,-5.950150182058541043e-02,3.027799701665907957e-03,1.668353676795959473e-01
7.351538492050500029e-01,5.725609488941084679e-01,6.520143931315198760e-01,-2.169183013356349998e-01,1.731842682635307551e-01,2.092885759147563862e-01,6.183646917343139648e-01
7.613734125160298571e-01,6.196359170456695598e-01,7.248145925069714446e-01,-2.655303044704611717e-02,-1.628758003959248843e-02,-1.374250529924528341e-02,1.404347717761993408e-01
6.982019017391554172e-01,7.831612641931470220e-01,6.706642876234164552e-01,-3.843455551078156160e-03,-8.507257697514973571e-02,-2.791100168036230247e-03,1.791527569293975830e-01
7.038441829112721537e-01,7.790094759870200836e-01,5.966261365934447669e-01,1.257319653157241458e-02,-4.199665632831854623e-02,8.012798490556182276e-03,1.765294224023818970e-01
7.041368970811736627e-01,7.823241695633523785e-01,6.481111841157731757e-01,-2.457257724952362915e-03,-1.784224018895433361e-02,-2.359889958667892029e-03,1.209234744310379028e-01
1.039764403893395972e+00,9.336081782662331019e-01,6.476262113134962917e-01,-1.360905862929780719e-01,-2.174007404941020738e-01,-3.424556322218161863e-01,8.201172947883605957e-01
7.928817786851322102e-01,6.814022599965767757e-01,7.434797812642874870e-01,5.167499973049177048e-02,3.423276849948954370e-02,-7.963256191882529811e-02,1.997787058353424072e-01
8.475987561346391974e-01,3.230896019063331792e-01,8.200659200162034868e-01,1.648675576697567272e-02,1.793383492890156250e-02,-1.765154531398799576e-01,5.972270369529724121e-01
1.108641410719693354e+00,9.206105225469707332e-01,2.730056458595762070e-01,2.054356925999493294e-02,6.907100813022278019e-02,-7.674686607742425837e-02,7.808752655982971191e-01
7.701913187473948819e-01,7.796246993704847306e-01,5.910043604983366006e-01,-2.090687078119565084e-02,-7.036639251520128424e-02,-3.170430879178928046e-02,2.303657084703445435e-01
7.154828587704610277e-01,6.161932181142775189e-01,7.586655934163368808e-01,-9.692515535562234996e-02,-3.881084402639613934e-02,-6.568621748549688388e-02,2.483085095882415771e-01
9.109774376198549461e-01,1.056956281583676605e+00,1.554171098075798341e-01,2.516791989985387584e-02,-8.638361045949660699e-02,2.970969831857698390e-02,8.540560603141784668e-01
1.033869826827959360e+00,5.117683815491074206e-01,6.237563281669467052e-01,-2.171181418107659689e-01,-1.371884829892949242e-01,-3.017149389663734138e-01,8.352489471435546875e-01
1.152522753512505549e+00,1.115705132606287009e+00,4.032115962245534924e-01,8.649375368705004841e-03,7.095471758216220781e-02,-1.808896353015785885e-01,8.054354190826416016e-01
6.498275165978817380e-01,5.656240910178049752e-01,5.639092753050833906e-01,-1.988249888866022441e-01,-2.017390362407943116e-01,-2.628989347889536532e-01,6.747407913208007812e-01
9.314455642782523137e-01,9.173275626315562370e-01,7.143210589551118872e-01,-2.039401848368124770e-01,-2.353054849336759236e-01,-2.899746024852610793e-01,7.664291262626647949e-01
8.572489613807612319e-01,3.647456324616202283e-01,1.022213704015447977e+00,1.542457229051852063e-01,-1.239465133571709260e-02,-1.792330443715213217e-01,7.205748558044433594e-01
8.295066199925117401e-01,4.032196204676308793e-01,5.507152770245905549e-01,-1.119381686108137236e-01,-6.904499919185755341e-02,-3.587120701092407771e-01,7.606018781661987305e-01
7.623909297425178755e-01,7.311254589171558571e-01,6.588995837022910695e-01,-1.223027976698067530e-02,-4.816747587793354483e-03,-9.835663067177905297e-03,9.623328596353530884e-02
8.471203877648919578e-01,5.336966849150412973e-01,7.745535276070827368e-01,-5.289356512226615903e-02,3.924768191508289615e-03,-6.465274920510176437e-02,3.189600706100463867e-01
8.054090921404314374e-01,6.247269368765213660e-01,7.081711480470174180e-01,1.932073532254588097e-02,-1.134831595439820921e-02,-7.828634452368946062e-02,2.107713818550109863e-01
1.009291306041492531e+00,1.123989955120526130e+00,4.551906903502969115e-01,-6.773718893137579966e-02,-2.843788123827509229e-01,-2.002269506650748987e-01,8.720030188560485840e-01
8.413415267974237999e-01,3.674134303788229028e-01,7.158259413917037461e-01,1.947827171826469264e-02,8.804153735875546588e-03,-2.394362747409898295e-01,5.951777696609497070e-01
6.816762799870821343e-01,7.068189378837804737e-01,7.528875857888290835e-01,-4.855935408632894475e-03,-6.059440912802954889e-03,-6.621254547676743395e-03,6.500135362148284912e-02
5.973869991340314822e-01,8.342757820346339281e-01,8.006771643402051941e-01,2.331850619834516247e-01,-3.161739565379069195e-01,5.319864366099538028e-02,7.216647863388061523e-01
4.316650479576261135e-01,8.684176583000454697e-01,7.588291513518615750e-01,-1.199566801940327304e-01,-2.707982911180736862e-01,-1.850501364008302202e-02,6.473721265792846680e-01
5.960817526834246705e-01,6.866408438550477555e-01,5.964272306181038763e-01,-2.260013691937933777e-01,-2.912241099107689135e-01,-2.327616132006952721e-01,7.605050802230834961e-01
7.835786967228244304e-01,6.070254552803344694e-01,7.542111248182239436e-01,-3.573868566305046096e-02,-3.031867348687696667e-02,-8.654161499613312325e-02,2.364452183246612549e-01
1.039612314661631842e+00,4.650691719550773540e-01,1.093743881406425977e+00,2.053106029145961298e-01,5.460801555502528548e-02,-1.421300929107534861e-01,7.484232187271118164e-01
8.027288525263434060e-01,1.064913210484914163e+00,6.724751598225717775e-01,1.619902181021288801e-01,3.878370102414162024e-01,-2.027750781153251358e-01,8.793096542358398438e-01
7.188108680070891543e-01,6.807167507040321475e-01,7.616313131248730883e-01,-8.164319113511422227e-03,1.289412008711957221e-02,4.989038874703297100e-03,7.542794197797775269e-02
7.844310390525119914e-01,6.702016164762953920e-01,8.791201071366048225e-01,-1.368744542353410032e-01,-2.801006458619906270e-02,-7.765366447407569261e-02,3.308753073215484619e-01
1.061736670348155442e+00,6.714627349514465937e-01,9.177819871904061566e-01,1.478641299911958307e-01,9.583378544568926793e-02,-2.863162696901697668e-01,6.752256751060485840e-01
7.291246765256600426e-01,7.862154821325121334e-01,6.845223686100897487e-01,-1.292793772337664550e-02,-2.958381099109006970e-02,-1.117577533435138923e-02,1.062864139676094055e-01
6.757171799131178602e-01,7.119747660236495079e-01,7.489994280205413135e-01,-8.014835624752324195e-02,-6.768464470723624393e-02,-6.885602452882287616e-02,2.264204770326614380e-01
6.898383044033707945e-01,6.945613686986629176e-01,7.684925558683329827e-01,-2.370797563514678071e-03,-3.558339339282334747e-04,8.124217554214647682e-04,7.652797549962997437e-02
7.132642957597841171e-01,6.809157128163522144e-01,7.694252987730447746e-01,3.466330110837027162e-02,-6.566891346349736265e-03,8.693736395371548520e-03,9.988977015018463135e-02
7.888367352109509900e-01,7.918149741823625742e-01,5.871847549428230728e-01,-3.015482127790558402e-03,-3.981539295408084364e-03,-1.349094099891979225e-02,2.046797871589660645e-01
9.267015487575055444e-01,7.958787698293778856e-01,5.461403586538392529e-01,3.755064603781972134e-03,-3.210108804352950623e-02,-1.533986474647896225e-01,4.311409592628479004e-01
8.610136631993521306e-01,8.548533076904815120e-01,3.996873826425058063e-01,-3.506039527292832084e-03,-4.498145161134722847e-02,-1.076363941753540748e-02,4.652659296989440918e-01
6.924205129518525847e-01,6.872783601600347403e-01,7.633400021512231071e-01,-2.105120434870258982e-03,-1.964382719322736606e-04,-1.382400658030125606e-03,7.375525683164596558e-02
7.781265057046273803e-01,7.069189376618630893e-01,6.428735942403163151e-01,-6.580440167263830291e-03,-1.064553998541626755e-03,-1.920149676068996086e-02,1.223610863089561462e-01
7.040174515412714884e-01,6.370934662943257276e-01,8.142647091246081326e-01,-6.683843630294690474e-02,1.661234522256751708e-02,1.145696375057073373e-03,1.955644190311431885e-01
1.036460797224038277e+00,6.780572766745939228e-01,9.073619317116505822e-01,2.313764846656214957e-01,-1.804797232172215549e-01,3.456029956394824354e-01,8.458713889122009277e-01
1.161886057680198814e+00,6.348228599222114354e-01,9.472806476811712617e-01,1.085769959791831329e-01,-5.756117881201414099e-02,3.693669598650905495e-01,8.156856894493103027e-01
7.669764701793732042e-01,6.466443080751564931e-01,7.300663490009831058e-01,-9.180973225588608816e-03,1.149479322945342642e-02,1.032001433946815212e-02,1.112181693315505981e-01
6.948957237874300308e-01,7.026205798831548499e-01,7.252814910597197295e-01,1.604010445627771994e-02,-1.655869377261882588e-02,1.506242192887682733e-02,5.498452484607696533e-02
7.065803524832612315e-01,7.542852934728228043e-01,6.863182830257007483e-01,6.986804896246097407e-03,-3.374468304426208893e-03,2.685520868939648368e-03,6.208991259336471558e-02
7.769279846994522343e-01,7.725475519700727434e-01,6.926066168321440841e-01,5.482537614869233134e-02,-6.175692754216277613e-02,5.972268904993030536e-02,1.947293877601623535e-01
7.471950597036076669e-01,6.930988988833068909e-01,6.890626265490206181e-01,1.027347860776387130e-02,-1.057224255026829873e-02,1.855421878701664362e-02,6.961149722337722778e-02
7.709606662517478615e-01,4.485327551176678251e-01,9.969522735145177617e-01,2.151804798387722817e-01,-1.183471186584778428e-01,1.633438809899218913e-01,6.991907358169555664e-01
7.880495424203992627e-01,7.712720979579495983e-01,5.658369080484519920e-01,1.008280676004908588e-02,-8.399320647808418069e-03,2.650428139075700074e-02,2.203539013862609863e-01
5.545032165558807513e-01,6.368799398301819847e-01,7.801737544358303689e-01,1.548987165664864607e-01,4.095822330828053498e-02,-2.917390348886969922e-02,3.445141911506652832e-01
9.759429010042695030e-01,7.191769732472670373e-01,4.803251624670336062e-01,1.386377692257312610e-01,2.761419272304358463e-01,-2.535343744227986362e-01,8.145989179611206055e-01
7.089201486850588152e-01,6.712595723590498720e-01,7.394954048545330227e-01,1.420845535523796235e-02,1.708754590151651334e-02,-1.135556185839408337e-02,7.330134510993957520e-02
6.964717965819251511e-01,6.878043739750390184e-01,7.522444545173501140e-01,-8.274863902515383965e-03,-6.937816087403416397e-03,-2.855780680724769559e-03,6.358777731657028198e-02
6.807231490329073154e-01,6.939078142507481006e-01,7.668503055311529648e-01,-1.005127813408962685e-02,9.985775750031392907e-05,1.805975387148045855e-03,8.227431774139404297e-02
7.417839500526304253e-01,5.494630228962603669e-01,5.517981704552833433e-01,-1.952288367832473726e-01,-2.027476074184186849e-01,-2.816676888271937851e-01,7.156929969787597656e-01
6.972910893468928784e-01,6.889354740833848467e-01,7.676351255705700094e-01,-2.473909211712865385e-03,-3.189207002640336627e-03,-1.065096252043917172e-03,7.522063702344894409e-02
7.353641482158390641e-01,6.629058932176604690e-01,7.296249997694752576e-01,1.373119356770805509e-02,1.879201960134442573e-02,-1.033929748833445003e-02,8.254119008779525757e-02
6.838076537947376243e-01,9.021778868842356136e-01,5.376960721035181079e-01,4.523871015910096993e-02,2.853143081055867225e-01,-7.057761740033929865e-02,6.051748394966125488e-01
1.125421057266311031e+00,4.925263358267752967e-01,9.591529130747202814e-01,-1.153931893443277540e-01,-4.613385102853610059e-02,-2.741218377295863706e-01,7.711878418922424316e-01
7.019113767461107045e-01,6.442566851068622924e-01,7.691084694903708163e-01,-1.843519618583426209e-02,-2.843607570903401108e-03,-1.462722860217350327e-03,1.129778176546096802e-01
7.099734191172800690e-01,6.821771956984314933e-01,7.687963331459917171e-01,-5.206061343890782712e-03,-6.002839842679476810e-03,-3.947436217219183092e-03,7.812795788049697876e-02
5.762698527563778761e-01,8.051688990667010826e-01,7.937428934085851706e-01,-1.490927967471444501e-02,-4.610771604661330174e-03,-3.940824495049344289e-03,2.251380681991577148e-01
8.069794586299475769e-01,9.136467141166454420e-01,3.805921725097803354e-01,-4.231032760176259636e-03,2.296196862857058929e-01,-1.844395668619856765e-02,6.308053731918334961e-01
7.806427393828885286e-01,5.957598606825837972e-01,7.281327715277722268e-01,1.006251704235280441e-03,7.473901431338304292e-03,-3.168183122770626414e-02,1.743921190500259399e-01
7.355622248840087973e-01,7.177202667019703108e-01,6.908081033540127702e-01,1.156141075927366070e-02,-2.811549437725888081e-03,2.967769521918784108e-03,4.442861303687095642e-02
7.653015796866136089e-01,7.061759259399519317e-01,6.789881750581154840e-01,6.109593283562514800e-04,1.215753072724431918e-03,-5.837730629764222717e-03,7.713820040225982666e-02
1.130817712346828374e+00,3.616355030948533722e-01,1.153899661504732554e+00,-1.936087798139493332e-01,-1.968591815621635599e-02,-9.272113415464244834e-02,8.656417131423950195e-01
8.828253236156330397e-01,7.028433143179795284e-01,6.299498159896907978e-01,-7.265719157303406062e-02,-2.545456489694276625e-01,-3.270535278972598325e-01,7.628474235534667969e-01
4.608973337071449183e-01,7.914076245780714558e-01,8.036431849556040508e-01,-2.680604339477067610e-02,-2.589092607894423036e-03,-1.127083907763869186e-02,3.405695855617523193e-01
5.811648213053328682e-01,8.486058297429723840e-01,8.552903312863595620e-01,-1.365372937345557258e-01,5.121875464019702562e-02,1.745093449135989155e-02,3.715751171112060547e-01
5.678700169091713823e-01,7.963340292024991829e-01,8.072616242412856691e-01,-4.947813885361269232e-03,1.484708593378297400e-02,4.018780503106411141e-03,2.357858866453170776e-01
4.598329963450392133e-01,8.005234599598136658e-01,8.021979166347319445e-01,1.855609452069779605e-02,-4.358423893543384407e-03,-7.809343064449352379e-04,3.431254327297210693e-01
7.433360400599531292e-01,7.822239060164848379e-01,6.218707456038868875e-01,6.863575541617910475e-03,1.327783779421560367e-02,-3.261151840430633834e-03,1.472811698913574219e-01
7.463259071893925123e-01,9.810510541034215271e-01,8.448776164228679608e-01,2.526045658506503866e-01,2.995417421801792046e-01,-1.945936472707536502e-01,7.847794294357299805e-01
6.339502862329949862e-01,7.296372708121441342e-01,7.580725831870246401e-01,2.242710577354435630e-02,8.030526783455596909e-03,-1.526020581595374966e-02,1.228269934654235840e-01
5.578373353637645637e-01,7.700563652859019337e-01,7.882118556968674694e-01,-2.699887447333377405e-02,4.834754356987346936e-03,8.405712252891430966e-03,2.273508012294769287e-01
4.969465248609192254e-01,8.833521314401321378e-01,8.114318062780991880e-01,-3.389909161073975663e-02,3.941959467184765614e-02,3.023288683445950892e-02,3.708674311637878418e-01
5.594343445540188586e-01,8.067360055825971710e-01,8.147064585659031799e-01,1.613294571169933064e-02,-8.325749184741151540e-03,7.256384960838502783e-03,2.536522746086120605e-01
7.113806757360278121e-01,7.160261786445686338e-01,7.083705350074710472e-01,-3.660999689964894530e-03,2.298160087376532271e-03,4.774769251692568585e-03,1.300284173339605331e-02
7.200353396377655590e-01,6.889280999074525180e-01,7.348015419715354657e-01,7.585717948716546796e-03,-1.539929936409183651e-02,7.804849058642770315e-03,5.207521840929985046e-02
5.216426825346482943e-01,8.287371684464555077e-01,7.925325371450415712e-01,-4.705020064167826643e-02,1.128290775439501625e-01,-1.399161801932211763e-02,3.604430854320526123e-01
7.787177995087889437e-01,7.796836652320290328e-01,6.498065521168218117e-01,-8.295270488320756475e-02,7.403233954884154422e-02,9.607243254795580500e-02,2.855155169963836670e-01
6.696584576064716909e-01,1.177605598062993586e+00,7.192861907385590392e-01,4.755610520502093208e-02,4.401239915074284803e-01,-4.293025740266639273e-02,9.103329777717590332e-01
5.027031618253652301e-01,9.074923697143869594e-01,8.241891051930342327e-01,-9.826554378594069827e-02,3.053758213016772305e-01,1.278652485774214032e-01,7.034583091735839844e-01
4.876689521412158612e-01,7.935701258425887916e-01,8.088749671659972718e-01,-7.908435662989882209e-02,5.194383273206421708e-02,-9.471938208712294902e-03,3.544265627861022949e-01
4.925135489366172514e-01,7.848992850963064649e-01,7.932874730460687251e-01,-4.054369897337267714e-02,2.903711936453041986e-02,3.745009414441299520e-03,3.090554773807525635e-01
6.842001585167779565e-01,7.584443162812468664e-01,6.960269527295743774e-01,3.225340179483646413e-03,8.076300039990814278e-03,-6.808915649876338093e-03,7.169358432292938232e-02
7.265701039094405456e-01,4.221069192779786650e-01,8.874679015181278219e-01,2.583603401165938673e-01,3.037110943726910317e-02,1.608524086731397129e-02,6.093989014625549316e-01
1.003787461707500217e+00,1.103823434464515030e+00,3.783067051965092742e-01,-4.266398873100224476e-02,3.442023847807233472e-01,9.705770314623954342e-02,9.235534667968750000e-01
1.040988675439793898e+00,1.136243513698564467e+00,2.178829055937885339e-01,6.426857363351871390e-03,2.652479567771310887e-01,-7.441413086091122620e-02,9.963870644569396973e-01
7.223736482692700855e-01,7.041386172223522699e-01,7.393641442147417253e-01,2.008783568338320513e-03,-8.956839232463580797e-03,1.558634885763227453e-03,3.451208770275115967e-02
8.098496105452016591e-01,1.123471062212590743e+00,6.837506244605329186e-01,-1.858383230817532011e-02,3.918972566262402535e-01,4.034743878937729900e-02,7.877035737037658691e-01
8.783973337333366160e-01,4.277853887468410221e-01,7.217590047370843198e-01,7.962950418992562063e-02,9.597730928609974135e-03,-2.564735721871927443e-01,6.112598180770874023e-01
1.039796543275545160e+00,8.346046160293175697e-01,7.210615890464129318e-01,1.578232009311201223e-01,2.132527500897893336e-01,-3.347429582886681798e-01,7.909532785415649414e-01
5.187217142710758289e-01,6.033336657563705963e-01,9.867662257752416455e-01,3.185997718582056493e-01,9.094687112808405582e-02,-1.830110661675973527e-01,7.851326465606689453e-01
7.853460697566649884e-01,7.345991399248644749e-01,6.427100422582588957e-01,6.050354569233289820e-03,4.101681951239876181e-03,-9.271279725347541037e-03,1.268862038850784302e-01
7.260842193862449001e-01,4.524145961299699814e-01,8.399515672707622560e-01,1.993504175743328610e-01,5.270725492452909416e-02,-1.194794704197780777e-01,5.379635691642761230e-01
6.947614881435103529e-01,5.807577785659255865e-01,8.553788777049033953e-01,9.806671557759127911e-02,3.425257315264762514e-02,-4.352603964475622311e-02,3.084805905818939209e-01
7.808359385498780947e-01,6.759084019972164681e-01,8.320322807237808815e-01,1.649660693176419890e-01,-1.044710990603220889e-02,-1.168359559424192624e-02,3.184040188789367676e-01
7.879643919958927434e-01,8.145555834509411453e-01,5.061113847538090127e-01,2.203229317935384221e-02,8.815076998280368947e-02,-2.948649742731569365e-02,3.391449749469757080e-01
6.837694170440614672e-01,7.005058334448683866e-01,7.884089931001083684e-01,4.188211235228214008e-02,-2.240974236243848013e-03,3.022529360337643332e-03,1.215856224298477173e-01
3.760573565879222202e-01,9.240479730975247330e-01,7.648081271059538055e-01,7.650355759313846871e-02,-2.078455033134413432e-01,1.593554072635315275e-02,6.215372681617736816e-01
6.750943616229153621e-01,6.712680283808876158e-01,7.545952863372353825e-01,3.046334042969141634e-02,1.012710612059187186e-02,-1.144909164126213345e-02,1.006190851330757141e-01
6.935627573099022447e-01,6.890103971016472428e-01,7.678997031683080232e-01,2.425539746975376946e-03,5.445475774341117318e-05,-2.805863279882564953e-04,7.683104276657104492e-02
6.875496901200383038e-01,6.929759168024435256e-01,7.623370261580879603e-01,2.507900564094794286e-03,1.354709470155235872e-03,-3.252504189562006962e-04,7.239798456430435181e-02
6.890185528596183273e-01,6.972219019717388333e-01,7.662262309120665416e-01,2.826038226304254317e-03,1.064273653824140140e-03,-2.981623492172526344e-03,7.381725311279296875e-02
1.175289102440574052e+00,1.010525893432904887e+00,5.684388328621314823e-01,2.284375238176491324e-02,1.260485970866142072e-02,-3.606391634385787137e-01,8.292475938796997070e-01
6.500367561244813075e-01,7.108924750360194889e-01,7.610947401477676788e-01,-1.696624270952815441e-02,9.288295677678908013e-03,1.642351421563417388e-02,1.058789566159248352e-01
7.311954607061138534e-01,6.770751840224421558e-01,7.366198062491260412e-01,-6.306931476193098837e-03,-1.368635455133283829e-02,-5.621250080230012248e-03,6.346708536148071289e-02
6.498676239122846976e-01,7.857391886433696682e-01,9.223698424210275970e-01,-1.417133461367957592e-01,-6.042719728073416702e-02,-5.446362593543973424e-02,3.685030043125152588e-01
7.456082950128444242e-01,7.025550649002418879e-01,6.923294393813995695e-01,8.876787002644633343e-03,-3.976113795541753870e-03,6.806368942587181191e-03,5.311488360166549683e-02
7.504275368316496442e-01,6.998233976382858268e-01,6.927326469694918831e-01,7.088504484007654947e-03,-4.503029491820426805e-03,6.744637628433023009e-03,5.760140717029571533e-02
7.530939194645703827e-01,6.880078843697011726e-01,6.959123631365147222e-01,3.629958668997336230e-03,-7.628551303524134554e-03,8.673403237247431438e-03,6.499230116605758667e-02
7.621264768607776130e-01,7.002701064931797781e-01,6.857380960763512778e-01,7.571028349118250414e-03,-2.472360902636187418e-03,7.051788708321247816e-03,7.263449579477310181e-02
8.182825422922912484e-01,6.980734617501586081e-01,6.333948597504557299e-01,-1.128219714282084618e-02,-6.012127695108279886e-03,-6.187956924901112654e-02,1.959235668182373047e-01
6.799038418871130585e-01,7.545160775953188015e-01,6.874574581940482432e-01,3.430412917700935080e-03,1.004195897944306672e-02,-6.927679833832800504e-03,7.444632053375244141e-02
7.739321844038355991e-01,8.935113003004289123e-01,8.688201092481978582e-01,-2.701170282603939099e-01,-2.214415068756214744e-01,-2.073555944288974495e-01,7.119999527931213379e-01
6.605920154876609995e-01,8.813886890882743907e-01,6.427401332581690330e-01,3.549847869314877447e-02,-1.812956452151597841e-01,-2.376168114588748242e-02,3.963459432125091553e-01
7.387246192556409241e-01,1.145651894247643021e+00,7.885919502926327374e-01,-8.697226884880614184e-02,-3.765840691860782297e-01,-5.355130238904559636e-02,7.775130867958068848e-01
5.583835427154371089e-01,1.015482058518175634e+00,1.151096315941019022e+00,-2.901018743523417487e-01,-2.134195972887468484e-01,-7.078801176976898257e-02,8.327504396438598633e-01
5.621002527029185236e-01,8.061684931489244699e-01,8.291707097865675946e-01,1.115671939676227548e-01,-4.117192816229365421e-02,5.891723161282796939e-02,3.443157672882080078e-01
6.995702833147540156e-01,6.985936862239519041e-01,7.207028990568512539e-01,-1.464714404313019816e-02,-1.005955736450342766e-02,-1.181289723873590707e-02,4.282538220286369324e-02
7.253860356298539314e-01,7.696193277206603289e-01,6.798946266647498682e-01,-1.294402910992785427e-02,-2.968905059637916982e-02,-7.822202646921563515e-03,9.679261595010757446e-02
7.099042926795662289e-01,7.374810898076020749e-01,8.855836632119497009e-01,1.621579385672669571e-01,-4.464219099911927169e-02,4.776266127156431757e-02,3.442197442054748535e-01
8.621300817371690961e-01,8.261630479608811362e-01,5.556777736505628118e-01,-3.290961340966793575e-02,-8.261145442159052721e-02,-1.206607893985430779e-01,3.893387019634246826e-01
6.497853763598030463e-01,7.479282015760996272e-01,6.736176224340424401e-01,-6.548887157913357848e-02,-1.054274896082553342e-01,-7.081757778400636638e-02,2.629023790359497070e-01
5.535544809736256955e-01,6.688059508606569725e-01,1.079951508377250846e+00,2.740064139816230093e-01,-9.753500369367834599e-02,3.638684959732219060e-02,6.981822848320007324e-01
7.460160105276810727e-01,6.326941245974347927e-01,8.193531761164981608e-01,1.156492938381326607e-01,-1.047219848302128747e-01,9.253428215207265550e-02,3.538969159126281738e-01
5.203208623753019513e-01,8.788241827408300733e-01,8.342719546285283228e-01,-7.225076814546586845e-02,5.500710722089690446e-02,2.679806594846971188e-02,3.760713934898376465e-01
6.433614587309439692e-01,5.652085532729717032e-01,7.796953646117174008e-01,2.834669845272059230e-01,-1.663166485022792296e-01,1.751868804374294986e-01,6.719116568565368652e-01
5.615751516493121542e-01,7.755761424605170928e-01,7.894636441447016040e-01,-2.867433667897546085e-02,7.037170291914382134e-03,9.480710254008877999e-03,2.276973724365234375e-01
7.073702634456493499e-01,7.646014146335832207e-01,6.808591621785846648e-01,8.894582558670035416e-03,-5.238935268463070470e-03,1.130096137657201748e-03,7.628247141838073730e-02
5.691316292307464497e-01,5.205395701664163877e-01,7.993117305151549168e-01,2.816023996251464379e-01,-1.002837529017643475e-01,1.246720705380670174e-01,6.174371242523193359e-01
7.128436369055616284e-01,7.593978868820283612e-01,6.792112813582735775e-01,-2.134668015891676845e-02,-3.009207905644853062e-02,-9.753412429616754864e-03,9.608949720859527588e-02
6.174183077211155002e-01,8.068853204579519156e-01,7.561525594554351359e-01,6.867265904500431152e-03,-3.399986822109175855e-02,5.630146670496567057e-03,1.804547756910324097e-01
6.340121363244842767e-01,7.523849219336659067e-01,8.031269752829435227e-01,5.104693982412372710e-02,-1.070818263632590008e-03,-1.687575891810838688e-03,1.744210571050643921e-01
6.123354613588002371e-01,7.675693909789691460e-01,7.637705970921641052e-01,6.761830404010232311e-03,1.478514252647216906e-02,-2.013956141866374977e-02,1.597875952720642090e-01
7.384599381092710191e-01,7.020550715222813043e-01,7.091116973164488524e-01,2.642349750979015085e-03,-1.492520466428396341e-03,3.248755996424088077e-03,3.431481868028640747e-02
6.641102614307509144e-01,7.123152658176030716e-01,7.685601058405567843e-01,5.758408933969536708e-02,-5.737464846024842996e-02,3.768913744351719275e-02,1.796753555536270142e-01
7.947349992948328223e-01,4.366848996944263095e-01,8.040920579365958831e-01,-4.840532945506775819e-02,3.733857840129225017e-03,5.451568893981056929e-02,3.842195570468902588e-01
7.815957540886683264e-01,5.551588243438774217e-01,7.730514877265312057e-01,-9.588926724358419473e-02,3.065259956818192424e-02,9.967367185312910050e-02,3.310883045196533203e-01
6.789496529901601907e-01,7.545012544302965862e-01,7.497407892379494010e-01,-2.792859103520117445e-02,2.819155807687282606e-02,2.313542105351122646e-02,1.081716194748878479e-01
5.014593202886128420e-01,7.239187620245043364e-01,5.770491719301754641e-01,-1.774790319636865288e-01,-2.777889077817545793e-01,-1.349294351544815529e-01,6.473026275634765625e-01
2.853688938125863439e-01,1.072249316636845196e+00,1.223635375619186005e+00,-1.585025050105634548e-01,-8.624625720812811869e-02,1.298363565542678608e-02,9.270444512367248535e-01
7.875797606525540839e-01,5.421564616174077145e-01,8.014039240017276633e-01,-4.996285117325452441e-02,5.248273837869611713e-03,2.567798875632299263e-02,2.708616852760314941e-01
7.127261373953255319e-01,5.660851117476266570e-01,6.980707913976179624e-01,-1.115314337673205952e-01,7.283501343435602737e-02,1.342523033503084662e-01,3.561922609806060791e-01
6.080645614466446691e-01,7.763585493167084461e-01,7.410507092320693934e-01,4.574256486736249031e-03,2.096902812990728004e-02,-8.508281545758484762e-03,1.588283926248550415e-01
6.109746051957515300e-01,7.716207111762619641e-01,7.290522617249752813e-01,-2.091580567956652717e-02,-3.521959436717878728e-02,-1.279987799358576865e-02,1.621911525726318359e-01
8.067393110528858768e-01,5.847589151289065423e-01,8.113715463252069160e-01,-1.226206599698166644e-02,1.704275652433199714e-02,2.589121649212880460e-02,2.316430956125259399e-01
2.919352266758386549e-01,7.975558362994569217e-01,8.339547444993619107e-01,-1.064857323039877929e-01,-1.302674568054728588e-01,-3.305569660039264085e-02,6.029806137084960938e-01
7.810005424453856371e-01,5.735402470110545492e-01,8.034997571061180954e-01,-2.470452548897319675e-02,1.033253416622707116e-02,2.010041058303625727e-02,2.271056771278381348e-01
6.934228029827473883e-01,7.017757594990257086e-01,7.540439959692892824e-01,-3.419415533446415814e-03,1.577771062632968638e-03,2.097374530052529152e-03,5.739405006170272827e-02
7.065454578431834554e-01,7.149935660043570396e-01,7.209064714825329512e-01,-1.402944052720560926e-03,2.527478270273709332e-03,5.730217562890290925e-03,1.672905310988426208e-02
7.070173333158740192e-01,6.762086188115924434e-01,7.641178788540734512e-01,6.189387428697161291e-03,7.519334165447377066e-03,-5.428776593383722107e-03,7.963544875383377075e-02
4.816547195219246236e-01,1.084405558751323273e+00,8.768573302663517088e-01,-9.813756643600936302e-02,3.356711016278033921e-01,6.682174852795429165e-02,8.133871555328369141e-01
6.456078828115562329e-01,7.684352633530607823e-01,7.013006406575497120e-01,4.435513780203585200e-03,-2.490516246673484327e-02,1.807865474974824362e-04,1.151849552989006042e-01
3.616573220431733571e-01,8.244862821169816058e-01,8.987731581834403904e-01,-6.988200519877847683e-02,-1.496347208316254132e-02,8.611456468534717289e-04,5.190719962120056152e-01
6.827722674556329086e-01,7.429615276602641316e-01,7.138972663890373882e-01,-1.320579372819410437e-03,3.490307185636108700e-03,9.121027460702636064e-03,5.485872551798820496e-02
7.973835527979322713e-01,1.127978737674776299e+00,6.562207213680337770e-01,1.229973059155090587e-01,3.974897247284329138e-01,-1.714050252741873281e-01,8.851023316383361816e-01
6.097373048127351369e-01,8.801918561632520177e-01,3.744225702025247293e-01,-4.366910906275730392e-02,3.658589462324555175e-01,1.012758026909997278e-01,7.938578128814697266e-01
6.858152326936531873e-01,7.641142040003539027e-01,7.277842833114173127e-01,2.236570880879843598e-02,2.912498325685528022e-02,-2.103982311739504424e-02,9.989738464355468750e-02
7.222915270721390613e-01,7.152279354502184550e-01,6.951581797972833376e-01,-1.359868318505122117e-02,7.993447579706830161e-03,5.231713401155979777e-03,3.772299736738204956e-02
6.947188408308069274e-01,7.266018292556249980e-01,7.236448374044260889e-01,-3.965090490562213354e-02,5.885909127172027355e-02,4.107205857724265802e-02,1.452635377645492554e-01
7.781676021454885239e-01,8.548545476170104074e-01,5.496989464132854275e-01,-9.201460303504865185e-03,-6.882209760096191786e-02,-5.605340705755398195e-02,3.154184222221374512e-01
8.781272415894643135e-01,9.066328974096093951e-01,8.485502483096661885e-01,-2.681929464407779573e-01,2.880668091073042003e-01,2.288674919791923446e-01,7.901906967163085938e-01
8.697159149290242253e-01,8.898547325693770826e-01,4.300917999125267177e-01,5.340174833852523104e-03,-2.022401612598730830e-02,2.704578417269588517e-02,4.539112746715545654e-01
7.032638835346213257e-01,7.188852497568791744e-01,7.216435779474321688e-01,1.896014183781250537e-03,-1.059461705082611260e-03,7.686010989121327443e-03,2.204768918454647064e-02
7.500892141903068300e-01,3.730744045966519207e-01,7.461445571761675666e-01,2.210696774815638921e-01,-1.115320701705196649e-01,2.393414245176345434e-01,7.045956850051879883e-01
4.761345851485017100e-01,8.043102424636785486e-01,6.329249593751646863e-01,-1.224354388301101687e-01,2.495614721965578597e-01,8.944656074391654776e-02,5.802102088928222656e-01
1.009956008640781722e+00,8.624454166315022041e-01,3.939749953560292561e-01,4.000494575405222353e-02,-1.639259965379953055e-01,-1.499533325194017941e-01,6.805899143218994141e-01
7.080317219707803478e-01,7.089188676473415773e-01,7.321206818466731159e-01,8.836303469353648174e-04,-7.450473047454983511e-04,3.932716358384391771e-03,2.470022439956665039e-02
5.661589121731911423e-01,1.108337465639175790e+00,8.701225160636812950e-01,1.815723963974617827e-01,3.164343039931806212e-01,-1.233141390782497016e-01,8.163734674453735352e-01
4.692949106431286155e-01,6.603148017415824134e-01,8.954027544558122997e-01,2.919941880701066861e-01,-1.517077390658336071e-02,8.560976651560059034e-03,6.271790266036987305e-01
8.212945546637544503e-01,7.831624152439230491e-01,5.608490082446673242e-01,-1.859426606921921188e-02,-6.919499670584519646e-02,-6.063575229091208024e-02,2.928920686244964600e-01
7.584150812346261983e-01,7.852325912840485422e-01,4.914194623612193058e-01,-8.796447999282168070e-03,-7.048642393219753388e-02,-1.250297253976458481e-02,3.078507781028747559e-01
7.488793061000806883e-01,8.292465816524130506e-01,4.012350675704107750e-01,-6.935274557307070931e-02,-2.014407308389117301e-01,-9.915621244075233098e-02,5.664936304092407227e-01
7.548943081755715712e-01,6.899907096267415829e-01,7.516678331700955562e-01,2.812240479237818058e-02,1.966647153767884029e-02,-2.339150489138310321e-02,9.585344791412353516e-02
2.281552309613419371e-01,1.031452486194552431e+00,1.192172665315772484e+00,-2.350498290542250013e-01,-1.217172537569526924e-01,-1.702993042625772571e-02,1.005626201629638672e+00
7.789588003645772085e-01,6.559517000776610152e-01,6.396870273114261263e-01,4.416135026647581563e-03,1.706781788642188630e-02,-9.305852333386847863e-02,2.104948014020919800e-01
1.039644957087200394e+00,7.442396774247446167e-01,4.539132837492671491e-01,5.786707809527330548e-02,7.956495218503499209e-03,-2.747694879245366484e-01,7.028856277465820312e-01
6.811009133920539194e-01,7.739974170580626867e-01,6.275665780283772310e-01,-5.903639964990767437e-03,-6.349074460675968590e-02,-1.697504141809191630e-03,1.693377196788787842e-01
7.633035161278882708e-01,6.034223019199440596e-01,7.733301213114375239e-01,-8.955070832455155894e-03,-1.485769125091075844e-02,-1.687358815151432032e-02,1.703601777553558350e-01
7.442007048298608929e-01,7.070956449763768914e-01,6.896202002745011050e-01,1.093242639075487493e-02,1.585454011502754335e-02,-1.264164200986874625e-02,6.263138353824615479e-02
6.710089270751966595e-01,7.183216626692598972e-01,7.411973047506876799e-01,1.022748731476279607e-02,9.230150106969606250e-03,-1.759400119613268448e-02,7.308992743492126465e-02
6.355425507045914246e-01,7.681046602546812707e-01,7.336103836630510910e-01,2.080720967625694293e-02,-5.097728230476703676e-02,1.419728052516701193e-02,1.545622646808624268e-01
6.941099737140444814e-01,6.908071985871609977e-01,7.462679688649775933e-01,7.982643875022227622e-03,7.649848074720043412e-03,-4.267542025943515602e-03,5.766277015209197998e-02
6.864933438042356562e-01,6.947952489135691412e-01,7.537849151922784152e-01,6.009573917894960385e-03,3.092853222356314359e-03,-6.373222761816697834e-03,6.555398553609848022e-02
7.881163346538953007e-01,5.792562080633908428e-01,8.065625442304178438e-01,5.823040650662078543e-02,-3.794916737331605668e-03,-1.117914452848820829e-02,2.416732460260391235e-01
1.035226759061338875e+00,4.955770763396364909e-01,1.092160300846016341e+00,2.439986390917854298e-01,5.234893632780658612e-02,-1.347765912276352729e-01,7.526677846908569336e-01
7.360998114488914723e-01,7.577153887967060797e-01,6.310232018357351258e-01,1.481422265761608327e-02,2.060128125914780645e-02,-7.786425846624933818e-03,1.260679364204406738e-01
7.410373836587501595e-01,7.738500588289322080e-01,6.122649956574369723e-01,1.232073451826681473e-02,4.936623519497880530e-02,-3.587504754647621169e-02,1.830625534057617188e-01
8.744032106138056593e-01,8.850709790495264739e-01,7.557853585616606251e-01,2.500680397587213277e-01,2.989779328824431204e-01,-2.734786136951121716e-01,8.340182900428771973e-01
7.273105482295967317e-01,7.093468315918179945e-01,7.025697123857835846e-01,7.606823740722410028e-03,3.833229104928856032e-03,-3.027985301229426350e-03,2.712093293666839600e-02
1.081022116529053001e+00,1.100481464059006598e+00,5.863446858731918843e-01,1.137236948727910896e-01,2.395635270096577452e-01,-2.824985336027281968e-01,8.397011756896972656e-01
8.140699757587037677e-01,7.058800368500907085e-01,6.936840260344672160e-01,5.911672210396841419e-04,-4.530362467152875862e-03,-6.004028082053596699e-02,1.550819724798202515e-01
7.369692113766848074e-01,6.505040804011975597e-01,7.411112920053225528e-01,1.255907297157815398e-02,2.318564812939031064e-02,-1.547643181176483473e-02,1.032278761267662048e-01
7.410602855203477501e-01,6.915227039603590864e-01,7.694314206887904461e-01,8.198439999600143357e-02,-5.058424248519342165e-02,6.119470847469032221e-02,2.091394960880279541e-01
7.822893819669100024e-01,7.350387774241416983e-01,6.319628282461459134e-01,-1.770054157376177049e-03,1.679500588413632926e-03,1.322554558269985192e-02,1.351675987243652344e-01
1.128757103224878211e+00,2.468468580175418037e-01,1.204776227721622295e+00,-1.684385715480552492e-01,1.546919823666234508e-03,-6.440076343593019448e-02,9.737303853034973145e-01
7.356692359799638092e-01,6.382542921062716035e-01,7.345857857767414956e-01,3.564320619911971050e-02,-2.443586100788433177e-02,4.020066895217433434e-02,1.408411562442779541e-01
7.720739636622117041e-01,6.826388615948788541e-01,6.943590859899906320e-01,6.336585704933619121e-04,2.223525999334506707e-03,9.635926807513279721e-03,8.592084795236587524e-02
1.136720773971428677e+00,1.091691165975266387e+00,2.614060594265370518e-01,1.775571797105716595e-02,9.998518140153848238e-03,3.082041534695600937e-02,8.560863733291625977e-01
7.684152951194062053e-01,7.731446315353117660e-01,5.669288258066834674e-01,-1.873975640835046086e-02,2.348340861200701180e-02,2.610748828244540895e-02,2.152319997549057007e-01
7.640291143337640811e-01,7.547124851829283276e-01,6.325285883025435485e-01,1.578147101974665401e-02,-6.307867632342489123e-03,1.916805527459677916e-02,1.346210241317749023e-01
1.082627013227321022e+00,8.543799405427752180e-01,3.738777322295111505e-01,4.119005109628202238e-02,8.389438623835755726e-02,2.044581907404475207e-01,7.377441525459289551e-01
8.122183771953725984e-01,8.026163689811041113e-01,5.830361434862183501e-01,-1.339929950262938076e-02,2.177412011299633895e-02,4.377977320611214224e-02,2.410955280065536499e-01
8.821616322729994852e-01,7.900157563329691657e-01,5.885503895459930357e-01,2.863017202206363451e-02,-6.845395739375624740e-03,9.811209247937101308e-02,3.148348033428192139e-01
7.969930957545844352e-01,1.129962222146741357e+00,4.685023356583120080e-01,-6.110636648993764825e-02,-2.414882104991312450e-01,-1.632939947465602837e-01,7.709074616432189941e-01
1.069648774389233337e+00,7.417538150504771055e-01,3.517953042162895727e-01,8.386910588681883993e-02,-1.855702331579004230e-02,2.608476576835724314e-01,7.833950519561767578e-01
7.666469383842505758e-01,7.311995060056352136e-01,6.450709923048103533e-01,1.602450721426359331e-02,-5.877120767558656825e-03,1.381350673136986368e-02,1.147784441709518433e-01
7.982507225395065742e-01,7.524288453340189919e-01,6.146843409810386349e-01,-6.002192653942028076e-03,2.172857526376177715e-03,2.072797025941404414e-02,1.696941256523132324e-01
8.933573432333139497e-01,1.099109799068827664e+00,5.904727655911835571e-01,4.281610519104831619e-02,-3.331894168202053641e-01,3.461784901190235325e-02,7.338479161262512207e-01
8.308663246978453820e-01,8.315818121694646958e-01,4.378253212610649370e-01,7.975105410396803041e-02,-2.269996110943709178e-01,1.369776305071603861e-01,6.202570199966430664e-01
6.682526300909286121e-01,7.465943806748077671e-01,7.086218814126709065e-01,8.971876932346613265e-03,-1.476952451071387312e-02,1.601736518008495258e-02,7.918381690979003906e-02
8.596085333988952026e-01,7.393253456452237860e-01,3.157984159409712999e-01,4.041990882628021531e-02,-5.573789979032436892e-02,2.486728896680281686e-01,6.667250990867614746e-01
8.014803586554392067e-01,8.890983188558354566e-01,6.217729374757343663e-01,-1.732410885737217798e-01,-3.271425909906813256e-01,-1.138185970904635191e-01,7.111157178878784180e-01
7.616605071182764863e-01,7.637386100382348442e-01,6.239349214664277055e-01,-1.282593828921346768e-02,-8.963391617017882340e-03,-8.974276464672421849e-03,1.422498375177383423e-01
7.170422606758931616e-01,6.814882931679731026e-01,7.357913948153372852e-01,-5.423625126461514498e-03,-1.198011489586925382e-02,-4.878054554682233028e-03,5.359499529004096985e-02
6.980444030716689285e-01,6.769998426240082523e-01,7.209342932512727842e-01,-3.075743305439184935e-02,-2.569989956511485596e-02,-2.534571914713225349e-02,9.052766859531402588e-02
7.628384333063231715e-01,7.812290475041839821e-01,6.205739648575727685e-01,3.213103076270949765e-02,-7.633234057043623844e-02,3.786480661841382794e-02,2.192533761262893677e-01
7.323874901042826124e-01,6.531519395473451839e-01,7.382243569495411384e-01,-1.327973760859502313e-02,-2.234975917430866502e-02,-1.400889843218279182e-02,9.690802544355392456e-02
7.897804632096984134e-01,7.935482719910815774e-01,5.735994199018082940e-01,-1.768424231570310664e-03,-2.055255034475108808e-02,1.126763483089343945e-03,2.210053950548171997e-01
7.098761486677845900e-01,7.048496685596808975e-01,7.379727183431178394e-01,2.781501117621032297e-03,-1.422990518674085297e-03,1.519681146302736359e-03,3.149798139929771423e-02
7.231832010264391819e-01,7.328725458601138554e-01,7.202461656095532350e-01,-2.732801855223439616e-02,-2.360713817747710913e-02,-2.796462852100917509e-02,7.993360608816146851e-02
7.528634663519587766e-01,7.837082322023480874e-01,6.148338802309081252e-01,3.644037396119724406e-03,-1.928782577961917974e-02,3.128055553897085561e-03,1.595189869403839111e-01
8.176920426272367148e-01,7.239467137785922102e-01,7.115779806033976085e-01,2.381453169283542781e-02,2.300989276105483428e-02,-7.405106683262660527e-02,1.727458387613296509e-01
9.384491044714980967e-01,7.542459474063066827e-01,8.910524086834185065e-01,-2.560718848559914718e-01,-1.780679297906054281e-01,-2.962953622726156588e-01,7.633233070373535156e-01
7.539748077357254497e-01,9.328773552955010873e-01,6.553257495780210329e-01,-1.072268277989860998e-02,-1.710610398813816879e-01,-2.858364708786745312e-02,3.872569799423217773e-01
7.663377554362558186e-01,6.896426212910014009e-01,6.790795959179424246e-01,4.037166240998686303e-03,3.066928554328550416e-04,-6.104619947309387548e-03,8.345556259155273438e-02
6.150031160835350841e-01,7.551325504533972222e-01,8.493358559680402875e-01,1.369893142396436947e-01,-9.346577696929522783e-02,6.295627836399024513e-02,3.689273893833160400e-01
7.389861911294810515e-01,7.739940028361436131e-01,6.133569305978012753e-01,8.837954916459885707e-03,-2.860161474818393237e-02,1.065563647025478608e-02,1.563181877136230469e-01
7.984800737034418727e-01,8.165872346890743483e-01,5.832663139574733036e-01,1.429471687441083525e-03,-3.176211371152934393e-02,9.701799094188053724e-03,2.320705503225326538e-01
7.691082676045991606e-01,7.957698833202133670e-01,5.983937792290959790e-01,8.601033778951498038e-03,-2.001112687402952645e-02,-2.218820876798278767e-03,1.893246918916702271e-01
7.710847281673818276e-01,5.940900857722026807e-01,7.628786314436024618e-01,2.733367885859966373e-02,1.664333119992079599e-02,-1.180352858192691874e-02,1.828452050685882568e-01
7.664553225249777224e-01,6.597618400343455702e-01,7.391232936798302067e-01,-1.688400352886465852e-02,-1.628394429828028400e-02,-3.063564530321876214e-02,1.169646382331848145e-01
5.826799091206638082e-01,8.590903390906581283e-01,8.264753835350325817e-01,5.909335736844390993e-03,-8.155719055654522820e-02,2.121887430822530160e-02,2.997691631317138672e-01
8.594976957581527133e-01,8.234297546856437222e-01,5.237358097315837346e-01,3.928557970557217116e-02,-3.175949615281101202e-02,3.575705205555830546e-02,3.367765843868255615e-01
7.503528742158040998e-01,1.000679498702203407e+00,9.357368942529977751e-01,-2.943055650972635218e-01,-3.050563140225819314e-01,-1.779561336330633681e-01,8.274385929107666016e-01
1.056671669660397272e+00,1.074630207724165398e+00,5.006526530673074404e-01,-6.815950887685170989e-02,-2.299441913392286374e-01,-2.398702100747414634e-01,8.152534961700439453e-01
4.680210908117786728e-01,7.280830880916752124e-01,8.249129846454092974e-01,-1.759195514286272521e-01,-2.057672035826881296e-01,-1.363488953806618054e-01,6.146759986877441406e-01
7.608316592803038292e-01,7.919907857510372073e-01,4.804485520526343700e-01,8.510402817476333398e-03,-6.624429248232661938e-02,2.430143439175496550e-02,3.216767907142639160e-01
6.253772829890810181e-01,7.847531726458899515e-01,7.384363133173819094e-01,-6.392506774062576246e-03,-6.295493969576193560e-02,-3.208174286597318195e-03,1.794646978378295898e-01
7.106991920088900905e-01,7.599938359818555478e-01,7.197965050730248393e-01,-2.257090522309488159e-02,-3.129337792658935108e-02,-3.177014349417836558e-02,9.776739776134490967e-02
7.731244865309065961e-01,7.903285802529260717e-01,5.741355938890801980e-01,1.902817757902222282e-02,-3.673892241120505636e-02,1.499166497588470294e-02,2.216431647539138794e-01
4.979754613677634945e-01,1.008218161252495193e+00,1.075739449195176167e+00,-2.294012822594046208e-01,-1.171887513396537850e-01,-4.599338019599934213e-02,7.104784250259399414e-01
7.555285075935777028e-01,7.953596864888627938e-01,5.612654679723152462e-01,-1.058902393078508565e-02,-9.516628777468835731e-02,-9.973416587360287716e-03,2.736184000968933105e-01
7.671928516217956240e-01,5.699824268792982318e-01,8.470910538642785204e-01,1.552054075426829438e-01,-3.805217276808445237e-02,7.792188787421895288e-03,3.712474107742309570e-01
7.324617651050575606e-01,5.576601688864755157e-01,8.052894639411303235e-01,2.401315733261653040e-01,1.236129751379059366e-01,-1.528906775151190056e-01,5.809875726699829102e-01
7.239472330095316766e-01,6.763555034906301167e-01,8.075828618861922159e-01,1.710975207026217693e-01,3.342297035507782454e-02,-2.794571079696558588e-02,3.267376720905303955e-01
1.026253023510481199e+00,1.118198135935490223e+00,4.801964735995814526e-01,-1.392387237017852011e-02,-2.568177108524316576e-01,-2.099800528408492933e-02,7.460625171661376953e-01
8.435678842326611582e-01,6.240268568065736599e-01,8.828562776111757993e-01,1.091371232674514108e-01,4.957838352435355728e-02,-9.856154055893030785e-02,3.614099621772766113e-01
7.563485189951633103e-01,1.041650020175144187e+00,4.936878092886380909e-01,1.062208804707417964e-01,2.774958674139763604e-01,-2.991505333092027707e-01,8.710101842880249023e-01
7.209921278482491758e-01,7.366404057518717297e-01,7.623435072481438146e-01,4.621494380029111948e-02,3.869563311505615916e-02,-3.426121231571051945e-02,1.254142671823501587e-01
7.660360506927849089e-01,6.515797587665967949e-01,7.738335595969408898e-01,9.639115576768110538e-02,4.829359096116206396e-02,-7.038641543427999470e-02,2.525605559349060059e-01
7.667949385802117490e-01,7.974543822364686951e-01,5.953607394490392224e-01,8.118249598749531851e-03,1.789320583969259207e-02,8.670884553464025275e-04,1.916930824518203735e-01
7.887909945971698367e-01,8.042956081360176368e-01,5.664019526394483695e-01,-1.068197537668757677e-02,-2.440181198104958080e-02,-2.550784325694812650e-03,2.351457327604293823e-01
7.624651222822342866e-01,4.914655359758279829e-01,1.085043180245683025e+00,2.873714459736938509e-01,-7.269974313794638765e-02,-5.918573131687825117e-02,7.341849803924560547e-01
7.123545786479380526e-01,5.231848323588107474e-01,9.664049976556516874e-01,3.798636292268204318e-01,9.334709628540159565e-02,2.779554574933324959e-02,7.808542847633361816e-01
1.100984239168816714e+00,1.162737771398365094e+00,4.506953995240344235e-01,2.528034111665599173e-02,2.124730675404210012e-01,-4.888872109749478612e-02,7.819007039070129395e-01
6.263843275451347337e-01,5.854261369223973110e-01,9.135846107788860859e-01,-2.585070181685339419e-01,5.730667640457257073e-02,3.515007604903915700e-02,5.567415356636047363e-01
5.801836086095480960e-01,5.525577587211860653e-01,8.204473798431785037e-01,2.877116775939122517e-01,8.761924695852572886e-02,-1.091338046985946275e-01,6.101011037826538086e-01
4.818498387987255605e-01,7.790289771352741921e-01,7.937029317743323764e-01,-8.238787125925138566e-02,-2.831002939386188452e-02,-1.824875932071397169e-03,3.401017487049102783e-01
4.841051649829616887e-01,8.773091908821299967e-01,9.264526737989284833e-01,-1.258271267784528413e-01,-9.092698504866462625e-03,-1.487165211918886794e-02,4.740852415561676025e-01
7.732893237515494622e-01,6.861753739508748007e-01,6.974617432314736964e-01,-3.381982183976087577e-04,2.892488820808439796e-03,-1.301843260240213851e-02,8.524613827466964722e-02
7.026840256072297564e-01,6.535082425009708373e-01,7.675898799157669927e-01,-1.578616660465842134e-02,5.425754475474710466e-03,3.327791043684585979e-03,1.034019887447357178e-01
7.284722929969902339e-01,7.215343379921648204e-01,1.156156606980185408e+00,-4.027941603569209494e-01,3.185716521656927185e-03,1.195750493060586672e-01,8.459218144416809082e-01
7.294709816232410882e-01,7.160048389942985647e-01,6.885354996841724917e-01,-1.369282111348269805e-02,-9.914017822941888908e-03,-1.080273653225576752e-02,5.013230815529823303e-02
6.931010517873356092e-01,7.422296557181752297e-01,7.148297810311869949e-01,-1.522794329298565036e-02,2.416935783847865352e-02,1.111763185367319572e-02,6.809702515602111816e-02
7.010114283670044744e-01,7.359146077969974664e-01,6.968878025791801489e-01,-7.663044108019826522e-03,3.009117832807496964e-03,3.426677473272917319e-03,4.022090509533882141e-02
6.826836211344790017e-01,7.561245366381670330e-01,8.316391329047905234e-01,-1.200511216070864057e-01,1.042889096925628117e-01,6.514369766474460699e-02,3.244045674800872803e-01
8.510577575887976476e-01,7.097525477236050762e-01,1.060752723873671144e+00,-2.971406569196226033e-01,-1.133774178491288587e-01,-1.622422628356221530e-01,6.899121999740600586e-01
7.351198231130230409e-01,6.956306152971593049e-01,7.015456953876565427e-01,-3.375154388771511513e-03,6.849647042848489020e-03,6.543567831869278456e-03,4.079444333910942078e-02
6.362922651569586918e-01,7.660547764352361177e-01,1.253272260798696802e+00,-4.387150308356450590e-01,-1.021827708100420673e-01,1.457605608493845600e-02,9.627127051353454590e-01
8.002305600928326657e-01,6.042839591450193115e-01,7.409897872417020581e-01,-7.528837722617857074e-03,-1.404027172541925245e-02,-2.690757600263448887e-02,1.822909861803054810e-01
7.154087066110641491e-01,7.130566551807862030e-01,7.115766724624761341e-01,-2.399296926903304091e-03,5.802469438876327410e-04,6.873435440091267903e-04,5.558844190090894699e-03
7.374448043381964801e-01,7.064171479859614466e-01,6.637329800825954029e-01,-1.226740814953263155e-02,6.337825488612626110e-03,1.322887741999439690e-02,7.215278595685958862e-02
7.608006110400132860e-01,7.043866670651764972e-01,6.519975143896906689e-01,-9.218495901453609837e-03,-9.727375077691330710e-03,-1.846090128287284499e-02,1.021951884031295776e-01
7.644557593414978980e-01,5.963443519153899253e-01,7.815610377324018199e-01,-1.227404920089572929e-02,6.742088059312944560e-03,3.515858401401110878e-03,1.790392100811004639e-01
7.099812541221051099e-01,7.108058555577274618e-01,7.124489888713546604e-01,-3.465222177502875686e-03,7.037008131127421399e-03,2.579415790391960048e-03,1.446639839559793472e-02
8.769700993311562165e-01,4.744880646590143858e-01,8.531728516542028684e-01,-1.520917842715803492e-02,9.485511882246798476e-03,-8.208485868789369699e-02,4.173221588134765625e-01
6.918713568589607288e-01,1.088919864214846323e+00,7.021080960485810429e-01,1.524511529112086428e-01,-4.161544070463611966e-01,1.693829943410651295e-01,9.105147719383239746e-01
5.799182351832183890e-01,8.331930162709803023e-01,7.800099344072717322e-01,-2.623134054759179018e-02,-9.755976958970016821e-02,-4.765809017258798574e-02,3.015600740909576416e-01
7.426048971219433303e-01,7.121498398560767162e-01,6.883587358638119102e-01,-1.030831863652668934e-02,4.447740815691980480e-03,3.392292912874745724e-03,5.129075050354003906e-02
8.077101138773935540e-01,5.264639921747450435e-01,7.922186218518826317e-01,-5.743467447682885051e-03,7.359192480562585029e-03,-4.129620726194822150e-02,2.834784090518951416e-01
7.065819176203274044e-01,7.578611011083428162e-01,6.746206717685453436e-01,-1.051736567463633538e-02,-6.915501348584419256e-03,-3.008390897223781491e-03,7.610841840505599976e-02
7.330966650742896107e-01,6.044994108661849719e-01,7.785999066117693657e-01,-2.769924818229025851e-02,-6.059763172904258748e-03,-2.712368781543119875e-03,1.639919728040695190e-01
8.500686535564343504e-01,7.703334438897472269e-01,5.790600283789284486e-01,6.480893484202361957e-03,1.540326456670029938e-02,-1.284410604904045183e-01,3.294291198253631592e-01
8.367281453054220552e-01,7.569003528877135123e-01,5.672815521714945630e-01,2.202268440271781466e-02,3.133321277315982700e-02,-1.907562749577439709e-01,4.135562777519226074e-01
7.921652255733403480e-01,6.813811207153543936e-01,6.693371335728954818e-01,-2.068164627087257929e-02,-3.893935609920060742e-02,-6.006260416990808620e-02,1.743760854005813599e-01
8.141148919240185355e-01,8.133737608074383951e-01,5.495448632439982051e-01,-1.608591816510925379e-02,-5.109446423070034687e-02,-6.444405155157982568e-02,3.014449775218963623e-01
6.754944285284416594e-01,7.645190850450600539e-01,7.058964271048659977e-01,-2.216598715139517662e-03,-6.611793694918043605e-03,-2.038547563176851436e-03,7.938197255134582520e-02
7.603537834269150641e-01,6.723614414290530750e-01,7.501121930789065306e-01,2.453337342720688166e-02,2.055651566615978101e-02,-2.783493346133863663e-02,1.111039221286773682e-01
7.516799075710799416e-01,7.725513302197448695e-01,6.448294792690593136e-01,-8.047967064222633776e-03,-5.697957743612178105e-02,-2.306879871343293573e-02,1.600424498319625854e-01
8.478968645655001746e-01,1.072412495509321717e+00,7.209426523479692817e-01,-1.893114148001057706e-01,-3.079534701172083055e-01,-1.916427377402167287e-01,7.728073000907897949e-01
6.968569671380407948e-01,7.364472850499468315e-01,7.039493962897633850e-01,-3.904059950796980299e-03,-5.842190300302143972e-03,-7.154957507176317420e-03,4.047966375946998596e-02
8.777845923751267376e-01,8.565699476528608747e-01,6.081908384463833306e-01,-5.270036200304557134e-02,8.283739685596192004e-02,1.397220870103696722e-01,3.935687839984893799e-01
1.018282226558962389e+00,1.015434241224789647e+00,4.980983222306460956e-01,1.117075875132833851e-01,2.802528919893464976e-01,-2.909960270801535964e-01,8.923087120056152344e-01
1.142464819585766733e+00,1.057187860464134710e+00,3.104242226968172425e-01,3.646189083709385631e-02,1.179063886706134823e-01,-2.546729973198130770e-01,9.321367740631103516e-01
9.898289406843234772e-01,9.370093161248684854e-01,5.358818693728050198e-01,-4.871221720467654170e-02,1.153096694285883211e-01,-3.308887896205671142e-01,7.485654950141906738e-01
7.939773861323788928e-01,7.152550137599597013e-01,6.586957214568877061e-01,2.809009618702064393e-02,4.240843872704135736e-02,-1.010113546150866737e-01,2.285193949937820435e-01
6.674493791870605985e-01,8.867419110534294768e-01,7.528439629595266025e-01,2.163108788300789967e-02,1.548837230949972610e-01,-1.843868371588013033e-02,3.332350850105285645e-01
8.925488626812845272e-01,8.039567483287505256e-01,5.832861865433265347e-01,6.940370867076098294e-02,6.071986646479168165e-02,-1.784067734876893241e-01,4.439504444599151611e-01
6.406937473468040656e-01,7.397527226506966924e-01,7.263774198574312058e-01,-1.343504252713911482e-02,1.653071089351208778e-02,1.488072717480949138e-02,1.034032776951789856e-01
7.806664896076660476e-01,9.605643128023080290e-01,6.611453518712858690e-01,8.110517548134299481e-02,3.836632490022194863e-01,-5.572370911407933947e-02,7.340245842933654785e-01
2.505581241210446120e-01,1.138024865827409471e+00,9.237250287701224138e-01,9.790234361025221266e-02,-1.390012421887491523e-01,-2.401168818773066066e-02,8.554449081420898438e-01
7.749375741843008703e-01,5.020194878246240222e-01,7.592204531924581223e-01,2.644185703403891322e-02,1.161344574972894735e-02,-6.472882432291994503e-02,2.924267649650573730e-01
6.249459453299470724e-01,9.562675137306707596e-01,9.439116082291258980e-01,-2.356472223824319645e-01,2.434590829414717272e-01,1.383358732576225325e-01,7.124950289726257324e-01
6.241845617959358439e-01,8.613877158150543556e-01,1.115636799216079389e+00,-3.361423513111754247e-01,9.457788989925966505e-02,1.210169020965901759e-01,7.687404155731201172e-01
7.903486686749700008e-01,6.209249098794215049e-01,7.352153714850556687e-01,1.340575735405930176e-02,9.285546385240241174e-03,-2.589339404824835683e-02,1.587841659784317017e-01
3.065115205553523570e-01,1.146307710521900614e+00,1.071752216336684604e+00,2.739333741609583858e-02,2.060447348267862022e-01,9.147653443485509114e-03,8.820829391479492188e-01
7.250253151001176954e-01,9.013772534041473161e-01,6.369697407728567295e-01,5.143788556924663163e-02,1.822996108443227514e-01,-5.232134757773983236e-02,4.125919938087463379e-01
7.562089985752979970e-01,6.289890055665117163e-01,7.333183695242930789e-01,8.624402695649249773e-03,1.824611125402187534e-02,-3.247390969937698213e-02,1.348418593406677246e-01
7.013790652336827636e-01,7.190386412310711961e-01,7.428637312543651117e-01,-2.017072180794014444e-02,1.845634066082977101e-02,1.102037429617163874e-02,6.250652670860290527e-02
4.062683454627863400e-01,9.159844965290020458e-01,1.107786578329966520e+00,-1.908844915403178910e-01,9.054633138747578136e-02,3.361299163744398827e-02,7.291496992111206055e-01
7.381633724422024256e-01,6.063511163365979950e-01,7.791281069888662536e-01,-2.422226168852701159e-02,6.203629803386599868e-03,3.714531444997051009e-03,1.623860746622085571e-01
7.734062460308510634e-01,6.514727262256972962e-01,7.329783687934656733e-01,8.948356153690727871e-03,1.188354529412798642e-02,-1.096028684187212027e-02,1.122360974550247192e-01
7.179053841514653200e-01,6.874547481364806645e-01,7.910829101069669633e-01,-3.334878937341891753e-02,5.638129132787250350e-03,1.557811020444288021e-02,1.125624999403953552e-01
6.981053216180558296e-01,6.995030574472443918e-01,7.361573977760446086e-01,-1.734929893812343438e-03,2.859384058131306163e-03,5.654095908270577280e-03,3.906650841236114502e-02
5.919161279893803140e-01,8.169763070974702668e-01,1.239969175490812869e+00,-3.866424233089736928e-01,-7.788975621194878241e-02,9.176687846520568265e-04,8.896369934082031250e-01
7.118354734259929595e-01,7.219556348616860131e-01,7.073942662193870579e-01,-5.242179440943258058e-03,1.827474081268971092e-03,2.349257407656697022e-03,1.661640964448451996e-02
1.702874098505783307e-01,1.102724456407379483e+00,1.245859348397714950e+00,-8.994724503296988583e-02,-1.164398299679390292e-01,-2.099395052039039825e-02,1.043867468833923340e+00
7.603271256865958838e-01,6.877218838815213342e-01,7.183259016276882791e-01,1.898439897781254923e-02,-2.190383065120169934e-02,2.785377961473672545e-02,9.399026632308959961e-02
7.003325249749464687e-01,7.087747899723920719e-01,7.393017695832022618e-01,-2.714881178372428091e-03,2.992157616175336078e-03,1.599400810077398778e-03,3.629779815673828125e-02
5.926896500495282272e-01,7.969534582387446386e-01,8.744336282415647865e-01,1.342436008370364586e-01,-9.057072374749702837e-02,6.021057320691987347e-02,3.912830352783203125e-01
7.112460101737502205e-01,7.138420552008754028e-01,7.168004630506055186e-01,-1.290237485499832245e-03,9.385577597612144649e-04,2.160858844545536679e-03,6.694514770060777664e-03
6.128434798683330964e-01,7.294382230847560322e-01,7.542463540185601056e-01,2.737768860194400578e-02,9.207930822352900641e-03,-1.698956307378183053e-02,1.430775374174118042e-01
3.608008112273752288e-01,7.341430506174757564e-01,9.000070410121601139e-01,2.777653348783086229e-01,-4.904117053312757879e-02,3.524486771089287152e-02,6.864559650421142578e-01
4.700220964694018511e-01,6.012077765029334442e-01,8.543352161363340080e-01,3.114868881287533586e-01,9.240051922884170987e-03,-3.367454481179878861e-02,6.397032141685485840e-01
5.407762171120031880e-01,7.929548666801432555e-01,8.117397975473725769e-01,5.397870573693331481e-02,1.128039778160248863e-02,-2.275702734885084750e-03,2.789668142795562744e-01
8.824873528617733776e-01,6.410140499214970200e-01,1.030433584816977888e+00,3.318804392685569260e-01,-1.246303151732104098e-01,1.701640708428591997e-01,7.614604234695434570e-01
7.111917619400266455e-01,7.696567129981566335e-01,6.266302530280993821e-01,-1.513199820813749576e-02,3.807124005599607508e-02,2.424784412904571265e-02,1.493711769580841064e-01
2.939653639368314808e-01,1.217294830298095265e+00,1.190117522992941934e+00,9.358707171762119248e-02,-1.210084537909580649e-01,6.505809527241589174e-02,9.545075893402099609e-01
3.303498826390171006e-01,1.230463080467784742e+00,1.296221849043053709e+00,6.328445716814613820e-02,-9.023486372095158858e-02,2.297383269357597402e-02,9.548525810241699219e-01
7.830376605467245232e-01,6.065741468126977232e-01,7.375465479321385853e-01,5.405276637841007967e-03,6.575991430932424074e-03,-3.548346338562382435e-02,1.708095520734786987e-01
7.114347263281759481e-01,7.147436350145408568e-01,7.131100347183820798e-01,-6.760691279411008316e-03,5.742962413292222387e-03,6.615813970284128986e-03,1.938000880181789398e-02
2.952375362505532674e-01,1.064307765372179304e+00,1.145746463959686157e+00,1.731519985514702320e-01,1.390351365231618785e-01,-2.644405710042825250e-02,9.004267454147338867e-01
5.677122124062006225e-01,7.922648712233085755e-01,7.800634123719289992e-01,6.714809412187731398e-03,2.088324152726834387e-02,-6.502492327940527506e-03,2.222686260938644409e-01
7.110226981506357902e-01,7.105555670064788165e-01,7.132810811763625747e-01,-7.297889770931449867e-03,6.316512774882290966e-03,6.874317433164915843e-03,2.067884802818298340e-02
7.009303085406454192e-01,7.125505366690589870e-01,7.232840024563577108e-01,-4.173098629182097133e-03,5.028361840551494148e-03,7.583889094165100105e-03,2.599242143332958221e-02
4.417530485561012576e-01,8.586444611635202229e-01,1.168431739082925080e+00,4.210156207739693679e-01,2.495867373242116605e-02,-2.609779818543580404e-02,9.667413234710693359e-01
7.091996381640160996e-01,7.146428530993419459e-01,7.234220610213388802e-01,-2.740639644130733136e-03,2.418606681014963400e-03,7.034273895168915731e-04,1.400203257799148560e-02
7.095452200946962273e-01,7.598168387260736401e-01,7.877035648613841534e-01,1.371369584862544289e-01,-1.464250443572116533e-01,8.719029329232963477e-02,3.850373625755310059e-01
8.354082229464446785e-01,6.194884258177282277e-01,1.102555345957499711e+00,3.705457824794958777e-01,-7.569563128132755780e-02,8.539932734441531281e-02,7.916138172149658203e-01
5.553813547389001570e-01,9.421477009450491824e-01,9.859485574745826542e-01,3.061992803626000792e-01,-2.574140703708048816e-01,1.436988498091983091e-01,8.428852558135986328e-01
7.113178950401224387e-01,7.719546488802627726e-01,6.776446243104415901e-01,-2.768596526753286727e-03,-3.273462806428999866e-02,-8.679884786148367448e-03,1.015688329935073853e-01
7.729623458040960626e-01,5.531552429942927507e-01,8.407465535021696468e-01,7.804386101805672882e-02,2.839573598175930413e-02,-9.414157433658991436e-02,3.392472565174102783e-01
4.603498224518137727e-01,8.288800081077387638e-01,7.375805576595085844e-01,1.234111014530199085e-01,-2.241609694874813485e-01,6.303601307421737021e-02,5.646764039993286133e-01
5.405667417053489077e-01,7.692472211120510162e-01,7.707465652056241234e-01,4.352973912833624226e-02,-4.588006597875305542e-02,1.143556587941070742e-02,2.550130486488342285e-01
7.842763019486443943e-01,7.415634241132568194e-01,4.894960094968541231e-01,6.184991987782452981e-03,-1.671371187613558337e-02,7.529174472384053685e-02,3.067380785942077637e-01
7.342658106642407922e-01,6.618999107961470729e-01,7.575841718327406271e-01,9.224286353224388918e-03,-1.288800354245143651e-02,4.618391252697125714e-03,9.102514386177062988e-02
6.623724421115504413e-01,7.299281366592509368e-01,7.627196109184245509e-01,9.949628314527428699e-03,3.955295559560386906e-03,-1.119501220316741937e-02,9.259701520204544067e-02
9.351325880214802488e-01,7.945235381736546199e-01,6.760974501412360116e-01,4.640877704778452462e-02,-3.030327280992842209e-02,1.811761474106551584e-01,3.976656794548034668e-01
6.272366380348090020e-01,7.304489907769313728e-01,7.807733590408241220e-01,1.217971898346038515e-02,-4.214282174040906654e-04,-4.908970304805993943e-04,1.372068524360656738e-01
7.087369818835330681e-01,7.543564536128183340e-01,6.646218945370198083e-01,1.245905463179525219e-02,-1.255609369573375267e-02,4.208979474710329051e-03,8.385452628135681152e-02
1.120602445419052628e+00,4.677777724223090572e-01,1.072332705063347102e+00,8.284583115931441755e-02,3.148834218996031387e-02,-1.854729634580219721e-01,7.237153053283691406e-01
5.980440127370245662e-01,8.835524282874255286e-01,8.457525203614596476e-01,-1.377778976073858706e-02,-7.383960469341935284e-02,-7.115012301583684660e-03,2.987137734889984131e-01
7.853173020976267349e-01,5.722134499913195116e-01,7.765068343312241383e-01,-5.094058567101810223e-03,2.498122054509089272e-03,2.228907494033099262e-02,2.126036435365676880e-01
1.140662944142169621e+00,3.892713032993062594e-01,1.216497583989498921e+00,9.042864144906141710e-02,-9.252676837956986394e-03,-9.385969442253550010e-02,8.237351179122924805e-01
8.061071216466904055e-01,5.389344969855706102e-01,7.962181034886504083e-01,-1.036551922925241578e-02,9.248074745992442740e-04,5.178602809394569628e-03,2.631392776966094971e-01
7.988206770692261038e-01,5.399407599127907798e-01,8.196527880377922903e-01,3.295326920549060488e-03,-2.074173357178570043e-03,-4.483069507093164451e-03,2.700954973697662354e-01
9.497986288646205200e-01,6.945902235562908533e-01,9.599432771499180062e-01,2.705812943567393325e-01,1.611886061024678518e-01,-2.570097811953656053e-01,7.507151961326599121e-01
7.546297365617111730e-01,7.180622849722612111e-01,6.042034745455542311e-01,-2.141754756418560307e-02,2.370106427135401997e-02,3.736304014127720535e-02,1.603554785251617432e-01
6.281068647022385321e-01,7.954076649757323425e-01,7.616444014849851341e-01,-1.149793526027825287e-02,2.052083585190789261e-02,1.845337501352441525e-02,1.617479473352432251e-01
7.438666896234810144e-01,6.064083676106208909e-01,7.953936106428405317e-01,3.461563710648900283e-02,1.418406783410665339e-02,-1.143533074595448054e-03,1.812038421630859375e-01
8.161098638052749488e-01,8.587448911968855736e-01,5.282202408900894541e-01,-3.288966480777304191e-02,1.052957919938494287e-03,4.343198262185187647e-02,3.253918886184692383e-01
7.817716575206740126e-01,5.750892132894904751e-01,7.627727333126782527e-01,5.659030914976391317e-03,6.129664391115499308e-03,-1.482856752146101062e-02,2.000507414340972900e-01
8.777714889723463587e-01,8.827463872341120288e-01,5.488770074031394941e-01,-2.287262014716002004e-02,4.889237239511337596e-02,1.099655626113768825e-01,3.935107290744781494e-01
7.365895155015967921e-01,4.886146931839069341e-01,7.316961650732286548e-01,-2.137562621312521505e-01,-1.332860558903387338e-01,-2.096744733689439033e-01,6.185166835784912109e-01
1.118487253802177506e+00,4.174364502626672357e-01,1.208865119148617495e+00,-1.422773202108676416e-01,-1.559360747816718878e-02,-1.403739061881496553e-01,8.267843723297119141e-01
7.037081648651368759e-01,7.549953509588284151e-01,6.641214799457234585e-01,-3.010371472367436366e-02,-5.470650615166160191e-02,-3.695588193971340030e-02,1.483984142541885376e-01
7.940287443486446772e-01,5.722639705390046849e-01,8.038661037795152842e-01,3.788886703334672611e-03,5.432186226285724839e-03,-1.841468463511337222e-02,2.293618619441986084e-01
5.472806127284342015e-01,8.052705456533402195e-01,7.898943581635405886e-01,-1.361619760865377324e-02,-2.744333108995125614e-02,-5.439971285392993135e-03,2.563839256763458252e-01
4.118324848288412166e-01,1.013910446288984968e+00,8.685010826164444309e-01,3.061243848506263812e-02,-2.627831653245217280e-01,-6.130810565179759669e-02,7.192679643630981445e-01
6.286599202534919328e-01,7.439550635815679325e-01,7.855141054554161117e-01,5.239252193237948357e-02,-3.576143485626410122e-03,9.092769711626608881e-03,1.683241277933120728e-01
3.840715529255413485e-01,9.584656994613625081e-01,8.670735100690087904e-01,-1.855323403267304661e-02,-4.776344375402753056e-02,-1.270886331563996462e-02,5.423534512519836426e-01
1.135758796104334056e+00,4.948944254057304759e-01,9.666983698081236254e-01,1.428315014083402119e-02,1.195387397996660640e-02,-2.696269888403008963e-01,7.416741847991943359e-01
7.837393522583214756e-01,6.189556231494730554e-01,7.283395867900432918e-01,4.499701936041551609e-03,-1.084627428856308265e-02,-1.415536012983430007e-02,1.486896872520446777e-01
7.753473808260580302e-01,6.345011434821526963e-01,7.566199256566953357e-01,2.225773437890217477e-02,8.464208597571748136e-03,-5.987156283607316526e-02,1.732213944196701050e-01
5.533524568756540418e-01,8.866469720242462493e-01,1.123553979723483698e+00,3.754743442497521233e-01,9.680966917160911678e-02,-6.687027792989670705e-02,8.429971337318420410e-01
6.919360236211167248e-01,6.941467878827950466e-01,7.681975301740485707e-01,1.277793817890143444e-02,-2.493880284008412676e-03,-2.870903269772134489e-03,7.864680886268615723e-02
5.222969395066272558e-01,8.193850038060135343e-01,8.103043765235034002e-01,1.519447694405179523e-02,-1.207098385547943770e-02,1.571567082553532863e-02,2.958322465419769287e-01
6.822920111822806666e-01,6.817432194826257286e-01,7.490670165236925637e-01,2.037963838009222359e-02,6.789055549019814423e-03,-5.663940689310640805e-03,7.730686664581298828e-02
7.376385729068978270e-01,6.426468498773596494e-01,7.861046297699959551e-01,1.012630989631003661e-02,-2.820632984775472973e-03,-8.516579710061794551e-04,1.277103424072265625e-01
6.827166248326130837e-01,7.119922730770538166e-01,7.393872373425504074e-01,6.223738213601457195e-03,-5.710243514733473122e-03,1.344328086377205578e-02,5.626494437456130981e-02
7.704825382362883168e-01,6.877760602423468317e-01,1.127597759059031812e+00,3.639851052095297579e-01,8.737486285909537576e-02,-7.899199372164360244e-02,7.765212059020996094e-01
8.006094055351452576e-01,6.172535644463692517e-01,7.418206383820649119e-01,1.665838883383365457e-02,-2.715197283094548594e-03,3.007214885413567879e-02,1.728115826845169067e-01
9.239975933938149311e-01,6.009670141388437914e-01,9.699366565946014873e-01,3.023976893346886907e-01,1.599642613491699394e-01,-2.388034186527549507e-01,8.021713495254516602e-01
7.512439531169603502e-01,6.821578585554732843e-01,6.780295449011076725e-01,1.855195996643383555e-02,1.778497587755516890e-02,-2.531533392276180683e-02,9.475854039192199707e-02
6.818467030192024714e-01,6.974306747912364379e-01,7.634435928576196462e-01,7.530194115707451903e-03,-4.494766967749082992e-03,7.518161891260223377e-03,7.765047997236251831e-02
1.005204757509833069e+00,5.416384465649350943e-01,1.177798280938531228e+00,2.877486463043061327e-01,2.197333970290566221e-02,-4.388384512892117700e-02,7.617837786674499512e-01
5.655717613833910473e-01,8.846768507301626672e-01,8.733831221034767944e-01,-6.503320686308325382e-02,-4.936968813697158870e-02,-1.654448968112598103e-02,3.452143371105194092e-01
5.950943577683168728e-01,9.994654974499537214e-01,9.624434749577484016e-01,2.638394413232280633e-01,-2.431900180251345411e-01,1.518758913799742871e-01,7.780570387840270996e-01
2.783206167191817348e-01,9.663404550749663535e-01,8.070625289930630775e-01,3.143239724706574367e-02,2.193291155135552173e-01,-1.634692799664588109e-02,7.329637408256530762e-01
5.390861706483279780e-01,8.433194294602399665e-01,8.360115192462409528e-01,2.174634018772500788e-01,1.710788581167377864e-01,-8.730875659325891547e-02,5.856034159660339355e-01
5.221747915816087326e-01,7.443090360814534900e-01,7.901644122969067041e-01,1.179822237929604306e-01,4.506576853001526689e-02,-5.357596259894903401e-02,3.436505794525146484e-01
3.285599071239588831e-01,9.975531351435253935e-01,9.759891785210029758e-01,-4.664415283781521426e-02,-1.946507269602479329e-01,1.083840979873845201e-01,7.674801945686340332e-01
5.548523555737007174e-01,8.055311210206332895e-01,7.960094292437194241e-01,1.917156666981183200e-02,9.881340624785080184e-02,-5.370214630864883661e-03,3.017035722732543945e-01
3.036690067183004937e-01,1.050097253064805169e+00,8.978190136108348263e-01,-1.199928147315052485e-01,6.921975018091785364e-03,5.802262606582383325e-02,7.211917042732238770e-01
5.389257441733750209e-01,8.606804748498324553e-01,8.513971112921173701e-01,2.468818748218687964e-01,-2.270989848700915303e-01,2.429578182120513685e-01,7.844008207321166992e-01
6.845740199909904344e-01,9.146957165755553731e-01,6.914955284384731726e-01,2.145643475686112578e-02,-2.061523505835281267e-01,8.155001790523166288e-03,4.248389601707458496e-01
5.350831049204014533e-01,7.801441318420699877e-01,7.617632061099857133e-01,4.426862521806022160e-02,6.264889824406121022e-02,-5.981116012779008617e-03,2.713842689990997314e-01
7.127926761195385597e-01,7.081336492702358099e-01,7.085093876591949114e-01,-6.275440263701093264e-03,-3.507079485408613230e-03,-4.080133045045839998e-03,1.500272843986749649e-02
7.337675012518644069e-01,7.463358174783100152e-01,6.654145157511082154e-01,-1.567024593554453005e-02,-6.689681830081615696e-03,-1.031332485394819386e-02,8.294090628623962402e-02
2.433429829518064524e-01,8.706065724019835805e-01,7.951723366455304420e-01,6.914676899659759346e-02,2.172724200323762900e-01,9.539594367660305177e-03,7.127913832664489746e-01
6.144400482152259091e-01,7.879468425250596431e-01,7.670537386710176708e-01,1.606694957044383157e-02,8.906303563876699636e-03,-1.028163627379691421e-02,1.680642068386077881e-01
6.244998957270926354e-01,7.378480555534127072e-01,7.817274760252966859e-01,-5.723840922807049009e-02,-6.014233258746662890e-03,-1.867891590780104520e-03,1.723210513591766357e-01
9.632406219717996043e-01,9.574865706106310270e-01,6.952213677866273533e-01,-1.418159911406229601e-01,-2.460386706784056798e-01,-3.019122326401413869e-01,7.653225660324096680e-01
5.683675769382511289e-01,7.710945340305757068e-01,8.148079276008636240e-01,7.310085184522933932e-02,5.534831648224299711e-02,-2.948903573382181259e-02,2.823141515254974365e-01
7.639611414158008484e-01,6.640555170313866551e-01,7.039418038356189955e-01,1.225516378186253209e-03,-1.565338173420338956e-03,-6.302278059146754902e-03,8.785327523946762085e-02
7.131003351169511451e-01,7.003732471848151953e-01,8.140429918707809964e-01,8.061352790740604346e-02,-2.564022123659364175e-02,2.055673864674817733e-02,1.853961348533630371e-01
7.659511484241486867e-01,7.352284212597783863e-01,6.711077775764525688e-01,-1.147215003795584373e-02,-1.714792212711736819e-03,-6.510267780567863087e-03,8.692587167024612427e-02
7.644053871184389726e-01,7.869156022131919004e-01,7.078705669497757924e-01,4.726444927852017225e-02,6.404598937329351871e-02,-6.196049318706752657e-02,1.884151399135589600e-01
7.211926484267533466e-01,7.074068839896923144e-01,7.083977151265719030e-01,-4.726305884709173198e-03,1.819751273217058663e-03,8.670856881161192846e-04,1.601791381835937500e-02
1.049442437843695286e+00,1.020783638404615834e+00,5.409769689421263239e-01,-5.771238143524672765e-02,-1.637203495529497010e-01,-2.880873055083910117e-01,7.643131017684936523e-01
7.933078569490347176e-01,1.022904170444452365e+00,4.146155260221773275e-01,-6.323654702370040681e-02,-2.727532262172121524e-01,1.009348089524620268e-01,7.408183217048645020e-01
6.246826471938554670e-01,7.390178695473420545e-01,7.787261122159646609e-01,2.726555633686831084e-02,1.446189174676031086e-02,-1.532539535101167839e-02,1.508363783359527588e-01
6.584172501650180642e-01,7.832754421268788292e-01,7.109623902360306946e-01,9.048117678273796122e-03,1.890935581250166239e-02,-3.224140499880372244e-03,1.146270036697387695e-01
6.881509481670471384e-01,7.659649317364104482e-01,6.781982731157609745e-01,-3.678234837407458758e-03,1.311132976939120842e-02,2.294799158033082424e-03,8.660621196031570435e-02
8.143429534294152061e-01,9.309966706193629760e-01,9.227434861832631841e-01,2.924015132363835257e-01,-2.691587274263216867e-01,2.197639091707468684e-01,7.946302294731140137e-01
7.905802890994217957e-01,1.043188666457584235e+00,5.888436941972248206e-01,2.134784424563302418e-01,-4.621766383422001301e-01,2.341951664567160918e-01,1.047641158103942871e+00
6.992027534018616652e-01,7.633328681609442556e-01,6.905944142574417244e-01,3.909819270033103658e-03,2.311830296611405537e-03,-6.914851619869718342e-04,6.929759681224822998e-02
6.731417129672008226e-01,7.047704307755319197e-01,7.745141297608824082e-01,4.760317918214899101e-03,4.251908335125091621e-04,-1.362481824170682677e-04,9.021664410829544067e-02
8.059252495024823437e-01,9.149182271973709257e-01,6.671675670280032833e-01,2.727926233415596813e-01,-4.218566348552447720e-01,3.184978106757679894e-01,1.052480816841125488e+00
6.943863189154644289e-01,7.136914913314481579e-01,7.372033699866883394e-01,2.008830930866013255e-03,-2.624628222388134761e-03,9.158213295548193675e-03,4.078957810997962952e-02
7.192876089434572240e-01,7.379009012407592438e-01,6.673697111997319853e-01,1.705823981148186369e-02,-1.236161488830168215e-02,1.171167680463795595e-02,7.583636790513992310e-02
9.119412423418125080e-01,1.149506333725743623e+00,5.226019235268927199e-01,5.775301250744624415e-02,-3.632798850461779194e-01,3.163503488424120047e-02,8.422832489013671875e-01
6.786873314534118684e-01,7.949928095844478459e-01,7.211358987888355498e-01,9.761799744132153506e-04,3.744469240989255904e-02,-9.874465920149226583e-03,1.220390647649765015e-01
6.889771912823803302e-01,7.627881066024617684e-01,6.965486846622692685e-01,9.360063795346486055e-05,3.490045731094272574e-03,-1.382869124681372760e-03,7.063160836696624756e-02
8.514450715117164448e-01,1.166753169532872558e+00,6.843800090356160215e-01,4.188748813583292874e-02,-3.870129570730584945e-01,5.291111372783270650e-02,8.018768429756164551e-01
5.075845892090704581e-01,8.744459923596907824e-01,6.063842917542349165e-01,5.468204144819412138e-02,-3.300793217721755823e-01,6.196837821517004602e-02,6.748707890510559082e-01
6.963197061419855727e-01,7.692521041539608362e-01,6.997355658990850324e-01,1.831645250535746247e-03,1.551830189011116877e-02,-9.135545211324232000e-05,7.625102251768112183e-02
1.041270161320907661e+00,1.106862393054172111e+00,4.986578125663745364e-01,5.629393879422382729e-02,-2.324237021126094316e-01,1.097640662595733702e-01,7.362305521965026855e-01
6.975014562530252871e-01,8.038028301174233725e-01,6.641062699450344109e-01,4.036507760182313220e-02,-7.292406102734359796e-02,3.974496242226675802e-02,2.038282006978988647e-01
7.961036263941568825e-01,1.081129950456440669e+00,7.754587907140486625e-01,1.196722192984493449e-01,-3.868792971937629055e-01,1.296040845583137369e-01,7.936833500862121582e-01
7.377800598224598660e-01,7.681022630935926410e-01,6.673845198130716749e-01,-1.306631852528254353e-02,-1.001472914565003196e-02,-1.778312971943504447e-02,9.884991496801376343e-02
9.681037192827364191e-01,1.082411867537395489e+00,5.060261444217808435e-01,-4.312144177298308373e-02,-3.297659183552960060e-01,-1.177922954730312999e-01,8.079860210418701172e-01
7.033762810040452562e-01,7.662644371681771593e-01,6.493011947324093258e-01,-7.028960296030934037e-03,-2.161713617441281959e-02,-4.101830431877674134e-03,1.089968532323837280e-01
6.976248297791414199e-01,7.064537347608803586e-01,7.365217929540186503e-01,3.884522517068445847e-03,-2.987324497263629114e-03,8.483106143702994623e-03,3.918463736772537231e-02
7.063019840098739843e-01,7.101710587057986634e-01,6.717793773789805245e-01,4.154369052540613644e-02,-5.363591194418881880e-02,5.533391204799531504e-02,1.559934169054031372e-01
3.437715273094156809e-01,8.329149247954945601e-01,8.330303413588235895e-01,1.335837984216858565e-01,-1.224199076793812679e-01,1.853179731966003371e-02,5.821012258529663086e-01
6.992564214842680315e-01,7.024244983837547585e-01,7.350700696640176668e-01,1.894993289269950422e-03,-5.830034482677669098e-03,1.462888451042081367e-03,3.603269159793853760e-02
8.289882274873925372e-01,7.461827951522044255e-01,6.145323534760198658e-01,-1.189825137940043742e-01,-1.015860550423695052e-01,-1.031236868924629152e-01,3.747307360172271729e-01
7.084939489535739821e-01,7.493313464218855913e-01,7.282394587272500441e-01,3.126092665445285440e-02,-5.911169595474557309e-02,3.746023330424418790e-02,1.373875737190246582e-01
6.038448757464002226e-01,7.353606337733177289e-01,7.784440653680592126e-01,2.986403654933473747e-02,-4.267131941102016157e-03,8.424223893653250139e-03,1.666188389062881470e-01
4.104925422780840716e-01,1.148569361750532147e+00,9.597694715806488475e-01,4.688474546989958303e-02,-2.594183458077573001e-01,2.339911841993313341e-02,8.069601655006408691e-01
4.922581426096189761e-01,1.019382130253480234e+00,8.833169184602964741e-01,2.128527068165105285e-01,-3.183948132857506441e-01,1.285746687574235991e-01,8.451562523841857910e-01
5.426719208240802228e-01,8.481575909007096348e-01,7.417508890488915263e-01,8.304076077618198840e-03,-1.315159760349669527e-01,-3.059403741063528720e-02,3.564300239086151123e-01
7.309911990934248038e-01,7.521569968439226761e-01,6.130868111686055277e-01,-2.668020490951691567e-02,-4.636372393873534198e-02,-2.904067175255330147e-02,1.672104746103286743e-01
5.143238074005130889e-01,7.920521136017109054e-01,6.516278976657373656e-01,1.384070767306550334e-02,-1.427142016570822625e-01,2.207037386651707761e-02,3.478364944458007812e-01
7.230208975634132562e-01,7.657745878214622381e-01,6.740625836814082561e-01,-8.590851208708387421e-03,-2.029246317163333965e-02,-1.108630695356588140e-02,9.024091064929962158e-02
8.157148656170927215e-01,9.177011014405574985e-01,5.915122965272623379e-01,-8.666741861337563064e-04,-1.315949541965585612e-01,-1.468033714021451525e-02,3.689634799957275391e-01
7.935902923437739842e-01,5.410278394318007722e-01,8.054617753730346497e-01,5.845865430544447752e-03,3.099814415816798310e-04,1.018243466205195034e-02,2.595011889934539795e-01
1.077430466963440470e+00,3.930319122425505740e-01,1.201822878631130020e+00,1.648639936211155621e-01,3.720430643536031673e-02,-1.048145497200593246e-01,8.292526602745056152e-01
7.954666178444290692e-01,5.440487266099047758e-01,7.873195416900971022e-01,-3.167266551953065029e-03,-2.378164904122105627e-03,-8.228252014432998335e-03,2.479499578475952148e-01
7.532716937990793227e-01,6.313458011378427770e-01,7.302570785949271670e-01,1.309281611624497606e-03,1.201950636370885742e-02,-8.493804142581572181e-03,1.150847524404525757e-01
7.891598961332446649e-01,7.919808021387161334e-01,4.956950114909692839e-01,1.807452259140494844e-02,5.249258400361992566e-02,-7.600028328004126976e-02,3.369451463222503662e-01
7.284815643111627326e-01,7.010281779666578394e-01,7.059813535354944047e-01,-3.055656664093795924e-03,-6.692597582109608562e-03,-5.005128744029715623e-03,2.966106124222278595e-02
7.041403058414620331e-01,7.155650129063246823e-01,7.219487437593736789e-01,-1.425090183197178298e-03,2.867413948132458909e-03,6.883795409926700068e-03,2.042368613183498383e-02
7.244241457865234768e-01,7.147218051023124241e-01,7.102664428941700692e-01,-1.297910881156637882e-03,2.181231678627553947e-03,2.300668111583435271e-03,1.387153100222349167e-02
7.350705671389380358e-01,6.932625413836234207e-01,7.110321678662739897e-01,-3.262319690842503065e-03,1.171576198463089233e-02,5.467187835941999738e-03,4.305965080857276917e-02
5.261953790307205558e-01,8.510846735575364752e-01,8.471616534191084291e-01,-4.399178620355120167e-02,-6.691803155277811777e-02,-9.969385813324586811e-04,3.514779806137084961e-01
7.545062743554022955e-01,7.614100821554556919e-01,6.446629605335623125e-01,-4.684494126759203292e-02,5.825053772399174656e-02,3.553940508006675492e-02,1.828207373619079590e-01
7.383166965865668452e-01,7.171660043915146776e-01,6.674209756576164887e-01,1.469539358283129121e-02,-1.172189912820753230e-02,9.953589462405956073e-03,7.301613688468933105e-02
7.163462100096397167e-01,7.115159250186681161e-01,7.086140089942835063e-01,4.759690710336977187e-03,2.053409455561980464e-03,-3.094770402018485501e-03,1.245456188917160034e-02
5.926199566381233907e-01,7.880924196457765873e-01,7.926579821429629025e-01,-5.036960666920141383e-02,1.923013296349691467e-02,9.674234010714046275e-04,2.187378853559494019e-01
7.696284821597089154e-01,6.866087584427842394e-01,6.951869369732998072e-01,-3.199889875249789777e-03,-7.746628714814787417e-04,-1.129681643891327844e-02,8.166439831256866455e-02
7.180702436121554344e-01,6.986553103672600296e-01,7.203418221007431566e-01,1.081484167994497614e-03,7.637773407563188538e-03,-1.583846941579855399e-03,2.474355511367321014e-02
5.992169680020291711e-01,7.670904798136972680e-01,7.848276102047900826e-01,-1.469461158261766570e-02,3.049359187301829612e-04,2.603125298463816132e-03,1.792822331190109253e-01
6.046800148950395304e-01,7.333472550163869785e-01,7.766114565121403635e-01,-3.456916451583499916e-02,-5.811469429129710595e-04,2.625561636796912290e-03,1.661340147256851196e-01
7.100002118008307272e-01,7.288446912658107513e-01,7.290970426812041216e-01,-4.988658321833984444e-02,3.120749459390319627e-02,3.393623042402581225e-02,1.191749721765518188e-01
4.321988954909676828e-01,8.223228467603027614e-01,7.316656558176215519e-01,-1.499286865439367622e-01,2.391127938572729372e-01,5.730118421415960478e-02,6.114399433135986328e-01
4.454992439697341711e-01,7.917164419576906420e-01,8.158549659470000215e-01,-2.181757515411174297e-01,1.522302675879984857e-01,9.778909273585077722e-02,6.081269979476928711e-01
7.026084669921428549e-01,7.525671008277632357e-01,7.305166654072713373e-01,2.096463742812049863e-02,-1.565077246432004451e-02,2.019251170594527078e-02,7.181279361248016357e-02
8.823382040496949852e-01,8.199813924552479261e-01,3.333248497226354301e-01,-2.574623171707331529e-02,1.240217689512859989e-01,1.578971102270556037e-01,6.276915073394775391e-01
8.642130480635140666e-01,8.847003016215957416e-01,5.667374354129071090e-01,1.447409568114292437e-02,1.335387068177458225e-01,-8.145615428077600251e-02,4.111416935920715332e-01
7.969765165179387711e-01,7.961906228348680781e-01,4.426542136195465993e-01,9.123718595953636545e-03,3.096229198603023952e-02,-4.315052901754721365e-02,3.660301566123962402e-01
7.018959146992291842e-01,7.686893975812444380e-01,4.717764566487372413e-01,-5.089733613532087392e-02,1.323787939773578837e-01,7.429511121864916523e-02,3.868981301784515381e-01
7.473556134426745379e-01,7.772954469004575984e-01,6.039731262105961784e-01,-1.006320777041795102e-02,2.334744678442533458e-02,2.525740143576877053e-02,1.720485389232635498e-01
7.290419493030098064e-01,7.793409288750654529e-01,5.914428718087141323e-01,-3.651311390416188494e-03,2.942898845974334376e-02,2.573322807158180854e-03,1.761892288923263550e-01
8.122770469851231523e-01,7.786031592885070962e-01,5.772125585035752238e-01,-1.321993333914114020e-02,1.434941031383472898e-02,2.614854156204340571e-02,2.273036837577819824e-01
7.090578373589364602e-01,6.532652820259211568e-01,7.602119118004644349e-01,-1.971803254121100649e-02,-1.669398893661635380e-02,-9.089740680082584665e-03,1.040860489010810852e-01
7.172394582974285226e-01,7.358110100967011347e-01,6.959335763980075695e-01,1.050009509561198977e-02,-3.279444332963355954e-03,1.627051091461577045e-03,3.956625610589981079e-02
4.709698415682113670e-01,8.309000834338039487e-01,9.021025480116987572e-01,6.780319232433472398e-02,-1.289665810354052801e-04,-2.655599052758429029e-02,4.197082519531250000e-01
4.767824813955764962e-01,8.414569394772738464e-01,8.177075905815764933e-01,5.077508261021491942e-02,8.982101679123126459e-02,-8.981236886449103221e-04,3.960188031196594238e-01
2.546172301681149941e-01,8.372164778958287590e-01,1.107976500428427657e+00,2.141727837762222031e-01,1.329815633667528751e-01,-1.094042009352755168e-01,8.927751779556274414e-01
7.147929719619633415e-01,7.134558975640040712e-01,7.160993841896827750e-01,2.993263632184459751e-04,7.511185465424549028e-04,-1.361752195847456398e-04,2.694106195122003555e-03
7.024118808946080428e-01,7.271868058818610203e-01,7.085018429319067668e-01,-9.698687676453786322e-03,9.309827029695275438e-03,8.720973469115631677e-03,3.564245626330375671e-02
7.391600688968321675e-01,6.954885209855609096e-01,7.190875265373554148e-01,2.407614040047661563e-03,-1.083664379167125109e-02,2.809019192833706741e-03,4.274192452430725098e-02
1.138055240575743809e-01,9.120937591532549682e-01,9.364931344028857296e-01,3.621521547563059072e-03,3.917997284839272454e-02,-1.259989313463069811e-02,8.139152526855468750e-01
5.881207683715092838e-01,8.669980296754746796e-01,8.909825043962122937e-01,-1.423988116525803926e-01,-2.777272333901283918e-01,-1.868011056323803931e-01,6.942261457443237305e-01
7.725703429671164635e-01,8.249085860344942400e-01,6.567860024188155732e-01,4.368071939613064284e-04,-5.998700369705717989e-02,-1.184582878669472941e-02,1.828171759843826294e-01
7.008622091151006650e-01,7.733671261530487007e-01,6.459505369625350157e-01,3.003890172162944003e-03,1.988865176072700247e-02,5.679597511021890590e-04,1.160531491041183472e-01
6.850385682138503407e-01,7.744915352871902803e-01,7.193623362142226307e-01,1.406503677592136486e-02,-2.788111822483860594e-02,1.446679579213628469e-02,9.830056875944137573e-02
7.073757523869410591e-01,7.703100009744587862e-01,6.845898903697963389e-01,5.651981412620507572e-03,-3.439910440900103422e-02,8.129507314039427501e-03,9.878219664096832275e-02
8.825353606767027959e-01,9.229739637986869027e-01,4.361156373672067654e-01,1.614392505352168702e-02,2.504815782606495400e-01,1.863691698003615282e-01,7.156701683998107910e-01
5.560664401302964910e-01,7.608395132076187783e-01,7.728624247509138234e-01,-4.641658240116248307e-02,-4.076766726478792124e-02,-1.702706299488249836e-02,2.384487390518188477e-01
6.786826200633813144e-01,7.625041334488510403e-01,7.077547817329277180e-01,3.620833310489726328e-03,-4.724436216286048359e-03,8.670717776397829368e-03,7.593549787998199463e-02
7.130854372026138588e-01,7.147114784579717828e-01,7.152048649015729787e-01,-3.100815616580602043e-04,-3.134620835316998693e-04,-7.583861069458698026e-04,2.449159510433673859e-03
7.058617566804240573e-01,8.074840891306458435e-01,6.389150887073222762e-01,1.318128564613514457e-02,-6.868872972676054456e-02,-9.950487625137099251e-03,1.912718862295150757e-01
6.586172199098665470e-01,7.191011139134960706e-01,7.846653885385791449e-01,2.376429763417139962e-02,3.495015733583942477e-03,6.795304982029817115e-03,1.174391657114028931e-01
6.508719012261855452e-01,6.948159794057204852e-01,7.680184657696909056e-01,1.857994190655426481e-02,3.964521643318646982e-03,-6.933997028074317948e-03,1.083214581012725830e-01
7.143751289235648061e-01,7.154324356449771605e-01,7.160338170779727562e-01,1.441214943739785607e-04,-8.741497630605465615e-04,-3.143207193676789092e-04,2.183236414566636086e-03
6.271737204885894368e-01,6.448507750567037400e-01,8.004067964824257420e-01,1.262929483033715661e-01,1.165336464653419710e-02,-1.913299995513287680e-02,2.767946422100067139e-01
5.350805350500209556e-01,7.796303737101351050e-01,8.400453526668917315e-01,-5.465173054843946304e-02,-4.598231732968750818e-02,-4.692793144072368583e-02,3.164479732513427734e-01
6.916078149152384835e-01,6.879399749478680715e-01,7.585630427609348914e-01,-7.558433926554138094e-02,8.156323200205989332e-02,7.660076769390425366e-02,2.438067495822906494e-01
7.105075032334297047e-01,7.068510441649982212e-01,7.305671054244589069e-01,-2.416181271372643859e-03,5.317365717544580289e-03,2.082772325312401678e-03,2.458566986024379730e-02
7.155475755060746179e-01,6.734651808652840632e-01,7.458092369598675608e-01,1.329415997306603904e-02,1.549352882163537899e-02,-9.773643558550379820e-03,7.414245605468750000e-02
6.679584327313795589e-01,7.128511483376920310e-01,7.785287884287447335e-01,3.354738499540443203e-02,-2.004008658154373713e-03,-6.213472831833657777e-03,1.130553260445594788e-01
7.362164023832464821e-01,7.105219296650435723e-01,6.909025680978808648e-01,9.039761372457901650e-03,-3.459967076924395663e-03,2.492294660391108918e-03,4.299924522638320923e-02
7.134710187988655417e-01,7.153631076962709834e-01,7.166974725582898609e-01,7.115417707692846564e-04,5.196701870970976515e-04,-7.471755099719584216e-04,3.448061412200331688e-03
7.202401597790333287e-01,6.829551347765606684e-01,7.362696574210253475e-01,1.132246816578423229e-02,1.517512021234402285e-02,-5.105330221169344061e-03,5.829596146941184998e-02
7.254862689667783693e-01,7.032452786323796223e-01,6.992693606687589991e-01,6.058300772567511670e-03,-3.216794344756029097e-03,5.022408245096234881e-03,2.856088243424892426e-02
7.256453277411636371e-01,7.037543852956474888e-01,7.396877223885294228e-01,-1.683197521226434401e-02,1.961181180694688067e-02,1.570845363185172788e-02,6.105641275644302368e-02
5.867875134532165582e-01,7.209726293610064785e-01,7.825062910629323465e-01,6.271055021201424329e-02,1.600708610949861874e-02,-1.900568687180060126e-02,2.090433090925216675e-01
5.098128206209775470e-01,8.372243928582751016e-01,8.345036634515129448e-01,8.935312059699680731e-02,5.091680143747373544e-02,-2.193324127831712631e-03,3.715627491474151611e-01
6.320377736716181749e-01,7.836767668162516465e-01,7.315108955978105731e-01,-3.742425395786244018e-04,-1.519611827485079815e-02,-9.716431956075828949e-03,1.370463222265243530e-01
5.075043317960223899e-01,5.599732054368761203e-01,7.287696495820912279e-01,-3.242628598718020339e-01,2.042851681642695594e-01,1.825213261793420805e-01,7.620238661766052246e-01
2.919055008230517778e-01,9.366405856157986598e-01,8.266319307598746224e-01,-6.512974651517383640e-02,1.894034779141263169e-01,1.017614159030426693e-02,6.910254359245300293e-01
5.909253446417265243e-01,8.343487515577872049e-01,7.716932030379738405e-01,4.691376010714319589e-02,8.814025472135361694e-02,-6.389980182018072108e-02,3.001453280448913574e-01
6.801873641503340950e-01,7.531814067139055435e-01,7.075026744526886624e-01,-3.204285201024279547e-03,-5.291357276035568540e-03,-6.516646570208521963e-03,6.574647873640060425e-02
6.760419568418556402e-01,6.874291172619632073e-01,7.639954010498916093e-01,-1.128375309683271946e-02,-1.857927283338597696e-03,-1.822370012490265789e-03,8.524214476346969604e-02
6.440878502720962517e-01,8.518417012555639101e-01,7.042664850105312402e-01,7.289350589159131200e-02,1.193505870899593396e-01,-3.537248578555257650e-02,3.109799027442932129e-01
4.477561394447486798e-01,8.483613203089391819e-01,5.411553125984372992e-01,4.345916510546331268e-02,3.164098459089368931e-01,-3.334031329524184128e-02,6.641823053359985352e-01
6.531683454810587319e-01,8.534284016153704799e-01,6.923124882651823242e-01,1.052799451130533165e-01,2.531697356850758918e-01,-7.400631605403833191e-02,5.251328349113464355e-01
3.953898384793118059e-01,8.997860543596525318e-01,8.173514182098884362e-01,6.679717871894245117e-03,6.075579099668920735e-02,6.238757456105006351e-03,4.805785119533538818e-01
4.068157627506109875e-01,8.492786322978502778e-01,6.130508479009857403e-01,-1.969410669954273913e-02,-3.168254648268948315e-01,4.548746470813634819e-03,6.703847646713256836e-01
6.491824122258108565e-01,9.123596858911831031e-01,7.870659270172014610e-01,-2.712741288056398289e-02,-1.677882736074360892e-01,-1.287803978262319800e-02,3.730285167694091797e-01
7.222761627708760290e-01,7.131212089205509752e-01,7.144911944021502537e-01,1.698338475593192624e-03,-3.737867680988348363e-03,-4.200075117787648938e-04,1.114652957767248154e-02
7.103571361531403339e-01,7.137093359263616543e-01,7.171473187338416322e-01,1.911110249766828249e-03,-4.697615134684663199e-03,2.772075380112769532e-03,1.161011494696140289e-02
5.505083172985867357e-01,8.003998909722196409e-01,7.827236704812140511e-01,1.332455600104420063e-04,-3.411455501102021726e-02,1.214043964132498384e-03,2.486704438924789429e-01
6.058626853491381192e-01,7.859364574701939166e-01,7.299550162833592371e-01,1.808445417427217896e-03,-4.036296354228123551e-02,-9.859736300109077367e-03,1.751246899366378784e-01
7.359558336149323310e-01,7.292448694916322527e-01,6.593628324287051923e-01,1.934446897155122150e-02,1.373159472174774291e-02,-1.055202298403013807e-02,8.613850921392440796e-02
7.603087324013542148e-01,7.293296513892122412e-01,6.370794674731318219e-01,1.565347463230569447e-02,6.151128660265277846e-03,-9.706835469316396972e-03,1.160124838352203369e-01
6.289569208098525488e-01,7.652721252226926119e-01,7.275075454684298837e-01,-1.071660324018252480e-02,-2.051596312716087375e-02,-1.894857903613957756e-02,1.324556916952133179e-01
5.415446966255660355e-01,7.898759233622447695e-01,7.365609444705299991e-01,4.401546017582535358e-03,-1.196262626318938260e-01,-6.616390544119317083e-03,3.072326183319091797e-01
7.185911238086133412e-01,7.233308112007744706e-01,7.164106992700061127e-01,-7.271947323047063885e-03,-6.466938459948036455e-03,-5.732653581084055754e-03,2.050002291798591614e-02
7.377890810728271465e-01,7.024564061253120162e-01,6.999737660353718693e-01,-1.269964404755072936e-03,-2.149694034045770714e-03,8.412340427035512830e-06,3.689149022102355957e-02
1.101682846460717569e+00,3.880952595727434895e-01,1.077879678358273807e+00,-1.476879672084447093e-01,-3.190578379720134666e-02,-1.257012248990903858e-01,7.801792621612548828e-01
7.350245820032018651e-01,7.327911522103862652e-01,6.806106560204634448e-01,1.244680748939897517e-02,6.253162737328266628e-03,-4.336609052334688616e-03,5.901548638939857483e-02
7.651775257078292647e-01,6.835469478567872681e-01,8.066531023069231088e-01,5.788421283386416955e-02,2.598943120448429789e-02,-1.333091915526144269e-02,1.561431586742401123e-01
7.728119546107504734e-01,6.151706831861764035e-01,7.752055102702889444e-01,-5.748041211768695202e-02,-1.901426749948378903e-02,-3.290885007734172668e-02,1.986942887306213379e-01
8.105231011619062897e-01,3.734348744053163083e-01,7.349007326295514675e-01,-1.217139870299960014e-01,-6.773306023972520962e-02,-2.287027071183907745e-01,6.154934763908386230e-01
7.898485066262507237e-01,5.302238433344208524e-01,8.062728604641562491e-01,-4.833091278234853683e-02,-9.625279974248356074e-03,-2.292118467086754624e-02,2.842544615268707275e-01
8.169954065114947150e-01,5.772045307417517090e-01,7.966321483849309049e-01,-1.829762095653911236e-02,-2.676459855575998460e-03,-2.910736830858444424e-02,2.379054874181747437e-01
8.489256132256723930e-01,1.786304945448662362e-01,8.493847094915227824e-01,-2.031448869970959789e-02,-1.523066489304330737e-02,-8.810804277262650197e-02,6.890766024589538574e-01
5.664818738325082537e-01,7.563410717176647369e-01,7.678877433291021459e-01,3.127258311109882422e-02,2.559472257927127362e-02,-1.201781567094439493e-02,2.090563476085662842e-01
7.648795268562458283e-01,6.798292722235826924e-01,6.935729981357749985e-01,5.211325731559293987e-04,-6.408342607077140542e-04,-1.162922074186987197e-02,8.161673694849014282e-02
6.345835172342270125e-01,6.918960693446593035e-01,7.952970936644154776e-01,-5.601183162943449562e-02,3.632474687641729094e-02,2.964937070755624751e-02,1.895003169775009155e-01
8.167995360450743814e-01,5.709994678122803924e-01,8.254486555553546268e-01,2.242805335506243766e-02,-2.981502065049294100e-03,-7.760473044546465846e-04,2.532902657985687256e-01
7.211855838393361751e-01,4.543273578116443501e-01,8.901161728857660549e-01,-3.230421164462545236e-01,7.879338200224803024e-02,6.817004548819957654e-02,7.003332376480102539e-01
8.908977135631857003e-01,4.748311663673784877e-01,9.353956548493270740e-01,-1.304934907521484722e-01,-2.973948003536170184e-02,-1.552836525210024403e-02,4.980641603469848633e-01
8.054998823159775778e-01,6.527656254819783621e-01,1.224418238451749907e+00,-4.247433843289819544e-01,6.654368119143093396e-02,1.091186753253348685e-01,9.235957860946655273e-01
7.009595445686618298e-01,7.232834219506559803e-01,7.184358579671997758e-01,3.695112951418301744e-03,4.244271395519442699e-03,-8.150721241439779288e-03,2.660721354186534882e-02
6.988920102581553939e-01,6.896964380279491102e-01,7.529504179094747007e-01,6.424183233255807007e-03,7.402938282965458756e-03,-3.586391697180197225e-03,6.189325824379920959e-02
6.209045339159646737e-01,7.909181609655587808e-01,7.450793090146654585e-01,-2.408929018104579984e-04,-7.449180319808168527e-02,-4.570757330140068006e-03,1.998062580823898315e-01
8.766078245959005866e-01,2.852621804165845765e-01,8.393846893791410135e-01,-1.011817991226018204e-02,7.890915606164209187e-03,1.220257873148543060e-01,6.117420196533203125e-01
8.085259508592381739e-01,4.605866489178386258e-01,8.065284727739037152e-01,1.733248598500207460e-02,1.256418936081139717e-03,1.808890956636397679e-02,3.496546149253845215e-01
5.589349743615736887e-01,8.067068133181184431e-01,8.365262100791676092e-01,-1.011401785511791412e-01,-1.116666534794542587e-01,-9.022175212589604587e-02,4.027216434478759766e-01
8.500035091397252218e-01,4.975227481999352497e-01,8.522625848538151194e-01,-1.199092362980586080e-02,3.456987743022574278e-02,8.395686895957284179e-02,3.875653743743896484e-01
8.673609471611808397e-01,5.930453930647039407e-01,8.678067542661738187e-01,8.243360521979950506e-02,-4.084152256862867009e-02,1.073138619462913890e-01,3.678454756736755371e-01
6.284088483113289270e-01,7.701886403318463081e-01,7.713724876591472324e-01,-8.417594960420236860e-03,6.731238122314377875e-03,7.605595624446006772e-03,1.441970467567443848e-01
7.637221996206142727e-01,5.746798948061841994e-01,7.916782366603329901e-01,9.592718878385040129e-03,-1.052041680193274362e-02,2.366014959793366970e-02,2.099783569574356079e-01
9.238491928578120849e-01,6.414306609905527923e-01,5.833284622507334261e-01,5.243448176303814809e-03,-1.021573210628177603e-01,-4.277651114740672611e-01,8.245514035224914551e-01
9.354896185081832405e-01,1.001055777171141914e+00,7.551164471908418108e-01,-1.602551487141400111e-01,-2.842214172007348494e-01,-2.589838994822272755e-01,7.544987201690673828e-01
8.736768453677710156e-01,9.646008070844606097e-01,4.475565601864958665e-01,5.374903667257475981e-02,-3.695488661479749415e-01,-5.200002366067002502e-02,8.093628287315368652e-01
7.075114370531768726e-01,6.833145867183969546e-01,7.533391121370343058e-01,-5.062364191439096099e-03,-5.675611680191904214e-03,-3.483342703387700898e-03,6.328088045120239258e-02
8.805674028663788011e-01,1.030914322021156515e+00,7.172139261105850983e-01,-1.314308567991397947e-01,-3.235278226726534534e-01,-1.789961287053338235e-01,7.319836616516113281e-01
7.114675913123844619e-01,7.038510028174563837e-01,7.293199217104375798e-01,-3.169173807141587897e-03,-6.478809801209723870e-03,-2.307473683632914590e-03,2.616717852652072906e-02
6.939916538049555328e-01,7.638339358713066574e-01,6.971479442965311524e-01,-1.112148153696894057e-03,-1.074799748176780492e-03,-2.736939632667816872e-03,6.853548437356948853e-02
7.017362761196632714e-01,7.526559303190228922e-01,6.953738988518426423e-01,-1.709705551006765337e-03,-3.410703573107260172e-03,-2.035524833202964883e-03,5.489407107234001160e-02
7.355263583214171064e-01,6.419869918139202714e-01,7.867079552364873996e-01,1.294080526842198396e-02,6.172763806327686426e-03,-3.670201064467534281e-03,1.296679526567459106e-01
7.279542928605141627e-01,5.975914279353240488e-01,7.762648677441427170e-01,1.397599602672022073e-02,2.678248240049582469e-03,-2.220706835356961797e-02,1.664730012416839600e-01
7.574198860612546547e-01,6.468014128817037856e-01,8.031300040344173663e-01,5.374531413620468184e-02,-1.232122055198733336e-02,1.428941942065545950e-02,1.706338822841644287e-01
6.942225130662310617e-01,6.906635651395965914e-01,7.607403981100175905e-01,2.287731885296085017e-03,3.370017129880444832e-03,-8.986361221255541017e-04,6.874753534793853760e-02
7.970794434061374556e-01,5.678393139866988459e-01,7.735789451052249577e-01,-2.368234289512585397e-02,-1.745289586320469821e-02,-3.660673278024947908e-02,2.330935001373291016e-01
6.042306494067035683e-01,7.651549799193140267e-01,7.632755778519513257e-01,1.111649870183878223e-02,1.008289305172495841e-02,-1.335828616281560695e-02,1.637338846921920776e-01
6.574390017082493154e-01,7.147488400628205785e-01,7.853559260155459354e-01,2.053675400210030685e-02,-5.177556387374947049e-03,5.115569322403884338e-03,1.172197163105010986e-01
7.186509509584156907e-01,7.527681814966010743e-01,6.738056085725957489e-01,4.429457085476853212e-02,-5.402395407115761355e-02,2.764100288115789450e-02,1.471018493175506592e-01
7.149237824270091579e-01,6.506541357915981427e-01,7.673799194893482500e-01,1.712899716537090444e-02,1.805426055348645017e-02,-1.047591797730119088e-02,1.115387007594108582e-01
5.431181921733682083e-01,7.922485467376134682e-01,8.486364114835884820e-01,2.302612213364156335e-01,-1.180631182113505706e-01,9.403400628177402409e-02,5.538032650947570801e-01
6.287305635602712384e-01,7.275419323969840590e-01,7.537506844716435062e-01,1.043635040909244444e-02,-1.718978940695522475e-03,1.199242573406065007e-02,1.175048053264617920e-01
6.604253785879402594e-01,7.151414532545663505e-01,7.570330160055069868e-01,2.635094380954390927e-02,-2.103625859161818972e-03,1.131258668837166990e-02,9.757668524980545044e-02
5.566015253428567844e-01,7.809757628380902261e-01,8.127750071350277050e-01,2.342323941314487096e-02,7.300287369866836733e-03,-2.794960362037184932e-03,2.455996423959732056e-01
6.951385908310788730e-01,6.777356375885614792e-01,7.618661123343550834e-01,7.691893413264018486e-03,9.696015924321656210e-03,-5.618704373719220040e-03,8.044205605983734131e-02
6.623148493431433304e-01,7.330591293927634089e-01,7.591869479232669082e-01,9.194627153215253340e-03,4.773969146110878907e-03,-1.132003458905498500e-02,9.078675508499145508e-02
6.648753038084351807e-01,7.080060132520431537e-01,7.554847973736384947e-01,1.340123905597926345e-02,4.663773212524119360e-03,-1.163946165042122581e-02,8.469209074974060059e-02
2.834903956260738100e-01,9.471286736441864029e-01,1.141086858039585650e+00,1.173144225963934917e-01,-1.203420500446739372e-01,2.313327244038975924e-02,8.325225114822387695e-01
4.312448340326652807e-01,1.036839393806396670e+00,1.178547293259663675e+00,2.177274721934127633e-01,-7.182266994444609642e-02,4.098338021542841103e-02,7.971032261848449707e-01
7.128763781083981010e-01,6.710898479114808524e-01,7.555949669256184498e-01,1.690264446334892659e-02,-1.290268138517729722e-02,4.599161473435957152e-03,8.231674134731292725e-02
5.741948781596468709e-01,7.920051187374671509e-01,7.902704469997586800e-01,6.467142225225906010e-03,-1.999826476346241999e-02,9.286067967033104914e-03,2.205684483051300049e-01
6.034195309495555826e-01,7.404056974428838700e-01,7.783237039039458960e-01,2.934075661669919427e-02,2.145717799213292011e-03,-5.575689217854305768e-03,1.675916016101837158e-01
1.992362427210535580e-01,9.856412033733989997e-01,1.237343877408707327e+00,-1.799759415231178342e-02,-1.280715458206356516e-01,-4.540837903959038524e-02,9.675183296203613281e-01
1.076494654209352753e+00,5.821031767547100166e-01,8.995245693703732837e-01,-2.072139292441161906e-01,-1.155405702141253654e-01,-2.988863197385911996e-01,7.906387448310852051e-01
6.987691475439080646e-01,7.017108294617939723e-01,7.465553017924142498e-01,-1.268778426523158075e-03,-2.093521893820228866e-03,-4.793699024198501066e-03,4.731294512748718262e-02
7.327396413322434521e-01,6.599922904443470406e-01,7.637765776777396542e-01,-9.337254436533243274e-03,-1.199583141547845393e-02,-6.845727320451448598e-03,9.668075293302536011e-02
8.766146367565721409e-01,7.134449536507594392e-01,9.373338706046610014e-01,-2.692004347015293231e-01,-1.382568605717487131e-01,-2.190387510049770226e-01,6.774246096611022949e-01
7.160262205106493472e-01,7.120493645893838375e-01,7.168759997101191717e-01,-5.390866383493653734e-03,-6.905303362125655639e-03,-6.991585450556636085e-03,1.991978287696838379e-02
7.144944258637516699e-01,7.211643525401222332e-01,7.074468614018846191e-01,-5.863978102407861430e-03,-2.437112589780116630e-03,-3.429751186876091838e-03,1.724614948034286499e-02
7.168010323054353483e-01,7.031559212387199498e-01,7.220277286640311987e-01,-2.185464091846495930e-03,-7.762322200240208414e-03,-1.271531630054880888e-03,2.201741002500057220e-02
6.088812726059723568e-01,7.665525780529812705e-01,7.960500641688152967e-01,-1.283016307827839798e-02,4.872200390113086942e-03,6.823382570101356112e-03,1.763121634721755981e-01
6.913859503739085977e-01,7.425526222720431058e-01,7.127827543898064278e-01,-3.784947855020263235e-03,-3.405634081519037879e-03,-9.280659756099022065e-03,4.813743755221366882e-02
1.161440569083924679e-01,9.310225446467359500e-01,9.741407035560161187e-01,-4.725136694644231639e-02,-1.959165709642275710e-02,9.655139004436723640e-03,8.421112895011901855e-01
5.481984640092449901e-01,1.139549258507008167e+00,9.003641939080025969e-01,-9.154869557500856792e-02,-2.977194831891284421e-01,-4.988542152108974698e-02,7.509878873825073242e-01
5.390980048156005511e-01,8.790560550253030403e-01,8.614178575740757404e-01,-6.027804752108643221e-02,-5.835215815407621132e-02,-1.994981828746354019e-02,3.635870814323425293e-01
6.126955741988983073e-01,7.633816009287670568e-01,7.831115424108295864e-01,-1.140577686121117817e-02,-1.971805383938872100e-02,-1.223422765770470176e-02,1.675538271665573120e-01
7.281554158800744858e-01,7.093014240282131677e-01,7.057837775044643047e-01,4.789921823972588880e-03,-1.404949745833860338e-03,2.128060468161160207e-03,2.285839430987834930e-02
7.190447287331019899e-01,7.225206745262703345e-01,7.103237018122273705e-01,7.985895835990963754e-03,1.907357359772566597e-04,1.249017905378630409e-03,1.773598603904247284e-02
6.712809657005627262e-01,7.142324408480277276e-01,7.462002162846005371e-01,-9.036403240002757395e-03,-8.323427371239127542e-03,-1.497009523495712417e-02,7.324582338333129883e-02
4.107033337216970947e-01,5.996144695841738592e-01,9.010375671070262049e-01,-3.254192999478204840e-01,-1.530182132662127603e-01,-8.577958000953832263e-02,7.703874111175537109e-01
6.990549074045443456e-01,6.703474281599866025e-01,7.752370824648915359e-01,-4.484170362007899868e-02,-3.335930908752194474e-02,-3.829246339651527081e-02,1.502818912267684937e-01
5.744143304365462166e-01,6.555911934377693928e-01,8.042403745567050510e-01,-1.645031523988136624e-01,-1.525884677344449200e-02,-1.433908209397929262e-02,3.510731160640716553e-01
7.126015071401320400e-01,7.174985659753377876e-01,7.160539263064276128e-01,-4.174095553163118671e-02,-5.533677205860020043e-02,-2.905402767283492282e-02,1.302489936351776123e-01
7.012884186328923741e-01,6.620062186570886409e-01,7.426841949737601478e-01,-1.724804982024233033e-02,-1.399150227809216503e-02,-7.149209964397775299e-03,8.072127401828765869e-02
7.396111489145555939e-01,6.858423014123441463e-01,7.080415332921131677e-01,2.161564559874686042e-02,1.704394255899548127e-02,-2.698749159466194356e-02,8.153795450925827026e-02
7.152276455403090427e-01,7.493411263472462558e-01,6.914724035142638670e-01,1.367153844021100177e-02,2.037658605743480206e-02,-1.985871594409820834e-02,7.434964179992675781e-02
7.831112382267563232e-01,7.334704711578076131e-01,6.234917941774966721e-01,8.547894384637205224e-04,8.785380464458621488e-03,-5.766144303275320265e-02,1.738597303628921509e-01
1.148042431273568642e+00,7.901270243613650601e-01,5.267279314239587951e-01,6.703573035034698924e-02,4.986424274808928109e-02,-4.270717554223745216e-01,9.272910356521606445e-01
8.858363708514679358e-01,6.312036332714721087e-01,7.910364507469087592e-01,1.515568490646177283e-02,2.613579914921848341e-03,-1.443200906706829378e-01,3.359763920307159424e-01
7.683655188317749518e-01,6.289950323766803075e-01,7.664962230303572488e-01,8.755059786811004302e-03,6.296829917523557446e-03,-1.053663543177540615e-02,1.408867239952087402e-01
7.720186136404905142e-01,5.703739575770703230e-01,7.608607836667043989e-01,-3.409295554852657950e-02,-1.023602942171405149e-02,-8.076804657616207944e-03,2.062332928180694580e-01
6.923149253336856601e-01,6.952524483752509088e-01,7.568688498222390093e-01,3.364720572856062797e-02,1.358513100719756055e-02,-1.630968616111315439e-02,9.345746785402297974e-02
7.551838649058572051e-01,6.840330999385761945e-01,7.163668334910061608e-01,4.772239503484801762e-03,7.395023994416737023e-03,-7.155971198576827411e-03,6.475598365068435669e-02
7.262721281593484957e-01,6.757985162977564464e-01,6.562253703876267386e-01,-6.067980031363972432e-02,7.778530914622246162e-02,1.104837171902459808e-01,2.640764117240905762e-01
7.178075925574551874e-01,7.182584954513171471e-01,7.053927660846677217e-01,-9.073435749301981060e-03,3.104013515094366550e-03,3.217297297665785288e-03,2.160714007914066315e-02
6.952819502404361529e-01,6.614207470128848909e-01,7.286265374425499042e-01,-2.502264124185986024e-02,2.666610110362974129e-02,1.597404666039027935e-02,9.035862982273101807e-02
7.356156582103161590e-01,7.022964816997412374e-01,7.210630726468673091e-01,-1.953930562176239838e-02,2.180332245558924339e-02,1.903301768344704825e-02,6.704729795455932617e-02
7.359404067267728555e-01,7.124956998770272110e-01,6.966887354665283194e-01,-1.190452697844069166e-02,3.889475821578035515e-03,5.004219679755014284e-03,4.142183065414428711e-02
7.291949622761020322e-01,8.178571634051329253e-01,7.571586493357259640e-01,-8.410190215383563095e-02,1.334882704453040081e-01,8.607343088542863951e-02,3.210393786430358887e-01
7.658935275465232895e-01,8.583398063256386656e-01,5.545064092047115034e-01,1.332258271813187289e-02,-1.666755542729761452e-01,3.173168140434967557e-03,3.958253264427185059e-01
6.792038437644540849e-01,7.656210429654655147e-01,6.906213070363802498e-01,1.443842938337900142e-04,1.023426124347649561e-02,-1.460298270738803837e-03,8.326046913862228394e-02
8.587557922771440477e-01,5.089356322410653055e-01,8.724769055986688615e-01,-7.706323581663275524e-02,-1.431905244599561986e-03,2.769155805160406283e-02,3.840380012989044189e-01
6.909713031180673148e-01,6.844044283396909512e-01,7.613561329649289888e-01,-8.211019038220709540e-03,1.948848156357611307e-03,2.617826034239433518e-03,7.545576244592666626e-02
6.885861981461862680e-01,7.013047886654748542e-01,7.399233437811622016e-01,-3.338856427011981792e-02,-2.732139318983515391e-02,-2.196662832962155767e-02,9.578982740640640259e-02
4.373188895189137892e-01,8.721030156564693048e-01,8.909868289092814919e-01,-2.014648089880305970e-01,-1.246395314978942098e-01,-7.855206989863075528e-02,6.200683116912841797e-01
7.861138202014922305e-01,6.215191703088644992e-01,5.974751741804573690e-01,-1.986600104283045218e-02,2.879465231688621910e-02,1.356890077520422344e-01,3.008868694305419922e-01
6.728950353634807202e-01,7.087316202961410072e-01,7.733237490337628861e-01,-7.650223633604400983e-03,-3.701670111542143798e-03,-5.234939542697709773e-03,8.983353525400161743e-02
7.070147057905342702e-01,6.562731903711424009e-01,7.810051220051564824e-01,-1.969758428061741187e-02,-4.062049759032997564e-04,6.628288547196980844e-03,1.144550144672393799e-01
8.275970552558398197e-01,6.959956851637498776e-01,6.516845268687925241e-01,9.674379354126576291e-02,5.895367652889315496e-02,-1.644363510204551737e-01,3.804424405097961426e-01
7.647739374708957261e-01,7.060610082438858459e-01,6.850624290865993116e-01,-1.144269828530534473e-02,-3.698472419835661419e-03,-8.932216505657640526e-03,7.611985504627227783e-02
7.651115868490474536e-01,6.031523542334432664e-01,7.978255757142211912e-01,-1.120274531111188632e-02,9.807387287566434516e-04,-1.363652815417038065e-03,1.816157996654510498e-01
7.339056663946341708e-01,7.145982135975955662e-01,6.785186990243030625e-01,-1.320293689503925644e-02,-5.330895630144814358e-03,-8.136465813350536938e-03,5.637310445308685303e-02
7.181389035687338884e-01,7.341318103748309953e-01,6.803263903292148251e-01,-1.435467160931899744e-02,-6.687147239808129140e-03,-5.280839008562504718e-03,5.591311678290367126e-02
5.836609226349583901e-01,7.719587871255090272e-01,7.742936173649470621e-01,-7.050527491717438477e-02,-2.590207321795985271e-02,-1.372673750676623762e-02,2.310674935579299927e-01
7.152146657135654007e-01,7.560463430538508778e-01,6.627376179270232370e-01,-1.217817579792794015e-02,-1.161106479541044144e-02,-4.779836450406067458e-03,8.649685978889465332e-02
7.687327467127927916e-01,7.696652777019751257e-01,5.714279517989979684e-01,-1.729684994497943801e-02,-1.937465845945069223e-02,-2.424560264007189631e-02,2.071262151002883911e-01
1.090361499503713416e+00,8.139219923561173964e-01,7.217476388121728537e-01,-1.597184561956035975e-01,-1.410131504803345259e-01,-3.830614841486792432e-01,8.287267088890075684e-01
6.894703787397883366e-01,7.243801569847699851e-01,7.365368938542590227e-01,-2.602693765271886766e-03,5.350387141321844703e-03,1.196057646622449705e-02,4.823106899857521057e-02
5.060940401514267828e-01,7.338205798915213851e-01,7.829535910914350305e-01,-7.427497897471424526e-02,-2.193508571445448169e-02,-1.268264719257628653e-02,2.897216379642486572e-01
7.496115404647725189e-01,5.073817025140965331e-01,7.512018329341000333e-01,-9.157551949416210813e-02,5.472406250417046619e-02,7.703874143376537864e-02,3.331821262836456299e-01
8.465171009890810616e-01,5.778795777429726055e-01,9.061110658434304854e-01,-3.057998596414452375e-01,2.185349256392435380e-02,1.121999754116945192e-01,6.414566636085510254e-01
7.559252743227833360e-01,7.140920330505555746e-01,6.863548201060281073e-01,-8.120962352215932434e-03,3.243856222912200674e-03,4.465523348794971092e-03,6.299961358308792114e-02
7.592050178106404257e-01,7.085935757242036726e-01,6.859176328684841728e-01,-8.856458844694898441e-03,2.334091027356031880e-03,5.734147913187272530e-03,6.762894988059997559e-02
6.717791217223963995e-01,7.139364305817059719e-01,7.735114832664782281e-01,-3.485533007938704936e-02,2.207207580161844873e-03,2.671193812796105252e-03,1.073249876499176025e-01
7.313863678277385816e-01,7.589082509426051670e-01,6.422554291113091729e-01,-1.260462148945123463e-02,1.041661496045936941e-02,5.904677093754339030e-03,1.098251864314079285e-01
6.897607639345817443e-01,7.048511896568344648e-01,7.428432215386876480e-01,-5.412667859387797382e-03,5.177421082018716231e-03,8.740461660393706450e-03,5.139967426657676697e-02
6.991405776618216938e-01,6.946006547163802169e-01,7.559513691828534387e-01,-1.437892362165079903e-03,3.675113074564267772e-03,2.452875972311848417e-03,5.975588038563728333e-02
7.449539559510029996e-01,7.152559370760646074e-01,6.990748222586525840e-01,-1.170214575194172303e-02,1.286848796245102823e-02,2.204548447006029685e-02,6.316623091697692871e-02
7.652339971402927210e-01,6.883588598007825965e-01,6.780941684625760857e-01,-3.627967831152459637e-04,6.211060686292369090e-04,1.137461118805346144e-02,8.481714129447937012e-02
5.674314743244569526e-01,8.473188697995318597e-01,8.369028301496920230e-01,-2.304272401452377994e-01,1.706762742458486359e-01,2.597317703970599689e-01,7.242881059646606445e-01
7.571386080788915507e-01,6.802414593951255917e-01,6.754399517196948421e-01,-1.002937457097387124e-02,9.876444190608167986e-03,2.618739134835284046e-02,9.464240074157714844e-02
7.681754299404293107e-01,7.342800189977249925e-01,6.591256123063784500e-01,-1.028907707649984182e-02,3.698416237695764490e-03,9.279555539365843750e-03,9.980697929859161377e-02
6.755515273074621518e-01,7.630811026951991316e-01,7.089007249381112929e-01,-1.090115215407324797e-02,3.303698990049652034e-02,6.958695862491715185e-03,9.813591837882995605e-02
2.725830683944459598e-01,7.365790271867199701e-01,8.520380818466118944e-01,2.490774504933742639e-01,4.549237772150151876e-02,-9.101917558653971341e-03,6.890366673469543457e-01
5.708610227304641294e-01,1.183392260528265627e+00,8.750793772223179889e-01,4.758635181154264454e-02,3.527428655570066796e-01,-2.866495984957317944e-02,8.148257732391357422e-01
6.465615154392031494e-01,7.901940307517081319e-01,7.340881478547017780e-01,1.950349809822889829e-03,1.093890944194489574e-02,1.424658358679744630e-03,1.268700957298278809e-01
5.583178800519681406e-01,7.904677275944840265e-01,6.834275290746554266e-01,-1.173752501284319738e-02,1.196761864726439972e-01,1.225030593813851952e-02,2.904005348682403564e-01
3.925302047069519351e-01,1.095948998926469020e+00,1.127662164210613049e+00,1.544800318253008176e-01,6.777724770774280760e-02,-1.642868017224185032e-02,7.773638367652893066e-01
4.068610687050023822e-01,1.084858827330071662e+00,1.146104437852317970e+00,-1.420188733307393703e-01,9.572036450441440136e-02,2.639253587281056163e-02,7.713891863822937012e-01
5.516922202956517918e-01,7.986699679880330249e-01,8.115731107884209816e-01,-4.436510838862731294e-03,1.613413718253844161e-03,-4.114633915736702965e-03,2.539073228836059570e-01
8.162248640891165419e-01,8.454387641870498848e-01,6.456556122070519210e-01,-7.659060975663371795e-02,1.083561844486167769e-01,1.365224740733210484e-01,3.790343403816223145e-01
7.356054602420482036e-01,7.798847248544624744e-01,6.486124984443979447e-01,7.950147670283642248e-03,-1.282166974698774678e-02,7.103051680614801480e-03,1.192248836159706116e-01
7.355976161678094982e-01,6.708255486325782613e-01,7.379759115550598159e-01,7.056864787273684977e-03,1.438740153681698428e-02,-6.491356592516501350e-03,7.247018069028854370e-02
7.855205039098198672e-01,7.155707583491668355e-01,6.628815399955407806e-01,3.372256528304653622e-03,7.386131563179004940e-03,-1.788438954768798578e-02,1.118572875857353210e-01
7.379803714793911062e-01,7.097258415234024564e-01,7.054041047067385328e-01,5.276423129421767277e-03,2.151449190826027012e-03,-1.470223351672403974e-03,3.229546919465065002e-02
8.678242825206043953e-01,8.220465935467762275e-01,2.839000807195761755e-01,6.618667456157217854e-02,1.611200004861807200e-01,-1.951856062207096287e-01,7.222504019737243652e-01
7.176242660498000081e-01,7.112558143159721791e-01,7.151084520222837915e-01,4.644860942458972630e-03,4.314364558931102142e-03,-3.933387837406966681e-03,1.406572759151458740e-02
7.222982779743190029e-01,6.987899474716562365e-01,7.168898788075600548e-01,2.726309308551500867e-03,7.887073258091324007e-03,-3.025162132678979859e-03,2.628917619585990906e-02
7.268337306887749927e-01,7.051602395437445159e-01,7.082506904605543330e-01,7.843631665850133924e-03,8.949957104412669187e-03,-8.067828053215464132e-03,3.213180229067802429e-02
7.376079586097010754e-01,7.014608103778277037e-01,7.015785909434651968e-01,2.415283953680599609e-03,2.002344098600879283e-03,9.681806545297213466e-04,3.653373569250106812e-02
7.083243999282404779e-01,7.256390911657908394e-01,7.238721146427938846e-01,2.640796365111330434e-03,2.233798226103697344e-03,-5.609292574608350582e-03,2.006513252854347229e-02
8.061134680856685275e-01,7.810232232088452076e-01,5.273167094555999412e-01,8.397487365783417798e-03,2.186732596393029665e-02,-5.874816115211816542e-02,2.887251377105712891e-01
7.792547500237896330e-01,7.630574082168811723e-01,5.977324450251888521e-01,1.592312795486768018e-02,1.999032450012537543e-02,-1.191491610276829496e-02,1.807149499654769897e-01
1.131182686011024563e+00,6.716058184870491443e-01,7.923110130416310959e-01,2.581356058888450641e-02,-3.430804598235794728e-02,3.811042172271577044e-01,7.820222377777099609e-01
7.709133772850924604e-01,7.341917340166101980e-01,6.376665823693044022e-01,2.748038120817682204e-03,-3.187287127003640697e-03,1.208548807798170456e-02,1.212495565414428711e-01
7.897514089636228363e-01,7.580781380046022200e-01,5.955551458424467315e-01,1.659148633203741743e-02,8.933117166517515889e-03,-3.163967284278775688e-02,1.913974732160568237e-01
8.109085939551119449e-01,6.044020632618560818e-01,7.888576817892346549e-01,7.793449159515670674e-03,-6.645927239161846835e-03,2.891853701488750206e-02,2.034725993871688843e-01
7.632467958348928549e-01,6.601220175804064505e-01,7.356294694137790469e-01,5.649000706357940396e-03,-1.425254024646212779e-02,7.976302673013102931e-03,9.718748927116394043e-02
7.535156972127399211e-01,6.818297629546529182e-01,7.051874170083294313e-01,4.425451484587424392e-03,-7.259027364654081597e-03,4.978309205655939533e-03,6.558370590209960938e-02
7.443055111490938236e-01,6.901899199092056403e-01,6.948434836845023277e-01,2.553633293362435070e-03,-8.717567450646912866e-03,8.212670429891566828e-03,5.610897764563560486e-02
7.695861621542334774e-01,7.179248822803593333e-01,6.562818651563445682e-01,1.548385405751929837e-02,-6.814484314622847733e-03,1.817812518807645703e-02,1.072529703378677368e-01
7.161325547237087363e-01,6.844529547543684034e-01,7.228604732420627066e-01,-7.260292849230983066e-03,-1.048129555443673942e-02,-6.385435100550683300e-03,4.326695203781127930e-02
7.160919175751278010e-01,6.838596589501830803e-01,7.354218741650240254e-01,-1.223074529174044550e-02,-1.996059048019305573e-02,-3.795460587781970731e-03,6.101540103554725647e-02
7.133941346337503431e-01,6.747753701659175984e-01,7.493688491355585679e-01,-1.771363515983345391e-02,-9.295241630487475690e-03,-1.512714921749422001e-02,7.785822451114654541e-02
7.573102905302668830e-01,7.084968430859036603e-01,7.889459364654229923e-01,-1.563441538053590707e-01,-1.147904462352173638e-01,-1.167819128284384306e-01,3.983753025531768799e-01
1.162940419254740121e+00,3.994066807604572666e-01,1.133137517313781872e+00,-8.510607057911838413e-02,1.652285492618782783e-02,7.353157946447859417e-02,7.745226025581359863e-01
1.065866017115326914e+00,4.359182877594895977e-01,1.086393629021868978e+00,1.743418125297344912e-01,4.971386676298377577e-02,-1.160663603573724306e-01,7.410807609558105469e-01
7.905384031295362712e-01,5.955331411673693287e-01,8.011411249583741956e-01,-5.651460680717224072e-02,2.961164838939339509e-04,7.690988108882282695e-03,2.235318273305892944e-01
7.287289679464066250e-01,6.116467073688323097e-01,7.717508773355610252e-01,-2.883590398219268783e-02,-1.163722271807447750e-02,-7.938081597545658397e-03,1.539028435945510864e-01
7.716014982089172136e-01,5.457187851410475465e-01,7.859559479271178706e-01,-3.066879162007180026e-02,5.384233366479216319e-03,3.644440933657404954e-03,2.396247386932373047e-01
7.195369793752941501e-01,6.833109685912660547e-01,7.737134574235928763e-01,3.278556412546359405e-02,-1.128213200388649556e-02,9.614558758233303012e-03,1.004682555794715881e-01
7.942404751062528412e-01,5.647292162381296610e-01,8.091355749353911220e-01,2.731467545386648266e-02,-1.085522227783981570e-03,1.200060433775296080e-02,2.428780049085617065e-01
7.670313814512776940e-01,6.425601217104537355e-01,7.320627115845758093e-01,9.651686741726860086e-03,-1.462484461956095258e-02,1.103995299491390691e-02,1.168335303664207458e-01
7.832357756460298637e-01,6.403570133445111168e-01,7.313187490245565137e-01,-2.785992416023208118e-04,-3.766227966457802272e-04,1.202535464692634434e-02,1.269896179437637329e-01
7.349789160339543770e-01,6.483418459357728203e-01,6.981293799485535079e-01,2.911567803214489686e-02,-3.035238239278825051e-02,4.887590158816760427e-02,1.347028762102127075e-01
7.583908887520514064e-01,6.829111000460326153e-01,6.778995901200732810e-01,1.208768422599986424e-02,-1.516386735652180094e-02,2.555719778904695302e-02,9.585539996623992920e-02
6.870107090466279764e-01,6.890860072139000092e-01,7.387594304228097819e-01,2.039996283201784416e-02,-1.245936474283690538e-02,1.248112859849288131e-02,6.896638125181198120e-02
7.660481591906495025e-01,6.969743688253737801e-01,6.907343142124513502e-01,3.056159124582973844e-03,-1.334777147972953000e-03,2.013642695578739521e-03,7.270956039428710938e-02
7.658451907930574620e-01,6.810257633837294433e-01,6.892342212797353262e-01,2.981081098790242271e-04,-2.189010792627348653e-03,8.624437613193640384e-03,8.248189091682434082e-02
7.631118712311280028e-01,6.900566644346519674e-01,6.936498960660741897e-01,1.572987748521984062e-03,-6.384938615558916931e-04,1.896004554798218396e-03,7.146257907152175903e-02
6.239140917576444512e-01,6.979923821338875900e-01,8.150989183857051401e-01,-6.064421363690693928e-02,2.582870555842171900e-04,3.751011355786118290e-03,1.973630040884017944e-01
7.517279949344338741e-01,6.427153412402489829e-01,7.600613009917278617e-01,-1.676480906846374019e-02,-1.616943865412064432e-02,-6.636021346856103495e-03,1.209184750914573669e-01
6.300671979626722985e-01,4.967950046520973606e-01,1.093494830438369814e+00,-3.108058371246611440e-01,1.473260749670745606e-01,8.928518316091334228e-02,8.204388618469238281e-01
7.905487598385052550e-01,5.651828256172068965e-01,8.038068295333213875e-01,-1.941626027721581396e-02,-6.139617670541295223e-03,-1.032418975621400298e-03,2.349484115839004517e-01
7.748456345212680896e-01,6.278584012770254130e-01,7.632949108805074934e-01,-2.119360926600783943e-02,1.304120731763951796e-02,1.385040485903155788e-02,1.499135941267013550e-01
8.726418366808158522e-01,1.065101085087433175e-01,8.770914088746107895e-01,-4.045556111597987253e-02,4.099671987836436826e-03,-3.317001942556467575e-02,7.737233042716979980e-01
7.052079744083922241e-01,6.858866582017535407e-01,7.375336443780216023e-01,-3.288584393677890239e-02,2.254443028961124543e-02,2.426474715445355035e-02,9.261944144964218140e-02
7.181321875972030977e-01,6.719708864018877348e-01,7.333691999977640652e-01,-1.277991180071285510e-02,2.078094813501555824e-02,8.609931642489467365e-03,7.123417407274246216e-02
7.319289144449411255e-01,6.563125498714527106e-01,7.705981997433292152e-01,-9.538912664678524111e-03,1.394695339672537455e-02,1.073525295875085543e-02,1.064868122339248657e-01
6.116723164435016180e-01,7.956902791267325137e-01,7.724830801615004683e-01,-2.615736654050511076e-02,1.056264813678300767e-02,6.811796614619556808e-03,1.807129681110382080e-01
7.150516360271156335e-01,6.833290709359668424e-01,7.321732503914631929e-01,-1.366465056619618409e-02,1.720935869637130883e-02,5.077678621744709068e-03,5.803976953029632568e-02
7.289857288037030481e-01,6.978724032232278551e-01,7.182608642211558703e-01,-9.351697282593338231e-04,1.067470873185670348e-02,3.594714387037497693e-03,3.365432098507881165e-02
6.093022605303990424e-01,7.600163792739066393e-01,7.627952873016820012e-01,-9.254417103218830210e-03,-8.955551973734333579e-03,-1.019749671626195286e-02,1.547604352235794067e-01
6.362783601106094533e-01,5.733879835103766753e-01,8.837150199205240364e-01,-2.524648368461838710e-01,7.893735087109490789e-02,8.319150684121032202e-02,5.580437183380126953e-01
6.167897706164202631e-01,7.708193771316236287e-01,7.389871572752884088e-01,-1.083208090621717683e-02,-2.391433027306536299e-02,-1.842120520346068185e-02,1.513968855142593384e-01
6.289216084892648162e-01,8.187734259127942282e-01,7.863798845492151468e-01,-1.613462307140659524e-01,-1.256549831396457095e-01,-8.514062901503180458e-02,4.220843613147735596e-01
7.049879229682036730e-01,7.455745224876095811e-01,7.006909946047693571e-01,-7.496853850277128591e-03,-8.755805429907833476e-03,-4.358159990867501235e-03,4.791361838579177856e-02
1.123388378568979551e+00,8.793137522128998684e-01,5.952822860888437040e-01,-9.617126794415897795e-02,-1.488507131236768144e-01,-3.974047370751131458e-01,8.818044662475585938e-01
7.375311358811641460e-01,7.024183167039892428e-01,7.245597349522755470e-01,-2.062688310921410861e-02,-1.662657490137564587e-02,-1.557105321017491530e-02,6.147203966975212097e-02
7.991603995358560475e-01,6.655584006456903845e-01,6.896180461931891159e-01,-2.710273729832985562e-02,-5.089261868607858688e-03,-8.428428258372659687e-02,1.969945281744003296e-01
7.572835428284138137e-01,6.997217032905200806e-01,6.484407935470661855e-01,-1.769913054785291623e-02,-1.074924942208510537e-02,-1.868678604322128456e-02,1.059666201472282410e-01
6.021393905125034252e-01,6.882286387232062763e-01,7.652108435438370604e-01,-1.442862554432407241e-01,-1.315899353308288000e-01,-8.682523680529176391e-02,3.962122201919555664e-01
7.878462256900832239e-01,7.005813232005113633e-01,6.882363156731289289e-01,1.059548142812158367e-02,-4.266911315285717640e-03,-6.162678019000320667e-02,1.436309218406677246e-01
7.280567756076896657e-01,6.643070325726387892e-01,7.157915079309480344e-01,-1.389498166815128152e-02,-1.787708729500329247e-02,-1.187518320041719942e-02,7.344114035367965698e-02
7.929839134473728457e-01,7.630584389020925729e-01,5.963659287179166046e-01,-5.392262540885227329e-03,-3.110088146305325495e-03,-1.562581000222149075e-02,1.857929676771163940e-01
7.095438771443435266e-01,7.390002253825890266e-01,6.812303579404782594e-01,-1.329176699016590760e-02,-7.148337276613946425e-03,-8.082726991582134257e-03,5.816051363945007324e-02
7.181983519700406715e-01,7.560541795808359833e-01,6.764991157780958497e-01,-1.379187041265124945e-02,-2.260338846989351502e-02,-1.273684281985190507e-02,8.567681908607482910e-02
7.378622965151652169e-01,7.352692100787678875e-01,6.466242259518127922e-01,-2.159915988068961470e-02,-1.646864411676243062e-02,-1.393369111420616341e-02,1.043560504913330078e-01
7.051692125965608460e-01,7.093640264576498433e-01,7.037763879666173450e-01,7.296324110821116038e-03,9.912932556498632933e-03,-8.202372568543217154e-03,2.610983699560165405e-02
1.095477378481250152e+00,1.016028791476053739e+00,2.921591912273039382e-01,-3.459925565371804040e-02,1.065812004541706083e-02,-2.992443384429026021e-01,9.275684952735900879e-01
7.272260791477844766e-01,7.171517855580293865e-01,7.000458048367828034e-01,1.054636459768731188e-02,2.556304843338973003e-03,-4.252752165956846624e-03,3.120858594775199890e-02
7.293788555696728571e-01,7.012218305374856575e-01,7.097748317881044100e-01,4.629034670448966063e-03,6.664792366123553462e-03,-3.379852935889924182e-03,2.927383221685886383e-02
7.635839218551407903e-01,7.007839190433814425e-01,7.048570704344975235e-01,9.064746721452771050e-03,7.119634575993438394e-03,-1.150151562638464589e-02,6.708254665136337280e-02
7.071355356480928389e-01,7.271508861309085026e-01,7.083978740431015053e-01,3.604107675952397303e-04,-9.271909068126646088e-04,-4.065053968464886307e-03,2.072400413453578949e-02
7.113566130991403336e-01,7.376686991185127384e-01,7.059288821097009503e-01,-1.630008535158776299e-03,-1.863531940749289968e-03,-2.472790601050931132e-03,3.002222813665866852e-02
6.982144309163983431e-01,7.482120582178493073e-01,6.990319658344453790e-01,-7.234858865036884398e-03,-1.339665926728982569e-02,-1.025587086601557722e-02,5.891133844852447510e-02
7.139125807105332067e-01,7.492908155015041149e-01,6.862551008346789994e-01,-1.136545408970341536e-02,-4.771109916339848558e-03,-6.309748393165347941e-03,5.975180491805076599e-02
6.916226449180495894e-01,7.434387500057068054e-01,6.998783546965559044e-01,-1.804464424195929666e-03,-5.584672078097054591e-03,-8.398022718586865137e-03,5.138288810849189758e-02
7.006748931912191170e-01,7.175638039108224175e-01,7.241699275503452604e-01,-2.574431520759862171e-03,-2.917555442225158030e-03,-9.800444191160467833e-03,2.782107144594192505e-02
6.809095682361292479e-01,7.327646119749794407e-01,7.151448194643909018e-01,-6.154906223290132830e-03,-1.093609573933051332e-02,-1.411160121353245353e-02,5.617457255721092224e-02
8.269759227299134929e-01,7.820508995831206844e-01,5.790112732068886103e-01,-2.127287929616538537e-02,-2.828479763072391795e-02,-4.747939287321427393e-02,2.507697641849517822e-01
7.648768468481625948e-01,7.093607334241383011e-01,6.615154289150579903e-01,-4.392299821261886478e-02,-2.895648760938256475e-02,-5.547855644985359019e-02,1.598878800868988037e-01
1.061540519550439043e+00,1.103320563816745814e+00,4.037449571228321488e-01,2.872763390586523594e-03,-1.977551941891193543e-01,4.940099183979963088e-02,7.658921480178833008e-01
1.165067626751721486e+00,1.044958758432410706e+00,5.040681878740791433e-01,-2.860212645409580118e-02,-8.062441459599738180e-02,-2.929814855347639968e-01,8.071084618568420410e-01
8.628053349729229993e-01,7.519426828283670705e-01,4.814991184895323073e-01,8.973084731327693811e-03,-3.549885919384325461e-02,-1.512354298730133328e-01,4.336483180522918701e-01
7.748812561155329348e-01,7.209392738648490173e-01,5.974757724438753970e-01,2.729327219020516275e-03,1.263269127392140697e-03,-3.347642455784783505e-02,1.679344773292541504e-01
1.084177311875402339e+00,8.415321708128993272e-01,6.023778157982226933e-01,3.012374872436747453e-02,4.518556126827354136e-02,-3.992185859142549087e-01,8.130652308464050293e-01
7.650546600952496945e-01,7.810868383679239191e-01,6.100755484472349943e-01,-1.055394133063708093e-02,8.113752129172969313e-03,1.753168929702148687e-02,1.679700762033462524e-01
7.916031590694619924e-01,7.855400768119021881e-01,5.321650486919207168e-01,-8.206208133558277711e-04,1.874909824042279632e-03,4.868885107908720034e-03,2.566234171390533447e-01
9.146067632303358508e-01,8.202033835026814046e-01,6.137123123676591074e-01,-2.423339460555267236e-02,2.944069497041863076e-03,-1.572216191009840613e-01,3.833897411823272705e-01
7.189973869482855218e-01,7.240449857256324728e-01,6.886146742766070528e-01,-1.490624558996141505e-02,-1.000223081190682733e-02,-8.902484828725949415e-03,4.802532866597175598e-02
7.405050532571574307e-01,6.359862374765061777e-01,7.609340974676896963e-01,-1.857142936523453053e-02,-1.695330670643952278e-02,-1.057910515562239355e-02,1.253373026847839355e-01
6.989491451686633550e-01,6.950692899589090423e-01,7.267906351902483353e-01,-1.233709062043734928e-02,-1.179241075822846756e-02,-1.176972412183534614e-02,4.677174612879753113e-02
7.365727798849400765e-01,6.380242262168110967e-01,7.286068192350839690e-01,-3.327142086474434157e-02,-2.136160253322830910e-02,-8.941726041135843531e-03,1.179831326007843018e-01
7.990948638227874934e-01,4.120657559635281797e-01,8.173579795264798165e-01,-9.315891405928018731e-02,-4.306320331870483464e-02,-8.954897324116785351e-02,4.613562226295471191e-01
6.947916761318718715e-01,7.041941286334281180e-01,7.379454057663595856e-01,-1.073515193667503448e-02,-3.550804652920693492e-03,-8.179071003758140931e-03,4.614267498254776001e-02
7.175794441317652206e-01,7.175975207887036467e-01,7.099574808277997473e-01,-5.517621044112486564e-03,-2.796543996654827970e-03,-1.922828950482469981e-03,1.356903277337551117e-02
6.676968660573294745e-01,7.449416909416151089e-01,7.332996527088603278e-01,-6.621293810244418751e-03,-7.269807550889779632e-03,-1.691551936099926559e-02,7.969624549150466919e-02
6.502976835033108527e-01,7.419507592079370717e-01,7.342418085180323351e-01,-1.113868417631782085e-02,-1.434888728486825513e-02,-2.237234541687102909e-02,1.012156754732131958e-01
7.019471349939859772e-01,7.374411395973561323e-01,6.960844319895034271e-01,-8.114747164942051616e-03,-3.720844049234702314e-03,-4.049904098824636846e-03,4.231516271829605103e-02
7.094076309887709098e-01,7.466338190714787437e-01,6.939241924650051407e-01,-2.193906337262935963e-02,-3.343458209032244138e-02,-2.024117465998711424e-02,9.071169793605804443e-02
6.540089504413131305e-01,8.191178069493817437e-01,7.450145080805646858e-01,-1.770750921941552716e-02,-1.439209840544648789e-01,-3.256144675106430186e-02,2.945815324783325195e-01
7.651127901679615206e-01,6.557557124745424515e-01,7.997213466183683561e-01,1.518227199727029131e-01,-2.377668969684651815e-02,8.028579487280333715e-02,3.272999227046966553e-01
6.810930366144485326e-01,7.589612409130044313e-01,7.563505099145724220e-01,4.894995132082969463e-02,-3.038777343415411877e-02,3.627919468755506915e-02,1.406202763319015503e-01
7.440384027089397279e-01,7.638496170222268677e-01,6.522027528653392414e-01,2.143836947592863557e-02,-3.816333796826526514e-02,1.970883460201299994e-02,1.325107216835021973e-01
1.085136280214865634e+00,8.818325231423819188e-01,6.958232744990955343e-01,1.308293751507393077e-01,-2.097801692998435830e-01,3.387896776238493168e-01,8.009092807769775391e-01
7.655341909042204795e-01,7.624860035482916576e-01,6.305925326833674571e-01,1.066734433441521822e-02,-9.981335360453650468e-03,9.345320475668789789e-03,1.367826014757156372e-01
7.440401066123703000e-01,7.228373949062244508e-01,6.952612522737507961e-01,1.463495698140931077e-02,-1.559713539556212628e-02,2.160041101508713979e-02,6.757794320583343506e-02
7.854760105085122346e-01,6.716355951407518843e-01,7.165272872681949234e-01,4.985952978624946796e-03,-5.665477998724907822e-03,3.112588153406931069e-02,1.137618049979209900e-01
7.231458379796643632e-01,7.354260464326080049e-01,6.846171563780406588e-01,1.368105825275357616e-02,-8.208508320915991474e-03,4.462073545012460070e-03,5.414597317576408386e-02
7.294293743608781799e-01,5.925824755341222438e-01,8.710180631998243328e-01,2.417465820219848738e-01,-2.648313254098087488e-01,2.758653564812924008e-01,8.198698759078979492e-01
6.960058887522454496e-01,7.529183596572479598e-01,6.850409076402865782e-01,-7.036250561254541944e-03,-9.180945125598187484e-03,-4.023990652288458349e-03,6.658286601305007935e-02
7.058164420948881412e-01,7.441031189242751642e-01,7.095652090334824136e-01,-7.203309784265762329e-03,-6.744970208681014615e-03,-7.315362457774675538e-03,4.229758307337760925e-02
6.914539934465505633e-01,7.411751222504057157e-01,7.050385531168518183e-01,-4.085899424912852775e-03,-3.104611808296965127e-03,-8.458669368904202582e-03,4.769631102681159973e-02
6.956860766768607762e-01,7.583493227805823134e-01,6.815473170505561562e-01,-4.504327008822262175e-03,-7.534757924664993445e-03,-6.931244454266101765e-03,7.340217381715774536e-02
6.986053121627497919e-01,7.434638511298632402e-01,7.144958631458963039e-01,-1.313940838861090560e-02,-2.344119890560979538e-02,-1.086594655259270556e-02,6.381676346063613892e-02
6.968037629122013632e-01,7.468145188242217847e-01,6.948774626674143473e-01,-7.631421635936432198e-03,-8.269697996621520886e-03,-5.429248839819372265e-03,5.540245398879051208e-02
6.838835411737425041e-01,7.607022312962222754e-01,6.974352500389271459e-01,-4.980712437086882299e-03,-8.730173113697260734e-03,-9.318394475953322570e-03,7.488192617893218994e-02
7.620562278041845827e-01,6.918325010038068879e-01,3.408495878818471603e-01,9.981707259666465493e-02,-2.293648091402112899e-01,2.898148185533205856e-01,7.697145938873291016e-01
1.055600936987167504e+00,3.545837186975248079e-01,8.637447715669053228e-01,9.164778159419074977e-02,-6.818810246243557638e-02,1.452993730015146867e-01,7.044302225112915039e-01
7.557363673422182737e-01,8.495230811585846586e-01,3.042390194540834369e-01,4.106610148258334897e-02,-2.055357923518786045e-01,8.743008524041352703e-02,6.400910019874572754e-01
7.612715724909497883e-01,6.853969624934632687e-01,6.797238218859783521e-01,1.047965442716878963e-02,-1.054632771097280264e-02,2.116392742496193968e-02,9.069988131523132324e-02
9.238683270082431731e-01,2.086810261924383347e-01,6.828361586706732655e-01,5.275675008357643553e-02,-5.835163906068530776e-02,2.983750446284872959e-01,8.263496756553649902e-01
7.677911199129516806e-01,6.748421826869557272e-01,6.763761751480964479e-01,2.805061884735587929e-03,-2.479945159056607187e-04,2.694321958287334770e-02,1.034450381994247437e-01
9.408061500881181871e-01,3.040707846711033779e-01,9.957532934581733164e-01,-6.980035084837592566e-03,5.103672954917447269e-02,2.417868099916717639e-01,7.916949391365051270e-01
6.686239814707140017e-01,7.667681298940710599e-01,7.051160653336550066e-01,1.282465152752612202e-03,-9.260885096105854128e-03,1.967305885512307933e-03,8.750027418136596680e-02
7.630387865335742648e-01,7.921285465459105835e-01,5.893072307225037942e-01,3.858831209916715153e-03,-1.260684507111074076e-02,4.333365491164115936e-03,1.914692670106887817e-01
7.064413205818906860e-01,7.661546616734704607e-01,6.730006040370352105e-01,2.580284672747873865e-03,-8.467766731226995455e-03,1.101918161329795351e-03,8.318381756544113159e-02
6.187008264919207079e-01,8.101767385445947101e-01,6.870119242425052342e-01,7.068173706183715314e-03,-7.599652699504309827e-02,1.065345088517864226e-02,2.146305739879608154e-01
7.321402241098978747e-01,7.388539240545697329e-01,6.606854604215303128e-01,1.725983694776329208e-02,-7.450209310395469915e-03,1.121780574831091580e-02,8.407332003116607666e-02
7.226702114866772053e-01,7.088686255769407474e-01,7.186255162349378667e-01,1.258834966948372061e-02,-1.163750565975816068e-02,1.189239173607818320e-02,3.817068785429000854e-02
6.730720863316610458e-01,7.770180681472838025e-01,7.561604751819150927e-01,5.767931655879975084e-02,-6.180011477506226064e-02,3.795110629280693676e-02,1.866308599710464478e-01
6.947353348685663121e-01,7.432776597528736318e-01,6.883117436825503255e-01,1.855993493736296865e-02,-2.317629370048630844e-02,1.423284560622938705e-02,7.721394300460815430e-02
7.521418276255045221e-01,6.383864579151926621e-01,8.102131390658762200e-01,-5.394666514503749372e-02,5.188001170073726180e-03,-7.705156986790960040e-03,1.786282956600189209e-01
6.258973072293372297e-01,7.589699094088875331e-01,7.385730379195406536e-01,-6.650337885648564124e-03,-2.606645590382117295e-02,-1.654390243051784976e-02,1.356548815965652466e-01
5.357730944891675451e-01,7.773741623739315321e-01,7.686757214788186854e-01,3.588100273734336210e-02,-5.240733674424209038e-02,1.268553303867322839e-02,2.625450193881988525e-01
5.518447512616694306e-01,7.709047157767399128e-01,8.099337224622820131e-01,2.302868467317125550e-02,-7.237363654533435393e-03,1.142285286925594744e-02,2.453564107418060303e-01
7.995719761341827381e-01,7.421519231513631354e-01,6.133833445215360891e-01,1.474009233198091129e-02,1.065065606330535541e-02,-6.467188515413679895e-02,2.020192742347717285e-01
5.022918347149697427e-01,8.278929080839344534e-01,8.721199435677073897e-01,3.471770768640423943e-02,2.705692088385151448e-02,2.960323032057804449e-02,3.616817593574523926e-01
3.617879511969940287e-01,1.146647493085744429e+00,1.060370398611970355e+00,6.150902608691215245e-02,-2.020649915810430741e-01,2.095293434746305430e-02,8.311983942985534668e-01
5.258985870988408529e-01,7.923929649920486984e-01,7.643778905918821032e-01,8.718509071133424826e-03,-5.221710224559204805e-02,1.424674575232307873e-03,2.697262465953826904e-01
5.888838270392156016e-01,7.814458866271821735e-01,7.631720366428702551e-01,-9.781393797018921553e-04,-9.950784497038834414e-03,-2.102731181191395265e-03,1.849551796913146973e-01
4.602369613098258316e-01,1.021429441034699570e+00,8.866865738878241254e-01,5.874230324863371350e-02,-2.899586546375362284e-01,-6.716752962509701941e-02,7.304727435111999512e-01
7.877019690763827908e-01,7.381509506476372495e-01,6.844182317219983380e-01,-4.051374476256631996e-02,-5.723770460993680975e-02,-7.250148074263196296e-02,1.962828785181045532e-01
7.464967745442135927e-01,7.815768005639094351e-01,6.398858653141126229e-01,-1.052238046208445466e-01,-3.042122550670343095e-01,-2.574106167191180794e-01,7.252368927001953125e-01
7.162015088595676815e-01,6.871210954640726287e-01,7.585634165660340988e-01,-2.686367860660165974e-02,-1.644533233606846820e-02,-8.065867440808097491e-03,8.392614126205444336e-02
9.290895792334845638e-01,5.049031780083904630e-01,7.675647283412896371e-01,-2.599693003333222174e-01,-7.685540288855338686e-02,-2.049654415289466902e-01,6.957101225852966309e-01
6.896002130619163228e-01,7.370520104783887527e-01,6.894604170014866362e-01,-1.348733295036868944e-02,-1.190689508536278175e-02,-7.766674039572644093e-03,5.839809030294418335e-02
7.762690900398185878e-01,6.670368700100632875e-01,6.993682226674652336e-01,1.361519881753133800e-02,8.631635378750569451e-03,-4.062173650927747987e-02,1.231883987784385681e-01
7.656170304267575499e-01,7.831420382279322689e-01,6.090047070289839048e-01,-1.266321147714563784e-02,-1.023755867885433116e-02,-1.010867720476565229e-02,1.693553328514099121e-01
7.175908848409615626e-01,5.731484833136338830e-01,7.410612700870073954e-01,-2.825160721759618077e-01,-1.359695883556395479e-01,-1.931229273211164388e-01,6.569651365280151367e-01
7.503303348462330158e-01,6.315578703621843593e-01,7.635261386737645095e-01,-1.718513213961403094e-02,-1.675873162352160134e-02,-1.017585900315972833e-02,1.337442398071289062e-01
7.627263227204750251e-01,6.134547773388288050e-01,7.305899674825223622e-01,1.900262022222118027e-02,1.848955371237466852e-02,-2.739404234411195807e-02,1.512543708086013794e-01
7.131996023929388917e-01,6.964457667602074187e-01,7.330474922032066409e-01,4.210005577448890091e-03,1.125942369784322696e-02,-4.149844182791492635e-03,3.863053023815155029e-02
7.417666043494134387e-01,6.814296042851863966e-01,7.135935281343902536e-01,2.867642003398614831e-03,1.403226716224588791e-02,-4.413259670014157109e-03,5.837988480925559998e-02
7.462518572464631461e-01,6.452158154557456893e-01,7.984779175701360865e-01,6.135253769388357425e-02,2.474045583989903721e-02,-2.958604279140231164e-02,1.843020170927047729e-01
7.471202201523849951e-01,6.992427119019061221e-01,6.980172153194872386e-01,1.105618619103911245e-02,1.142979940292917357e-02,-1.140390328183337777e-02,5.917108431458473206e-02
9.848058308834611863e-01,7.798066760594049018e-01,8.052672877911740690e-01,2.094649869313363333e-01,1.887087965696253866e-01,-2.973030357113523037e-01,7.355817556381225586e-01
8.943492265574682909e-01,7.232279374473561395e-01,7.549665447740890878e-01,-7.661286007594118874e-02,9.298437151354776997e-02,1.629376875096793520e-01,3.847747743129730225e-01
7.456726871949311830e-01,7.001517713350680072e-01,7.027657767691031232e-01,-8.836050423174682603e-03,5.940536837667385710e-03,1.126379523792264822e-03,4.799894243478775024e-02
7.989569275398227255e-01,7.495462141799821287e-01,5.398863832125533335e-01,1.171071752651867658e-02,-1.304943127047521190e-03,9.534399048238717533e-02,2.905960679054260254e-01
7.701162853631183802e-01,6.346863352374148004e-01,7.978995709353960963e-01,-6.126245034992203187e-02,2.996237915023607090e-02,5.735015941899604397e-02,2.160913944244384766e-01
7.897867549764970851e-01,6.142009468519153970e-01,7.393839345867937451e-01,-1.579619581541669843e-02,8.823230753502655718e-03,5.975741126551370463e-02,1.903043687343597412e-01
7.494254826680346593e-01,7.266220731201805672e-01,6.943491626802360539e-01,-1.507875213349748993e-02,1.083241486384342069e-02,2.204822687336258774e-02,6.920962035655975342e-02
6.635180072736283075e-01,7.425956246770523128e-01,7.242402035013079109e-01,-2.360790273506604628e-02,2.139762664313929821e-02,1.686901050750800116e-02,9.506814926862716675e-02
6.435157639949531383e-01,6.563311764962043160e-01,7.444631029149211265e-01,-7.002555165222232314e-02,3.165935709878753279e-02,2.781933919650058165e-02,1.705882251262664795e-01
6.194155175707392047e-01,8.455356138014008538e-01,8.089076620986874744e-01,-2.681766420604880241e-01,3.022974901090703104e-01,5.932775663821011902e-02,7.380083799362182617e-01
4.695191444769912237e-01,1.001902206387244698e+00,8.399673288298319385e-01,-1.163083530585067027e-02,2.488259028071194978e-01,9.842244253397164355e-02,6.623088121414184570e-01
7.304055490966877562e-01,7.825136393337963625e-01,6.350143531986176537e-01,-4.834169093799586293e-03,1.537793517259780293e-02,3.910430021398837025e-03,1.327057331800460815e-01
6.931311253895654501e-01,6.923870511425063157e-01,7.526743824614086087e-01,5.202010990382895887e-04,1.332077476947395511e-03,-2.336628673463012236e-03,6.010634079575538635e-02
4.869777451459022521e-01,6.091398900981236375e-01,8.032645972740686258e-01,2.954516555728726734e-01,1.337179357923182210e-01,-8.502157081373665215e-02,6.430592536926269531e-01
7.191200524108924963e-01,7.292654096213115889e-01,7.012603987935496219e-01,1.045423468723052397e-02,2.825072043322823280e-03,-1.863250287698559309e-03,3.106958791613578796e-02
6.459503927358861697e-01,7.678973502177813826e-01,7.299975232501287881e-01,5.808133527980659239e-03,1.086848854053409225e-02,-1.279778773799514387e-02,1.123949065804481506e-01
6.760283728382747714e-01,7.125251259344216326e-01,7.086725455450636479e-01,-2.741759637985669365e-02,-2.723549992220118329e-02,-2.174380987780909907e-02,8.429187536239624023e-02
7.138043044919740732e-01,7.166807089993645352e-01,7.313770078945768249e-01,-4.273207212517817800e-03,-6.376809275444404908e-03,-8.017811256044289625e-03,2.522211894392967224e-02
7.158135610923851422e-01,6.862398060634540276e-01,7.873419972995083782e-01,-3.373414793611598239e-02,-5.667363577988488582e-03,-1.846713542426581343e-03,1.078278943896293640e-01
6.465542213150576867e-01,7.293869058643385195e-01,7.775005699830153105e-01,-9.907680121439950416e-02,-7.948849500309489169e-02,-6.925744546174383842e-02,2.755997776985168457e-01
7.133082742829918166e-01,7.262949565110580208e-01,7.351542958201540134e-01,-1.385392387325446069e-02,-1.357957967646674508e-02,-1.505931264258613712e-02,4.659992083907127380e-02
6.742009150095241710e-01,7.092781711511478848e-01,7.733307445571206973e-01,-6.615363218264160190e-03,9.868111393640630231e-04,6.356703874369949931e-04,8.783710747957229614e-02
7.824301363546155574e-01,5.708814971307266672e-01,8.098683589543893557e-01,-2.557512070858980469e-02,8.876740533427978155e-03,-1.283752961575884526e-02,2.323860079050064087e-01
7.144375351852700895e-01,6.882908977199608813e-01,7.571888958006809389e-01,-6.482855502569168614e-03,-8.025248264457917821e-03,-3.077474835951857831e-03,6.306217610836029053e-02
7.218214366530488757e-01,7.095738409231401311e-01,7.284199109483460166e-01,-1.016152903579983606e-02,-1.011701015985096673e-02,-1.137251251595835892e-02,3.576580435037612915e-02
6.925389929246358323e-01,6.878809653480613129e-01,7.536777185633656284e-01,-3.795279958191294465e-03,-3.155543864578517523e-03,-2.517610393528782898e-03,6.431583315134048462e-02
6.971731496939039818e-01,6.868769883174937751e-01,7.629880765709702306e-01,-8.197889957430036165e-03,-2.323276845765502325e-03,-3.865082764648922024e-03,7.333404570817947388e-02
7.024329089339083065e-01,6.931907235953507218e-01,7.458469624669753495e-01,6.503989272679615817e-03,-7.822843281204307567e-03,3.674822049586590807e-03,5.217708274722099304e-02
7.188834625380664534e-01,7.135244473628472583e-01,6.854771049840743258e-01,1.462696594791006340e-02,-6.958238917107386831e-03,9.665592205129273570e-03,4.508930444717407227e-02
7.228021912918538572e-01,7.052150593854167315e-01,7.069547525915004238e-01,1.201102043538817069e-02,-1.411827121056196364e-02,1.097053479359100421e-02,4.090924188494682312e-02
7.753136605324686403e-01,6.932475474499552037e-01,7.252098232909282016e-01,1.875576039819699947e-02,-1.573386561020053212e-02,2.915166558115051335e-02,9.736976772546768188e-02
1.017807835062197741e+00,9.236286031765739146e-01,4.491029947720620030e-01,1.145592761029188278e-01,-1.328180187059615491e-01,1.707714910348213100e-01,6.771386861801147461e-01
8.155251004368014867e-01,7.860366715720298325e-01,4.979367981506371277e-01,1.501035130540524093e-02,-5.066768215951958365e-02,6.512371533732913553e-02,3.368495106697082520e-01
8.929447349770109899e-01,4.137148652133310622e-01,8.610983280690631680e-01,8.157893462504743620e-02,-8.343127966675620288e-03,1.023372522568575943e-01,5.167268514633178711e-01
8.168674127984208999e-01,7.416447263377239363e-01,5.923607905500359871e-01,1.910981791617871045e-02,-2.548362095045308279e-02,9.669404920460115960e-02,2.650786638259887695e-01
5.110156099465539281e-01,7.854655347512392582e-01,5.592023107986079378e-01,-1.396429658746128344e-01,-3.269264749221687527e-01,-1.288951193032792097e-01,7.024279236793518066e-01
4.330625489874161405e-01,8.412993726272541828e-01,5.964313143164176045e-01,1.625583400092943387e-02,-2.882894833504556220e-01,8.091313489728958058e-03,6.139830350875854492e-01
7.175942558333919807e-01,7.628023152444511901e-01,6.838573550399449363e-01,2.001659570027671670e-02,-2.953364512180126078e-02,1.912229456070231245e-02,9.809594601392745972e-02
7.577891463345575174e-01,7.210851308276042815e-01,7.637229093292126070e-01,1.038379165807757770e-01,-4.301991855286254468e-02,1.025185529375411964e-01,2.665134668350219727e-01
6.408231564745099362e-01,7.729949435294976023e-01,7.329121115555745636e-01,8.398604306383469211e-04,-1.259341824263532535e-02,7.292534834389224202e-03,1.200651377439498901e-01
6.440483970956712989e-01,7.703954754413168127e-01,7.302596896673551052e-01,-1.147796252067809220e-02,-7.989232183640499266e-03,-1.037431886085960452e-02,1.158145964145660400e-01
6.549851252456354578e-01,7.719232499113419799e-01,7.138531715130846944e-01,-6.436952195587144696e-03,-1.293334823652246383e-02,-1.066915556175792278e-02,1.059417948126792908e-01
6.481981308683993914e-01,7.724821910293220295e-01,7.010630213707930158e-01,-1.310122624108721844e-02,-7.022746272536058154e-02,-2.157140307226123113e-02,1.684563905000686646e-01
6.900376139685041599e-01,7.362216829749984592e-01,7.453771896657619411e-01,-3.453836099435895340e-02,-2.514003121699562304e-02,-2.366403035024139748e-02,9.896639734506607056e-02
7.812628207677124736e-01,7.515183388302678624e-01,6.756875947779318325e-01,-1.748825579009316913e-02,-2.457844316234626680e-02,-3.380203866888065872e-02,1.226708292961120605e-01
6.223779186991669210e-01,7.930234034324969983e-01,7.468251668621981310e-01,-9.975935134390989667e-03,-2.385142797280403668e-02,-9.127749713831120187e-03,1.600806564092636108e-01
6.826718456487668174e-01,9.532087640876913959e-01,6.532499318918965070e-01,-3.105771648348861214e-01,-3.016295311721849393e-01,-1.712834346260671547e-01,8.557717204093933105e-01
6.975029538668177098e-01,7.034121237814210392e-01,8.680522941535934178e-01,-2.658434907866430996e-01,-1.865452304588825772e-01,-3.065732136388145679e-01,7.915120124816894531e-01
6.061051901356143690e-01,7.657269518948428555e-01,7.292260314966587664e-01,-2.680518870506307105e-02,-5.203733703306999414e-02,-2.139210505069414139e-02,1.806575655937194824e-01
6.428423927399422588e-01,8.606212132539767801e-01,3.965287294431386611e-01,-2.565795877456466395e-02,-2.719288879765805467e-01,-4.890260482871886666e-02,6.266779899597167969e-01
7.231808789075220290e-01,6.976596632948085519e-01,7.024032928918688690e-01,-3.050257625890005417e-03,-4.345492852054915617e-03,-4.710087461993165033e-03,2.653089165687561035e-02
7.225947962334908770e-01,7.077968957327689381e-01,7.062504934413679214e-01,-2.131054487912083413e-03,-1.088315080460521347e-03,2.242532197435394194e-03,1.662880182266235352e-02
7.367127897101145573e-01,7.101669193771652511e-01,7.091594973648468470e-01,-3.292671158303877871e-03,-4.278042070099836655e-03,2.827464893399604366e-06,2.863338962197303772e-02
7.349733185490519016e-01,7.195459645084946176e-01,7.034966065405648949e-01,-9.646944042996482421e-03,-5.089131170722271599e-03,-3.252523364899170127e-03,3.364237397909164429e-02
7.229912118408985400e-01,7.232820910752513210e-01,6.944695368598251539e-01,-1.617145784422550914e-02,-1.955590064813281931e-02,-1.321993604964616376e-02,5.725395306944847107e-02
7.061481640844597951e-01,7.203649380917567235e-01,7.194976393658831793e-01,-2.065948439161038527e-02,-1.659205654689741710e-02,-1.349715650202210245e-02,5.332345142960548401e-02
7.915211434792081002e-01,7.601962992337902847e-01,5.359918488400634562e-01,7.526225665660879818e-03,1.076695002199666053e-02,-3.725571638144378750e-02,2.509058117866516113e-01
7.236497265382478838e-01,7.094545230470489239e-01,7.145533076534872352e-01,-2.246813033060919736e-03,-4.125201291111267252e-03,8.649205056248361959e-04,1.495204865932464600e-02
7.005635699737579047e-01,6.880111058851537953e-01,7.549837737394879955e-01,-6.927038220542585008e-03,7.030998615210784335e-03,3.115336677335180365e-03,6.421528756618499756e-02
7.121507316817263789e-01,6.920388031494113523e-01,7.496021029572343952e-01,-4.036077792883846146e-03,-1.003181604714644369e-02,-3.290455691780030684e-03,5.425474420189857483e-02
7.627347822323682358e-01,6.029590005745006920e-01,7.829786714834530148e-01,-1.319738869014744700e-02,-2.019060128243126227e-03,-3.506336246110215629e-03,1.724651455879211426e-01
5.720626392385271819e-01,4.872448057971556779e-01,8.932286073626103384e-01,-3.676705550621665597e-01,-4.910537573218075325e-02,1.527766760006336573e-03,7.418680191040039062e-01
7.515270822097125381e-01,6.197271155100128048e-01,7.790704442641620542e-01,-3.340067563150355551e-02,3.701121786910133767e-03,6.841507081910050934e-03,1.590232998132705688e-01
7.970259339623092520e-01,6.132148801318330067e-01,7.489394050585883589e-01,-1.016998365658106952e-02,5.331678111255736680e-03,-3.365924838745253111e-02,1.762225329875946045e-01
7.086516700029598104e-01,6.758651791025684918e-01,7.665196239821410185e-01,-6.231354187253203107e-03,4.238754018071836521e-03,1.690453577310689019e-03,8.062198758125305176e-02
7.617157908485074902e-01,5.847753376312807561e-01,8.617973082434039478e-01,-7.967825418347937450e-02,-1.480432965318402398e-02,-3.269063110121130794e-02,2.862553298473358154e-01
9.027238052823316483e-01,8.886754650883452733e-01,6.768125824518018696e-01,-1.921873557337470673e-01,1.520452054970966027e-01,2.465761471498630064e-01,6.407964825630187988e-01
7.966829636571790552e-01,7.792305747995748044e-01,5.656013270794254533e-01,8.010170671805205700e-03,8.581711335930048215e-03,-2.041948467121320818e-02,2.265715599060058594e-01
7.136821064151395166e-01,7.709822503759258261e-01,6.596390251694029816e-01,-7.458331489380069790e-03,8.955556526708886508e-03,4.904104148562549691e-03,9.889526665210723877e-02
7.885217685714702718e-01,7.396214277343133858e-01,5.715161157021995120e-01,-3.747847746164427452e-02,6.952774055921868979e-02,1.031370459430603348e-01,2.991638779640197754e-01
7.511684032183887361e-01,7.855438847727425067e-01,6.325760306165305602e-01,-3.073850934150154299e-03,5.840001649776313530e-02,1.648162164752371359e-02,1.743486672639846802e-01
4.781496515965209526e-01,9.566945962558588423e-01,8.290866975470929656e-01,-2.971193995625154849e-01,-1.890616164738122829e-01,-8.610160944344295852e-02,7.606155872344970703e-01
7.253424846433792483e-01,7.595468170225437854e-01,6.027485579249511893e-01,-1.426734963797802319e-02,-3.095774414577539407e-02,-8.481958289784544830e-03,1.552227437496185303e-01
7.280022417869430607e-01,7.769771232110729287e-01,6.023972140051764290e-01,-7.310505621318448208e-03,-3.270965232589589933e-02,-4.121958912716975135e-03,1.665764749050140381e-01
6.098989756468898848e-01,7.780254633669198006e-01,6.778737337345189795e-01,1.347403789391848818e-03,-7.812697064574193606e-02,3.306621414136359793e-03,1.995205432176589966e-01
5.700693385780040146e-01,7.759337238400759729e-01,8.005915477721889939e-01,-5.386756218908050897e-02,-1.351907759882396698e-02,2.767326558920336736e-03,2.394592612981796265e-01
7.052507025179511890e-01,7.722568746152080887e-01,6.733190380748461656e-01,-3.140394465933730745e-03,-6.136633288946298156e-03,1.109847416084242108e-03,8.829118311405181885e-02
7.488523195061994597e-01,7.027912113524767967e-01,7.274926668375372163e-01,-1.310443142873117701e-02,-1.564205168046415781e-02,-1.823885061211928324e-02,6.197723746299743652e-02
5.988469290959484992e-01,8.894070872704935571e-01,7.653841127173475201e-01,-4.635388308048760814e-02,-1.269422662100862520e-01,8.929549041491114530e-03,3.446723818778991699e-01
8.220632577555606613e-01,7.821629751298745381e-01,5.310758073791395084e-01,-5.669932736871874206e-03,-5.997474628149778580e-02,-1.497538169162964117e-01,3.909235596656799316e-01
6.321059633143142342e-01,7.613668534994086912e-01,7.633695232382901041e-01,-7.091021979782050934e-03,9.824281968781408206e-03,9.824037226411090271e-03,1.330458074808120728e-01
5.990994542845188287e-01,8.483624559387011876e-01,7.898338733674413747e-01,-2.324157176601486241e-01,2.127102860188297140e-01,2.414510153961144656e-01,7.236384749412536621e-01
2.926011326262874523e-01,8.426787913553687170e-01,8.828166179346037534e-01,-2.111289092660872391e-01,-8.945551035840220919e-03,1.204089641846704979e-02,6.787316799163818359e-01
6.122756494217177492e-01,7.793881723667197559e-01,7.280971949580746783e-01,-5.520581632391417977e-03,3.276549618597079938e-02,3.801954280474575606e-03,1.591902077198028564e-01
6.417973521409539028e-01,7.327020668837994632e-01,7.634744148281832343e-01,-1.133004034272019726e-02,7.642962339598000435e-03,1.408177543962202231e-02,1.147309839725494385e-01
3.850190896528556950e-01,1.198139100274756119e+00,1.177212187584570913e+00,8.688354412988703868e-02,1.371297495324929894e-01,-4.068841091436455754e-02,8.535880446434020996e-01
6.119699250810567426e-01,8.121120842798423833e-01,7.655740604802069305e-01,1.064414663289894036e-01,-8.433598340431790186e-02,4.492715794238519994e-02,3.070681095123291016e-01
5.972356364603553791e-01,6.170118347309789808e-01,8.034978512856942867e-01,-1.442112866471020882e-01,1.610031545182427984e-02,1.706705896429912619e-02,3.207776844501495361e-01
7.832350200408777496e-01,6.002090829089417046e-01,7.415482549545547863e-01,3.512830378487857147e-03,-7.683057463705031918e-03,2.913102705271961371e-02,1.742597967386245728e-01
6.952076713590245038e-01,7.084265108398197786e-01,7.690451680871013274e-01,-3.364742464625641166e-02,-2.415996426164310554e-02,-2.600259379902189125e-02,1.087503135204315186e-01
7.226911439015187844e-01,6.743633624268808857e-01,7.384610335476559095e-01,-1.883542251340237714e-02,-1.484522553069780003e-02,-1.261591274384712101e-02,7.449384778738021851e-02
8.872597907425356922e-01,5.860489878445812595e-01,8.936888866494382411e-01,-9.410644275847752926e-02,-1.299437671582397667e-02,-6.730407138641539277e-02,3.651984930038452148e-01
7.741995568098318792e-01,6.450276043201226273e-01,9.169936302577266218e-01,-1.533936294129066569e-01,-1.243526070292572117e-02,-3.342227008424517032e-02,3.604502677917480469e-01
7.331051236867838217e-01,6.627489631466947362e-01,7.381222003856053870e-01,-8.277292085150041862e-03,-1.739986451900717157e-02,-1.128383363293245477e-02,8.260704576969146729e-02
9.858027297596995142e-01,3.913136203010661451e-01,8.870001848962018043e-01,-5.642283148953151917e-02,7.965313510546448428e-02,-2.322918827006740794e-01,7.034950256347656250e-01
8.538236657071485158e-01,7.925226337887488759e-01,7.550425216090099756e-01,-1.083493031584809169e-01,-1.031813752444364907e-01,-1.434980475472361350e-01,3.693144023418426514e-01
7.408301446358956932e-01,6.411606323530016915e-01,7.349402834551148622e-01,-4.163468710288716762e-02,-1.942059142660625820e-02,-3.892400415054272922e-02,1.423331201076507568e-01
8.520021078487984845e-01,3.795213750424375476e-01,8.861060857528998413e-01,-8.746905008322528041e-02,-2.722384239571557906e-03,-1.316607381778133468e-01,5.616876482963562012e-01
6.909480885410456130e-01,7.063885736429680318e-01,7.686050314962941110e-01,-1.174833817367315104e-02,-5.322723958324658902e-03,-7.091312876659882497e-03,7.562984526157379150e-02
6.141663163847191909e-01,7.251447946262605804e-01,7.682573133627096373e-01,1.294811098016932643e-02,5.377140251923000561e-03,-2.283079831997932713e-03,1.398742794990539551e-01
7.147212764031781740e-01,6.584848475139384316e-01,7.706877130662700415e-01,3.776824718427718164e-02,-7.009966355742935614e-04,-2.504910846358185308e-03,1.172252073884010315e-01
5.865397917843708786e-01,9.045201507693405585e-01,1.094136864551885857e+00,3.636156884623149566e-01,1.036229164672819864e-01,-5.643740589520002127e-02,7.973569631576538086e-01
7.000951059260701603e-01,6.486288764735278489e-01,7.619812060313891910e-01,1.849297337963481599e-02,-7.378988404904831405e-03,4.495430929764164009e-03,1.044684275984764099e-01
7.076119546937704730e-01,7.676274567655723136e-01,6.815614222276570322e-01,-6.105706355377759145e-03,3.757850319735216681e-03,1.810029601463220049e-03,7.751102000474929810e-02
6.537148139009154590e-01,7.510986956441909612e-01,7.033914227399682417e-01,4.646950485505833839e-03,1.600260483181500590e-02,-1.179202239003534353e-02,9.145420789718627930e-02
7.225803823335507081e-01,7.641799273763421052e-01,6.739325475946860156e-01,1.243912445445386102e-02,3.114768276322459409e-02,-8.351403373873815886e-03,9.851308912038803101e-02
8.032409661004407120e-01,4.803332316023899429e-01,8.064581808506489091e-01,3.977089704093129258e-02,3.995499194532334264e-03,1.505122200617661603e-02,3.328532874584197998e-01
3.850955662758481779e-01,8.350098228221294328e-01,5.679257100662814528e-01,1.577228506808351638e-01,3.654958260047898588e-01,-1.233297611600288474e-01,8.213486671447753906e-01
8.045780921326276536e-01,6.265146642112761066e-01,7.478698778102516043e-01,-8.803152950728906911e-03,-9.329375550869919986e-04,6.428350187246546776e-02,1.935379803180694580e-01
8.163641722509256127e-01,8.430507855035829223e-01,6.840313886039240954e-01,6.588068785379613823e-02,1.482896866842335903e-01,-1.094987627291594406e-01,3.697510957717895508e-01
7.461068121032540246e-01,6.422870266421148999e-01,7.835276728915917532e-01,-6.033215559780515796e-02,1.140148744234162174e-02,1.179931017614742166e-02,1.667076945304870605e-01
7.045612244609303909e-01,6.766026740422922403e-01,7.709450050750887851e-01,-4.152935054551039860e-03,-1.801236500739327936e-03,-8.606350767932139344e-04,8.431001007556915283e-02
7.286832341768666454e-01,6.506159616684504821e-01,7.635001187709882231e-01,-1.163559108177788549e-02,-1.390790821307481655e-02,-7.587633622676574242e-03,1.057541519403457642e-01
6.497080826994052760e-01,7.051201465228090770e-01,7.797266705287391186e-01,-1.827123594777376250e-02,-6.616232153995194737e-04,3.637845793034479025e-03,1.175298318266868591e-01
5.778925062672123358e-01,7.366104392988890304e-01,7.711191624766845498e-01,-5.130452228433664275e-02,2.963665755079629080e-02,1.201659722572079488e-02,2.069396972656250000e-01
6.580195943190416674e-01,7.129158201155867403e-01,7.706337542568529875e-01,-1.949140060691525664e-02,-5.975457266352695966e-03,-1.475526202483198011e-02,1.068338304758071899e-01
6.583695182085442799e-01,5.736333313217019114e-01,7.405385454085945396e-01,-1.131639397712405348e-01,-5.953080191973353363e-02,-7.172618067836958322e-02,2.921961247920989990e-01
7.808757955908074422e-01,5.507469727709053409e-01,7.710008312362156557e-01,3.292760385737480977e-02,-1.007898516059640981e-02,5.136223463188883953e-02,2.495114207267761230e-01
6.774205904246537457e-01,7.201102733378758058e-01,7.891646118937770682e-01,-3.306677103319664163e-02,-1.809358803830102150e-03,-2.317095101945154060e-03,1.133356988430023193e-01
7.540144822488910048e-01,6.631807498271973245e-01,7.070566603171523079e-01,-5.336646165891086036e-03,1.290593118321084476e-02,1.288670427638332477e-02,8.528645336627960205e-02
8.825238472968259806e-01,5.237457094282857994e-01,8.465009848352652577e-01,-4.919612777614856824e-02,7.487452435808989934e-03,6.572314935446725570e-02,3.707866668701171875e-01
7.762679387733613101e-01,7.085925710630407437e-01,6.920422180490695130e-01,-6.743105921282457893e-02,-7.007456064493147729e-02,-1.547398760117368599e-01,3.258517682552337646e-01
7.655982504794069943e-01,5.885643033249312595e-01,7.702411783449711891e-01,-1.324220649716201931e-02,1.359354561905827367e-02,1.596837101732019593e-02,1.844719946384429932e-01
7.603552978252235972e-01,6.084626234363755826e-01,7.256885807256095999e-01,1.961237537925379290e-02,-2.126344175680054682e-02,2.942103213416916510e-02,1.552890092134475708e-01
7.431892396201364992e-01,6.645143168204400430e-01,7.371172280118265530e-01,-1.273754181643429323e-02,1.445326849697722849e-02,1.016695016248629971e-02,8.469016849994659424e-02
7.444760369263146993e-01,7.377520491962865634e-01,6.789777811725745682e-01,-1.912888380015687062e-02,-3.092792682820151573e-02,-3.833792860899432053e-02,1.107771024107933044e-01
7.318867720844973723e-01,7.618451894170999994e-01,6.445094784279115085e-01,1.535683411591432478e-02,-1.293987229658451893e-02,9.128718380261784809e-03,1.122933775186538696e-01
6.503016278210088652e-01,7.796179153313820276e-01,7.123306201253213343e-01,2.389488483502598577e-03,-2.730879923110865817e-02,9.032765293004178103e-03,1.226709112524986267e-01
7.345494594778122499e-01,7.602954962174837128e-01,6.324290449469521791e-01,-1.394060947205658617e-02,-1.936201954532587588e-02,-7.352268509707710412e-03,1.248618662357330322e-01
7.273697195784067926e-01,7.762063452422712784e-01,5.983448538156886931e-01,-7.574882137083280287e-03,-3.218202270292042783e-02,-6.383366149851620389e-03,1.695140004158020020e-01
7.240520664005176688e-01,7.102965373731420229e-01,7.154031397061063613e-01,1.529097290616456559e-03,3.334600639530534063e-03,3.629126777238271019e-04,1.363144069910049438e-02
1.070465826635079942e+00,3.263376436379038514e-01,9.590640262070800892e-01,-1.845859385552210130e-01,4.251474048269468509e-02,-1.226166801928239847e-01,7.974853515625000000e-01
5.298371045085806808e-01,8.058254204221777517e-01,8.012890828090402096e-01,-1.461136789302688345e-02,-7.083887367822842146e-03,-4.353272484400877093e-03,2.752926051616668701e-01
6.972908904819385967e-01,6.863720771625694272e-01,7.613004545499977294e-01,-7.194190928479482147e-03,-6.623668694487909112e-03,-2.791504820985599156e-03,7.228843867778778076e-02
6.523369533787223284e-01,7.028387925801364844e-01,7.667277312249075605e-01,-1.880877938825481488e-02,-1.110511216252564430e-02,-1.125817026554274541e-02,1.080289855599403381e-01
6.909811575287578833e-01,6.481778009336616186e-01,7.835338836793803718e-01,-9.961284535145564778e-02,4.920127648628531795e-04,-3.564293143292215828e-03,2.101587504148483276e-01
7.021628314347019284e-01,6.945486291791339584e-01,7.541745460002773349e-01,-3.094515837565421038e-03,2.054269792954401853e-03,1.707549145889213516e-03,5.665119364857673645e-02
6.009640346401170508e-01,7.923692404380265897e-01,7.426385308961447329e-01,-1.096870491317194357e-02,4.760402977733659002e-02,7.133350926121015054e-03,1.920999735593795776e-01
4.787240416058998749e-01,8.304909589502260658e-01,8.487564597536136901e-01,-3.785911461265194233e-02,-1.725678565128981740e-02,2.435095420731784449e-02,3.707708418369293213e-01
6.828313434685754357e-01,7.167448213685108094e-01,7.766023604697530613e-01,-3.626832941670087712e-02,-6.206882296745212108e-03,3.416423829537095728e-03,1.042103320360183716e-01
7.222191882409724206e-01,7.143100751656276115e-01,7.073950037532972246e-01,-5.098856676458258033e-03,1.992476857509682588e-03,1.644521909355550846e-03,1.621982268989086151e-02
6.501355330731928284e-01,8.601947546785383425e-01,8.340763505495085717e-01,-1.090186121185606899e-01,1.202170192529850162e-01,4.318814208767387391e-02,3.520338833332061768e-01
7.850114156390626263e-01,6.395793689116682224e-01,7.287499271811261892e-01,8.563150854859463007e-04,4.984107432705817131e-04,-1.013619332383263426e-02,1.282372176647186279e-01
7.062097343861760690e-01,7.830193296038724382e-01,6.478428883246433179e-01,-1.848090772913367139e-04,-1.970938511505715071e-02,-8.529547989602615085e-04,1.222996339201927185e-01
8.022174213522361708e-01,6.877308634589078817e-01,6.965632264335789303e-01,7.442181436186254620e-03,-1.019986116902911640e-02,-7.060800613475808063e-02,1.661587655544281006e-01
7.748594230546690387e-01,5.745504888646701946e-01,7.786684688088554296e-01,-2.157504302672281007e-02,-1.837108862629101627e-02,-1.880736573364892930e-02,2.106448560953140259e-01
7.744256473990509537e-01,5.387727989433236386e-01,7.720583683033689359e-01,-5.899138957499096975e-02,-1.673813699658248735e-02,-4.522858325003795144e-02,2.690675258636474609e-01
7.787888342315819612e-01,6.842941748647365374e-01,6.891869334232241240e-01,-5.900830774185298472e-03,-1.272622471039662820e-02,-4.144974002493871656e-02,1.193122491240501404e-01
6.957788674362259673e-01,7.176629100523556071e-01,7.221904533330959497e-01,3.073538149806112185e-03,-3.310847743722939579e-03,8.883155362041286057e-03,2.994072996079921722e-02
7.119959201506231850e-01,7.031614874385369029e-01,7.304607598682755221e-01,2.922881272142384152e-03,-8.292450044940372425e-03,3.726404907737594727e-03,2.925245463848114014e-02
7.210546390787304638e-01,7.073183439739572087e-01,7.070019607526232264e-01,1.403976325585539571e-03,-4.344978373891045069e-03,8.169375430080109534e-04,1.605253666639328003e-02
7.302436943691238413e-01,7.061818575333058678e-01,7.084094954403474809e-01,3.212020701785574424e-03,-4.667001192864111449e-03,9.365679234459103625e-04,2.508503012359142303e-02
7.359846173016915127e-01,7.025581531040699934e-01,6.945709562113919766e-01,9.001564983243181411e-03,-3.466860340306834355e-03,8.713230966258710825e-03,4.421550035476684570e-02
7.271324147122844028e-01,7.183337736441753885e-01,7.024928850024513283e-01,1.021976500234451392e-02,-5.045965931614040598e-03,4.136531187030213080e-03,3.014592640101909637e-02
7.533997916631661740e-01,6.389423882835062463e-01,7.854145951827836702e-01,5.360279377489382546e-02,-6.470868812979868601e-03,2.754733418102535067e-02,1.697402000427246094e-01
7.438841473349510069e-01,6.501807330844130428e-01,7.501977787227961381e-01,1.654570471615983418e-02,-1.815170797535079275e-02,2.053648057594568282e-02,1.117442473769187927e-01
6.976079311726931520e-01,7.427821054368377585e-01,6.948184307696160245e-01,1.329234789102248446e-02,-1.701725487506042939e-02,1.284818260231040260e-02,6.378517299890518188e-02
7.412257544896942996e-01,6.429687598292057604e-01,7.832901158371800010e-01,-1.711397254839442175e-02,-7.067706886875429854e-04,1.202476099643616557e-03,1.282242834568023682e-01
7.177690666010633214e-01,7.431477765012644010e-01,6.710618436861083280e-01,-1.717785404544503250e-02,1.018092103311416148e-02,8.342262304678315157e-03,7.359335571527481079e-02
7.393613889979419040e-01,7.110340273628195096e-01,6.991310074352865556e-01,-4.410135827982013257e-02,3.991083967621688461e-02,6.263792195090576997e-02,1.538351178169250488e-01
6.425818698582632660e-01,7.762746985000774647e-01,7.407434476181397054e-01,-3.575677437671293674e-02,5.165129798346158874e-02,1.397335675046448497e-02,1.637404710054397583e-01
7.727085751227583676e-01,5.178934777249696308e-01,8.026312478489437963e-01,-7.389308644524018865e-02,8.710200905808378798e-04,2.799161180416460080e-03,2.997618913650512695e-01
8.102203315924900728e-01,6.146813847949403886e-01,8.262185342972527824e-01,-2.605443417174828635e-01,1.056982795828416005e-01,3.050521480062337587e-01,7.469649314880371094e-01
7.773125901389454917e-01,5.983662450587530213e-01,7.347195653759258649e-01,-3.608741489411381592e-02,1.632708317036476314e-02,5.020785505846447200e-02,1.961713731288909912e-01
7.101059512823293396e-01,7.215684526567082147e-01,7.074024275756618518e-01,1.682655887307445532e-03,-1.499163694126603389e-03,4.303233178409747103e-03,1.550732180476188660e-02
7.118445995047802954e-01,7.245391243644573320e-01,7.142412368586589233e-01,1.679699691943587272e-03,-1.496532751001952320e-03,1.118111193115818667e-03,1.246612146496772766e-02
7.152879455972477318e-01,7.225237436837795846e-01,7.109692475814283208e-01,3.483933691666724151e-03,7.379053146239952224e-04,1.048486243750359689e-03,1.198340579867362976e-02
7.048628660559044246e-01,7.125154682301116926e-01,7.212699722488400411e-01,1.172908114597759951e-03,-1.911277948261222003e-03,4.673315554924936666e-03,1.681678183376789093e-02
7.499639826677331200e-01,7.090445161819425302e-01,7.256033825396572823e-01,9.753125299352342903e-03,-1.610519405562868545e-02,2.085289017985174354e-02,6.032453849911689758e-02
7.087095019317176670e-01,7.072301684929219734e-01,7.210213967230477694e-01,1.637512056249381493e-03,-1.913791536410064560e-03,4.670911696320459439e-03,1.601464860141277313e-02
7.239353531090499949e-01,7.014873100059679789e-01,7.516297670794530594e-01,2.413678302063154008e-02,-1.599768932532065827e-02,1.737862744222964245e-02,7.289829850196838379e-02
7.041234889570813227e-01,7.326966934784200358e-01,7.063365045433118716e-01,8.936758008674383635e-03,-6.973054355750871701e-03,7.837467525745949251e-03,3.643950447440147400e-02
7.777257565304235287e-01,6.805400562395462760e-01,7.260551784197528669e-01,1.267217258582779317e-02,1.676149103810432514e-02,-3.246458754220506865e-02,1.076090633869171143e-01
7.265789798778796715e-01,8.025615106814369959e-01,4.126912787508312253e-01,1.356595125740311936e-01,2.707738537103454579e-01,-2.158185346459525200e-01,7.369176745414733887e-01
6.906228640273974761e-01,8.141160243777141314e-01,7.680474491724446073e-01,1.347156109970552573e-01,1.639443744467130870e-01,-8.504739124182641996e-02,4.104400873184204102e-01
7.794415239702692233e-01,1.050229348989482059e+00,4.159730536005615820e-01,-1.744483573058650538e-01,3.201808946940984391e-01,1.402511442668292752e-01,8.727619647979736328e-01
7.596822908147639053e-01,7.562303538504728806e-01,6.797351348321341025e-01,2.402139182202971818e-02,2.899956175390032420e-02,-3.355267160501512747e-02,1.172980889678001404e-01
1.069104786314488686e+00,6.963985530005715185e-01,8.488798513294454340e-01,1.681580964549135304e-01,1.105056740719198294e-01,-3.232265447005922554e-01,7.349978685379028320e-01
7.402083502723667552e-01,7.611187923504406649e-01,6.447463239022275250e-01,2.670455675481697710e-02,1.048678721229469660e-02,-2.517352917285070255e-02,1.261619478464126587e-01
6.958392786317172396e-01,6.921639914789279313e-01,7.624151157593019867e-01,2.059067748343896762e-03,-3.311222064484934269e-03,1.284580783083884639e-03,6.885562837123870850e-02
6.876734654216533071e-01,7.125770307980383578e-01,7.428440318898693606e-01,3.534722797189460402e-03,-3.747362290188569096e-03,1.031296097811345257e-02,5.185284465551376343e-02
6.948225028612450282e-01,7.019272590645969645e-01,7.539456473692752736e-01,3.263009226450367881e-03,-1.823217466458678347e-03,1.954845657981360563e-03,5.638569593429565430e-02
7.014801850533448624e-01,6.985933748531754084e-01,7.466574288225426015e-01,1.897846536173205352e-03,-4.579177770696828652e-03,2.161115034100173984e-03,4.761783778667449951e-02
6.947315534038562834e-01,7.407657687628054211e-01,7.161177401525937736e-01,1.882512510463221420e-02,1.677933818415730180e-02,-1.546780946142956026e-02,6.494286656379699707e-02
6.892510309081740782e-01,6.999480039212609972e-01,7.544629325257774521e-01,6.392248469961989144e-03,-3.516079407264887258e-03,7.494207746932086620e-03,6.322664022445678711e-02
7.052605533260474235e-01,6.561359010500673605e-01,7.550838697216852857e-01,1.568576316685267591e-02,-1.131320557993380910e-02,5.111320314336692018e-03,9.243170171976089478e-02
7.822559600095818633e-01,7.343501559576779414e-01,6.339959344689939380e-01,-2.002997610806063998e-03,-7.435316259520939434e-04,-1.069366443637893849e-02,1.324018239974975586e-01
7.924238059413934998e-01,5.875723963065531130e-01,8.468941319433475057e-01,-1.538136109255630601e-01,-1.789434893202904719e-01,-3.210141560167995012e-01,7.295737862586975098e-01
7.573632564739198880e-01,5.514648785868119241e-01,5.170865549053257348e-01,-1.759539766953587547e-01,-1.911088929051190932e-01,-2.885777574519456934e-01,7.091777324676513672e-01
7.726064576412959850e-01,7.648149537009790722e-01,5.607846261984513747e-01,1.868374947760235646e-03,-5.314540804068913424e-03,1.084833551758037154e-02,2.091101408004760742e-01
7.730441186640942819e-01,7.222558574570837608e-01,6.029791061134482932e-01,1.218835319643896305e-02,-5.859618084567206134e-03,3.367365521088598601e-02,1.637518554925918579e-01
7.051128068046682573e-01,6.783896968893350365e-01,8.672208009491811920e-01,-1.683901248660400196e-01,-5.767046243520816858e-03,-5.190162008762389673e-02,3.529475331306457520e-01
7.516439502613354584e-01,7.502372707554043618e-01,4.015647920208830213e-01,-1.007738487846340930e-01,2.067953336461376135e-01,1.864711432181386241e-01,6.205952167510986328e-01
8.787995316719087180e-01,9.774627086528839826e-01,3.375736617130757899e-01,-1.100537765807275276e-01,6.747595833241752661e-02,2.015155616777833392e-01,7.265528440475463867e-01
8.005610218420958768e-01,7.783422846921463911e-01,5.658427072599545582e-01,-4.628269049394675809e-03,-1.467030590343226977e-02,-5.184434425321818307e-02,2.431967109441757202e-01
8.669813696911922163e-01,8.868622621807563666e-01,2.318826426738736513e-01,-6.715500058952487972e-03,9.253947958860087031e-02,-8.059451066138487163e-02,6.794735789299011230e-01
8.197844276998348390e-01,2.457472896380808458e-01,8.688350068703208917e-01,1.725224259536513316e-01,1.811011796421879705e-02,-3.181354875160049417e-02,6.733450889587402344e-01
6.764843537874855040e-01,7.901011561840547426e-01,7.203132109051161303e-01,-1.092368358551120550e-02,-3.716589201677703014e-02,-9.557300356474484823e-03,1.209378764033317566e-01
7.853343521732780719e-01,7.866380893827107368e-01,6.161191085296925385e-01,2.118724944847782585e-04,-7.353787560625124967e-03,3.175389166784234329e-02,1.790067255496978760e-01
7.680377492631278447e-01,7.850420233802545278e-01,6.042144866758357713e-01,-3.604697165348045608e-04,-7.910527565898210767e-03,8.532297687756915106e-03,1.741247326135635376e-01
7.311688893020036328e-01,7.975514857303136473e-01,3.833988837318563214e-01,-1.363008899007668306e-01,-2.708353287034774293e-01,-2.179565939075149283e-01,7.528219223022460938e-01
8.754856666178888469e-01,1.144700718738250300e+00,6.849805750467500287e-01,-1.073588947297638846e-01,-3.224507952686418988e-01,-1.223022124629822155e-01,7.425837516784667969e-01
4.779521779356599165e-01,8.179550487535385273e-01,5.598749589756039091e-01,-9.674404377485609774e-02,-3.251215980691413709e-01,-1.243816668801939612e-01,6.971815228462219238e-01
7.809356935386615461e-01,7.496502372967522865e-01,6.847385919480338812e-01,-4.324958496175856232e-02,-5.904890990982954169e-02,-7.305546670310844592e-02,1.982581615447998047e-01
7.359397810811462159e-01,7.834232509766991814e-01,6.354221451795420972e-01,8.825587698441087923e-04,-1.437742288639986057e-02,3.738457614616446430e-03,1.334008872509002686e-01
7.869548287998633374e-01,7.710280331629738582e-01,5.667149965220767971e-01,-9.470203766892977895e-03,-6.557878435484577710e-03,-2.605505532152277773e-02,2.183717042207717896e-01
9.100286680724380961e-01,9.132036693964725727e-01,3.454213701810888160e-01,-3.432539751595203859e-02,-8.808194500419287698e-03,6.059765350834075970e-02,5.791094899177551270e-01
9.577995051256524839e-01,8.050201742430240781e-01,4.417305692369740688e-01,-1.604562184009664660e-01,1.884986459898561895e-01,1.870837453699948916e-01,7.068654894828796387e-01
8.815947214965181855e-01,6.950726869640158068e-01,4.564664254023730328e-01,7.146482252905678179e-02,-6.814218165931371085e-02,3.041052571136454441e-01,6.655227541923522949e-01
7.661765040754155986e-01,7.374792586299190322e-01,5.177482853560335663e-01,-2.929192618410574739e-02,6.640053368702983350e-02,8.099996653872962304e-02,3.014880418777465820e-01
8.451294079333454556e-01,5.090739375939139499e-01,8.548668982112003212e-01,1.651669051854641815e-02,-2.565131035525938449e-02,4.047376081823759325e-02,3.521465361118316650e-01
7.803950644928626668e-01,7.727524713924742716e-01,4.549175302363334672e-01,9.739109593281846853e-05,3.185219342120419739e-02,4.699764789588536246e-02,3.364172875881195068e-01
8.993016566370924947e-01,7.341813613162067043e-01,6.723138721148654851e-01,-3.350839477606179506e-02,1.953490027447440935e-01,3.366943724780966374e-01,7.065757513046264648e-01
7.868547351210422036e-01,4.301979979156838607e-01,1.233577490578388947e+00,-2.912696929417147307e-01,1.109013741894273805e-02,-2.464736053080049047e-02,8.618569970130920410e-01
7.212348189018475964e-01,8.787112912252632579e-01,3.871159111205245140e-01,9.625329833800531920e-02,-2.009096647727995899e-01,1.653160595077615980e-01,6.480174064636230469e-01
7.550825071013536061e-01,7.005298144972766927e-01,7.016686006568314538e-01,3.412726066351787907e-02,-5.016593290819045675e-02,4.424586491888918977e-02,1.408265978097915649e-01
7.915822435393451428e-01,6.583435703015504403e-01,7.635495281925849254e-01,3.239671218777135514e-02,-2.564849758488764800e-02,4.985384213219131583e-02,1.654742509126663208e-01
6.583629646772070076e-01,7.586173889662817249e-01,7.351362369074514458e-01,1.108138602268725001e-02,7.915051914154359186e-03,-2.013011974201844856e-02,1.001010760664939880e-01
6.557298991164536295e-01,7.540302506821227047e-01,7.082642361209519066e-01,5.043718473338049298e-03,2.189870658071381079e-02,-1.479573067966802845e-02,9.711019694805145264e-02
5.603265911253990650e-01,7.769624971812039149e-01,7.891664834899978498e-01,2.288749081459515167e-02,6.799221000592998131e-03,-7.288630967643996116e-03,2.271419167518615723e-01
7.030735068039054569e-01,7.262253286702661237e-01,7.119497629487230306e-01,5.037087754357499197e-03,5.650242148059033548e-03,-6.311543401728463183e-03,2.647059597074985504e-02
6.778090907707561286e-01,7.608299802179147031e-01,7.210079366209373175e-01,1.729574921111043384e-02,1.172933767373026889e-02,-2.293577822913299771e-02,8.978035300970077515e-02
7.478653155078565096e-01,7.789633217967815160e-01,6.193659446224950571e-01,9.294954875014976511e-03,2.578523592680269372e-02,-1.460262454051568758e-02,1.561050415039062500e-01
3.510200095576844204e-01,8.499561673287935326e-01,8.935789525416720780e-01,-1.141562645575275176e-01,1.045075177425060370e-01,3.481780341782612920e-02,5.900021195411682129e-01
6.909946761236590573e-01,7.750083541709372748e-01,6.851782689625552925e-01,-2.939551571939967058e-03,1.234959930634594791e-02,-2.935774660788734863e-03,8.994500339031219482e-02
7.460450675317038538e-01,7.808727188450690360e-01,6.185730704860532558e-01,5.102773644028343360e-03,2.691036871135546113e-02,-1.097816031676400635e-02,1.565688550472259521e-01
5.808132725440164901e-01,7.634760555556103778e-01,7.105047319186295063e-01,-6.513966949535708595e-02,8.928744379999585534e-02,4.434286191734551630e-02,2.627563476562500000e-01
7.171535209520346621e-01,6.844258514418668504e-01,7.172805563067952139e-01,1.184437959171959036e-02,1.331273857525951468e-02,-7.755151740488482222e-03,4.699208587408065796e-02
8.181218788676893894e-01,6.342922370617372074e-01,7.486810909397937364e-01,2.618466206450194567e-01,-2.199846172588921511e-01,1.487621169118550635e-01,6.656659841537475586e-01
7.297666208826970591e-01,6.401713677298430660e-01,7.718450858130418979e-01,9.817398095551314874e-03,-1.814417290150255411e-03,1.613135807423903044e-03,1.177911907434463501e-01
6.900627808189807588e-01,8.129457589293195285e-01,4.945309721708453510e-01,6.350737140389219049e-02,-2.653037484918844835e-01,1.100133859931567148e-01,5.804541707038879395e-01
7.067084010086319701e-01,6.720337207721039929e-01,8.070813143152786306e-01,8.039977617378650521e-02,-2.607434784221656157e-02,2.670813922170300891e-02,1.957789957523345947e-01
7.047943737953683563e-01,5.719888117803105798e-01,6.787147121869766542e-01,1.761002972656322274e-01,-1.593382485375664237e-01,2.005930916274012432e-01,5.520567893981933594e-01
7.298012741937072168e-01,6.331401209863333213e-01,7.455880849190177351e-01,8.069147564029645336e-02,-5.570897827980688527e-02,6.760674517289287644e-02,2.316773682832717896e-01
7.245014394313900041e-01,5.367717734166556065e-01,7.755523010465670275e-01,1.048204910381036747e-01,-6.208710884748117054e-02,8.906696740434730253e-02,3.402316570281982422e-01
6.757966821084517850e-01,7.109420694459273049e-01,8.617737863026017076e-01,1.898081438597862269e-01,-5.049795486196238109e-02,6.896886544589470036e-02,3.991091251373291016e-01
6.982968228078038075e-01,6.961771911518425116e-01,7.367317178348008477e-01,1.441210057960863253e-02,1.404281999130064205e-02,-1.600416802495346555e-02,5.955107137560844421e-02
7.409883349818510156e-01,7.326896246145155889e-01,6.645795603538517948e-01,-1.615794259173727182e-02,-1.158103084216250724e-02,-7.264979319813890182e-03,8.134502172470092773e-02
7.343173211524038901e-01,7.221060892476892645e-01,6.765447328898535062e-01,-2.644232541034769943e-02,-5.315785665149972555e-02,-4.966048936995338253e-02,1.440647989511489868e-01
7.822926598167959655e-01,5.692788430999387028e-01,8.381435699263073413e-01,6.278911590921877617e-02,1.791012095823553765e-02,-3.556587738494219192e-02,2.774450480937957764e-01
8.747398226445364244e-01,6.641517121627552589e-01,6.378656177956105733e-01,-2.489150182837497893e-01,-2.333913589238926778e-01,-2.337225223369504556e-01,7.508283257484436035e-01
7.831948355497538872e-01,6.952244198277591769e-01,7.030505661167217868e-01,3.711736880049309236e-03,-2.894493432751549917e-04,-5.041735151019687000e-02,1.215684339404106140e-01
7.825180170873001773e-01,7.172577284862270419e-01,6.626679080300686975e-01,-2.893717569902911832e-03,-6.743066069470810865e-03,-2.490829138861613140e-02,1.132444143295288086e-01
8.072540728058593684e-01,7.777823176303485520e-01,5.459237703052117752e-01,-5.895224361309734512e-02,-1.554333664902538548e-01,-9.080182320923520234e-02,4.112175405025482178e-01
7.277635867385034985e-01,8.181298912323926587e-01,6.719340727352356435e-01,-9.766317145450317816e-02,-1.111070432349545306e-01,-1.040723978154164675e-01,3.383340239524841309e-01
8.064894553644359476e-01,8.746694930296129433e-01,5.592136473885428449e-01,-1.879649017584243686e-01,-1.489402962461675306e-01,-3.379123097868442227e-01,7.731425166130065918e-01
7.271014753613870285e-01,7.956772367988282912e-01,6.442169988348802612e-01,-1.976806794135638548e-02,7.266923347438843106e-02,2.346501375837645870e-02,1.895334869623184204e-01
6.784301071357801138e-01,7.774637230244184627e-01,5.380210050548976941e-01,1.741345605264694452e-01,2.480513761854306332e-01,-1.996943865036230614e-01,6.622825264930725098e-01
7.370130823536633624e-01,7.818206987724670709e-01,6.525248686773708062e-01,-1.269193217917384715e-02,1.005477196623389725e-02,7.035384977508635229e-03,1.177571117877960205e-01
6.672787871137486615e-01,7.634312493707331448e-01,7.021565379971741461e-01,-2.268922839485392699e-03,4.365620400651581967e-03,2.855270677805167492e-03,8.488374203443527222e-02
8.943230968828369543e-01,1.006914390174077134e+00,3.650821952275503657e-01,-9.814016412885478990e-02,2.411327127697906747e-01,-3.650055164722698642e-02,7.481222748756408691e-01
7.555505527437870184e-01,8.784077561710863513e-01,3.443863193883669460e-01,6.009328028748105871e-03,2.428147878585567299e-01,-4.229931399133861347e-02,6.457689404487609863e-01
8.117467448425185195e-01,5.630828242244882986e-01,8.044065564404309088e-01,2.433041493994338167e-02,-5.489319897225534636e-03,1.000955495742080793e-02,2.494579404592514038e-01
7.323551666610824684e-01,9.009003471647917261e-01,5.933780594213990955e-01,2.423462010978492120e-01,1.796233172231976594e-01,-2.579369599892153975e-01,7.373799085617065430e-01
4.492310627973304382e-01,9.673742820736521697e-01,5.563203749602727566e-01,8.437945320317484510e-02,4.011632188765166807e-01,-8.119427289453981511e-02,8.650929927825927734e-01
7.433933020399532410e-01,6.870558417979446553e-01,7.131193616883235720e-01,-2.225336020064398561e-03,-1.144651767121679202e-02,-4.954844362784682418e-03,5.353914573788642883e-02
7.629977208123772670e-01,6.921295560023296156e-01,6.943158202831074544e-01,-4.667252245848762561e-03,-6.414620697732777155e-03,-1.425541657399134049e-02,7.530327141284942627e-02
7.759967344574930648e-01,7.251159654641748942e-01,5.903245090916796611e-01,3.357310766114344775e-03,5.290529551647129430e-03,-3.953718015910501205e-02,1.800645142793655396e-01
7.674986359296195326e-01,6.953626907285405112e-01,6.911892605205118834e-01,-7.064169241789121367e-02,-7.479586449999613140e-02,-6.888560185222532273e-02,2.269620150327682495e-01
7.649023473417092545e-01,6.799294672380421511e-01,6.917011106042357804e-01,1.751150369368167274e-03,-2.612130809009005020e-03,1.059128925839757096e-02,8.200541138648986816e-02
7.702376289251435804e-01,6.946380569763920265e-01,6.797144643166285194e-01,-4.110498908864092249e-03,1.365403136879920435e-03,1.027435299119908510e-02,8.625076711177825928e-02
7.658450683125187508e-01,6.934759599176048006e-01,6.901152075462579916e-01,-1.224214041889417444e-03,6.387649278109558838e-04,2.555259038473517604e-03,7.427722215652465820e-02
7.662726684127811883e-01,6.805710508676496850e-01,6.921602017837846788e-01,-5.264586451783524138e-04,1.537022121500621064e-03,1.031793757414115401e-02,8.254189789295196533e-02
7.611452961483174962e-01,6.931932516341166028e-01,6.962478087139086780e-01,-1.382578238441480945e-03,2.912905877911496026e-03,1.921037437656487228e-03,6.679452210664749146e-02
7.844043416513118983e-01,7.445771199151267616e-01,5.939246867740863856e-01,5.483891436040547705e-03,-1.074062700292314175e-02,5.044576359875647259e-02,1.958393752574920654e-01
7.744513138785290574e-01,7.098398463365981348e-01,6.722868016206002828e-01,6.381935383458305945e-03,-1.699653524387815477e-03,7.121832214166161183e-03,9.107274562120437622e-02
7.628622196659868848e-01,6.961516964226867055e-01,6.900880719672101149e-01,-1.316666603501685665e-03,3.013311238035948228e-04,2.867594228875540701e-03,7.015491276979446411e-02
7.652517979219293220e-01,6.026301579327640878e-01,7.822833836605139757e-01,8.740605033631845822e-03,-8.166751768778771417e-03,1.362814619620092080e-02,1.746196895837783813e-01
7.693132188561522256e-01,6.445628013360175101e-01,7.000974771831637300e-01,-4.370973781178335454e-04,5.184587617964292634e-03,1.965420187795530182e-02,1.138370260596275330e-01
7.912655478403348708e-01,7.990356426901397136e-01,7.370430251978858927e-01,9.408710419615358422e-02,-1.043146339608908152e-01,1.120226373776600504e-01,3.166555762290954590e-01
7.515939247426575154e-01,7.238372931986722936e-01,8.038245987168143314e-01,1.186463499588006898e-01,-9.792623802997596494e-02,1.012299805275970604e-01,3.266347646713256836e-01
8.288408914997907884e-01,6.365108154701666354e-01,7.511115663473109105e-01,2.786041257144798895e-03,1.676935987039462807e-03,5.572255650079522421e-02,1.934677064418792725e-01
7.517155070386113414e-01,6.647256109325765383e-01,7.344995106700376031e-01,1.319672099440095080e-02,-1.465928969682925471e-02,7.841720259167149487e-03,8.785008639097213745e-02
7.096656359876896136e-01,6.761576641865642001e-01,7.676286821511350000e-01,-3.252270986949303000e-02,-3.413346721854967122e-03,-9.715966142378585843e-03,9.957939386367797852e-02
6.362777913080833736e-01,7.309133462768589995e-01,7.801087757002080902e-01,-1.155046460732822057e-02,1.749182841813005538e-03,1.032633653719686488e-03,1.282354593276977539e-01
4.645238014637999013e-01,6.555612680375745294e-01,7.742243232867036529e-01,-2.599982687878878984e-01,1.730354174349917618e-01,1.223653481628918793e-01,6.409260630607604980e-01
6.910724066828985990e-01,7.385616688973143384e-01,6.919287251711431219e-01,-1.274219017236918015e-02,-1.722674315045552226e-02,-1.269223770321490155e-02,6.384315341711044312e-02
7.273537670097274255e-01,8.594792549516436786e-01,6.220582358886587171e-01,-2.743530024810924561e-01,-2.093778436659574915e-01,-2.060831826357168439e-01,7.260807752609252930e-01
7.578028570428287924e-01,6.961775609590175051e-01,6.977312331663620970e-01,-4.436587325540616855e-02,-2.680828678177630056e-02,-5.030188136609328037e-02,1.391266584396362305e-01
6.842253754609637362e-01,7.103208225300665646e-01,7.117006824432434708e-01,-1.037782689076405251e-02,-1.050515080678283281e-02,-1.657041724204184191e-02,4.686995968222618103e-02
8.051836858733177893e-01,7.566756407102940285e-01,6.905979415594556414e-01,-2.618730558918989926e-02,-3.666896276842674524e-02,-7.402361038710293661e-02,1.801506131887435913e-01
7.471236689396959507e-01,7.074093927804920856e-01,6.934424241666981015e-01,-7.786278521956668634e-03,-1.099061023140834002e-02,-1.493292900374107966e-02,5.949978157877922058e-02
8.208945252309509666e-01,5.686349742677437868e-01,7.560712393707295087e-01,-4.255626375472526535e-02,-6.278470377981955342e-02,-1.115259411277230855e-01,3.256648778915405273e-01
5.715847174367483241e-01,7.219630387971825991e-01,9.149994457467613973e-01,2.328171778797330227e-01,1.750902748406202858e-01,-1.240802029719847710e-01,6.242389082908630371e-01
7.428771162366104575e-01,7.920901155774024982e-01,5.945519820458664562e-01,1.077726702968737488e-01,1.224721524624837882e-01,-1.075112851407034331e-01,3.824146389961242676e-01
5.441343868685459828e-01,9.556094329004442001e-01,8.483374140294673849e-01,6.894484308630909053e-02,3.077031802743585009e-01,-1.063373191683535945e-01,6.847671270370483398e-01
7.939300132417456135e-01,7.171194881685873934e-01,5.819259439717997529e-01,2.004869240752519058e-02,2.671841669579296669e-02,-8.451977767557061760e-02,2.435973882675170898e-01
8.040528415366446913e-01,5.517599570398274977e-01,7.959259222764469843e-01,1.226293936501548359e-02,-2.032515294127076357e-03,1.911098820846886606e-02,2.514490187168121338e-01
6.449319424475655760e-01,8.262931881697870296e-01,7.658420501134272085e-01,-1.253481805194125217e-03,5.487009612244135581e-02,1.253772106403064151e-04,1.860636770725250244e-01
7.429949005694078679e-01,7.062499975233270666e-01,7.091963895599602274e-01,8.690936978773268831e-03,6.348532291737783717e-03,-6.250931316280455320e-03,4.141660779714584351e-02
7.273912601149482571e-01,7.377230318334845327e-01,7.634276629468764730e-01,1.381776934511462218e-01,1.346765560350508539e-01,-1.240990313435810788e-01,3.986568748950958252e-01
6.707033243860754945e-01,7.309726927220449033e-01,7.186262466669672833e-01,1.205049573165898821e-02,1.271692680511979021e-02,-1.742270489507814768e-02,6.980096548795700073e-02
6.408670889441476781e-01,7.434900970907610818e-01,7.982506325579294959e-01,1.570940835304799610e-01,2.832073988062122627e-02,-3.906061038544099417e-02,3.164947628974914551e-01
4.924316298849454321e-01,9.063552582183033168e-01,9.475356595667450144e-01,8.050742068245020366e-02,1.060546125266102237e-02,1.303608495786460694e-02,4.586564302444458008e-01
6.511449199500494167e-01,7.321592389622221253e-01,7.395519786135773543e-01,1.178171931625156613e-02,1.507869356919433468e-02,-2.377368067157957857e-02,1.000548899173736572e-01
6.991251477234221579e-01,7.212352684597486130e-01,7.312071658358780812e-01,1.855548922196451414e-02,1.447537623416503445e-02,-1.798102255630985163e-02,5.865369364619255066e-02
7.916717807608095736e-01,5.573429815583457181e-01,7.893556586601953029e-01,6.327010479839657690e-03,-7.291895154105130193e-03,6.884194111543832061e-03,2.340820431709289551e-01
7.004339200847750080e-01,7.545879317813544152e-01,6.965495001401318387e-01,-2.069421291088637243e-03,2.789777744245411188e-03,2.300964551161489673e-03,5.665846914052963257e-02
6.684801495559069551e-01,7.731826595704309746e-01,7.063044337358896918e-01,-5.732255775636561392e-03,4.386336119887391388e-02,2.617375084989895240e-03,1.196833550930023193e-01
7.017301940988601716e-01,7.368761243566051000e-01,7.015995716748566480e-01,-1.333687964682256887e-03,-6.020226339392132069e-04,2.135374929992675530e-03,3.549573570489883423e-02
6.913531620841094627e-01,7.545664509358376293e-01,6.948780730432954078e-01,-5.050268682160311863e-03,2.493421230041072568e-03,2.367282072838487478e-03,6.242998316884040833e-02
7.452411711066951883e-01,6.987138249123495681e-01,7.226350238876450005e-01,-9.485471283614081706e-02,7.534199418348176691e-02,1.599247859310168329e-01,3.498190045356750488e-01
7.655420817138336442e-01,7.085123412496613371e-01,6.578493262191345003e-01,1.204813754316428134e-02,3.133946186462506327e-03,-1.394953621668039087e-02,9.877822548151016235e-02
7.345390045381134936e-01,7.176834647713628001e-01,6.817358511674642685e-01,1.327707734890268797e-02,5.150543265283896895e-03,-8.940884670545547544e-03,5.504998937249183655e-02
7.255099899501855631e-01,7.579447667271942413e-01,6.733229080105106457e-01,1.437341079078504301e-02,1.992199502545221115e-02,-4.153848111874946722e-03,8.561769127845764160e-02
7.540732863603135661e-01,7.061709119165193727e-01,6.544890631430653194e-01,1.387712252584044799e-02,6.016695985866608691e-03,-1.485182632627740466e-02,9.375174343585968018e-02
7.556276630010935191e-01,6.682494445159976593e-01,7.203383660855100512e-01,2.654370948289432042e-02,1.024859211796310711e-02,-3.117059163649323061e-02,1.055480688810348511e-01
7.408429171977203298e-01,6.898774936066613961e-01,7.108960375521355957e-01,1.812357162062267369e-03,1.060140731186846874e-02,-3.863424996266425111e-03,4.857814684510231018e-02
5.679173174931044787e-01,9.031286839993237781e-01,8.320433123829468203e-01,3.309252594748860604e-02,-3.407820221712586362e-01,1.143641909610556701e-01,6.960683465003967285e-01
7.806418899057517846e-01,7.528000979055865516e-01,7.334234967837461872e-01,8.744468388010046001e-02,-1.051913319870475400e-01,1.161054842059533049e-01,3.134755492210388184e-01
7.234025090317071083e-01,7.527010094680808283e-01,7.010936574033833635e-01,1.242898190509697173e-02,-2.049209954727220645e-02,1.452143073905221016e-02,6.607220321893692017e-02
7.198955297881404203e-01,8.974946978800431019e-01,6.527947023124467396e-01,1.402411781614811177e-02,-1.745349249858304530e-01,1.030354359295527697e-02,3.745088577270507812e-01
7.655269269721570735e-01,7.807106668707874952e-01,6.618099553442360339e-01,2.982506522649216660e-02,-4.542140087315141989e-02,2.918140890723137926e-02,1.548390984535217285e-01
7.471504412444729404e-01,7.546363286681080362e-01,6.489725601936995325e-01,1.853217841159370688e-02,-2.154291738325131433e-02,1.853118822925746770e-02,1.178249344229698181e-01
7.515553077187987485e-01,7.318748015776829208e-01,6.621820953123866982e-01,1.866158546801012508e-02,-2.020680314616619261e-02,6.722619062865835791e-03,9.498038142919540405e-02
7.054956587436317372e-01,7.672746082737054163e-01,6.558305710181292492e-01,-3.125967008894584617e-03,-1.838716334335895042e-02,-3.055702893039365098e-03,1.020936146378517151e-01
6.829559277149398477e-01,7.746226241174724025e-01,7.254948236590732513e-01,-1.849872046096490835e-02,-3.050227836481256283e-02,-1.037888432865818195e-02,1.022442132234573364e-01
6.644006354741084364e-01,7.570483763668511834e-01,7.124884381622780261e-01,-7.378455050849920538e-02,-7.660941828355000149e-02,-2.691499625967085779e-02,2.062851339578628540e-01
6.015143315171405103e-01,7.784360720227172514e-01,7.607299216530037933e-01,-1.918956002481976564e-02,1.061528326591011477e-02,1.107347075273973531e-02,1.740483939647674561e-01
6.966664804546021106e-01,7.556247204172322762e-01,6.897800477297234556e-01,-6.017606341956889017e-03,-1.195963105493865267e-02,-5.041846466266947796e-03,6.740550696849822998e-02
7.310337970355789139e-01,7.354854069078450296e-01,6.601574245181753842e-01,-1.884069436084673255e-02,-9.016033752625170206e-03,-1.549663698186171459e-02,8.595353364944458008e-02
7.479384355205851431e-01,7.627687028522175394e-01,6.311214926846194784e-01,-1.649717292083933973e-02,-1.515898608631913690e-02,-7.297888829841717682e-03,1.313932836055755615e-01
5.757609940323666908e-01,7.996572465963245335e-01,7.693208012288753617e-01,6.608242907042575012e-03,1.154619231164072217e-02,-7.152900735415033354e-04,2.116367220878601074e-01
5.774846802051135652e-01,7.719861776217680216e-01,7.306348790459958886e-01,3.548408498625775509e-03,5.564549650435626077e-02,-1.083958715083405567e-03,2.020604759454727173e-01
6.509640485003637123e-01,7.812758795297526371e-01,7.367396652937919788e-01,6.496580819805099737e-03,1.033895606713516706e-02,-9.563265486683803981e-03,1.178249493241310120e-01
5.598647753249615944e-01,8.011707393617798489e-01,7.517479582011895589e-01,-1.315712213123812306e-02,7.177272978674319182e-02,1.675884915114086299e-02,2.560489177703857422e-01
4.419983095716087385e-01,9.440617145846295077e-01,7.431682080241461819e-01,-1.812625917833969591e-02,2.627539962678389629e-01,-4.110800557348735264e-03,6.322340965270996094e-01
6.521357089517495487e-01,7.353075554278510895e-01,7.609829923684363617e-01,1.184691665026174102e-02,1.111269306353036487e-02,-1.584739268540598725e-02,1.060999557375907898e-01
6.446737972544130946e-01,7.835338591054696877e-01,7.343654438705077281e-01,2.414568527062148882e-03,5.985043166676793508e-02,-1.763645600241412880e-03,1.601410806179046631e-01
2.055654546883541323e-01,8.617977677430752603e-01,8.649451977687612203e-01,-3.744433197651189649e-02,3.279882810106740654e-02,4.031026923611452997e-03,6.634745597839355469e-01
6.980271010897356465e-01,7.379212253206938188e-01,7.204642630953030924e-01,3.111670497298615456e-03,2.727522362344345086e-03,-1.257315616662812649e-02,4.153883457183837891e-02
8.649684612320077681e-01,1.016531571724780481e+00,1.955430959344394704e-01,1.328729933836252930e-01,2.591313345658797229e-01,-4.429282510058303590e-02,9.126117825508117676e-01
6.005028074311501429e-01,7.856521263893396778e-01,7.875441046922604382e-01,2.236449826043334504e-02,5.025001884122193979e-02,-2.390894366679099242e-02,2.131308615207672119e-01
8.090064120952784599e-01,5.165087640026934102e-01,4.701534278696930524e-01,-1.191662039830366226e-01,-1.350591823033158168e-01,-3.273081947603375674e-01,7.210958003997802734e-01
8.396352215490940907e-01,7.433602587606175094e-01,7.431559051760407986e-01,-9.518944923484050358e-02,-1.110964636108859593e-01,-1.334635271406258428e-01,3.562814891338348389e-01
7.713691892960944374e-01,6.926606018784613461e-01,6.175120668419840086e-01,-7.254523346369074616e-03,-9.397251028374501228e-03,-5.234689842493887163e-02,1.624825596809387207e-01
9.885974739680998269e-01,7.816010886283824011e-01,4.244172293616659819e-01,-1.339337944108937029e-01,-2.336218689187706810e-01,-2.300065499035493233e-01,7.877975106239318848e-01
4.902042478403415560e-01,7.907117423745698703e-01,8.153938421511275347e-01,-4.406222106623003398e-02,6.260068826602427361e-02,1.512668843991621555e-02,3.414652943611145020e-01
6.765435009016259604e-01,7.141500348420343203e-01,7.333617475584897072e-01,1.057644606447961932e-02,-5.973497985031992960e-03,1.439067135141367318e-02,5.974724516272544861e-02
6.792751332245315909e-01,7.057760200843200549e-01,7.453949814348311831e-01,7.204830337481858693e-02,-6.856203796979393195e-02,6.295942349153123285e-02,2.118695229291915894e-01
6.362213986555286249e-01,7.649654512948933505e-01,6.912849825903759626e-01,1.158219810149509589e-03,-2.437281399565833367e-02,1.333035669762475941e-03,1.196218132972717285e-01
7.044783284053612871e-01,7.317550794640449441e-01,7.829393881646199427e-01,6.161812276166073882e-02,-4.935695387713184140e-02,3.282055801110397852e-02,1.633715629577636719e-01
6.784831612383226407e-01,7.719013516340488268e-01,7.033328263203870723e-01,2.756257368827314327e-02,8.496212759583805785e-02,-2.903199431718374302e-02,1.829928904771804810e-01
8.803750194632001813e-01,8.971499653785779405e-01,5.438042291824785046e-01,2.015418022400467316e-02,1.087323200213689695e-01,-9.858669883605439277e-02,4.301767051219940186e-01
6.313207882019815642e-01,7.556616920628816958e-01,6.574048910971235227e-01,6.559894816847809673e-02,1.266907610074639312e-01,-5.654609407000070476e-02,2.890526056289672852e-01
7.158550754533357097e-01,7.098965184930542405e-01,7.137182168425891815e-01,-5.441950513560247366e-03,-6.331667321959653406e-03,-5.081705078554231425e-03,1.771789044141769409e-02
5.988972938887716646e-01,7.644411460821819437e-01,7.499042634736647894e-01,7.596795948332971116e-02,-1.322044825812401792e-01,3.719118293551409993e-02,3.148120343685150146e-01
6.064843782568567487e-01,7.631891391741331132e-01,7.793117760545230643e-01,9.539683438136698987e-03,-1.267172501738950650e-02,1.133228053706542698e-02,1.687685102224349976e-01
7.174737389814430655e-01,6.618621448912137550e-01,7.826647678135044695e-01,3.732813337291078504e-02,-1.702696034169886175e-03,2.153322598302643913e-04,1.231133714318275452e-01
7.501795189427443722e-01,7.079470102301486101e-01,8.260276009518270346e-01,3.397479556689256275e-01,1.607396981849409379e-01,-9.127589589880297227e-02,6.778874397277832031e-01
5.361732534276513196e-01,7.813311115495813475e-01,7.734442756535993002e-01,-6.032515600882022710e-02,6.089771346506447913e-02,1.521613674194160701e-02,2.845498621463775635e-01
5.697479445999482639e-01,7.711173724124279483e-01,7.889261514131128417e-01,2.039976449826200883e-02,-8.282974376417596984e-03,9.990518982820530136e-03,2.149573117494583130e-01
7.537036656960568459e-01,6.786685845134461381e-01,1.052978402674226599e+00,3.810288000779570305e-01,1.565274409694084601e-01,-1.522426904201764630e-01,8.344079256057739258e-01
4.352701886766869865e-01,8.787058272949341831e-01,7.776463922646603688e-01,1.058759509535377591e-01,2.518332868295147797e-01,-5.747926669060525462e-02,6.291546821594238281e-01
5.642746791483916891e-01,8.734355287186233996e-01,7.755768276105987624e-01,1.344987661004547370e-02,1.538594869611527860e-01,7.259828999090341128e-03,3.829121589660644531e-01
7.509750781268850206e-01,4.727123775770708525e-01,6.067799101424642405e-01,-1.528120716440115878e-01,1.431972534700566568e-01,2.646495247022055963e-01,6.322873830795288086e-01
7.271898256054227794e-01,7.155264803505527738e-01,6.991827942253432404e-01,-1.985073749579266411e-02,1.392313680806880026e-02,1.602323912973426315e-02,5.592602863907814026e-02
7.708567832677404308e-01,8.200850730643630682e-01,7.057955987791185715e-01,-2.684231470799308683e-01,1.427714065775014807e-01,2.577769859829291410e-01,6.975027918815612793e-01
9.804451705687962093e-01,6.867678514156447811e-01,6.444266981103525804e-01,-4.018596459627183509e-02,1.902257688032601424e-01,3.063934209341960813e-01,7.039224505424499512e-01
7.703799342017367824e-01,6.578558028901601018e-01,7.425234053209566198e-01,-2.715679643556350581e-02,1.731105799236527451e-02,4.295624530096072563e-02,1.376602500677108765e-01
7.121078472267734494e-01,6.085214998000324504e-01,7.560185138815497252e-01,-3.695793461003887143e-02,2.511510714270976871e-02,2.159574625360076439e-02,1.568308770656585693e-01
6.517706419056028544e-01,8.897500520218815101e-01,7.785143981949398384e-01,-4.589567884351329619e-02,1.390654013724217097e-01,2.704694034298375793e-02,3.302532136440277100e-01
7.093504926748168682e-01,6.901190264594799784e-01,7.570601310899053304e-01,-3.265390962175895168e-02,2.257023721161617591e-02,1.995721172650295056e-02,9.739372134208679199e-02
6.863108467179757088e-01,9.121423680942950529e-01,7.902846910950441783e-01,-5.740717949686310884e-02,1.431019147860354279e-01,4.302627767899671468e-02,3.394184410572052002e-01
4.501957660431845643e-01,8.607768071877419658e-01,5.754969683379984602e-01,-1.059255317017064185e-01,3.072973809120595479e-01,8.101302891624891089e-02,6.851831078529357910e-01
8.064375494414789403e-01,7.938558709494332177e-01,5.540307766818790558e-01,6.487526743842190503e-03,-5.195063880986228828e-04,4.920600274553201155e-03,2.467620074748992920e-01
7.019532422106269376e-01,7.502240583289816467e-01,6.954335847414907512e-01,1.096088792682660754e-02,1.446655230859348988e-02,-1.210755527918525379e-02,6.415085494518280029e-02
7.361492669236491260e-01,7.314107270223676460e-01,6.601046354394699556e-01,1.950923693990735952e-02,1.677108715149070589e-02,-1.116167768341164504e-02,8.834187686443328857e-02
6.513774452508587220e-01,7.878045338919010820e-01,7.487575928056847685e-01,-2.773283325953746978e-02,5.555670649324027238e-02,2.249054588331358961e-02,1.670161634683609009e-01
8.125764870750689095e-01,6.314588546325106133e-01,6.811105056240310818e-01,1.032244669743267312e-02,-4.798940119612008469e-03,-8.308606686140357356e-02,2.176573574542999268e-01
6.316878384741724251e-01,7.992389181266565945e-01,7.586196132146967308e-01,-1.496622284734968125e-02,6.046082225980130287e-02,4.589708218446996238e-03,1.860622912645339966e-01
7.895414551469757125e-01,7.740240191470388886e-01,5.492499872814171624e-01,4.475906419947782260e-03,2.503711482127574887e-03,-3.484629751229856992e-02,2.407774329185485840e-01
8.462654322345740665e-01,3.475403420436938839e-01,7.175441569221208127e-01,1.066805593005426822e-01,5.417502781170813880e-02,-2.269586783769148020e-01,6.313296556472778320e-01
7.724258396533345561e-01,7.686059864616276993e-01,5.500214673090174644e-01,1.890493486337182366e-02,4.325451668811461370e-02,-4.511023972724641229e-02,2.478277534246444702e-01
7.892304689505372783e-01,7.559395269701419950e-01,6.640470733374601586e-01,1.755432197853353318e-02,1.469890849198780304e-02,-3.972407636671121400e-02,1.375439614057540894e-01
7.018033494283028029e-01,6.476450285329753420e-01,7.929388118448451594e-01,-6.259170256662394127e-02,1.253422596237811076e-02,2.777721927405753938e-02,1.752533763647079468e-01
6.322418227883119801e-01,7.473633023585334323e-01,8.010903803729968464e-01,-5.910550346082762280e-02,2.668107685088910372e-02,2.476854474727083893e-02,1.917841434478759766e-01
7.407600719473027562e-01,6.133348867284802441e-01,7.831549054199655746e-01,-2.438822953711248728e-02,1.481754192367309118e-02,5.506334637913064267e-03,1.611541658639907837e-01
6.131762301265039072e-01,7.380960031898524676e-01,7.658562633936729647e-01,-2.045036610078839953e-02,-1.020344674194629056e-02,-1.563202572328806564e-02,1.488067507743835449e-01
7.016263912058601226e-01,6.386660878253253015e-01,7.768985528197238644e-01,-1.984564343718426410e-02,9.752337142868149414e-03,5.313494311389261801e-03,1.261769682168960571e-01
6.762186351364631864e-01,6.423163756864134211e-01,7.603062189229450318e-01,-6.078760181455310219e-02,-2.237305502310498254e-02,-2.379664256094628921e-02,1.592380106449127197e-01
4.988229115276005543e-01,7.872491224508113561e-01,8.548491721014694900e-01,8.658763636334973479e-02,-7.583337648302353184e-02,-2.527531711277175141e-03,3.834326565265655518e-01
6.235413019442602733e-01,8.037009338619934828e-01,7.405802610629598215e-01,4.549357272978515193e-03,-7.066304989684658866e-02,-2.358335194269219667e-03,2.003209739923477173e-01
6.866719306863133809e-01,7.606184492080318993e-01,6.768742236858162897e-01,-1.629401303809990126e-02,-2.692509557618028362e-02,-1.641563216808913928e-02,1.003412902355194092e-01
6.551800848635949137e-01,8.238034847321409337e-01,7.595300299525147292e-01,-2.537321331055124307e-02,-6.253491085253427839e-02,-2.409468656888621649e-02,1.926961988210678101e-01
7.004431457005860784e-01,8.146839887046061213e-01,6.438387292630851633e-01,-2.782933587347350204e-02,-5.887377928228811758e-02,-2.507900304000912697e-02,1.932102888822555542e-01
6.823013588710760136e-01,7.731825684522816156e-01,6.892923156604335855e-01,1.027463550432223226e-02,-2.111410422181251439e-02,1.222556508032207265e-02,9.887079894542694092e-02
6.792421614784269757e-01,7.616977293762210444e-01,7.080470621633839778e-01,-4.796733213014959911e-03,-5.680313420259715251e-03,-9.072939684495722606e-03,7.527481019496917725e-02
7.989097438137382490e-01,5.985467697995198177e-01,7.401786120630987620e-01,-9.673218705040563178e-03,-1.112062406258362141e-02,-1.265105680495544616e-01,2.837139666080474854e-01
6.901220991637871949e-01,7.645303853337933608e-01,6.947702112586049417e-01,1.984022690143114748e-03,-4.108927757378802101e-03,-1.027581263567068845e-04,7.262802869081497192e-02
6.629264286590311750e-01,7.560395831348144524e-01,7.110557980360237007e-01,5.237596214867966914e-03,-1.282691040368682568e-02,1.239301222788428275e-02,8.684276044368743896e-02
6.998109003421756347e-01,7.536118758314965804e-01,6.890723656897962401e-01,6.493637095145735928e-03,-5.344536958457381595e-03,2.931822864948014414e-03,6.185131892561912537e-02
5.254894490795560813e-01,8.718580584872720474e-01,8.777349351507621744e-01,7.007972705816120640e-02,-7.882097668792011069e-02,1.788947697921155350e-02,3.954404592514038086e-01
7.692081069070230148e-01,7.013187993444587320e-01,6.484230838427957888e-01,-6.010847942437747352e-03,3.870220292551799796e-03,1.735044062599051459e-02,1.097925677895545959e-01
7.749934211488969105e-01,7.669632973582631852e-01,6.475949251122277150e-01,-1.059221519583663541e-02,2.394850597950953786e-02,9.953789346634616189e-03,1.327638775110244751e-01
7.277737261677739156e-01,7.766580754568459533e-01,6.098832069336483919e-01,-7.794062472543007367e-03,3.274160852623081430e-02,8.625443118130952935e-03,1.602258831262588501e-01
7.671230134177404736e-01,6.008520884197239287e-01,7.641871067169779819e-01,1.780787052242390617e-02,-1.318065795042746083e-02,1.398829420460265781e-02,1.709562838077545166e-01
7.515971857224307273e-01,6.163701193623856156e-01,7.418437446526864321e-01,-8.015277307405328094e-03,1.683970826374267885e-02,3.352215990018736491e-02,1.465511023998260498e-01
8.794321225503889394e-01,5.610765270335120736e-01,7.253833577066869376e-01,4.799170197499406931e-02,3.104158432612908608e-02,-1.071760015261586929e-01,3.468421101570129395e-01
7.918864452187941438e-01,7.167767502559561077e-01,6.849157476402409905e-01,-2.490034640402765450e-03,2.536805393519876023e-03,3.404737653327809255e-02,1.120947748422622681e-01
9.211721385587797739e-01,9.417950629193879708e-01,4.722487009491527221e-01,2.652691436684949389e-02,-8.515436898399195154e-02,3.406653978483514811e-01,7.637010216712951660e-01
8.798429524541225843e-01,8.367146970753327473e-01,2.991355070160765517e-01,7.661868019396241188e-03,-4.679108902247142848e-03,1.724346405077428757e-01,6.352001428604125977e-01
8.413010491792435319e-01,8.922585833672558309e-01,5.756820659128307760e-01,-2.262550204648361429e-02,1.330847157900025834e-01,8.568309316947259058e-02,4.042035937309265137e-01
7.696393024267904615e-01,7.579881777631252149e-01,5.725046545566584433e-01,-1.385050888237101402e-02,3.699115997823497481e-02,1.257123187214023718e-02,2.045864909887313843e-01
8.782119080926349408e-01,8.824386162167457970e-01,2.188728255269858924e-01,2.905814214298085493e-02,-6.686120299434784517e-03,8.708519812519240066e-02,6.804053783416748047e-01
8.097155920469899515e-01,9.216760504839265344e-01,4.533255177910709421e-01,-1.635035012533660459e-01,-3.044478743915450258e-01,-7.146096630963878760e-02,7.436641454696655273e-01
7.979885937350774672e-01,7.967942358877843079e-01,5.769009262247892789e-01,5.621588651507641518e-03,-2.531130574273511916e-02,2.195320336788497936e-05,2.250198274850845337e-01
6.751402917585049845e-01,7.645805113460015789e-01,6.634330077194264819e-01,-7.480916311781966345e-03,-3.253771516619326926e-02,-8.188273896916771141e-03,1.128222495317459106e-01
6.775939914785360507e-01,7.811360744326519834e-01,6.569448149767390666e-01,-1.135416612128721699e-02,-3.581590560957042396e-02,-1.715876902606635127e-03,1.323983818292617798e-01
7.644448480784550304e-01,7.739295209577838897e-01,6.071821642018672138e-01,-1.263980774213284593e-02,-1.397125519117262647e-02,-1.398449139342563922e-02,1.672264188528060913e-01
8.019502924644483777e-01,7.996804975428598583e-01,4.761551287527144849e-01,-8.899066569163179875e-04,-2.057191915942233745e-02,-5.898580288471511057e-02,3.422252535820007324e-01
7.683747249679592217e-01,7.512732400152534185e-01,4.971767624852405643e-01,-2.433712076797927421e-02,3.969445440212508031e-02,8.808791691324953377e-02,3.146191239356994629e-01
8.847891829202467751e-01,6.225470161572337346e-01,4.223155656035686434e-01,-7.095391983559208582e-02,9.639854166282847692e-02,2.688226694664888616e-01,6.489614844322204590e-01
6.861871512927245620e-01,5.525370970288463468e-01,5.563964707717781177e-01,2.405566931880046277e-01,-2.286157705184344580e-01,3.136613929822255620e-01,8.018166422843933105e-01
9.848985137448436067e-01,9.201089111281293142e-01,5.729070756150578259e-01,1.703540108526111485e-01,-3.022779074068876470e-01,3.537568625341165340e-01,9.401334524154663086e-01
7.440410428324856218e-01,7.168854204513110950e-01,6.664834883389814113e-01,-1.799130186347156282e-02,1.109360313734922103e-02,8.618510606722506670e-03,7.880088686943054199e-02
7.624503063220255950e-01,7.079861711816072267e-01,6.795847230439310271e-01,-7.020065522806902616e-03,3.354771469587345886e-03,3.904397324488896679e-03,7.447942346334457397e-02
7.558137139629038659e-01,6.989861836590826050e-01,6.487571135283120016e-01,-7.983862055601226304e-03,4.266511215545577655e-03,1.674865399740336699e-02,9.845867007970809937e-02
6.990199230584125401e-01,8.238749453692790770e-01,5.964534149667469753e-01,-9.642790068317771968e-02,2.593615438673718687e-01,1.471410628543247945e-01,5.775520205497741699e-01
7.123730757004135272e-01,7.034753748287384534e-01,7.304474789829508152e-01,-5.121585444122315860e-03,7.509760344491698061e-03,3.033867630903107956e-03,2.902013435959815979e-02
7.618838711608694192e-01,6.964150601057037537e-01,6.971300037550682838e-01,-4.830119278729704153e-03,5.614944046887078606e-03,1.350904713980298835e-02,7.036992162466049194e-02
8.126394512923960090e-01,3.209641589220014191e-01,7.672009781778638127e-01,1.506814333156498431e-01,5.944796418628591622e-02,-1.924955173669142539e-01,6.413647532463073730e-01
7.271375485651803139e-01,7.005017144516439975e-01,7.009966970483663129e-01,-3.297443424973827992e-03,5.797202112512233468e-03,5.749987214448236753e-03,3.048208542168140411e-02
7.444888739180722803e-01,6.941388807749067080e-01,7.021874887501899920e-01,-2.569444081778842100e-03,7.610526626035188369e-03,5.222413132542149533e-03,4.969951510429382324e-02
7.649675278739023199e-01,7.026022442490218456e-01,6.997463059452437850e-01,-7.409839651060600059e-03,7.263349050667019732e-03,1.117470862387132981e-02,6.908910721540451050e-02
7.076464048568597009e-01,7.771329534534269223e-01,6.718537672462241428e-01,1.733847577565249048e-03,6.255789605617425447e-03,-4.429748605887107692e-03,9.371174871921539307e-02
6.665311213031989146e-01,7.542580126166622545e-01,6.789955557512070694e-01,-1.479685275654655727e-02,3.687469051094715428e-02,1.593732869243761480e-02,1.107066720724105835e-01
7.257585001950821457e-01,7.819724451839800139e-01,6.610701990360119407e-01,-1.060903893178809405e-02,1.620248449931096374e-02,9.146995066014027356e-03,1.111628860235214233e-01
6.525561358772714593e-01,7.080228891132400726e-01,7.592520675257361518e-01,1.375134860836750919e-02,-5.530302787561810866e-03,9.492976672463413271e-03,9.732372313737869263e-02
6.984183290748805506e-01,7.413708215681058533e-01,6.973649713299778785e-01,-1.204387864486578148e-02,1.719475171905039679e-02,1.299836118136462292e-02,6.099414825439453125e-02
6.970345166983664686e-01,7.577134915266530157e-01,6.745727282953642989e-01,-1.135411694742080417e-02,1.235283867489232572e-02,7.117152315825205251e-03,8.090683072805404663e-02
6.960350670967525577e-01,7.625539347274943314e-01,6.941020722239904517e-01,-2.395791418934428360e-03,1.473862417410873706e-03,1.227412577201927955e-03,6.771508604288101196e-02
6.781786368219675509e-01,7.635204099369848896e-01,7.082975457775528838e-01,-3.616905566055231020e-03,3.809318884234560477e-03,7.988598160878292859e-03,7.677368074655532837e-02
7.123993224140487968e-01,7.506469246715897770e-01,6.748774370033324699e-01,-1.238568052926916629e-02,1.248733670039111308e-02,9.755064037227869148e-03,7.429261505603790283e-02
6.969755730356029799e-01,7.618056119074629873e-01,6.861948950707328354e-01,-5.582059806090305942e-03,7.370701112654378349e-03,2.460415594753860829e-03,7.275087386369705200e-02
6.948195380997076454e-01,7.518388735377004028e-01,7.013066671684021758e-01,-1.768248849870904813e-03,2.647205776873053432e-03,1.728163809930871727e-03,5.443122610449790955e-02
7.015229129111155704e-01,7.445901301872633882e-01,6.990092052324086147e-01,-4.802741734609531320e-03,1.005898352998012193e-03,4.252423873648703153e-04,4.519003629684448242e-02
7.620086888426597094e-01,7.700667535610056236e-01,5.675914967779192022e-01,-1.403536375162464135e-02,1.116498144790165070e-02,2.733956621284880720e-02,2.064870595932006836e-01
5.786313049404353537e-01,7.978028264989985852e-01,6.477359853535513690e-01,-1.152693094147989872e-02,1.311047926154341736e-01,7.076910494113712244e-03,2.996332645416259766e-01
6.314038550709725195e-01,8.957382460015272940e-01,5.712222380111839914e-01,-7.238443763886927285e-02,2.692175155727134506e-01,1.308132160161026014e-01,6.114667654037475586e-01
7.346498208900790194e-01,7.577874710625999155e-01,6.323172906949685590e-01,1.757747634086816169e-02,-2.341004461037396109e-02,7.856403684331495635e-03,1.270086467266082764e-01
7.924326753381744082e-01,7.639072075532347128e-01,5.988016723561899735e-01,5.710952400057253860e-03,-5.142668679314937180e-03,1.321790714144291043e-02,1.829879134893417358e-01
7.338241456982771416e-01,7.565330288524919622e-01,6.173495786404501473e-01,2.198320375694674117e-02,-2.516181745159493457e-02,1.514585863762127338e-02,1.440984159708023071e-01
7.399291889946857381e-01,7.323755223564106798e-01,6.578839627175663285e-01,1.793605380583873990e-02,-1.330726942564340771e-02,7.507393222008981737e-03,8.851087093353271484e-02
7.846561778694245426e-01,7.908375646023633188e-01,5.760766983154967935e-01,-8.564721128112358361e-03,-2.669215465885483099e-02,-8.257021531656824273e-03,2.177037745714187622e-01
7.879258660484266263e-01,7.349312680460589053e-01,6.437689640547840098e-01,1.811713224272258052e-04,1.545042509267824903e-03,1.069113844682133795e-02,1.276724934577941895e-01
7.527070849984879297e-01,7.834125416437884848e-01,6.558567837461515282e-01,1.277915193675863148e-02,-4.344067798116622858e-02,2.601036816044847641e-02,1.465518772602081299e-01
7.568370273635913748e-01,7.124256771991807069e-01,6.629008555258971702e-01,1.177198926426507516e-02,-5.616661682979479618e-03,1.003335193335532990e-02,8.623760193586349487e-02
7.726387873717789345e-01,6.815582079231214951e-01,6.450454746253384553e-01,2.065917249485469537e-02,-2.243068175103316714e-02,5.875470254737559517e-02,1.615568250417709351e-01
1.081746831455995483e+00,3.926274962959330206e-01,7.907544909613689610e-01,-7.917469840065634312e-02,-8.358997485600554167e-02,-1.807858563470733648e-01,7.048771977424621582e-01
6.983369035144394443e-01,6.923805853432705160e-01,7.624812292246913037e-01,-1.266413888398596442e-02,-6.671656961672244208e-03,-5.973456220461476583e-03,7.248280197381973267e-02
7.180785654773914617e-01,7.013683838434563445e-01,7.311604280793793098e-01,-3.466332153746933507e-03,-1.035031244478317250e-02,-2.399956176236905242e-03,3.230600804090499878e-02
5.987338602763665474e-01,9.177554790213690028e-01,5.857644320513015757e-01,5.088556483369949257e-02,4.644838879563035205e-01,-1.702376942597224052e-01,9.208838343620300293e-01
6.822610242081521559e-01,7.907509741264833192e-01,7.148485257689033423e-01,-6.799414012064468500e-03,3.189997439429472642e-02,3.766594984202540925e-03,1.119405254721641541e-01
5.854747219617707499e-01,7.162596092460790098e-01,7.450163875302014960e-01,9.887320153488415864e-02,7.491009435078060941e-02,-5.574027352943548147e-02,2.778053581714630127e-01
6.664479351357217585e-01,8.821040287236419086e-01,5.182876565490138754e-01,7.881282508358507938e-03,2.983053614638342399e-01,-4.254935980255200589e-02,6.107262969017028809e-01
6.816150464942812848e-01,7.601549560638399816e-01,6.916303957395624202e-01,-1.600272487766833673e-03,9.749938387638474799e-03,4.538550488694103983e-03,7.639949023723602295e-02
8.055243171948306413e-01,7.704044729694248250e-01,5.939892857635126200e-01,5.004405144922245176e-03,-2.523763045129222022e-03,-1.451508329321435364e-02,1.981860250234603882e-01
6.893402834282428282e-01,7.424523538271065037e-01,7.119400181413324535e-01,4.731325087535538480e-03,-3.200482556853073354e-03,9.680450120343348300e-03,5.010329559445381165e-02
6.599823729314016063e-01,7.102411215646288190e-01,7.560156407903807496e-01,1.418554987825207565e-02,-5.318524986146248683e-03,1.151821511515376331e-02,8.948952704668045044e-02
6.676231383299675581e-01,7.430357628927953817e-01,7.149802845910978588e-01,-1.037458357716903104e-02,-9.605403438816580500e-03,-1.624149221620277070e-02,7.582534104585647583e-02
7.218163239344778104e-01,7.562906925569478078e-01,7.010909650922149128e-01,-1.434690576988348169e-02,-2.076669695934845600e-02,-1.389423742948550818e-02,6.944734603166580200e-02
6.659477476671853413e-01,7.457756184283458323e-01,7.348997342676835132e-01,-1.153298577666452863e-02,-7.402988646290782279e-03,-1.477811823158710694e-02,8.271151781082153320e-02
6.854982816908283816e-01,7.789301066730101031e-01,7.175529825948481211e-01,1.169441536394425114e-02,-2.686463399436633814e-02,8.722196563353755774e-03,9.780447185039520264e-02
5.967429847441071411e-01,7.800507699070248213e-01,7.268871750004604060e-01,-4.320193057499740162e-03,-3.862650491426476013e-02,-8.521762481672693484e-03,1.772926598787307739e-01
6.363517946982381046e-01,7.857970921967376565e-01,7.322793924684727340e-01,-4.496921543170264920e-03,-1.429653827663256681e-02,-2.433638617456497510e-03,1.337597817182540894e-01
6.721980292060300011e-01,7.737295141763372852e-01,7.069589994227453156e-01,-1.679883469592260113e-03,-8.393899144738210805e-03,3.017848728597965764e-04,9.059661626815795898e-02
6.991872569955994710e-01,7.609927942616619978e-01,6.926714739103504437e-01,-5.768762624674303799e-03,-1.618443564460885983e-02,-5.692218800584983480e-03,7.244265824556350708e-02
8.149948240596619486e-01,8.006520543989310568e-01,6.770923622662188279e-01,-6.803599782491012715e-02,-3.460446761595128429e-01,-1.792003966256132119e-01,6.976465582847595215e-01
7.558567332250103465e-01,7.872278862127322085e-01,6.159727955776944652e-01,-2.077483496361345015e-03,-2.344961208309402287e-02,4.033374325523464247e-03,1.632525324821472168e-01
5.819146806258869153e-01,8.161270035149478241e-01,7.009806806196144935e-01,-3.237945976203172177e-02,-1.106068517480268965e-01,-4.050603372342095193e-02,2.931118011474609375e-01
7.691682052699171379e-01,8.185134487892568034e-01,6.701593526947013935e-01,1.277540077157484910e-01,-1.761214855156128245e-01,1.627692640302480787e-01,4.884919822216033936e-01
2.565790637661581886e-01,8.519687909514702673e-01,7.523840714490950266e-01,-7.040557152453350009e-02,-2.023323105148377432e-01,-2.494858940835923203e-02,6.668339967727661133e-01
6.648006040587028931e-01,7.467844086426170813e-01,7.343650938561683272e-01,8.829752643607542001e-03,-6.877172979569812390e-03,1.580252202871392300e-02,8.356039971113204956e-02
7.331818426092135965e-01,6.775173593924728177e-01,7.167472504784470066e-01,6.246149342398516977e-03,1.634959705755724066e-02,-1.381065993055860704e-02,6.280908733606338501e-02
7.851564666798370729e-01,7.419670018178332604e-01,8.027859009074616026e-01,1.327910275879798929e-01,9.443493653471191074e-02,-1.313167037749012889e-01,3.665024042129516602e-01
6.826889380580076772e-01,7.010885535079792730e-01,7.825753261189339893e-01,7.994325707200999886e-02,8.726968032491812938e-03,-4.529407840393562083e-04,1.669725477695465088e-01
7.324339082490262109e-01,6.826845539193023837e-01,7.068408869393218996e-01,2.659138516827849047e-02,2.497075552507512300e-02,-3.410551805540215642e-02,9.663459658622741699e-02
8.173484492646038158e-01,7.429415564209402856e-01,8.063474491744176964e-01,1.116998226433385671e-01,1.022977627585216626e-01,-1.469019052105742240e-01,3.720274269580841064e-01
5.973733425035397948e-01,7.519187603959617272e-01,9.421880976430462296e-01,-3.622912638823682641e-01,2.167890062798664697e-01,2.292371305540730902e-02,7.910915017127990723e-01
6.672002946004617074e-01,7.104777163259923256e-01,7.566564718084215491e-01,-1.199453078572468127e-02,5.067864144221527999e-03,1.022274076529799437e-02,8.262009173631668091e-02
6.421827932094134050e-01,7.286315933899996100e-01,7.644970247247282469e-01,-1.314741297946098869e-02,1.155047961058466854e-02,1.433089941069057814e-02,1.157375276088714600e-01
5.773233270774731363e-01,6.928283479761194741e-01,7.780502154409482118e-01,-1.022679096373019653e-01,-4.339654730472607830e-02,-3.828281256436271568e-02,2.680865824222564697e-01
5.640820015235543661e-01,7.788556670635148338e-01,8.061894985399389313e-01,-2.654888732648020763e-02,1.873952164294568961e-03,8.592931015225759505e-04,2.342492938041687012e-01
5.221525492294902815e-01,7.935352241547780627e-01,7.173367195350164316e-01,3.115126830639999844e-02,8.910024537417045309e-02,-1.744254118802902528e-02,2.939665019512176514e-01
7.505859883535511701e-01,6.304504453809026687e-01,7.228676242655167616e-01,-2.726710544300959410e-02,-2.534125172851204449e-02,-4.768569097639946408e-02,1.511611491441726685e-01
7.389905264921752259e-01,6.194307110869952115e-01,7.736622342892528481e-01,-2.389036960101659571e-02,1.115358887629157997e-02,1.155478191059258926e-02,1.487548798322677612e-01
6.956567236125567044e-01,6.900745744909153601e-01,7.271178471481636318e-01,1.578559777853793047e-02,-1.662237802280774890e-02,1.853933314661911427e-02,6.167795136570930481e-02
7.302804943590406328e-01,5.972834543481275738e-01,7.809471958108403777e-01,-5.806560245294549449e-02,4.462073308022509836e-03,6.795171463254512899e-03,1.931500583887100220e-01
8.781728143140271614e-01,8.873644035793112339e-01,5.462420174831222885e-01,-1.254833561051395610e-02,1.401626114983159279e-03,1.006285502204327803e-01,3.796973824501037598e-01
1.016391612252137033e+00,6.131527648132280017e-01,5.937873342995747539e-01,-1.886739534521538753e-01,9.154633748596023579e-02,3.054160395544073259e-01,7.632549405097961426e-01
7.544543460009437430e-01,7.039433400568236854e-01,6.738206467453208282e-01,-1.605202380471069251e-02,1.284226203190183199e-02,1.688796129067421034e-02,8.428315073251724243e-02
8.288879109662962152e-01,6.239364206705234617e-01,7.937135338904982573e-01,-2.942373869229383265e-01,3.120910696324675215e-01,2.000698206860405393e-01,8.414549827575683594e-01
6.937535107279486635e-01,7.398308151633040675e-01,6.919946316608669434e-01,1.356555688818768604e-02,-1.487424791360317244e-02,1.352074405746502006e-02,6.301975995302200317e-02
7.465806271177959363e-01,7.131250800869409767e-01,6.911133338164208162e-01,-1.166426030525411460e-02,1.702391830375175885e-03,5.055141952236359183e-03,5.323277413845062256e-02
7.178146909738284398e-01,7.709643182805236972e-01,5.934996788135316059e-01,-3.905439630202155784e-03,3.372715080873245341e-02,2.830362675476596427e-03,1.684302687644958496e-01
8.475219832394298436e-01,1.053809251046147644e+00,3.379295976877476071e-01,-2.938316398946920829e-02,-1.144488650190107620e-01,1.542171093769555135e-01,7.215232253074645996e-01
7.576711872413612880e-01,7.102139303769067213e-01,6.891931731163665198e-01,1.202527069198332070e-02,-1.361312202754601589e-02,3.240874243568789281e-02,8.850086480379104614e-02
7.003499631572027706e-01,7.162495625270121069e-01,7.097419389106004450e-01,3.184903143941576753e-02,-4.437057051649483802e-02,1.999884286175616574e-02,1.016900390386581421e-01
7.050704616157243976e-01,7.019807502816685085e-01,7.480500323045367050e-01,1.267482854780711647e-02,-9.993716471609693716e-03,8.346878652690386396e-03,5.459095537662506104e-02
7.399654613932772351e-01,6.853249541876487161e-01,7.135492333728474801e-01,4.005666153192843568e-03,-1.257689901521177531e-02,4.386904466660350617e-03,5.310755223035812378e-02
6.548267208654717786e-01,7.572505928231338945e-01,7.696864619808100327e-01,1.002547429317013350e-02,-1.375639147649010581e-02,1.898614946412409063e-02,1.177696809172630310e-01
6.659739212953879051e-01,7.398664776957493139e-01,7.683287170779283803e-01,8.278997321011118474e-03,-1.334954573577730799e-02,1.640931634311502962e-02,9.960627555847167969e-02
8.424443569210032789e-01,3.260324138740295363e-01,8.016372719425018945e-01,1.299138528330966436e-01,-4.855731144565847424e-02,1.843940014529386329e-01,6.379521489143371582e-01
7.015119805696676814e-01,6.928790005817780928e-01,7.453248910839523900e-01,5.573711589659437020e-03,-1.079933749563711382e-02,3.803517358182208034e-03,5.346785485744476318e-02
7.159499212195097329e-01,6.628125125283083063e-01,7.548316538195852798e-01,1.296779940097349086e-02,1.290119399380571311e-02,-5.097055595747078914e-03,8.650550246238708496e-02
7.330261985746723274e-01,6.595150563549900813e-01,7.465127558628621429e-01,7.388237129417206742e-03,1.382724213000554973e-02,-9.455057219497457754e-03,8.707880228757858276e-02
6.372980662010674369e-01,7.318919305704617573e-01,7.849273192850050318e-01,-1.151948533142675875e-02,2.482149848019175181e-03,2.683522348209915038e-04,1.311272978782653809e-01
6.554722502923815419e-01,7.451772755981503904e-01,8.018323125179434019e-01,-7.638433125281408886e-02,3.285657138993764576e-02,2.855963863725656179e-02,1.988173723220825195e-01
6.814955216360395474e-01,7.089294250225515182e-01,7.673782438097013214e-01,-5.325708909038230285e-03,2.228493789628284861e-03,4.687781174534873772e-03,7.706021517515182495e-02
5.217318844758478402e-01,9.033202927618650957e-01,9.236491375958941763e-01,-6.284401356011877493e-02,-6.367900416918091319e-03,-4.519558443407434810e-03,4.071992933750152588e-01
6.314292998147443825e-01,6.869101346465376068e-01,7.605177488666614583e-01,-6.099345386522674745e-02,-2.262541390318405579e-02,-2.279740491097947963e-02,1.638154834508895874e-01
5.409127038473812155e-01,5.812179750772179521e-01,7.533236147579031039e-01,-2.949063441353698134e-01,2.221723670986639754e-01,2.024989995526483288e-01,7.551093101501464844e-01
7.041406010987817377e-01,7.312688334572812199e-01,7.119790701799886268e-01,-1.842752773073275986e-03,1.915463795472954062e-03,6.477375665230118880e-03,2.705184184014797211e-02
7.045101475268038538e-01,7.118659074088475869e-01,7.082162864681484926e-01,-9.525035990832228169e-03,9.671878529030529525e-03,9.625807055750291649e-03,2.951887995004653931e-02
6.994275067057782458e-01,7.441828131157097737e-01,7.008044365402937848e-01,-1.507486486548721173e-03,9.358273929802549693e-04,3.672937026240105391e-03,4.464554414153099060e-02
7.081304212420694855e-01,7.310915574614693657e-01,7.092070318193992584e-01,1.582247338280611372e-04,1.064515464201257113e-03,3.952436369672615579e-03,2.353704720735549927e-02
6.676021161959226902e-01,7.583650104794187330e-01,7.211977925014354529e-01,-2.298084275588592462e-02,3.788583267125524012e-02,2.703622228940357961e-02,1.197043806314468384e-01
7.467338843182536046e-01,6.932065125045223652e-01,6.920198724295418824e-01,-1.302554645169512991e-02,1.116034830098513488e-02,1.518613546160624099e-02,6.711643934249877930e-02
7.449615696913557406e-01,6.784334466524551965e-01,7.165139078064909350e-01,-2.471592541590903955e-02,2.649220747223821060e-02,3.141124937668005046e-02,1.011969968676567078e-01
7.992864605733612793e-01,7.064255469412590305e-01,7.525816883659129930e-01,-4.810036809489016962e-02,6.179016859438580395e-02,1.310425566097753458e-01,2.763673365116119385e-01
7.628803890590064585e-01,7.091576470040305002e-01,6.814232456616787781e-01,-7.193389411450309273e-03,1.105234270608008301e-02,3.077321219618235626e-02,9.223864227533340454e-02
7.038093108269040110e-01,7.323194148043249418e-01,7.040031104978544674e-01,8.846198390669402639e-03,-3.352873868690124312e-03,4.528494750644783406e-03,3.372463583946228027e-02
7.618561406110909706e-01,6.994866188850895616e-01,6.844830628768477920e-01,-7.333146365005650293e-03,3.194372942304264575e-03,7.499117985985848979e-03,7.356273382902145386e-02
6.415876486048766036e-01,7.420036565009781038e-01,7.390622927750613025e-01,1.470532917426873622e-02,-1.710956307508824242e-02,1.639652254059191169e-02,1.101369857788085938e-01
7.157331457921003448e-01,6.780143278491892467e-01,7.625014860075445267e-01,3.255924944295153500e-02,8.072733656735244651e-03,-1.130145807827373852e-02,9.556685388088226318e-02
6.943917489550899269e-01,6.849235017929602432e-01,7.528090070355465402e-01,1.094195870767970986e-02,-5.974623920105120653e-03,2.554027325211851319e-03,6.738819926977157593e-02
6.908563259776210330e-01,6.986853424636140231e-01,7.450625784183946276e-01,6.981230046853223285e-03,-3.600323692334005989e-03,8.111976391593242117e-03,5.438512563705444336e-02
7.106601289614257189e-01,7.148688843954179584e-01,7.243887659411119007e-01,1.634283687217530107e-03,-1.910019872174182481e-03,1.094570378163566005e-03,1.307516917586326599e-02
6.979476939561634063e-01,7.001948770612792528e-01,7.520902334717848303e-01,1.257254114935251084e-02,-7.168626798261997293e-03,9.174184614567768362e-03,6.079199910163879395e-02
7.014406487506997800e-01,7.090135888576450940e-01,7.386014505315663392e-01,3.097004872624775380e-03,-2.581727256918580835e-03,1.811636299434421634e-03,3.486365452408790588e-02
7.076470826418209681e-01,7.053109862604478586e-01,7.277550240653749558e-01,1.762087312377445597e-03,-4.484372306856347114e-03,1.195749416060851644e-03,2.303679287433624268e-02
6.968984946649378065e-01,6.934526917024366188e-01,7.507748596852116263e-01,8.122184252194504170e-03,-7.049294357949644103e-03,5.501504013395898049e-03,5.948084220290184021e-02
7.028832041784899287e-01,7.036635554216880140e-01,7.299651726400178120e-01,5.254352267124588402e-03,-8.921132506408769106e-03,5.165574478466578023e-03,3.338476270437240601e-02
7.052211164536758004e-01,7.215022546127557446e-01,7.119125466791231815e-01,1.835335357450588664e-03,-1.621987324070829498e-03,4.461743420116078863e-03,1.669209264218807220e-02
7.040130971973174168e-01,7.013353740515010371e-01,7.476350340308556275e-01,1.020634793496124314e-02,-7.858246983034340716e-03,8.220086337832941889e-03,5.222379788756370544e-02
6.695658552515209028e-01,7.101062259553626577e-01,7.464658589459030047e-01,1.365173667865633711e-02,-1.372045065469022253e-02,1.390106853204014885e-02,7.837830483913421631e-02
6.025663074371474526e-01,7.355352684278489983e-01,7.799970408063694460e-01,3.012271804365566907e-02,-4.165778878432720850e-03,8.936884465725960375e-03,1.690663397312164307e-01
2.203170854184418603e-01,9.523574021565686110e-01,9.496876853173780164e-01,-2.918351073432219611e-02,-6.518840461840860745e-02,-2.967591690569718749e-02,7.428871989250183105e-01
5.897943064716337780e-01,7.366960588512643238e-01,7.548636053084226694e-01,2.505079925660806950e-01,1.889580940850154878e-01,-1.697246486405189214e-01,6.374768018722534180e-01
2.240542721473231524e-01,9.788181730322572660e-01,9.475969058403135303e-01,2.256066667108253265e-01,7.563756398817764182e-02,6.436587896590384439e-02,8.540291190147399902e-01
6.157091326090911032e-01,7.950551102180161145e-01,7.729110775105946241e-01,1.247935972893927242e-02,-1.351743460223739542e-02,4.845176898315379198e-03,1.725389510393142700e-01
6.277275896370005936e-01,5.375159030629306223e-01,8.637591985612697032e-01,2.829389933921330758e-01,-5.206296017441872787e-02,1.327206885991086549e-01,6.215153336524963379e-01
6.108809052321920730e-01,7.749196380523066807e-01,8.503218335516224968e-01,6.560604915261708525e-02,1.279673640988870757e-02,-8.528248431748897476e-03,2.420433908700942993e-01
7.260859829766159734e-01,6.882455470146854326e-01,7.771314716988423354e-01,2.846854219738416056e-02,1.595943171028756102e-02,-1.708085214486329204e-02,1.001991778612136841e-01
6.437130125126363511e-01,6.963471994628472883e-01,8.054740019535138185e-01,6.541804290714685333e-02,-2.105941892322267875e-02,4.889586172370983391e-03,1.861816346645355225e-01
6.945529062971973477e-01,7.176326949949931588e-01,7.712508901503848380e-01,2.154604849883440601e-02,1.754476275118592443e-02,-1.384898289243894666e-02,8.681371062994003296e-02
7.342258945284624305e-01,6.925477521287566329e-01,9.010401358837895058e-01,1.645358277974477423e-01,-3.073767482311151600e-02,6.567578355884012842e-02,3.653861284255981445e-01
7.282016788963360243e-01,7.146849206065695181e-01,7.099637540936752922e-01,6.808176363700954754e-03,-7.289474857621809287e-03,4.755052883887827576e-03,2.520122565329074860e-02
6.705620599690328421e-01,7.571352186669646489e-01,8.874343845908930772e-01,1.544058943011418772e-01,-4.544704857056112296e-02,3.738114791035332396e-02,3.430234491825103760e-01
6.117052815053876103e-01,7.524991790717840967e-01,5.589173852112390151e-01,1.672637443587157158e-01,3.176100228624560429e-01,-2.146758685524433885e-01,7.448884248733520508e-01
7.767864414398403250e-01,7.382430788113036879e-01,6.063106016776081963e-01,1.722855043749080273e-02,1.975023174222369921e-02,-2.240867522036504855e-02,1.659639179706573486e-01
7.967922188877998302e-01,7.888126945214801733e-01,5.926845095076731518e-01,2.149988156390396088e-01,3.731357139041367454e-01,-2.018196432880424995e-01,8.477338552474975586e-01
7.154658396441369028e-01,9.178674879012693744e-01,6.035870473046861528e-01,-6.362761407366725186e-02,4.570667383638193915e-01,6.078835987525734591e-02,8.521084785461425781e-01
7.162522244655623593e-01,7.165139834280876974e-01,7.141463242573518055e-01,-3.358349298497128980e-03,-3.716863587890749908e-03,-2.575021476514532948e-03,1.001137029379606247e-02
6.731938187141635055e-01,7.788092649974125425e-01,6.993581980297565170e-01,6.498514591600410006e-02,1.875208962504849031e-01,-8.330041705682444952e-02,3.847780823707580566e-01
7.031780723495456575e-01,7.362406527646995213e-01,6.642487075342263791e-01,2.801490629038558625e-02,3.639340390899965805e-02,-2.727381667132774620e-02,1.116031482815742493e-01
7.607542982175374835e-01,7.357756481418518124e-01,6.615092421057804373e-01,1.074753586239210468e-02,1.140415222305684456e-02,-1.303477609631985626e-02,9.612967818975448608e-02
1.019060326019547880e+00,6.258127908540774831e-01,5.721962103103785946e-01,1.991830648411619387e-01,5.974166535157201391e-02,-2.887010259277055790e-01,7.472460865974426270e-01
7.865107836847534672e-01,7.355106369613907402e-01,6.451734660276198241e-01,7.338453144260097781e-03,7.761997770330885532e-03,-5.129880231101086041e-03,1.256593763828277588e-01
7.578413883955851249e-01,6.276913296356196881e-01,7.340776158669356510e-01,5.906871305440839458e-03,1.559165217178840393e-02,-6.726863562752022525e-03,1.240186393260955811e-01
7.745413821201380111e-01,7.468042617054226895e-01,6.193902590094916283e-01,-1.439171865014793328e-02,-1.527152351095697330e-02,-2.852014264150093403e-02,1.558813452720642090e-01
7.813203960528006808e-01,7.294951595490072327e-01,6.076839542276680772e-01,8.448425814319624610e-03,3.070369137852338361e-03,-2.893764104978196333e-02,1.630683541297912598e-01
7.656642511547103735e-01,6.783784977399827110e-01,7.497919127038588094e-01,2.371813186540482066e-02,2.008926429238651334e-02,-3.994353617753172020e-02,1.190384328365325928e-01
6.661844909134703174e-01,7.339480313028363678e-01,7.169499997424524373e-01,2.986843789427331627e-02,-3.570565682357666748e-02,2.700003995643342203e-02,1.114317849278450012e-01
8.400720993407734261e-01,8.271493955192589231e-01,6.266529834566858526e-01,-7.438402119515337418e-02,-1.279044667568093319e-01,-1.289043254616782652e-01,3.980996608734130859e-01
7.385552940439075176e-01,7.305233027971735904e-01,6.411953125480592819e-01,-2.017152530488984172e-02,3.065318993597269254e-02,9.815418023943520143e-03,1.144116967916488647e-01
6.763843089407151066e-01,6.814719745873535350e-01,7.437099523238293042e-01,-2.542990805093561790e-02,1.133307865816831662e-02,1.154955247775092501e-02,8.331643790006637573e-02
7.700159504461372428e-01,7.333903092199524076e-01,6.397577154845575098e-01,1.229756863994812058e-02,-4.121147530389696924e-03,1.025537858769755804e-02,1.198249310255050659e-01
7.651714870456109985e-01,6.785958491384483926e-01,7.108215458353083216e-01,-4.263098559297221271e-03,6.898152585671704119e-03,5.843299877400287556e-03,7.774049043655395508e-02
7.105076550179132422e-01,6.986581156939718484e-01,7.140452505551841966e-01,-2.530806325544325552e-02,2.221689114993165640e-02,2.204762888620737799e-02,7.110136002302169800e-02
8.298984618445388595e-01,6.572747363009133759e-01,3.758165665342800832e-01,-6.160653737729276241e-02,1.216759006612939537e-01,2.826127612953777124e-01,6.730639338493347168e-01
7.777675819268928814e-01,7.413285248000728300e-01,5.992903578761036298e-01,-2.846657764026974333e-03,2.364120174648759367e-03,3.094193463145411896e-02,1.720222979784011841e-01
7.557533305924889477e-01,7.970978652266124120e-01,6.573582410929278419e-01,3.305677157020472934e-02,1.157489815702777841e-01,-1.373782769045738261e-01,3.399252295494079590e-01
8.252042448130233465e-01,7.352350415135193717e-01,4.306352015520854004e-01,9.646261216745290190e-02,1.536947738300984134e-01,-2.306633873189405104e-01,6.218345761299133301e-01
7.406176782109940016e-01,7.582289160103281578e-01,6.361541243221229269e-01,1.605593694692534698e-02,2.199839467929089187e-02,-8.530762823625337096e-03,1.245231330394744873e-01
6.748407114480380331e-01,7.663323626875900851e-01,7.081714874099558354e-01,-1.088952204784425113e-03,5.437727146957332426e-03,4.692382480027927280e-03,8.118186146020889282e-02
6.879519787933754404e-01,7.671002783060469898e-01,7.166698779940373631e-01,9.482370181230593414e-03,2.752378133927631948e-02,-1.668886354665328683e-02,9.052167832851409912e-02
6.954568334402692065e-01,7.595711797458086778e-01,6.914547308819182225e-01,4.537797779426810084e-03,2.073404471040977103e-03,-1.201984546823522786e-03,6.680018454790115356e-02
6.933069128238672496e-01,7.679603392817653251e-01,6.905055106919417707e-01,5.369696036703735511e-04,1.891999413923038317e-03,3.100402842564974970e-04,7.617091387510299683e-02
6.884315250402499586e-01,7.634880253089530999e-01,6.928355999591699899e-01,1.389613170398486166e-03,1.867530839039045982e-03,-7.122002168313943836e-04,7.307597249746322632e-02
6.991756693964549241e-01,7.682461037296206552e-01,6.358077620972832911e-01,5.790809366166251894e-03,2.265242872008599653e-02,-9.239599139387703886e-04,1.216783672571182251e-01
6.918358819774425017e-01,7.653180072477335782e-01,6.812190281708424555e-01,4.234288320309457891e-03,1.056318114652784503e-02,-1.238818761618873474e-03,8.176565915346145630e-02
7.142312250324889256e-01,7.446324239458581573e-01,6.747892299439975927e-01,-1.417652463301152799e-02,8.526998478053576802e-03,6.346542542543787829e-03,6.797701120376586914e-02
7.383852995170168132e-01,7.732623334610686516e-01,6.237970122519393978e-01,1.963629076958247482e-02,2.763521257837220357e-02,-1.017429030085159614e-02,1.486667394638061523e-01
7.131564654837628803e-01,7.173420723794419196e-01,7.343486378736701070e-01,6.946977869189200662e-03,9.260665459949902339e-03,-9.128858106406859130e-03,3.209353238344192505e-02
7.355692789357158867e-01,7.262929190095113174e-01,7.221517966300869951e-01,1.565337240420947712e-02,-7.997976995262159536e-03,1.692830414598804969e-02,4.391245543956756592e-02
6.959509553624836364e-01,7.287447998573790553e-01,6.930043312818227053e-01,1.137756388071258298e-02,-1.621353165687304879e-02,1.140421444005779508e-02,5.242042616009712219e-02
7.330983122855196932e-01,6.111809852515259767e-01,7.299450986190798574e-01,3.979872840604582046e-02,-2.523511712947389130e-02,4.209272984719002880e-02,1.626867800951004028e-01
7.106717773682973416e-01,7.153716392117726031e-01,7.193228806219412741e-01,3.180414520191490475e-03,-3.124336530287932616e-03,5.819210012923761027e-03,1.474755816161632538e-02
7.469805916938055956e-01,7.054324006428245308e-01,6.983506268795637295e-01,8.387203623413053144e-03,-8.609377319515261126e-03,1.275675621737081336e-02,5.470139533281326294e-02
7.409296671551982572e-01,6.304167667805845587e-01,7.664527704403294450e-01,4.705059520047542160e-02,-1.660211439823754478e-02,2.017051827495273952e-02,1.561213582754135132e-01
7.227564808903330640e-01,7.076647478483404363e-01,7.164281317136421690e-01,1.945040459370172420e-03,-6.419609454921340781e-03,2.420190313269099912e-03,1.802382618188858032e-02
7.653576018777424883e-01,6.920835040542901995e-01,6.909582226830822682e-01,1.056704640413258555e-03,3.156056503224490255e-03,-3.984530531313745620e-03,7.438867539167404175e-02
7.646527847506958686e-01,6.970896928497296585e-01,7.155388418096536585e-01,2.092512035917570498e-02,-3.293087798568674479e-02,4.590863057575682304e-02,1.206166595220565796e-01
7.785057361017767574e-01,8.874153938678802644e-01,6.411266629701373176e-01,-1.478553573520121345e-01,2.139774554661477424e-01,2.888863524427711660e-01,7.064027786254882812e-01
8.823285183271096788e-01,7.650164413108594408e-01,6.223778965627108084e-01,-3.302326691258421903e-02,6.728995843547869171e-02,1.709383095080431181e-01,3.941525518894195557e-01
7.094056999546346498e-01,5.713710765540584990e-01,6.137253755733846905e-01,-2.296100162585434090e-01,2.135307759299587271e-01,2.681979415068830308e-01,7.250792980194091797e-01
7.348497924692624084e-01,7.258914536804581541e-01,7.039726399555029657e-01,-1.927900176152563816e-02,1.428139427571281130e-02,1.919084233279140170e-02,5.990677699446678162e-02
7.489679366473083189e-01,7.672925997537980436e-01,5.314006375030682072e-01,-9.678459935631776589e-02,2.445431982470263332e-01,1.964129136662409736e-01,6.122893095016479492e-01
9.567003908518409983e-01,8.444457937205689380e-01,6.183039260816463045e-01,-1.857435329048283679e-01,3.178155569682959425e-01,1.538617655218901537e-01,7.527743577957153320e-01
7.813349811283208934e-01,5.616328248762307851e-01,8.001655317872027329e-01,-5.710587279491548263e-02,1.455113717096745592e-02,4.799265478651169176e-02,2.647434175014495850e-01
7.104045463974822949e-01,6.736316909668473851e-01,7.355602304298984873e-01,-3.494656936289373961e-02,2.503857822762890067e-02,2.776564538764706574e-02,1.037664189934730530e-01
7.175176781496924727e-01,6.663235944334575667e-01,7.443898763388244744e-01,-9.125323145549276913e-03,1.809996123665699383e-02,1.169459901373224621e-02,7.975950092077255249e-02
7.080743677024571303e-01,6.776952035057379753e-01,7.612235434373582077e-01,-4.322281938790448023e-03,8.116415154985186231e-03,2.977341395423345211e-03,7.511740922927856445e-02
6.934672737391694985e-01,6.970000693797555602e-01,7.421587686313545484e-01,-1.416639885615611320e-02,1.355100866667434227e-02,1.471604414281758519e-02,6.335583329200744629e-02
6.438189052432691240e-01,7.786984383353654504e-01,7.640153753992880992e-01,-3.747988874843753010e-02,3.649661983569649215e-02,2.534509606654718888e-02,1.629877090454101562e-01
6.961902967602777714e-01,7.018780067437437875e-01,7.653369638640213912e-01,-3.831940366822040450e-02,1.139793207257077876e-02,1.009247365833796338e-02,9.757442027330398560e-02
6.175521101813891134e-01,6.874472733974757999e-01,7.761879610827113751e-01,-6.226862295247765494e-02,-3.036314839480512909e-03,-5.443597794788557556e-03,1.752469390630722046e-01
6.670536756862770478e-01,6.164989126718923851e-01,7.704664028905395812e-01,-7.275503499633498294e-02,-1.490130536139067617e-02,-9.864013520313848898e-03,1.879252791404724121e-01
6.493414064823949117e-01,7.716823779540358252e-01,7.316449357198201442e-01,-6.907191530984007656e-03,8.648404526304304119e-03,1.324909275920415665e-02,1.120991483330726624e-01
6.478081219904389121e-01,7.027615593813629769e-01,7.682263782710797573e-01,-2.076536048441010932e-02,3.368106190821349658e-03,6.383190428629004209e-03,1.111436337232589722e-01
6.115479033989410507e-01,7.473184756747324187e-01,7.785229879685550136e-01,-2.812165110245022637e-02,1.633166817171505074e-03,4.632975382821931387e-03,1.615205854177474976e-01
7.723974165874034625e-01,5.907211069740571086e-01,8.246746776220291730e-01,-8.736614727385798307e-02,5.353513604321661484e-02,1.308579452690731282e-01,3.579171597957611084e-01
7.363469887827355231e-01,5.601946868637834864e-01,8.139018587800165294e-01,-9.493031402691681775e-02,-6.808639407741771780e-04,4.203266497582327545e-03,2.789185345172882080e-01
7.982302596796524430e-01,5.829914830359128608e-01,7.793250665831766844e-01,-1.764584380707575131e-02,2.242287171896432778e-03,1.945530993188656493e-02,2.114255130290985107e-01
1.030855720932863928e+00,3.770684234177376082e-01,9.503682678128360095e-01,-1.792656759589762033e-02,-7.887452651753214250e-02,1.523511269446165828e-01,6.859698295593261719e-01
7.393836735007311978e-01,4.259235480950022690e-01,1.067447457686828249e+00,-2.295220254943953486e-01,-2.957845520234952258e-02,-1.149555189292863905e-01,7.134620547294616699e-01
7.488261380105474263e-01,6.410947901880634792e-01,7.591968453853598087e-01,1.266301559077964191e-02,1.648596712164391784e-02,-7.759856150979876042e-03,1.196156665682792664e-01
7.917520442891832211e-01,4.069710671507950628e-01,7.814420974225918526e-01,2.386480099593460968e-01,8.983787275269013162e-02,-1.684989283414911054e-01,6.514924764633178711e-01
7.861228330882170656e-01,5.760116948938553971e-01,7.757430293999095783e-01,1.949533434912901000e-02,-1.354106170863782731e-02,1.330486459515615484e-02,2.104634493589401245e-01
7.329483183496460219e-01,6.434984505643288610e-01,7.695282667893517115e-01,1.011476829798933774e-02,1.537490378276401906e-02,-8.346313857754602758e-03,1.176287159323692322e-01
7.001642577048543536e-01,6.980454457813273228e-01,7.669944357131313062e-01,9.925245771705306502e-03,9.138078412374893780e-03,-9.094567182061920677e-03,7.352918386459350586e-02
7.927673550894049903e-01,6.031841461156034478e-01,7.392384441320860589e-01,-3.222560870941501565e-02,-9.250283154178357784e-04,-5.769704059697437770e-02,2.043620198965072632e-01
7.886414039436584478e-01,4.600462566448761947e-01,7.692525624088805136e-01,1.135022433777219640e-02,1.418590194719802737e-03,-6.460503185970717377e-02,3.389595448970794678e-01
9.096540232640564216e-01,4.992469819175052170e-01,8.889256235553779639e-01,1.940787526838988475e-02,1.237376454379984086e-02,3.215963038655807182e-02,4.062617123126983643e-01
7.787939138801731609e-01,4.814874352862668072e-01,8.487119168588539431e-01,1.170810671700666383e-01,4.871946765548890168e-02,-1.279742824145857147e-02,4.034882485866546631e-01
6.404679048870174363e-01,7.582696202826492149e-01,7.637194881331125229e-01,-2.083744616626946600e-02,-7.279415768686421824e-03,-1.462862093412514372e-02,1.290445923805236816e-01
7.811982109989160650e-01,5.927308170432671330e-01,7.770885240830277541e-01,-3.583981049217398879e-02,1.707139379662465581e-02,2.977461160810646046e-02,2.053038328886032104e-01
8.929536873945461695e-01,3.543819594070898860e-01,1.038399056022490718e+00,-1.939182422949408402e-01,2.498431597843869204e-03,2.096033867393551908e-01,7.963535189628601074e-01
8.194826057856579027e-01,3.097035085333724180e-01,7.575599918693027846e-01,-2.067517667733473063e-01,8.090933609912474844e-02,2.853468701924986028e-01,7.901193499565124512e-01
8.076381641284782198e-01,5.509513883395424916e-01,8.120707519177854383e-01,-3.014542435669684620e-02,1.142235196825243555e-02,4.138588995775357993e-02,2.744112908840179443e-01
8.202279136098131751e-01,5.948281125449498274e-01,7.722434468092608251e-01,-3.571501158423422140e-02,7.765446892415845716e-03,7.343694473930952038e-02,2.499568760395050049e-01
8.820015461722402472e-01,4.023133796224408476e-01,8.076980796266588492e-01,-1.687699821263728001e-02,1.832123667942816073e-02,2.540119481515604183e-02,4.514160156250000000e-01
8.009612992861900871e-01,5.707674862446614483e-01,7.690410976209854921e-01,-4.677038261960911845e-03,-1.202559519297118421e-02,1.104060633550864139e-02,2.180032432079315186e-01
1.017239841455837679e+00,5.285891092334409347e-01,1.131062195717539076e+00,-2.664453761355083383e-01,7.250058317264806984e-02,1.289300394491450508e-01,7.654879093170166016e-01
8.540667505175816299e-01,5.269828433443739524e-01,7.413569037442876430e-01,-3.165969793090742113e-02,-3.828700375633224164e-03,1.423194541207649100e-01,3.829324841499328613e-01
8.051056234438322967e-01,5.818155242044200648e-01,7.951801041369529477e-01,-2.219393412061621343e-02,-1.346119269915877414e-03,-8.929063630759468198e-03,2.224029004573822021e-01
5.401274435990612854e-01,9.672567829520610783e-01,1.028528780185207880e+00,-2.518312995588492531e-01,1.728749804544525148e-01,9.433753945116439554e-02,7.204011082649230957e-01
7.013088715790586347e-01,7.384825709736503319e-01,7.013277112766229671e-01,2.123492012823993864e-03,-6.657197248322070459e-06,2.211897280858551255e-03,3.754183277487754822e-02
7.091636986291547373e-01,7.394211108640446062e-01,7.029088731366711640e-01,4.984702565123284683e-03,-6.651756551357292933e-06,2.208369050968002345e-03,3.511497378349304199e-02
6.813202779556729594e-01,7.350223048786279634e-01,7.162646012581637134e-01,5.480235897583259422e-03,-9.817889389561865188e-03,1.344223957761515528e-02,5.612295120954513550e-02
7.164259184538591674e-01,7.222600571997175312e-01,7.114554916337758605e-01,4.116649474130373854e-03,1.420168718643518636e-04,1.557446542246258402e-03,1.207966543734073639e-02
7.077432966484350496e-01,7.239022942458342991e-01,7.102043287107652203e-01,1.835092819453658115e-03,1.273386434727871589e-03,1.122119800968389468e-03,1.568906567990779877e-02
7.025128672373825989e-01,7.471302763149720860e-01,7.228639521492876696e-01,1.604328781548625474e-02,-1.974911826441249491e-02,1.545261881686421299e-02,6.446287035942077637e-02
7.274901853246731331e-01,6.626973619610451172e-01,7.323552775517317981e-01,5.681253095135095632e-02,-3.257358165669355793e-02,5.645149205650726310e-02,1.642054170370101929e-01
6.129287664850544548e-01,8.389107205919769106e-01,6.225914935589449417e-01,-6.111426657386142582e-03,-1.461285230801271928e-01,-6.357646365947641764e-03,3.365584015846252441e-01
6.080286978959140720e-01,8.215918311783435568e-01,7.356846220044166440e-01,-2.073750758568197045e-02,1.537897201182145401e-01,-2.824961724157788734e-02,3.305763602256774902e-01
3.362289755230165600e-01,8.648812573169155637e-01,1.094680414164477256e+00,-1.331432396961493569e-01,9.945596660178195048e-02,1.228980264169752049e-02,7.328531146049499512e-01
7.138540352860901494e-01,7.179085532938143110e-01,7.175479460654896613e-01,-2.623754257690121688e-03,3.971725209445236063e-03,3.223929050879722688e-03,1.068944763392210007e-02
6.323752387143100062e-01,7.583099136366582282e-01,7.441848040388131524e-01,-5.946522544571045468e-03,1.585293269564751195e-02,1.472695220447892139e-02,1.256618499755859375e-01
6.784065801940795115e-01,7.498159687001310081e-01,7.333434187622739353e-01,-4.263878731188350778e-03,6.316926436177084520e-03,1.355268320322446443e-02,7.014007121324539185e-02
6.856302337531432478e-01,7.542797022173116650e-01,6.966730232419965363e-01,-3.553086878157428290e-03,1.063582393356196296e-02,7.196324795487353543e-03,6.789115071296691895e-02
7.006915405906734007e-01,7.428877603954167075e-01,7.061440722422880345e-01,-9.427904320431459984e-03,1.431795719486326363e-02,9.761313036589358907e-03,5.241843685507774353e-02
6.843099360496608385e-01,8.773756969652926063e-01,7.189663186596455535e-01,-4.791041370655207965e-02,1.595246560384781243e-01,3.184812801693425593e-02,3.435956537723541260e-01
4.951872776572151524e-01,8.583570222354939272e-01,8.472327946360371786e-01,3.656076872640932202e-02,1.104193521720841370e-01,-1.458019352530743988e-02,4.113406538963317871e-01
7.068003978099554052e-01,7.567339929589884662e-01,6.590884133708395654e-01,-1.104317619792199653e-02,9.453544277075098465e-03,6.670538454184130571e-03,8.899258822202682495e-02
7.345128270499267087e-01,7.438691891812717616e-01,6.635177160287446529e-01,-1.455432674459772487e-02,7.842199603401487848e-03,1.141027156091882142e-02,8.368197083473205566e-02
7.167937225297922321e-01,7.339783224979070653e-01,6.797034521566284182e-01,-1.432407450136784742e-02,1.004977063350670323e-02,6.104313738723536435e-03,5.778147652745246887e-02
6.753447140501417367e-01,7.432404152701623801e-01,6.798363809099189359e-01,-5.318122422374553515e-02,6.189744875172335792e-02,4.568261474668118549e-02,1.748266369104385376e-01
1.107951924373323127e+00,1.136181073712380973e+00,3.769916270231316591e-01,1.418923540550454457e-02,-4.884624119683389498e-02,-2.862196281283529292e-02,7.522989511489868164e-01
7.846314967039517141e-01,7.897511040120442916e-01,5.554202688024563184e-01,-5.495652541765394224e-04,-5.125224263557357635e-03,5.946129986662630805e-04,2.319875806570053101e-01
7.752962639954854573e-01,7.636461615605154574e-01,6.126712380819747672e-01,1.631154135322785206e-02,-1.421743805320770625e-02,1.408294835561838855e-02,1.633634567260742188e-01
7.967170171683153335e-01,8.158137014243302954e-01,5.766695561500414513e-01,-2.666831803838418721e-03,-8.197227558573577655e-03,1.454530926025032062e-02,2.320460379123687744e-01
6.891994955902395192e-01,8.200844884643571087e-01,8.416276190195320916e-01,-9.950471898776391821e-02,1.118840604671066524e-01,7.098149036406416201e-02,3.206048607826232910e-01
6.402663395464350815e-01,7.324047677699740966e-01,7.839713232602187887e-01,-1.238632833026896522e-02,-3.275577726755456599e-03,-1.883684682878309291e-03,1.280740350484848022e-01
7.018056503707554850e-01,1.067384145712064747e+00,3.075746108023431624e-01,5.658857607734719096e-03,3.320826769540424772e-01,1.022798133704967971e-01,8.919105529785156250e-01
7.290556038819692164e-01,7.635257029860716971e-01,6.239260567617894715e-01,1.272960589421817668e-02,8.913379608111563629e-03,-2.921263835375628032e-02,1.383793503046035767e-01
7.252089759314251927e-01,7.160906041056207538e-01,7.110493118558566250e-01,-1.234803908573966005e-02,9.212416499181766416e-03,1.038002151512104447e-02,3.449333831667900085e-02
6.454533883104387471e-01,6.754822817343791863e-01,6.443012280520349355e-01,-1.761016945938687628e-01,2.096824810134154393e-01,1.805793354545560392e-01,5.689464211463928223e-01
4.830018174903749628e-01,7.898331028776625073e-01,7.593011674134056976e-01,-2.053806976149609997e-01,2.062700137136110057e-01,9.336339458439688044e-02,6.050167679786682129e-01
8.508364607643388311e-01,5.600345824718727661e-01,8.150660712060425750e-01,-5.787238726966909518e-03,1.370189712111790151e-02,4.898753317561177489e-02,2.886281311511993408e-01
7.465808996059383196e-01,6.747787143313128677e-01,7.470786182696741440e-01,-2.916816731726434853e-02,2.196530970990983461e-02,3.025608961853343271e-02,1.092593371868133545e-01
7.943827464237954716e-01,7.167678466829316974e-01,6.861112091980224870e-01,-1.172992987449136652e-03,8.800732291081827174e-04,3.398257958644600868e-02,1.131998747587203979e-01
7.652727097929487021e-01,6.065155715533936398e-01,7.756157719581073806e-01,-9.925483153232987632e-03,1.136487169589883196e-02,1.083386158446230166e-02,1.672961115837097168e-01
7.736184547768832909e-01,6.539278773309337156e-01,7.015398354585458129e-01,-1.240196136643806520e-02,1.864333145520144161e-02,3.659206686771800110e-02,1.281214803457260132e-01
7.672697857981637393e-01,6.810936571094812209e-01,7.195010036382226692e-01,-9.916247555010009734e-03,7.693885119958620428e-03,3.223599728991499713e-02,9.582126885652542114e-02
7.942515966408210115e-01,6.257352039649092257e-01,7.502996246761356458e-01,-1.310894122506210159e-02,5.243037229645712907e-03,3.065631879568781262e-02,1.622971147298812866e-01
6.659014697548175654e-01,7.086250846441239926e-01,7.356879696892104636e-01,-1.060916565130728788e-02,1.289842995607919270e-02,1.184977669556789605e-02,7.051208615303039551e-02
7.232038479441856849e-01,7.230329059600282271e-01,6.920424097796512575e-01,-1.082006165173231282e-02,3.746541486292013969e-03,3.363693162190777367e-03,3.732307255268096924e-02
8.596081305492534463e-01,8.318873811177710520e-01,6.832345822533372193e-01,7.454841844083787139e-02,1.153589273324603925e-01,-1.308347664825893208e-01,3.673357069492340088e-01
7.698746475116120536e-01,6.550759675410067207e-01,7.057490477758023850e-01,7.435609620930659462e-03,1.171362762172879074e-02,-1.594140505435654234e-02,1.061563566327095032e-01
7.442104700985907595e-01,6.892072974695327980e-01,6.802928384441798704e-01,-4.604895283015510155e-02,-4.935784117020637629e-02,-7.227179516657952774e-02,1.814797073602676392e-01
6.108623541416730029e-01,7.441310685732710484e-01,6.995720268835654565e-01,8.210342292416786258e-02,1.147538119567532294e-01,-5.684008433076086220e-02,2.884932458400726318e-01
7.522188231174803397e-01,7.039504467252027942e-01,6.815167253861211805e-01,7.072883324125202667e-03,3.384812151442783291e-03,-6.192494635033378957e-03,6.492639333009719849e-02
7.156047859701435421e-01,7.135216040754711608e-01,7.090731418542016717e-01,5.432181582442394997e-03,2.896491579389074214e-03,-2.628227916902362536e-03,1.295426394790410995e-02
6.040190861685383883e-01,7.334154839433139061e-01,7.777495859904630660e-01,-3.385439422472809323e-02,1.728018801311963617e-03,-2.034284739470688160e-03,1.670489311218261719e-01
7.301545992730177348e-01,6.619348440520539389e-01,7.310031258366616047e-01,-1.356822214937964191e-02,-1.774781441226482709e-02,-8.958549832790695458e-03,8.031533658504486084e-02
7.605014371683980201e-01,6.465067957756014394e-01,7.505000887033543844e-01,-6.410503100619500266e-03,-1.081904434014797564e-02,-2.191925075895644406e-02,1.177731081843376160e-01
7.626813113627721741e-01,6.849622694156524139e-01,6.954971239647400605e-01,-2.674212885896520668e-03,-8.326471371367558452e-03,-1.166580953762456734e-02,7.726701349020004272e-02
7.774016599291850849e-01,4.960339091293852753e-01,7.825222889774415824e-01,5.115102703807278967e-02,1.477239388460836918e-02,-3.655093547563968703e-02,3.051994144916534424e-01
7.065543199204107339e-01,6.501998324153905884e-01,7.716211617336471429e-01,-1.620500641280818444e-02,-5.245219367552194159e-03,5.482043584996793223e-04,1.093049645423889160e-01
8.446777155028408757e-01,5.575220913442887616e-01,7.743707594801927385e-01,-1.942453572697591668e-02,-4.785408397568934047e-02,-1.291035729354153838e-01,3.538609445095062256e-01
7.046349090573618135e-01,6.816034326384136088e-01,7.426816493096572991e-01,-3.127108428756612130e-02,-2.007795296372302460e-02,-2.742184352570267367e-02,9.619336575269699097e-02
7.504573904608061730e-01,6.527696856800224712e-01,7.509776198963497018e-01,-1.634217465103788430e-02,-1.113271760316113246e-02,-1.833413329274269712e-02,1.085145696997642517e-01
6.813723743646507014e-01,7.514130777093797064e-01,7.451840703654138975e-01,-2.225631650330684927e-02,-2.843641326154711796e-02,-1.963253535398412630e-02,9.785931557416915894e-02
7.792460550372981576e-01,6.920578217390118692e-01,5.881332908904919332e-01,-4.147436259442698059e-02,-7.218003850686419143e-02,-1.318617365038102507e-01,3.168846666812896729e-01
7.358488725941663144e-01,7.842920617815312134e-01,5.904041143175183803e-01,2.405238621582992883e-02,-3.637517031152386060e-02,1.466778160650722591e-02,1.920863687992095947e-01
8.003405909672349772e-01,7.659534438844367576e-01,6.044449944308248890e-01,-5.227576362894758568e-04,2.260603327434980089e-03,1.178978247848748440e-02,1.823579370975494385e-01
7.637587421129510279e-01,7.761004432077721615e-01,6.079653797240237578e-01,1.325971480987563067e-02,-1.178392719494232056e-02,1.770611516504797672e-02,1.680214405059814453e-01
8.486984260806232916e-01,8.797556903976759823e-01,6.040303031879438178e-01,-2.384288588420854435e-02,-1.045700781062829793e-01,-4.353196159825954703e-02,3.295770287513732910e-01
8.864467856227717935e-01,4.127240480223510755e-01,8.178707806903139366e-01,-9.027233651774465087e-03,-3.950601152051309850e-02,3.039513485229261049e-03,4.489813446998596191e-01
8.017780448893467860e-01,5.474433152187231366e-01,8.256814489307040539e-01,-6.062832892518994245e-03,-7.471555970240770055e-03,-2.634859708097605970e-03,2.676482200622558594e-01
5.677829601537003334e-01,7.958523704070121774e-01,7.834882488483331242e-01,5.513514002400276767e-03,-1.840189733426910584e-02,-6.359623608549311649e-03,2.248934656381607056e-01
7.087077878136660569e-01,7.418471521788219114e-01,6.839733303867541192e-01,-2.047770407698122630e-02,-3.228064855056658744e-02,-2.493883313332186102e-02,9.369984269142150879e-02
6.133814073762506869e-01,7.916549956886385075e-01,7.421109820993306849e-01,-2.529967870027872295e-02,-5.124440771129118444e-02,-8.960835914427622492e-03,1.882625073194503784e-01
5.887369051373908535e-01,8.063678349295430037e-01,7.869152910200640783e-01,-1.321921517627198429e-02,-1.471809963240467735e-02,-3.976238952726637160e-03,2.114939540624618530e-01
6.074178488870173309e-01,7.938529716716135054e-01,7.678242256526316423e-01,-9.931296405363040924e-03,-8.162268936274750739e-03,-8.702314741335943210e-03,1.769345253705978394e-01
7.107601628846841324e-01,9.506665612357735329e-01,6.134549419938104542e-01,8.009341144912888663e-03,-3.186924741040579323e-01,-1.454131677262089917e-01,6.772662997245788574e-01
6.742941589294554339e-01,7.185647673648281053e-01,7.356373672171467870e-01,-1.110989704665443951e-02,-5.552711528126359590e-03,-1.780761946715070029e-02,6.649282574653625488e-02
6.650975090705343318e-01,7.082746003026197945e-01,7.486698755312384268e-01,-1.205211511547347042e-01,9.480314095316451362e-02,1.099997360401397950e-01,3.347819745540618896e-01
7.552550147412431247e-01,6.484834801176593277e-01,8.042751653016718683e-01,-5.746394574614110268e-02,2.008280604355242027e-02,1.527423568079748495e-02,1.756509989500045776e-01
6.959575647492403094e-01,6.970421633407538620e-01,7.318845594636158580e-01,-1.638867418085335897e-02,1.345541121516311174e-02,1.600872174944707044e-02,5.805778875946998596e-02
9.047227751737189072e-01,1.064681147395996286e+00,2.992183724092550845e-01,1.293033136149603635e-01,1.354516694091835449e-01,-2.159565149818309937e-01,8.568482398986816406e-01
1.040376374769194756e+00,9.147364301342509885e-01,3.404656258588436013e-01,7.666100019014530920e-02,2.389864909763583789e-01,-1.212016045030637756e-01,8.067016601562500000e-01
7.055212763177911572e-01,9.228938023834426518e-01,7.739662676514242889e-01,7.003972680098306813e-02,1.862421467562151989e-01,-1.904317766332132636e-02,3.961319327354431152e-01
8.129067577466286831e-01,8.252517226622793078e-01,5.592337991505336170e-01,-1.094525044919951277e-03,1.943554006868235956e-02,9.337412926416278555e-03,2.627400457859039307e-01
7.028023707280584009e-01,7.812194873028047715e-01,6.524579260648454282e-01,6.565559655454191249e-03,1.638506458240645766e-02,-7.639221452922514456e-03,1.172240450978279114e-01
8.433184351038958138e-01,8.831633094233345416e-01,5.518944798125369200e-01,1.908784076405278807e-01,1.623651145082528058e-01,-2.986750405330815816e-01,7.444048523902893066e-01
5.968317622113402665e-01,7.643664507823466625e-01,7.886378463543513018e-01,5.696300018535477988e-02,-4.156242365639154640e-02,1.410634101222601328e-02,2.196289896965026855e-01
6.888533267661770543e-01,8.405635939023803349e-01,5.834345343647726612e-01,2.420287228919966796e-02,1.651939835666057788e-01,-9.301580351584357031e-02,3.996280133724212646e-01
6.675047424880941049e-01,7.312176091937573341e-01,7.427426669975306650e-01,6.326796133757200610e-03,8.949316734199040668e-03,-1.743059083896265210e-02,7.872917503118515015e-02
6.473960413620351018e-01,7.821742199447819788e-01,8.349940837656537607e-01,1.201593241593045258e-01,8.161017268691676818e-02,-7.002092160251927044e-02,3.256966471672058105e-01
6.769508803277888287e-01,7.107259838104985628e-01,7.764333612618730118e-01,7.250080415772521339e-03,3.509009102856534053e-03,-5.284180324066470140e-03,8.919578790664672852e-02
4.629250943675384256e-01,7.822480815410297605e-01,8.130037611726750324e-01,1.943246002390373040e-01,-1.422518144279968644e-01,9.658612474800377934e-02,5.609934329986572266e-01
6.000150350054359594e-01,7.659499592008965907e-01,8.006311855438130731e-01,1.294564098389023622e-02,8.219272407635671435e-04,4.056966116561873392e-03,1.872062683105468750e-01
6.126232256960073563e-01,7.367637759594055646e-01,7.811999697484459659e-01,2.769345640980433454e-02,-3.722220896460079823e-03,5.783760510341327994e-03,1.591995209455490112e-01
6.459324918592485032e-01,6.884838321943371753e-01,7.562270942242106386e-01,5.501483568407398994e-02,-2.581880684555010533e-02,2.620004246689017560e-02,1.497377306222915649e-01
7.554393174859831417e-01,7.092718916161532272e-01,6.630198185947485667e-01,-1.235718740985334435e-02,5.750297390431527954e-03,1.287450912015891853e-02,8.637465536594390869e-02
7.376187647702058259e-01,7.525876705901743957e-01,6.434771631373629175e-01,-2.580695293850683580e-02,2.196402199555503101e-02,1.637292802191981853e-02,1.214305385947227478e-01
7.644633646343419464e-01,7.459790506368785268e-01,6.265099670019717015e-01,-1.367473371080020830e-02,6.514501322655609494e-03,1.902787139056368731e-02,1.363720148801803589e-01
7.399440357265644197e-01,6.930103395950613088e-01,6.917627081401755973e-01,-1.326648809972979896e-02,1.238696906151767405e-02,1.622601712085285780e-02,6.356921792030334473e-02
7.231735716394810387e-01,6.950105541980785562e-01,7.187284937011595431e-01,-1.114348906696312376e-02,1.664846264199521322e-02,2.006537230063603489e-02,5.567432940006256104e-02
7.675558057358335962e-01,7.318690404163951113e-01,6.463679747406320120e-01,-1.072417799629012992e-02,8.583315071368268281e-03,9.638128822365855247e-03,1.117137372493743896e-01
7.605764514109768504e-01,6.134299918702963428e-01,7.352834487603403524e-01,-1.640127718403913692e-02,1.812047432726120177e-02,2.395938181271217368e-02,1.486077308654785156e-01
9.162848267164177551e-01,7.411339451762227748e-01,4.853957107750895839e-01,-1.328370140929075738e-01,3.588627255104422931e-01,2.883726593824100792e-01,9.108421206474304199e-01
7.918581622582957502e-01,7.389418319933063195e-01,6.197893588054318448e-01,-9.236464486198871227e-02,1.099290944913243750e-01,1.346946597070249885e-01,3.736006021499633789e-01
8.923113578206849361e-01,9.486340825225388906e-01,4.254959022360607079e-01,-3.834409748271413315e-02,3.750475579422189124e-03,2.622661740319064960e-01,6.768935322761535645e-01
7.611784368954888080e-01,6.911320291934327509e-01,6.401975260277270596e-01,-2.117040159587575687e-02,2.018366910762598582e-02,5.327244776766924816e-02,1.488259434700012207e-01
7.712937828670796137e-01,7.496301439109094300e-01,6.447129357398697636e-01,-1.400135082512846303e-02,2.163655309975425628e-02,4.235965846226640019e-02,1.453457176685333252e-01
8.724232133745088991e-01,1.337276173902274268e-01,8.677394594100226177e-01,2.229589852840547365e-02,-2.919012757780382189e-04,5.739590788710248470e-02,7.440481781959533691e-01
7.854631482057901071e-01,8.002411797090857037e-01,5.818882192778273010e-01,2.761760124906395206e-02,6.908351130980718013e-02,-4.571352160886733157e-02,2.598933279514312744e-01
7.321784361587467815e-01,7.435629836317920738e-01,6.610255399625113437e-01,1.579920904024155470e-02,8.016992266126593547e-03,-1.517478818323066310e-02,8.737774193286895752e-02
6.230927734740189239e-01,7.688949371343360983e-01,7.622165447999837973e-01,7.443628735709703625e-02,1.199275014660417249e-01,-3.863830277939436786e-02,2.908229827880859375e-01
7.712627760654559017e-01,7.771892598422388554e-01,5.654282960335859087e-01,2.114762760581324202e-02,2.954307987248911901e-02,-1.962407998995777114e-02,2.207672744989395142e-01
7.945524354504827080e-01,6.776037346524182992e-01,7.222087701933063153e-01,9.606557564241540587e-03,1.266497800481031222e-02,-3.579856770216160305e-02,1.226897761225700378e-01
6.707162116951569386e-01,7.288656687814245583e-01,7.547466443571825279e-01,-1.364913481040131715e-01,7.964147270006112500e-02,3.956090666686212787e-02,2.918378114700317383e-01
6.108727624669768597e-01,7.695842484207380263e-01,7.868265495157538147e-01,-1.063146746902454698e-02,1.485056157455157295e-02,1.120843561639841071e-02,1.720487475395202637e-01
5.774211576494868714e-01,8.529165662854446550e-01,8.900739751057589189e-01,-1.383773018559321943e-01,3.795107456254134815e-02,1.418182513571074679e-02,3.871487379074096680e-01
5.807968727106996853e-01,7.376715139645819708e-01,7.816999403923516887e-01,-5.206495093346573400e-02,1.958386436659973612e-02,7.787294511371616219e-03,2.071711570024490356e-01
6.289806953656662536e-01,7.348932301665471734e-01,7.588231422291746853e-01,-2.406822457107316363e-02,7.348385107875992674e-03,1.597268078135578168e-02,1.303449124097824097e-01
6.367264179513271172e-01,7.604208991801517659e-01,7.421338708166833609e-01,-7.800132636344840956e-03,1.558977470018054964e-02,1.679278166883616322e-02,1.230055987834930420e-01
5.910533133652002835e-01,7.601938641594701007e-01,7.480541724019804661e-01,-5.265931352727838688e-02,8.100598333246590566e-02,4.538308576477691203e-02,2.467516511678695679e-01
6.542068280314182749e-01,8.236581637859761162e-01,8.305809237326755579e-01,-9.533835080207554713e-02,1.009484482445976161e-01,7.197886175561300781e-02,3.214305341243743896e-01
6.538670153810209884e-01,7.417519850040897866e-01,7.462138652768883773e-01,-3.405278115231521324e-02,3.653316980081589005e-02,1.621136870144800068e-02,1.280899196863174438e-01
7.483091288711964939e-01,6.295489886487871667e-01,7.609584969477355409e-01,2.181476868154648766e-02,-1.499506339239112078e-02,5.572802332156356203e-03,1.340208798646926880e-01
7.787952904684259936e-01,5.823940548929755767e-01,7.681461064212765644e-01,1.654448212346118843e-02,-8.061932967106475584e-03,5.935782619855860774e-03,1.942091137170791626e-01
7.879110362896867281e-01,6.089465259861012170e-01,8.898866179550447564e-01,1.570405579742241153e-01,-2.269178256238908037e-02,4.924132640403283689e-02,3.787893950939178467e-01
7.110839997449047711e-01,6.619468631892231336e-01,7.446076685723138633e-01,1.341586377162007869e-02,-1.727002643816012012e-02,1.398820426429755494e-02,8.489569276571273804e-02
7.221785237821523040e-01,7.768345656720065939e-01,6.864177029906441962e-01,1.589319225567119298e-02,-2.924684002796368656e-02,1.766012029305779815e-02,1.023729294538497925e-01
6.723547363629204243e-01,7.131953347916732966e-01,7.403265920050787763e-01,8.276377858420962477e-03,-7.205934501609007579e-03,1.383367531141823162e-02,6.668958067893981934e-02
7.549539017799380414e-01,6.214096464011078513e-01,7.791725194182677061e-01,6.273447552460738319e-02,-9.582042464322839542e-03,9.030372850602340351e-03,1.843415349721908569e-01
7.349665541271690472e-01,6.605976155297669239e-01,7.483170517235542274e-01,9.850840180543211921e-03,-1.680517399552100902e-02,1.411234071851143537e-02,9.185679256916046143e-02
7.183625901692977100e-01,8.141557688573917151e-01,8.168480616487850954e-01,1.129452965727201497e-01,-1.079484540980489016e-01,8.819284496515975014e-02,3.255824744701385498e-01
6.094361854760325103e-01,7.516593537272044934e-01,7.593734672648106976e-01,-2.606739356546675102e-02,-2.006847985388238859e-02,-1.991929775821492041e-02,1.606896221637725830e-01
7.657787355180347699e-01,7.398384418695361786e-01,6.349868957849824636e-01,-1.428900721082178651e-02,7.972091472415352223e-03,1.719374431127745906e-02,1.267938911914825439e-01
8.368241312118009922e-01,6.703115299223866286e-01,3.372106754640331605e-01,-7.421791746949422952e-02,1.274411128194260501e-01,2.665836112311782413e-01,6.874570250511169434e-01
7.820838424079672446e-01,6.014134545566302004e-01,7.440736789484616587e-01,-1.599430650487323287e-03,5.337023860664031130e-03,3.126266543038776213e-02,1.739092916250228882e-01
7.802359544437166283e-01,6.475226626096135529e-01,6.989225624055548369e-01,-3.470206524297600112e-03,-2.698046193967061981e-03,2.029987045680809593e-02,1.213570684194564819e-01
7.875248429000939465e-01,5.819280499488006519e-01,7.906615017035693027e-01,1.367312530947966363e-02,-5.991352591044186819e-03,6.220836986409131880e-03,2.090679705142974854e-01
7.304884820890844566e-01,6.471306893265112992e-01,7.702107626793892603e-01,1.143461878803769816e-02,-1.184971837850649565e-02,5.886139876609545671e-03,1.129379570484161377e-01
7.005577125408963823e-01,6.356135768680866160e-01,8.001171093750647501e-01,6.083283550337170720e-02,-2.888111011525158756e-02,2.413022101724815807e-02,1.895960718393325806e-01
8.034937057592390630e-01,5.675676707331409609e-01,7.987867820205618585e-01,1.136616251728687493e-01,2.510712635049101513e-02,-1.927374152566103602e-02,3.103791177272796631e-01
8.018983514242417066e-01,5.202734745910493341e-01,7.827460221054233225e-01,4.333518302460263871e-02,-4.842756136030777064e-02,5.733803939409279349e-02,3.111560046672821045e-01
8.158915995169371271e-01,4.523156295179261432e-01,8.789653120326560432e-01,6.081854677671945722e-04,-2.348783587731675948e-02,8.450246629945335278e-03,4.012084603309631348e-01
7.531896794503737391e-01,6.168651556974733552e-01,8.592826274979398216e-01,1.680677636625419191e-01,-4.936609589932263592e-02,6.874532972266302056e-02,3.879849016666412354e-01
7.913798284688797757e-01,6.485902332611036547e-01,4.206675908109607231e-01,-1.052735637094038973e-01,-1.484325025288763533e-01,-2.869338599701350412e-01,6.717290282249450684e-01
7.576879793292576881e-01,7.287763296780673805e-01,6.288832505095315328e-01,-1.774536167325309333e-02,-8.841086090117536433e-03,-1.941828359906185367e-02,1.265424042940139771e-01
7.596915314426203603e-01,6.924894269225250198e-01,6.935265502244588598e-01,-1.987443527557685580e-02,-9.992974707672703377e-03,-2.916233539406606554e-02,9.210529178380966187e-02
7.170313610302007090e-01,7.441485366253510758e-01,6.689458485130188592e-01,-1.632037780464094118e-02,-9.405697942060101124e-03,-1.081393996543788746e-02,7.593938708305358887e-02
7.823346084974462933e-01,7.548201487112151664e-01,6.222668515848540638e-01,6.037074213935953934e-03,1.190601086478454938e-02,-2.175614709298835311e-02,1.546904742717742920e-01
8.769714869488047793e-01,9.675802021042697598e-01,2.228649402198442653e-01,1.403505929218399062e-01,1.633964163195822106e-01,-2.854802465977593351e-01,9.375606775283813477e-01
1.121614298466182991e+00,8.125751958205097436e-01,4.336653780492997767e-01,-1.789396806788952007e-02,1.621411268371361902e-01,-2.174151885660159933e-01,7.601405382156372070e-01
7.115570661883175996e-01,6.831372226007684789e-01,7.657462932815449763e-01,-4.696613116837351082e-03,-6.065135531998073343e-03,-3.500258558352075527e-03,7.414510846138000488e-02
7.722762318263577397e-01,7.239715359178969800e-01,5.893602339762066267e-01,-3.521482428606281800e-03,-3.463995065486210299e-04,-3.975248112311019488e-02,1.781410872936248779e-01
7.688568231894012950e-01,7.382182536459204192e-01,5.928903616689111811e-01,-1.628859066276929987e-02,-3.450582192529105807e-02,-5.190899600422112931e-02,1.973907202482223511e-01
8.577015842235909959e-01,8.637064646439438498e-01,5.661836098515239390e-01,1.257178770718546668e-01,8.565486875537153821e-02,-3.433102505341153465e-01,7.139890193939208984e-01
8.206655160239945124e-01,5.433384076845508837e-01,5.277601650341261497e-01,1.030287396198344280e-01,1.095092898000121218e-01,-3.078861884583625197e-01,6.585412621498107910e-01
1.025329808529892084e+00,4.489142245475681303e-01,8.575530991386923763e-01,1.772879081403435642e-01,1.677971594795755333e-02,-1.602596547785822279e-01,6.602135896682739258e-01
9.097550043944535592e-01,5.893924710897060493e-01,7.368281449952222006e-01,8.448622696482459282e-02,-6.741153507302090342e-02,1.707940297510817385e-01,4.468725621700286865e-01
8.635739923734194745e-01,3.223706307014415073e-01,6.893543510786008799e-01,9.539794522190208487e-03,1.999689015334869119e-02,2.837293029696667523e-01,6.869824528694152832e-01
1.094791730545848329e+00,4.746545386899396202e-01,7.765114239398607232e-01,2.035534080418355540e-01,-1.956277025155705399e-03,2.533572007922409441e-01,7.780604958534240723e-01
7.986745813840470110e-01,6.316239327422339400e-01,8.823581416225877438e-01,3.761671610565082147e-01,-5.007530269641289472e-02,1.168949635498421624e-01,7.224329710006713867e-01
7.381752731527210232e-01,6.081874804374644006e-01,7.640817997055160404e-01,2.735050914338235314e-02,1.618749626978654640e-02,-1.126656870218836932e-02,1.560338735580444336e-01
6.854514982007658963e-01,6.874992253958924771e-01,7.592648553300769265e-01,1.984946361535321752e-02,9.984761642802578510e-03,-1.074012239968203004e-02,8.443101495504379272e-02
6.283858268908019129e-01,6.548708913664559317e-01,8.518631202482970233e-01,1.305785772585230375e-01,6.636928369948315309e-02,-3.764835423177028545e-02,3.366658389568328857e-01
7.784049807780372143e-01,5.730400858649327134e-01,7.709269818263609908e-01,2.493084279163563718e-02,2.748394025185501438e-02,-2.467901285807954856e-02,2.159926891326904297e-01
7.775284353936455783e-01,6.202684770986643947e-01,6.772339868494549053e-01,-7.730728423397831631e-03,-7.795659504208388504e-03,-8.029855085109176283e-02,1.967804580926895142e-01
9.725970993426237277e-01,7.729863786668531578e-01,5.413462733292007112e-01,5.024907466751595692e-02,2.154837026695532731e-01,-3.424360769909634561e-01,7.990002632141113281e-01
7.606458082999483228e-01,7.429340291226066428e-01,6.318387126616262783e-01,1.575102507749955721e-02,9.591606053624713094e-03,-1.480198226470712253e-02,1.276759505271911621e-01
7.719981397588432381e-01,7.120504622980210474e-01,6.495611018523707036e-01,3.720518045616564261e-03,-1.826377812979575709e-03,-1.681612352760597506e-02,1.102026104927062988e-01
9.039177873683825748e-01,8.260642083368265887e-01,4.492913546045876338e-01,-3.542155858157580543e-04,-4.588479154651414066e-02,-1.273638640960492452e-01,4.820097088813781738e-01
6.894861947598935892e-01,7.669204335369235181e-01,6.939180054152147559e-01,6.400523746922470681e-04,-3.138201045139153451e-03,5.456441517722109783e-04,7.552612572908401489e-02
6.968422511180257795e-01,7.472347761895485885e-01,6.956946480674529587e-01,7.763306627222908360e-03,-7.551646615730663904e-03,5.307598508988753232e-03,5.509042367339134216e-02
6.110501224568224421e-01,7.769116594995494340e-01,7.680016714605367723e-01,1.031062243662079179e-02,-1.415906125933088719e-02,1.682850385916891123e-02,1.669777631759643555e-01
6.806686956223009233e-01,7.653130952913668184e-01,6.895204826305407764e-01,-2.428379523200725651e-05,-8.703396251517241458e-03,-3.189254796625459049e-03,8.216773718595504761e-02
6.900992668687031539e-01,7.669763692752969986e-01,6.940400342653185728e-01,3.477765044143868857e-04,-1.822825175271811310e-03,-1.150005596944963246e-03,7.507970929145812988e-02
6.898452426187109410e-01,7.624001635878955296e-01,6.931937573829444199e-01,-1.121401477543084021e-03,-8.728742566297857186e-04,-1.404646648179222869e-04,7.098306715488433838e-02
6.354744122408517715e-01,7.617242720000141354e-01,6.931251927626806975e-01,1.876426499665439368e-02,-5.502556483008259891e-02,2.006963482748252633e-02,1.527492702007293701e-01
6.891240362076069825e-01,7.638010760574444058e-01,6.949155677916635243e-01,3.226076414301271489e-04,-3.296105596779653601e-03,1.232944500854998675e-03,7.221615314483642578e-02
6.967687980530304914e-01,7.694893055417250105e-01,6.933361122878365368e-01,2.967076866554266192e-03,-1.532605115032504434e-02,5.039104609950663741e-03,7.973038405179977417e-02
5.647455945828251389e-01,8.812424363631123914e-01,8.724811843095069408e-01,6.979372617758045072e-02,-4.672251983760465632e-02,1.198136765660898391e-02,3.450612127780914307e-01
7.028016990140766307e-01,7.456587929373322821e-01,6.956157815601438088e-01,7.263546806688323844e-03,-5.013863270941513496e-03,2.956430380725599827e-03,4.956057667732238770e-02
7.364250242805895352e-01,8.756047980279471066e-01,7.231900013930319115e-01,-6.078490199364724317e-02,-1.744935279185517996e-01,-9.043032795339280006e-02,3.851616978645324707e-01
5.465837196701817113e-01,7.796668235392587576e-01,8.559416131526458305e-01,4.869283948485126495e-02,-4.212250160752080419e-02,1.563025961614926754e-02,3.018157482147216797e-01
7.359822184579724036e-01,7.526652566398208677e-01,8.103863888657734105e-01,1.253400264323002167e-01,-9.921861968862052961e-02,9.127321942985984482e-02,3.259275853633880615e-01
6.619190819723166364e-01,7.341148676425220954e-01,7.492895151377158003e-01,7.247057401696308486e-03,-1.402282908912091432e-02,1.554554645168079730e-02,8.950149267911911011e-02
6.341820594103556585e-01,7.590499360907687620e-01,7.405558227392963211e-01,7.388638596169564560e-03,-1.715868371889024344e-02,1.616132521649951692e-02,1.243193522095680237e-01
6.481104635520948953e-01,7.857928145090641303e-01,7.333483911278987355e-01,8.317908517934347046e-03,9.848518493820186681e-03,-7.593296024751897827e-03,1.231165826320648193e-01
6.081240913055240283e-01,8.063639733469391002e-01,7.388635726065215792e-01,5.732073243029188643e-03,3.705256054075099781e-02,-4.719165056918589625e-03,1.864353567361831665e-01
6.379920674912404888e-01,7.588762554969856744e-01,7.306717067731846038e-01,-1.135812428229474903e-02,1.399093780413409281e-02,2.227735862217617921e-02,1.202584803104400635e-01
6.494549177425987807e-01,7.863538917355447078e-01,7.372714898858088173e-01,-7.112149346384549417e-03,1.229323934919794407e-02,8.194744077504482332e-03,1.234409213066101074e-01
6.699701238482357324e-01,7.641392770893384867e-01,7.083077726299540355e-01,-8.416432515693420642e-04,6.252012085940348955e-03,6.662179015171773404e-03,8.354593068361282349e-02
6.710443431791649482e-01,7.728115410301304999e-01,7.101845936497257483e-01,5.827609255561758475e-03,3.907656804814046980e-02,-1.538236285848341121e-02,1.153169423341751099e-01
6.807936754229797494e-01,7.720275330550527837e-01,7.096433612409022151e-01,8.234977288938792259e-03,6.751724768500313480e-03,-4.552365440319924676e-03,8.322395384311676025e-02
6.384807593380822377e-01,6.948834159092467377e-01,7.579910681827047858e-01,-5.388893831281623553e-02,-2.634885841879246182e-02,-2.568490877540851106e-02,1.532881557941436768e-01
6.381336775808537087e-01,7.316706861396262696e-01,7.818745591464439926e-01,-1.294697686850026716e-02,1.130765832820325662e-03,1.691623996449793509e-03,1.283776164054870605e-01
7.873931692685884887e-01,6.298384879184611984e-01,7.629389244850656171e-01,4.239023829925920445e-02,-1.955656046696298278e-02,8.745166613216889817e-02,2.259428352117538452e-01
7.109997125405878027e-01,7.528678579891299183e-01,6.799953333762268626e-01,3.235954653629617012e-02,5.243331051268766002e-02,-4.381874939456248397e-02,1.454707384109497070e-01
7.455389640036444998e-01,7.148455237953469377e-01,6.905060613680715775e-01,1.145893810231811243e-02,1.558480517007030828e-03,-6.079696887439868004e-03,5.285503715276718140e-02
7.375115506069185312e-01,7.027962296130775277e-01,6.859502933191922169e-01,2.447223758987382772e-02,1.160101685749156605e-02,-9.934440879674932834e-03,6.760364025831222534e-02
7.456625358808960380e-01,6.811586164363561124e-01,7.048564433529148632e-01,2.776466303418727299e-02,2.414840714891059933e-02,-3.060789712204719029e-02,1.003311350941658020e-01
7.379764212674767565e-01,7.428557262821888774e-01,6.380013674451375794e-01,1.974355643291960533e-02,2.120369277711583317e-02,-1.203584989677177787e-02,1.160147711634635925e-01
7.326670802640974367e-01,7.460876006260281912e-01,6.721642752320449166e-01,1.479790327115128486e-02,7.599881835542841683e-03,-1.269228297948056527e-02,7.724098116159439087e-02
6.593430159133243373e-01,7.948063063549020146e-01,7.330221438773916187e-01,1.161321277499867688e-01,8.289292819188875949e-02,-7.919193607783708844e-02,3.060815334320068359e-01
7.118859313896387375e-01,6.850893848631665062e-01,7.371533556988321134e-01,4.630014530194511563e-03,1.158950214884649568e-02,-3.895355574125770014e-03,5.046146735548973083e-02
7.172629242921636505e-01,7.173970202286580333e-01,7.151722050552796750e-01,3.065176249868556717e-07,1.121259855555010836e-03,8.304130744490313644e-04,3.241893602535128593e-03
7.132458973664015378e-01,7.133726231728458878e-01,7.137547281696267065e-01,-2.606018118239713903e-03,1.128813476527639392e-03,8.375673414585305034e-04,5.148950964212417603e-03
7.171935097162416284e-01,7.153748791354852532e-01,7.167998354430421548e-01,-1.317863034949607291e-03,-4.325001945249021920e-07,9.970809111363944290e-04,3.307453589513897896e-03
7.127380351862822039e-01,7.160443733829582325e-01,7.187038504915369552e-01,-1.115743710865277002e-03,3.698689822775937672e-04,1.583891708011473266e-03,6.202340126037597656e-03
7.186563516159562015e-01,7.151558635745559611e-01,7.080427699983521395e-01,-4.812433062232639690e-03,1.393923311219921399e-03,2.818898302576752519e-03,1.367095392197370529e-02
7.114890930989442586e-01,7.150717882671466796e-01,7.069654555092570458e-01,-2.717299176238700993e-03,3.362917652324363786e-03,8.782723053909444492e-04,1.038742996752262115e-02
7.770483715743162767e-01,8.740651448587788419e-01,6.613022356510712685e-01,-4.638585347547258958e-02,-1.385282278825616109e-01,-7.651995819137838439e-02,3.400438129901885986e-01
5.732979867447252076e-01,9.052395970641772260e-01,4.191447355392972085e-01,-2.252984095237390780e-02,-3.257540136448023871e-01,-3.380411937243585352e-02,7.130331993103027344e-01
6.483462676295409510e-01,9.045633373802326460e-01,6.578304441170683692e-01,-2.557435751352145348e-02,-3.612616395776391265e-01,-1.733517755805696614e-01,7.395618557929992676e-01
5.832332510387118196e-01,8.271099413855624860e-01,4.312437592478440274e-01,-5.815583641030311335e-02,-3.102444237588055653e-01,-7.623128347786463366e-02,6.602863669395446777e-01
7.373496776293297916e-01,7.863723579194846769e-01,6.390011476873256324e-01,-2.047240500185971718e-03,-1.291846881105962290e-02,7.141230078989773637e-04,1.319535076618194580e-01
1.040447909756943901e+00,1.106414847507449339e+00,4.468339539651705605e-01,-2.890003760443216052e-02,-1.906543924148899061e-01,-1.108087613021596640e-01,7.377511262893676758e-01
7.949120937368784334e-01,7.372996488291055917e-01,5.924310584203771324e-01,-1.780689995777691090e-02,-5.375639716141016045e-03,-3.137904156732262279e-02,1.914267987012863159e-01
1.055031018591110037e+00,8.569076801152649692e-01,4.380968664165497684e-01,-8.006603257197972279e-02,-1.115580967680628172e-01,-1.820680661557586288e-01,6.735318899154663086e-01
8.218589182608602162e-01,6.849181816221112662e-01,5.543000403198651282e-01,-2.817217437894212976e-03,3.285149311834451025e-02,-2.053814063386814326e-01,4.283770024776458740e-01
9.467854578051757564e-01,7.488084674781932959e-01,6.740480724357770237e-01,3.570098532123302387e-02,6.200894375585487561e-02,-1.859907328370545843e-01,4.227546751499176025e-01
7.920635810797509446e-01,7.523052643581028542e-01,5.795589169357407977e-01,1.391799795802199299e-02,2.131327778884587951e-02,-5.147669659213094384e-02,2.195075750350952148e-01
8.025990418146708993e-01,6.123077296824886995e-01,7.486742040363145723e-01,-2.742992206229867905e-03,-1.237525680723121704e-03,2.974137279601759415e-02,1.775895804166793823e-01
8.851240841232537182e-01,5.800329781993822653e-01,4.281124869244076758e-01,-1.832587011574531716e-02,-3.715160773148143414e-02,-3.371726332760000000e-01,7.132421731948852539e-01
9.640578196360445329e-01,8.568108453900741273e-01,5.821515279884325045e-01,3.656824251276373505e-02,6.816986516682947694e-02,-3.497533523645334763e-01,7.080475687980651855e-01
8.093957646884805124e-01,5.428128990278568988e-01,4.886881518245482781e-01,8.273853000660177925e-02,1.288162016800714904e-01,-3.613079734415057809e-01,7.418711781501770020e-01
8.486551694315263017e-01,8.982183993652376186e-01,4.682589840579770568e-01,-1.691431418606378356e-01,-1.400293975348771980e-01,-2.826783754401644977e-01,7.418797016143798828e-01
9.035428938116788489e-01,7.139961526661402491e-01,5.470424806007658791e-01,4.390850718760352239e-02,1.908407862768075544e-02,-1.713711175776296280e-01,4.363802075386047363e-01
7.882518258849595671e-01,5.301397652573778263e-01,7.032465852284613961e-01,4.645767886292388087e-04,2.747395930920276327e-03,1.189435657659790035e-01,3.072016537189483643e-01
6.945288235466989812e-01,7.522209143068212533e-01,6.934679030503416719e-01,1.506604794971016679e-03,-7.546828178105639611e-04,2.388046634970707963e-03,5.844943225383758545e-02
6.931105498510438112e-01,7.537316146866139821e-01,6.938931516612938388e-01,2.158634422463489091e-03,-2.438243112389850992e-03,4.623812090900309563e-03,6.102488934993743896e-02
7.034162176664513488e-01,7.554572984817465864e-01,6.956630371430957416e-01,5.459583438052236469e-03,-1.526475553853848862e-03,2.248929932737666389e-03,5.730143561959266663e-02
7.003076622785590066e-01,7.652567199354106675e-01,7.023084969110331421e-01,7.768705317812430768e-03,-1.158895672007012427e-02,8.339751132421403118e-03,6.989317387342453003e-02
7.078408865683379902e-01,7.687599566441912780e-01,6.788262267728177868e-01,5.768111568923810217e-03,-4.633996577116480074e-03,2.568412685343290751e-03,8.065082132816314697e-02
7.151489992721480338e-01,7.567724888012971052e-01,6.639416008434584349e-01,1.286467776547053042e-02,-8.735764059230710643e-03,5.322891581615099565e-03,8.542004227638244629e-02
6.841445499558970189e-01,7.125689164738707726e-01,7.144844263377475579e-01,9.061436343955928813e-03,-8.968674753698401697e-03,1.487764203418299493e-02,4.491919279098510742e-02
7.203253080873853742e-01,6.138003849086511865e-01,7.521709119907209473e-01,-4.570948389752674951e-02,2.588113039949525157e-02,1.425241539572518965e-02,1.569745689630508423e-01
1.000222676982645220e+00,4.182433740481592555e-01,8.849072399794698507e-01,5.686471673331958132e-02,-1.213974864088158828e-01,2.213805772983212794e-01,6.970131397247314453e-01
7.800001009659903728e-01,3.121209383599177212e-01,8.194259303055724253e-01,-1.774995537455276717e-01,2.346705230159574357e-02,9.543721649862153822e-02,6.020025014877319336e-01
7.512290854868772794e-01,6.799751229445070155e-01,8.767864689411043466e-01,-1.531958641808296440e-01,3.841094676835576927e-02,3.538563622048066654e-02,3.292078375816345215e-01
7.764582240250708089e-01,6.723956439872673663e-01,8.486764527826934357e-01,-1.245251056378399029e-01,6.082259473632071339e-02,1.039321008764077653e-01,3.370208144187927246e-01
9.151838173121012998e-01,5.922905639744826534e-01,8.203989529660526969e-01,-2.714339370097388349e-01,7.484508825651081665e-02,1.563135503688465877e-01,6.275150179862976074e-01
8.023896008979012340e-01,7.664579684417671679e-01,7.644483285188935495e-01,-1.168842530375811262e-01,1.078649813865675960e-01,1.128742154905576917e-01,3.398226797580718994e-01
6.921511901666997923e-01,7.035350775493139919e-01,7.553119715646084975e-01,9.432059767109641883e-04,-2.301810398867833347e-03,5.725049371039517103e-03,5.930222943425178528e-02
7.850525964846497562e-01,5.570659390009252698e-01,8.010163896629146629e-01,2.559564763520278188e-02,-9.386073403440676685e-03,1.017239435862523668e-02,2.416866421699523926e-01
7.010915451623770389e-01,6.944764849494589054e-01,7.537880719188875256e-01,4.502390847701359840e-03,-1.698233227803251037e-03,2.086544444964494576e-03,5.702456831932067871e-02
6.888744028011448695e-01,6.835794331989419881e-01,7.607798599947007689e-01,1.109183919703946031e-02,-2.526095698661724297e-03,2.498265900185440026e-03,7.737004011869430542e-02
7.145530545177597448e-01,7.105351871247850282e-01,7.175056834599823352e-01,7.426698547396120426e-04,-2.587221921727592914e-03,1.206340446491934977e-03,7.926294580101966858e-03
6.979269742195516324e-01,6.936005051926875664e-01,7.639719898006742671e-01,2.959191693183464526e-03,-1.911188038383218341e-03,2.240528980535176368e-03,6.869273632764816284e-02
6.729865283308528179e-01,7.049650358517479676e-01,7.634002030750164369e-01,5.349026860415998647e-03,-5.040264332078226925e-03,8.684227491953942085e-03,8.181845396757125854e-02
8.271175983831531298e-01,7.633487116404429340e-01,4.785555192026860194e-01,-1.249187115462455366e-01,-1.421114237730259910e-01,-1.981874680564050806e-01,5.732105970382690430e-01
9.544370828427515274e-01,9.170263384525922934e-01,4.907142530805529423e-01,1.019877638873288757e-02,-1.275166758937906486e-01,-3.293417976717293305e-01,7.573518753051757812e-01
8.036595137088071716e-01,1.083146103407597538e+00,4.119642399981612857e-01,-5.231513680289406540e-03,-1.937398027488417274e-01,-9.701323137125253404e-02,6.942144036293029785e-01
9.057221039631793147e-01,8.313989823980740823e-01,4.110485145038526023e-01,-2.814538142273157947e-02,-6.193646769382744194e-02,-2.306437793888265197e-01,6.220407485961914062e-01
7.847122219975357638e-01,7.357159082003882355e-01,6.338800514260268804e-01,-9.050329076595857881e-04,-2.013286442765685122e-02,-6.141964447666057453e-02,1.740584224462509155e-01
7.964119490803640566e-01,6.457310522815141729e-01,7.042377102545276379e-01,-2.313104831515465712e-02,-3.745782924117119217e-02,-5.222931489875829586e-02,1.769464164972305298e-01
7.836694376705066745e-01,6.924141535580184970e-01,6.783067968307269213e-01,-1.662626913407477640e-03,1.716108644153519977e-02,8.147556829439195347e-02,1.749871969223022461e-01
7.342978389164138697e-01,7.813337018514882049e-01,6.409671554041359576e-01,-2.339494492056036663e-03,1.130836576035353785e-02,1.816418332460634959e-03,1.253907233476638794e-01
7.085693820700135204e-01,9.288755949054680050e-01,7.061131944315472975e-01,-2.287494000772714864e-02,1.525144005089165422e-01,1.590566377832488415e-02,3.481273651123046875e-01
6.844943361544506555e-01,8.080375763702154490e-01,5.123217512266550200e-01,-2.358024967595397439e-02,1.325662738330403989e-01,2.533970516719775967e-02,3.499898910522460938e-01
7.659056409782927233e-01,7.932552403871455660e-01,5.937568537793538326e-01,-1.228014486230253818e-02,1.976736968607280959e-02,3.667883338444214748e-03,1.917196363210678101e-01
7.229637389901609756e-01,8.006881907903398155e-01,5.959141274736377003e-01,-8.024155442485303436e-02,9.643027878229706862e-02,1.166217439111620069e-01,3.465140163898468018e-01
7.424317049644919564e-01,8.017284320977072776e-01,6.179905465799218067e-01,-9.890537367951054981e-02,1.105949887963488948e-01,8.668357188438989558e-02,3.390624523162841797e-01
6.326299998368599686e-01,7.768529088928475268e-01,7.031190575091667005e-01,-1.233651713655564350e-02,7.564121391268742445e-02,1.384751731422733875e-02,1.838462054729461670e-01
7.701968115704554974e-01,7.969510895369000814e-01,6.018044553212289483e-01,4.319749578079701280e-02,-7.497795038286723945e-02,4.555781802002169950e-02,2.495329380035400391e-01
1.094801765414444628e+00,5.826264465580901497e-01,5.965483314316051278e-01,1.254847015248447724e-02,-3.776539820897044375e-02,3.232375018363551344e-01,7.573542594909667969e-01
8.841446879966178285e-01,8.119563781287338911e-01,5.790675948028369824e-01,8.614422075638572540e-02,-1.133188233688038477e-01,3.796427911085722418e-01,7.546072602272033691e-01
7.680507719014812995e-01,7.705326590940718701e-01,5.670879471819069151e-01,1.879101128521951450e-02,-2.829698236257146768e-02,2.062665690308020452e-02,2.136090397834777832e-01
7.873933753332452712e-01,6.901325172389908280e-01,7.110281230801552832e-01,-5.590373576584725321e-03,7.990027526046310918e-03,3.720632677890067103e-02,1.109152212738990784e-01
1.050381626473962715e+00,9.082758154070448287e-01,2.277211018034691614e-01,5.804527994718587658e-02,-7.616221407260587162e-02,7.055923433524811939e-02,7.889899611473083496e-01
8.921768162053748119e-01,8.708591640757453733e-01,5.238306084768029613e-01,2.465517630710043189e-03,6.741320226995272703e-03,9.042123591146448980e-02,3.911057114601135254e-01
8.330850790697966746e-01,4.798704053902422828e-01,5.255794354654641509e-01,1.469290893535973030e-01,-1.188974521981512739e-01,3.650106152195548015e-01,7.858608961105346680e-01
7.628083067588360411e-01,6.942727269848774085e-01,6.475921997365848837e-01,1.188120121826603641e-02,-6.519719312485799598e-03,2.085574759632967054e-02,1.092308089137077332e-01
5.915381044419487644e-01,6.591356457270193259e-01,1.016543504498331529e+00,-3.604641892886886190e-01,-4.266013736955424213e-02,-1.281992957098075370e-01,7.752662897109985352e-01
7.393464465317041157e-01,4.608750953396441585e-01,7.815698585859404135e-01,-2.092714245375739135e-01,-9.641318797780859540e-02,-1.600670499361483423e-01,5.720328688621520996e-01
6.955392832389400981e-01,6.195014985736070345e-01,8.129732087785546124e-01,-2.156641372232551979e-01,-2.417525374970636576e-01,-1.803758469757723581e-01,6.640588641166687012e-01
4.291671456394469120e-01,6.243832097394254044e-01,7.821676598685252113e-01,-2.980808825530011918e-01,-1.906905958850939331e-01,-1.300578802118739219e-01,7.212473750114440918e-01
6.692852488322744708e-01,7.342714661929229392e-01,7.489610166245518341e-01,-6.664335287504217012e-03,-9.399304366954892506e-03,-1.374755655660112562e-02,7.974256575107574463e-02
5.531117500090645400e-01,7.737378445995617415e-01,8.983342161845669915e-01,-1.232969886602399007e-01,-1.612272918744631078e-02,-5.072831233427967101e-02,3.818320333957672119e-01
6.733016361272181616e-01,7.416910224348587377e-01,7.229428938327585596e-01,-7.885924164835619865e-03,1.174362639659849890e-02,1.949818946873857137e-02,7.407609373331069946e-02
6.771107833259634168e-01,7.092353942010762857e-01,7.435519558750502966e-01,-3.354969146458866569e-02,2.469690519481597402e-02,2.138109429341318937e-02,9.944865107536315918e-02
6.905976580690925681e-01,7.641034764988667849e-01,7.380084834021988227e-01,-1.713804777888585859e-02,4.672500967287133641e-03,1.842275475899636528e-02,7.829909771680831909e-02
6.586282154490753493e-01,7.313104497693059258e-01,7.389826838002903076e-01,-7.997108899099313398e-03,1.428181301389797042e-02,1.576459155779080801e-02,8.630494773387908936e-02
6.958886683079414937e-01,7.143829138688955194e-01,7.525719070297918201e-01,-3.992372536145071156e-03,4.635001743361718239e-03,1.254693140399875534e-02,5.559906736016273499e-02
6.756859611949470601e-01,7.397399390520447149e-01,7.137040735135231628e-01,-6.983041347536187056e-03,8.334331150862796592e-03,1.542067848601784939e-02,6.466174870729446411e-02
6.928071287506805120e-01,7.418287262504406065e-01,7.090699440666524689e-01,-3.889881635566683465e-03,4.631976004467279300e-03,7.807578864888648461e-03,4.650807380676269531e-02
6.993008112168965784e-01,6.915599977710537027e-01,7.436840932309325414e-01,-7.799304865605924571e-03,7.879600449782590138e-03,4.253932638747182950e-03,5.288098007440567017e-02
6.428923338845098367e-01,7.831084955800486913e-01,7.322291265561545748e-01,-1.363140240508468057e-03,1.038412690053151441e-02,7.809724513099464485e-04,1.242822036147117615e-01
7.177104340416398109e-01,7.768901628042378382e-01,6.754919630853317702e-01,1.014909258247197882e-02,3.669277204421603211e-02,-1.431080544353483322e-02,1.128964349627494812e-01
6.021661673422293859e-01,8.987832307301738544e-01,8.106653483775113633e-01,6.842379311741005055e-02,1.319647040213369205e-01,-6.553286528573983027e-02,3.857231438159942627e-01
6.935625932111613157e-01,6.999937244151217541e-01,6.761951593190828058e-01,4.883014608973625104e-02,5.245753775664985241e-02,-5.541131272323798762e-02,1.583491414785385132e-01
6.929135870486706761e-01,6.473875904320894881e-01,7.594953638441926946e-01,-5.057166906267288042e-02,2.041371939484511178e-02,1.638170362667687452e-02,1.387972384691238403e-01
7.089684239834480595e-01,6.555674732271429273e-01,7.628568904905856929e-01,-1.538058604557165920e-02,1.532058249658549073e-02,4.333304860299512680e-03,1.005161926150321960e-01
7.327713938537275817e-01,6.530675219908442797e-01,7.666438677980931260e-01,-9.358836885673193356e-03,1.293338033180261096e-02,3.616450866479062332e-03,1.048982143402099609e-01
7.379173968905116121e-01,6.298271461937214877e-01,7.594891684631710493e-01,-1.695455936010748649e-02,1.496813991608007995e-02,6.111230906759140477e-03,1.269924789667129517e-01
7.786687775812806134e-01,7.379475873849234979e-01,6.093039217615549008e-01,-6.780638554167718081e-03,-3.711125470322986300e-03,-2.461253209804151534e-02,1.595070809125900269e-01
7.915079566988965087e-01,7.363199005844021094e-01,6.025328777509695310e-01,1.542436806688363658e-02,5.024424154228471348e-04,-3.247803318067175177e-02,1.794633418321609497e-01
7.876102852859155901e-01,7.264341465632963013e-01,5.993105524004884721e-01,-7.908453451469009063e-03,-5.443410722588096218e-03,-3.326129216459806914e-02,1.768483072519302368e-01
7.595081269926390322e-01,7.406442016686544116e-01,6.330609780626395011e-01,-1.574930206045021749e-02,-7.703238393140720772e-03,-1.780545035445537175e-02,1.258279830217361450e-01
7.919939208705115696e-01,7.299398872735183286e-01,5.803497895874230039e-01,-2.416883589952158878e-02,-6.539854055275677591e-02,-1.198277918937862840e-01,3.052375614643096924e-01
1.060329865525464488e+00,7.574650682545702729e-01,4.129242480604915499e-01,-1.395546820607867500e-01,-8.034328683270325344e-02,-2.940128487522207235e-01,8.074076175689697266e-01
8.802155760922607541e-01,8.175381587542168704e-01,5.049804252222760415e-01,-2.128334285483686819e-02,5.395431749652407219e-04,-7.005165589202635990e-02,3.705301880836486816e-01
7.622986461484151377e-01,6.279742177175177131e-01,7.435605885062244180e-01,6.000941845634101025e-03,-1.663672209554510964e-02,1.262158298280671720e-02,1.315046697854995728e-01
7.696637737079843333e-01,6.104501405850344398e-01,8.062891493093906625e-01,1.471245819192081895e-02,3.801743972042709568e-03,1.031312584793399843e-02,1.831214576959609985e-01
7.386486148761076675e-01,5.664715116789373894e-01,7.869884936595684666e-01,5.948667466872719495e-02,1.501012089025207871e-02,-1.114724031639119720e-02,2.279679924249649048e-01
8.168272396288803749e-01,4.358963893019195956e-01,8.171103924514925287e-01,-1.494856262773220420e-03,-5.180941037037921880e-03,-9.117881710195297959e-03,3.815139532089233398e-01
1.123658110157661261e+00,5.091391595413786719e-01,9.501037891991940265e-01,1.574185450545921017e-01,-6.921805660051766340e-02,2.855088077707023664e-01,7.964692711830139160e-01
6.148321619253275250e-01,7.311708550151723163e-01,7.824722528748074835e-01,-1.599217187273294094e-02,-1.461407165704095394e-02,-1.878876450325742825e-02,1.568498611450195312e-01
3.619238278157502764e-01,9.570148428237506000e-01,1.160693421713039797e+00,-1.928734241744568811e-01,-4.219047202855679551e-02,-7.796609258216616323e-02,8.074665665626525879e-01
3.556379399476227166e-01,7.807521687157621404e-01,1.158316276993115901e+00,-3.205807967762335231e-01,4.362975527464942743e-02,-9.250166961170158686e-02,9.074586033821105957e-01
4.697168645842311197e-01,1.028919922801486475e+00,1.128523535958092072e+00,-2.553966535196809384e-01,1.182927183234658980e-01,1.400756110153043854e-02,7.852248549461364746e-01
5.475643600120432275e-01,8.026920321497925670e-01,8.198787670554258389e-01,-1.811135152627601497e-01,-2.314742630558105363e-01,-2.198448567831603473e-01,6.884133219718933105e-01
8.612382952553285786e-01,9.122938398222047995e-01,5.262225122009505096e-01,2.226910708856256332e-02,1.086658299225323199e-01,7.141098726776875030e-03,4.111109077930450439e-01
7.011370545621142814e-01,7.265807411514264569e-01,6.982636768245048531e-01,-7.344383825986870382e-03,4.890222610128943520e-03,2.522455248271982670e-03,3.132726997137069702e-02
7.113923210480502801e-01,7.225857900942462830e-01,6.957048528960553258e-01,-1.446694330529456861e-02,6.792819140055075464e-03,8.132464635146772688e-03,3.888062760233879089e-02
6.720684771300496907e-01,7.599611529350048800e-01,6.708462783823267994e-01,-8.670063949455871985e-03,3.038030189629343375e-02,8.069585464399181216e-03,1.049942448735237122e-01
6.812114268479364521e-01,7.708093659426011879e-01,6.185302344481768966e-01,-1.185033963399262022e-02,6.639096612208943149e-02,1.823910813496203848e-02,1.794864833354949951e-01
4.616666535348052935e-01,7.837658821015042188e-01,7.994912409360017680e-01,-4.784358780153268043e-02,2.638751908589101816e-02,1.117039714552557454e-02,3.440793454647064209e-01
7.457131173954330006e-01,7.605610009962380236e-01,6.381838551257532632e-01,-1.923666328491712915e-02,1.354956486068319838e-02,8.999555280868480611e-03,1.236263737082481384e-01
4.547949400483242699e-01,8.811997235829521768e-01,9.043652090168826652e-01,5.363424506484810311e-02,-7.709579564186125333e-02,-6.108721212610777190e-03,4.677698910236358643e-01
6.298475716801283930e-01,9.940902352177605206e-01,6.166681314609566700e-01,-2.234045849432745867e-01,3.049089339560890344e-01,6.399689175700121191e-02,7.606385350227355957e-01
6.030814577001968324e-01,7.653311464945369291e-01,7.366833142404125567e-01,-1.862072871718709402e-02,2.186032955209937095e-02,2.331778420039554850e-02,1.631028205156326294e-01
6.069100419940616220e-01,7.832357257481609158e-01,7.321278472071741650e-01,-3.830186461320279900e-03,2.624526307468980427e-02,7.994454559849793057e-03,1.642964333295822144e-01
5.508896130376071953e-01,7.694575609302786168e-01,7.885850062678219086e-01,-3.222641359445547332e-02,1.357410186130845575e-04,-4.081157328643053063e-03,2.355506420135498047e-01
7.168690319799536637e-01,7.874086370763828668e-01,6.753504802812824170e-01,-6.064254837558403534e-03,3.627488066198009120e-02,1.084498431343164197e-02,1.184866875410079956e-01
7.773583785029624105e-01,7.077383899868593398e-01,6.159842804760859991e-01,4.334504896993988075e-03,6.257532286613068893e-03,-4.123262238066165847e-02,1.578857153654098511e-01
7.723235005132360609e-01,6.932205526722018396e-01,6.839422062298952110e-01,-1.337307846680130556e-03,1.353954411244450481e-03,-8.748975630948797530e-03,8.554418385028839111e-02
7.807958391486519156e-01,5.548341889324547305e-01,7.386985340837303182e-01,1.923117183115710671e-02,2.040428122907720840e-02,-1.022000025222941505e-01,2.775094807147979736e-01
8.768646678426790242e-01,6.088939653068738966e-01,6.501694123352186327e-01,2.963977031159951633e-02,4.428472605349660640e-02,-1.601341496845718471e-01,3.845765888690948486e-01
7.805736481050606912e-01,7.304543380279494569e-01,6.331509623620735772e-01,-4.038518808287294357e-03,-1.069956104494957337e-03,-1.274691236293955948e-02,1.318957358598709106e-01
7.022287432920982786e-01,6.990506476264246594e-01,7.057996430782619290e-01,1.810150980221002237e-02,1.611812246446696004e-02,-1.515519877174388574e-02,4.985595121979713440e-02
7.710484525766245767e-01,7.125298150498173833e-01,6.562756519706830494e-01,5.427432067391749562e-03,4.344684447965614822e-03,-1.224011561596744131e-02,1.023491099476814270e-01
7.924100927326614974e-01,7.042013723382400947e-01,6.949587816780126159e-01,3.861749576535922126e-03,1.519001974571470475e-03,-5.382326190159320706e-02,1.319998949766159058e-01
7.097578134725961441e-01,7.098198985142865070e-01,7.233565297054154186e-01,-6.362819319720851058e-05,-1.633634611978927080e-03,-1.496453593257673041e-03,1.410039793699979782e-02
7.242940220946705310e-01,7.143919512626452084e-01,7.092212518188607540e-01,-9.409929499592638996e-04,-2.865706761203019436e-03,-2.797803690317352075e-03,1.505868881940841675e-02
7.293413655738127943e-01,7.027911783464506623e-01,7.066102711114733426e-01,-5.595009177602220871e-03,-9.347716204579439164e-03,-6.270481758131676853e-03,3.304707258939743042e-02
7.223423266127032560e-01,7.098104250298732376e-01,7.080627003607821157e-01,-3.064303489922577325e-03,-2.691050102729647658e-03,-2.046850705211512682e-03,1.563551463186740875e-02
7.185333652645420344e-01,7.009838622923467710e-01,7.277970366571001604e-01,-2.899220365084375153e-03,-8.008799928961043979e-03,-1.722335321785817362e-03,2.798056229948997498e-02
7.254807668730921533e-01,6.998311079758743336e-01,7.181024039792400782e-01,-3.231390227670685039e-03,-8.676864992757896133e-03,-3.126043358963868837e-03,2.845344878733158112e-02
7.093275787247906861e-01,7.162944875979648796e-01,7.164562603928368301e-01,-2.912549375369662390e-03,-2.253997963228338008e-03,-3.894577392107828606e-03,1.165695488452911377e-02
7.069613667916606614e-01,7.087088863484025669e-01,7.207222043770846742e-01,-1.192603131623891236e-03,-4.437429487274767957e-03,-1.902477287445289000e-03,1.557448692619800568e-02
6.996213247489384557e-01,7.223000205234878512e-01,7.111981219995716641e-01,-7.577659907195670626e-03,-6.344336516784238565e-03,-9.564430996234876345e-03,3.087472170591354370e-02
7.415022926899850209e-01,6.060198070370679257e-01,7.815704215351306772e-01,2.927460987495608680e-02,7.095585912794372813e-03,-4.268977610488155008e-03,1.678279191255569458e-01
6.009003842928380967e-01,8.069595385889118955e-01,7.706171850858282157e-01,7.043856010601317599e-04,-1.240138212931249720e-02,2.820934738150337497e-03,1.917790621519088745e-01
7.767986980548386988e-01,5.584472578025809764e-01,8.020001531964379149e-01,2.842023449429869827e-02,-3.250974946524769378e-03,-1.247832487864171955e-03,2.372229844331741333e-01
7.693684552768909057e-01,6.103970095242802207e-01,8.044211563250852626e-01,1.479111467709584571e-02,-3.776592459272012405e-03,-5.302056466407180542e-03,1.812634766101837158e-01
7.385165514488204463e-01,6.040806310686701597e-01,7.916388840063746102e-01,3.114362118602915022e-02,-1.603807531819383472e-02,8.965352448585748842e-04,1.781022101640701294e-01
6.928886680307335677e-01,5.421520488599960164e-01,8.054291990962355596e-01,1.397777154220154472e-01,6.294811853913800763e-04,2.056648070739329481e-02,3.350140750408172607e-01
7.347647000743852130e-01,6.040189459801056371e-01,7.791626278568478670e-01,2.521046873967043578e-02,-7.877562256580303290e-03,3.600027639560346090e-03,1.643235236406326294e-01
7.286166609498869740e-01,6.630293304915894081e-01,7.866576846310104898e-01,3.053263391197926641e-02,-3.077242820661809340e-03,8.418201997685715449e-04,1.196013092994689941e-01
5.772512258040498612e-01,7.830059313782962160e-01,7.991976386742183358e-01,2.209140726750725703e-01,-1.965558475383308024e-01,2.634796356500684889e-01,7.186827659606933594e-01
5.157112609389762348e-01,8.456773943314821462e-01,5.267043733179703757e-01,5.768866798652496491e-02,-3.057953524240615839e-01,3.609097440916223670e-02,6.322935819625854492e-01
4.870527030824351455e-01,7.821239366119913106e-01,7.534647863293899572e-01,1.610784984211674764e-01,-2.029548544504747587e-01,8.683330258164825843e-02,5.508745908737182617e-01
5.414947389024779012e-01,8.260666139797770979e-01,7.761849935838576187e-01,2.923255175826534880e-02,-5.669100191805991756e-02,-1.225755494830068834e-02,2.862348556518554688e-01
5.573952057358052548e-01,7.925729787072477439e-01,7.306646436587083127e-01,3.408147929202736282e-03,-9.872441202597564969e-02,4.452256148329034741e-03,2.718742489814758301e-01
6.108806727306826945e-01,7.713962011714438072e-01,6.642788373487957809e-01,-9.394450859785503580e-03,-7.684174665594059594e-02,-8.220519015220412520e-03,1.955168098211288452e-01
6.106002741049549876e-01,7.800896863921147339e-01,7.434232550737635004e-01,1.335297022322982268e-03,-2.592862710279269026e-02,6.229311737003928769e-03,1.612301468849182129e-01
7.666171071781178181e-01,8.366801886356569629e-01,5.292414064054560274e-01,3.960714629816439181e-02,-1.441994680001006113e-01,1.182721377055979822e-01,4.323642849922180176e-01
5.297559199679024999e-01,8.036276670642999997e-01,7.951148958493676755e-01,-1.383461060944328989e-02,-7.602051946692354144e-03,-1.738791488411689946e-03,2.711151540279388428e-01
5.255570371359848947e-01,8.608617163312426435e-01,7.799661061479329360e-01,-6.447895086056872060e-02,-5.914740353671097545e-02,-8.854855464236371151e-04,3.388493061065673828e-01
4.824760426113935408e-01,8.987703099461074041e-01,7.937626102480741519e-01,1.404748469977660022e-04,-6.142004315781069562e-02,3.906763847561304723e-03,3.898416757583618164e-01
5.257974495189354780e-01,7.683664488724564201e-01,7.612240123383243739e-01,-4.869206155216179027e-02,-5.717878639062477786e-02,-2.081162035508233449e-02,2.745515704154968262e-01
5.057293214220059951e-01,9.353978985053261752e-01,8.900382423854350522e-01,-1.771472065668002263e-02,1.154860381439863082e-01,-1.405516651454961387e-02,4.568677246570587158e-01
6.029157174515725748e-01,7.527388758270558977e-01,8.082729331072376899e-01,7.900897617874612366e-02,-2.592407035795906561e-02,1.401306708875450953e-02,2.349123805761337280e-01
5.467272895397977672e-01,8.296120032512167564e-01,8.253075666411303635e-01,4.388468933558153061e-03,2.860920462199909291e-03,1.026919073719963563e-02,2.814663946628570557e-01
7.128073475129292902e-01,7.177151527500382766e-01,6.199483474002868144e-01,7.724707707468383977e-02,9.954016667127874030e-02,-1.105298276527880708e-01,3.055801093578338623e-01
5.567610094529794607e-01,7.927460766745683118e-01,5.918430247155518353e-01,-1.397875548701188742e-01,2.573086796015687239e-01,1.414691660947396123e-01,6.049184799194335938e-01
8.760848275593429157e-01,8.640670439368369760e-01,5.548694504953946005e-01,2.207653724339830870e-02,4.076696032560580413e-02,-1.321514297568774920e-01,3.978736102581024170e-01
7.703498762451487236e-01,7.359377922047135590e-01,6.117758416119278841e-01,-1.910982882341162592e-02,-1.481518849917103781e-02,-2.778431504482684750e-02,1.579334735870361328e-01
7.757740493830205253e-01,7.514762944316388804e-01,6.074027731860629498e-01,6.609170199874700273e-03,3.277587211238800619e-02,-3.426270313750597735e-02,1.781118661165237427e-01
5.316175043561842672e-01,7.399899764478732322e-01,6.841502428967065619e-01,-8.416947919781797571e-02,-1.157895962162654169e-01,-5.674472140389343749e-02,3.256328999996185303e-01
7.595052167447350344e-01,7.389925363754435983e-01,6.232239327911578419e-01,1.978346527359824830e-02,8.243427822788038442e-03,-1.919584061202920383e-02,1.366796344518661499e-01
7.796204782032026825e-01,7.624162393922374603e-01,5.949316853974646602e-01,9.238050353672058040e-03,1.959803339630157917e-02,-7.267903272884386999e-03,1.810945719480514526e-01
7.312713897956577558e-01,5.824647430142658733e-01,7.896968883299880781e-01,-5.264662477868091439e-02,3.849443572844025822e-03,7.257268645175082508e-03,2.068055123090744019e-01
7.819418037614637162e-01,5.297718704716812832e-01,8.559621378400482650e-01,-7.020344529907966702e-02,5.544964433734181700e-03,1.462681855388953296e-02,3.213316500186920166e-01
7.605994094005376072e-01,5.575617472704123001e-01,8.053162151979359473e-01,-9.061570136346808191e-02,-4.267214878778299338e-03,5.138115225899579381e-04,2.774745225906372070e-01
6.846298072776091370e-01,6.520284714556888739e-01,8.982549892918942902e-01,-2.171986733343136966e-01,-1.589501198024207904e-02,-1.293055669099046207e-02,4.432249665260314941e-01
6.623126949752504711e-01,6.650366488748619131e-01,7.765017025286037322e-01,-9.886322941750633198e-02,7.965635866875148130e-02,6.071116105963372117e-02,2.686080038547515869e-01
8.194545324120516838e-01,6.244497300169202791e-01,9.551915511148288962e-01,-1.946578362157461162e-01,4.414606612944309630e-04,7.043795858761166262e-02,4.598705172538757324e-01
7.405434047503509642e-01,6.287299433056598996e-01,7.714070103318414473e-01,-5.664858790924320181e-02,-1.353027833614343402e-02,-2.104064078200864121e-02,1.685535460710525513e-01
7.899276182737081653e-01,4.841114205897780187e-01,9.503405032236142969e-01,-2.980148256318026490e-01,-1.304812169781216225e-01,-4.710751958783901405e-02,7.017724514007568359e-01
7.667071685186105379e-01,3.810293877792023109e-01,8.355555162345098541e-01,-2.040566939533712543e-01,-5.731731764593823303e-02,-1.056655933530670916e-01,5.901775956153869629e-01
7.790074709141545650e-01,3.887538638668980862e-01,9.209035778462004718e-01,-2.474848472203619032e-01,-5.485657248877385400e-03,8.032478287430724895e-02,6.565063595771789551e-01
7.959573841786924397e-01,6.799541758393892188e-01,7.154053435329953414e-01,-1.418155307997932433e-03,-3.215912123351489637e-03,-3.716380014660037451e-02,1.215795427560806274e-01
7.687456820982943029e-01,6.491257059666207807e-01,7.033065169856698162e-01,2.362954706305342781e-03,5.944126325975743891e-03,-1.850096952683338847e-02,1.091466769576072693e-01
7.531739865357359731e-01,6.928012252030254503e-01,7.122961254846724710e-01,1.583863471261605024e-02,2.122346385832405910e-02,-2.958899954550877134e-02,8.705389499664306641e-02
7.674381764650884952e-01,6.050683895205201113e-01,9.057050235387318349e-01,1.690835282576358678e-01,1.267845947915842951e-02,6.542219286042666275e-03,3.928236067295074463e-01
5.657032520934452968e-01,8.217461521359420429e-01,9.222540813287016803e-01,-1.720110661929988294e-01,-5.793671695650152303e-02,-2.692613705743013286e-02,4.498917758464813232e-01
7.662980680150194290e-01,6.708206618744031458e-01,6.700088415586811230e-01,-2.859398948769179081e-03,-5.297294916710984573e-05,-3.440524958212246021e-02,1.130035594105720520e-01
7.685096145038108340e-01,6.764917179887726117e-01,7.078558103041343585e-01,4.006228653741386245e-03,7.217575267348768503e-03,-6.059156123575017844e-03,8.294282108545303345e-02
7.710363975136128589e-01,6.924558662163827760e-01,6.974360500858910461e-01,-4.279874771176581279e-03,-5.642148563406693303e-04,-1.625019726884292456e-02,8.158719539642333984e-02
7.770601234251724998e-01,6.529669961216689744e-01,7.060030806373506218e-01,-6.404576415008854037e-03,-2.630793753388323709e-03,-2.223543416766017577e-02,1.151415631175041199e-01
7.718099847799271274e-01,6.783961214835630971e-01,7.083067777866286496e-01,-2.614141125546097337e-03,-5.458200991057865839e-03,-5.694536811348863137e-03,8.386827260255813599e-02
7.639511753159519136e-01,7.101553499592998531e-01,6.560376439854354036e-01,7.937091237547877487e-03,4.661672927302349875e-03,-1.277595864946996611e-02,9.735442698001861572e-02
7.039931550673617089e-01,7.092440946284115366e-01,7.380958649452692422e-01,-1.328745017064030952e-04,-7.915006984519713839e-04,5.081653010371544113e-03,3.302874416112899780e-02
6.930857701019432771e-01,7.080646663430778531e-01,7.438094077339607590e-01,1.565955954107983369e-02,-1.486157496283951884e-02,9.257460021386675758e-03,6.076871603727340698e-02
7.023641851784759860e-01,7.020460373512985575e-01,7.361951796266946735e-01,-4.911613505121277274e-04,-8.137026295089697147e-04,2.123149181537463404e-03,3.422914072871208191e-02
7.138972740443098042e-01,7.134108398911948035e-01,7.187262564140853849e-01,9.275970394491124364e-04,-1.843807165014063436e-03,2.765195853241042296e-03,7.850081659853458405e-03
7.004211462934029075e-01,6.992885533390148511e-01,7.449618576537583303e-01,1.284467342940420927e-03,-5.034886220554284607e-03,9.714996895460427861e-04,4.603732749819755554e-02
7.021541903040273702e-01,7.223161245235409922e-01,7.249642263311341095e-01,1.876900243093293855e-02,-1.854804010324637500e-02,2.006730792948722628e-02,6.135074049234390259e-02
6.702382410106006994e-01,7.140001106368051298e-01,7.380255655896084122e-01,2.006868627000459038e-02,-1.210602713955836497e-02,1.768627941201525444e-02,7.829470187425613403e-02
7.201049617662842461e-01,6.830815468526527656e-01,7.345089528063799555e-01,4.414109813053151976e-03,-1.463325913226107972e-02,4.657184591364145129e-03,5.364150553941726685e-02
5.494351672553214883e-01,8.140683697679358399e-01,7.861958375460229576e-01,1.260402917988717036e-02,-3.024902089747770820e-02,5.258402858625497653e-03,2.583334147930145264e-01
5.299085049620618770e-01,8.125713750992336060e-01,7.964559677356282119e-01,1.413100919633412424e-02,-7.784781084056328904e-03,6.408412392288617872e-03,2.765987217426300049e-01
6.256391083536672060e-01,7.517056031038209518e-01,7.627500036943667405e-01,1.034018426504638294e-02,-4.629627031892559648e-03,1.762425511827303906e-02,1.368355602025985718e-01
5.704458162613953442e-01,7.819894846861310533e-01,7.891977651922428283e-01,1.941546717893880697e-02,-4.566234674122299393e-03,4.429547980515770832e-03,2.181280404329299927e-01
4.295687132208755310e-01,7.695092705851762638e-01,7.980409672793917775e-01,9.110679904002193241e-02,-1.115620978708985016e-02,-1.432130485000526060e-03,3.890419006347656250e-01
6.100829341952619389e-01,7.636023009688795993e-01,7.268090451763755677e-01,1.369606766171330148e-02,-3.006815636568816591e-02,1.639544272025141025e-02,1.528231799602508545e-01
5.369661729117055637e-01,7.938459783802943592e-01,8.019914339532263625e-01,8.538884791024358920e-03,-1.090164230959580864e-02,2.550863206772305009e-03,2.621846199035644531e-01
5.972272005747756296e-01,7.698452046827488626e-01,8.000512783433805231e-01,1.198031484794803009e-02,-3.875012666844556894e-05,7.115469928635496976e-04,1.906714439392089844e-01
6.081761596365642397e-01,7.451413105799344905e-01,7.978315561736840644e-01,2.861331818159273607e-02,-3.958569603006437316e-04,-2.247324507969940613e-03,1.767037957906723022e-01
1.855651258296822093e-01,8.833996846212204268e-01,8.890072838015924406e-01,4.482609365104770621e-02,-1.319156563960777184e-01,2.036757705888289985e-02,7.418864965438842773e-01
7.647699047136311545e-01,6.946785922382279210e-01,6.825289891259826991e-01,-3.796992281375846569e-03,1.799367128914986826e-03,9.104876691185639567e-03,7.882669568061828613e-02
7.858349341388780607e-01,6.451133470139847059e-01,7.301995090490505103e-01,4.709463277519208998e-04,3.327063133357156376e-03,1.191697593508698506e-02,1.246141120791435242e-01
7.779755342491678771e-01,6.168813952026106495e-01,7.409000292589401626e-01,-7.580002610817649679e-03,1.237027038526254848e-02,2.196226088952891661e-02,1.530742645263671875e-01
7.628180464328458976e-01,6.811152574979444374e-01,6.778758966739067970e-01,-9.462361692020573520e-03,7.451549542688191280e-03,2.550466037443099160e-02,9.662894159555435181e-02
8.010122247715908417e-01,5.813017000201681217e-01,7.648318479524047753e-01,-1.098457076300587282e-02,3.413067630867984252e-03,1.071885820940900007e-02,2.058497965335845947e-01
8.176909848074400688e-01,6.335654295936534730e-01,6.980830516696402421e-01,2.698086315403889351e-03,-1.185617874304325907e-02,6.422849034444677585e-02,1.974964439868927002e-01
6.495728478307211118e-01,7.701358996136756785e-01,7.092935949502670034e-01,1.393166912109496157e-03,2.096989189059957071e-02,5.219529361883532351e-03,1.109444200992584229e-01
6.998273747244559972e-01,7.550386273585478758e-01,6.892342611252709750e-01,-7.848910523103441381e-03,8.239573625703820389e-03,3.515404961985220400e-03,6.458264589309692383e-02
7.039053384806334135e-01,7.362326123424128843e-01,6.994116587283332187e-01,-9.024792997256765245e-03,4.260089377023492177e-03,2.937014551880635753e-03,3.918134793639183044e-02
7.203410412965718379e-01,7.207071617773392891e-01,7.021136832583091403e-01,-1.408974142411205388e-02,1.525541674637883975e-02,1.803096097796758057e-02,5.106991529464721680e-02
7.633522884354926319e-01,6.931777562448940833e-01,6.969106615099220914e-01,-2.401824501510128017e-03,-2.040237103890264747e-03,-1.974354868188755042e-03,6.868720799684524536e-02
7.554104279605345917e-01,6.668797838623661267e-01,7.112747588897773143e-01,-7.357058233662281885e-03,-1.208857374004866647e-02,-1.237088009239313557e-02,8.329567313194274902e-02
7.646422592846884303e-01,6.805891562406307660e-01,7.118465288844921801e-01,-2.091167069026790039e-03,-8.148012115434651037e-03,-7.290683996498882602e-03,7.606852054595947266e-02
7.941045228259372424e-01,6.363708572035006172e-01,6.123580842726313866e-01,-2.525738824321231962e-03,-1.855366163192442202e-03,-1.483762091130005345e-01,3.087395429611206055e-01
7.474366129168849016e-01,7.038935996269456430e-01,6.948496500567232781e-01,-8.536897948297449135e-03,-3.588072509296985537e-03,-3.576415721087636106e-03,5.164512246847152710e-02
7.530898384493101005e-01,7.025386661059286331e-01,6.931888032787277831e-01,-1.718871601262698988e-03,-1.730630731802561837e-03,-3.713833426957014166e-03,5.634459853172302246e-02
7.354492887890549113e-01,6.836149866134274555e-01,7.195724385008537283e-01,-4.646811177245995482e-03,-1.240619245787779983e-02,-7.294783896681996012e-03,5.293453484773635864e-02
7.365007397483339657e-01,6.990873617668725837e-01,7.057520820440751352e-01,-3.394074669233372674e-03,-6.970542578046226914e-03,-3.227565178201881151e-03,3.750207647681236267e-02
7.454756840069568513e-01,7.231382846499841976e-01,7.008411455147912639e-01,-1.454739454446052870e-02,-1.596723544873576359e-02,-2.014572078020284221e-02,6.412074714899063110e-02
4.857175599766360152e-01,1.102405584570406827e+00,6.622201373913695344e-01,-9.610115296661927986e-02,-2.887260987334686613e-01,-5.341067478383515477e-02,7.674391865730285645e-01
7.672932658228442948e-01,6.913600625792332144e-01,7.075984774406414157e-01,1.388574273272539378e-02,-7.231685861136289729e-03,3.344196986144694350e-02,9.427052736282348633e-02
8.839954293029471666e-01,6.860961979396030808e-01,7.501046668344937274e-01,5.087414031957235294e-02,-2.954839220441741673e-02,1.609261599068105564e-01,3.444844186305999756e-01
7.689062655697840309e-01,6.420244374594152870e-01,6.966628725648618126e-01,1.817221454908566920e-03,-4.720498331951469839e-03,2.237333876928506576e-02,1.171758845448493958e-01
7.580564511807766914e-01,6.446740259315352217e-01,6.938376253561355789e-01,7.663074756620389359e-03,-8.883447452555478380e-03,2.289279495866412828e-02,1.080902442336082458e-01
9.248859609841513230e-01,6.792573140685983502e-01,7.600855474779220078e-01,-2.009944966940852354e-02,3.157163823829214205e-02,1.716227706194941027e-01,3.736017942428588867e-01
8.139582782175578402e-01,5.308679295177481938e-01,8.061124196676754394e-01,1.732522687101511680e-02,1.110479516695631920e-02,4.925873730752532154e-02,2.941603660583496094e-01
7.148404000335046860e-01,7.129917055681604943e-01,7.251394157796663409e-01,-1.730908555742470241e-03,1.194000832980623462e-03,1.647997606404194874e-03,1.224499382078647614e-02
7.066082513395576248e-01,7.106023432897705661e-01,7.279217633728727321e-01,-1.248746681758506651e-03,1.152687348183875724e-03,3.369720661797490167e-03,2.068380266427993774e-02
7.136419942525337179e-01,7.132754679129049702e-01,7.180564877770454491e-01,-6.858841100150942513e-04,2.244720295850485998e-03,-5.518119068453170798e-04,6.219423841685056686e-03
7.132225985430468151e-01,7.156328312140701753e-01,7.113675153592884381e-01,-1.875495365187367569e-03,4.158977258453020278e-04,9.396390157686166983e-04,5.238498095422983170e-03
7.335081922454208536e-01,6.632570333164808929e-01,7.467740498597371657e-01,-6.785297296618578687e-03,1.611762639246465054e-02,1.192295591317069949e-02,8.594809472560882568e-02
7.038713564036670478e-01,7.173329539543628064e-01,7.323300481175987198e-01,-2.308000775944525369e-03,2.774095742166271007e-03,8.662272692905304688e-03,2.953277155756950378e-02
7.103092106770630965e-01,7.215381782344234551e-01,7.160113282553758340e-01,-2.742253306279604161e-03,2.723094163710670576e-03,5.481475756231098985e-03,1.514992676675319672e-02
7.492374560823875651e-01,6.941947568021920034e-01,6.977487773320010245e-01,-6.423823056012762517e-03,7.313839562186751943e-03,6.911880655610350317e-03,5.722152069211006165e-02
6.063188862109304411e-01,7.752249241284628889e-01,9.335850081896988062e-01,-1.169093253795882303e-01,3.051771243170791834e-02,3.591688216964952080e-02,3.578024208545684814e-01
6.153242750937512051e-01,7.778507409510612147e-01,7.295286227645800814e-01,1.460151974821973994e-02,3.011606053872231334e-02,-1.248125435632688185e-02,1.572391390800476074e-01
6.307466893560854659e-01,8.140482137987608002e-01,7.625611984636239127e-01,1.021063544339597187e-02,5.437909348130839926e-02,-1.821223762390217216e-03,1.897542923688888550e-01
6.223249025987858118e-01,7.893191165813260302e-01,7.755100321045631517e-01,1.496295497515859850e-02,2.252950087365016701e-02,-8.765006333590244503e-03,1.679184436798095703e-01
4.817117199564808216e-01,8.712483309177381230e-01,8.148669445398651900e-01,-7.226497767330368471e-02,1.911468371256323795e-02,2.207591397287309368e-02,3.888185322284698486e-01
7.447313361297468459e-01,7.224830433576876487e-01,6.982384943138248978e-01,1.870193738218765139e-02,2.563473314921739868e-02,-1.944604148011579159e-02,7.600878924131393433e-02
7.490112449661270322e-01,6.936277983505465539e-01,6.958984695566590162e-01,1.225711874709202800e-02,1.367379426726121963e-02,-1.450064875911197260e-02,6.774333864450454712e-02
6.973306629835057668e-01,6.863755763127834530e-01,7.678155495388654384e-01,-8.962528799028547308e-03,6.666962551068473207e-03,2.394535075999383155e-03,7.906850427389144897e-02
7.074184274883270618e-01,6.777063657180977252e-01,7.680076579749910426e-01,-5.745046662022707668e-03,5.853623025801845542e-03,1.153831887722322645e-03,8.099319785833358765e-02
7.092112674207318168e-01,6.574047519228682912e-01,7.560160451322767150e-01,-2.650628009145988492e-02,9.721918948848991965e-03,3.374687967654294279e-03,9.861468523740768433e-02
7.301655370535362621e-01,5.953479972062093450e-01,7.771868949875517796e-01,-3.276949617696127415e-02,8.743585221264834478e-03,6.539429626853709814e-03,1.740840077400207520e-01
6.858261219072411263e-01,6.809914236829668344e-01,7.502458037684281988e-01,-2.265666529361111403e-02,1.761418308199030544e-02,2.382986519258639344e-02,9.305406361818313599e-02
7.391771645436189253e-01,6.048657029698186749e-01,8.009599826092291819e-01,-2.965727820770638901e-02,1.222480534476589687e-03,-7.997370287204820646e-04,1.811074018478393555e-01
6.135204822943626235e-01,7.531702936120470149e-01,7.772042709730967447e-01,-1.437098836184746153e-01,-7.657681109080730075e-02,-4.286602835016829760e-02,3.293905556201934814e-01
7.354697712458135861e-01,6.162269112901066492e-01,8.038994149399619760e-01,-3.644004625322477819e-02,2.689607270987190261e-03,2.476820474387473464e-02,1.814027130603790283e-01
7.348065883783533314e-01,6.556505343757368376e-01,7.341416147222367128e-01,-1.416829515615758948e-02,1.936812750238084066e-02,1.844005908414736439e-02,9.466355293989181519e-02
7.381505914487243025e-01,7.102012468504081966e-01,7.024450955043181066e-01,5.153905609087052787e-03,-1.857559310311477849e-03,9.371510985689054517e-05,3.388464450836181641e-02
7.375459249035120068e-01,7.014996428522590755e-01,7.007715188384519012e-01,2.125459432908156053e-03,-1.724108911549743261e-03,-8.648539582571175988e-04,3.675357252359390259e-02
7.459618975125260620e-01,6.992866782874358478e-01,7.007436752269237124e-01,3.843044969081166762e-04,-4.302773791472262049e-03,1.617668317479311994e-03,4.665327817201614380e-02
5.478356162932355167e-01,7.669123105878569158e-01,7.921384247897604869e-01,3.096898878716081160e-02,4.927414947661644439e-04,3.898854460547286280e-03,2.389162480831146240e-01
7.501103103851819442e-01,6.736792052227610350e-01,7.164880952286565297e-01,1.122167640124265009e-02,-1.294938203746780550e-02,1.715972392922658976e-02,7.852763682603836060e-02
7.333425328822640310e-01,7.130056150864351183e-01,6.807401145980550572e-01,1.497881768654706763e-02,-6.517642988369015677e-03,6.309187106353655872e-03,5.505256727337837219e-02
7.718659497825259841e-01,7.056063074598278861e-01,6.777763715119711208e-01,1.866997087842741992e-03,-1.932191299506607815e-04,4.595605734082110205e-03,8.415922522544860840e-02
6.694324549556487369e-01,7.445704297215443024e-01,7.184919026158791411e-01,9.377177946876667780e-03,-9.735340048532825641e-03,1.791491905493218864e-02,7.666338980197906494e-02
6.828377565922648662e-01,7.630214741513260401e-01,7.123917509911309454e-01,-9.030939385610087244e-03,-3.539299609760643284e-02,-8.805135395504761278e-03,9.575163573026657104e-02
7.113638595871877301e-01,7.645681517618434508e-01,6.496833391944888403e-01,-1.187402731523212740e-02,-1.792358676883879301e-02,-1.059279950475216711e-02,1.078898310661315918e-01
7.071040591559867305e-01,7.322581133941804543e-01,7.239224658906863175e-01,-1.732695822480177436e-02,-1.937602422762776597e-02,-1.815107784324479501e-02,5.922736227512359619e-02
7.328914680091491718e-01,6.847110778997536062e-01,6.652288464885076635e-01,-1.233082232674143908e-01,-1.301628750430464110e-01,-1.803243766183918462e-01,4.445582926273345947e-01
7.520960393193766302e-01,7.336079926827582254e-01,6.737989548666634132e-01,-1.382456433099092490e-02,-6.078207548327915592e-03,-6.469143823265314543e-03,7.638337463140487671e-02
7.303447901582587054e-01,7.674630097958889952e-01,6.060648404580065707e-01,-1.859136986480270509e-02,-2.473573970395254520e-02,-1.430014473061903130e-02,1.578679531812667847e-01
4.680607928060093181e-01,8.140756548014805860e-01,5.711111114739241268e-01,-1.361024200128611583e-01,-2.975652805679323554e-01,-1.217581888806813645e-01,6.785062551498413086e-01
6.417230909506076442e-01,8.122990963323766245e-01,6.814710623664516076e-01,-2.227461825922265326e-02,-6.695698361863711146e-02,-2.108155380136580992e-02,2.004183381795883179e-01
7.045696999205696143e-01,7.873256709065755699e-01,6.682860219606334695e-01,-5.051009679475622002e-03,-4.510470441280498011e-02,-4.173230919949359741e-03,1.319084316492080688e-01
6.928604425750870544e-01,7.638818759326947427e-01,6.365297393740587673e-01,-1.704716755715102519e-02,-5.699093552274143298e-02,-1.965767305114996671e-02,1.548963189125061035e-01
6.339584901357235847e-01,7.610607854425405217e-01,6.726146114189517355e-01,-2.138887435769218359e-02,-6.619252002233916299e-02,-1.957752878417901715e-02,1.685308516025543213e-01
7.444217268686690314e-01,7.785757790145451107e-01,6.703993678843546133e-01,-2.358895697911400288e-02,-4.222001807333090190e-02,-3.872380586113064599e-02,1.438383758068084717e-01
7.186155764813217939e-01,7.559465354949610472e-01,4.701005520576597707e-01,-9.962073726418264885e-02,-2.121581904728083168e-01,-1.532967197160930439e-01,5.547399520874023438e-01
7.179963109879523575e-01,6.978365769363538140e-01,7.241888873178350394e-01,-5.224088151913062854e-03,1.266323713155133313e-02,5.677208567733110951e-03,3.506054356694221497e-02
6.974248509064102652e-01,7.398274034159149082e-01,6.917820947290507227e-01,-9.553770027365349193e-03,8.141455010318177435e-03,5.718809555241635700e-03,5.137968808412551880e-02
7.264281025615820786e-01,7.262734703345150589e-01,7.071900384347966639e-01,-1.076751271452669988e-02,9.097283353498681127e-03,1.192107523980897622e-02,3.727717697620391846e-02
6.979800122464061563e-01,7.366420637122700343e-01,7.090855929435371241e-01,-2.982737634779651214e-03,4.677797065832413337e-03,8.055018452858277514e-03,3.841495886445045471e-02
6.892676291547968903e-01,7.385752357594724815e-01,6.931511411887774088e-01,-8.070130431837534493e-03,8.909455581275805419e-03,1.396856196060136841e-02,5.721637234091758728e-02
7.111057062510000026e-01,7.400850026335831222e-01,6.784896873694719055e-01,-1.224488250833949583e-02,6.048648184433053250e-03,8.277308219732305850e-03,6.011576205492019653e-02
7.191478121294868631e-01,7.426163601309007101e-01,6.708103072287018298e-01,-1.682102045209839247e-02,1.177277257727649996e-02,1.005326285886254216e-02,7.476320862770080566e-02
7.341669135431794224e-01,7.151744599982149397e-01,6.776426646988428226e-01,-1.535481525499566950e-02,6.585722435440689165e-03,1.036806071209909336e-02,6.034969910979270935e-02
7.101324296921702750e-01,7.038336441320101056e-01,7.378574048903022709e-01,-6.558650354051858864e-04,-5.191323948835407237e-03,-2.182277613772914265e-03,3.285437077283859253e-02
6.553616332974622205e-01,8.206330403175730037e-01,8.259626083745790215e-01,1.011739835542681265e-01,-9.371409640457983858e-02,7.382723667656408695e-02,3.187958002090454102e-01
7.481458922237544940e-01,6.910729221592244453e-01,6.929689027234757770e-01,-1.668599211137975283e-02,-1.482760826851463841e-02,-3.014804951750298112e-02,8.587354421615600586e-02
6.915741614324886211e-01,7.229561589498233465e-01,7.478269748919297299e-01,-1.880254200025461078e-02,-1.358298437258900239e-02,-1.466311248480643356e-02,6.813958287239074707e-02
7.234722919723699519e-01,7.072566933659004684e-01,7.157329726173967677e-01,-3.427583623474129201e-03,-6.137285071255370664e-03,-4.454842375636119088e-04,1.860602572560310364e-02
7.015750611872029197e-01,7.058312665973767164e-01,7.282979453542940407e-01,-4.190728442877237822e-03,-2.902886059317583752e-03,-7.631790713490206428e-03,2.951591648161411285e-02
7.012331728904178663e-01,7.020593963691557082e-01,7.368745330205712651e-01,1.676939774863064512e-04,-1.977877397194563545e-03,-2.102209643951554255e-03,3.558960184454917908e-02
6.739030206093179487e-01,7.540934701084236469e-01,6.673463947493264437e-01,-9.036794266029518630e-03,-3.367695054735510285e-02,-1.016906217878732824e-02,1.046752482652664185e-01
7.814037749106955699e-01,7.275977953587647873e-01,7.426494476562864877e-01,-6.573753053104947064e-02,-9.131857955893424306e-02,-1.152009334949820885e-01,2.830318808555603027e-01
6.905917247138454451e-01,7.523381684233271249e-01,7.005799022878664850e-01,-3.362794584679066560e-03,-4.444749526412920641e-03,-7.741609888460533433e-03,5.973811820149421692e-02
6.878284847719162709e-01,7.697516919021391013e-01,7.150451677224796132e-01,8.893763448435534208e-03,2.881254784017331719e-02,-9.616455528338755873e-03,9.070664644241333008e-02
5.384761412470626674e-01,7.826436532555390846e-01,6.887251238288618627e-01,-2.439129800134373638e-02,1.063199694385119770e-01,1.114309832780199273e-02,2.856146395206451416e-01
7.504658088422315743e-01,8.741495697711810786e-01,6.888900755999383119e-01,-3.729518574650560192e-02,1.710454732838828651e-01,7.341371769402264824e-02,3.671734333038330078e-01
6.689497444375201995e-01,1.020164112606062767e+00,6.321371665120637529e-01,7.155643656891427784e-02,3.881101675681994934e-01,6.227896341425594867e-02,7.851886749267578125e-01
7.153581504317145789e-01,7.235135869941532460e-01,7.050322088550399213e-01,-7.666883679620985562e-03,-3.326783447331583057e-03,-4.027915790798261911e-03,2.270609699189662933e-02
7.002437993358234802e-01,7.249061150833266964e-01,7.044915573304565415e-01,-2.698268315080006984e-03,-4.627560596793802924e-03,-7.523845619736128226e-03,2.788231335580348969e-02
7.010987231846022016e-01,7.446016291502209894e-01,6.996252730070238179e-01,-4.165610735288810020e-03,-1.078245106574225818e-03,-1.065220858769512068e-03,4.491906240582466125e-02
6.997620170275571372e-01,7.354530269652179708e-01,7.051438275446946236e-01,-3.947108268245542485e-03,-3.219932677274846018e-03,-7.017898372322859020e-03,3.655578568577766418e-02
7.016635016284991089e-01,7.337821888141559112e-01,6.941676286552359576e-01,-7.490325087434443301e-03,-5.789712558783941670e-03,-3.764145807501965892e-03,4.049616679549217224e-02
7.207721509299572782e-01,6.932851118463930762e-01,6.919266138128117305e-01,-1.368286075385385242e-02,-1.579837785668713329e-02,-1.632485311428004404e-02,5.389484763145446777e-02
7.400411041158563297e-01,7.825979054471285945e-01,5.795075720360997051e-01,8.523294599924296708e-03,-4.661960734270936824e-02,8.111330359871370480e-03,2.033454477787017822e-01
7.704264810745408143e-01,7.741300611033850032e-01,5.653878684910769170e-01,1.617689163331097191e-02,-4.971039138484463493e-02,4.883826517463686623e-02,2.411802262067794800e-01
8.013773334685947436e-01,7.807938365950454207e-01,5.021653341963026040e-01,2.767999704485368199e-03,-2.017214699123096727e-02,4.962093693738185013e-02,3.040117025375366211e-01
7.774647554961946483e-01,7.965271292629318989e-01,5.834193404606140554e-01,1.542929445106472515e-02,-5.334254841809696335e-02,2.517374670346713209e-02,2.299295216798782349e-01
5.381335870435616231e-01,7.857920251080185992e-01,7.712248181009860870e-01,3.376748348896296825e-02,-5.190549914715237440e-02,7.057487196284857600e-03,2.638027966022491455e-01
7.666118045352624533e-01,6.065320602713872855e-01,7.828431149016491508e-01,-3.150297919927613766e-02,-1.880190677264534718e-02,-5.910510751807543373e-02,2.073773741722106934e-01
7.348947688266485034e-01,6.050091325665659658e-01,7.770153834359847522e-01,-3.785545848629931487e-02,7.424371768834348538e-03,1.174262103116094531e-02,1.702745556831359863e-01
7.688841768078993333e-01,5.894805735575473493e-01,8.029538008185270748e-01,-1.305945623702616312e-02,2.584004920782445721e-04,3.694538974347379612e-04,1.999271512031555176e-01
7.511564971083787290e-01,5.583422008367138201e-01,7.630312918590650417e-01,-2.020809278905911707e-02,-2.630026325024594283e-02,-3.654147465752812657e-02,2.165964990854263306e-01
8.158036369730041759e-01,3.799713573397040522e-01,8.007960354760127464e-01,-1.256408122504918401e-01,-5.171070921844957841e-02,-1.619787528012742450e-01,5.636704564094543457e-01
7.657372847421151096e-01,6.246788472847608631e-01,7.646891455565503204e-01,-7.697942361268124076e-03,-1.804343842358967567e-02,-1.465601854770391503e-02,1.467978209257125854e-01
7.372970192132061173e-01,6.136459755629392054e-01,7.791336558184573935e-01,-3.174950412702742808e-02,-7.293855159212474931e-03,-7.763984924966453073e-03,1.599298566579818726e-01
6.911354003306531268e-01,7.049401319937288468e-01,7.649164098882288432e-01,2.109112882873504305e-02,-7.723256873489280430e-03,8.781013862078079768e-03,7.975244522094726562e-02
7.334890621512820674e-01,6.129200772128029495e-01,7.727816178501083488e-01,2.455714809699884038e-02,-1.476634404233588028e-02,1.533164997286709345e-02,1.548764705657958984e-01
6.876434193632066094e-01,6.738984740347727653e-01,7.504573795164152239e-01,1.651115014990310603e-02,-1.414302177500912847e-02,1.068426596442432867e-02,8.220876753330230713e-02
5.973621603834601279e-01,8.730670675079919008e-01,1.092906333973181487e+00,3.827409780418991048e-01,-1.106855159187344617e-01,8.658976748680126401e-02,8.268448710441589355e-01
7.319034107507367271e-01,6.422609694745394782e-01,7.828502094090539210e-01,5.593808796714029585e-02,-1.224520724708689590e-04,-2.384804149553435091e-03,1.568523347377777100e-01
6.479234001883024119e-01,6.906105225270495751e-01,7.768260369966679679e-01,5.727184035267893908e-02,9.585556887521744750e-04,4.695445981886784033e-04,1.509278118610382080e-01
6.852585983350206744e-01,6.793926485562142847e-01,7.617744510973858407e-01,2.058171083110008071e-02,1.185840576423606227e-02,-1.218340111563987090e-02,9.206473082304000854e-02
6.988523379044871975e-01,6.445062231332765457e-01,7.680337040949372085e-01,2.232910506633277101e-02,6.520492947987098671e-03,-2.122629339940675878e-03,1.146129742264747620e-01
7.905508265886295183e-01,7.424047585185723497e-01,6.078376961512388377e-01,2.772663716282164695e-02,-5.350269565801759469e-02,1.254405232014640381e-01,2.915563583374023438e-01
8.168932265777623103e-01,7.715197244543403610e-01,6.267658220849735562e-01,-2.099987474796845277e-02,1.681572334069299235e-02,6.080711247218379550e-02,2.069885134696960449e-01
5.850641975451295052e-01,8.054604222590824314e-01,7.892555910959729859e-01,9.995587793204063418e-03,-2.104021806320287985e-02,3.021996051472940485e-04,2.165495157241821289e-01
5.292036395695217665e-01,7.038981570643473296e-01,5.218481221964882399e-01,1.973186049430219746e-01,-2.967504810562963113e-01,1.862271329407194087e-01,7.189473509788513184e-01
7.815009610557960285e-01,8.622716350352300774e-01,7.319311575074701759e-01,5.828030423586663678e-02,-1.441828467154648019e-01,8.001052802239408401e-02,3.236445188522338867e-01
7.335077901638490383e-01,7.616166792477750969e-01,7.084247471177972377e-01,4.639537632392860822e-02,-5.927468743382936778e-02,3.387482309833290961e-02,1.502161622047424316e-01
9.631601108632177333e-01,6.009904959005595293e-01,6.901523532061482058e-01,2.164438386037566275e-02,-1.846359870233380274e-01,3.162550568959406339e-01,7.145302891731262207e-01
9.060832421228577349e-01,8.184626219823722959e-01,4.605557185825738808e-01,2.317477439954748406e-02,-1.002781218191171192e-01,2.421320384188931640e-01,6.122065186500549316e-01
8.052506959291642064e-01,9.809900818601170469e-01,3.884962738164970397e-01,1.534139034481887820e-01,-2.250048276390935742e-01,2.788858832142145916e-01,8.565219044685363770e-01
6.136191569551409097e-01,7.906816002694901924e-01,6.922189365346418377e-01,3.627445357623858280e-02,1.231650765587682939e-01,-1.826092873273579137e-02,2.721557617187500000e-01
7.053451486310564622e-01,5.855635112480566118e-01,6.149063487901296199e-01,1.566043020814666398e-01,-1.543146318948521445e-01,2.369030630138131699e-01,5.701550841331481934e-01
7.591468517936602600e-01,6.386646824098636266e-01,6.861380579334308560e-01,2.344621153240798034e-02,-2.017603366161162259e-02,6.001787883357023734e-02,1.572476029396057129e-01
1.046771133964294664e+00,7.283608636921561352e-01,4.009569854118922305e-01,1.458438709443982129e-01,-1.356833598978140210e-01,3.116904265282743336e-01,8.504828810691833496e-01
7.490313837413661302e-01,7.185799158470561609e-01,6.816512134883792040e-01,1.766466844727070107e-02,-1.895084507641475388e-02,2.818988008311556701e-02,8.839166909456253052e-02
8.747065639009575788e-01,6.678058601749545797e-01,7.755328365822570236e-01,3.729633877022076743e-02,-3.710525216221223499e-02,1.441643705546943599e-01,3.205897212028503418e-01
6.749956355608903724e-01,9.014727547654050044e-01,4.914494084193695156e-01,4.618425606288320551e-02,2.833143258770037254e-01,-1.163653536851710912e-01,6.437179446220397949e-01
4.302651843574650248e-01,8.115058309623087718e-01,7.627532651389303808e-01,-1.946317977935898558e-01,2.025305543738153136e-01,6.308192585884946080e-02,6.146326065063476562e-01
6.742688153333113998e-01,7.456645684841451960e-01,7.325733839468484554e-01,-2.733181070640492219e-02,2.906108149849024810e-02,1.532745599904498067e-02,9.906358271837234497e-02
6.932799297004009764e-01,7.572399069360151724e-01,7.094530559004462722e-01,-3.050362677142078732e-02,4.168298562214306502e-02,3.090333842966748804e-02,1.191087439656257629e-01
7.487947148732370106e-01,7.613332402018275769e-01,6.592339091228091030e-01,-8.447036493109745525e-02,1.367656761419906164e-01,7.019146018562744116e-02,3.187508583068847656e-01
6.874024586055013097e-01,7.655283223045212804e-01,6.872255835559754056e-01,1.773832101317979540e-03,-6.400916417843981188e-03,-5.688833948489320416e-04,7.906216382980346680e-02
4.936898155250027953e-01,9.423005306879995713e-01,8.106137714642188685e-01,-2.456786724422049539e-01,1.574994325393866967e-01,1.298375152060888271e-01,6.823360323905944824e-01
6.252855996783607262e-01,8.503236097575742614e-01,5.843971980774587127e-01,-5.580112257145310173e-02,2.864582797872302078e-01,1.179764958987395140e-01,5.989884138107299805e-01
6.141545622939368343e-01,1.080597702546902461e+00,6.057450444571250703e-01,-4.103791766293880816e-02,3.014292174558533821e-01,1.157403079983330418e-01,7.344256043434143066e-01
6.309198497555991159e-01,7.868266363488929382e-01,7.629187331817861573e-01,-1.570709055540668586e-02,5.785261324724468718e-02,-1.268797456082812903e-03,1.787088513374328613e-01
7.675862671359618972e-01,6.937138329993863817e-01,6.905533965156986920e-01,8.943452514672419439e-04,2.727086151272567808e-04,1.812436397311348269e-03,7.558486610651016235e-02
7.705994471542467750e-01,6.962722447032871909e-01,6.822437919467094769e-01,4.039303294586923596e-03,1.535718693588673084e-04,7.106245557979208594e-03,8.345382660627365112e-02
7.686070339782181682e-01,7.023607778696691062e-01,6.438008623923764384e-01,-3.241297732941905707e-03,1.152138303577922383e-03,1.851265141908617698e-02,1.129639819264411926e-01
7.220243415550738897e-01,7.042114227079006028e-01,7.039843512066730202e-01,-1.014605167444119355e-02,9.250769020079076255e-03,1.397472084108379586e-02,3.837749734520912170e-02
7.713456686185616862e-01,7.084886228735826075e-01,6.850012430868761548e-01,-5.271896040856295651e-03,3.569269465745744403e-03,5.104815638139558083e-03,7.860526442527770996e-02
7.729408734660728753e-01,6.763850837763666357e-01,7.058790049139523903e-01,1.480110404969311967e-04,1.253178978388341022e-03,5.053866569958314660e-03,8.617717027664184570e-02
7.627592772122658848e-01,6.982052144845702912e-01,6.918070769788857710e-01,4.239285808321459001e-03,-4.540221545133569896e-03,1.228597653166272653e-02,7.204012572765350342e-02
8.017375986842139035e-01,6.182051908583801048e-01,6.024358848927483523e-01,2.008563157469651569e-02,-3.003129341217054132e-02,1.378747440687206893e-01,3.126839697360992432e-01
7.608519743128896451e-01,6.934628382448049244e-01,6.968762447461884779e-01,-9.463700513242819358e-04,1.579590833473485181e-03,1.996312370795567514e-03,6.591697782278060913e-02
7.632959280989000117e-01,6.893617798785302009e-01,6.965473851195017607e-01,-2.951965270860800882e-04,3.415315483844378014e-04,3.181649631400069317e-03,7.083509117364883423e-02
4.550262079234836388e-01,8.098208776653395002e-01,6.800294282976931948e-01,1.249550196320226708e-01,2.144535191869505752e-01,-8.511577851127472005e-02,5.506560206413269043e-01
6.128361209081314431e-01,7.623911789426170982e-01,7.307459421724886717e-01,7.448778533777672753e-03,3.255216721960214193e-02,-1.584741066669418177e-02,1.507787704467773438e-01
7.028127995837666342e-01,7.247980382066074867e-01,7.478402272614691482e-01,1.849882147327418930e-02,1.530311379031695437e-02,-1.753988800595027847e-02,6.459875404834747314e-02
5.760341692308722505e-01,7.810559973524695554e-01,7.794331668631656607e-01,1.856181042373099624e-02,2.489667216231122512e-02,-8.577786267383442215e-03,2.117020487785339355e-01
5.727718439511744197e-01,7.996374327467391518e-01,7.379219401238257259e-01,1.069863251677754395e-02,6.264925312649689826e-02,-1.200075077838843110e-02,2.320040911436080933e-01
6.070271981668293737e-01,7.889629682689326406e-01,7.685937214615274904e-01,-8.143648947619332038e-04,2.618413614294210628e-02,8.881574070324386658e-03,1.791789531707763672e-01
5.553790015184077999e-01,7.754993482146255168e-01,7.907767783373091941e-01,-2.901575781885437286e-02,1.061395861086696958e-02,1.147785391632787089e-02,2.351769059896469116e-01
6.106540936079485338e-01,7.385543401946800257e-01,7.790004345583324552e-01,-3.205300049158284204e-02,3.341880396987205026e-03,7.119054645691506866e-03,1.625889241695404053e-01
6.055936474791084878e-01,7.393141387215957927e-01,7.822002095342481809e-01,-2.341955523181968313e-02,-3.264457371016563515e-03,-8.880897187685470040e-03,1.654362082481384277e-01
5.321187387299038951e-01,7.824258685190543794e-01,7.875632580832182539e-01,-6.904942170990138739e-02,6.688977240753522617e-03,1.114482821254778391e-02,2.806711494922637939e-01
3.436206099374589096e-01,6.955500379859851368e-01,8.690506742270409646e-01,-2.820407390920320334e-01,9.569119052349364662e-02,3.016295977886927077e-02,6.955986618995666504e-01
7.614319241007795336e-01,6.928633582731064111e-01,6.868283506450099107e-01,-6.564719394901417232e-03,1.824849902510950438e-03,4.902880567885932808e-03,7.323437184095382690e-02
7.644391108048482764e-01,6.905875817386076809e-01,6.816045320224720649e-01,-1.191966614833264194e-03,7.517328593885629897e-04,9.529756790310721717e-03,8.047708868980407715e-02
7.658452305961132023e-01,6.435471395659100313e-01,6.957632657193906223e-01,-4.907265372690437387e-04,1.911835400673346464e-03,1.886138545909550601e-02,1.112490817904472351e-01
7.594600844394451267e-01,6.792728684416085017e-01,6.917938233819933558e-01,-1.234316760767317691e-03,4.367374187726671270e-03,1.012452987335344876e-02,7.714955508708953857e-02
7.683469434340999271e-01,6.931535462757131283e-01,6.926768018204555455e-01,-1.574902626472255134e-04,-2.029746411447507382e-03,1.299127839503481756e-02,7.879642397165298462e-02
7.746030394564270560e-01,6.950207592237340748e-01,6.971134915893553163e-01,3.208386661656061783e-04,2.217084316079132294e-03,1.381257421371760025e-02,8.221065253019332886e-02
7.652416499218919199e-01,6.904768681672857067e-01,6.807261026042986662e-01,2.451939434208301677e-04,1.373708495018694832e-03,8.776026088797225788e-03,8.155220001935958862e-02
7.743008444862140571e-01,6.883729244748927334e-01,6.250802455772478394e-01,-1.691708251565163940e-02,-1.824797463037854117e-02,-6.489671359628985947e-02,1.769758611917495728e-01
7.671619005576654216e-01,7.097227777522668868e-01,6.982240800057949448e-01,-1.153939480131131907e-02,-6.640596274190336580e-03,-1.474933377294183889e-02,7.263842970132827759e-02
8.122681431196822066e-01,7.143947222572655242e-01,7.286312116800729433e-01,-3.416555807766175762e-02,-3.259387860128105247e-02,-7.080181629203016747e-02,1.735400259494781494e-01
7.673455463846228231e-01,6.914764099856398616e-01,6.965872888570489030e-01,-7.743479820423079243e-04,-3.418142716072038352e-03,-1.899685372299307401e-03,7.377102971076965332e-02
7.629652845840642073e-01,6.898089452171847213e-01,6.917331440816011368e-01,-8.384001797217584132e-04,-4.066264982904361949e-04,-1.831105763386838090e-03,7.230109721422195435e-02
7.739677923678365268e-01,7.077363382615292631e-01,6.793450991103396897e-01,-4.616973228947718956e-05,7.059338014766036772e-04,-5.503235305816006617e-03,8.464880287647247314e-02
7.703650453851906832e-01,7.065880212754901413e-01,6.476512984293124608e-01,-5.276598354395881096e-03,-2.192573705752677831e-03,-1.774643866250064789e-02,1.110973134636878967e-01
7.856792825049626616e-01,7.306421689674463815e-01,8.145053718335374393e-01,1.219362925310065876e-01,9.442360339254175783e-02,-1.064106976707252100e-01,3.328198790550231934e-01
9.033634882269592214e-01,5.755767046352071592e-01,7.916206251555268913e-01,9.126441963321313411e-02,9.338083444649890319e-03,-3.462540098862511018e-01,6.842715144157409668e-01
6.948286198259163715e-01,7.190856933967954001e-01,6.892455949555676975e-01,-1.404218158268167455e-02,-1.607719384567766682e-02,-1.484705571188234437e-02,5.275685712695121765e-02
7.280636580180926964e-01,7.283854961542023387e-01,7.024019059226608297e-01,-1.879303905130149527e-02,-1.599459643358790498e-02,-1.713921618194295948e-02,5.809614807367324829e-02
7.554001495954749679e-01,7.264189285037527810e-01,7.047838845159417609e-01,-1.475479658385105836e-02,-1.349560153015478929e-02,-2.104859029139972276e-02,6.681041419506072998e-02
7.138049221445289527e-01,6.805878907296790681e-01,7.342957239831992000e-01,-7.987869976789617812e-03,-1.466061853141869056e-02,-5.121021199459939791e-03,5.584605410695075989e-02
7.115571150770017006e-01,7.166503644264518025e-01,7.184862250879198164e-01,-5.183373729610217528e-03,-3.824665670035656828e-03,-4.391162252543630642e-03,1.486590970307588577e-02
7.156961606295172418e-01,7.161222937966968960e-01,7.108183451977237999e-01,-3.078570985997198476e-03,-1.604144787750253322e-03,-1.737165373755558554e-03,8.441513404250144958e-03
7.026884110191530253e-01,6.973189803881554294e-01,7.354544538498853923e-01,-6.215509671228246734e-03,-7.470356470191688580e-03,-3.210460711381196621e-03,3.990760445594787598e-02
7.184362561530134306e-01,7.301379090000297278e-01,7.002473300841463022e-01,-1.107463056383544212e-02,-3.401526981292258157e-03,-3.249462191777004270e-03,3.339066728949546814e-02
7.763722442810537805e-01,6.265378091140805239e-01,6.899724652630553345e-01,8.869683623667738714e-03,-1.618728191758763910e-02,6.244280957946997390e-02,1.723050475120544434e-01
7.618185960418489833e-01,6.101832693387998496e-01,7.360496311649113998e-01,1.912626754930737624e-02,-1.722756052987935854e-02,3.934560127357097925e-02,1.624249517917633057e-01
8.330508608242475077e-01,7.693145702092829552e-01,7.674340767787857231e-01,1.179026116501006721e-01,-1.120745889829080771e-01,1.573804963788836553e-01,3.973371088504791260e-01
7.945309949126219129e-01,5.503573035914819389e-01,8.146172665080400055e-01,-4.131025852651047832e-03,1.535826242132480200e-03,5.530860030225146461e-03,2.551055252552032471e-01
7.336493586363322938e-01,6.831768898906994680e-01,7.147617797418215346e-01,5.520988396244840002e-03,-1.454976751343827965e-02,6.822863355944060876e-03,5.307630077004432678e-02
6.710523330912365747e-01,7.194257800961857408e-01,7.883810040752706749e-01,3.703255797403574162e-02,-2.493474729974703812e-03,5.338577137610117478e-03,1.210322231054306030e-01
5.916441339382890741e-01,7.956799407817063408e-01,7.658692508117168618e-01,1.296860494396403964e-03,-9.491221516119361865e-03,-1.172125300908180741e-03,1.916148662567138672e-01
7.984525626659129127e-01,5.704715237841891939e-01,7.937040710750623562e-01,-1.737471461128942476e-02,4.303036071027730239e-03,5.775650546142913240e-03,2.279837727546691895e-01
7.932742330814263054e-01,5.646248047086486199e-01,7.919646616234378156e-01,5.874641308103796707e-03,-8.542689280385248884e-03,1.458311600145615824e-02,2.300941348075866699e-01
8.017342767422652727e-01,5.689967193556857428e-01,7.913785996985107651e-01,2.543211416925092103e-02,1.942734351481048257e-03,-3.446547027677074933e-03,2.320585995912551880e-01
7.802853767086932457e-01,5.594222152359042965e-01,8.127624577097163350e-01,4.536744480241801381e-02,-6.765257220529400511e-03,2.965360196281187355e-02,2.568233311176300049e-01
7.749159829189056214e-01,5.544780923488710211e-01,7.934117267168667720e-01,2.913577244691390594e-02,-3.179384123577088175e-03,6.502679193841521751e-03,2.360423207283020020e-01
9.873561924420712899e-01,4.190268033445809226e-01,8.460254468252945692e-01,2.282704901780912565e-01,7.826225413178554760e-03,2.491467694373272201e-01,7.780607938766479492e-01
8.275957455490523529e-01,2.557830654907428114e-01,8.594118457982433679e-01,1.278768683095505843e-01,1.882082184327616217e-02,-8.699917064683843071e-02,6.473032832145690918e-01
8.497828766645503240e-01,6.229639082073989975e-01,8.060197547058515211e-01,2.435195674000557864e-01,8.835098007023951816e-02,-3.155668846852211495e-01,7.372286915779113770e-01
7.585795136255215620e-01,7.161806125809466739e-01,6.883656118703168625e-01,2.317558026243460301e-02,1.606277093704678791e-02,-3.312119240455761726e-02,9.709308296442031860e-02
7.023973223462579574e-01,3.291161517173920581e-01,8.596934187718492382e-01,2.800985775607833794e-01,-4.329877981969882522e-02,7.192765241462055481e-02,6.923202276229858398e-01
7.580796642332179314e-01,6.859652779824183533e-01,7.527751796650059557e-01,3.097532085476791333e-02,1.737657846239176393e-02,-3.076779651913297275e-02,1.070995479822158813e-01
7.044482158048419596e-01,5.612412031547711067e-01,5.387104830535827116e-01,1.907524752542034130e-01,1.939371444009056755e-01,-2.920768462698140056e-01,7.086349129676818848e-01
8.033526692074769437e-01,7.378991268638189771e-01,5.886326406949808909e-01,-1.677843824265410830e-02,-4.098608066558173668e-02,-7.671048664102694814e-02,2.446881532669067383e-01
8.105360490592116163e-01,7.463536763560154608e-01,5.752754493632128430e-01,9.023535947874826435e-02,1.242162539917411601e-01,-1.975507498115292582e-01,4.818324744701385498e-01
7.634036515935345157e-01,5.934839174590194055e-01,7.688910446226712159e-01,1.165100658073711659e-02,1.630931951106791289e-02,-2.169127410728559358e-02,1.801443845033645630e-01
7.819277239009843061e-01,7.438724969261868436e-01,5.955303522774543223e-01,1.674792933294429187e-03,-3.379393253404292842e-03,5.053313895298786051e-02,1.918391436338424683e-01
7.731216941785493679e-01,7.444223036606230082e-01,6.489905983918684562e-01,-8.183916477613559226e-03,1.878336013631654727e-02,1.943898807565876824e-02,1.227301657199859619e-01
7.989151504288322103e-01,8.375085434522607786e-01,4.845689459133148969e-01,-2.681210596106084129e-02,3.360986303052470453e-02,1.034908706495906439e-01,3.874419927597045898e-01
5.696164295836367852e-01,7.658879549133223996e-01,7.734935032907374053e-01,2.210474834537506234e-02,-1.745979731959381581e-02,1.665861481843489839e-02,2.080529481172561646e-01
7.460620229986223428e-01,9.406740725324287400e-01,6.147336007405972413e-01,1.343043188509356889e-01,-3.913219651078946315e-01,3.295779584021629738e-02,7.729484438896179199e-01
7.995119073680654331e-01,7.769844139223522905e-01,5.002464007616206354e-01,3.170106945578781733e-04,-1.933249799082154691e-02,5.292498298918601324e-02,3.047135174274444580e-01
8.204852348531332940e-01,7.143940474486599745e-01,7.069857072144775101e-01,-8.269585624629395559e-02,6.873379929148354384e-02,1.413609502760206915e-01,3.267013132572174072e-01
8.567664433353002762e-01,6.764849224614765122e-01,3.780776823415710752e-01,-3.043331407414783581e-03,1.169944269735574867e-02,2.762209313460923243e-01,6.361430883407592773e-01
8.998526483736378756e-01,9.315190683847087705e-01,3.985479755860963924e-01,5.392749395952462291e-03,1.760717494858995980e-01,2.430861486313121156e-01,7.338578104972839355e-01
9.612970777685967416e-01,7.603124294271391692e-01,4.328416527804321290e-01,-1.637721527414480183e-01,9.862363999197817921e-02,2.873538876991501567e-01,7.555190920829772949e-01
7.929466527690244293e-01,6.729993661571752606e-01,6.571582582593374910e-01,3.918414544081104400e-02,-5.858234037898406299e-02,1.344321661020712877e-01,2.926709353923797607e-01
7.651618343230320862e-01,6.415395800697605289e-01,6.122610869655843446e-01,9.036327646615165132e-02,-8.122844730171861760e-02,1.544535585763860963e-01,3.682629764080047607e-01
3.995922598908563383e-01,8.360785506646357668e-01,1.050584808138650406e+00,2.676789176361184519e-01,-5.095372937094733851e-02,1.756085588859990221e-01,8.033817410469055176e-01
7.310079330300891520e-01,7.239636602044792202e-01,7.035692979537208069e-01,1.369116226812456920e-02,-1.218941050903845670e-02,1.348357017045568630e-02,4.650509729981422424e-02
5.847233767783005520e-01,6.623040449741128821e-01,7.432986646178814105e-01,1.272390498248926194e-01,-9.243788334790117855e-02,6.929054090951392020e-02,3.278256356716156006e-01
7.031823007234045964e-01,6.598844591227630563e-01,7.546345013088084919e-01,-1.565353131648255375e-02,-1.133411849466189544e-02,-6.210752988322326695e-03,8.936446160078048706e-02
6.443467940230063196e-01,5.589636995854532220e-01,1.071199728422534303e+00,3.035875236888601614e-01,-7.256178551997900794e-02,8.269490264098725008e-02,7.339937686920166016e-01
6.702975668913456753e-01,7.197152776221065196e-01,7.524128411106946190e-01,3.965746465710653229e-02,-3.184596934703086413e-02,3.735337328156754233e-02,1.306657642126083374e-01
7.038970968494775438e-01,6.953972378215975692e-01,7.463511696550911845e-01,-5.199723039238939200e-03,-7.630764662275134856e-03,-3.300337434217602822e-03,5.023866146802902222e-02
6.026394772890445450e-01,7.395745663515812529e-01,7.884320298891893675e-01,-2.701759275376026948e-02,-2.571836610660892166e-03,-1.284018414936738059e-02,1.747365891933441162e-01
5.358383128048904709e-01,6.550189405025159672e-01,8.353141426670277481e-01,2.570574325300102880e-01,-1.002766932193632082e-01,6.920030593478718184e-02,5.576431751251220703e-01
8.335314270919448321e-01,8.629805498618080550e-01,5.916013349159754409e-01,4.352228983988754019e-02,-1.364819151991961965e-01,5.370050149994721328e-02,3.697807192802429199e-01
7.815983037926863553e-01,7.599416765371905802e-01,6.507514170275714438e-01,1.907331532383081674e-02,-3.348468466199894938e-02,4.177983111064478144e-02,1.563583165407180786e-01
9.083168115316879732e-01,8.220482448617466575e-01,6.081846554356162837e-01,7.935344260463053634e-02,-2.900410722867299840e-01,3.126669589782209435e-01,7.976050972938537598e-01
7.313669850875916811e-01,3.791589634627311467e-01,7.480035459066105563e-01,2.182640054546766961e-01,-1.086808644095992454e-01,2.349115151734088580e-01,6.885413527488708496e-01
8.541255809246054431e-01,5.968708684479545612e-01,7.883054875612710566e-01,3.555464749751320874e-01,-1.181406227666580988e-01,1.854386275551639929e-01,7.601668834686279297e-01
6.906266309693865901e-01,7.673976689571229137e-01,6.953630471013552139e-01,8.888932876837850805e-04,-2.799318933597444003e-03,-1.424650354792224424e-03,7.473000884056091309e-02
7.015234940257085716e-01,7.643562699901395030e-01,7.009488531183131199e-01,-8.339036068670591106e-03,-1.340182295342022371e-02,-9.327816885787269113e-03,7.066020369529724121e-02
6.458527242793116185e-01,7.542793004003548463e-01,6.970515939207069245e-01,-5.813628915425066851e-03,-2.012493382862284158e-02,-9.923025371003172876e-03,1.021673232316970825e-01
6.456954633197473647e-01,7.700324787482998312e-01,7.014255938602244056e-01,-3.277202125173158623e-03,-2.092060587734954555e-02,-4.057169825802288757e-03,1.141527071595191956e-01
6.815528550610591152e-01,7.588494681408529674e-01,6.862659629405410966e-01,-4.149383632155291199e-03,-9.524511622100341121e-03,-5.228354478105118157e-03,7.770766317844390869e-02
6.439419841810690714e-01,7.841505759396020236e-01,7.032410344013916292e-01,-4.016805143803650331e-04,-2.004298179084731957e-02,-4.297095815757573378e-03,1.269709914922714233e-01
7.020059725135866513e-01,6.515082049936016251e-01,7.623277909063256308e-01,-1.762009780919756435e-02,-3.995742902428285788e-03,-1.934887504926759410e-03,1.011207029223442078e-01
5.701659011920745534e-01,7.831896875162296379e-01,7.975059830815095507e-01,1.800956763570870506e-02,-2.169680228568301658e-03,2.972985022651690457e-03,2.228171229362487793e-01
5.093248015627926950e-01,7.258136185585590816e-01,7.986195216387259599e-01,1.217970282901201240e-01,1.193527072243515293e-02,-1.566473645635517789e-03,3.359583914279937744e-01
5.035844865863524644e-01,8.476397972268541192e-01,7.817098270762579126e-01,7.050510750570608554e-02,-7.792714799249730873e-02,-5.163634921423711048e-03,3.650316298007965088e-01
6.467233307515773966e-01,7.992299007601153527e-01,7.531843646222408095e-01,1.392142744725420253e-02,-4.911150900203516828e-02,3.909386783396999986e-03,1.619237065315246582e-01
5.538721880978116907e-01,7.771831164862785801e-01,8.021140167564807522e-01,3.021994658727844910e-02,-1.047423924905762152e-02,7.221665266175684517e-04,2.431606352329254150e-01
5.708357314343193156e-01,7.798503105296192839e-01,7.710408111155455657e-01,1.710007879532478292e-02,-8.816269502168454231e-03,1.213454496788843838e-02,2.085079103708267212e-01
6.510922112977828302e-01,6.981991615964723286e-01,6.475436670381251592e-01,1.183100499209137346e-01,-1.350063769884837506e-01,1.188844652490187309e-01,3.761267662048339844e-01
6.749555565112591582e-01,7.475772143856760366e-01,7.444917858302876335e-01,2.650858140690527318e-02,-2.622127958766912181e-02,1.884009867922383646e-02,1.014642044901847839e-01
7.024858574000354405e-01,6.993713511642872804e-01,7.467907287306799757e-01,-1.760117281770657649e-03,-4.812918086204306944e-03,-2.027565488546248865e-03,4.692258685827255249e-02
5.591658458856951786e-01,7.978850102477333950e-01,7.817208598951097542e-01,-8.955560198555190731e-04,2.410972474632757170e-02,5.488214193838038442e-04,2.348117828369140625e-01
5.462336862244437929e-01,7.969168180276026137e-01,8.122785887826380335e-01,8.097693839397809498e-03,1.121201223884438387e-02,-9.819311534097039003e-04,2.598185837268829346e-01
5.363607926593352282e-01,8.118274761857444677e-01,8.117680710905028629e-01,1.069393737011146289e-02,8.123634965521570050e-03,1.039789866510791426e-04,2.764174938201904297e-01
4.580639298424443173e-01,8.037221741378454132e-01,7.996218479736167950e-01,4.580147307671869443e-03,1.586072128813502402e-02,-2.657795888106452217e-03,3.448447883129119873e-01
5.678949861583502123e-01,8.149673705271216484e-01,8.273075018909781253e-01,-2.048168262636837836e-02,4.371182237359125776e-03,2.597184110385122695e-03,2.560898363590240479e-01
3.188480004544832491e-01,8.563287353137694069e-01,9.155993744527155531e-01,1.562787570171618734e-01,1.147973484384034598e-01,-3.316597110306685608e-02,6.635960936546325684e-01
5.617807256113214187e-01,8.132661492633146416e-01,7.820789331361720498e-01,4.264839688542554005e-03,1.887090271700212971e-02,-4.545476584674132577e-03,2.399152219295501709e-01
4.643598264770419370e-01,8.271372472157255684e-01,8.178960509776278531e-01,-2.762966999393958595e-02,6.264918383692556422e-03,-1.101001084712583018e-02,3.620938658714294434e-01
7.234949369361429738e-01,7.056890772687406388e-01,7.203436694103559912e-01,1.680290567238771141e-02,-1.662491751944049703e-02,2.071865839864513517e-02,5.687559396028518677e-02
7.168763721917971177e-01,7.145207802062377711e-01,7.121382982597694866e-01,3.261187336522638341e-03,-2.483841642870019458e-03,6.207376918393886240e-04,8.270886726677417755e-03
7.040451136058141213e-01,7.039722839506238339e-01,7.212876074326655118e-01,1.074736352538780901e-02,-1.140209348258757784e-02,1.108157115424210880e-02,3.746343404054641724e-02
7.146399369783266176e-01,7.113278346153275589e-01,7.221501493983597531e-01,-8.080817553089352867e-04,-3.853890279152772085e-03,1.105996015324745745e-03,1.193457096815109253e-02
7.113350481765859934e-01,7.208566918041358074e-01,7.053547830205524338e-01,6.201201638513090426e-03,-2.353853215155923394e-03,3.756926261003429215e-03,1.891288720071315765e-02
7.017131487836456571e-01,7.348172834248720697e-01,6.977550976997938248e-01,6.973005894050288665e-03,-6.163326022554738680e-03,2.893703332038186950e-03,3.908358514308929443e-02
7.484295510940054408e-01,6.738122311873238068e-01,7.480189629312725685e-01,-2.808654020229455622e-02,2.298326992038235428e-02,3.120387708935653051e-02,1.113982722163200378e-01
7.920061159400282325e-01,6.104273431166117314e-01,7.557235759163347666e-01,-3.153586571460899324e-02,2.855501126296197331e-02,7.444557914273007559e-02,2.230588793754577637e-01
6.922592747393725432e-01,7.330154788707133884e-01,7.141057322271628927e-01,-1.835231065985498677e-02,2.265442919769642197e-02,2.360781819111740579e-02,7.395969331264495850e-02
9.396645814390945928e-01,7.938559405718002004e-01,6.440277248174086644e-01,-3.906554786726056279e-03,3.474978900461272308e-02,1.289615168870115736e-01,3.451326489448547363e-01
8.836696387581960410e-01,3.612673765839358730e-01,7.331100912030430461e-01,3.352114556686548036e-02,-1.357606631878562238e-02,2.532457130028271108e-01,6.428403854370117188e-01
7.753667290675901880e-01,6.270796577487751655e-01,6.765977221536261244e-01,-5.470317259809061132e-03,7.766389493211623730e-03,6.832327397809778713e-02,1.771246343851089478e-01
8.150401091457565306e-01,7.146972535368993906e-01,6.955849804606383247e-01,-1.915048747209900648e-02,2.834283141091497454e-02,7.145552080490062685e-02,1.765774488449096680e-01
8.193554394346937997e-01,7.457397283146047773e-01,5.964230740343997583e-01,-1.121716253750918400e-02,-3.978915143881687350e-03,5.720755206347284683e-02,2.212461680173873901e-01
7.854163896193362415e-01,6.209192505470106926e-01,7.426397320886083397e-01,-3.632738495072017175e-03,1.178250208501970854e-02,2.195393020383553870e-02,1.541249901056289673e-01
7.821511217209159428e-01,6.498481404622514779e-01,7.022572641156480389e-01,1.851426850869019106e-03,2.090534559054339075e-03,1.901538340623229462e-02,1.201043725013732910e-01
1.021321652056256024e+00,4.742243748683593330e-01,7.027610164225519540e-01,-1.478375023620624173e-01,3.686792230040031315e-02,2.409525658521040614e-01,6.858080029487609863e-01
7.860531101426438960e-01,6.294471339944454069e-01,7.395143425392732839e-01,-6.991080571692684723e-03,1.228905899429767225e-02,5.639237389098532283e-02,1.718808561563491821e-01
7.361711628364844273e-01,7.705713366210225068e-01,5.835138045016718955e-01,-8.746038262518174983e-03,-3.608013267939042673e-02,1.071862264445060716e-03,1.840579658746719360e-01
7.766913977277916104e-01,7.723385937020545988e-01,5.686384467110935370e-01,-1.185231441470182071e-02,-3.895099988890782933e-02,-4.274647714679615657e-02,2.299002408981323242e-01
7.876735128700153021e-01,7.875470863755913431e-01,5.680194307314665458e-01,-1.402000239107075536e-03,-2.371006436775062020e-03,1.081090630542294942e-02,2.204394489526748657e-01
9.680468054727233707e-01,9.901891674535296950e-01,3.749501384539476456e-01,-7.957628851017539695e-02,1.641662568950579687e-02,-2.821947984087475603e-01,7.899961471557617188e-01
7.965653510639558732e-01,7.484586779634778697e-01,6.289578364804290223e-01,-1.849260133664753234e-03,-9.672940965884288880e-03,-5.359426327484643343e-02,1.767808943986892700e-01
7.473771311205472667e-01,7.408907250517203780e-01,6.455989175717509188e-01,-1.606386316975268527e-02,-1.897488154621407297e-02,-1.696190562027949031e-02,1.116158738732337952e-01
9.236326576046800518e-01,8.509343848815874578e-01,4.596964352565227618e-01,-7.179663436703604025e-03,-3.634096342016882551e-03,-1.848603854338807528e-01,5.380602478981018066e-01
7.680147347220388498e-01,8.358048645587272674e-01,6.377208278439996381e-01,-6.862533546782206839e-02,-8.868790560697305259e-02,-1.071312973005064118e-01,3.202513456344604492e-01
8.473340738508786663e-01,8.360203139665183247e-01,3.049450410178079496e-01,5.716200282226916590e-02,-1.191800757839275998e-01,9.594982161784840202e-02,6.068036556243896484e-01
6.417653961458126277e-01,6.843737602056733094e-01,8.203984285991605674e-01,-8.254416226993604999e-02,-1.002236010458790356e-02,2.521763338258524445e-02,2.208250910043716431e-01
5.852731837627578315e-01,7.922199935054671238e-01,7.714334319077951196e-01,-2.115336875679417819e-02,6.821992878058226462e-02,6.280019897388374080e-03,2.331950664520263672e-01
5.815945212652529062e-01,7.681467139631464880e-01,6.589039476647983173e-01,-2.125301343524621522e-01,2.427201918152730731e-01,1.685982234706222271e-01,6.510597467422485352e-01
6.685207010974451025e-01,7.874851659663528736e-01,6.716410921016948699e-01,-1.137605999119819904e-02,4.309541838564043964e-02,2.355703731998422951e-02,1.463412344455718994e-01
6.199234815206826621e-01,7.402781252350907337e-01,7.738624871847427089e-01,-2.878662410857803569e-02,1.743461792379502606e-02,1.642389001994361622e-02,1.544743478298187256e-01
5.989033756222333915e-01,7.809361549047144635e-01,7.255228222042183761e-01,-1.524446030565406373e-03,2.969837799847796500e-02,3.375530930202074939e-03,1.697252541780471802e-01
6.969254882896789294e-01,6.920854827942353182e-01,7.622028806612743956e-01,-2.273808951204638051e-03,-3.448651171052216722e-03,-1.358972568402029178e-03,6.824395060539245605e-02
7.841179846223758076e-01,6.682279743029307939e-01,6.844833705376685007e-01,-2.580236027840392132e-02,2.197659811238479241e-02,7.780432101478614026e-02,1.828048974275588989e-01
6.545562279809891137e-01,8.382779191200266933e-01,8.571032323003038300e-01,-1.282844506720548505e-01,1.042871211263181608e-01,5.065242889806946536e-02,3.567377030849456787e-01
6.612066226908130950e-01,7.570462438258300786e-01,7.178542532502774076e-01,-2.450944120059367435e-03,2.410044966907221378e-02,1.353712976395832907e-02,9.630876034498214722e-02
6.604504447220493901e-01,7.838672562302053670e-01,7.106900746673598945e-01,-6.891220303598095433e-03,1.817104883374300039e-02,8.566130650172001232e-03,1.136154830455780029e-01
6.459757283962291874e-01,7.492460401719481800e-01,7.426155154437764638e-01,-1.510573115686840613e-02,1.397907084522294341e-02,2.279424414189528889e-02,1.133733242750167847e-01
7.383144781634433107e-01,8.308248728534611827e-01,6.440931383046056835e-01,-6.559846824514859419e-03,6.503237685579937866e-02,-1.280102589001138810e-02,1.986469477415084839e-01
7.312892985930671275e-01,7.100625244189011642e-01,7.156491235246353888e-01,-8.800214848501528367e-03,8.728392568953351194e-03,2.771637669974116522e-03,2.910553850233554840e-02
7.169159424439260908e-01,7.108256473388890884e-01,7.173663043307817455e-01,-1.646575710714267334e-03,2.993670869982277116e-03,9.936623845364369548e-04,8.832852356135845184e-03
7.242557005092993272e-01,7.146345115504927348e-01,7.117064497648860621e-01,-1.267478824986559803e-03,2.181920979246262157e-03,1.496275347021843805e-03,1.245514489710330963e-02
7.234738633809195685e-01,7.181400106876825173e-01,6.991319149111377973e-01,-8.886317761000531168e-03,3.300982164006372333e-03,3.014929710199485986e-03,2.807138860225677490e-02
7.256248402069489511e-01,7.132383105778595800e-01,7.163064585619978164e-01,-6.642011071943713756e-03,6.081582289072730470e-03,6.922060236038372720e-03,2.262490987777709961e-02
7.134039014921342847e-01,7.212195504490782616e-01,7.108279186645798386e-01,-6.809536441630928590e-03,4.193948059066256520e-03,2.792009631786418131e-03,1.741022616624832153e-02
7.117396207351565085e-01,7.250159351275365927e-01,7.154304400916864370e-01,-1.878950700640855554e-03,8.795269672728227598e-04,1.047079914878124669e-03,1.253329124301671982e-02
7.123308574007403138e-01,7.173200138409568938e-01,7.176885170375719714e-01,-4.399840204033235100e-03,3.909736136055139838e-03,3.992092601706934314e-03,1.336451619863510132e-02
7.341667039659756089e-01,6.502912227964873226e-01,7.669554194519305756e-01,9.376282563475940926e-03,1.040214668670871000e-02,-5.752154430002332126e-03,1.074615493416786194e-01
7.755209201650027362e-01,7.116574887256339466e-01,6.383140325061837927e-01,1.479165302012869394e-02,1.529138098033269721e-02,-4.565291467592485358e-02,1.474862396717071533e-01
6.899990965850892888e-01,6.305070599725779434e-01,8.112066811197080618e-01,1.196712368678520128e-01,1.701100919707254633e-02,-4.275673306537284939e-03,2.633022069931030273e-01
7.364285746687839751e-01,6.062510439924905237e-01,7.264265303640250471e-01,3.706695345906218381e-02,2.416065518624408229e-02,-3.951736065495518868e-02,1.621793508529663086e-01
7.831378118482389405e-01,4.241861209846099490e-01,9.144490973210350759e-01,4.384805000932840424e-01,-2.740735625677192047e-02,-1.396234387261152156e-02,8.791229724884033203e-01
4.085331601444571747e-01,6.596574976215390240e-01,7.637867705603657020e-01,2.619869262142058286e-01,1.686312664485428436e-01,-1.228313193186884589e-01,6.607112288475036621e-01
7.549625634002459229e-01,7.035175143257197394e-01,6.941424925960933967e-01,5.093756894390201288e-03,-1.886690745148335508e-03,1.256441346477960106e-03,5.753291398286819458e-02
7.519233211485988333e-01,6.958158386581808630e-01,6.921986058976101752e-01,1.589315686919784724e-03,-2.029168061909557806e-03,5.917339513773452794e-04,5.818134173750877380e-02
7.623987514275509803e-01,6.927414172818219251e-01,6.948540860440995948e-01,2.096273672650290996e-03,-2.987647550601407308e-03,1.888984978573179973e-03,6.899355351924896240e-02
7.392565885418924676e-01,6.775530620705124685e-01,7.151783712422721262e-01,7.084422076494491238e-03,-1.605750983892966638e-02,6.620681806071206099e-03,6.290447711944580078e-02
7.560519691889976412e-01,6.661289105805399124e-01,7.086188593060505081e-01,5.561918357232942776e-03,-1.306291769183170332e-02,1.429774538415509028e-02,8.537404239177703857e-02
6.954539326551334444e-01,6.936840891583290203e-01,7.521010401566177173e-01,-9.980051744669733629e-04,-1.562579792205138650e-03,-2.050495244038288110e-03,5.775127932429313660e-02
7.619282708049536224e-01,6.837741889211719215e-01,6.960707370480898604e-01,3.341110538818116860e-03,-7.185914023228858784e-03,1.025916979144822841e-02,7.617343962192535400e-02
7.724794500087547311e-01,6.757795865756001108e-01,7.095009397267205697e-01,-4.666356903286874772e-05,1.784956599437481184e-04,5.944859603655845183e-03,8.563450723886489868e-02
7.122587922747826150e-01,6.751117884661359536e-01,7.334539246638960286e-01,1.039399990706529886e-02,-1.390881042481213054e-02,6.389450127727002229e-03,6.036070734262466431e-02
7.242621479362688630e-01,6.728681057366163731e-01,7.806323805680192018e-01,6.205269976093814865e-02,-1.122385114719144650e-02,3.697539112638072167e-02,1.573121696710586548e-01
7.015114939286422047e-01,6.951303429844288839e-01,7.357361180694204084e-01,7.682357000131262090e-03,-8.036813985763941251e-03,3.522983771535474762e-03,4.287770763039588928e-02
6.976107126412480763e-01,7.112658959327844421e-01,7.214264975404109936e-01,3.508005340540063834e-03,-4.218309784112560419e-03,7.026001555869634645e-03,2.582327462732791901e-02
7.124961184942597558e-01,7.091681121940566213e-01,7.327185291076776519e-01,5.289047336386363922e-03,-6.305473502757809150e-03,7.445118558811366673e-03,2.927132137119770050e-02
7.251147444651681040e-01,7.961828294026525032e-01,6.370026363851293283e-01,4.388343317240003816e-02,-1.596676978195286922e-01,1.535486730414466205e-02,3.194405734539031982e-01
7.123050982104482953e-01,7.124088633058176523e-01,7.124568203733510074e-01,5.339699275711872438e-03,-6.286330635030707402e-03,4.991709807490573095e-03,1.669911853969097137e-02
7.537674485543210956e-01,6.965124009486722834e-01,6.867251285484617940e-01,7.654722050951193874e-03,-3.606376890123868389e-03,7.008967176058903195e-03,6.554754823446273804e-02
7.056419701919993681e-01,7.167835382246718900e-01,7.125755905199764317e-01,1.166332607250541911e-03,-3.065644995421363140e-03,3.352973783937813514e-03,1.268704328685998917e-02
7.119821146026820147e-01,7.144199458938422787e-01,7.244818052805283015e-01,4.801422572209314288e-03,-6.801156553869918721e-03,6.483477661907142454e-03,2.158118970692157745e-02
8.393058342550210327e-01,6.246867727186876662e-01,7.664152092947619233e-01,5.043458075066531779e-03,-3.132884872822910144e-02,-1.422548829223816425e-01,3.153741061687469482e-01
7.665223499570720245e-01,6.111090825056910703e-01,7.282827676511721693e-01,-1.595330469747947150e-02,-1.559873510545955674e-02,-3.000116149736941143e-02,1.544872373342514038e-01
8.073631027592846898e-01,6.514047841484460477e-01,6.976375179732839937e-01,2.564403456048643462e-02,7.453660224742856243e-03,-7.403686904931337798e-02,1.945095807313919067e-01
7.833391172606163355e-01,6.495431078415914161e-01,7.080346225596739762e-01,1.186814159677906542e-03,3.191537299482461875e-04,-1.932310143943573311e-02,1.209188848733901978e-01
7.824625948338966852e-01,6.491283397076209605e-01,7.365422174156708301e-01,-7.472495641134595072e-03,-7.734563759525891688e-03,-1.111426247555971636e-02,1.203391477465629578e-01
7.899447297600167284e-01,5.618611452008687168e-01,7.844960385531107860e-01,4.873268343862351831e-03,5.854765033373935182e-03,-2.079884643713931364e-02,2.286501973867416382e-01
7.742465694136229093e-01,7.894179767425518746e-01,6.106055557554744828e-01,5.960232428681372721e-03,5.467400124719380694e-02,-3.489052824098379246e-02,2.054691612720489502e-01
6.800299167835018865e-01,7.369974164224450952e-01,7.272173533039787419e-01,1.840103016181267662e-02,3.019957375413228132e-02,-1.260172400336674429e-02,8.373796194791793823e-02
6.774800764890788196e-01,7.856793362169656181e-01,7.129494174851259691e-01,-3.650319384761800939e-03,3.121485719699183467e-02,4.569171207491829617e-03,1.102411225438117981e-01
7.302868524107378745e-01,7.781561531207210614e-01,6.171043135436689031e-01,1.228336973707713255e-02,9.023788027715997501e-03,1.375191969833686721e-04,1.456595808267593384e-01
7.398570200218383963e-01,7.820866511389349407e-01,6.699274167369461130e-01,1.616065010397874438e-02,2.585585719314380249e-02,-7.870067169337642554e-03,1.122563257813453674e-01
6.185337831194162028e-01,7.887862952135099581e-01,7.495772780889331521e-01,1.118622099761404538e-02,2.577963599213349208e-02,-2.611137900427924416e-03,1.619797796010971069e-01
7.956976819420095159e-01,9.013057598797979963e-01,5.684673736201286687e-01,-3.099543191166354364e-02,1.674936207310338820e-01,4.031011302015505976e-02,4.227330684661865234e-01
6.626809961287171147e-01,7.414666145857151669e-01,7.326915205003144971e-01,1.273151505187281214e-02,-8.133560236504520577e-03,1.615428584482577271e-02,8.402646332979202271e-02
6.173517432529653792e-01,7.826210210563908642e-01,7.507704736642575316e-01,-2.208068853027812112e-03,-3.044961928328681136e-02,1.105602254678171754e-02,1.619485914707183838e-01
6.345457817266101364e-01,7.806757979669853853e-01,7.311152734350708782e-01,1.685947312937766986e-03,-1.465571598238801614e-02,5.555261559827215541e-03,1.315805017948150635e-01
6.895788323596718783e-01,7.531547968423383255e-01,7.128648749348611702e-01,3.287749302055886780e-03,-4.585452634034373892e-03,1.160054794661237627e-02,6.002445891499519348e-02
6.262660941049773555e-01,7.378732397217614425e-01,8.226309164516234507e-01,1.548934765842566730e-01,-5.091252165430319720e-03,3.974324362942149164e-02,3.254103362560272217e-01
7.421621735101983086e-01,7.498369222886202001e-01,6.622967714314326182e-01,2.122308206999017066e-02,-3.103680896862621649e-02,3.370223539744456737e-02,1.212392747402191162e-01
5.987344467015881522e-01,6.638580869364991699e-01,1.073620747099256700e+00,-4.585983008459879606e-01,-1.013494401470211304e-01,1.051088700205158183e-01,9.453717470169067383e-01
6.830744062376921111e-01,7.146760713586471914e-01,9.066025411643234833e-01,-2.270353709359217154e-01,-2.219547827364061476e-03,-2.969399968388694577e-02,4.485474228858947754e-01
9.000735035608792289e-01,6.876714643179291375e-01,9.619019624442139982e-01,-3.338378166107098255e-01,1.972354321090276086e-01,2.385864259630333106e-01,8.269757032394409180e-01
7.282702200062088904e-01,4.487298403804232949e-01,1.126442913940406854e+00,-3.671138389798889179e-01,1.037567734815886406e-01,-8.489617194850074960e-03,8.859006762504577637e-01
5.745037950223090828e-01,5.193636785358811681e-01,9.016055824722636336e-01,-3.641664360488580110e-01,-3.779326250886465982e-02,-3.082831464013032277e-02,7.301096916198730469e-01
3.062270730856055945e-01,6.665164363643829581e-01,9.065936801725393845e-01,-3.338120696414684785e-01,4.731712741533319194e-02,3.044679178042857676e-02,7.859593033790588379e-01
6.914577680984702601e-01,5.749174488475204958e-01,9.084338729212946273e-01,-1.727173790197465975e-01,9.363954455984993541e-03,5.661311036367977501e-02,4.304867088794708252e-01
6.221787926473917318e-01,7.824484083987222061e-01,7.479151067846872003e-01,1.270495655969491357e-02,5.494625566044064602e-02,-1.793541604937034378e-02,1.784679740667343140e-01
5.688846954283980351e-01,7.528804157214045167e-01,7.418315984702624766e-01,6.009427779906476030e-02,7.966360174177415654e-02,-2.790770188637920965e-02,2.532842755317687988e-01
7.192180956799635316e-01,7.576573839092350937e-01,6.611930503370850865e-01,-1.309440720147595806e-02,-1.590650213879994321e-02,-4.335226659514169155e-03,9.167741984128952026e-02
7.068551431314303857e-01,7.709825026658779779e-01,6.747750931868056190e-01,-2.553948944602100427e-03,-6.349245851392178869e-03,-5.065950537361541819e-04,8.567341417074203491e-02
7.136841168621990139e-01,7.594412173242052200e-01,6.846992540291412244e-01,-1.085239614859668730e-02,-7.530905778820528099e-03,-7.117561261932596819e-03,7.025342434644699097e-02
7.636273694012776225e-01,5.576285236641113086e-01,8.688193804861646941e-01,-1.703391659358386989e-01,1.869364971687830987e-02,2.270859371904316790e-02,4.059704542160034180e-01
8.054255859446484145e-01,4.367308002499563635e-01,7.982264166922631299e-01,-2.033628385652927473e-02,1.055926933749632909e-02,1.864885049137478268e-02,3.687165677547454834e-01
8.343210869872237367e-01,4.939529363601635747e-01,9.061373658719674706e-01,-4.322139311448335020e-03,-1.803804421630340535e-02,-2.567338633345311524e-02,3.853071033954620361e-01
7.625702091428788743e-01,4.033088447086124462e-01,8.471438333638685592e-01,-2.293107580162047909e-01,5.509270654999350730e-02,5.753367040788884279e-02,5.859963297843933105e-01
7.963343692226667603e-01,5.770891291352397978e-01,7.804098469863974818e-01,-2.636449019507710462e-02,3.228054295860630866e-03,4.850665957527906108e-02,2.323916852474212646e-01
8.274120435773633098e-01,5.796638947311641976e-01,8.482250619057206675e-01,-3.783963373373266936e-02,1.015438550229978004e-02,6.688084328212443030e-02,2.915350794792175293e-01
6.965744997087657264e-01,7.681931883149576423e-01,6.195854546225800785e-01,1.966682441669102485e-02,6.576601886949265396e-02,-1.986545877093789936e-02,1.785781979560852051e-01
1.058305841014690163e+00,2.348202173297764261e-01,8.966055039525409054e-01,-1.442768427352227045e-01,-2.020981257401460382e-02,-8.612686679537049500e-03,7.968769669532775879e-01
7.773388673071569555e-01,3.777229963477712893e-01,7.894256906703110976e-01,-1.307495859833931184e-01,9.183559779801911405e-02,1.641129037847148253e-01,5.674996376037597656e-01
6.310613240287465953e-01,6.695239646110721088e-01,5.229964637667022798e-01,2.154367047797556278e-01,2.560790761450734143e-01,-2.445235569236089701e-01,7.298339009284973145e-01
4.356606404216460393e-01,9.169159020935282456e-01,8.093167700306531653e-01,1.578730287162011803e-01,3.667471639905837688e-01,-1.752835746526117122e-02,8.189049959182739258e-01
6.879495252731500088e-01,7.309045092680279687e-01,7.309266585746966305e-01,6.111503644322861112e-02,2.893430376276922775e-02,-4.162171685415275851e-02,1.440829932689666748e-01
6.482137003972125999e-01,6.928002944719228173e-01,7.574479861071319320e-01,4.803996890498414551e-02,2.059162331872158025e-02,-2.337148366866972568e-02,1.374188810586929321e-01
6.725884495222567150e-01,7.816691020536358225e-01,8.588792162110475692e-01,1.434712354248875721e-01,7.364373993912472216e-02,-6.830806302068447022e-02,3.439509868621826172e-01
7.005680252558484922e-01,7.450280318959210391e-01,7.540894037563329322e-01,2.084000821854413085e-02,1.617447718629025713e-02,-1.525148435195654989e-02,7.243791222572326660e-02
5.816765145708470142e-01,9.073726183836091641e-01,8.929987506977613565e-01,8.192243978854736597e-02,7.280963548067820312e-02,5.080240921793993539e-04,3.710005581378936768e-01
7.207630416913373139e-01,7.171447671059127948e-01,7.149991615428856750e-01,-4.411430922206918508e-03,4.659754959174949862e-03,5.413559694589554355e-03,1.539158634841442108e-02
7.377122419029186196e-01,7.020531490843435751e-01,7.030324762004624972e-01,-4.935423287225091347e-03,1.796390407869939568e-03,2.982899837125360578e-03,3.670227900147438049e-02
7.387467668442815327e-01,7.035385758507450848e-01,7.097699290333736588e-01,-1.923330950234358218e-03,1.871159474657360135e-03,3.223457031867618672e-03,3.334404155611991882e-02
7.335047549194209093e-01,7.082835180193506330e-01,7.096995223634149363e-01,-1.767681822367738473e-03,4.286202129484481538e-03,8.212982965564830746e-04,2.586338669061660767e-02
7.375202141406219658e-01,7.062867468048225073e-01,6.976669519069637060e-01,-6.967295188919352469e-03,3.766741235802451016e-03,3.466384366876568927e-03,3.928483650088310242e-02
7.234566440146781297e-01,7.183646068463056533e-01,6.980718076419838436e-01,-1.007247879748760823e-02,3.014074983630915701e-03,2.920615293762696997e-03,2.997109666466712952e-02
7.604572635078066245e-01,6.956362296423983516e-01,6.924979324357640742e-01,-2.824986290801974331e-03,-3.053145630993578299e-04,1.279817832243768409e-03,6.666466593742370605e-02
7.486011702432302517e-01,6.991147644419525298e-01,6.971970577288483240e-01,-9.377879005236990084e-03,7.516044333848654821e-03,1.162363231072220150e-02,5.819033831357955933e-02
7.399811737932564526e-01,6.668162166082729492e-01,7.117344945379920906e-01,-1.088970906413437058e-02,1.626564408293362796e-02,1.288482890019721286e-02,7.570895552635192871e-02
7.335821544523113413e-01,6.796438047682943351e-01,7.142166162090209935e-01,-5.815665408881963254e-03,1.472470577483603327e-02,9.356359506043465668e-03,5.704704672098159790e-02
7.298829991943963647e-01,7.069497329860838786e-01,7.083611683836805728e-01,-2.190091732833851241e-03,4.403356584169294298e-03,9.255013630089903949e-04,2.388903126120567322e-02
7.427847935171091320e-01,6.978880423742609418e-01,6.893367780741794792e-01,-8.353674073427340765e-03,2.377518893802653323e-03,6.870231588924342533e-03,5.329799279570579529e-02
7.266872446915982886e-01,7.181889836150721074e-01,6.937263642974669242e-01,-1.077137248881478680e-02,1.772905381080674275e-02,1.117599180446808907e-02,5.044069513678550720e-02
6.131885456769348153e-01,7.535700867963628369e-01,6.703432427294269136e-01,-7.902755004383354986e-02,1.168137757453310277e-01,5.620392402989200092e-02,2.899987101554870605e-01
7.202005844904432186e-01,6.833023459336210470e-01,7.128049723879742450e-01,-7.847803221134520835e-03,1.733145446584080304e-02,1.190354581784450021e-02,5.151965841650962830e-02
7.386649075323591385e-01,7.093187601536118381e-01,7.031145968189492779e-01,-1.970999350983783892e-03,1.779934606882134117e-03,2.637261359627756947e-03,3.352284058928489685e-02
8.218194736512711707e-01,8.148051208414053281e-01,5.558907986649330724e-01,2.768782423198895212e-03,1.500552487159112665e-02,4.116041340309599264e-04,2.638199031352996826e-01
7.849111635576592194e-01,7.818550975168155892e-01,5.947621994206560014e-01,2.580755891051205592e-02,7.236214042117349032e-02,-3.324287516328442577e-02,2.379223704338073730e-01
7.740496805878045450e-01,7.756263283714592838e-01,5.519119754985822857e-01,2.146762953614309716e-02,3.892894035620644150e-02,-5.009221627754625872e-02,2.513056695461273193e-01
8.180786085160364207e-01,7.955356441182166449e-01,5.504924519019807061e-01,3.535238144372011317e-03,1.527588798492969177e-02,-2.790692723131287054e-03,2.585329115390777588e-01
7.823777663308369990e-01,7.907465262084378832e-01,5.413400627827514855e-01,1.419529224743152837e-02,4.570827852172433536e-02,-2.897823093995370407e-03,2.590054869651794434e-01
7.912584582388099141e-01,7.727311309414978124e-01,5.159551047019546033e-01,1.164400921245158614e-03,9.739264773477933693e-03,-7.117381810979825363e-02,2.941433787345886230e-01
5.640944232411779780e-01,7.895599233384530402e-01,8.290073218625020335e-01,5.032705938319414346e-02,3.749198964003411932e-02,-2.020893385367873371e-02,2.726268768310546875e-01
6.851398099618560833e-01,7.700720889101249078e-01,6.903961610090432188e-01,3.404243155435440933e-03,-1.085775456988048379e-02,-4.629396906708142627e-03,8.513177931308746338e-02
7.217669937346166131e-01,7.152154813543606382e-01,7.120625742953881065e-01,3.163942559871730890e-03,-1.955388641096113440e-03,-2.442512598464073744e-04,1.073315646499395370e-02
7.229675358426200793e-01,7.120099638038972500e-01,7.075345748808938851e-01,1.324721046390743952e-03,-1.707981668360961103e-03,-1.647765622218847446e-03,1.453611161559820175e-02
7.286907587310716972e-01,7.075592846960749860e-01,7.077495307449434003e-01,1.284879232273492596e-03,-4.731126926569632213e-03,1.152495428701401110e-03,2.277374267578125000e-02
7.056856358549382646e-01,7.133439818454431203e-01,7.162632181373171925e-01,2.829534726160946780e-03,-1.402776437696200140e-03,3.433757417351532629e-03,1.244278624653816223e-02
7.015438443767382237e-01,7.667034025993829660e-01,6.922780723520300938e-01,1.032525007454999748e-02,-1.774716379283360068e-02,5.657787115830972477e-03,7.934813201427459717e-02
7.167249220370240925e-01,7.128323372991984819e-01,7.137692793197456531e-01,2.194849397041458323e-03,-3.439272811712509870e-03,6.432138299345811381e-04,7.972578518092632294e-03
9.058830177160636099e-01,7.391942606006672856e-01,5.252026954735238284e-01,3.407759992592028497e-02,-6.339847377535325068e-02,1.422693619546982480e-01,4.307100772857666016e-01
8.346780058338663100e-01,7.770869479122017864e-01,5.169406347720600925e-01,-6.361092028436284018e-02,4.098964973669470130e-02,9.408923922075664026e-02,3.601566255092620850e-01
8.039484908180809519e-01,7.465308596639284033e-01,6.072785904551536440e-01,-4.671114627402526281e-03,-3.959534909608196721e-03,3.105707872092254920e-02,1.835473626852035522e-01
8.092875718475945890e-01,7.603178368433693990e-01,6.703076712431587092e-01,-3.557821369067124678e-02,2.943010880984582578e-02,6.272223266837145816e-02,1.819497048854827881e-01
7.915871615849943144e-01,7.787963042131749170e-01,6.105639078558521282e-01,-1.957058769605320853e-02,5.106438206313988759e-02,3.492173821660834315e-02,2.079613059759140015e-01
9.675242634757500459e-01,5.916756343552460606e-01,6.052182373099763701e-01,6.900323766775562362e-02,1.148661214316607504e-01,3.611654757152919504e-01,7.625904083251953125e-01
8.571663808658140926e-01,7.862223308218996287e-01,3.349070396846091091e-01,-3.589818386021596114e-02,9.420031801455008846e-02,2.151547483039437658e-01,6.403893232345581055e-01
6.894898349829607920e-01,7.649997862467495802e-01,7.144334249872850151e-01,1.343043170961920676e-02,3.070626571975455105e-02,-1.058183213911346142e-02,9.025588631629943848e-02
7.055478621688280327e-01,7.617204666731072216e-01,6.747762971706855462e-01,2.045418491245912240e-03,6.435067487415997364e-03,-2.565845699603668158e-03,7.737765461206436157e-02
6.719835614002122037e-01,7.568240124948643066e-01,6.742147640537959896e-01,-9.564351207300009206e-03,3.192726400718268187e-02,1.057949421597731768e-02,1.033530011773109436e-01
6.245793457148909322e-01,7.873356377271741868e-01,7.483440166669524940e-01,1.347207705603265145e-02,1.848356619281927085e-02,-1.157913699758393068e-02,1.537383198738098145e-01
6.542647477560009639e-01,6.950394638418863069e-01,7.731675723015530854e-01,1.651404712028740895e-02,1.111566188741650377e-03,-4.435478334792694946e-03,1.087800487875938416e-01
6.422610854754884357e-01,7.305226512894186230e-01,7.865663990320249654e-01,2.157042612759066738e-02,1.073492606610416608e-02,-6.015566869224885614e-04,1.327409744262695312e-01
6.957860981136445577e-01,6.986513701825604050e-01,7.628689503602615885e-01,1.289669760463005126e-02,6.047851302680940996e-03,-5.887786864462726984e-03,7.091410458087921143e-02
6.881889380263120914e-01,6.931726924292548331e-01,7.654684247541960751e-01,2.578855455947689449e-03,1.279902350712216292e-04,-1.153150803952369009e-03,7.507199794054031372e-02
7.190873731240314815e-01,6.827909106656615545e-01,7.885339157134891863e-01,3.515477973173199849e-02,-1.426272252795698133e-03,2.296543045994465029e-03,1.113122627139091492e-01
7.042940255788953108e-01,6.467331070893846956e-01,7.700280138671337093e-01,1.780833188570011064e-02,-5.752375144336498158e-03,2.869611392267146493e-03,1.117734685540199280e-01
7.686281459265149607e-01,6.457066209349178187e-01,7.021781638272823756e-01,-1.167822015173112550e-03,-4.989720491553548305e-03,-2.022864550219354365e-02,1.125324219465255737e-01
7.803180003874402582e-01,6.335202351882884830e-01,7.482802285095833117e-01,-1.087336395439554224e-02,-1.577450311534817420e-02,-5.967053746090052180e-02,1.722087264060974121e-01
7.776855334249521690e-01,5.949198090875489342e-01,7.230835369373824761e-01,4.969336056653025999e-04,3.908325681892410412e-03,-3.125217273828850145e-02,1.714117079973220825e-01
7.734176589188748174e-01,6.082091837805413403e-01,7.250277133997803380e-01,-1.097716961335713955e-02,-1.156313409968801921e-02,-3.316947897231126152e-02,1.603254675865173340e-01
4.587280507695992160e-01,7.696544435675639617e-01,7.999289545823181635e-01,-1.035891137014421925e-01,2.216897190450621558e-02,1.261986841531362660e-02,3.756982684135437012e-01
6.054854591932533614e-01,7.403119345900627257e-01,7.941620643093431076e-01,-3.453156796211230561e-02,2.275509589089528238e-03,1.075841948413762059e-02,1.796621531248092651e-01
6.950677985339681619e-01,7.226496081385517245e-01,8.332214046619499381e-01,-1.181480453561059019e-01,5.775726959035525077e-02,1.016166399822133887e-01,3.144822120666503906e-01
4.488035212793514694e-01,5.530069975098363955e-01,8.949531061448003921e-01,-3.910274106313583742e-01,1.698985733373148746e-02,1.052815972415280764e-02,7.895082235336303711e-01
7.904222963685016978e-01,6.305367656538600762e-01,1.002142866995657133e+00,-3.844953135203442729e-01,3.463389518592190075e-02,1.751461319272845096e-01,8.021078705787658691e-01
9.431139283721809985e-01,4.443018087402214600e-01,9.480918152316510916e-01,-3.159861839637317371e-01,-1.902219131878976188e-03,7.544207140798221689e-02,7.536236047744750977e-01
7.029333296188130520e-01,6.980969037624140672e-01,7.530778438508506367e-01,-6.554411454592277975e-02,2.356406208714867390e-02,3.362669053840187938e-02,1.439671367406845093e-01
5.532428098841745134e-01,5.699312209238713844e-01,9.434343712545720795e-01,-3.311964409759296513e-01,1.017351957566270809e-01,1.531118082510742329e-01,7.592557668685913086e-01
6.902673810716745129e-01,7.021335584174924760e-01,7.981961649332202091e-01,8.718449493949674556e-02,3.945496779339865978e-02,-2.354482815382952579e-02,1.991112679243087769e-01
4.717109966028579238e-01,7.296822871739241378e-01,8.125150984017027733e-01,2.826689966961662970e-01,1.678280343606658731e-01,-1.403522910192194217e-01,6.914327740669250488e-01
5.093849826125915747e-01,8.671900849915707976e-01,8.338719790409580002e-01,1.128324145793737493e-02,4.488580533434045200e-02,5.838088473475532177e-03,3.517692387104034424e-01
5.487053162677806295e-01,8.124606274865379119e-01,7.951152864825460354e-01,7.316197247155231155e-03,6.594116893309489441e-03,7.610764910140918691e-04,2.560967803001403809e-01
5.483748687319666137e-01,7.944563998654703418e-01,7.442654392908124583e-01,-2.209571018630273123e-03,6.073772042373601354e-02,-5.532541854627298812e-03,2.487928271293640137e-01
5.243984150274800804e-01,7.391237864945409131e-01,7.910895755918467831e-01,8.312059998464348121e-02,-6.546361225777982962e-02,2.674818359888687588e-02,3.093473017215728760e-01
5.712525782333269797e-01,7.771567480861381050e-01,7.925012271970932609e-01,2.600860010611290643e-02,1.592939716149741752e-02,-8.946905404513724389e-03,2.209574431180953979e-01
6.091510591649859085e-01,7.715241859869857999e-01,7.981145658318510305e-01,1.026976285625583879e-02,1.285257588229768433e-02,-9.620379462083663083e-03,1.802200525999069214e-01
6.418574135711530015e-01,8.032639270609528426e-01,7.904230470407311859e-01,-4.229563859491417693e-02,3.846102775363033355e-02,1.581109990568988627e-02,1.862762421369552612e-01
6.070742682672779500e-01,7.827795293978498936e-01,8.132294419697425614e-01,-6.343623545940345332e-02,1.126560623201711547e-01,5.252599049509120571e-02,3.091493546962738037e-01
6.443206844874720396e-01,7.527490286745562864e-01,7.622601813161863360e-01,-1.587478340728364773e-02,6.583820022806090994e-03,1.750420002124522881e-02,1.211763322353363037e-01
5.811914728402736152e-01,8.134391937002033446e-01,7.919238448794281293e-01,-1.597832947640213941e-02,2.266633069336353862e-02,5.264283753090666026e-03,2.275859564542770386e-01
5.795389019830776700e-01,7.787035759281115688e-01,7.807289223762970964e-01,-2.402922186247492473e-02,2.749983742187787558e-02,1.718402815105831566e-02,2.120397388935089111e-01
5.928025210678622425e-01,8.418477922168599026e-01,7.772987752938873562e-01,4.564434566330682896e-03,7.718140445302958119e-02,9.493497133608599925e-03,2.613776624202728271e-01
5.797349823223600929e-01,7.511413228324415048e-01,7.697759257971323876e-01,-1.000359364259889167e-01,5.469688580096275510e-02,4.887266864294084051e-02,2.812185883522033691e-01
8.434677755312158798e-01,6.888611045963629609e-01,8.251735476676270720e-01,-1.180916456899677724e-01,-7.847902416155687344e-02,-1.164635199887679301e-01,3.498778641223907471e-01
9.213643115817989893e-01,4.730144844510250635e-01,7.869496677329591572e-01,5.499448679530961198e-02,1.234375807664412072e-01,-3.295251915136013787e-01,7.344142794609069824e-01
8.562485425653939553e-01,3.385206092333224448e-01,8.027393084829446135e-01,9.612877541585971089e-03,-7.555347051987158086e-04,-1.663154247416978315e-01,5.713699460029602051e-01
7.867259379189015522e-01,5.922416609498579732e-01,7.347557183708529616e-01,-1.468417507925988581e-02,-3.464962756642476355e-03,-3.885916268208564062e-02,1.887608170509338379e-01
7.873779694030396126e-01,5.222478858976633553e-01,6.953450482557269607e-01,1.612145568122822642e-02,1.038449160377348003e-02,-1.237885512370555940e-01,3.184923231601715088e-01
1.030271909420070964e+00,4.160842804783559390e-01,8.619157553409114714e-01,7.338461303996959839e-02,-6.496156856091966914e-02,-1.910560659180421672e-01,6.636950969696044922e-01
8.285842303113022389e-01,6.186971075494112071e-01,7.484172002740622220e-01,-1.452592342968363377e-02,-1.109244912309818691e-02,-6.775965594702523798e-02,2.200672179460525513e-01
7.295914903226055070e-01,1.013500655344521384e+00,3.896857434730968128e-01,5.687833913723946283e-02,3.018455188649577514e-01,2.819926804322461442e-02,7.603064179420471191e-01
6.682083139122634297e-01,7.848958934023877454e-01,6.747192626038964747e-01,8.953508000691134429e-04,3.814921970915412242e-02,-4.977786021313774199e-03,1.316870003938674927e-01
6.778539882816539963e-01,8.058777701279136174e-01,5.667935775378328822e-01,-5.649459427225995284e-02,1.528282877414625929e-01,1.090969907332349498e-01,3.978614211082458496e-01
7.814021952785568104e-01,8.666998313005180865e-01,5.002812195784629434e-01,-9.973427381620397769e-02,2.649386640574189489e-01,1.135856643861350990e-01,6.240248680114746094e-01
9.044453164353178920e-01,9.312054642292112439e-01,6.300843153637206706e-01,-2.773079252596798855e-02,3.485942876656287770e-01,1.653692011717296517e-01,7.295435667037963867e-01
6.935585247844000545e-01,6.904788921244214839e-01,7.664650454922202760e-01,-2.814271651635091506e-03,8.095827739510961249e-04,5.499726710763598722e-04,7.467264682054519653e-02
6.935032224997574879e-01,6.943865040473624628e-01,7.618030848171873926e-01,-1.360448125265310317e-02,5.513780205977690876e-03,4.961633652279258400e-03,7.297690212726593018e-02
7.181720524408311546e-01,6.879210712423634577e-01,7.709855990311771379e-01,-2.648010279870643274e-02,1.383930298488794328e-02,1.105453556263004400e-02,9.136097878217697144e-02
6.908369879963045523e-01,7.246899447146247786e-01,7.716541189200117890e-01,-3.020627332082067087e-02,1.638099828013842713e-02,1.408960860398844432e-02,9.528563171625137329e-02
6.454867568516995391e-01,6.994866135343814628e-01,7.684193929622101793e-01,-1.810622424744118275e-02,3.041614030844555418e-03,4.966490887183499896e-03,1.116930246353149414e-01
6.410795842593184357e-01,7.019695780340871050e-01,7.694604113710997728e-01,-2.212511988226603665e-02,-1.386180135831605606e-03,-3.111880844012111964e-03,1.177943050861358643e-01
6.953974981392989640e-01,6.903263292127659323e-01,7.636504963073215135e-01,-3.044695401627797032e-03,1.121561676409486450e-03,2.450629806444922518e-04,7.114826142787933350e-02
7.062334753773126250e-01,7.032888538683931268e-01,7.362169566779166452e-01,-2.487489438470390050e-03,7.881666050951077404e-03,3.175450631578671107e-03,3.508767858147621155e-02
6.804032756971151175e-01,6.937123328692438307e-01,7.648183932300275378e-01,-1.027339588939606661e-02,5.830530436246989488e-04,1.895126527436261782e-03,8.067204803228378296e-02
7.651776616214068794e-01,6.025941533509272530e-01,7.765732383827712582e-01,1.124722193361956356e-02,-1.031905368857480298e-02,1.534407977486420584e-02,1.726883351802825928e-01
7.162636122299604891e-01,6.846367735998435400e-01,7.123193342550447893e-01,7.033331641706004611e-03,-1.297217643700849729e-02,7.992000651403034783e-03,4.166438430547714233e-02
7.460893401298998029e-01,6.248574243126376881e-01,7.962994257716711211e-01,4.016898215605798489e-02,-2.597313430172237814e-02,2.490003265730374171e-02,1.789686679840087891e-01
7.322536165962243437e-01,6.466949618333375227e-01,7.688056116645217708e-01,9.801076944523973503e-03,-1.130487466365617116e-02,8.077112770972177599e-03,1.124765500426292419e-01
8.642041665842314924e-01,5.484406672705787189e-01,7.659307452773107538e-01,9.722991906853847496e-03,-3.824734431119159589e-02,1.004728421624784263e-01,3.365852832794189453e-01
7.957951251817478866e-01,6.849283537515644671e-01,9.139547674355246176e-01,1.509558495903378927e-01,-4.351657098950804242e-02,6.991897209196228091e-02,3.578591644763946533e-01
7.323951519860169013e-01,6.670217679830262592e-01,7.410772381949050081e-01,7.266394645548679421e-03,-1.780081586582821576e-02,1.058853975362630991e-02,7.976211607456207275e-02
8.796710769302394928e-01,2.999191560942355839e-01,1.055721233259255598e+00,2.121998253324438033e-01,8.688947397716353938e-02,5.223126788992625558e-02,7.969261407852172852e-01
9.145320428469492224e-01,5.899492091586913123e-01,8.033181282465896578e-01,5.892060532781449173e-02,-5.144550029362542076e-02,1.393189948548262669e-01,3.977544605731964111e-01
7.163984027100364083e-01,7.146945693074571171e-01,7.157847539312417462e-01,-1.314902276772346749e-03,4.584572089363395754e-07,-1.059592862874723105e-03,3.284687642008066177e-03
7.163627582636070690e-01,7.166688217296861563e-01,7.136094659273518603e-01,4.429152941403886439e-07,-1.327112336158676933e-03,-1.013941687102485126e-03,4.109122790396213531e-03
7.121793430483576159e-01,7.133263618174873200e-01,7.122240491347032743e-01,-6.068436273465171050e-04,-2.523144161588991487e-03,-5.151794868719878706e-04,4.718701820820569992e-03
7.135178315938467408e-01,7.163363916995373337e-01,7.103914645387409132e-01,-4.142192981763845837e-03,-1.745905890472337213e-03,-2.130343212466809157e-03,1.003808993846178055e-02
7.101466111859230379e-01,7.155497525901602929e-01,7.130517314030320186e-01,-2.735277112850465018e-03,-1.295000618114177391e-03,-2.769317034060986976e-03,8.510026149451732635e-03
7.132688059788715451e-01,7.182058009055090064e-01,7.173783917304810132e-01,-4.816420091420310634e-03,-4.638451531747199257e-03,-3.170172425689871988e-03,1.361113507300615311e-02
7.067533913861597794e-01,7.361998648295411396e-01,6.964565259966877253e-01,3.623977820628988388e-03,1.353483423492773561e-03,-1.341677584356295010e-03,3.642282634973526001e-02
5.328675337230767139e-01,7.857633849577583263e-01,6.825565347101409941e-01,1.999498106636089095e-02,1.134200139471078506e-01,-1.125819792451866405e-02,2.977907359600067139e-01
6.978347286221344703e-01,7.418398639633273506e-01,6.909236442897336294e-01,9.254333909416481360e-03,8.387519906930734903e-03,-9.222786348619727015e-03,5.487710982561111450e-02
7.156967042160353731e-01,7.420712825358608544e-01,6.669557605750108253e-01,1.693365909772741318e-02,1.038601287688347558e-02,-1.388813565060065779e-02,7.822605222463607788e-02
7.179960604296501403e-01,7.345602421922015068e-01,6.819902418531755828e-01,1.410948015341243617e-02,7.122149867831399118e-03,-5.600044031595966497e-03,5.486972630023956299e-02
7.250014407272784567e-01,7.166701298979831769e-01,6.850150486995674193e-01,1.428330018102156457e-02,5.586742620316587603e-03,-9.811305282433159525e-03,4.826635867357254028e-02
7.463617887987453736e-01,6.865749244852413780e-01,6.463691661075710027e-01,3.323994456961328753e-02,3.527643246324718707e-02,-5.736163767727316121e-02,1.565687805414199829e-01
7.011757019401754221e-01,7.420803796028259125e-01,7.008411411390470525e-01,8.902368609713487077e-03,1.250079182563331934e-02,-8.998400968899721020e-03,5.134655907750129700e-02
6.289324994313481021e-01,7.303434104274633132e-01,7.840349094059011481e-01,1.453155211026033004e-02,-7.121784597003586251e-03,6.101668928946411309e-03,1.396753489971160889e-01
5.444856449896557926e-01,7.949695110021586242e-01,8.556365416060625062e-01,1.477249441157904297e-01,-5.302032021819332031e-02,1.687610908594221540e-02,3.954423069953918457e-01
6.021457785974724253e-01,7.451408170977541490e-01,8.211711104979992903e-01,5.557231965507102717e-02,-1.759166530270404134e-03,2.156205721033796919e-03,2.153792530298233032e-01
7.471248689631070361e-01,6.304442819508609963e-01,7.825807285276921155e-01,6.139366954188568704e-02,6.731781269146954773e-03,-8.550868845723993972e-03,1.751323491334915161e-01
5.973763367194048213e-01,7.606384035693474210e-01,7.235819294110213962e-01,5.160014651699510596e-02,-8.664593768074285718e-02,4.064597290837607124e-02,2.396754771471023560e-01
6.510897434858998745e-01,7.373538960229732986e-01,7.396244570560938092e-01,3.326171822896286517e-02,-3.143811330234038554e-02,1.847190777765175818e-02,1.222712248563766479e-01
6.863280200068234693e-01,7.565309395102712831e-01,6.764575609961840374e-01,2.100435413366450940e-02,-2.534268158240357560e-02,1.933060009090165066e-02,1.004496440291404724e-01
9.843455014720303708e-01,5.925006870612633536e-01,6.053408661357418952e-01,2.422881490638732205e-01,-1.909794610569794937e-01,3.011084409120453054e-01,8.403599858283996582e-01
8.779296366413613661e-01,3.741386560001673800e-01,6.732391264913670792e-01,-1.536808238016885465e-02,2.262045655184733231e-02,2.932485681948373002e-01,6.729116439819335938e-01
6.334959676995758349e-01,8.690986164956511217e-01,6.881112007529328611e-01,-1.950937065618809849e-02,-1.739951666566649513e-01,2.275184176603414071e-02,3.730169832706451416e-01
4.935832530839925347e-01,8.767202845150956492e-01,5.796971936583797946e-01,3.588193725447877402e-02,-3.463414324852626680e-01,1.405680828951909496e-02,6.967988610267639160e-01
8.682044852702085480e-01,8.586224710021717055e-01,5.623513327547402518e-01,3.192061563586425649e-02,-5.442411702314902539e-02,7.215523484799007958e-02,3.439027965068817139e-01
5.224556177065050599e-01,8.137511514536994728e-01,5.956201616161594936e-01,1.386224267602181870e-01,-2.833974078018700049e-01,1.151525137119583375e-01,6.381729841232299805e-01
5.949869027422521883e-01,8.872025248653897522e-01,8.449633421058212468e-01,-4.930125938858477552e-02,-9.892054107973799471e-02,-1.517885991120949442e-02,3.349179327487945557e-01
6.007164542872005519e-01,8.238122324967755983e-01,8.852504227141955173e-01,1.360226258422160828e-01,3.200269734044105391e-02,-1.684075894758017833e-02,3.559252619743347168e-01
5.710243681613775824e-01,8.013563567986127234e-01,7.893678210584992305e-01,1.915087947895863360e-03,1.291457324217731330e-02,-6.616710285022740258e-03,2.260042279958724976e-01
4.922574850138389246e-01,7.801532995951727667e-01,7.424178877276058630e-01,4.882264187656110838e-02,9.596990865235791035e-02,-2.746205192826817534e-02,3.323976695537567139e-01
5.903358283073896207e-01,7.256077517217026651e-01,8.001413582897595189e-01,9.507866638501728807e-02,6.872537109108009523e-02,-4.948351161858108999e-02,2.873522341251373291e-01
3.955746211700908455e-01,7.022804740321247907e-01,7.902429056252907591e-01,2.432831994205909565e-01,1.536729474239486859e-01,-9.355852356208937959e-02,6.351773738861083984e-01
2.532277202541096672e-01,9.166965017912358515e-01,1.016223899160433319e+00,6.907615104617997881e-02,1.445272430273853437e-01,7.599647325896127792e-02,7.813035249710083008e-01
4.386790925504619465e-01,9.946196166634511115e-01,8.282529341818184454e-01,2.568175985146200491e-01,1.438008670283225932e-01,-8.842246647926783887e-02,7.263712882995605469e-01
8.067586543746737560e-01,7.651122608268887682e-01,5.080125418322701814e-01,-7.235126063638790996e-03,4.170291417018036004e-03,-8.945930311986451111e-02,3.205621242523193359e-01
9.050470897931608416e-01,8.736978523045507705e-01,5.749536051890544730e-01,2.804156492559489039e-02,8.481362587727490909e-02,-1.237737299199894031e-01,4.116978943347930908e-01
8.026266978749033720e-01,7.698070699687777907e-01,5.932651317811498126e-01,-6.544702717410831594e-03,-4.738070769509376834e-03,-1.461709885268227746e-02,1.971675753593444824e-01
7.848002808109221240e-01,7.551115325644337517e-01,6.204134579662127225e-01,6.725458104991875567e-03,4.392854219151393937e-03,-2.437656298931225457e-02,1.581146717071533203e-01
7.794834126852235867e-01,7.366612048422190862e-01,6.082593193187533220e-01,-1.323706480338248531e-02,-4.450749694734396252e-03,-2.904975826170177675e-02,1.641218811273574829e-01
7.020841756383381371e-01,7.437225013449864086e-01,6.990047125481726464e-01,-5.552115939639461553e-03,-1.963102993958271581e-03,-1.716644935017516563e-03,4.454589635133743286e-02
7.089130342144283059e-01,7.381925196133244382e-01,7.014679834744090847e-01,-2.562019159351554103e-03,-2.519701977221549833e-03,-1.855052466581030585e-03,3.434772789478302002e-02
7.042293552872702644e-01,7.386900236112743379e-01,7.096090540156905213e-01,-2.442594416206331307e-03,-9.416896020049932755e-04,-4.948419017601384667e-03,3.354266658425331116e-02
6.560479166459454170e-01,7.603755636687600239e-01,7.123614382876292117e-01,-4.289980233280614973e-03,-1.688564590358113474e-02,-5.896323238648273207e-03,9.589213132858276367e-02
7.012652074119243295e-01,7.259257275541641796e-01,6.996032443513827692e-01,-9.264362509059331091e-03,-5.569442988523525158e-03,-3.941289189374012729e-03,3.238874673843383789e-02
6.895263701509053433e-01,7.416276692249421654e-01,6.971210985387662484e-01,-3.990886999743942058e-03,-7.813563845669847449e-03,-4.691338797244233062e-03,5.170582979917526245e-02
6.834153596612517756e-01,7.363092086953582083e-01,7.231589636651304387e-01,-5.294469244221119454e-03,-1.489195035384512610e-02,-1.533870609713735948e-02,6.107662245631217957e-02
6.803467540828784799e-01,6.905010099593741346e-01,7.586832973562684934e-01,8.154114029732572808e-03,1.981480703313171898e-03,-4.399653392073822090e-03,7.558830827474594116e-02
6.785047527787984034e-01,7.071773326005744709e-01,7.613856669994922832e-01,4.910756084226696426e-03,3.101358603389363019e-03,-6.634403947720950850e-03,7.448624819517135620e-02
7.411470750758648585e-01,4.489880987348580099e-01,8.408718825887868675e-01,2.306620379331643378e-01,-9.051483838146923144e-02,1.048287479379757664e-01,5.844641327857971191e-01
6.922110955292223311e-01,7.027114208199126688e-01,7.438081783582094486e-01,6.175733130946083928e-03,5.559487270448137952e-03,-9.796083382716020901e-03,5.220883339643478394e-02
7.228625089965419193e-01,7.073505374514802435e-01,7.237485758687670634e-01,1.562671048449537289e-02,1.226116162846203027e-02,-1.732125794897138027e-02,4.836134240031242371e-02
6.899496583775104330e-01,6.943698249372256548e-01,7.606498973665770658e-01,1.731503246611514101e-03,1.535649144740178869e-03,-2.917516287025398881e-03,6.889963150024414062e-02
7.087804486088756795e-01,6.885065762064181971e-01,7.688194143487246945e-01,2.810907629854995926e-02,6.108612430838320992e-03,-1.419411270788061528e-02,9.121213853359222412e-02
6.207876429230835269e-01,7.450152570157305698e-01,7.957977129226389001e-01,2.774089019651668556e-02,1.353747798424802425e-02,-7.006408005934600461e-03,1.653047800064086914e-01
7.029510973858432710e-01,6.478990123284545932e-01,7.760164019006130509e-01,4.855973891501023931e-02,3.255772102663358897e-02,-4.371557268675839436e-02,1.684606224298477173e-01
7.086432867773918565e-01,6.517535006384502783e-01,7.699819012851398803e-01,1.543567240152215331e-02,4.489153441751377732e-03,-3.035865241187395581e-03,1.062605306506156921e-01
7.056290430650477008e-01,6.535260787920815773e-01,7.571529210030596424e-01,1.554202989406814478e-02,8.262084793889550721e-03,-6.769593428731937937e-03,9.550344198942184448e-02
6.392178886179304964e-01,7.102495803643007477e-01,7.829120435511914833e-01,1.946028696433088623e-02,-3.993259758170898330e-03,1.062179084293670729e-02,1.304188817739486694e-01
7.056672936777591554e-01,6.507744771038443954e-01,7.667972544216500319e-01,1.741915682594588621e-02,-1.148538129831063945e-02,5.945011305329505648e-03,1.073207408189773560e-01
6.296444147277655556e-01,7.418620616366810028e-01,8.088962301975040070e-01,4.900022219814682833e-02,-4.604458401470717249e-02,1.532169405333159116e-02,1.971710771322250366e-01
7.471831348147141005e-01,6.218895812702652792e-01,7.680603497759806997e-01,1.941900406125091766e-02,-1.382807244530951350e-02,9.192133253471660229e-03,1.439046114683151245e-01
8.917569274999360696e-01,5.307143410791999028e-01,9.073461221833227786e-01,6.015020598087664899e-02,-3.465218834044860030e-03,-8.675833147524627045e-04,3.835564553737640381e-01
7.023874287261904215e-01,7.454972844003191490e-01,6.938294756639276084e-01,-7.283191797916558838e-03,-4.152688533220149324e-03,-2.163020832965658995e-03,5.025470629334449768e-02
9.016030840723449069e-01,3.439926181441353981e-01,1.015319036649187545e+00,8.340063001717816504e-02,-2.638316125245155144e-02,-1.528996051229379871e-01,6.930801272392272949e-01
7.263851699141583573e-01,7.487750416270105847e-01,7.003036464496548152e-01,-1.586079000822405646e-02,-1.890871921861876290e-02,-1.703752219313595800e-02,6.681061536073684692e-02
7.050409605918831479e-01,7.482178207893185329e-01,7.033923619303024122e-01,-6.804203155622348329e-03,-8.206464858258153902e-03,-7.702251200186927167e-03,4.956858232617378235e-02
4.478838124265057674e-01,3.792565443628876931e-01,8.871804667243952114e-01,4.162546395293757473e-01,-1.914833652366023514e-02,-1.725482974404683040e-02,8.658151626586914062e-01
7.330294902707134019e-01,6.642137459991729331e-01,7.422935795801643977e-01,8.145863113753933071e-03,1.752590845791691943e-02,-1.102034914487729986e-02,8.332963287830352783e-02
7.652030539181567947e-01,6.907034390718163053e-01,6.922890244087464007e-01,-6.975387234974427442e-05,4.725495643637134821e-04,-1.385291142802140205e-03,7.376328855752944946e-02
7.671070288926969960e-01,5.850152455941548535e-01,8.045487667208384153e-01,1.166179720725164792e-02,-3.068335450418779257e-03,5.974437796301133516e-03,2.047448456287384033e-01
7.930346425643892694e-01,5.632682594044570168e-01,7.933769074237660979e-01,1.968383281175269811e-02,6.500747017769339248e-03,-5.610436002824637988e-03,2.329268604516983032e-01
8.244176392336131087e-01,7.036956273749606083e-01,7.553048768549787129e-01,1.198713489348359335e-01,8.512744119177627355e-02,-1.433389978065938708e-01,3.707999587059020996e-01
7.378840104456206861e-01,6.487185381973878950e-01,7.860386413942684891e-01,1.215379854690046453e-02,1.811694195665516103e-03,-1.367646876660644824e-03,1.225629746913909912e-01
5.948227370513159418e-01,7.380559443086541771e-01,7.848100915536042610e-01,5.449255002497679912e-02,8.833993381258098063e-03,4.204705228559411402e-03,1.964533478021621704e-01
5.998625730267855838e-01,8.086407978068594904e-01,9.276419323493307889e-01,1.448167190244520897e-01,-4.477019456751419289e-03,3.809666175171733202e-03,3.815937340259552002e-01
6.198845477514627333e-01,8.324134087110128810e-01,9.018101642927278672e-01,1.305080183227342316e-01,5.147371158291972476e-02,-2.635890895871305373e-02,3.547721505165100098e-01
5.514772817878335065e-01,7.906396130059463179e-01,8.717860726711605945e-01,9.013468061805678111e-02,7.458207913056628946e-02,-3.270319204243226762e-03,3.525377511978149414e-01
4.685196609158797099e-01,1.004178811830765738e+00,1.101514003297799249e+00,3.177645307303020861e-01,-1.353447886755673735e-01,6.187863955782491737e-02,8.472943902015686035e-01
3.709240550619059551e-01,7.669247761097790494e-01,1.049017247611575554e+00,2.376961519923892208e-01,1.437431474916696927e-01,-4.579344732506714956e-03,7.613469362258911133e-01
7.266728415156092913e-01,5.465165732567680568e-01,8.492555931308971573e-01,1.307498966398676354e-01,-2.105148177029101536e-02,-3.098622321308482086e-02,3.536430299282073975e-01
4.528778306585407032e-01,8.199362121597691955e-01,9.720949678329947607e-01,3.441964194939988730e-01,-1.140222675779577477e-01,-5.245208613064725189e-02,7.851151227951049805e-01
7.179267835178332335e-01,7.138940107397282464e-01,7.120443883697685772e-01,-2.693840909372526796e-03,6.551106522757556326e-04,9.112528899525964080e-04,7.258957251906394958e-03
7.113096532591129950e-01,7.065871149513152094e-01,7.218124083269196190e-01,-2.185705926353948003e-03,5.132730388540463103e-03,2.380663833145476097e-03,1.710494793951511383e-02
7.705311143405169094e-01,6.878692070265901570e-01,6.600993305588471749e-01,-1.980266204623324158e-02,1.278457862040855916e-02,4.726533098524555304e-02,1.351609230041503906e-01
7.043892679070208329e-01,7.068932944531671758e-01,7.306111882641674882e-01,-2.425322618782377489e-03,3.368252285903203854e-03,7.488450900348940162e-03,2.912235446274280548e-02
7.700178725005810687e-01,6.111293014704886062e-01,7.428199641309873869e-01,-1.593543641576801104e-02,1.915974347198640473e-02,2.517078239992237565e-02,1.594605743885040283e-01
7.176160591054864257e-01,7.072623547450169745e-01,7.124849921339159176e-01,-1.595229508491061415e-03,5.143101661690329882e-03,3.410664765518745065e-03,1.422280352562665939e-02
7.121387820613384045e-01,7.117216850443567333e-01,7.178646220331830197e-01,-2.715233637220338184e-03,3.771487819728338176e-03,4.969615754678836927e-03,1.319956593215465546e-02
7.702474758856554526e-01,6.523433369734502607e-01,7.521276773499154800e-01,1.655592841630478332e-02,-1.422048739925565151e-02,2.329412492755115680e-02,1.230858489871025085e-01
7.697725594114100955e-01,6.511683849961698023e-01,7.093640640254520457e-01,3.087790170505591396e-03,-5.578224848767813528e-03,1.688348787587885813e-02,1.073710694909095764e-01
7.371416133472482590e-01,6.529948613102447563e-01,7.861851271636389749e-01,-1.293214775548321392e-02,3.954800556423034019e-03,7.048237457355358178e-03,1.196263805031776428e-01
7.545071868988203478e-01,7.011188398063673555e-01,7.005666746805446765e-01,-2.923914472046998045e-02,2.927272151649917831e-02,6.636755002590889740e-02,1.457035094499588013e-01
8.016434686382772901e-01,5.589640713637911151e-01,7.795082698208459782e-01,-6.787920154049896342e-03,8.882364989438727362e-03,2.311279214467073032e-02,2.366199940443038940e-01
7.841881127394625395e-01,6.448755621248343228e-01,7.298905224314864437e-01,2.656607837417200428e-04,-1.357528424133876447e-03,1.269207522599180224e-02,1.236158832907676697e-01
7.718610123500431186e-01,6.597879762020337768e-01,7.367971919886965315e-01,1.151721125591642809e-02,-8.344682166938040616e-03,1.907662456068663984e-02,1.075114905834197998e-01
7.597324822798734445e-01,6.634644674598417780e-01,7.335974809694366661e-01,4.967428549285246055e-03,-1.439025453821939950e-02,1.112340423090186180e-02,9.220118820667266846e-02
8.088430174716169097e-01,6.894269313700563950e-01,6.527903660816614106e-01,5.415213594654967079e-03,-2.269120507925675642e-02,5.773450250727880928e-02,1.777917295694351196e-01
7.811892651197390736e-01,6.064988935123867275e-01,7.427758914688867842e-01,4.288573575631243360e-04,-7.407514652592300970e-03,3.127743231506956850e-02,1.684691756963729858e-01
7.827851355361312713e-01,7.617282546693651124e-01,8.349300895090773222e-01,1.605068137915973692e-01,-1.033928024752903130e-01,1.134618500789520978e-01,3.901779055595397949e-01
8.467748538756707521e-01,6.327732252029965032e-01,8.556853172625334958e-01,1.026797045097776473e-01,-5.289379803142827546e-02,1.277420026367895034e-01,3.698102533817291260e-01
7.824216774581251865e-01,6.216433494057435061e-01,7.386923042266947403e-01,4.048252914240520889e-02,-2.251976331143140317e-02,4.140094287028116271e-02,1.797532588243484497e-01
7.256886686408476894e-01,6.936830731381381510e-01,7.267984132961858856e-01,1.963455729387439744e-02,-2.485622186889330232e-02,1.899226197890929377e-02,7.178626954555511475e-02
7.767347852870088998e-01,6.294794123038629508e-01,7.930003002677586954e-01,5.374488152368156468e-02,-2.083674704417666848e-02,3.552589705967183764e-02,1.951876282691955566e-01
7.269249892673804725e-01,7.458342555698546095e-01,6.982097537998058767e-01,1.602167691846831735e-02,-1.871145817301969952e-02,1.845237436226960723e-02,6.757971644401550293e-02
6.420580051875655059e-01,6.999457309772798563e-01,7.945191009739638321e-01,-5.571764531925807451e-02,-1.916078893535853866e-02,-1.917044827175181168e-02,1.711345762014389038e-01
6.337015776202927775e-01,5.154082625605889145e-01,7.791540443753074419e-01,2.748704725241624125e-01,-1.724484280382763413e-01,1.637628619131527852e-01,6.698412895202636719e-01
8.498856207022265075e-01,4.834539375070467937e-01,5.272019845658473258e-01,1.418154523285035939e-01,-1.268502664845963246e-01,3.666920029888079413e-01,7.950800657272338867e-01
5.844323437978041769e-01,7.898172399347431760e-01,7.816525317320884847e-01,-1.558020365527690472e-02,1.676741180008158374e-02,1.026450554375178507e-02,2.060593515634536743e-01
6.032813721495823289e-01,7.461908678145298124e-01,7.796189856686510655e-01,-3.235592963377920128e-02,4.257372553573840132e-03,9.316899668975147861e-03,1.725493222475051880e-01
6.109258954487215565e-01,7.330544501642362043e-01,7.827696606410148306e-01,-2.736162387228258108e-02,-6.462121353844364757e-03,-9.614140633577019160e-03,1.615771651268005371e-01
6.185276944959513523e-01,7.815292838302883016e-01,8.129703639305315699e-01,-3.220906378609926513e-02,-3.598148421769110320e-03,-3.220396619862090411e-03,1.893811821937561035e-01
5.105421285173930013e-01,7.769506336535501045e-01,8.025424956599149784e-01,-5.643994635656034153e-02,-8.838774379001530443e-03,7.645773921014091187e-03,2.973423600196838379e-01
6.221092829095394849e-01,7.511906950183783183e-01,7.850347800717178970e-01,-2.560504934213031492e-02,1.223035471864008378e-02,7.839293448792042374e-03,1.574040651321411133e-01
6.190607349456305197e-01,7.503471490281029554e-01,7.863909234916008906e-01,-8.015193172803793120e-02,4.085365102647819935e-02,5.140860248334148258e-02,2.355332821607589722e-01
5.433385613666142921e-01,7.647719150409507671e-01,7.650401142980935987e-01,-4.594812711707745023e-02,4.977326312512408979e-02,1.516562480253026875e-02,2.520872950553894043e-01
2.510969961111560456e-01,7.849932675585131747e-01,8.530154505827201028e-01,-2.304611470082751634e-01,2.136139961276467894e-02,-3.109135070294968915e-03,6.976560354232788086e-01
4.752285653186921754e-01,9.045387907381515769e-01,8.831816798507322597e-01,-3.210381367366910155e-01,8.158399768866236856e-02,1.616629108928165082e-01,7.636514902114868164e-01
5.339836045444468215e-01,8.665106243252342910e-01,8.192035014867883325e-01,-4.359663904903244430e-02,1.122046644727870690e-01,1.333859818099815929e-02,3.756150901317596436e-01
4.553101160327315267e-01,9.846264839284750714e-01,8.580731096735173535e-01,-2.184627640383195735e-01,-1.456280789389297892e-01,-2.353174209768422315e-02,6.615637540817260742e-01
5.909737651713111717e-01,7.568109989639546509e-01,7.756145266339288247e-01,7.864097060228396330e-02,-3.644888471314677858e-02,3.075401849933493553e-02,2.373817265033721924e-01
5.174950107046931702e-01,7.700508065976945371e-01,7.936465460402765126e-01,6.132385371044725419e-02,-1.142354200712152046e-02,-3.553801618416923234e-03,2.863767743110656738e-01
6.050937083625667068e-01,7.418733472787105709e-01,7.985696908135948568e-01,3.146265743541879628e-02,-3.799163534553102670e-03,4.349258381883779750e-03,1.809635162353515625e-01
6.207550589203065794e-01,7.392297117259422068e-01,7.779638399852133457e-01,2.463106600572019522e-02,-1.352061512930272796e-02,1.063911441677778229e-02,1.511080712080001831e-01
6.515044046154385704e-01,7.371372110836637015e-01,7.458743959532628809e-01,3.511652433207734791e-02,-2.969207157664523200e-02,2.011395873513376759e-02,1.253618299961090088e-01
6.449712577109473211e-01,7.313893717480595136e-01,7.672004442168444127e-01,8.322348488374866834e-03,-6.984405662447159581e-03,1.084782597195962754e-02,1.120375171303749084e-01
6.421683369359018068e-01,7.391709985236385450e-01,7.818108421291066756e-01,5.029556841507841491e-02,-2.408873472020844897e-02,1.084601714414150028e-02,1.582608371973037720e-01
6.399062120351954874e-01,7.803295901204032603e-01,7.062380991556187482e-01,-4.232704660505639226e-03,-2.366264900233043533e-02,-1.413746521017390442e-02,1.309091746807098389e-01
6.478049602664468498e-01,7.707115687440848628e-01,7.337777358450544574e-01,7.206222279284272766e-03,-9.648248890340419340e-03,1.413973773158162979e-02,1.138665080070495605e-01
6.952992069356598304e-01,7.583136209410683559e-01,6.845945978093956885e-01,-6.361749911632411797e-03,-7.138958539828092753e-03,-4.653193266221188236e-03,7.140879333019256592e-02
6.965665825322301385e-01,6.519441786715115539e-01,7.604769605640137042e-01,-1.995675975518828443e-02,8.885309469840370691e-03,6.178005786617620301e-03,1.023410782217979431e-01
6.972626077321000260e-01,7.674166472206594980e-01,6.433338803763769542e-01,3.557066738224825241e-03,-2.091221665107982977e-02,2.328670525376528872e-03,1.139271855354309082e-01
6.489060570492947155e-01,7.951332004294093814e-01,7.624839518995023546e-01,1.551517917183522360e-02,-5.095076016175245637e-02,2.231018319661752774e-03,1.618615984916687012e-01
6.806318931186197130e-01,7.649288162627432275e-01,6.908747573498140726e-01,1.699205592944336499e-03,-1.072604011243632853e-02,2.891100869212970444e-03,8.201418817043304443e-02
6.836955406043805361e-01,7.618791382298840675e-01,6.989577642070161634e-01,3.838024431249330726e-03,-8.401763384487602807e-03,8.230391547769258867e-03,7.491016387939453125e-02
6.933225144041594845e-01,7.607420387482253243e-01,6.432728135992602514e-01,7.139644600256081497e-03,-2.119974807106901615e-02,3.020234072793012182e-03,1.093310043215751648e-01
7.420037762728795006e-01,6.098041761862250665e-01,7.778962430551333851e-01,2.964678192849763347e-02,-1.526095365664451291e-03,6.096864566611960926e-03,1.620656400918960571e-01
7.327766873954738580e-01,6.480846942892887208e-01,7.827639821886388516e-01,1.409393799194660207e-02,-2.989287671070143225e-03,4.998573423986236823e-03,1.208415031433105469e-01
6.913297638101155718e-01,6.433820952315587594e-01,9.088441948788272828e-01,2.092759434846365729e-01,-7.879074880335019959e-03,-1.407362802165489091e-02,4.384182095527648926e-01
7.570289643447860595e-01,6.406867922290000461e-01,8.100701990548941911e-01,1.436620882287723833e-01,-2.343368813735646067e-02,7.111557432322683503e-02,3.182072937488555908e-01
5.407456330618719553e-01,6.274792060821748896e-01,7.896390933446505445e-01,1.638549494111659344e-01,2.513579406558300727e-02,-1.583969017089416689e-02,3.620451390743255615e-01
7.100707625530545686e-01,6.476001976975748198e-01,7.699175594839192671e-01,1.464744047950100256e-02,-3.036679097547627122e-03,9.893827713966516554e-04,1.090739071369171143e-01
7.107496863132591880e-01,6.513424408168669855e-01,7.826136753823356162e-01,1.403620966175930275e-02,2.859308312079623937e-03,4.558333824788202062e-04,1.165293604135513306e-01
6.432181213868468639e-01,7.046356980509086432e-01,7.784178798115537479e-01,1.788820578765808189e-02,4.966057616997633824e-03,-1.784370601896560554e-03,1.216180622577667236e-01
7.721881156600843843e-01,6.781797275791570101e-01,7.571908323943474795e-01,4.420636533038069943e-02,4.027974316313720493e-02,-5.524276767927747273e-02,1.659454554319381714e-01
7.551007316297451144e-01,6.391665299003046474e-01,8.083958258806969166e-01,5.869160399846430620e-02,1.304378843017968588e-02,-1.507382527159288957e-02,1.843529939651489258e-01
8.345435009558654915e-01,5.404286612987607707e-01,7.606722698553672890e-01,-9.477086971528665693e-02,-3.761323188151863284e-02,-9.728773268350707215e-02,3.603018224239349365e-01
7.272856236388910434e-01,6.282160478357635691e-01,7.772189031439887819e-01,-5.751966846132273992e-02,-1.368050547596428787e-02,-1.202268421312041417e-02,1.678559631109237671e-01
7.041678454485523764e-01,7.112288170293236123e-01,8.414166948501635712e-01,-1.664788390252345263e-01,-9.665498976084779814e-02,-9.742912441138287805e-02,3.969476819038391113e-01
7.376418658141690177e-01,6.175771777866887469e-01,7.630205258945500502e-01,-5.218137961817070902e-02,-1.380583127798444380e-02,-2.276465559445230852e-02,1.685285419225692749e-01
7.391955086696688770e-01,5.415838846345443214e-01,8.135091504921315719e-01,-1.678194686242970024e-01,-5.389854933468944849e-03,3.357074305834981814e-02,3.836878538131713867e-01
7.453335724672622842e-01,6.209107996545757402e-01,7.734359074723139438e-01,-2.557449490396424691e-02,-1.519201284693076810e-02,-1.643271564710654595e-02,1.524204611778259277e-01
5.009053902930803437e-01,6.340962862703061198e-01,1.014377522423556055e+00,-2.990386750833494700e-01,-6.904406524353688679e-02,-1.600423766382613744e-01,7.565830945968627930e-01
7.629431106216527647e-01,6.246303778934638729e-01,7.458193563326993569e-01,-1.431431676780254951e-02,-2.075978474680471517e-02,-3.100243549474588495e-02,1.478047966957092285e-01
8.066654005535398575e-01,7.529050188707364644e-01,6.405885459141129612e-01,-1.481879073578004288e-02,-2.560549654529233055e-02,-5.367970664109762008e-02,1.811452209949493408e-01
7.301826094132128908e-01,8.175891504728678427e-01,6.303660866089000336e-01,-2.048787856060656568e-02,-1.734069056449430157e-01,-3.684612867430366728e-02,3.490986824035644531e-01
7.439518042555340882e-01,8.231651095525077677e-01,6.573176101726150300e-01,3.033865464868860246e-02,-9.918535503768315109e-02,3.741162012798429637e-02,2.389899641275405884e-01
7.867667046677825349e-01,8.939251789207462995e-01,3.186446188158681414e-01,-1.211320505212974685e-02,-2.245251476438787641e-01,1.794911650942403181e-02,6.583508253097534180e-01
8.487944864390681854e-01,7.931758235030853532e-01,6.194886392840965872e-01,-5.947940684166120456e-02,-9.649424861146269072e-02,-1.190759145057417034e-01,3.521433770656585693e-01
7.610500974572875776e-01,7.899838375160701531e-01,4.909864473814747887e-01,-1.152037218162527132e-02,-6.742753270103814256e-02,-1.586007200902667461e-02,3.104475736618041992e-01
7.349892189554230182e-01,6.033195420944611476e-01,7.781231395121075423e-01,-2.750930300697949221e-02,-7.130352242768502741e-03,-3.075189049152604603e-03,1.653119772672653198e-01
7.947823675235230478e-01,7.671486004040931617e-01,5.444915672979463439e-01,-3.572195139198137623e-03,-4.181517011184124853e-03,-3.227700087719794636e-02,2.443538010120391846e-01
8.895657872809508149e-01,5.234185065795617930e-01,8.565338703229283812e-01,-1.268155306984400377e-01,3.715846556379277105e-02,1.388739370205776813e-01,4.830187261104583740e-01
8.011940486805704253e-01,5.768925800901005818e-01,7.825280561735166174e-01,-1.478213240690207791e-02,2.770852920190857837e-03,2.132730161652699602e-02,2.202632278203964233e-01
6.793671852216144336e-01,4.215565206954129396e-01,8.728629661415625574e-01,-2.981399709271950194e-01,5.459989830627434010e-02,9.590267945612510059e-02,6.760103106498718262e-01
8.234192438993541696e-01,5.484859325832567301e-01,8.232163373307729293e-01,3.185396963828708095e-04,1.226844928902992874e-03,7.229557207691111008e-03,2.751258015632629395e-01
8.033042030663344324e-01,4.281974959818781734e-01,8.021580963871257630e-01,6.231788519293923224e-03,-2.061527852149569722e-03,-1.046612775130893215e-02,3.751457333564758301e-01
7.708198913013922793e-01,4.423130929188133775e-01,8.425031101778465148e-01,-1.861138392775094907e-01,1.562184110044680801e-02,-1.959689934533049779e-02,4.923443496227264404e-01
8.017906361090347822e-01,5.577096165919646076e-01,8.149788652131507716e-01,-1.087649932439480657e-03,1.368107282702248594e-02,1.883275027203034149e-02,2.541604936122894287e-01
8.216948215130090993e-01,5.589105819893971372e-01,8.008374963858213569e-01,6.602042087361336721e-03,1.184376430295307377e-02,1.118793859257911048e-02,2.548268139362335205e-01
7.543105844611796007e-01,6.348298562213220420e-01,8.187538088158075045e-01,6.157668228368247398e-02,1.047698020249033905e-03,-1.588260597116986908e-03,1.936858892440795898e-01
9.040283894661504949e-01,4.156576040875560318e-01,8.811965069799712058e-01,1.397165303607830755e-02,-1.619307063746013714e-02,-4.282712485242609265e-03,4.788571596145629883e-01
7.591911396751840346e-01,6.528691474674794826e-01,8.328978464812061278e-01,-5.931647434029696520e-02,-3.751170406390906239e-04,4.500191089198634330e-03,1.875905096530914307e-01
8.811058055786684662e-01,8.041423845733899345e-01,4.770380152960358444e-01,-6.501243910668039541e-03,1.318798691501005531e-04,-4.135236168626372361e-02,3.786193430423736572e-01
7.075422782237497099e-01,6.823950781215202266e-01,7.673836235989748289e-01,-2.984673840064466788e-02,7.195631775786453382e-03,1.230304740268241097e-02,9.486896544694900513e-02
7.684682237397865157e-01,7.909119640973781840e-01,6.054244278974052484e-01,1.748422417269101777e-03,-7.678242924332804795e-03,6.768421275900516135e-03,1.762662380933761597e-01
8.042440355839057808e-01,7.968141916509776657e-01,5.399935010927732204e-01,2.544288389501896033e-03,-4.571393118357915467e-03,-3.126988995681371803e-03,2.608287930488586426e-01
8.092434395180769791e-01,5.492241527459531536e-01,7.966589741514025214e-01,5.071377553956571383e-05,1.673014195663601652e-03,-6.017041622100175943e-03,2.541912794113159180e-01
7.955046121403864801e-01,5.600669486989215962e-01,8.098433686236136131e-01,2.213398558258125245e-02,1.785079600500885525e-03,-5.720063589428552031e-03,2.461500167846679688e-01
7.635814235160650609e-01,5.305674918045699684e-01,7.930882883469069222e-01,4.563926702228001536e-02,-1.197856993326428497e-02,2.407738871398506716e-02,2.654432356357574463e-01
7.332701527603316949e-01,6.554742124750005949e-01,7.856348023452776053e-01,-1.179551524897968010e-02,-7.297728568916829299e-03,-6.520192918810729064e-03,1.165020763874053955e-01
8.237310143550252706e-01,5.524392288226200876e-01,8.291924249730426855e-01,-7.899992328524226698e-04,-2.099868825414110719e-03,-2.950627639828905073e-03,2.741385102272033691e-01
8.106360496606024313e-01,4.731059808572967706e-01,8.149545539218832069e-01,1.669398045207852802e-02,-1.320848912651286476e-03,5.579879563154288222e-03,3.410828709602355957e-01
7.176095322601158122e-01,5.366588074399577524e-01,7.795571206835922862e-01,1.079866613875146847e-01,-3.543869261224066175e-02,4.692754241990186592e-02,3.052012026309967041e-01
7.403927895589695884e-01,6.049971519711331291e-01,8.046639423406036773e-01,2.473123857682563848e-02,-1.447831345551222953e-03,1.348999710084114369e-04,1.816756427288055420e-01
8.969153224811484693e-01,5.306171096691473243e-01,8.978791601694270375e-01,7.262409283196412380e-02,-7.593818795408062775e-03,7.608700794345178535e-03,3.881981670856475830e-01
9.400861714951005421e-01,1.976082981851079445e-01,8.994346878704162496e-01,-5.136912302426708404e-02,2.838240662569744069e-02,-4.356764218504992348e-02,7.340099215507507324e-01
7.096214248057984841e-01,7.266254155633549150e-01,7.070761775889315981e-01,-3.011381794890896201e-03,-9.115760639205849588e-04,-1.321752001523646049e-03,1.933475211262702942e-02
7.035414555260480762e-01,7.365656886396872993e-01,7.069320762669751845e-01,-5.711571250022804899e-03,-6.157575497282906894e-03,-9.551655060838394259e-03,3.841144964098930359e-02
7.126793288578074925e-01,7.162607103458763502e-01,7.136853387432718909e-01,-5.866733965595043220e-04,-6.786146995744394119e-04,-2.244247953314564437e-03,5.268728826195001602e-03
7.161909168270684800e-01,7.240437405473980625e-01,7.128488244424784348e-01,-9.368409660184673490e-04,-1.673030289284857617e-03,-1.915957800730319323e-03,1.100563816726207733e-02
8.999076697414958304e-01,6.561938209472528705e-01,7.681458492796927606e-01,5.633914382865465309e-02,2.882567089430750767e-02,-1.539021203869306853e-01,3.573766648769378662e-01
8.486515336097730788e-01,4.268723120252467806e-01,5.219513899385614941e-01,2.848565565145250861e-02,4.311650196777355726e-02,-3.516606913264637146e-01,7.251499891281127930e-01
9.147603280448080021e-01,6.804078919692072569e-01,7.715869575450776674e-01,-5.285963442777454752e-03,7.610863930899301917e-03,-1.642377037710135990e-01,3.507795929908752441e-01
8.550083932254246566e-01,6.738954864684681967e-01,4.024285980209203473e-01,-2.452204604894759471e-02,-4.282032066727315539e-02,-2.944163290808713418e-01,6.503921747207641602e-01
8.061727981717783376e-01,7.621573014284063197e-01,5.812244095325023174e-01,-1.341588804641224812e-02,2.876099556436216911e-02,-1.337496846576107234e-01,3.151609301567077637e-01
2.995694871661186420e-01,1.061014535014107807e+00,8.874001172288144001e-01,1.418824282358707722e-01,1.641854291698079419e-03,-7.037730061359509515e-02,7.436407208442687988e-01
8.096446152596700196e-01,9.173920009260327912e-01,6.046540519283578607e-01,-1.091570378600643584e-02,1.988221788085617336e-01,5.244640441004796982e-02,4.504641294479370117e-01
4.901775959310227249e-01,8.913913407799500810e-01,8.949989915838643117e-01,1.391450197611996016e-02,3.314578666932750661e-02,1.917831721800769594e-03,4.078243970870971680e-01
5.630444449983263988e-01,8.049000627888673876e-01,7.161204276795306578e-01,-2.534795182461275706e-02,-1.048610914526148796e-01,-1.837202155511730509e-02,2.843093574047088623e-01
8.997238139780665556e-01,9.133308883179714899e-01,6.266894630163519775e-01,-3.303125335729717449e-02,1.723849398110192666e-01,7.126588263195184070e-02,4.314017593860626221e-01
5.177949743879110001e-01,8.600822046139933175e-01,8.132041125822161431e-01,4.440184379352023203e-02,9.096356171674969959e-02,2.573511224205472445e-02,3.688318133354187012e-01
4.170154801573252024e-01,9.767851592608501887e-01,7.335880030158599130e-01,4.262651648998925374e-02,-2.088155715426763259e-01,-3.073086793400270442e-03,6.104455590248107910e-01
5.737850880085263450e-01,8.137273240128168883e-01,8.173891892635763989e-01,-1.241611386928734122e-02,-3.066572747162010261e-03,-9.078966197793889720e-03,2.433152198791503906e-01
8.656301724895393290e-01,3.527753252515344329e-01,1.066908568924469503e+00,-1.397617627420178754e-01,-7.236451816372899137e-02,-1.056137758225119405e-01,7.173091769218444824e-01
8.487163899727983019e-01,2.716738617735082184e-01,8.820455758727877571e-01,-1.540787895905406657e-01,-5.334607142764079962e-02,-3.362893519061287834e-02,6.606604456901550293e-01
7.279098848719616210e-01,6.231674346899150896e-01,7.694555615297177242e-01,-5.564393667771570795e-02,-2.027216276146286481e-02,-3.324747560724480161e-02,1.757453531026840210e-01
6.974450131936655861e-01,4.324774111675387944e-01,8.243479561041467951e-01,-2.354554767246065938e-01,-7.844356208195107927e-02,-1.183192355691448650e-01,5.888239741325378418e-01
7.459724312921851563e-01,7.771434757544639638e-01,6.201101491936370502e-01,-1.214843176418540886e-02,2.212715502867636935e-02,1.204481725554356654e-02,1.519309878349304199e-01
7.381836819008337214e-01,6.167655367275279854e-01,7.803811346690467943e-01,-2.426862817904409594e-02,-1.742951567996739795e-02,-1.183456785676001086e-02,1.573053151369094849e-01
8.035167867285694099e-01,5.952430667411446885e-01,7.713409534176206561e-01,3.714196997804384594e-03,-6.240583026047435977e-03,-1.170197987959856016e-02,1.956549882888793945e-01
7.634274852246676346e-01,6.140798265701611358e-01,7.842592009319468982e-01,-1.020462988485873641e-02,-1.230601231031182990e-02,-1.235610819943781108e-02,1.645435839891433716e-01
7.830672525342973200e-01,5.761730897481953662e-01,7.908419153997741091e-01,-1.791389670935205833e-02,-9.902681721097907064e-03,-8.524162245549433276e-03,2.143573462963104248e-01
6.354650964696684223e-01,6.678551323390199412e-01,7.122382825477338031e-01,1.048296538131879563e-01,8.790683668928922501e-02,-8.086079349228249280e-02,2.832358777523040771e-01
6.918438548524309395e-01,7.132555137210514484e-01,7.470974992779711998e-01,1.503918223930530464e-02,1.707796549940540642e-02,-1.112276960499553047e-02,6.521504372358322144e-02
7.048890154942858421e-01,6.553487311763198653e-01,6.176190902832833229e-01,8.331855945063104674e-02,9.648639740100795059e-02,-1.106038334931754991e-01,3.019956052303314209e-01
7.285513460326257240e-01,7.333133837834020508e-01,7.367628336824697532e-01,2.364260276680266448e-01,1.341709977060852321e-01,-3.108286218417636304e-01,7.152563929557800293e-01
5.444181100989183841e-01,6.405693721961952525e-01,7.855218599163050763e-01,2.440650771313535861e-01,1.339405558590140710e-01,-1.167882681451007654e-01,5.635917186737060547e-01
5.572496325877311918e-01,9.318243782707016365e-01,7.811888101991729672e-01,2.201590629804543453e-01,2.158943459364664752e-01,-2.252364510296596678e-01,7.375693321228027344e-01
7.260319865117239591e-01,8.856654066932045932e-01,5.066644711080267038e-01,5.331567879382483749e-02,2.476264674710856317e-01,-1.109924647269845271e-01,5.814340710639953613e-01
7.526876822131900457e-01,8.016468985089176824e-01,6.028986489430010476e-01,-1.636162949244855322e-02,3.985844394884963116e-02,5.394291465439947364e-02,2.155597954988479614e-01
7.665967755908860148e-01,7.196491443646143571e-01,3.282815735676040680e-01,-1.256663109568775527e-01,1.981696258584963177e-01,2.749788618897009984e-01,7.521809935569763184e-01
7.748468107502567426e-01,7.752748744192541341e-01,5.954371182040354427e-01,-1.272111517580625135e-02,5.706362825809991463e-02,3.696623599825179379e-02,2.159133702516555786e-01
7.320904265034351432e-01,7.923146247947252530e-01,5.942292241577030731e-01,-3.829323715132923467e-02,1.465823561552299648e-01,1.148950889971732531e-01,3.733579516410827637e-01
6.194583586239369444e-01,7.408311068270712063e-01,7.907072503965247856e-01,2.845546485340845477e-02,1.363017487772534390e-02,-1.065484136230740279e-02,1.630939692258834839e-01
5.825101419064503405e-01,7.792052502198340003e-01,7.957119214369856586e-01,6.400656086221565011e-02,1.369617262981110382e-02,-6.053038290333582865e-03,2.348859459161758423e-01
5.472509836336578726e-01,7.930430254401815704e-01,8.093278711298944605e-01,5.216590190004567057e-02,-1.924502475293042927e-02,-8.483342094530783861e-03,2.723462283611297607e-01
8.482486779105893326e-01,8.084299418563014594e-01,5.126943013056771692e-01,4.520598646278894267e-02,-8.978467069864781713e-02,5.347690409158892960e-02,3.737845122814178467e-01
8.641504465295279935e-01,8.984811627168659554e-01,5.286594142647073058e-01,1.611489429048985900e-02,-9.181764775616527152e-02,3.513992745322374461e-02,3.937326967716217041e-01
7.045593078026628486e-01,7.687283028204712210e-01,6.457647541586977180e-01,-1.884518001856411249e-03,-1.772595934386263922e-02,-1.809117071018830200e-03,1.109520122408866882e-01
7.173327403602216545e-01,8.805091727332955420e-01,7.163633750934876865e-01,4.290288947919288637e-02,-1.614868717425968492e-01,7.409297425151187277e-02,3.563860058784484863e-01
7.511875363141469197e-01,7.438985875445240925e-01,6.481484104819069669e-01,2.063652126916779017e-02,-1.706338447950567910e-02,1.417724105285850938e-02,1.125753149390220642e-01
7.045631141114409024e-01,9.698420618118097636e-01,5.817462189372557546e-01,-6.985147707205838219e-02,-3.177833537500308059e-01,5.052463720660763796e-02,6.658020019531250000e-01
7.737197596477187744e-01,1.030658185534343296e+00,4.151889360875444801e-01,9.068066805324045965e-02,-2.506102332003431465e-01,-1.839576007962438406e-02,7.076600193977355957e-01
5.301262033547899932e-01,8.791716887307678974e-01,5.654963630647722450e-01,6.680989222485729517e-02,-2.927882667487416990e-01,7.610586845224903696e-02,6.314110159873962402e-01
7.865476702990081836e-01,8.210171464283502196e-01,3.658090608551505252e-01,9.809389648438104903e-02,-2.243251003226245932e-01,1.261501921714787977e-01,6.482945680618286133e-01
7.213332520558868310e-01,7.174330660631275114e-01,6.893086637637039216e-01,-2.023201871859037909e-02,-1.915143524438218600e-02,-1.867922542397352018e-02,6.550542265176773071e-02
7.072353047163882911e-01,6.975679101736891319e-01,7.299175813280395220e-01,-1.352676271779311608e-02,-1.380108240388323165e-02,-1.304932226777105048e-02,4.958232119679450989e-02
7.111556574650660378e-01,7.074219673092505545e-01,7.212282073462551457e-01,-1.558553543225149824e-03,-5.025835229791327657e-03,-2.256602903727701094e-03,1.585388183593750000e-02
6.966328515998371218e-01,7.243469316593564855e-01,7.404241893155356635e-01,-1.645774663332390600e-02,-1.294457766118103058e-02,-1.703006896164149450e-02,6.047679856419563293e-02
7.119237393998566477e-01,7.148304061899782846e-01,7.170436178869215027e-01,-1.145590515179315157e-03,-1.223202684421506288e-03,-2.490651767801595282e-03,6.842216942459344864e-03
7.111622293399033623e-01,7.093147245284171509e-01,7.156151672488472171e-01,-2.746615090163239715e-03,-4.532108333944550801e-03,-2.637763280979030841e-03,1.168733648955821991e-02
7.028347482506172028e-01,7.142546734630506045e-01,7.286968247560300371e-01,-3.907115841244836012e-03,-4.350279762451412201e-03,-8.189894426587289444e-03,2.842029742896556854e-02
6.535526965569328217e-01,7.309178888765293092e-01,7.320396973245794081e-01,-9.760306229847229634e-03,-1.444568649679713046e-02,-1.951546632651085869e-02,9.015434235334396362e-02
6.167387868013077812e-01,7.820010517455870946e-01,7.800778048799837938e-01,-2.500658039034523578e-02,-2.026617611996722745e-02,-2.773437832398782839e-03,1.735761910676956177e-01
7.197667398278162487e-01,6.949206472553587366e-01,7.700010427314998296e-01,-2.753753915370648828e-02,-1.523150359311523094e-02,-1.411720475310365187e-02,8.920633792877197266e-02
4.806549419333367990e-01,4.049026041404077958e-01,8.680977655145879490e-01,-3.901874552273155161e-01,2.015296073076119562e-02,1.067613526224725669e-02,8.021839857101440430e-01
4.629860389356558747e-01,7.690358242496215802e-01,9.535921511445442089e-01,-3.939287395692267491e-01,-1.485324372070622942e-02,1.072550581673260700e-01,8.276008963584899902e-01
7.433367541354422015e-01,6.900228418824240206e-01,7.151807098081647274e-01,1.823372664546188751e-02,-1.767225591732477993e-02,2.627122956837436851e-02,7.835108041763305664e-02
7.438041897965445015e-01,7.077740285335156756e-01,7.105806689194029691e-01,1.013932220926369414e-02,-9.720721502938020966e-03,9.539691669473025076e-03,4.549547284841537476e-02
7.396006661237038982e-01,6.896704290882500477e-01,7.066063690467065950e-01,5.417273513058362515e-03,-9.820480169265937559e-03,7.703548738866726649e-03,4.989628493785858154e-02
7.238940487706987392e-01,7.018611236868033121e-01,7.019289718091737962e-01,8.139059011385162482e-03,-4.011590387288599402e-03,7.596868884599723010e-03,3.006839193403720856e-02
7.342876763749436320e-01,7.200634895683227787e-01,6.811499522620249047e-01,1.378594912845468312e-02,-4.675412901522794235e-03,6.292047204055205289e-03,5.499644950032234192e-02
7.268883549908931041e-01,7.202522642580668766e-01,6.867716129060520425e-01,1.402103277601681949e-02,-6.795083297135377440e-03,7.980526038428631744e-03,4.802630841732025146e-02
7.506598935974458930e-01,7.008703202148597322e-01,6.982236851456039561e-01,7.719477976262626925e-03,-7.959191824650053981e-03,1.317922258736393785e-02,5.922561883926391602e-02
7.622843438653928994e-01,7.048849071431624314e-01,6.484654032322627604e-01,2.247672863330760218e-02,-1.107332704411371181e-02,1.996050162257720709e-02,1.131151393055915833e-01
7.229209848537132554e-01,6.889961105355285609e-01,7.334225729591011822e-01,7.170018570957172391e-03,1.405042505189921936e-02,-5.934959576367868431e-03,4.969494417309761047e-02
7.018193697391691410e-01,7.373371652965113876e-01,7.012847135853856884e-01,1.697776773594876325e-03,-2.928070584997232036e-05,-1.938301221429835101e-03,3.606536239385604858e-02
7.098780054960259767e-01,6.556097659417914336e-01,7.637578456787049719e-01,1.608086293230482494e-02,1.200019555100638284e-02,-6.018398467795091182e-03,1.004415377974510193e-01
7.888409454260945086e-01,6.054379459444593214e-01,7.434334523465788713e-01,1.730978037811948395e-02,8.791869822796142750e-03,-5.153930923625414662e-02,1.909720152616500854e-01
5.825152636849332266e-01,7.590727836870282408e-01,8.136441951238986281e-01,8.321857596511231248e-02,-4.427009454147047551e-02,3.483213235334613883e-02,2.721781432628631592e-01
7.047446190057752302e-01,6.948870114510914409e-01,7.379526695401583680e-01,9.479290251236158205e-03,9.017909071622033992e-03,-6.023343220653181937e-03,4.636463895440101624e-02
6.931029792136638168e-01,7.133782321127465353e-01,7.476501686628512777e-01,1.266951057635710629e-02,1.244713123208199268e-02,-1.270522116224155271e-02,6.091907992959022522e-02
6.842399424843320643e-01,6.959844071756889905e-01,7.599317903998603629e-01,8.324431723821580989e-03,2.439378028942808946e-03,-6.787814955208733812e-03,7.309029996395111084e-02
7.104480521173442975e-01,6.659811815614921082e-01,7.559084743079662605e-01,1.644403428239956874e-02,1.191531520355145965e-02,-4.672582105461869049e-03,8.583750575780868530e-02
8.090512300844172611e-01,7.804233690930206802e-01,5.564722768914254214e-01,1.692760898652157214e-03,-1.869925473013692857e-02,-6.013248473182818826e-02,2.632303535938262939e-01
8.080700190748624223e-01,8.304058593426772994e-01,4.983106619024805783e-01,7.970779349876111475e-03,1.966937764576362838e-02,-9.147920599764580718e-02,3.603124618530273438e-01
7.933055732071423449e-01,7.800663381484260750e-01,5.515482111831699896e-01,7.660036089061123335e-03,1.261043297107128499e-03,-3.633324082667704208e-02,2.440539449453353882e-01
7.984891979299116871e-01,7.642128509814226645e-01,5.980077543430565301e-01,3.971149126935739036e-03,-2.754286821776726199e-04,-1.510156787495848217e-02,1.876902133226394653e-01
8.127511460281715561e-01,7.848307634394706689e-01,5.742744173979724698e-01,1.304250952596783079e-02,1.777582817050488151e-02,-2.449177297966883410e-02,2.329165935516357422e-01
7.761606544093031523e-01,7.987105691199469781e-01,5.765544607887588269e-01,-2.396564392063033760e-02,2.952847444424530274e-02,6.065211380216063534e-03,2.220392823219299316e-01
7.317322680615911956e-01,7.743776584630490678e-01,6.441227819356286632e-01,-1.731274725392457567e-02,7.759458489838463868e-02,2.883451335254315351e-02,1.862429380416870117e-01
8.863506766877559118e-01,8.918763405942531364e-01,5.669859602833764445e-01,-2.432149581776381006e-02,7.228694949429610717e-02,7.677445609455839370e-02,3.727235198020935059e-01
7.451790335610776195e-01,7.804425358622177900e-01,6.108543476709633602e-01,-8.829059419473815271e-03,2.310431295098671484e-02,3.187161563191475647e-03,1.609010696411132812e-01
