sxx,syy,szz,sxy,sxz,syz,smises
-8.459759343743718241e-03,-8.459759343743718241e-03,7.691951868748948817e-02,5.972336001002089649e-37,2.980604058882818539e-37,2.980604058883042801e-37,8.537928014993667603e-02
