sxx,syy,szz,sxy,sxz,syz,smises
-1.922128924268724087e-02,-1.922128924268724087e-02,-8.182742151462557567e-02,8.891371601067196043e-53,4.403290137522733449e-53,4.403290137522733449e-53,6.260613352060317993e-02
