sxx,syy,szz,sxy,sxz,syz,smises
-4.901812092586851910e-02,-4.901812092586851910e-02,-5.019637581482625510e-01,5.985783900216878821e-52,2.693602755097811716e-52,2.693602755097811716e-52,4.529456496238708496e-01
