sxx,syy,szz,sxy,sxz,syz,smises
2.089927436415021239e-02,2.089927436415021239e-02,7.847145127169985468e-02,-3.335671056225154063e-37,-1.682966999142218467e-37,-1.682966999142131393e-37,5.757217854261398315e-02
