sxx,syy,szz,sxy,sxz,syz,smises
0.000000000000000000e+00,0.000000000000000000e+00,0.000000000000000000e+00,9.495567745759798945e-68,4.747783872879899473e-68,4.747783872879899473e-68,0.000000000000000000e+00
