sxx,syy,szz,sxy,sxz,syz,smises
4.522597315095187864e-02,4.522597315095187864e-02,2.695480536980969788e-01,-3.584994694908069277e-37,-1.900047188301355467e-37,-1.900047188301198442e-37,2.243220806121826172e-01
