sxx,syy,szz,sxy,sxz,syz,smises
-1.143932314527078831e-01,-1.143932314527078831e-01,-2.070199887074881118e-01,2.198989145825485869e-52,1.022529952808860514e-52,1.022529952808860514e-52,9.262675791978836060e-02
