sxx,syy,szz,sxy,sxz,syz,smises
-4.566870284883886577e-02,-4.566870284883886577e-02,6.371694056976782150e-01,1.801603905346741441e-37,9.770131967047958642e-38,9.770131967048950488e-38,6.828380823135375977e-01
