sxx,syy,szz,sxy,sxz,syz,smises
-5.399752216859982079e-02,-5.399752216859982079e-02,-2.592949556628002528e-01,-5.916454673672515484e-52,-2.869145395370078034e-52,-2.869145395370078034e-52,2.052974402904510498e-01
