sxx,syy,szz,sxy,sxz,syz,smises
-5.643210390056146997e-02,-3.262887421500019758e-01,-1.155925702562098090e-02,-4.004082562440294812e-03,3.547644440998895358e-03,4.806515954044322803e-02,3.065322935581207275e-01
-5.655677319816655724e-02,-2.985460670035869901e-01,-1.883269109128304919e-02,8.909609226089392625e-03,4.430063498871424782e-03,2.783521256124612056e-02,2.678286135196685791e-01
-4.936298703130741899e-02,-2.698653459976585456e-01,-1.588509211850737401e-02,-4.425461667863731115e-04,9.511890264583071006e-03,4.236743873526867266e-02,2.505614161491394043e-01
-5.183110564422589717e-02,-2.825466326309068466e-01,-3.192790801822124880e-02,6.231695107454813046e-03,-6.691223554475925726e-03,5.900455417351830462e-02,2.625132501125335693e-01
-5.745455298328341898e-02,-3.288819198106783803e-01,-1.253848745823163413e-02,-1.032569483135633778e-02,-3.716967199702206435e-03,4.418859456777676081e-02,3.067587316036224365e-01
-1.898101574487259802e-02,-3.479919538635420917e-01,-4.665731929992306126e-02,1.076775881740114210e-02,1.028330885788931830e-02,2.886254119997248672e-03,3.171725571155548096e-01
-1.777926632725027045e-02,-2.539997429792544281e-01,-5.202070739942688676e-02,4.029635977939109021e-02,1.147121762043560450e-02,9.852759240004336713e-03,2.333269119262695312e-01
-2.268762021322719147e-02,-3.139643334823521981e-01,-4.284735280969569071e-02,4.806283307561930174e-02,1.319139245115744791e-02,3.997848307765453080e-02,3.026936650276184082e-01
-1.802889391986435552e-02,-3.368430671848812730e-01,-4.786521567276308398e-02,1.403750565306900733e-02,8.340125273555503219e-03,1.766527621952914025e-03,3.063162267208099365e-01
-2.093664508136623692e-02,-3.175454771761483386e-01,-4.705480275419998692e-02,2.907974900220561612e-02,1.244482272473777795e-02,4.303202208965054357e-03,2.897742986679077148e-01
-2.874136357115664175e-02,-3.335474395936712799e-01,-4.584335359172975188e-02,3.258920427172088546e-02,9.798390466618829217e-03,6.097512369170324763e-03,3.026089370250701904e-01
-2.455603019673348320e-02,-3.496754618510476420e-01,-5.167636790744879749e-02,4.857815227564622057e-02,1.374841227844546786e-02,2.803914641295679813e-02,3.280639648437500000e-01
-2.460475928760402775e-02,-3.461087134561507961e-01,-4.293186896811289344e-02,4.807700958900169852e-02,1.018327298972002484e-02,1.852761850012689046e-02,3.257046937942504883e-01
-1.466164362453134529e-02,-3.468682680667895535e-01,-5.341512014313759549e-02,3.928763419929074546e-02,3.799794354219278910e-03,3.141591904269293127e-03,3.220130205154418945e-01
-1.727195941826233094e-02,-3.377637713640486705e-01,-4.807912431162346401e-02,1.630183767973996875e-02,8.340569354390328649e-03,2.762948639511300999e-03,3.079277276992797852e-01
-3.909527238940063709e-02,-3.689894674253080264e-01,-4.067525471413167837e-02,3.553210990280471237e-04,-2.891299214887419226e-04,-1.022054825740023555e-03,3.291127681732177734e-01
-2.558230161116982482e-02,-3.671915709511969772e-01,-3.939096426481245028e-02,2.889623587939770238e-03,6.686837363104116382e-03,1.303721448959708909e-03,3.351636826992034912e-01
-2.952107957018529349e-02,-3.401811274614734426e-01,-4.680295592933185478e-02,-1.774677345427763328e-02,1.050170671608160328e-02,-8.912373631709710059e-03,3.048828244209289551e-01
-2.678732768221926686e-02,-3.593276479905338494e-01,-4.067558507837844284e-02,-1.275575666732418727e-02,7.214851401049723369e-03,-2.568295214197647853e-03,3.268357813358306885e-01
-2.694420029135308203e-02,-3.522306028896980967e-01,-4.826573749170762206e-02,-6.574311870064439983e-03,1.117337821935287384e-02,-1.252159307375342798e-02,3.167093396186828613e-01
-2.690666551067201484e-02,-3.489764555523434675e-01,-3.973510515110502406e-02,-6.034670724753861751e-03,8.331607329683814525e-03,-1.596249467468062629e-03,3.163653016090393066e-01
-3.127131717201744876e-02,-3.391646865414192913e-01,-3.688686805932119006e-02,-1.529222478867931639e-02,1.128919682824356535e-02,-5.248775665618909611e-03,3.070299923419952393e-01
-3.245214545879021584e-02,-3.402480998574837212e-01,-3.991224677591793946e-02,-1.609918766922242492e-02,9.558977658274197056e-03,-6.911336020929672620e-03,3.060927689075469971e-01
-5.853358557765409032e-02,-3.178174236974286027e-01,-2.133605757074318043e-02,-1.197132604155458531e-02,-2.109119917581451370e-03,-1.559364441055351852e-02,2.818319499492645264e-01
-4.664546949367907869e-02,-3.569718561562676418e-01,-1.615072805473469209e-02,-6.479304991769621255e-03,3.838369258875299565e-03,-1.859895856969851977e-02,3.284868597984313965e-01
-4.915787743316712977e-02,-3.587804131731621160e-01,-3.138244017197512614e-02,-4.744815245654724310e-03,8.833317047814173012e-03,-1.658971342282277578e-02,3.206447064876556396e-01
-4.523813465176589055e-02,-3.402015315700320786e-01,-2.433889885243649409e-02,-1.492598779825417624e-02,1.303557665718258840e-03,-5.577454445350560341e-02,3.218859136104583740e-01
-6.018319766056128006e-02,-3.019812677547620838e-01,-2.579367153553489833e-02,-1.555803858828901359e-03,3.354094067850002699e-03,1.118709280010532188e-03,2.607854306697845459e-01
-4.795239592806080364e-02,-2.857015793802853976e-01,-3.176178153940956150e-02,-2.335507979971000389e-02,5.429572702182436025e-03,-4.926488838627997302e-02,2.638977468013763428e-01
-5.358497659051947304e-02,-3.460790110830176403e-01,-1.004433660070941370e-02,5.736945817258945870e-04,-1.147027096207904173e-03,5.633503761306240046e-03,3.166765868663787842e-01
-4.831578464197884559e-02,-3.278729509338005332e-01,-2.645310552564751616e-02,-2.387802724854369910e-02,8.146471635380677506e-03,-6.183835924621505775e-02,3.132468461990356445e-01
-5.132123893018301908e-02,-2.826532452286129038e-01,-2.072677540271940233e-02,1.509849368582723110e-03,-3.855060090819726303e-03,-5.850579506500137861e-02,2.680451571941375732e-01
-4.791848750515075028e-02,-3.779588504148896355e-01,-5.239677250863682134e-02,-6.194764397914191353e-03,1.022857137671279344e-02,9.661272674538658048e-04,3.284820914268493652e-01
-5.632931939711291469e-02,-3.704561963443933070e-01,-4.481540541708806114e-02,-4.446642616033873868e-03,6.903418442002730998e-03,3.088652984910505040e-03,3.203997611999511719e-01
-4.895481789689910823e-02,-3.693002004306493724e-01,-5.407947603355262034e-02,-6.491660067027718670e-04,4.982153056112989704e-03,2.843317812383846721e-05,3.179331719875335693e-01
-4.475757925671960957e-02,-3.707912866652052220e-01,-5.375083685896911434e-02,-3.084741872525146970e-03,3.512694912409906976e-03,1.597117750792506619e-03,3.217451870441436768e-01
-4.281563516836311978e-02,-3.857555204588046793e-01,-5.045267483862495017e-02,-4.638250634813200282e-03,6.316872557016184331e-03,5.247840538665996934e-04,3.394585549831390381e-01
-2.925525312553801938e-02,-3.663561217498697009e-01,-3.187861952984576142e-02,-5.631452098840089657e-04,-3.356733939122589355e-03,2.098678861996297130e-04,3.358488082885742188e-01
-4.175708736474918747e-02,-3.812518050061476371e-01,-4.544976225456011376e-02,-2.973017602653870925e-03,3.806118734333678762e-03,-3.361809508009021893e-03,3.378173112869262695e-01
-3.417215573050305655e-02,-3.568453911659410505e-01,-2.798149143035831565e-02,-4.602224212140999457e-03,-9.620868168397168907e-03,5.272894074767818864e-03,3.264636993408203125e-01
-3.775600234976500547e-02,-3.351527633934894834e-01,-3.314575745478576252e-02,-7.351607363464704101e-03,-9.833436881249825803e-03,1.299338192823541738e-02,3.013235330581665039e-01
-5.117108189146608865e-02,-3.502156422986202333e-01,-9.360305749364195016e-03,1.712638830574680535e-04,8.246417607767780357e-05,2.137838650216539443e-03,3.220138251781463623e-01
-4.460347754510700369e-02,-3.710932155952048062e-01,-4.072867610907597580e-02,-2.497076907538225542e-03,8.514974165535751580e-04,1.221603017973629671e-03,3.284828960895538330e-01
-3.886738014223707627e-02,-3.635546139591133707e-01,-3.448681346241540269e-02,-9.636733522925607087e-03,-8.247177034017779546e-03,2.759405380453654622e-03,3.276717662811279297e-01
-3.960693045507024390e-02,-3.688290710049323406e-01,-3.080074400434421045e-02,-8.361942322406281172e-03,-1.190612545221491660e-02,1.727692806434364542e-02,3.359977304935455322e-01
-4.902280287991836460e-02,-2.405799931664739377e-01,-5.704692267030357644e-02,2.199168189092958955e-02,7.145833059341911465e-03,2.044133933189088564e-02,1.951386779546737671e-01
-4.210246963834148037e-02,-2.724626195602913858e-01,-5.832112538934539070e-02,1.766801330393272989e-03,1.029127924410704574e-02,1.434004626135667107e-02,2.248037308454513550e-01
-2.799823974089732381e-02,-2.759797953710005913e-01,-5.801608425533580360e-02,2.022142052379354363e-02,7.922708323872530017e-03,7.629185399909267293e-03,2.377849668264389038e-01
-4.983106999222334382e-02,-1.987177729010989879e-01,-6.926105776347299403e-02,2.277040877787479822e-02,1.113235395868610641e-03,4.965869973659642854e-03,1.458940654993057251e-01
-4.428055932201013789e-02,-2.450780416945375906e-01,-7.122878476874637543e-02,2.303582754822619972e-03,-7.032324631840467053e-04,2.905199536188328132e-04,1.888183206319808960e-01
-4.235086248230174322e-02,-3.702259240969594245e-01,-3.783615992813621487e-02,-1.870489187006585266e-03,3.129488259822250668e-04,-2.382320740835457812e-04,3.301721513271331787e-01
-3.305158720037706943e-02,-2.172000349882493020e-01,-6.266301054194990672e-02,2.996336147029777727e-02,1.965989738802140143e-03,-1.864667657910747177e-04,1.789963692426681519e-01
-4.761429364597635078e-02,-2.048259685285231391e-01,-6.361173602842259966e-02,2.730693146258838730e-02,-2.877795796740773449e-03,1.409758665315437613e-03,1.572394967079162598e-01
-4.481466574512270318e-02,-2.446710155469134784e-01,-6.630363511587109016e-02,2.714215740714561158e-03,-2.637816507628125591e-03,2.205724552533105693e-03,1.901767551898956299e-01
-2.714195287497649101e-02,-3.434632696673919905e-01,-4.156150805853234265e-02,-1.999325148333392158e-02,-4.188004118564707910e-03,-1.845267857317263015e-03,3.113967180252075195e-01
-3.163773422289384296e-02,-3.342043250391256715e-01,-4.556684961087448249e-02,-2.138434954538196223e-02,-1.363268459270700192e-04,7.798163316531764658e-03,2.984634637832641602e-01
-2.915760878310970361e-02,-3.466491377664492890e-01,-3.389104673196435824e-02,-1.552503365811558518e-02,-7.949193268390821951e-03,1.749032850312853479e-02,3.180421888828277588e-01
-2.327764471056630036e-02,-3.240511944252362220e-01,-4.453310661872703080e-02,-5.352565170385329557e-02,-6.481326132927769414e-03,9.288288801420812105e-03,3.057830333709716797e-01
-2.497251315843351804e-02,-2.903634343322868405e-01,-4.620406036432596342e-02,-4.989223445297699677e-02,-1.320660737376003549e-02,2.909388369882275061e-02,2.752794325351715088e-01
-2.743843954707016197e-02,-3.466404250183617308e-01,-5.422756311847380661e-02,-1.869555123161785806e-02,-1.217856333735637016e-02,-2.814948127617876938e-04,3.091119229793548584e-01
-5.510891155286867793e-02,-3.710131773574345537e-01,-4.520154978069035323e-02,1.599204047046389040e-03,-2.178685202234307942e-03,1.880082653105440539e-03,3.210232853889465332e-01
-2.751914578036541992e-02,-3.354343061331678255e-01,-4.161787032951694276e-02,4.429203640415383531e-03,-1.083899058674689733e-02,-3.268384054211886762e-03,3.018487393856048584e-01
-1.855159516031767986e-02,-2.749854410556908935e-01,-4.566380997143920650e-02,3.387335002207325640e-02,-5.429175586613329586e-03,1.163460402792074492e-03,2.511485517024993896e-01
-3.213535922697512148e-02,-3.513776384404527220e-01,-3.838135887787723355e-02,1.827081391278407782e-02,-1.482716813957415079e-02,-1.404955861999037693e-02,3.197089731693267822e-01
-1.781448560351747701e-02,-3.330560018596966376e-01,-4.323747569585037476e-02,1.092520110717989587e-02,-6.537725703479232639e-03,-4.180706763706619825e-03,3.042168617248535156e-01
-5.486149438905377207e-02,-3.675344563278678534e-01,-4.967737240825138845e-02,-1.162431784513503433e-03,-4.263634921196783438e-03,-9.556771592551983755e-04,3.153942227363586426e-01
-2.497458703644893363e-02,-3.358632661033114086e-01,-4.545210579181788169e-02,1.272236710255126094e-02,-8.837164441571267182e-03,-8.691955280636969733e-03,3.027397990226745605e-01
-2.534118193759640758e-02,-3.533231783014947336e-01,-4.122656416906488042e-02,5.677397036331832333e-03,-1.109932211982688800e-02,-9.754185068246063600e-03,3.215060234069824219e-01
-2.825551927755018400e-02,-3.202057641047715286e-01,-4.497912160398540027e-02,1.585611456470920055e-02,-1.072982907181109849e-02,-8.835865291399694343e-03,2.862970829010009766e-01
-2.429693491281580131e-02,-3.699018084687502039e-01,-3.861455421083459516e-02,-9.904331852744586545e-07,-2.796150450539723435e-03,7.758760380301264617e-04,3.387104272842407227e-01
-2.371495981905860639e-02,-3.569776113909483017e-01,-4.033636471105281340e-02,-1.232560884224024982e-02,-1.014605350826526357e-02,4.752324388063616442e-03,3.265475630760192871e-01
-2.507869550763430766e-02,-3.607628919537217427e-01,-4.284419414005813387e-02,-2.754017445577335542e-03,-7.287099031985291159e-03,5.613379996100011874e-04,3.274429738521575928e-01
-2.769208490780313003e-02,-3.687514506498718592e-01,-4.130213757085862691e-02,-6.601366292988046156e-03,-7.182575060945729437e-03,2.169014255150323971e-03,3.349097073078155518e-01
-2.463172102440988609e-02,-3.554231403455592742e-01,-3.593068633079025964e-02,-6.155345961012703877e-03,-4.445686712165602440e-03,6.785636246596853452e-03,3.257669806480407715e-01
-2.679585442720779087e-02,-3.268117457677543469e-01,-3.803740713653770700e-02,-2.513497624821620785e-02,-9.728038751872152695e-03,5.460951363661096375e-03,2.983821928501129150e-01
-4.573611324177298543e-02,-2.732877585957131372e-01,-3.075860184811174403e-02,-4.687552122720543141e-02,-7.109717126787023361e-03,6.578472425368957210e-02,2.741144001483917236e-01
-4.383630070019092773e-02,-3.682870120633215949e-01,-4.678218928910861385e-02,9.809270108512336845e-04,3.628186201012485561e-04,6.181498479960374510e-04,3.229947090148925781e-01
-1.337976379984209124e-02,-1.587050243149774054e-01,-3.672960779676115450e-02,-1.577537237991272559e-02,2.652963795949073514e-03,6.342904763687028102e-02,1.763767451047897339e-01
-4.479808097073084694e-02,-3.263203450069853684e-01,-2.960381367251492535e-02,-1.562523927744008737e-02,-1.172239812000761688e-02,2.675419158869455499e-02,2.950512170791625977e-01
-5.194239636305489349e-02,-3.268503700259048350e-01,-9.529196092141256624e-03,-3.779973389580782404e-03,3.954137975968665948e-04,4.706982723456976797e-02,3.093914091587066650e-01
-4.617764568071555664e-02,-3.396088880678029831e-01,-2.618267980100885683e-02,-1.779907634386963811e-02,-1.269363603921840056e-02,2.339324789022640197e-02,3.089407384395599365e-01
-4.947173781792292557e-02,-3.280408311741614957e-01,-1.615119391488455125e-02,-1.557356531751341502e-03,-4.827012966270751229e-03,3.642129554044670064e-02,3.033970594406127930e-01
-2.080229179231295189e-02,-3.695282817075056236e-01,-3.954519623553189034e-02,-2.819678370798770969e-03,-2.370978672789498740e-03,-1.142045641995422705e-03,3.398081958293914795e-01
-4.273163643752730945e-02,-3.676750344013531846e-01,-2.887981089499125353e-02,-2.203802002987757108e-03,4.709416688972752237e-03,-5.103087779041258661e-03,3.323256969451904297e-01
-4.484764065909060959e-02,-3.632842927534184474e-01,-1.638306039558745653e-02,-1.507053703770240604e-03,3.819440778729205586e-03,-3.111302043720296732e-03,3.337003290653228760e-01
-4.356372721871810960e-02,-3.460023210471150357e-01,-2.283201736660614434e-02,-9.686908606146474310e-03,4.584171884048194624e-03,-8.867681874704373690e-03,3.142442405223846436e-01
-1.816128278884161784e-02,-3.438656349154470271e-01,-5.534891549745650507e-02,2.406328597079242931e-02,7.125365005315873433e-03,2.500366510628622765e-02,3.148317933082580566e-01
-2.225140303889906745e-02,-3.330498238767216623e-01,-4.424371419299953645e-02,2.015686827671972492e-02,1.170846202640087215e-02,2.007257996415271958e-02,3.050951063632965088e-01
-1.645583382721066412e-02,-3.682298987075564023e-01,-4.434852963665447678e-02,-4.521054320260518671e-03,-3.492880611740778549e-03,-8.972074322932973136e-04,3.388383090496063232e-01
-3.308509510697364708e-02,-3.686094242642168339e-01,-2.763547509716893225e-02,-2.628047808113872261e-04,-2.793438237827825226e-03,6.371660595262351691e-04,3.383187651634216309e-01
-3.592538437917973393e-02,-3.893192734916596232e-01,-3.393806448872478676e-02,1.586750982343711550e-02,8.040312181738324890e-03,2.000680938795280223e-02,3.574123382568359375e-01
-3.116860656985045996e-02,-3.504332272787701319e-01,-3.371403397863777240e-02,1.785529258509685122e-02,9.121002377946047304e-03,2.157347105251161690e-02,3.220651745796203613e-01
-2.894788600233554055e-02,-3.543695204994432024e-01,-3.031110376578936838e-02,1.351648583680003027e-02,1.123019846150189772e-02,9.490588536951583346e-03,3.265794515609741211e-01
-3.167739266021322997e-02,-3.664823822678159315e-01,-3.105720628546042306e-02,8.514447852742969627e-03,1.075522327088201079e-02,6.619710399027639060e-03,3.361523151397705078e-01
-2.975873253695841825e-02,-2.939084391082926739e-01,-6.375055088539961778e-02,-1.211361194377218089e-03,5.458149611270708343e-03,8.347026657706724164e-04,2.490932494401931763e-01
-1.116538283270507304e-02,-3.500372119561296902e-01,-4.820954536993210526e-02,2.035842607811534991e-03,2.448736810298333174e-03,3.134396761181495236e-04,3.219998180866241455e-01
-3.775612936370831285e-02,-3.681707464288946907e-01,-3.785235147962034974e-02,6.071987936207963411e-04,2.800134574847588063e-03,2.721580495441048349e-03,3.304374217987060547e-01
-4.501748738257166371e-02,-3.736506706448089465e-01,-4.236884556368758492e-02,9.947870886753110327e-04,-3.094184907493756180e-03,1.204301781027608928e-05,3.300134837627410889e-01
-3.621672310715612353e-02,-3.702745336741236626e-01,-3.106176685842031160e-02,4.260637373280568192e-03,1.018064548312821484e-02,6.916279191943265972e-03,3.374198377132415771e-01
-3.877621867920787169e-02,-3.592636125049970541e-01,-3.556694803370580305e-02,4.336881334803924931e-03,4.169887875134212218e-03,6.089534389240441707e-03,3.224450945854187012e-01
-4.051426246758980942e-02,-3.679472457053315493e-01,-3.323116238394153987e-02,1.934424640615620573e-03,3.096429923738930768e-03,8.476775988591526978e-03,3.315202593803405762e-01
-2.835458254305232850e-02,-3.529727636742146513e-01,-3.312964232081548610e-02,1.255760483897446628e-02,1.163190549596136540e-02,9.750628970155687456e-03,3.240584731101989746e-01
-2.474343785043779664e-02,-3.492198752228621306e-01,-3.636151051156608083e-02,1.734589555896010743e-02,1.368833600141039671e-02,1.687346186784195040e-02,3.224422931671142578e-01
-3.060334546434290148e-02,-3.143846264045510597e-01,-3.476933973300021241e-02,3.751911756470337200e-02,1.630762947327346266e-02,2.174513345757204258e-02,2.929272353649139404e-01
-3.714977324417154114e-02,-3.533491491718727118e-01,-2.951948534600652707e-02,6.175561867538215295e-03,9.640537207963151278e-03,1.121068049120910876e-02,3.212837278842926025e-01
-5.552333907872109009e-02,-3.073355438357822100e-01,-2.095743861309737333e-02,-8.791515517905143864e-03,-1.638482314670850924e-03,3.719812362882516515e-02,2.787460088729858398e-01
-4.798255910220468323e-02,-3.277471501511766139e-01,-6.639277884447522537e-02,-3.319310798964070913e-02,4.739648729583838607e-03,1.332691553258618378e-01,3.607095479965209961e-01
-4.019423885378287098e-02,-3.590217044360406451e-01,-3.025066481076074676e-02,-6.212029175099884233e-03,-1.179368837927734573e-02,3.062936910931770076e-02,3.290404677391052246e-01
-6.038032021440430108e-02,-3.059164827170476331e-01,-2.980638166997623406e-02,-2.645132537370055090e-02,7.151298670003461942e-03,8.989156091956804207e-02,3.085833787918090820e-01
-4.227603187229529713e-02,-3.098803684835368943e-01,-1.725730956298660024e-02,-1.355122536535871558e-02,-9.197617958677876612e-03,4.170789056302651177e-02,2.914729416370391846e-01
-4.560714884937583369e-02,-3.549428073797438188e-01,-2.241645946474477014e-02,-8.461209111757968249e-03,-9.822298664982508434e-03,2.182282647650874222e-02,3.245504200458526611e-01
-4.593460833123710896e-02,-3.607969108622434695e-01,-2.045849460770858552e-02,-9.795946921997231854e-03,-7.352265170177572744e-03,3.575948378792898064e-02,3.348059654235839844e-01
-4.347878197967600111e-02,-3.232615669685191540e-01,-3.288019247398528411e-02,-2.715264019468727891e-02,-7.921535839158253683e-03,2.891755443464292391e-02,2.937086522579193115e-01
-3.561054540166534721e-02,-3.356124537531715024e-01,-3.293410374382864381e-02,-1.327322842350327388e-02,-9.082634303919392277e-03,1.199322499992034122e-02,3.033459782600402832e-01
-3.922951509831351657e-02,-3.404308289787074671e-01,-3.540243903997006281e-02,-2.229409090982126945e-02,-2.246100237249785275e-02,1.783020283202677372e-02,3.095931410789489746e-01
-2.872421867196536804e-02,-3.635081025312836278e-01,-3.962711601399002137e-02,-2.082680709193020577e-02,-1.211465714099871534e-02,3.897309151170863430e-03,3.321688473224639893e-01
-3.406416144508685184e-02,-3.125473656404884615e-01,-3.984267964859604383e-02,-2.984957632399863961e-02,-7.158974346108295909e-03,1.840968357130343472e-02,2.825253307819366455e-01
-4.665474929697401019e-02,-3.196383711046215659e-01,-2.091538785603461181e-02,-1.209872501661805053e-03,3.235798885676055732e-03,5.007019671715770559e-02,2.996095418930053711e-01
-5.249805037133345453e-02,-3.034958701749042587e-01,-1.826746845964222210e-02,-1.174361474200847494e-02,-5.393080920549968467e-03,3.977606475370228101e-02,2.793042063713073730e-01
-3.688592292691074415e-02,-2.898820363755767460e-01,-4.753161155759287604e-02,-4.796538872057381359e-02,1.457793400732099523e-02,1.009418856798906111e-01,3.154907524585723877e-01
-6.274169496554085623e-02,-3.075718023952032087e-01,-1.713279418960995948e-02,7.404127462427943958e-03,4.663022703906198260e-03,2.776690132153233556e-02,2.751927971839904785e-01
-5.312014448332177952e-02,-3.545731337661783278e-01,-1.937007111299610118e-02,-1.082345871937187218e-02,5.197885779081873846e-03,4.550772454806108896e-02,3.298975527286529541e-01
-4.633844282312830909e-02,-2.811518674001346474e-01,-2.117071497899415677e-02,-2.279240116717215947e-04,7.830468888435746996e-03,4.087538741179688045e-02,2.586058378219604492e-01
-4.072752341747154503e-02,-3.565967175067029649e-01,-2.434763863892883129e-02,5.543302114353483231e-03,7.336236374295679839e-03,8.027607830993616772e-03,3.250577151775360107e-01
-3.981628731897794704e-02,-3.373375050830162980e-01,-2.051480535066210753e-02,8.890635077602659572e-03,9.851781341899684338e-03,8.753906832041094543e-03,3.088563084602355957e-01
-4.155013769994975181e-02,-3.566069664296853681e-01,-2.689934060101369095e-02,4.720791163443192363e-03,1.293779717257579308e-02,2.377810862707631021e-02,3.261234462261199951e-01
-3.482558542594764439e-02,-3.662296144999637182e-01,-3.116388545087581119e-02,2.421363006920175531e-03,9.728371074700098084e-03,3.386861012132746322e-03,3.337535858154296875e-01
-3.335198217211297889e-02,-3.509444242943510206e-01,-3.019761545025850813e-02,4.361018143546689652e-03,9.662374704047861293e-03,4.140657939924382962e-03,3.197894394397735596e-01
-3.932093749078689748e-02,-3.263268053493046383e-01,-2.838945106109150296e-02,8.967754843789740860e-03,1.104336008316560147e-02,1.028250079969964849e-02,2.941999137401580811e-01
-3.973774796251851316e-02,-3.677379877036447420e-01,-4.163862386531108628e-02,-6.780275472660699096e-04,-7.219235209797866207e-04,-1.595223072291774560e-03,3.270701169967651367e-01
-3.656886827659913686e-02,-3.570731411353320617e-01,-2.918794901518072249e-02,5.519743861112513458e-03,5.871938788376537821e-03,1.609856015465687545e-03,3.245700299739837646e-01
-5.312889730425965351e-02,-4.241440241974887559e-01,-2.828215950222562336e-02,-1.010661062539594014e-02,1.061123894470922214e-03,-1.230277896967054210e-02,3.850350379943847656e-01
-3.341565125066457698e-02,-3.363217676696629299e-01,-2.928679341943754566e-02,1.577664971069772659e-02,1.189779492505262451e-02,1.273495996232873115e-02,3.076974749565124512e-01
-4.052271016717064189e-02,-3.480523500305195972e-01,-2.838150583458047549e-02,2.462009610603168447e-02,8.598917012695019707e-03,3.577500244693051362e-02,3.230100572109222412e-01
-4.141564726144902897e-02,-3.418868082960703214e-01,-2.468821558477463096e-02,2.591370521564992022e-02,1.295254222190355721e-02,4.802458970157495038e-02,3.240768313407897949e-01
-4.835931262394116414e-02,-3.510119736839850679e-01,-1.475828841318638229e-02,5.710816905910474743e-03,1.200452868480885935e-02,2.102972514306899673e-02,3.236572444438934326e-01
-4.555817015400982772e-02,-3.113617442287255344e-01,-1.678475221078948310e-02,1.713172654424480190e-02,1.224811780652166997e-02,4.116753103331757813e-02,2.924762666225433350e-01
-4.755203739631125304e-02,-3.212532814383216584e-01,-2.391774575598160091e-02,9.969877598092570514e-03,1.394014038252411498e-02,1.599383109001115133e-02,2.891163527965545654e-01
-4.620837469132180186e-02,-4.234085535747201812e-01,-3.764557323499120867e-02,-4.660715405361851721e-02,1.360680393001865995e-02,8.702764905168051393e-04,3.907141983509063721e-01
-3.895511909594220890e-02,-3.245494749910735055e-01,-2.525562455793145533e-02,1.295452584344993809e-02,1.310751728096798754e-02,1.313594100184773544e-02,2.952978909015655518e-01
-3.284540023494064709e-02,-3.181586036187583066e-01,-3.350572513563127020e-02,2.080394899838118247e-02,1.581473335776958922e-02,3.266851319725588149e-02,2.940511703491210938e-01
-3.901310026650589569e-02,-3.444745725886697030e-01,-2.760779771677908390e-02,3.636160848960938267e-03,8.539858183732334032e-03,2.238918054601132801e-02,3.141384124755859375e-01
-5.266184181673880249e-02,-3.759187291385523988e-01,-4.499809483163361157e-02,1.315949828964530334e-03,7.459489681254230682e-03,1.801754583904579231e-03,3.274339139461517334e-01
-4.483651609641374491e-02,-3.824847858711586945e-01,-4.708855612241734379e-02,3.037978037868602123e-03,3.904482657477684193e-03,-5.500313842911480795e-03,3.367717564105987549e-01
-5.228910857805309231e-02,-3.761904743520226857e-01,-4.922413409908331372e-02,7.159834870412592166e-04,1.502054668337305873e-02,2.504631392742406632e-04,3.264855444431304932e-01
-4.605835973345516476e-02,-3.735702001634583214e-01,-4.330349996189004902e-02,2.846097646166302880e-03,-2.709548245123440634e-03,4.674606935570150418e-03,3.290679752826690674e-01
-4.417972490610037883e-02,-3.766021973982784932e-01,-6.136848082309254160e-02,3.092883397567032511e-03,-1.026671377087999201e-02,2.914032984834828265e-03,3.247408270835876465e-01
-3.849719923006726663e-02,-3.877285194676796110e-01,-4.085436406037454282e-02,1.151541935345566691e-03,1.359411535587162767e-03,3.994235460664664027e-03,3.481411337852478027e-01
-4.003288064517591949e-02,-3.824773848335285553e-01,-4.346656927733949516e-02,-6.643795724293801450e-04,-1.108650048237013862e-03,3.141052186241388277e-03,3.407914042472839355e-01
-4.272618889426463284e-02,-3.714587909290015810e-01,-5.135706642227087781e-02,-4.623826849815443861e-03,-7.425542766093170058e-03,-1.214059080623933889e-02,3.255366384983062744e-01
-4.300927131172664619e-02,-3.696382961211537310e-01,-4.421467129129884321e-02,5.880810309418105057e-03,-3.075518228401700506e-03,4.951501703661034468e-03,3.263432681560516357e-01
-4.001706897440825139e-02,-3.730876858793051865e-01,-3.495187281703727999e-02,7.790328792094581992e-04,4.515805490439854866e-03,-5.533366644806522912e-03,3.358624875545501709e-01
-3.932265717727882748e-02,-3.908903951049840786e-01,-4.281826146881144435e-02,2.686460565391121831e-03,-4.045304091744319173e-03,-6.476113567299785411e-04,3.499359190464019775e-01
-4.232850488415082491e-02,-3.763608251894025036e-01,-4.128108092036755772e-02,2.933759613052534711e-03,-8.398425432922969336e-04,3.074391993187798600e-03,3.346413671970367432e-01
-3.962543890967790139e-02,-3.810222520549663150e-01,-5.045342862880880519e-02,4.568823332137541930e-03,-2.171011575173906855e-04,-3.059177000667876074e-03,3.362487554550170898e-01
-4.060140030549388990e-02,-3.695193984764295614e-01,-3.813335877002373142e-02,5.151902210811965845e-03,1.045065661803599956e-03,2.578133059676060782e-03,3.303146362304687500e-01
-4.238332906835566571e-02,-3.717935092334976321e-01,-4.886501106226039115e-02,2.108327736815550368e-04,-3.230374145047390597e-03,5.309724397008187650e-03,3.263954222202301025e-01
-4.317853463275173054e-02,-3.865563613478262273e-01,-3.883179781662589314e-02,-1.178827393586689845e-03,2.883904502214382562e-03,1.060014056578952729e-02,3.461011648178100586e-01
-3.745608473891492984e-02,-3.687389893478287828e-01,-3.180485873119093254e-02,2.558456274245556137e-03,4.714435208091201715e-03,7.168513282300363262e-03,3.345040082931518555e-01
-6.255040315474363899e-02,-2.264680742717836703e-01,-3.283527436934009780e-02,-5.410954899964204009e-04,-3.597027341622169826e-03,5.809236765629574584e-02,2.068494409322738647e-01
-6.290001516019749772e-02,-2.001308211083685507e-01,-5.182075643168884693e-02,1.669884915532080221e-03,-2.463996423940240967e-03,3.361630622990499639e-02,1.545710414648056030e-01
-5.260183200568427364e-02,-2.556942558331083970e-01,-2.363934847629256542e-02,7.582693113423631323e-03,5.576965974384978653e-03,2.415085697298176640e-02,2.235687971115112305e-01
-6.091199772659851297e-02,-3.036224179708462145e-01,-3.778861738053872210e-02,1.741678740771361589e-02,1.293340059088534007e-02,1.706493065214606183e-02,2.595010697841644287e-01
-5.617169159132556766e-02,-2.952081092356468872e-01,-2.446451195214949248e-02,8.887124590383536915e-03,6.457359338797493721e-03,3.350337393338397030e-02,2.635382115840911865e-01
-3.398575605822770629e-02,-3.475963200536288933e-01,-3.022039978447657593e-02,1.911920930553012363e-02,1.010546255733443116e-02,2.422998787884856828e-02,3.204853832721710205e-01
-2.250243871527519979e-02,-3.508122417540725513e-01,-4.166510816006284423e-02,6.328837109355693255e-03,6.503623737741364569e-03,1.016221140488484005e-02,3.200314044952392578e-01
-2.008516746894908889e-02,-3.397937717975957339e-01,-4.292173875088874102e-02,1.704591937249311240e-02,6.115936188554498172e-03,3.552465290843077363e-03,3.105733692646026611e-01
-1.905437997179097731e-02,-3.532552203412395730e-01,-4.488466652805915558e-02,2.314969826720044907e-02,1.139168240289806407e-02,5.957475840255639643e-03,3.253127932548522949e-01
-3.113969350533027369e-02,-3.660590457182648638e-01,-3.553490469798252505e-02,6.651784069397331627e-03,6.510958416106469443e-03,5.230061808549473293e-03,3.332569897174835205e-01
-3.676528469418580136e-02,-3.694157475662667722e-01,-3.986401818161224020e-02,3.082436139208154582e-03,2.481040545253711434e-03,-1.580971654142003611e-03,3.311942219734191895e-01
-3.304045588396298250e-02,-3.648721682611865136e-01,-3.859983813422855625e-02,9.985287133963091297e-03,6.190657732202639249e-03,1.220017461231399578e-02,3.303922414779663086e-01
-4.036504572093370380e-02,-3.511720425393700662e-01,-3.086428958810129297e-02,2.363185184163656485e-02,-1.204862526657447808e-02,-2.407671969728909095e-02,3.217050135135650635e-01
-3.543092283448137647e-02,-3.646990528943004906e-01,-2.953272160788088241e-02,1.013822846829232766e-02,-1.209632187237423551e-02,-1.901586670269008947e-02,3.350022435188293457e-01
-3.649318618000882419e-02,-3.571917186480758066e-01,-3.078037028839636369e-02,5.979152160088548051e-03,-1.377456369864115890e-02,-2.218043902546864773e-02,3.269016146659851074e-01
-3.740238400593692836e-02,-3.199080340002007361e-01,-3.533476545926862722e-02,1.221041607061547178e-02,-1.620049012023549312e-02,-2.550714569761982145e-02,2.891095280647277832e-01
-3.897628243520989688e-02,-3.177411199530333352e-01,-2.918634319821342138e-02,1.676209418931619982e-02,-1.340001338067656374e-02,-3.922530184934298197e-02,2.941636145114898682e-01
-4.630548425174953187e-02,-3.104980716862046908e-01,-4.142989342222952454e-02,6.150818623184132507e-03,-1.555659995692416052e-02,-1.159792640121127920e-02,2.689844667911529541e-01
-4.130582153607829932e-02,-3.769600654216981317e-01,-4.046527898428188552e-02,4.364821721085302211e-03,-2.851795701694215252e-05,5.211208477461107269e-03,3.362814784049987793e-01
-3.732520152616425335e-02,-3.748258452556374465e-01,-3.485073345722096427e-02,1.368247207945499531e-03,5.603951763113758193e-03,2.856684006228303856e-03,3.389281034469604492e-01
-4.265319836906668327e-02,-3.750033308963429679e-01,-4.177348479607358167e-02,1.870916969769705106e-03,-1.567434456548308852e-03,1.364012056915500691e-03,3.328261077404022217e-01
-3.123714869430668784e-02,-3.765799083503622580e-01,-4.223160878205879654e-02,-6.427114702509815342e-03,3.600768046322392821e-03,2.586642432251346803e-03,3.402477502822875977e-01
-3.420683006202583643e-02,-3.513945291708693297e-01,-3.481653961646097306e-02,-8.867768918713751823e-04,6.464042855984698625e-03,-6.560626915445118973e-03,3.172882795333862305e-01
-3.170805347587808687e-02,-3.645402844614383797e-01,-3.767625323416994021e-02,-1.109527446133667109e-04,4.330315316220659412e-03,-2.508902561338541542e-03,3.300025463104248047e-01
-4.550570063449177471e-02,-3.444777980180133703e-01,-2.434783600194727338e-02,-9.701392830018730484e-03,-1.160152017066174053e-02,9.288311751683497181e-03,3.116127848625183105e-01
-4.875965228489108350e-02,-3.367097423020322111e-01,-1.928127630570233841e-02,-7.397065464329793776e-03,-4.266643400672519987e-03,2.042529577361290941e-02,3.061745762825012207e-01
-4.903488558397532671e-02,-3.512360091692394715e-01,-1.503403910159134549e-02,9.783233306119856146e-04,-6.427242501945653989e-03,6.806895883682918813e-03,3.209711313247680664e-01
-4.351678765918319536e-02,-3.401476318374279662e-01,-1.950517433428584912e-02,-2.101970436307588029e-03,-5.479673641000471461e-03,7.674354026625948393e-03,3.097886741161346436e-01
-4.933436982605278465e-02,-3.434857582864507819e-01,-2.258243638474134729e-02,-2.882404533325947510e-03,-1.021231868614093201e-02,1.226130803195402651e-02,3.096750676631927490e-01
-4.859762737826676948e-02,-3.379031151924779541e-01,-1.999650333388605650e-02,-7.575313546925955231e-03,-7.364529905885128930e-03,2.733194328708418025e-02,3.088140487670898438e-01
-3.874054995401893242e-02,-3.415472440221474781e-01,-2.195653087287435801e-02,-1.112515147611788449e-02,-7.620831519628824997e-03,3.848532168267769071e-03,3.124834001064300537e-01
-2.064033034681564405e-02,-3.276269746673398098e-01,-4.274344810673358364e-02,4.608053774411900727e-02,8.027483964370531536e-03,1.683597642053684396e-02,3.088007569313049316e-01
-3.772784776687188035e-02,-3.769942139097118283e-01,-6.696201095196548103e-02,3.220423402546538673e-03,-1.683761752857431760e-03,4.942571122716296096e-03,3.258082866668701172e-01
-2.218740906794386403e-02,-3.633206480580646325e-01,-4.430775449234708452e-02,1.326376378618736480e-02,6.143772439704651631e-03,-8.147837327360915507e-04,3.315995037555694580e-01
-2.238128513627676841e-02,-2.900001024187877086e-01,-4.758280302976233833e-02,4.942345860351225056e-02,9.744790854121013202e-03,1.847675864895266876e-02,2.723006308078765869e-01
-2.562359159496756245e-02,-3.205596997888459088e-01,-4.462063271522419272e-02,4.284078049231586360e-02,8.122866777619527218e-03,1.478984040188341051e-02,2.968256175518035889e-01
-2.449432131434593762e-02,-3.507778256422756646e-01,-4.478677965939459327e-02,2.053270289319993752e-02,1.112195860385579993e-02,5.456362384103226847e-03,3.193380534648895264e-01
-2.164038820480310155e-02,-3.585967341517525830e-01,-4.381938130987791946e-02,1.408858570609188357e-02,6.788145652557826988e-03,2.025566331559898806e-03,3.275731205940246582e-01
-1.952498211607542333e-02,-3.546706931777525718e-01,-5.327646571857425073e-02,2.886801737003428375e-02,8.794710376349443651e-03,1.356629301555658217e-02,3.247066438198089600e-01
-4.926892896215165352e-02,-3.722399581636688937e-01,-5.646429844542306953e-02,-1.152245776944885798e-04,-8.125924399545623664e-03,-3.510239599148833154e-04,3.197446763515472412e-01
-4.858402993167552919e-02,-3.661458224162297270e-01,-5.421545817876122220e-02,8.253595373235765120e-05,-4.005372556049617040e-03,1.018520698518972020e-03,3.148652613162994385e-01
-4.760779646126228615e-02,-3.791755303000602373e-01,-5.393021980404831550e-02,-1.807471406567160961e-03,-1.203646148615339188e-02,-2.795309523147156399e-03,3.291636407375335693e-01
-4.320848063674043171e-02,-3.712208456276172575e-01,-5.084697558813883189e-02,2.948370470674637790e-03,-3.546814376927725707e-03,3.369232778665842525e-03,3.244114816188812256e-01
-5.080655279991529161e-02,-3.708298018585335920e-01,-4.889107034152068154e-02,1.709766782878095834e-03,-4.328176482311507992e-03,1.091684048513096852e-03,3.210920393466949463e-01
-4.579084587505531656e-02,-3.695036810790361392e-01,-4.472677366751415251e-02,-1.882036253823688322e-03,-3.235325236130625302e-03,-1.492440998906120406e-03,3.243212997913360596e-01
-4.591782506468328195e-02,-3.698976742852043698e-01,-4.974376942758401698e-02,-1.683383320039246941e-03,-2.869292501847937622e-03,-2.514762784517830287e-03,3.221648931503295898e-01
-2.642384844452624892e-02,-3.554719350718700266e-01,-2.616369459605305536e-02,-7.441737368722773803e-04,7.572950989037151824e-03,-2.104846611070442300e-04,3.294422030448913574e-01
-5.653027187052235558e-02,-3.736147813334185219e-01,-5.162855900043912538e-02,-3.778774833165905560e-03,-1.137789755672433296e-02,-2.649144838936408168e-03,3.202703893184661865e-01
-5.222856682231495629e-02,-3.706021309902163829e-01,-4.635212996021956244e-02,1.620330809818079469e-03,-6.617252872133074643e-03,1.603498682565886266e-03,3.215806484222412109e-01
-5.214444479959168266e-02,-3.721092494451518906e-01,-4.965770813688215324e-02,2.010105047894686359e-03,-8.543394271835123149e-03,2.542853799618229570e-03,3.216050565242767334e-01
-6.013387573808511716e-02,-2.504752236213748651e-01,-3.151867170721148192e-02,-3.459192754198886326e-03,-8.098958682193140371e-03,5.158045826008171575e-02,2.251879721879959106e-01
-3.196267972201541352e-02,-3.904403255637217685e-01,-5.250488202427638917e-02,-1.961825191539586996e-02,7.695023169310608556e-04,7.350944255001236154e-03,3.505464196205139160e-01
-4.237732182625365829e-02,-3.880339822997176391e-01,-3.661250429448810462e-02,-1.070519977699283323e-03,2.792357393762638033e-03,-6.372825508478442008e-03,3.487880229949951172e-01
-3.549636478375092774e-02,-3.093283831671922446e-01,-2.933800754165184765e-02,-2.725512355716233279e-02,1.042251321508758620e-02,-3.607147655100344241e-02,2.883853614330291748e-01
-5.284036730192620546e-02,-4.099547973921802146e-01,-3.337892116273535881e-02,1.042362746631058518e-02,5.663726521828025239e-03,-3.872876044375138382e-02,3.738734722137451172e-01
-3.927959021840876641e-02,-3.781022102382444183e-01,-3.216119424198907173e-02,3.186877608566797502e-04,8.691096630282755392e-03,-1.756795762564831304e-02,3.441164493560791016e-01
-3.456377238032033727e-02,-3.835499846478100938e-01,-3.679795889563268474e-02,-1.213602587811463476e-02,7.320696543752868053e-03,-1.443478138819602073e-03,3.487485349178314209e-01
-3.470216414221521939e-02,-3.700150236787609348e-01,-2.698090091717057770e-02,-1.498281595200966036e-02,1.681372145731242079e-02,-1.581053848236404352e-02,3.425709307193756104e-01
-2.996338282402424835e-02,-3.692582831879031025e-01,-3.452369513333097828e-02,9.503296855910391009e-04,-9.226979645956152887e-04,-1.980776421691774879e-04,3.370458781719207764e-01
-4.380088807330410894e-02,-3.660637820163039624e-01,-4.623763979072775809e-02,2.743561963248024576e-04,-3.635167729861236031e-03,5.294063579520411587e-03,3.212444484233856201e-01
-3.859322243340369829e-02,-3.633366995166252833e-01,-2.520145916655405771e-02,-1.732173774094860523e-03,1.137364312247918750e-02,-1.852843977756399654e-02,3.337866663932800293e-01
-4.267708437331728388e-02,-3.739306132519800707e-01,-3.382894997953619920e-02,5.949094527594303355e-04,-1.391579988442319307e-04,-5.920923684258872464e-03,3.359232842922210693e-01
-2.951387277140826715e-02,-3.706903289709060356e-01,-3.429973668425459477e-02,-4.283096124559637036e-03,-8.190538951029321946e-03,2.798444223924672399e-03,3.392215073108673096e-01
-2.869136374428413183e-02,-3.524088896895985479e-01,-3.303093957952479842e-02,-3.336246281013150860e-03,-6.243386497206146989e-03,5.114810699882339599e-03,3.219252824783325195e-01
-3.081321399686667850e-02,-3.645214624537648773e-01,-3.432288079834303063e-02,-3.092051132045236031e-03,-3.308641001908670023e-03,3.873021803529736167e-04,3.320606648921966553e-01
-3.617881852209259286e-02,-3.740489176610695132e-01,-4.455577685635582486e-02,-4.322102900330097343e-03,3.185382255707890900e-04,-2.578214559729935691e-03,3.338747322559356689e-01
-4.703530802040460645e-02,-3.740121696737889190e-01,-4.542096592618301287e-02,7.026958802415133286e-03,-5.430895096522079211e-03,6.193984415870217204e-03,3.283230662345886230e-01
-6.687389658538603343e-02,-2.778884906003167288e-01,-3.109115426655938152e-02,-6.108304304019883217e-03,-3.378726335938467447e-03,2.588260564725283416e-02,2.356144189834594727e-01
-3.676802438145078400e-02,-2.427562929813432413e-01,-3.562836816137085472e-02,7.048045271702547965e-02,-1.939857303441106309e-02,7.427890650598371891e-02,2.743185758590698242e-01
-4.303161631884878935e-02,-3.684371559156607856e-01,-4.201595336022639904e-02,5.978087932284625351e-04,-2.358481426912871753e-03,7.109778084354095515e-04,3.259441256523132324e-01
-4.742724419616829723e-02,-3.697831320797732579e-01,-4.363031904604589006e-02,1.005720875624909697e-03,-2.640926220182987440e-04,3.097544434488046054e-03,3.243204057216644287e-01
-4.705232313408810874e-02,-3.716868482124857653e-01,-4.025165640970519709e-02,1.213462989989814089e-03,3.711577463283518186e-04,3.387524354376769947e-03,3.281475603580474854e-01
-4.972539459606822865e-02,-3.762780408869252358e-01,-5.730149444118573521e-02,1.464751742718121844e-03,9.485681012316001665e-03,-4.619925858742972985e-03,3.233580589294433594e-01
-4.629636680039189711e-02,-4.603083134513821784e-01,-5.101473420263133440e-02,-1.494623457322158226e-02,1.581210525474487441e-02,6.455232650246543226e-03,4.135455787181854248e-01
-6.858646188651888742e-02,-1.264963762873709263e-01,-6.559735749628756163e-02,-1.537923789937345855e-03,-5.420714396806648391e-03,-6.630799107788886045e-03,6.134119629859924316e-02
-4.563460595983877266e-02,-3.761472711128168722e-01,-5.785920083359019639e-02,3.549528177002950636e-03,1.067038623291873684e-02,-2.832347927681320033e-03,3.251939713954925537e-01
-3.854405534250460175e-02,-4.760878038205759721e-01,-5.325704652325366495e-02,3.065866569935428790e-02,1.533766296447408237e-02,2.022593412000240481e-02,4.358626902103424072e-01
-3.656812142057191961e-02,-4.431973050496139099e-01,-5.715684801205409005e-02,-1.413011533405925113e-02,1.260073103330082780e-02,3.455174835277279727e-03,3.981335759162902832e-01
-4.189363510861757178e-02,-3.762531155472816913e-01,-5.826767856257970835e-02,-2.140479215765356789e-03,1.350916358117008192e-02,3.496894177064702484e-04,3.273395299911499023e-01
-2.496823984636098448e-02,-3.544629280813191841e-01,-5.027135183335623703e-02,5.564308291226958275e-02,-2.707414317494582275e-03,-9.093918619108666557e-03,3.323075473308563232e-01
-4.939329070757059181e-02,-3.808926753191212988e-01,-5.214472345313585222e-02,-3.482776462341008288e-03,1.093991686611234769e-02,3.101801850172673965e-03,3.307742476463317871e-01
-5.179631417808344684e-02,-3.411379093227888681e-01,-1.705463894589233365e-02,5.598568182008226146e-03,8.364429613421146825e-03,1.110692296997945264e-02,3.092761933803558350e-01
-3.781162150262203092e-02,-3.757195775767733226e-01,-2.387235743641934194e-02,-3.748167130965986919e-03,-5.908877489545349450e-03,1.873263954437614023e-02,3.468225896358489990e-01
-4.118298475208237441e-02,-3.622193388962522409e-01,-2.370526287391566678e-02,-6.486370965996550095e-03,-3.764494927538824566e-03,2.036411887131551936e-03,3.303966820240020752e-01
-4.625332720245244056e-02,-3.656273098069662275e-01,-2.363792193952958531e-02,-3.413515032935995289e-03,-4.555782020394370411e-04,8.393708729372418090e-03,3.316336870193481445e-01
-4.496270294492725472e-02,-3.696559099075719113e-01,-2.313951537285609261e-02,-6.209298810129464628e-03,-3.814321839485174809e-03,2.138066861338895272e-02,3.384057879447937012e-01
-4.478526751131832462e-02,-3.545452254632854849e-01,-3.727786499816478083e-02,-9.772565535817087298e-03,-4.265078010591671041e-03,1.383592254428550258e-02,3.150372505187988281e-01
-5.993962435708273528e-02,-2.981095499431993812e-01,-2.536742782349804548e-02,-1.632216350970439045e-03,-5.993635974521478900e-03,7.832514347820469531e-04,2.574331164360046387e-01
-4.160761168080433225e-02,-3.687022870840582778e-01,-3.287020298305270982e-02,-3.649561336383064583e-03,-3.600402593700073530e-04,-2.201383350989274436e-03,3.316324949264526367e-01
-4.570820877662475079e-02,-3.794597615222524700e-01,-2.883459183657199887e-02,-3.982039137543988937e-03,-6.497105797994155761e-04,9.546847612916411867e-04,3.425755202770233154e-01
-4.216929187865178785e-02,-3.768764142158403940e-01,-3.073770474978930467e-02,-1.252423302697258222e-03,-3.157158005037753496e-04,3.927495217509205882e-04,3.405748605728149414e-01
-1.305902658344157419e-02,-3.329078484769418811e-01,-5.327111254056163259e-02,6.502702238992269512e-04,2.994202733893866746e-03,1.545280919893810001e-03,3.018175363540649414e-01
-1.208409062911723619e-02,-3.390553096418245094e-01,-5.377030265108770357e-02,6.404298044571732698e-03,4.502887414670688968e-03,9.409968913905605815e-04,3.085518777370452881e-01
-5.041556797439504523e-02,-3.531257836149119811e-01,-8.703481075908681142e-03,-7.609130981026249792e-04,1.571050873384722451e-03,3.893241917922703535e-03,3.256603479385375977e-01
-1.197896437811382664e-02,-2.945818638694827074e-01,-5.313224740566663273e-02,3.077938078200025476e-02,1.165646885948569064e-03,-4.961453675200649949e-03,2.699036598205566406e-01
-1.411282879179297234e-02,-3.114365853404765794e-01,-5.343403901067141082e-02,1.320596172641106368e-02,5.698205725598720888e-04,8.099449033398854747e-03,2.810291945934295654e-01
-2.910748267869715800e-02,-3.327955401282779446e-01,-3.976669464940611742e-02,1.305373650462915251e-02,1.118740067388558634e-02,8.048843187365628191e-03,3.003065288066864014e-01
-1.203822890428959957e-02,-3.502240300665031003e-01,-5.470946913504466658e-02,8.296742080804612313e-03,4.198410811667960783e-03,-8.058474827765428616e-04,3.194072544574737549e-01
-1.951509743178282685e-02,-3.365587212420907415e-01,-3.991776283722169028e-02,1.013709905558520669e-02,1.122372034554253682e-02,8.878608627379125720e-03,3.088479936122894287e-01
-1.549455673173073811e-02,-3.295580047853933214e-01,-4.988165834388766373e-02,1.729930720706715844e-02,3.420528084249593783e-03,5.556939537321959818e-03,3.000735342502593994e-01
-4.052917015545290380e-02,-3.690941601241080061e-01,-3.902867553766181663e-02,-1.263379905512442176e-02,2.411532804205031213e-03,1.288273919722815204e-03,3.300779759883880615e-01
-3.746406164666439553e-02,-3.668534298022728679e-01,-3.558014719725108299e-02,-1.940216196602460169e-02,5.945460687982279287e-03,-1.159582641983650415e-02,3.328065574169158936e-01
-4.601224964799510708e-02,-3.738400049916775769e-01,-3.665392348307817960e-02,-7.996877358819987069e-03,2.836867832442332808e-03,-4.019070768762579224e-03,3.330029845237731934e-01
-3.275020745375470388e-02,-3.464449338834058034e-01,-3.976044160907406255e-02,5.183057178310518723e-03,-8.140053035101114248e-03,-1.234968366867097295e-02,3.114343881607055664e-01
-3.072050077405533153e-02,-3.298058222762650926e-01,-3.809152674030631680e-02,2.600094200927071178e-02,-6.614023572797389505e-03,-1.707257209304247764e-02,3.005588054656982422e-01
-3.713823888793227335e-02,-3.958878250127608189e-01,-3.884072217358731927e-02,1.774115628555119825e-02,-7.048558777393751709e-03,-1.829414918944743257e-02,3.608195185661315918e-01
-4.232300053183073174e-02,-3.760722798467945882e-01,-4.058731048831887289e-02,-1.242148703573372082e-03,-7.092525099051140685e-04,-6.312133889256076047e-03,3.348082304000854492e-01
-1.693055232981884040e-02,-3.502895973328764567e-01,-5.111910419628340474e-02,3.041874828343264434e-02,-8.056537037889117958e-03,-4.623482554848450977e-03,3.223892152309417725e-01
-2.599728740482595835e-02,-3.074095589614493917e-01,-4.812037656294607113e-02,3.854059030963743332e-02,-7.211435166907078850e-03,-4.022781592019587099e-02,2.879645228385925293e-01
-2.839646205659196454e-02,-3.194158517603685188e-01,-4.726304588961317832e-02,3.683343814390575843e-02,-4.576082550043257882e-03,-8.245207641031888218e-03,2.896455824375152588e-01
-1.964873461575342151e-02,-3.784485483181326826e-01,-5.171308091315615640e-02,2.130947378269391901e-02,-3.914305056875495500e-03,-1.008002143229114883e-02,3.463723659515380859e-01
-5.388969926929562670e-02,-3.335175169197666101e-01,-1.515476921869415849e-02,-2.316696290877972349e-03,4.332035924871871393e-04,1.384567477187268261e-02,3.018530309200286865e-01
-5.699614674015649612e-02,-2.696921900546898065e-01,-1.487496896908993560e-02,-2.232804342341388002e-03,-6.252219626881285429e-03,2.612694931356164194e-02,2.411490976810455322e-01
-5.276413331744861379e-02,-2.914443365077465931e-01,-1.208409882706898419e-02,4.793783606243860913e-03,-1.237097249705659081e-03,3.105537537305183213e-02,2.670195996761322021e-01
-4.925935642432290040e-02,-3.501331032885449668e-01,-2.071903328737634276e-02,5.456629615727233906e-04,3.671141884342156089e-03,4.290927553670922934e-02,3.247946202754974365e-01
-5.410733989434762803e-02,-3.271552672474177248e-01,-2.262744350569907692e-02,1.520585861617624462e-02,6.302246004701757276e-03,3.896609604685497691e-02,2.991814613342285156e-01
-5.232326387150634806e-02,-3.653102542896463079e-01,-1.416618541496958428e-02,-2.169086354531708435e-03,4.247378901539719184e-03,1.522234325329955770e-02,3.348475396633148193e-01
-3.123699360073604880e-02,-3.691683189887660088e-01,-3.960260694280004490e-02,-1.797479056512602371e-03,-1.482352262343564556e-03,-2.396255995435837553e-05,3.338515460491180420e-01
-5.443272218112271688e-02,-3.378635835808810328e-01,-1.562273217053572472e-02,-2.085975098503669526e-03,5.192978334705711501e-04,1.772389113516464193e-02,3.062604963779449463e-01
-5.040396100049378270e-02,-3.239816009153372312e-01,-1.923722717364953483e-02,4.868246079318639015e-03,8.289469389623273579e-03,1.902347530167909986e-02,2.927550673484802246e-01
-4.735511331141031843e-02,-3.333574303654941451e-01,-1.420105269073042298e-02,-4.214496448442391595e-03,2.708823886896590417e-03,1.346037117117922406e-02,3.049549162387847900e-01
-3.742437311786289689e-02,-3.863608648903244513e-01,-3.368596415042045267e-02,-1.411984684585759070e-02,-1.089054816160505736e-02,3.666075738338225171e-02,3.578562140464782715e-01
-3.741407813608173261e-02,-3.560106038754483615e-01,-4.721630372004570475e-02,-6.752549262317564423e-03,-4.998287062179513837e-03,1.444497564119657552e-02,3.151421546936035156e-01
-4.580634352492794770e-02,-3.548729408350708714e-01,-3.518745207055547219e-02,-1.019598417103797713e-02,-3.434716757783300937e-03,1.897429598065938916e-02,3.167715370655059814e-01
-3.421820132831816796e-02,-3.705402086994369348e-01,-4.762872282251440215e-02,-1.202765049317485423e-02,6.894626157466010119e-04,6.198454944228950353e-02,3.474820256233215332e-01
-4.155726129808245961e-02,-3.676751094766973482e-01,-4.755182109278550950e-02,-9.623722974626850932e-03,-3.669951991296346622e-05,6.177025923405279895e-02,3.408201932907104492e-01
-4.881770981108954355e-02,-3.325829088386556553e-01,-2.136566447307237937e-02,-3.231459006375482501e-02,-2.645182091096891577e-03,4.181561362891911965e-02,3.121947646141052246e-01
-5.394617305192592194e-02,-3.735766694057951476e-01,-4.291005520378035620e-02,8.945112233728286580e-04,3.116184421203403460e-03,-8.735622685268517782e-05,3.253374993801116943e-01
-6.519525443586401958e-02,-3.843746387234244777e-01,-3.720513757530649612e-02,-8.593659243136864991e-05,3.252721358633058665e-03,-2.467251343516354417e-03,3.341299295425415039e-01
-6.285019795171054025e-02,-3.982353689776957917e-01,-3.710392111888669020e-02,-3.450599580146517572e-03,1.012923223286288713e-02,-2.432737888303135396e-03,3.494885861873626709e-01
-6.505799895503375230e-02,-4.156944148683354712e-01,-4.766539725993626520e-02,-1.561708966454812032e-02,1.363512086116714511e-02,-2.054212967880953474e-03,3.614539504051208496e-01
-5.276492764473669772e-02,-3.751321483683743852e-01,-4.217998529430359855e-02,-1.571187805148306030e-03,6.229005066917122149e-03,4.240913895440373560e-04,3.279775083065032959e-01
-4.423986527000575708e-02,-3.521916196084894923e-01,-2.717640844034213687e-02,-2.168176097919455488e-03,-4.806717027711163506e-03,1.007046553430860844e-02,3.174394965171813965e-01
-3.921099056373908431e-02,-2.463507937321086916e-01,-5.433036322603702201e-02,3.156663848714409693e-02,6.832282115846403936e-03,2.862380910235897552e-02,2.135205715894699097e-01
-3.772209954823792233e-02,-2.102079044040211508e-01,-5.124296385736062248e-02,5.263639307646750948e-02,7.368098197331809755e-03,2.642346114996618062e-02,1.953746229410171509e-01
-4.558795378237644191e-02,-2.177967053538991671e-01,-5.334620016683207233e-02,2.731471886754197748e-02,1.002226724853769527e-02,2.943763303256022312e-02,1.830828934907913208e-01
-5.574405077364953665e-02,-1.754740539439728630e-01,-5.048253129371522985e-02,6.232073962701374648e-02,8.422659583444963224e-03,4.350802027790676152e-02,1.803779602050781250e-01
-3.627539545132604792e-02,-3.907881831709506537e-01,-4.717840399468249679e-02,-4.421667283700525530e-02,1.079253359064029708e-02,-1.966417564741721087e-03,3.579934537410736084e-01
-4.597348302452000657e-02,-2.848418748017415014e-01,-3.459812431560110868e-02,-2.725335448568158223e-02,1.179686453920039159e-02,-3.516947964054529391e-02,2.574123740196228027e-01
-3.558481918563641266e-02,-2.768173205125903369e-01,-3.146467415567726078e-02,-3.112133220179367707e-02,6.785912332268520704e-03,-3.905449745081217283e-02,2.585024833679199219e-01
-4.679141423809272948e-02,-3.290563429130258788e-01,-3.030640715480938108e-02,-5.887954213437179320e-03,9.164503508744864871e-03,-1.674244883632551237e-02,2.929083108901977539e-01
-4.455757812999683320e-02,-3.787210263662144638e-01,-6.217670147774517764e-02,4.596282983961470607e-03,-9.659057307476548102e-03,1.785889489422604797e-03,3.262526988983154297e-01
-4.080723046646819729e-02,-3.906433885823699104e-01,-6.635963848322350145e-02,9.797677943460705689e-04,-1.771191435163214575e-02,-3.535878856110456509e-03,3.392353653907775879e-01
-4.124980841578257396e-02,-3.843385483545119774e-01,-4.954145808884448388e-02,-3.334820076404631812e-03,-8.018119651374212148e-03,-1.246413056288595174e-02,3.400384783744812012e-01
-4.574952027372922170e-02,-4.425254987455116695e-01,-6.097123452409876354e-02,3.154609885535778879e-03,-1.058014549892247885e-02,6.206206064052073243e-03,3.900057673454284668e-01
-3.607108896214478166e-02,-4.105115732245622207e-01,-6.658991009419469587e-02,-5.283947579701203483e-03,-6.210469131884575021e-03,9.860956629863991407e-03,3.608334362506866455e-01
-4.986681501622389212e-02,-3.524443938031055490e-01,-1.606772288836343099e-02,-2.694251064387226391e-03,-2.208340668621565708e-03,4.602192327518101790e-03,3.209709823131561279e-01
-4.006153361868390606e-02,-3.784127773373007209e-01,-5.159482967556268396e-02,2.486105110528567374e-03,-4.013059246117393203e-03,1.397271531566901667e-03,3.328437805175781250e-01
-5.404221593432269322e-02,-3.356151298984413334e-01,-1.399686039879506627e-02,-2.659377980817920033e-03,1.319888105039184129e-03,1.596657844199209433e-02,3.048833608627319336e-01
-5.240371008376171202e-02,-3.465171640424000721e-01,-1.198020806558539042e-02,6.614816758307513929e-04,-1.167810203529000323e-03,6.371333820576133809e-03,3.164696991443634033e-01
-5.306029853702347310e-02,-3.403139253897815575e-01,-9.941144927710587886e-03,-2.922654503450235284e-04,-1.320457031752852008e-03,5.381694159958843281e-03,3.112111985683441162e-01
-5.267804112521999593e-02,-3.346199034872511247e-01,-1.343615098802516949e-02,5.216041397533393827e-04,-3.207522228231967591e-03,3.830712137990505313e-04,3.035246133804321289e-01
-4.763075912559935898e-02,-3.158781932650606694e-01,-1.946703827500642636e-02,-1.659503662154885456e-02,-1.026386169459230120e-02,2.804716028068603151e-02,2.894941866397857666e-01
-4.801992234419961980e-02,-3.281271762433903283e-01,-2.028473941607887576e-02,-3.739171808511122970e-03,-1.055511760060900278e-02,1.609360631105740888e-02,2.969028949737548828e-01
-4.435862026151586590e-02,-3.567285188105389637e-01,-2.058875603010509869e-02,-2.135640544667458986e-03,-4.028247050740522343e-04,2.007569013621096285e-03,3.249480128288269043e-01
-4.467788718545763482e-02,-3.303044341052912003e-01,-2.031058724649308089e-02,-3.008508300562348897e-03,-4.238802423244317913e-03,2.249661603072299065e-02,3.012234866619110107e-01
-5.583803249316512951e-02,-3.083890387619807605e-01,-1.754506604466249398e-02,-1.044978549790052426e-02,-5.212621650740696319e-03,3.174263691869307069e-02,2.799127995967864990e-01
-5.245586715539990452e-02,-2.946639001769033595e-01,-1.565609106516298310e-02,9.341802903205385011e-04,1.521177798496100263e-03,3.374932430613102746e-02,2.689958512783050537e-01
-2.657231199817659817e-02,-3.648050579976689356e-01,-3.270099687001606914e-02,-4.759164715203507067e-04,-1.247872656425993987e-03,8.081872725159801926e-04,3.352213203907012939e-01
-5.105302139066454636e-02,-3.105971603472804654e-01,-2.269092803154867943e-02,-2.289894476375426736e-03,-1.008312913039134673e-02,2.910881218498924741e-02,2.799848020076751709e-01
-6.329002262688024349e-02,-1.398901763647631136e-01,-6.550170660197576766e-02,-1.811059630876357999e-04,-4.239545017917201522e-03,3.684123445880457207e-03,7.614327222108840942e-02
-6.907180272456124592e-02,-1.784732904836145995e-01,-6.901340261213906313e-02,-5.133915231484612908e-03,-1.283955403869039809e-03,1.584631891307320892e-02,1.131919249892234802e-01
-7.077943038871928327e-02,-1.852998514205787539e-01,-6.692226594307279508e-02,-1.060360744186076079e-02,-3.038622102860281428e-03,-2.411393547852104784e-03,1.181269735097885132e-01
-5.883773587750457112e-02,-1.441506669416477426e-01,-6.497010944289501044e-02,7.109907307299330459e-03,-5.897035910807933538e-03,2.089108995861110266e-03,8.403453230857849121e-02
-6.608231367532316214e-02,-1.667990256553326112e-01,-6.617483428627167485e-02,4.884715107282235590e-03,-2.981644723053253430e-03,-5.279460894984376249e-03,1.015697643160820007e-01
-6.527340722590160849e-02,-1.585921292775328284e-01,-6.399541040712886097e-02,5.575151028550129687e-03,-2.943267430995731137e-03,-1.792115176284298731e-03,9.464749693870544434e-02
-2.701536188584950648e-02,-3.708203934233231802e-01,-3.356865032670203197e-02,-1.802555763134898112e-04,-2.691038950247653331e-03,-9.482401278148493498e-04,3.406116664409637451e-01
-3.409458971697484908e-02,-3.015149881564622159e-01,-3.509438215445005727e-02,3.342527466464894487e-02,1.373033710643756580e-02,1.808040295478416729e-02,2.759444117546081543e-01
-3.680981186764496760e-02,-2.676977209402562341e-01,-3.659442594389374082e-02,3.931345853249222644e-02,1.353668483115395491e-02,4.241216211392392216e-02,2.528670430183410645e-01
-4.837915370276008042e-02,-1.811145881092870447e-01,-4.880063099580152219e-02,3.169539049459342561e-02,1.129609835484661831e-02,4.103109947010959851e-02,1.612767130136489868e-01
-4.025335613710882832e-02,-3.108268823723359664e-01,-3.775458722792797428e-02,2.119914379034167767e-02,1.703955090744968884e-02,2.929872751183367624e-02,2.805117964744567871e-01
-2.961179201838812225e-02,-3.672490963380203866e-01,-3.662402914739483484e-02,1.750872963461689875e-03,8.913096499784821727e-03,1.399262755819812194e-03,3.345652818679809570e-01
-3.643959997070249368e-02,-2.669606539647914056e-01,-3.440292565757009646e-02,4.059602873592574324e-02,1.675535233374013735e-02,4.324513774823667001e-02,2.549712955951690674e-01
-4.758432869865558690e-02,-1.876817509587213051e-01,-5.106481259788675509e-02,4.381509080239650439e-02,1.129585782420457554e-02,2.816808471561072641e-02,1.663556247949600220e-01
-5.251646850361156582e-02,-2.392922435676150816e-01,-3.789822801980502476e-02,2.855156948562196165e-02,6.902586201184374333e-03,3.800927660717753898e-02,2.115463167428970337e-01
-5.809462530435844513e-02,-2.303152391691682399e-01,-3.614823864597796477e-02,-2.071264128877486205e-02,-5.025016819814118706e-03,5.308893403059893046e-02,2.091394364833831787e-01
-4.728970496768716142e-02,-2.322759369773639282e-01,-2.972064076837904745e-02,-3.135659818233923340e-02,-1.167614663948679174e-02,4.403992734954006311e-02,2.166930139064788818e-01
-5.550146315787876650e-02,-1.171648362371656427e-01,-5.045750381631783354e-02,-3.222605873903493928e-02,-2.406687492668789247e-03,5.587978366898987276e-02,1.289938986301422119e-01
-5.900158591781815010e-02,-3.033986445856607927e-01,-4.845699217191005992e-02,-5.073099620066368748e-02,-2.481640900437590350e-02,2.488106802357767725e-02,2.717422544956207275e-01
-3.981669205122974342e-02,-3.801742405754447995e-01,-4.912872228205047986e-02,1.944243537935840633e-03,4.619105885734086855e-03,-5.982486581768226008e-03,3.360703289508819580e-01
-4.279216400784520424e-02,-3.188013763496864716e-01,-3.502167560507929434e-02,1.856249793025464140e-02,-9.979096235838948864e-03,-3.119830213726770135e-02,2.874693870544433594e-01
-3.858932850626288491e-02,-3.780203502174575014e-01,-3.287645069801936604e-02,3.492115901013045053e-03,-4.542964843280884388e-03,-4.957074296498518995e-03,3.425746560096740723e-01
-5.134824520291407512e-02,-3.406610854181265080e-01,-1.432284846280443280e-02,1.114117004370911374e-03,6.403778754507687826e-03,4.024928178494606890e-04,3.096965551376342773e-01
-6.269986608069359757e-02,-1.634143081201679948e-01,-5.249794367371034970e-02,1.720741079471891982e-03,4.325926319874733375e-03,5.330637061542365523e-02,1.409421563148498535e-01
-5.468214547042413165e-02,-1.580510658597258922e-01,-5.036832769396112214e-02,1.928745294852118874e-02,1.447634946945477704e-03,4.109334663306613705e-02,1.316736489534378052e-01
-4.841075661487101445e-02,-2.476202994398280788e-01,-4.006758079197760003e-02,4.469082192122563607e-02,6.130660747817159341e-03,2.555265803331807639e-02,2.224398106336593628e-01
-5.464662966654444676e-02,-2.605009085088274556e-01,-4.039982756906504435e-02,2.727775048543143455e-02,6.708327788682230675e-03,3.494725140955121101e-02,2.270305752754211426e-01
-5.039349767811936165e-02,-1.755226361268985014e-01,-2.923458703812126941e-02,1.158831623021435754e-02,6.583035348581351386e-03,5.419248828542583274e-02,1.676184684038162231e-01
-6.550267757519309675e-02,-1.960810626747054863e-01,-4.975833328354296176e-02,1.430993829208327718e-02,5.630405273501341151e-03,2.172552034397866663e-02,1.465602070093154907e-01
-6.362062147089089792e-02,-1.683803957733350232e-01,-5.105811690354601640e-02,3.588457770756748981e-03,5.461241733403903939e-03,4.755268327068763040e-02,1.391414850950241089e-01
-3.595727758156978815e-02,-3.840987849111736074e-01,-5.555897735760477463e-02,-1.569551400148088208e-02,7.780481286707136013e-03,4.718445517395290778e-02,3.498032987117767334e-01
-5.855061538987185038e-02,-1.920787357979469312e-01,-5.035259771973747689e-02,1.546644511191504374e-02,1.341817019162545822e-03,4.330576620760145934e-02,1.591880470514297485e-01
-3.562954125520145787e-02,-3.723730180823764391e-01,-3.588987425869676062e-02,4.413342002256701231e-04,2.778659602906111050e-03,-1.733103549748121644e-04,3.366487920284271240e-01
-4.645133162062613230e-02,-3.730392937620579108e-01,-5.960848508546538749e-02,2.285576888875853231e-03,-1.026658649289360035e-02,1.432852119696712478e-03,3.207395672798156738e-01
-4.086792283810269932e-02,-3.740262294741216742e-01,-4.387391249351538236e-02,1.911145101633503207e-03,-2.267372398216264734e-04,2.803262302162633397e-03,3.317178189754486084e-01
-4.044631906794621257e-02,-3.730550474786253901e-01,-3.429729416207631665e-02,-1.834003500270656997e-03,3.203335866603730913e-03,-4.914178830664711443e-03,3.358941972255706787e-01
-4.589368606320332056e-02,-3.710041218843623256e-01,-4.152214711630712596e-02,2.916910319587432462e-03,-3.414183851797739002e-03,1.160758467120135123e-03,3.274166584014892578e-01
-4.361043982651817419e-02,-3.744410422814138384e-01,-4.337360096243378371e-02,-4.999729322891569017e-04,-2.004840850518274653e-03,2.943908028247778971e-03,3.310077190399169922e-01
-4.132527365855799550e-02,-3.738727519044194314e-01,-4.217181106754415432e-02,2.709604771228419241e-03,-9.763495208919691516e-04,8.616978397580204183e-04,3.321658372879028320e-01
-3.589849335300761279e-02,-3.073960899485330689e-01,-3.626048698506785517e-02,-1.713278848858116113e-02,1.360829071219701869e-02,-3.011153623457464221e-02,2.788710594177246094e-01
-3.359192898440276076e-02,-3.624344699519400637e-01,-3.877458557547419638e-02,5.698764012112994028e-03,2.884630668389922842e-03,8.465641431030129435e-03,3.267987072467803955e-01
-3.402675379396137567e-02,-3.677039010912453998e-01,-3.688265887060211690e-02,-3.085101775998437892e-02,9.212226202209320911e-03,-1.381966584237868251e-02,3.377551436424255371e-01
-3.963674724741771127e-02,-3.729893052676471754e-01,-5.432957999041003461e-02,3.277918988189857524e-03,-8.676781635951648711e-03,9.221311292002081633e-03,3.270399272441864014e-01
-4.145007649893690804e-02,-3.832028656626608187e-01,-4.338871632447181825e-02,2.062645305485690233e-03,-1.576196049122423771e-03,2.823521011060949742e-03,3.408523499965667725e-01
-4.172258665055895988e-02,-3.707015290308363076e-01,-3.171926696919076527e-02,-1.951210217241348618e-02,8.762468224787276286e-03,-1.892865847535551982e-02,3.377358317375183105e-01
-4.655153295986194650e-02,-3.544074643788607260e-01,-1.724394966301379117e-02,-4.289123575631131023e-03,-2.492271072614626447e-03,4.897280116056363687e-03,3.237321376800537109e-01
-4.042044000806634119e-02,-3.403049593626439884e-01,-3.225886833003038801e-02,-1.352218871861635141e-02,6.627200169803397663e-03,-1.521153306137353056e-02,3.062994480133056641e-01
-4.004751250545579566e-02,-3.403136731435477125e-01,-3.945627331824408390e-02,-1.271455565085335623e-02,9.549705101509571928e-03,-1.405340448616134059e-02,3.028014302253723145e-01
-3.199312986607037723e-02,-3.437843986007533270e-01,-3.759172386161785395e-02,-6.746115879832638614e-03,7.919193735059709000e-03,-1.146664565321552261e-02,3.101913332939147949e-01
-5.561175839812414201e-02,-8.299604249593904581e-02,-5.200325388036367708e-02,-2.516356688279471412e-02,-6.902848932577284116e-03,2.261704862632027066e-02,6.662501394748687744e-02
-6.696952635486683181e-02,-1.319778131037129543e-01,-6.608693468620993605e-02,-2.689770971066457461e-03,-6.246447728132040363e-03,3.021652777073400523e-03,6.671118736267089844e-02
-7.041094288440541415e-02,-1.557545306713725153e-01,-5.879339129949905790e-02,-2.037368810197054750e-02,-2.616733600762573796e-03,3.544954339519777731e-02,1.159559935331344604e-01
-5.647571804913272681e-02,-7.016019886179640508e-02,-5.408820750863274629e-02,7.327217448993234537e-03,-2.470249320901001834e-03,1.764184819909293822e-02,3.658841550350189209e-02
-5.790872188263235243e-02,-5.005776578343207328e-02,-7.293222933607786812e-03,6.448893356177654024e-03,-1.086169023565281000e-02,-9.180118310326459974e-03,5.438477173447608948e-02
-4.656354437819740233e-02,-5.219745838326386722e-02,-5.765208111625168275e-03,5.877957274399420347e-03,9.262270543445515550e-03,1.452381465164232985e-02,5.403649806976318359e-02
-5.600621800853781973e-02,-3.025350165542577824e-02,-4.865966441839763429e-02,-4.060948525528455810e-03,-9.715537201270944140e-03,-1.792223212788618056e-02,4.271122440695762634e-02
-4.841489213025386429e-02,-2.985684690977260386e-02,-4.627952179661256465e-02,2.325636302877230957e-02,-9.231739113845711595e-03,-1.329471139180683076e-02,5.213281884789466858e-02
-6.175948114843499148e-02,-1.111436262393830365e-01,-5.563512089078300610e-02,9.864507162864806500e-03,-2.157013138542729098e-03,4.065696246629922628e-02,8.968610316514968872e-02
-6.363327544473076913e-02,-1.233237084170739906e-01,-6.604312953604246639e-02,9.506702771364009680e-03,-2.360335951658972409e-03,-7.973957098909608202e-03,6.247805804014205933e-02
-5.818053497364795990e-02,-1.136113358300516185e-01,-6.199960861859853123e-02,2.760783329780036946e-02,7.746916425854928319e-04,9.006138839325810580e-03,7.353349030017852783e-02
-3.928741337482070939e-02,-2.909754466315440657e-01,-2.308249377877615027e-02,3.104966017454153029e-02,8.497162662636580099e-03,3.798177295208488014e-02,2.740889489650726318e-01
-3.567227566994719823e-02,-3.461732256877542158e-01,-3.400158971444484923e-02,2.335540669145438550e-02,1.326564931953150284e-02,2.182109453817363334e-02,3.170571327209472656e-01
-4.200237427778290289e-02,-3.361893323890745022e-01,-2.402593896113280891e-02,1.867302570400240086e-02,1.289956646831822568e-02,2.213941670142017398e-02,3.085016310214996338e-01
-3.043192577486811268e-02,-3.512890520287274554e-01,-3.102615364303921985e-02,1.173945843475544424e-03,6.740960606577633442e-03,5.084747461876660754e-03,3.209002912044525146e-01
-3.104666348110063367e-02,-3.525446980132050934e-01,-3.041973921283473714e-02,1.118277582198129276e-02,1.102849830977779139e-02,1.216448189315047501e-02,3.236462771892547607e-01
-2.776736467212627402e-02,-3.541025549506421344e-01,-3.028684159944247667e-02,4.605760688548823402e-03,1.019627052949534894e-02,4.477946723780508627e-03,3.257521986961364746e-01
-5.544892009110265196e-02,-3.289095267075953233e-01,-3.755362340803909682e-02,4.272035376909596310e-02,1.500689171721838284e-03,-6.376522832873138258e-02,3.125291466712951660e-01
-2.289222429916726309e-02,-3.337662798932305996e-01,-4.793688104057437782e-02,4.151701542523881377e-02,-1.862557010640614186e-02,-3.433141795003887692e-02,3.150108456611633301e-01
-3.494898380391664450e-02,-3.852027820970586047e-01,-3.804538937132499743e-02,1.654941764956306682e-02,-7.866459967993571709e-03,-4.464649264834186226e-02,3.585944771766662598e-01
-2.866567030788003123e-02,-3.896247712116543971e-01,-5.434056804955754438e-02,-1.811413317212381274e-02,1.533597282279657373e-02,5.080058644447135729e-02,3.620982170104980469e-01
-3.439381704351850144e-02,-3.670986365720315669e-01,-3.611893622797553161e-02,1.494160086292621592e-02,-7.985612781075228372e-03,-4.166178606912677995e-02,3.408660888671875000e-01
-4.111752915557401189e-02,-3.749489225805780479e-01,-3.245265547698876485e-02,4.154709284365384891e-03,8.888460779769978559e-03,1.624108511880442696e-02,3.398399651050567627e-01
-4.732560241380334709e-02,-3.869998040785503912e-01,-4.373360546107253610e-02,3.723568424560396838e-03,-6.081542709661464687e-03,7.289668177187227580e-03,3.419408500194549561e-01
-3.989717609851427260e-02,-3.697790853223242857e-01,-4.413060975378647888e-02,1.542852988330593346e-02,-1.356294551364656915e-03,1.855944405753901308e-02,3.304488658905029297e-01
-4.287531074516767737e-02,-3.684298452725234818e-01,-2.840535336403680888e-02,-2.037409872049395377e-03,-5.454829138558311974e-04,3.105189184218408276e-04,3.330458402633666992e-01
-3.709754889150174151e-02,-3.328643064523835182e-01,-3.020915245234308266e-02,2.450710744593076473e-02,8.681540632795504975e-03,3.360149089730560951e-02,3.081848025321960449e-01
-5.153480217217563941e-02,-3.633465062188486749e-01,-4.356635610759602983e-02,1.755709124731782977e-02,-4.869070063591319358e-03,2.237607836152839119e-02,3.198009431362152100e-01
-3.470841393302029343e-02,-3.742206153407062752e-01,-3.636110660903776881e-02,2.111209369853809734e-02,8.773915001385686240e-04,1.775333804410235070e-02,3.420455753803253174e-01
-4.544355922094049649e-02,-3.682640624854663924e-01,-2.297263653494534263e-02,-4.176822100718444040e-05,-1.652462495904525068e-03,2.165613768028541025e-02,3.367302417755126953e-01
-4.281076283187998377e-02,-3.707770485462071886e-01,-3.307696099261048239e-02,-1.909795574051219056e-05,3.493422759749819414e-03,1.801126120662503022e-02,3.344530165195465088e-01
-3.164789112099353208e-02,-3.704266018249731118e-01,-3.355426456277095515e-02,-5.704382725442117431e-04,5.271169837053548031e-04,3.715455248854234089e-04,3.378328382968902588e-01
-3.518067612193623295e-02,-3.709042401362531161e-01,-4.521510692269431475e-02,1.876021056527532246e-02,5.968883004180310960e-03,1.481983494777571429e-02,3.335623145103454590e-01
-6.324994659543600739e-02,-3.800043368640087516e-01,-3.256828500528022308e-02,-1.764230804315285476e-03,-6.094441065177365162e-03,-2.447118146593414353e-03,3.333646357059478760e-01
-5.696079000370257717e-02,-3.760223420030838759e-01,-3.494025008092581375e-02,4.330992511718208260e-03,-1.054021880247249044e-03,2.596275439097207264e-03,3.307429850101470947e-01
-5.790159562714163044e-02,-3.833627006935538262e-01,-3.371931717525693262e-02,8.472162808853630003e-03,-6.049813707458745471e-03,4.685959252699793340e-03,3.387788534164428711e-01
-6.034706730499489469e-02,-3.864198392441416940e-01,-3.585717107397523584e-02,-1.736098253476339899e-03,-1.749589306260146328e-03,1.369111349365748033e-03,3.390170335769653320e-01
-3.197304490578353753e-02,-2.553060689227886759e-01,-5.628808565146487669e-02,5.920973148017248666e-02,9.014481553039332615e-03,3.773825826761089547e-02,2.450962960720062256e-01
-4.194247382560281623e-02,-3.375259326947173122e-01,-3.565292487946214450e-02,1.922392137220116717e-02,1.788578160631391564e-02,2.818214377700585180e-02,3.061361014842987061e-01
-4.933532981443274068e-02,-2.078540448085251513e-01,-5.413832445314260139e-02,3.837339428189300711e-02,9.212886489221727357e-03,2.669346472576281104e-02,1.766343563795089722e-01
-5.027347001235632495e-02,-3.661826157971692086e-01,-4.999670384173732218e-02,4.657563594421500934e-04,-1.297752239575772305e-03,2.129466513177054234e-03,3.160781562328338623e-01
-5.110885561920809617e-02,-2.420489638236889840e-01,-5.765346413517966756e-02,2.434265166282793477e-02,6.995486654171274854e-03,2.329638785551807825e-02,1.969873011112213135e-01
-3.921666734327752812e-02,-3.039340992749735015e-01,-3.157895649399550253e-02,1.824288902393487663e-02,1.756376432554039926e-02,3.377341815559243426e-02,2.783905267715454102e-01
-5.601801115569901568e-02,-2.900912462627387445e-01,-3.438586076798112734e-02,1.306244644215007102e-03,1.000757193546879600e-02,2.587465377976921888e-02,2.502714693546295166e-01
-5.064404999571860133e-02,-3.677125929586179676e-01,-5.484079676015810034e-02,3.439608292887705223e-03,-7.286728355183649981e-03,2.534887957753588234e-03,3.153307437896728516e-01
-4.372077698734688767e-02,-3.740450317860032903e-01,-4.220992040440459114e-02,1.848401158232989812e-03,-1.258028576709068532e-03,2.191662091268689258e-03,3.311266899108886719e-01
-1.839721597928700714e-02,-3.787741248176216269e-01,-4.678362077221123738e-02,-1.005501063745885791e-02,1.464737275144093950e-03,-9.622382681311988017e-04,3.475054204463958740e-01
-3.560013772317230374e-02,-3.426891508005802112e-01,-4.339889079325300048e-02,-3.360140248401325552e-02,-2.534542440390511256e-03,-2.147256273393248135e-02,3.110614418983459473e-01
-5.665722397434844182e-02,-3.815935088353562543e-01,-4.136022873295466806e-02,-7.996391955612837388e-03,4.169791165891008344e-03,-3.230609991842887940e-02,3.378804326057434082e-01
-3.472093075672093299e-02,-3.415153277616528871e-01,-4.215665321778988561e-02,-3.259843645731847622e-02,-1.626749301131622492e-03,-1.999845774903491816e-02,3.103104531764984131e-01
-2.886517938544139183e-02,-3.688561017414665466e-01,-4.450635095837628119e-02,-2.296221521548006197e-02,9.634266795113772403e-03,-8.723120656294449998e-04,3.352359533309936523e-01
-3.342097639792650232e-02,-2.072684609334513872e-01,-2.570030030062842030e-02,-5.045739373916795223e-02,9.398609539318147910e-03,2.685171582818339162e-02,2.041829228401184082e-01
-7.463709882540162099e-02,-4.922312301651799449e-01,-4.805292446876860413e-02,-1.288995758152243210e-01,3.880450120664289022e-03,-1.801685170847467862e-02,4.868852794170379639e-01
-4.565083294696846428e-02,-3.891184044467969061e-01,-4.031477145813756879e-02,-5.784259142990164082e-02,-6.114199505663991214e-04,-1.762779961279051580e-02,3.616653680801391602e-01
-4.185036938667059669e-02,-3.311407470764583527e-01,-4.132222771407811912e-02,-1.470473560681853642e-02,6.865703383339259551e-03,6.414418560215454611e-03,2.911280095577239990e-01
-3.705663135860620683e-02,-3.723403458537034583e-01,-3.993857216291325785e-02,1.152056570783496076e-02,3.610204861840335747e-03,5.521670134891333570e-03,3.346430063247680664e-01
-3.987356155636216648e-02,-3.724898766954135576e-01,-3.302732125776310090e-02,6.146287803906574400e-03,6.114579178558966419e-03,6.600568831109014309e-03,3.366212248802185059e-01
-4.319129422699598264e-02,-3.662158801503178074e-01,-4.372407919376783414e-02,5.122262423245228184e-04,-6.200656685390040974e-05,3.928868985637296138e-04,3.227604925632476807e-01
-4.427280466525433666e-02,-3.729138900606175921e-01,-4.700130137014831011e-02,-1.744472058162645223e-03,-1.361679338467490551e-03,-3.243204003932215196e-03,3.273560106754302979e-01
-3.773146145186408174e-02,-3.749083551967379302e-01,-3.659150584713752319e-02,1.597417109271364807e-03,4.259896588196586918e-03,2.524328772192624241e-03,3.378685116767883301e-01
-3.870098096186522230e-02,-3.656197413991533751e-01,-2.571035031374364899e-02,8.835567038078270471e-03,8.200294921414771204e-03,1.327971043960970120e-02,3.350470066070556641e-01
-4.319151659583966851e-02,-3.957679987554568179e-01,-5.013584220066101549e-02,-7.813047661785022663e-03,-5.243632917110330194e-03,-4.058418342514845747e-03,3.496069610118865967e-01
-3.997526646970650521e-02,-3.691347313003748298e-01,-4.177304282759315701e-02,7.244875167802309820e-03,6.377011075751204275e-04,6.048108895638700314e-03,3.286728560924530029e-01
-3.781887467399704106e-02,-3.515254109432579543e-01,-2.926317760474747565e-02,6.684611211180328458e-03,9.358096687779003664e-03,1.073347024348052757e-02,3.192355930805206299e-01
-3.709491181229569723e-02,-3.776029837861664129e-01,-2.558923125490578099e-02,7.730271388618936874e-03,6.869041907387133522e-03,9.812969441133519849e-03,3.472831845283508301e-01
-3.774985534053021397e-02,-3.723302683864485596e-01,-3.866155010998763297e-02,5.540162783620072862e-03,1.830217378022816043e-03,-1.522720769847721138e-03,3.342886865139007568e-01
-2.123016670380234450e-02,-3.644394181067309724e-01,-3.764681779472138501e-02,1.071761348024603345e-03,1.806555122370180448e-03,-7.328959768664883984e-05,3.353222310543060303e-01
-4.662378915771070442e-02,-3.662635240516511903e-01,-4.989782249945919068e-02,1.666265136027666235e-03,-2.255734700823954116e-03,1.348121090200101379e-03,3.180610239505767822e-01
-3.605151149906582475e-02,-3.696919828251655771e-01,-3.262776777676019979e-02,6.926153632770316176e-03,8.259554638478276006e-03,7.752211084675662486e-03,3.361530303955078125e-01
-4.089864309120705421e-02,-3.697908013644642389e-01,-3.315934737593655146e-02,-2.918628581926179921e-03,6.912727330722848867e-04,1.199475689103011338e-04,3.328699171543121338e-01
-3.637031866971870975e-02,-3.712059348414181725e-01,-2.848916498442169432e-02,5.625014133973627560e-03,7.896863674616120404e-03,1.057755024724248843e-02,3.397551476955413818e-01
-3.048824597705440675e-02,-3.625597695543790744e-01,-3.360052894244133781e-02,1.676696703555000806e-03,7.863681197739471468e-03,3.939010232539424949e-03,3.308899700641632080e-01
-3.580531399435191164e-02,-3.348305911553288716e-01,-3.359301626290989162e-02,1.560814976329510072e-02,1.555049409936685306e-02,2.938503376252910027e-02,3.068049550056457520e-01
-2.474479579133100071e-02,-3.423733624199740699e-01,-4.095681842216382373e-02,1.843707577571343514e-02,1.194687271381380048e-02,6.240406550224196491e-03,3.123557567596435547e-01
-3.386521273268855436e-02,-3.345345856017457598e-01,-3.310912133820519132e-02,1.446835836729327800e-02,1.340622389927396789e-02,1.456518430799960857e-02,3.040289282798767090e-01
-3.335345453206202404e-02,-2.682935476931804786e-01,-3.689076569658615579e-02,5.235985356204087005e-02,1.164302786617125822e-02,2.098799685822117650e-02,2.536358237266540527e-01
-2.417907468246839608e-02,-3.376304423359122175e-01,-3.740783377516833375e-02,2.326154308162661083e-02,1.469867989905003849e-02,1.860878108521551305e-02,3.123947679996490479e-01
-2.839042236036856681e-02,-3.236473684806083773e-01,-3.865804762763329350e-02,1.246282757382912582e-02,1.112477038945691547e-02,9.859905810858420744e-03,2.921975255012512207e-01
-3.738997282362310770e-02,-3.389638788248576229e-01,-3.811937077518814943e-02,2.785086617382523735e-02,1.663646958000196407e-02,1.854218080252199516e-02,3.080846369266510010e-01
-1.983295953254729516e-02,-3.080266566034695064e-01,-4.284648917088863807e-02,5.337661982269925609e-02,1.125089118575324683e-02,3.101320998063890680e-02,2.979350090026855469e-01
-4.055254241373112967e-02,-3.508655386403975451e-01,-4.217040211126246718e-02,6.168175308739321655e-02,6.332020803017189906e-03,4.332615827860665514e-02,3.360958099365234375e-01
-5.263658468172939531e-02,-3.873209836747009138e-01,-4.293173503656050327e-02,1.553135011188290678e-02,-9.330363327707149115e-03,7.315308402053845478e-03,3.413228094577789307e-01
-5.951478845148394647e-02,-4.241815220127405084e-01,-4.476803379347829570e-02,-4.589416236119930707e-03,-1.595411637386581066e-02,3.071837554121261901e-03,3.734059929847717285e-01
-5.516903851148317883e-02,-3.897671757529014291e-01,-4.226046451728111830e-02,-2.485891856702571352e-03,-8.648629136464990041e-03,8.600382862303455585e-04,3.415946066379547119e-01
-5.962516962300208612e-02,-3.722868566706188931e-01,-4.951542662971629427e-02,2.028576233804695473e-03,-1.594362567468855102e-02,1.388318136718208516e-03,3.190629780292510986e-01
-5.639741098587769397e-02,-3.868103434924541340e-01,-5.710700951011589421e-02,6.964150419645633028e-03,-2.124741520897038133e-02,8.128029772660383748e-03,3.326210975646972656e-01
-5.487529152238442010e-02,-3.790905465881316272e-01,-4.989465067632530004e-02,-5.996196443499538387e-04,-1.534250148122241926e-02,1.771048646196029088e-03,3.278289139270782471e-01
-4.667665137233879824e-02,-3.647712659366190713e-01,-5.250011969466539252e-02,7.649203696910111903e-04,-1.781814264409393523e-03,6.935236455111285793e-05,3.152411282062530518e-01
-4.889332107443196407e-02,-3.720898833915871062e-01,-6.162857795752914314e-02,1.493557871078648840e-03,-1.172593842062733503e-02,8.084614806787701266e-04,3.176843822002410889e-01
-5.307952946952668172e-02,-3.715008896959685059e-01,-5.655911305601230010e-02,2.984711534990830417e-04,-1.143940186973262454e-02,1.184121211182884712e-04,3.173155784606933594e-01
-3.206893446817442317e-02,-3.748616318310421525e-01,-3.785695553658414980e-02,-5.110996406586860346e-04,1.979471867799231354e-03,2.332985882495563264e-03,3.399780988693237305e-01
-3.113260237191572966e-02,-3.755254823823611643e-01,-3.785285805329789699e-02,1.893879793720044285e-04,1.005381717684444929e-03,5.759710378785294063e-04,3.410884737968444824e-01
-3.326093291237643135e-02,-3.766304107538259727e-01,-3.650779218412503191e-02,1.472774040961487719e-03,3.502328992430153980e-03,3.126092371346377605e-04,3.418214023113250732e-01
-3.704246218812405622e-02,-3.752471901538268484e-01,-3.637506753693972583e-02,2.220013992406079471e-03,1.828823065356954478e-03,1.839646428885373950e-03,3.385905623435974121e-01
-3.515424683221690660e-02,-3.751271872135221175e-01,-3.629946679909791529e-02,5.555590246872453965e-05,1.778897066427741116e-03,1.361332984515284871e-03,3.394239544868469238e-01
-1.263245876292250214e-02,-3.290138704808145409e-01,-5.101147821145812777e-02,1.030936258961427914e-03,4.029707527048307335e-03,-4.724527941217763626e-04,2.991325855255126953e-01
-4.426151515508366940e-02,-3.519310425195754655e-01,-1.783544129167373427e-02,-9.757826310414361576e-03,-5.001426015072740587e-03,3.629816269592790051e-02,3.283332586288452148e-01
-4.294025374767933279e-02,-3.689375582782993268e-01,-2.198905780986386282e-02,-8.148835848217119912e-03,-7.997227519161917431e-03,6.030136255263637661e-03,3.377031087875366211e-01
-4.717256593513216578e-02,-3.659879342833177729e-01,-4.964674985938907770e-02,-4.929972827643800629e-04,-8.158477070353569892e-04,-5.508119818050160937e-04,3.175912201404571533e-01
-4.038280486832954153e-02,-3.298562421577763137e-01,-3.056339772607163940e-02,-7.543739599806194122e-03,-1.081860324750165414e-02,1.442630536691104012e-02,2.964455485343933105e-01
-4.190534921788970080e-02,-3.565873713832365954e-01,-2.231242777386792386e-02,-9.489854504146268827e-03,-7.637754845362106776e-03,6.708639474090646697e-03,3.258134424686431885e-01
-4.244569081779667186e-02,-3.556331860995052274e-01,-2.846217444927584550e-02,-8.734661608153532208e-03,-1.111389074476825702e-02,4.903171168412163126e-03,3.214544653892517090e-01
-2.466947043200681811e-02,-4.429817696062833821e-01,-7.730043866190798585e-02,3.908423390734455487e-03,-4.217028980318034484e-03,1.475492821615722629e-02,3.955898284912109375e-01
-3.957181406378304511e-02,-4.416470167260111990e-01,-6.806372481339190150e-02,-6.703423470660518826e-04,-8.468907294858390652e-03,2.035508758951662910e-03,3.889078497886657715e-01
-4.219436434543408221e-02,-4.389618500561895398e-01,-6.576356314278561377e-02,-4.348060033027694241e-03,-1.169185950904715228e-02,4.227091065103921914e-03,3.861979842185974121e-01
-3.857434712921137265e-02,-4.297509135951245174e-01,-4.626842237160325166e-02,1.209439417739438874e-02,-1.315405788571925166e-02,5.000991625905065047e-02,3.981575667858123779e-01
-2.489343376117233997e-02,-4.355520789490429090e-01,-7.664550447565128544e-02,-1.057645119699150010e-02,-4.673312600558941765e-03,-5.075900555203149978e-02,3.977397382259368896e-01
-4.202757240513384229e-02,-3.869713875449131146e-01,-6.450313374880733974e-02,1.131265968151555458e-03,-1.419260691163533490e-02,1.495398760915733847e-03,3.351916074752807617e-01
-3.864382994245274539e-02,-2.661469050625402399e-01,-3.156304909375372281e-02,5.147973846481412180e-02,1.542283127559285379e-02,5.559996885842060504e-02,2.671270072460174561e-01
-4.306911510335488524e-02,-3.510273741618094578e-01,-2.267648725709679736e-02,1.477543729830061749e-02,1.165181149763511170e-02,2.432919480960069394e-02,3.230668604373931885e-01
-4.988267542510434194e-02,-3.435667936644350995e-01,-1.834089311939077205e-02,3.215691945050176692e-03,9.768421262176149936e-03,3.174356139315172298e-02,3.159886300563812256e-01
-4.773470708080480851e-02,-3.348881640964109785e-01,-1.786979981520475658e-02,1.004362566830714100e-02,9.383841951181619984e-03,3.272946683820306818e-02,3.093627095222473145e-01
-3.380041603114131155e-02,-3.752123112870707766e-01,-3.100691855262267815e-02,1.290351737072773126e-02,9.949171039998074006e-03,1.114552232255397630e-02,3.445181250572204590e-01
-4.151825287756012728e-02,-3.459933057627407327e-01,-2.632294658571689150e-02,3.151893107038596098e-02,1.049018730921521918e-02,4.016329048594744627e-02,3.251342475414276123e-01
-5.035850924119587846e-02,-3.515276051881407460e-01,-8.995048603021443823e-03,-8.493354912392039359e-04,1.226719855879213235e-03,1.710729130332893375e-03,3.238620162010192871e-01
-4.888194137707554954e-02,-3.505325436813319095e-01,-1.272512429175419457e-02,2.254943402704760302e-03,2.813164097518561745e-03,1.512563892630108646e-02,3.223856091499328613e-01
-4.940066679725020615e-02,-3.563443450594976913e-01,-1.143421696101781793e-02,-1.112691937969534361e-03,1.111479953704133531e-03,4.573902073099971738e-03,3.276883065700531006e-01
-4.211475764334433880e-02,-3.765829474159669843e-01,-3.225458495029359662e-02,5.487259003289592964e-03,-3.083738013070418810e-03,-1.591704620804993905e-02,3.407976329326629639e-01
-4.150029954889625228e-02,-3.508577292100515943e-01,-3.678671455673687696e-02,5.539305043138018775e-03,-6.376639279357653248e-03,-1.637630683669514045e-02,3.133704066276550293e-01
-4.243308158944530950e-02,-3.694134412627182451e-01,-2.626544386816223597e-02,1.175608869539157959e-04,-8.986797854917469644e-03,-5.614527077868824469e-03,3.358585238456726074e-01
-4.019411920915121061e-02,-3.756056080956652332e-01,-3.641804145489919986e-02,-1.246288032948384978e-04,1.875629936647655238e-03,2.806020705324933332e-04,3.373314440250396729e-01
-4.244075020672383181e-02,-3.743747027524150228e-01,-3.084795072015258932e-02,-4.197567839752162043e-03,-3.237791218327122286e-03,-2.888711573890948188e-03,3.380413055419921875e-01
-3.406213815271004475e-02,-3.667153227056620390e-01,-3.669296315404128872e-02,-5.135726097696764649e-05,2.355759424385185652e-03,8.938284911156775796e-04,3.313743472099304199e-01
-3.470097669944360863e-02,-3.667414106270490137e-01,-3.940995542140438013e-02,-6.237810159314194965e-04,3.401687886621369123e-04,-8.025374505659511708e-04,3.297163844108581543e-01
-2.591469075358890373e-02,-3.579185168567267650e-01,-3.878270748935321033e-02,6.471570794616803186e-03,5.767761655054729798e-03,1.061954711358700722e-04,3.261063992977142334e-01
-2.189604681884395332e-02,-3.616959604043828991e-01,-3.509275774039566365e-02,6.588431355815553732e-03,6.112066788023479136e-03,3.625225657166067372e-03,3.338197469711303711e-01
-3.118621335251933746e-02,-4.041924733290659377e-01,-4.049523641648916650e-02,6.418361997832101873e-02,1.336216324941291852e-03,-1.462197225886946797e-02,3.856855928897857666e-01
-3.093510920251253682e-02,-3.662391845849448657e-01,-3.943952748063604685e-02,-3.797096848601447976e-05,2.350341219703879370e-03,-8.455500055533962103e-05,3.311588466167449951e-01
-2.210826488240458243e-02,-3.622055782028085757e-01,-3.894641022578548828e-02,3.165745724620482190e-04,2.436200046243576153e-03,1.354544914212934582e-03,3.320342004299163818e-01
-3.775495524973039585e-02,-3.747622708883863174e-01,-2.963608632338943227e-02,8.098834183938882422e-03,9.641260448149396520e-03,2.456481104517775627e-02,3.444733619689941406e-01
-4.774013500820048495e-02,-3.503134247044265015e-01,-2.394842350321686741e-02,6.799205355260748776e-03,7.582419108853732416e-03,1.445349041403246049e-02,3.166279494762420654e-01
-3.745927152956365913e-02,-3.741220375243141105e-01,-3.304314536818057924e-02,9.322240616310919700e-03,8.577181421729518406e-04,4.585964248822883144e-02,3.484541773796081543e-01
-4.951284464432048615e-02,-3.572608524172897759e-01,-2.070516394736586496e-02,3.970983233377934143e-03,3.929107052128152748e-03,5.027071514061441648e-02,3.347824215888977051e-01
-4.150626116538416732e-02,-3.551972399564452543e-01,-2.570111164925314995e-02,7.065996999385396223e-03,5.503479717833449289e-03,1.694770649960464226e-02,3.235924839973449707e-01
-4.200787734784745819e-02,-3.840184148599568026e-01,-4.101004878397716824e-02,2.103577066348196606e-03,-3.413151393177334125e-03,4.509919351434463382e-03,3.426699638366699219e-01
-4.684528627615225371e-02,-3.915378146863222608e-01,-4.879796775365785599e-02,1.336770642106423733e-02,-1.187060284498589989e-02,1.122825905564889606e-02,3.456598222255706787e-01
-3.728360093966648359e-02,-3.814274496951245430e-01,-3.944753088527441776e-02,1.339578629861723838e-02,2.794170471764544431e-03,3.834836190619611129e-03,3.439489006996154785e-01
-5.143556143870675612e-02,-3.869662304104936612e-01,-4.071239307515256423e-02,-4.647866047907378215e-03,-8.732523001880340349e-03,1.956726492049825142e-02,3.431267738342285156e-01
-4.555107259597565572e-02,-3.811271319082465414e-01,-4.314589767944373988e-02,2.331409653354228791e-03,-2.985988774952775312e-03,-1.436680601683514719e-03,3.368581831455230713e-01
-4.273687163089312513e-02,-3.719863828027254460e-01,-4.083412476979308980e-02,-1.217806029605178432e-03,-4.621221687317961235e-03,4.067131067625032181e-03,3.303838372230529785e-01
-1.749919797138113631e-02,-2.691996084228357455e-01,-5.402700197372055368e-02,2.708025910987672119e-02,-6.326649045215796113e-04,4.096465286096580109e-03,2.403016388416290283e-01
-2.701746463325774283e-02,-2.862844870666464425e-01,-5.904120810824343979e-02,1.894852382639218222e-02,1.002169558278000541e-02,3.003313096211743076e-03,2.476847022771835327e-01
-2.223195776757029563e-02,-2.872219560160242935e-01,-5.703800255393030871e-02,6.784405381362737519e-02,4.523052551418370662e-03,1.472366002091912490e-03,2.758336961269378662e-01
-4.912176390170840123e-02,-3.656099288882631582e-01,-4.793053427171048431e-02,-1.675813221829927429e-03,-4.415812895390550628e-03,-1.486245387324416651e-03,3.172014057636260986e-01
-1.690483899654152133e-02,-3.415441803936253296e-01,-5.424077522248554883e-02,3.236173593092060707e-02,5.996838656339206937e-03,-9.422925641997244935e-05,3.129116892814636230e-01
-3.899766825770398238e-02,-3.564623189503959289e-01,-5.007111156569289678e-02,-1.079249972450304490e-02,6.275116111088268646e-03,1.472989527991605888e-02,3.138621747493743896e-01
-3.414815270176368989e-02,-3.714680436194529589e-01,-3.546124178490693557e-02,-4.442198009605760264e-03,-1.102422633990399713e-02,2.468959369298504708e-03,3.373211920261383057e-01
-4.388835476785865608e-02,-3.876224311674927314e-01,-3.121563654117055775e-02,-1.195545056269993640e-02,-4.104838086591285767e-03,3.566356908849507151e-02,3.563211560249328613e-01
-6.370062198748638327e-02,-2.521527314338503079e-01,-3.023948558017361399e-02,-3.922142841306552885e-02,6.901918471673700473e-04,6.966295832966201695e-02,2.492284923791885376e-01
-3.447680811787406929e-02,-3.766493954160509139e-01,-3.737155159971358720e-02,1.172624969329746393e-03,3.961514141598212503e-03,1.705505712832340202e-03,3.408223688602447510e-01
-3.546860673871389535e-02,-3.742324080041717904e-01,-3.522360013765431230e-02,-9.391792113690855927e-04,3.036837887465611112e-03,7.012239673436396030e-04,3.389332592487335205e-01
-3.511744742021755128e-02,-3.680078629493570008e-01,-3.489469079617832370e-02,1.894888562034895358e-03,3.262021707965675164e-03,-1.200410786322359474e-04,3.330660164356231689e-01
-3.707692879680772602e-02,-3.739580407597832279e-01,-3.636759802742241254e-02,1.753160984261496443e-03,1.224650729761458381e-03,1.558738033734117547e-03,3.372674882411956787e-01
-3.839920903637243643e-02,-3.754147255743767175e-01,-3.747737415439413022e-02,2.587682309403736575e-03,3.112673232347521694e-03,2.367048858073960045e-03,3.375751078128814697e-01
-4.202049446688045642e-02,-3.739771682887240711e-01,-3.997514621546212343e-02,2.167782775866226776e-03,-1.160298860453615188e-03,9.438736205084406576e-04,3.330152928829193115e-01
-3.713205862963864234e-02,-3.730411594246324514e-01,-3.954127036400775785e-02,2.133763241624201442e-03,3.522975355808076275e-04,9.054143658550632603e-04,3.347356319427490234e-01
-4.180216754962373660e-02,-3.738888003380841374e-01,-4.605003195127796434e-02,3.778193341154129255e-03,-2.698805605167292447e-03,3.207489514060423569e-03,3.301279246807098389e-01
-3.090435641080613305e-02,-4.236626097253128886e-01,-6.298971167444887553e-02,-7.502715998784562947e-03,1.087637745940820896e-02,-7.774282384218547670e-02,4.016743898391723633e-01
-2.392139660480896435e-02,-4.486514146157351557e-01,-7.668851502395590547e-02,2.504288767990812785e-03,-6.029353662666452410e-03,3.075794957588591071e-03,4.011538624763488770e-01
-2.330473272073763091e-02,-4.165610451893230759e-01,-5.395308574863762197e-02,2.825541031694875881e-03,2.894107756870021447e-03,-4.118810128403603554e-02,3.855848014354705811e-01
-2.360723475783654823e-02,-4.213408717439874884e-01,-8.703994333456743782e-02,5.579090776001670131e-03,1.879732409434242267e-04,1.230868758311184571e-02,3.708563446998596191e-01
-3.383739050529514791e-02,-3.736583563372967709e-01,-2.884371784124127591e-02,-5.415051619542143868e-03,-8.113642606576472113e-03,6.860336401590447610e-04,3.427638411521911621e-01
-4.674988457717513257e-02,-3.665175501707347294e-01,-5.337855102498874349e-02,-6.008952467264886852e-04,-3.491346300216740563e-03,1.122792935216636832e-03,3.165708482265472412e-01
-3.805861121007121650e-02,-3.706234708814613033e-01,-4.063853400581386721e-02,1.296415640676333580e-03,-1.032287343350999764e-03,-3.329323713151828741e-03,3.313450515270233154e-01
-3.737708165545758354e-02,-3.712225703668611265e-01,-4.505391787032550499e-02,1.288238174293008772e-03,-5.430252596648718925e-04,-2.858949805131350431e-03,3.301200568675994873e-01
-2.918346065211332996e-02,-3.637420070736928635e-01,-3.892175924256693897e-02,-2.204397752346039935e-02,-9.614663055357956789e-03,3.248907967778490256e-03,3.324650824069976807e-01
-3.510657581952265904e-02,-3.704539282228200836e-01,-3.746544607600657550e-02,-9.060718912419824314e-03,-3.017937019588707876e-03,6.458857548171396436e-03,3.347702622413635254e-01
-3.683795540108306121e-02,-3.686134370103145708e-01,-3.634421796203078647e-02,-1.549945125661516621e-03,-2.205653306780548141e-03,-4.149853082125313825e-04,3.320562243461608887e-01
-3.551927474914338967e-02,-3.266120342040034208e-01,-3.661578970671297562e-02,3.784639165234805064e-02,4.373545949748577043e-03,3.717401421355866209e-02,3.048231601715087891e-01
-4.026309325857643784e-02,-3.350006698665961569e-01,-2.586077403233592864e-02,2.799842515938246248e-02,8.727766732107301514e-03,4.135451062471615785e-02,3.146957457065582275e-01
-3.823239499340422287e-02,-3.168656925899626664e-01,-4.115758653136646072e-02,1.588946034012815589e-02,8.950499615756819446e-03,5.290321175068821158e-02,2.936392724514007568e-01
-3.553063678659980351e-02,-3.267240976495871529e-01,-2.761933642894662255e-02,1.675822423607494990e-02,1.073895652488799680e-02,2.011181724928233147e-02,2.992689311504364014e-01
-3.645124526950128951e-02,-3.541221004129199712e-01,-2.267136069032736623e-02,1.481429802700569634e-02,1.368372709350825812e-02,1.752400997142953068e-02,3.280602395534515381e-01
-4.561109762528843536e-02,-3.700392639549189289e-01,-5.177880084189274978e-02,7.749335895325077739e-04,-6.472996101195843330e-03,-4.791466823778117636e-04,3.215880692005157471e-01
-3.720943154213708637e-02,-3.524349901564587384e-01,-3.660766991979914897e-02,1.266181768565474187e-02,4.217411093937909437e-03,1.043082321117712492e-02,3.168878853321075439e-01
-7.137616665111282122e-02,-3.710860836950239383e-01,-1.582878187741262876e-02,1.321230215006226338e-01,-1.757898138449029727e-03,-4.134263672679759118e-03,4.024794101715087891e-01
-5.158691523124510347e-02,-3.420782153518103774e-01,-1.689909715459514405e-02,5.540996147661268051e-03,1.277631519169988459e-03,2.509541029803552883e-02,3.124920725822448730e-01
-4.525429978290673727e-02,-3.511438924683417118e-01,-2.486569676378305727e-02,4.836670398249486719e-03,8.701576812011505707e-03,9.246116828545437524e-03,3.174501657485961914e-01
-4.565072094788964752e-02,-3.578737732922904757e-01,-1.918674468229167318e-02,5.406093422676094482e-03,8.125960478112174631e-03,9.210242287183055543e-03,3.270879089832305908e-01
-4.741126526369730809e-02,-3.262294360712146291e-01,-1.944246617925328435e-02,1.257545488691291617e-02,1.046697566154603833e-02,3.715100290009390460e-02,3.020988702774047852e-01
-4.452263347415703898e-02,-3.225078040722393347e-01,-1.847174798035645937e-02,6.436571505378246502e-03,9.921804305758702425e-03,1.943096190502905177e-02,2.945309281349182129e-01
-4.328179996367473303e-02,-3.705628254638078656e-01,-5.763861964572605801e-02,-2.327521991959040446e-03,-1.391270598351076158e-03,-1.199985933454707394e-03,3.203851580619812012e-01
-4.544339045188638959e-02,-3.394833630444867856e-01,-1.807431258529303142e-02,5.734996076654510881e-03,7.196509456485857166e-03,7.207326699310756014e-03,3.092992901802062988e-01
-5.042479283812095758e-02,-3.294860406333973701e-01,-1.577763617143936037e-02,1.379327997894688393e-03,7.664321695648942945e-03,1.294781961243380436e-02,2.990470826625823975e-01
-8.641617119902550437e-03,-3.505292782701873167e-01,-5.159368425472371511e-02,1.891686488475936845e-03,5.908158113182571114e-04,6.736744770064671773e-05,3.225818872451782227e-01
-5.140489880968251990e-02,-3.512617508344371142e-01,-8.182086544845118548e-03,-2.379649714869963855e-04,1.436147570100295996e-03,6.166214981737402033e-03,3.238262236118316650e-01
-4.877758707830968932e-02,-3.418389102461323326e-01,-8.832497944961173464e-03,3.697344523110065225e-03,-1.502569524664802414e-05,2.342087448593511371e-03,3.150307536125183105e-01
-4.997130648885733661e-02,-3.552746866589265862e-01,-1.108446825326900309e-02,3.362846050650403207e-03,2.455160996166812085e-04,6.388628375393153556e-03,3.267279863357543945e-01
-5.049413727355699100e-02,-3.363972549544707036e-01,-1.831479227144254540e-02,-6.443171470647796918e-03,-1.383320216936234984e-03,2.109631091368415270e-02,3.056823909282684326e-01
-1.630503787529212489e-02,-3.581141239621395966e-01,-4.379942932620446705e-02,1.767751987239637827e-03,3.622644129094859319e-03,9.541006022495256839e-04,3.290030956268310547e-01
-4.844416460164724381e-02,-3.561919372213762647e-01,-1.421245608411217387e-02,-1.957564001769248555e-03,-1.821482888868421738e-05,4.294204727593359076e-03,3.263158798217773438e-01
-4.613614944857381828e-02,-3.558028478049555243e-01,-1.505993299823109310e-02,-1.402438556829019734e-03,1.621117284752550468e-04,4.315064529499955566e-03,3.264112472534179688e-01
-3.575558327634847933e-02,-3.635850239282906182e-01,-3.343533293996897582e-02,1.803917447756030212e-04,-8.531797242905560935e-03,-7.508289149347442855e-03,3.295842409133911133e-01
-3.510318613834786938e-02,-3.681051589676999081e-01,-3.398642057720994980e-02,3.124516670099044321e-03,-3.408799490187462786e-03,-2.274898690392422509e-03,3.336811661720275879e-01
-3.824900831423881653e-02,-3.586543700795428169e-01,-3.270264943267763014e-02,4.053973021245931008e-03,-3.270553379161425175e-03,-6.999332912946020467e-03,3.235673010349273682e-01
-3.815156351033524573e-02,-3.725194003049165925e-01,-3.462899764623797449e-02,9.792919614567325605e-04,-7.439247852399963508e-03,-1.147498146822919195e-02,3.369807302951812744e-01
-2.611933079611375441e-02,-3.590735716192888782e-01,-3.797799195109385906e-02,1.366861791960490534e-02,-8.044876956598910611e-03,-7.478426151093618343e-03,3.285927474498748779e-01
-8.751983737882551573e-03,-3.462192871083791257e-01,-5.120318596706154024e-02,1.987134374775768896e-04,8.060583107672012653e-04,-2.132132720118842014e-04,3.183749318122863770e-01
-3.795835071599951149e-02,-3.722736166509598155e-01,-2.872064452188669015e-02,1.212258621860586158e-03,4.051164370584197337e-03,-1.567923189870007396e-04,3.391077220439910889e-01
-3.841343214228053193e-02,-3.733553969599058275e-01,-3.766449961413483039e-02,1.448826469380847404e-03,1.256166472660796970e-03,3.264766634499800466e-03,3.353811800479888916e-01
-2.951608005351878672e-02,-3.368533226364691657e-01,-2.938480678820121206e-02,1.310402717435062842e-02,1.094342504869569473e-02,1.282516799213298010e-02,3.096198141574859619e-01
-3.670914909628396339e-02,-3.754321609286735972e-01,-3.447197900154071182e-02,1.125782868639869970e-03,8.191202894699841199e-04,7.348472914803880641e-04,3.398580551147460938e-01
-3.692398239842639707e-02,-3.748888128486553839e-01,-3.601603213859047581e-02,1.533216665192722091e-03,1.418246444220011429e-03,-6.040376279523249352e-05,3.384390771389007568e-01
-4.777409970253683469e-02,-3.518214509723803229e-01,-2.482726251508264592e-02,-9.487037326266041246e-06,-4.553627702145806103e-03,-1.557571578767908381e-02,3.173929452896118164e-01
-4.429207880233330952e-02,-3.606033061303773324e-01,-2.077350107569060633e-02,2.870400167048089719e-03,-5.310444653080889817e-03,-1.729553514666645753e-02,3.302299678325653076e-01
-4.911727614557181987e-02,-3.414271493088777421e-01,-2.090211183063550582e-02,3.553276317642850568e-03,-1.462483788448425571e-03,-1.302311064724452974e-02,3.082885444164276123e-01
-5.049287699266678808e-02,-3.153452584937757597e-01,-2.540522891103116909e-02,7.029211991473978058e-03,-8.510184626653297460e-03,-2.617370289467143077e-02,2.825621664524078369e-01
-5.050301011964868081e-02,-3.466662898488829248e-01,-2.099746295038434907e-02,1.656650548572629559e-03,-4.853926392807284690e-03,-1.999621931150415838e-02,3.140066564083099365e-01
-4.543046695439478810e-02,-3.442154453475476106e-01,-2.229488723898122304e-02,5.062298165792867080e-03,-7.857767687930285530e-03,-1.046329692895995971e-02,3.119468390941619873e-01
-3.779712436087066807e-02,-3.900179322090445710e-01,-3.963466867066393895e-02,3.991666388306115178e-03,9.066912047007460963e-04,5.431996763666482181e-03,3.515031039714813232e-01
-4.728125853720849259e-02,-3.612922454403484362e-01,-1.633182328412338680e-02,-2.521050631968523026e-03,3.564628949371848954e-04,-3.261831853232931874e-04,3.306039869785308838e-01
-4.580661744432780458e-02,-3.423374939209400392e-01,-2.035233752421990172e-02,-1.866074429021002869e-03,-1.435658161364414536e-04,-1.498517615144680237e-02,3.111440837383270264e-01
-4.863259928376678642e-02,-3.612529613922249583e-01,-1.583534093172808688e-02,-7.321595130463690818e-04,-4.604257212525233144e-03,-2.753402154902516441e-03,3.303758203983306885e-01
-2.610212003939886560e-02,-2.704597604685902157e-01,-4.646889541525167644e-02,-3.598295522433411081e-02,-6.322188630583320222e-03,-4.902012264412318292e-03,2.433618754148483276e-01
-3.008946466351621052e-02,-3.022300580574899254e-01,-5.074713289096807745e-02,-2.896578771938450314e-02,-1.108023313085002015e-02,2.056034162082426460e-03,2.678871154785156250e-01
-4.176040431469237035e-02,-2.579772159716502977e-01,-6.373243763682194529e-02,-1.852469741189181549e-02,-4.388017111781554631e-03,4.649939105343616277e-03,2.088872492313385010e-01
-4.328820370875352541e-02,-2.477687723923268637e-01,-5.409966538189969754e-02,-2.482057344314808622e-02,-5.412127953786319973e-03,-1.437079556976121782e-02,2.056065946817398071e-01
-2.008154691032520978e-02,-3.191542289294595491e-01,-5.219843381186931031e-02,-1.132967742228457170e-02,-6.189493362927339995e-03,-2.394784233131191565e-05,2.852554917335510254e-01
-2.127571992048082894e-02,-3.380252787792848990e-01,-5.969587956817762331e-02,-1.459039280910424952e-02,1.647242103817328311e-04,6.611335212809225405e-03,3.006770312786102295e-01
-1.950069975856874582e-02,-3.173187935954163708e-01,-4.907702982631927113e-02,-9.830212203217215255e-03,-3.453128834479313094e-03,5.883580981847462291e-04,2.847608029842376709e-01
-2.941884847602209418e-02,-3.583580127637073787e-01,-3.195745574839110870e-02,1.513764339824695635e-03,5.334498279869141768e-03,1.612933897548691391e-03,3.278298676013946533e-01
-5.310014076715012521e-02,-2.742671328067503023e-01,-4.740313318620381633e-02,-3.770926156772278631e-02,-1.763557024530965425e-02,1.688909691092762427e-02,2.371961474418640137e-01
-4.211671882730551320e-02,-3.175713552469393020e-01,-4.876079539779624994e-02,-2.498061809549746715e-02,-1.203912620806824908e-02,7.298680098340114795e-03,2.766875326633453369e-01
-5.174476681013495671e-02,-2.891145549399501968e-01,-3.332435143270846833e-02,-4.257547085958610783e-02,-1.576774550375387857e-02,3.947984973412978910e-02,2.681716382503509521e-01
-3.031442226517554184e-02,-3.147287250624921096e-01,-3.697380968616667540e-02,-2.453683336111729327e-02,-1.442739642627308659e-02,9.737739221052680097e-03,2.859316468238830566e-01
-3.889535798903945296e-02,-3.184985354249151857e-01,-4.034822564054960092e-02,-3.446875191659979493e-02,-6.715866432392661629e-03,1.938449765431624408e-02,2.874033451080322266e-01
-2.811969178229467570e-02,-3.546179460619000023e-01,-4.100825212191858138e-02,-2.108985760321047120e-02,-1.259699766668375895e-02,7.252151720432847143e-03,3.233068287372589111e-01
-3.963237805661530555e-02,-3.696957582271175324e-01,-3.823502485976933152e-02,-2.957521812217408846e-04,1.698747609646207449e-03,1.464385768857408201e-03,3.307874798774719238e-01
-4.602044262761875726e-02,-3.916954383322580613e-01,-2.679532680513971310e-02,-4.681967606027287801e-03,1.376358645220177035e-03,-8.507975740732611619e-03,3.560829162597656250e-01
-4.153129378882304545e-02,-3.852541329854078378e-01,-3.889663456622396986e-02,-1.225764945085169519e-02,1.922733365766906167e-03,2.731123624209746297e-04,3.457166254520416260e-01
-5.516568617549885700e-02,-3.894297768874116494e-01,-3.233247936181468662e-02,3.550650889172561782e-03,-1.810148147090234012e-03,2.561147075748438067e-03,3.463430106639862061e-01
-3.782789417376240804e-02,-3.672234188578727965e-01,-3.129269673224785442e-02,-2.491665143956682191e-02,5.260249967783391448e-03,-3.527385457690783432e-02,3.411378860473632812e-01
-2.773623631093162512e-02,-3.635044664485777011e-01,-4.735906256542843362e-02,-2.270080477229475049e-02,1.184395592875010610e-02,-2.299443776617308283e-02,3.317976593971252441e-01
-3.917706763069113418e-02,-3.406087192534653640e-01,-4.577875887433106861e-02,-3.710439797168281484e-02,1.274954880050628570e-02,-1.881322581966778443e-02,3.075619339942932129e-01
-3.134404465911114213e-02,-3.601680444039843110e-01,-4.145653738255516974e-02,-1.046946741010705735e-02,-5.445502463081071387e-03,3.355178368823331578e-03,3.245825171470642090e-01
-4.005905186831906772e-02,-3.622947293659545820e-01,-2.321714286761801527e-02,-1.185049134528566930e-02,-8.350183795364405151e-03,8.512147134478287303e-03,3.322565257549285889e-01
-2.892923110443437751e-02,-3.373545155375677895e-01,-3.776037317294479723e-02,1.401014899825683835e-02,1.017119147152401905e-02,1.625461955897456248e-02,3.068749606609344482e-01
-3.429912237964365118e-02,-2.916303037178201718e-01,-3.543982897283862177e-02,3.366559025329067534e-02,1.482421491802390738e-02,1.889942191780956751e-02,2.665671706199645996e-01
-2.754201355144557384e-02,-3.023080374229140665e-01,-4.907442510863313512e-02,2.302864810162150166e-02,1.229268569881977746e-02,1.873446921133485252e-02,2.704456746578216553e-01
-2.225383476148587447e-02,-3.152009882549104969e-01,-4.691503179619070651e-02,1.978479203017097232e-02,1.296887062595399216e-02,8.791177501132509467e-03,2.848026156425476074e-01
-5.203272082692447786e-02,-3.643384365240857070e-01,-4.951437816588601104e-02,1.434215242625424983e-04,-5.793251661484586854e-03,-1.675340432107343819e-03,3.137464821338653564e-01
-5.012604307626028488e-02,-3.674687596358240382e-01,-5.058073952480195146e-02,2.520425926968355122e-03,-5.214983007622964184e-03,2.504366282746084849e-03,3.173039257526397705e-01
-4.151763512235215337e-02,-3.917149112164152180e-01,-6.013462612139189312e-02,1.023369192359886194e-02,-1.638943823469432570e-02,-2.782124500704737406e-04,3.429072201251983643e-01
-5.076101282725664632e-02,-3.708575316610367434e-01,-4.617862285568506697e-02,2.532485362557023584e-03,-7.005790118807127785e-03,2.671879804114147498e-03,3.227033913135528564e-01
-5.149614383314984889e-02,-3.687623037568755757e-01,-5.280796905336997138e-02,4.050121429496587010e-03,-1.352020517840649312e-02,-1.042050865526443579e-03,3.175597488880157471e-01
-4.945048538260693460e-02,-3.705907904138036613e-01,-4.609513527151010148e-02,2.797470817783313975e-03,-3.298665022564391865e-03,3.298838105556140335e-03,3.229685127735137939e-01
-4.587373679659588477e-02,-3.672930122766987493e-01,-5.376912017344109840e-02,5.507388377602687613e-04,-6.534208220242730854e-03,2.203112737779384152e-03,3.177711665630340576e-01
-4.498511766050555805e-02,-3.735782295361468330e-01,-4.708904040341820030e-02,5.712278381816360967e-03,-5.182114142183496565e-03,6.145255959534658835e-03,3.279912769794464111e-01
-5.772151319063674457e-02,-3.888318287106746762e-01,-4.729869691253527075e-02,-5.974994769735248595e-03,-9.251976920742178978e-03,3.000713420700414514e-03,3.370232880115509033e-01
-2.044024133691420275e-02,-3.643550574024014832e-01,-4.438377752766525797e-02,6.146028872340934292e-03,3.389534999293820905e-03,1.453494151702123573e-03,3.328216969966888428e-01
-3.819781934217673924e-02,-3.839690750453557677e-01,-4.738278706667961582e-02,6.322484219693919050e-04,-1.926730195578444261e-03,-2.307323919068426411e-03,3.413129448890686035e-01
-1.850520548374169627e-02,-3.534265144624079147e-01,-3.953070820552399833e-02,4.358253477891503580e-03,7.043240371916741419e-03,2.036355838591499302e-03,3.252548277378082275e-01
-3.865379123725290467e-02,-3.757073022876811219e-01,-5.786877840082513269e-02,3.306348902541824016e-03,-8.122340207149412669e-03,2.992407586084711024e-03,3.282611370086669922e-01
-7.090963545427496351e-02,-2.956223863572965405e-01,-3.574459898871105989e-02,1.474741210834506766e-01,2.100555319334103388e-02,-7.304800225256961876e-02,3.771100938320159912e-01
-4.398237309912537973e-02,-3.677565591201722994e-01,-5.121527606626388729e-02,-2.277522106452671904e-02,-1.428944355931503415e-02,1.059948087982979636e-03,3.235927522182464600e-01
-4.269258970859243774e-02,-4.369137366441821491e-01,-5.576052207988778375e-02,-7.930044217831186707e-04,-1.622497616154906785e-02,4.714510113483116232e-04,3.888723850250244141e-01
-4.833684740415375436e-02,-3.316253006634096168e-01,-3.960724673581846045e-02,-9.393617872151155054e-03,-1.677386790238761735e-02,4.271452084882024908e-02,2.989714741706848145e-01
-4.072604202263034601e-02,-3.057784913189789955e-01,-2.466322883007841804e-02,-8.579379732159417987e-03,-4.037041556092759408e-03,4.992672636720358464e-02,2.872560620307922363e-01
-6.536875710857861788e-02,-2.446765065224565383e-01,-3.975379183351972212e-02,-4.071101380389231805e-02,-1.401171534201415061e-02,3.620025308276957760e-02,2.165476381778717041e-01
-5.546306092967399903e-02,-2.974084757825768977e-01,-2.361554645679657394e-02,-5.798466155959799279e-03,-6.250757625784197045e-03,2.810584940684440411e-02,2.642822563648223877e-01
-6.280686922192492416e-02,-2.290103511810900327e-01,-3.213219648271499473e-02,-3.443072297711197854e-02,-1.123816305500909170e-02,2.945665531794654582e-02,2.005022913217544556e-01
-3.685295804183615076e-02,-3.687249371205204573e-01,-4.020370017645667760e-02,2.786543315248037056e-02,1.866622396408749432e-03,2.634274818034028007e-02,3.368381559848785400e-01
-4.111433608247981597e-02,-2.763564748769565815e-01,-3.725329022642376309e-02,-2.055393138069579878e-02,-1.634709646553385992e-02,3.649289873105352605e-02,2.496524006128311157e-01
-3.426082273532417288e-02,-3.602419201118000625e-01,-4.405382866712766188e-02,1.052227245361214529e-02,1.868986878038170164e-03,3.458075046194512749e-03,3.217852711677551270e-01
-2.656785123713852059e-02,-3.608698486044091824e-01,-4.348393949460595265e-02,4.190789345725292464e-02,4.707408480299002558e-03,8.355825538517628812e-03,3.345648646354675293e-01
-2.928786939811560408e-02,-3.667657933645026569e-01,-4.637450096781652042e-02,6.029162505040577824e-02,3.944185811743156425e-03,-2.093598386188220083e-04,3.454981744289398193e-01
-4.059966153619458396e-02,-3.118716255056285802e-01,-2.402438118853633675e-02,-7.144795533560083928e-03,9.013763833315880866e-03,-3.124184661934651872e-02,2.858053147792816162e-01
-4.657176176819911861e-02,-3.799797716969054440e-01,-4.176393517817983403e-02,-4.623620670912624228e-03,7.559800807462015854e-03,-4.303952483725421996e-02,3.443541228771209717e-01
-4.376291861808792594e-02,-3.513128101722959862e-01,-2.142026688584516836e-02,-8.359258714771999887e-03,1.018725532624259293e-02,-1.692455960523828531e-02,3.214621245861053467e-01
-4.455837161451350892e-02,-3.631711415080159377e-01,-2.504603993003459705e-02,-6.956737124375718872e-04,4.242201455135624633e-03,-7.803361640064275431e-04,3.288905322551727295e-01
-3.872804138687886699e-02,-3.729749108887582265e-01,-2.348086252759168380e-02,-8.770520373377686373e-04,7.591553299098776145e-03,-7.989845164799232180e-03,3.426608741283416748e-01
-4.555020098358450453e-02,-3.679236361298616753e-01,-3.737378804134713906e-02,-5.006298862833764678e-03,-3.198029493617352199e-04,-7.204458950970277741e-03,3.268922567367553711e-01
-4.334653566479033937e-02,-3.700945995286256673e-01,-3.116286587633952665e-02,-1.370257764135102791e-03,2.651814648800241998e-03,-1.900220821529020150e-03,3.330634832382202148e-01
-3.809982079011534073e-02,-3.645008789604657906e-01,-3.497234527205941856e-02,2.724563749175672612e-03,7.588571532806532086e-03,-1.378769185512950879e-03,3.282818496227264404e-01
-3.831391701292000129e-02,-3.654348314435490463e-01,-4.756521113829774439e-02,2.103304114461870822e-03,3.396644085555206895e-03,4.621289206880570613e-04,3.226699829101562500e-01
-3.015634250336010624e-02,-3.653030898831766127e-01,-4.480938174513461603e-02,-6.456727149828832496e-04,2.218228129083121402e-03,9.542360986045057619e-04,3.280943036079406738e-01
-4.324010550588495982e-02,-3.743138514297152386e-01,-3.759852450525537348e-02,2.118442111926793769e-02,-1.305348960748723862e-03,3.917914085763315492e-03,3.360162675380706787e-01
-2.485989179707824570e-02,-3.235014888524679333e-01,-4.092924170719910992e-02,4.391262537345865663e-02,6.314590701777347305e-03,1.285446543339414244e-02,3.017388582229614258e-01
-2.219842744595282302e-02,-3.347494064020921645e-01,-4.565589167287253947e-02,1.582961787820014177e-02,8.861473830881065258e-03,6.010133068738620667e-03,3.033189475536346436e-01
-3.862122527817538065e-02,-3.642455526411826905e-01,-4.526558740398684000e-02,1.670812982846376152e-02,2.833499451406482680e-03,3.960704673506356376e-03,3.237598240375518799e-01
-3.418065896065217157e-02,-3.768969800017717420e-01,-3.813992469108413996e-02,1.213738582477244705e-02,7.297744398312723188e-03,1.009615329479387168e-02,3.420829772949218750e-01
-2.332858243847704682e-02,-3.600246584269160000e-01,-4.231034942212387462e-02,9.105417972025928479e-04,-1.899598951784550217e-03,-1.562675161513838243e-03,3.276493549346923828e-01
-3.977297188084705226e-02,-3.693222389363399194e-01,-3.875368353727710879e-02,-2.288034411844573190e-03,-1.263706740986751415e-03,3.160387675545074052e-04,3.300915956497192383e-01
-4.043253081882142164e-02,-3.700361224962364082e-01,-4.423362621102697179e-02,4.220706964299316029e-03,-6.130422930154806431e-04,1.644192829261197303e-03,3.278152048587799072e-01
-4.755086785293180518e-02,-3.449731781696847577e-01,-2.111462236372003975e-02,-8.446780662310832133e-03,7.208145126086572610e-03,-1.146904134328893647e-02,3.127078115940093994e-01
-3.966163492706956117e-02,-3.806976262965114377e-01,-2.940277612137129348e-02,-9.626658888921158647e-03,1.303551910384047156e-02,-3.947007262613053472e-03,3.474823236465454102e-01
-3.755703500901894087e-02,-3.697439534230801961e-01,-3.044950305085812603e-02,-3.361696691361361344e-03,7.066987529341352270e-03,-1.419758367882805079e-03,3.360795676708221436e-01
-3.874126914760001039e-02,-3.808042315833424230e-01,-2.938813252168810675e-02,-1.186167199949485261e-03,7.441858383214198201e-03,-4.322289756990365891e-04,3.470804393291473389e-01
-4.658683245852533739e-02,-3.345499917441362436e-01,-3.130033065197372621e-02,-3.926263597584496792e-03,1.008443977296313333e-02,-1.838218371823201538e-02,2.982003688812255859e-01
-3.742346865161273739e-02,-3.708264509206482540e-01,-2.857370560183268571e-02,-3.048892305714712321e-03,8.663789072142201800e-03,-3.182073904623166846e-03,3.383339345455169678e-01
-3.977996176237416637e-02,-3.623260526281136817e-01,-4.761618708331197269e-02,9.342426683416174592e-04,3.160868692646612646e-03,-4.645459755683569109e-04,3.187523782253265381e-01
-3.724648742602969242e-02,-3.737315894198495192e-01,-4.082454514476559215e-02,-1.116914748027545909e-02,-4.330556784674626652e-03,4.048326114621172457e-03,3.354262113571166992e-01
-1.535286127475546381e-02,-3.035015098608626616e-01,-4.699206000582470399e-02,3.148358550184332527e-02,-7.721791815884471513e-03,-4.869061065745694528e-03,2.795309424400329590e-01
-1.732459701967077603e-02,-3.447105888117962813e-01,-6.224885016133124838e-02,3.030487079316869850e-02,-3.095631721224346468e-03,-7.420346856771296677e-03,3.121558725833892822e-01
-1.745914859635652738e-02,-3.648241952794438747e-01,-5.236677713497937814e-02,1.097253850598236581e-02,-5.119227145022128486e-03,-8.016320946599752098e-03,3.322467803955078125e-01
-6.371609789038853999e-02,-2.860863216390230335e-01,-3.242493910673485691e-02,1.221648742651495062e-01,1.711756710286746344e-03,-1.990215019550498066e-02,3.214898407459259033e-01
-4.311128064819537420e-02,-3.346617025630270748e-01,-4.173653273710793699e-02,6.885384694000312722e-02,4.338562370027975942e-03,-2.679585480058165048e-02,3.191197812557220459e-01
-6.709418360255735292e-02,-3.716514837397802418e-01,-4.682162257460999177e-02,1.408092543925060225e-01,6.813660010290503721e-03,-7.530632566728171981e-03,3.989128172397613525e-01
-3.209183929141262714e-02,-2.884382245976742087e-01,-7.062562496022237180e-02,4.958719071660707550e-02,-8.361103861478298357e-03,-9.616224740231814685e-03,2.553118467330932617e-01
-5.517636755099053492e-02,-1.304106176455500088e-01,-5.829629550644500890e-02,9.161229281757245213e-02,-5.479945819569922300e-03,-1.052749675984643828e-02,1.761709749698638916e-01
-5.003849402953498837e-02,-1.469877444050170512e-01,-4.181706802751492674e-02,9.358039222354339048e-02,3.614363865900704648e-03,-7.427271101783352626e-03,1.916777640581130981e-01
-2.301398696176565339e-02,-3.799677396068358304e-01,-4.553267828752370627e-02,5.013740289185733556e-02,-2.305764201383259972e-03,-1.633439707365223759e-02,3.581097722053527832e-01
-3.072732839495405377e-02,-2.796125597758900572e-01,-5.398699399187864567e-02,5.045980373661457935e-02,-1.038053918689020236e-02,-3.313090687368533405e-02,2.606735527515411377e-01
-4.346694016463030497e-02,-3.622980067558583817e-01,-2.276442951542785587e-02,-9.195350039238433170e-04,-2.295443940433448439e-03,-4.121269794891508839e-03,3.297753036022186279e-01
-5.074517491879415587e-02,-3.687735564995477944e-01,-2.190853510435122886e-02,5.034933410202278511e-03,-2.478965374468542621e-03,-1.869184652260782661e-02,3.350926935672760010e-01
-3.943904762061074820e-02,-3.677912451343432476e-01,-2.494107403935678924e-02,-3.465535685394405567e-04,-3.899468294856905069e-03,-1.288184598214115123e-03,3.359118402004241943e-01
-4.120514449143167224e-02,-3.570274054692628152e-01,-2.474040969327370720e-02,1.412147023708990598e-03,-1.011784226500648046e-02,-9.534137378737395432e-03,3.252699077129364014e-01
-3.716850005577652938e-02,-3.133747513463043810e-01,-2.454262609899249270e-02,9.342047148536147816e-03,-8.808045425662831829e-03,-1.471038893272117593e-02,2.847461998462677002e-01
-4.584937421352318354e-02,-2.874805783389739466e-01,-2.481340586886794652e-02,1.724703291367716412e-02,-6.859204910724991770e-03,-2.716920037842247490e-02,2.591507732868194580e-01
-4.480000647085466414e-02,-3.603731775297107642e-01,-1.605319697800262901e-02,-2.753840106655835226e-03,-5.143721689506984898e-03,-1.843925206430058325e-03,3.310541510581970215e-01
-4.382019266504985633e-02,-3.693309638055904953e-01,-2.816467965990429589e-02,-2.841750878687123588e-03,-8.383556049775987493e-03,-5.543307492971515961e-03,3.341042697429656982e-01
-4.706880768898011325e-02,-3.664884771638986516e-01,-2.022818677621372740e-02,1.413583022883210675e-03,-5.074182049895807969e-03,-8.756923844050313807e-03,3.341198265552520752e-01
-4.665414416306709611e-02,-3.556792741613536979e-01,-3.520449716278489793e-02,3.774989090328820999e-04,-6.701993824514505989e-03,-9.094817831315769527e-03,3.155141472816467285e-01
-4.824196735492294885e-02,-3.502248420827726028e-01,-1.954721222588563789e-02,-2.322346078364914256e-03,-2.030717438346078482e-04,-1.039106801545617263e-02,3.178405165672302246e-01
-4.414126851411891150e-02,-2.969922789873834512e-01,-2.433019208716843962e-02,-1.260852243553529798e-03,-9.210215627206672128e-04,-4.495765783720617748e-02,2.746019959449768066e-01
-4.981700378812517482e-02,-2.883644024521788141e-01,-4.346338408926297969e-02,-1.482354579777946622e-02,6.776055606682479006e-03,-2.402621992112430674e-02,2.469607293605804443e-01
-1.551859288890780619e-02,-3.347993690959918389e-01,-5.362368666698051622e-02,1.532569571736481541e-02,-2.523589814702364292e-03,-2.704374423454107557e-03,3.032683134078979492e-01
-6.495500351308268472e-02,-1.902487506616867274e-01,-6.271429930382446671e-02,-7.248090848567358743e-04,-2.603197963233362666e-03,-2.085007392431425383e-02,1.315688937902450562e-01
-5.106823039822579180e-02,-2.736632243782561313e-01,-5.079626190941502473e-02,-4.630925221103730088e-02,8.047965504257808059e-03,-1.307075226325784753e-02,2.382218092679977417e-01
-2.960336748286775121e-02,-3.311665880977024412e-01,-3.152589220468601794e-02,1.269341371593450500e-02,-1.059513520439986888e-02,-1.373509445646157144e-02,3.029032945632934570e-01
-5.328665652198412428e-02,-2.653980230493508952e-01,-5.180782677486057974e-02,-2.110194201613736775e-02,1.353539793955595497e-02,-1.782967308590127989e-02,2.194226086139678955e-01
-4.937312643341694451e-02,-2.757973727380047535e-01,-4.232604048020571774e-02,-1.361657970901293188e-02,6.795141033225983798e-03,-2.492672175405368992e-02,2.355249673128128052e-01
-5.506387175719754112e-02,-3.105552207955146748e-01,-5.138025926237843599e-02,-3.159871209700757660e-02,1.084060643638591614e-02,1.736794104979492168e-03,2.637945711612701416e-01
-5.188760091156340015e-02,-3.169468562737945971e-01,-4.754815959907775225e-02,2.150021296788901404e-03,6.847962076777233849e-03,-4.451234352580635961e-02,2.784314155578613281e-01
-4.040269562926793179e-02,-3.507162105852288381e-01,-1.992313986122809522e-02,1.988034141525476303e-03,6.031327969284659002e-03,3.722781725930506772e-03,3.212966620922088623e-01
-4.930622334282216968e-02,-3.570090214057823896e-01,-1.510310613904797261e-02,2.035576717110476673e-04,5.316071404830281615e-03,3.496428731781383529e-03,3.263385295867919922e-01
-1.517254539509202416e-02,-3.004084277454603935e-01,-5.336332599382435926e-02,2.938924058843001355e-02,-5.012294317430307337e-03,-4.749370179236087064e-03,2.732377946376800537e-01
-6.297389124058616616e-02,-2.969353150546351627e-01,-2.508997987031838517e-02,-1.686065119295790306e-03,-4.007227667915922581e-03,3.918655916944163015e-03,2.552239894866943359e-01
-1.992401516116792948e-02,-3.453475071457718926e-01,-4.592980376006478016e-02,1.299682661238569202e-02,-8.252422318793507794e-03,-1.631688380878838513e-03,3.143770098686218262e-01
-2.482018735407218180e-02,-3.490294577664362352e-01,-4.047394018353658862e-02,5.120396105930600378e-03,-7.380939901262031574e-03,-7.407850886466667110e-03,3.173142373561859131e-01
-2.164329046019460023e-02,-3.193625462259914727e-01,-4.415679543910000504e-02,2.183107479755310235e-02,-1.287748079430229252e-02,-2.290833167151834493e-02,2.931596040725708008e-01
-2.581186097332856255e-02,-3.681580664853363327e-01,-4.165592751425428730e-02,6.337861839164029253e-03,-7.875627824631291699e-03,-7.629774936465381560e-03,3.354236483573913574e-01
-3.226518274111901674e-02,-3.573405575073844709e-01,-4.086411895414811257e-02,6.830729657723171727e-03,-6.742995396276816808e-03,-6.118303114397534263e-03,3.214674592018127441e-01
-5.674231751001604374e-02,-2.979836851156028033e-01,-1.857979627661483779e-02,4.700484529700748974e-03,6.076068721208100626e-03,3.073153624340569864e-02,2.680867016315460205e-01
-4.914378889806998718e-02,-3.403425816324114894e-01,-1.382945531618233470e-02,5.253028763355559183e-03,4.925036549346277492e-03,1.197952481794337456e-02,3.113091886043548584e-01
-5.115159077432612778e-02,-3.515914036480849436e-01,-1.345364757662387278e-02,-7.245741918780273204e-04,3.302305550690544118e-03,1.192922428384145944e-02,3.216712474822998047e-01
-4.396503572003016003e-02,-3.496265882927773738e-01,-2.399794577438600640e-02,7.910059127599695233e-03,4.236548084090094833e-03,1.427227367188745218e-02,3.174641430377960205e-01
-4.610968312732681429e-02,-3.289435334821462220e-01,-3.124957280505594182e-02,-1.700085176667863462e-02,-8.850341228936417851e-03,3.176524299329662460e-02,2.975700199604034424e-01
-5.209862821172131508e-02,-3.252849970198805063e-01,-2.951491918960510996e-02,-3.327757446640564575e-03,-1.453029302734075272e-04,2.811696947078406311e-02,2.893360555171966553e-01
-5.232425907020998856e-02,-2.989486317090985779e-01,-1.593564332465846611e-02,2.102112784014037016e-03,1.091454610940768843e-03,3.418887962137707320e-02,2.732132971286773682e-01
-4.583408712016442954e-02,-3.661067432948893474e-01,-2.583527625112846948e-02,-7.306370759380217961e-03,-3.682592923396154402e-03,5.379748642056018243e-02,3.438937962055206299e-01
-5.248180731943878630e-02,-3.335220476470038831e-01,-1.428628715065449750e-02,-4.364771782017536593e-03,7.011831016255112544e-04,3.435233914709832914e-02,3.078568875789642334e-01
-5.342418178565319642e-02,-2.555776676529323277e-01,-6.855642884507592849e-02,-2.028635922746981068e-02,1.194706006636230521e-02,1.302565113094744931e-01,3.009967803955078125e-01
-4.065132097000855038e-02,-2.248607160022942086e-01,-5.678673973818243459e-02,1.222851559085683451e-02,6.207869116430040496e-03,1.067919466774124304e-01,2.569025754928588867e-01
-1.573664911278195577e-02,-2.845275058360030584e-01,-5.468613494901763961e-02,3.938764558246381220e-02,-6.668517745913371542e-03,9.248145926249107251e-02,3.061737120151519775e-01
-4.393540384384976571e-02,-2.203348741282873391e-01,-6.155549963698063454e-02,9.756640948836384913e-03,4.330494785732425141e-03,1.131594464332844191e-01,2.589904963970184326e-01
-3.564936384636329531e-02,-1.476222403196819910e-01,-5.496103499420167127e-02,1.908606083221264793e-02,4.377388244853892656e-03,1.025382008189451299e-01,2.084251642227172852e-01
-1.971202228375432131e-02,-3.734535113405116347e-01,-4.710930392373614828e-02,-7.933366756125857094e-03,3.686632516143261394e-03,-7.106901818107262160e-03,3.414281904697418213e-01
-1.927639296927129153e-02,-3.427018194754530844e-01,-5.136003299338780248e-02,-1.523231991049181326e-02,-8.043208823223701922e-05,1.449196673653537068e-04,3.097625672817230225e-01
-1.854497271646100842e-02,-3.405705783459448410e-01,-4.547408484758555525e-02,-1.476116481813498360e-02,1.596633842848282350e-03,5.065681172318267774e-04,3.105090856552124023e-01
-3.335995237452629714e-02,-3.444182970440901603e-01,-5.144966769198347500e-02,-1.753120529333839633e-02,1.260395011684076758e-03,-3.391789183560919591e-03,3.040047287940979004e-01
-3.202909192681241413e-02,-3.569460416292155047e-01,-3.721450792086694603e-02,6.778896831494349469e-03,-4.841411656333927636e-03,-8.776432883430860393e-03,3.230361342430114746e-01
-6.020475193539318037e-02,-3.751877008628172749e-01,-4.842403374133461003e-02,1.351360763381500229e-04,1.294092883648813655e-02,-1.861583726642668983e-03,3.218332231044769287e-01
-5.266631736888122139e-02,-3.657189836890366585e-01,-4.252108978636219561e-02,-1.228834902470371483e-04,8.587526995280448175e-03,8.822522726594986394e-04,3.185977041721343994e-01
-4.598847856144157309e-02,-3.955286619088985156e-01,-5.024300614079396654e-02,-6.224416106615809040e-03,1.349139488317346695e-02,2.970167378173355381e-04,3.483846485614776611e-01
-4.428717497754351695e-02,-3.736230368742849972e-01,-5.494027349199133436e-02,-1.138972695835205242e-03,7.734551288170356600e-03,3.520254597466046016e-05,3.244233727455139160e-01
-4.635167556089879459e-02,-3.680402402792685157e-01,-5.499401852109374322e-02,-1.385677970047181559e-03,9.007241921844780230e-03,1.313366666449681088e-03,3.178559541702270508e-01
-6.152402353236868793e-02,-2.929895760560060625e-01,-1.800925298405699204e-02,3.915255779823182021e-03,5.281353024608059429e-03,3.213924549674400388e-02,2.622412443161010742e-01
-4.526074704819195438e-02,-3.444005941519189262e-01,-1.865322212862612072e-02,-2.936190852974712977e-03,-3.453990864425203282e-04,2.250697484462912262e-02,3.157497346401214600e-01
-3.775897620289940526e-02,-3.147526609312308876e-01,-3.329167076433314776e-02,-2.132608993344521989e-02,-6.292026655576280804e-03,2.988412495409122072e-02,2.866098880767822266e-01
-3.843312956902453226e-02,-3.479749926077176925e-01,-3.101582226863172642e-02,-2.789969368723576627e-03,-1.808505784370992764e-04,2.378216700656636193e-02,3.160496354103088379e-01
-4.861057423573278413e-02,-3.405972864894057373e-01,-1.430428935609120988e-02,-3.452680199874505473e-03,-7.158349556079542271e-03,7.280979518793207102e-03,3.111248314380645752e-01
-4.435729687915150599e-02,-3.473056718813502530e-01,-2.384216495702719263e-02,-2.600568237308897076e-03,5.155605935140961799e-03,4.136150525696111885e-02,3.219409286975860596e-01
-5.275509675951804700e-02,-2.819773271160244121e-01,-1.631970872399897410e-02,-1.038758359061146309e-02,-9.861549033929023055e-04,2.663775301594772937e-02,2.543177306652069092e-01
-4.948151786380755590e-02,-3.452706072873126253e-01,-3.086179475014493023e-02,-9.648520363643494496e-04,2.243533860597524154e-04,2.282327151889212286e-02,3.080763518810272217e-01
-2.393139439062015594e-02,-3.618457066926487053e-01,-4.673402685599423179e-02,-3.444441929000342101e-02,7.344809810382727823e-03,-1.185461652753053326e-02,3.333817422389984131e-01
-2.260500299018680659e-02,-3.583779805026408027e-01,-4.758173105976455652e-02,-1.462481860774303769e-02,5.908344907616323513e-03,-2.616095439412022532e-03,3.251887559890747070e-01
-4.514888536515269946e-02,-2.876627359772607750e-01,-5.100000943680327303e-02,-2.651432010300814809e-02,3.136590946477887682e-03,-6.217476729113592844e-03,2.443005144596099854e-01
-3.712258843053965751e-02,-3.366428603108119200e-01,-4.664812381722516221e-02,-1.217697400920792622e-02,1.356382765688434085e-02,-7.960095919010487867e-03,2.968785762786865234e-01
-2.086458355306798629e-02,-3.224005377726596455e-01,-4.448598111223081575e-02,-1.212643069239887662e-02,5.857957259252177459e-03,-2.601636176749199097e-03,2.914165556430816650e-01
-3.961179573506103113e-02,-2.652614937538564366e-01,-6.383169473310920661e-02,-3.085581392779353227e-02,3.649282713285890208e-03,3.613791230279648960e-03,2.213019430637359619e-01
-3.409849117823646192e-02,-2.917864588558267691e-01,-4.595696947707360314e-02,-1.167821592754749241e-02,1.201471532979944690e-02,-5.235525988245338415e-03,2.537958920001983643e-01
-2.942956621971293263e-02,-3.114037704674916807e-01,-5.438235066561265818e-02,4.107192346157401207e-04,7.018649692814766562e-03,-7.462172536208700260e-03,2.709453701972961426e-01
-2.908228325821621274e-02,-4.178998537941587266e-01,-7.260947930467008538e-02,7.842183355966784661e-03,-4.880666567477815257e-03,7.349610759797359054e-03,3.695505261421203613e-01
-2.974177233920405339e-02,-4.386128235003782239e-01,-6.359054261113310236e-02,-4.330820152997733280e-04,-1.478592440313669827e-02,2.682488391520894758e-02,3.966064155101776123e-01
-3.525878019814465691e-02,-6.153578915439938957e-01,-6.232751352047596893e-02,-3.447141298829792949e-02,-8.949999977211302695e-04,-3.417040724026420423e-02,5.732496976852416992e-01
-2.473232114758736055e-02,-3.982908012237460493e-01,-5.245985749698503509e-02,-2.189581522467238042e-02,6.674273343458905512e-04,-3.335729765170865335e-02,3.670621812343597412e-01
-3.548537715514102353e-02,-3.950412037607381466e-01,-6.361860970851361541e-02,-3.284952589037600217e-03,-1.269753746697429946e-04,2.075321078929751820e-03,3.464126884937286377e-01
-1.314338267399361992e-02,-4.482278870233161738e-01,-5.677491089589802031e-02,-1.342655817634696991e-02,-1.529769094028789580e-03,2.424685751293535058e-02,4.177683591842651367e-01
-3.780630325945998071e-02,-3.673532415082224611e-01,-3.673429465550177853e-02,2.670394537885711645e-03,1.826490903644046584e-03,7.255437523305704973e-04,3.301342129707336426e-01
-3.090474040923237020e-02,-3.679090229164294623e-01,-3.062824446970283110e-02,-6.805073910037618204e-04,2.584731249102470256e-03,6.877881497649243072e-05,3.371744155883789062e-01
-2.951993984574209640e-02,-3.604058341379139940e-01,-2.576924781600879732e-02,4.687665933995504783e-03,6.989188615118446107e-03,5.390259843789238677e-03,3.332269787788391113e-01
-2.928401353290296938e-02,-3.515626440561033794e-01,-3.542383619161659780e-02,6.416457508577649155e-03,9.136382498848785380e-03,5.368976881333920904e-03,3.199732601642608643e-01
-2.711057157212901081e-02,-3.641650423570743089e-01,-2.943791286555941245e-02,4.430854637938132137e-04,4.352397805041760721e-03,-4.642878470619072245e-05,3.359823226928710938e-01
-2.931598277436156530e-02,-3.580973149600614747e-01,-3.121760506142590152e-02,5.472962951504312459e-03,7.232410126009096267e-03,3.565471775166485432e-03,3.282689154148101807e-01
-4.234334169076234278e-02,-4.191014130245563907e-01,-5.036164880039166458e-02,3.229024848617235554e-03,-2.976740319757404003e-03,3.432260889024521533e-02,3.776002824306488037e-01
-1.463888416450859209e-02,-3.549223997986826751e-01,-4.808308253918479325e-02,2.507703375664729808e-03,1.304170834356191671e-04,-1.604550897671573953e-03,3.248961567878723145e-01
-3.151883636795721477e-02,-4.274575724803685861e-01,-6.164665038604184855e-02,-1.123658385126570427e-03,-1.800327056841831419e-02,1.876716556747504150e-02,3.844205439090728760e-01
-4.411108612851220856e-02,-4.148523537057000610e-01,-4.283987856935715655e-02,2.964808927754047224e-02,-8.408427825657873236e-03,4.164084030509297707e-02,3.820641338825225830e-01
-3.748506838164383792e-02,-4.313961697021261865e-01,-5.139983343325754683e-02,8.534961163868688347e-03,-1.160991651779274235e-02,2.135802015795421754e-02,3.897047638893127441e-01
-5.447505982198128094e-02,-3.170161757686873472e-01,-3.794579478083384694e-02,6.166643659236078785e-04,-1.777825053008123130e-02,-6.898838964027771692e-02,2.979399263858795166e-01
-4.420749017184515128e-02,-3.183626183334278270e-01,-2.546111557697515460e-02,-3.753558729753893319e-03,-1.031875839458470771e-02,-1.936339486178653355e-02,2.865979671478271484e-01
-4.202127801695580700e-02,-3.331535522403449301e-01,-3.234396401783470876e-02,1.369803277078309248e-02,-1.239815429287967515e-02,-1.365882045079731474e-02,2.987520098686218262e-01
-4.033411661651503666e-02,-3.170471876385926313e-01,-4.133302286948289939e-02,6.206895502052309915e-03,-1.804507604105611007e-02,-1.936168370657810611e-02,2.801995575428009033e-01
-3.461434412654916526e-02,-3.597696069102519489e-01,-3.868430824690072267e-02,-5.556093145630216015e-03,-3.923743390188504272e-03,6.381976011028104787e-03,3.235430717468261719e-01
-4.175226579368741808e-02,-3.628094919485399528e-01,-4.818726085620596289e-02,3.182704371914069920e-04,2.200459503106441585e-03,-7.438881024386732703e-04,3.179145157337188721e-01
-4.548157902898854188e-02,-3.739394841081892795e-01,-5.056628296691140223e-02,-3.208175133574219656e-02,-4.779317353534827222e-03,-1.119641414589532015e-02,3.313195705413818359e-01
-3.621822954338208000e-02,-3.709157803264674924e-01,-3.246348144423424897e-02,-1.767139177108124556e-02,-5.158372771513697157e-03,3.144542252224727386e-02,3.424563705921173096e-01
-3.586105467922777457e-02,-3.678847263563901349e-01,-3.615445100873530826e-02,-3.074275563915724891e-03,6.418055676884531699e-03,-7.135529828576406969e-03,3.323357701301574707e-01
-2.858299763264707249e-02,-3.677493141313268876e-01,-4.248417781980833030e-02,-2.249008335307962209e-02,5.800332075237560163e-03,-4.035790375539968083e-03,3.349319696426391602e-01
-4.055094635974494655e-02,-3.844037405453719636e-01,-4.164190713964362189e-02,-8.145138313807587238e-03,-1.038362969339492060e-03,2.452555857807106957e-03,3.436293303966522217e-01
-3.923626136216658289e-02,-3.624154340299694521e-01,-3.650339827797542680e-02,-9.962030451215513061e-03,-2.427270475691353097e-03,-2.146067259020883675e-02,3.271582722663879395e-01
-4.033946643208209670e-02,-3.572467681751935187e-01,-4.750666057395644404e-02,-3.985290332482906844e-02,6.324931847292131204e-03,-1.639921755347384033e-02,3.223381042480468750e-01
-5.306940332318918485e-02,-3.813949085577681974e-01,-4.318848619051676718e-02,5.128341683619624253e-03,-5.493856257993753184e-03,5.710306415505361083e-03,3.337764143943786621e-01
-3.188658956847453818e-02,-3.774836486143287040e-01,-3.602193713182920420e-02,-1.776322530938966374e-02,5.572664438773131286e-03,-3.456438440348603980e-03,3.451099395751953125e-01
-4.111859955826349666e-02,-3.798478410980980491e-01,-4.030157130424406875e-02,-3.897260839857299985e-02,5.373841286769423173e-03,-1.832445367029078218e-02,3.473694026470184326e-01
-2.892402803882286599e-02,-2.889038878498942364e-01,-4.459070649730303981e-02,-4.494046542032331670e-02,6.922743512461401738e-03,-2.514591416154245487e-02,2.680701613426208496e-01
-2.141066113577823338e-02,-3.627570252613491197e-01,-4.248488758156836187e-02,-6.754125757701742207e-03,6.264624391172575121e-03,-5.106047936837763458e-03,3.318141996860504150e-01
-2.477825242492244506e-02,-3.426946001523745178e-01,-4.244586878751248349e-02,-8.858895022600106126e-03,6.739064852798746022e-03,-1.104807220289256292e-02,3.106509149074554443e-01
-2.871577122698526496e-02,-3.556740562568213582e-01,-4.003502383565465950e-02,-5.388522751032309016e-03,1.345471318927804992e-02,-2.290113737717692360e-02,3.248576819896697998e-01
-3.975673473796695334e-02,-3.151235499941981155e-01,-3.445477035342565941e-02,-7.873848302595330001e-03,1.149725635249942805e-02,-3.299583890397824598e-02,2.848924398422241211e-01
-4.437623228562258271e-02,-3.796016067528193427e-01,-3.594242492562563229e-02,2.218796781670216711e-02,-8.749000220935270562e-04,-2.334392862197358452e-03,3.417162001132965088e-01
-3.239205053824609215e-02,-3.647797737598927892e-01,-3.399219829780099345e-02,3.764727497216737231e-03,-1.081458486403569230e-02,-6.675917739284890212e-03,3.323843777179718018e-01
-3.595714723337767316e-02,-3.654760060816777401e-01,-3.806790045396743483e-02,1.156660304624064668e-02,-2.898577353421609524e-03,-1.088956029503468023e-02,3.296572566032409668e-01
-4.056188787996270473e-02,-3.728312413370007405e-01,-3.293540368861079537e-02,-2.237822260027639600e-03,-2.684238747320480054e-03,4.466692144502971084e-04,3.362028598785400391e-01
-1.971472479470931516e-02,-3.641421545185369313e-01,-4.548693696112544871e-02,-4.774876003775805136e-04,1.868029734029053469e-03,-9.804347866217799461e-04,3.323128521442413330e-01
-5.388970819367687459e-02,-3.699717508801450006e-01,-4.651736118105762041e-02,-3.472272114069360066e-03,7.949415442027051720e-03,3.092403536345883150e-03,3.202294707298278809e-01
-4.391746854155201274e-02,-3.834660095368505051e-01,-3.787573239675792736e-02,-2.888521646576035131e-03,-9.943196408379426261e-04,-6.067552456782606893e-03,3.428113460540771484e-01
-3.156652922400268735e-02,-3.117055598229518942e-01,-3.536654998522982540e-02,1.351518411338933738e-02,1.448911720824172696e-02,2.018283559025382118e-02,2.825377881526947021e-01
-3.884642106368958736e-02,-3.319308060190753196e-01,-2.892517562460827918e-02,7.399074045555406078e-03,1.208716414127776126e-02,1.155872726533325144e-02,2.998466193675994873e-01
-2.962040887318788396e-02,-3.660088169397375246e-01,-3.582336589311663211e-02,2.258493082705617400e-03,4.892677782729050635e-03,1.956863332071555675e-03,3.334780931472778320e-01
-3.362241786389912057e-02,-3.601120627905670668e-01,-2.232440189969756017e-02,4.411694209567417098e-03,8.271393661185238652e-03,6.668092627579075109e-03,3.328796327114105225e-01
-4.883092863595021871e-02,-3.645280729006879494e-01,-4.861121001891081927e-02,-2.607374521698521057e-04,-5.562406050589220738e-04,1.024635640772658381e-05,3.158088624477386475e-01
-3.559791413728820297e-02,-3.664494122047894376e-01,-3.551725491482299324e-02,4.843314628363425568e-04,2.402965345536291816e-03,-4.717794492503830667e-04,3.309200704097747803e-01
-3.415136253054067150e-02,-3.645269126974552965e-01,-2.901869124532362176e-02,3.448257604708455763e-03,7.467140239546941893e-03,1.703741188587929714e-03,3.332892358303070068e-01
-2.906951783991688909e-02,-3.652441372558467569e-01,-3.115479427889690511e-02,1.543664192154515754e-03,9.154602331065736856e-03,3.387242049436659137e-03,3.355736732482910156e-01
-3.929740048325480739e-02,-3.591394528885197834e-01,-2.861196427248136054e-02,1.771935510389038875e-05,5.260103181278069293e-03,3.392875303433645021e-03,3.254970312118530273e-01
-3.925160540543881638e-02,-3.618471599688156681e-01,-2.159467850562182822e-02,1.869797405259705650e-03,2.696748499213600259e-03,1.141429253182483236e-03,3.318311572074890137e-01
-3.634501459877990948e-02,-3.584025276966606999e-01,-3.094883867400295696e-02,5.607130254672468110e-03,4.518500483338914846e-03,3.805804808575701491e-03,3.250954747200012207e-01
-5.235586140527184740e-02,-3.461263782099642805e-01,-1.950425028462626775e-02,-1.838994935345255070e-03,-1.471958521172741022e-03,-1.117866887791969278e-02,3.121261298656463623e-01
-5.237647340187794043e-02,-3.496348394376057045e-01,-2.405001640990939160e-02,-6.726187951719301249e-03,4.336596934376411167e-03,-1.364720428636859856e-02,3.135858476161956787e-01
-5.853515946404896919e-02,-2.867993802872723652e-01,-2.523119391079037266e-02,-2.351144862891599296e-02,1.967335807152263607e-03,-3.733176025728505987e-02,2.581990957260131836e-01
-4.981759685927558690e-02,-3.753099550041655297e-01,-2.647928122585656296e-02,-3.959632247168967840e-03,1.075765215885331975e-03,-4.763086063726904712e-02,3.477686047554016113e-01
-5.967493047989302912e-02,-3.502538507674579638e-01,-2.410335490754293708e-02,-5.519872843469157686e-03,6.249070556671834295e-03,-1.338562154801276570e-02,3.111010789871215820e-01
-6.773634349086289641e-02,-4.148282602529833607e-01,-4.348343717737460090e-02,1.931970644955641279e-03,-1.433486382736659862e-02,-1.827883273512500824e-03,3.607168793678283691e-01
-4.908031598474429935e-02,-3.843353454678219983e-01,-4.261744728648862723e-02,-3.433931063717269618e-04,-4.306248275393422843e-03,-6.803859243208153045e-03,3.388204276561737061e-01
-4.765718905805391148e-02,-3.220726951406170380e-01,-2.867532727077622134e-02,1.023372754221508335e-02,-1.539010343454540013e-02,-2.524558943896503330e-02,2.894993424415588379e-01
-4.682071371571709661e-02,-4.254261190897453138e-01,-4.309016676585439298e-02,2.566448384002252125e-03,-1.420741359719982812e-02,2.042173263390247538e-03,3.813216388225555420e-01
-4.783090795434524756e-02,-3.641829814326514314e-01,-4.856387969161292395e-02,2.706335369460723442e-04,-2.332346354707810277e-04,7.061823526791377343e-05,3.159868419170379639e-01
-4.067810329924861912e-02,-3.520651607643258130e-01,-3.034156696269912912e-02,-3.242574165674933645e-03,-8.986349211702137187e-04,-1.178326554891873275e-02,3.173923492431640625e-01
-4.100169447484899865e-02,-3.983075696525576470e-01,-3.598748715466026926e-02,1.695515237732355199e-02,-3.887908642587673425e-03,-1.822704325607907641e-02,3.624757826328277588e-01
-4.782127186947239539e-02,-3.105073331015921756e-01,-2.752012172511773824e-02,1.271846315898958121e-02,-1.109007138523564889e-02,-1.907302297642923458e-02,2.769377529621124268e-01
-3.016153348945588286e-02,-3.376961655226722314e-01,-3.746973773910680650e-02,2.228393624520509653e-02,-1.363915959812682203e-02,-1.243619313420070080e-02,3.080506622791290283e-01
-4.945404012695173157e-02,-4.154394478967124993e-01,-4.501716054109979048e-02,8.941713189448929205e-03,-8.284373616480716560e-03,3.609341396524445942e-03,3.688816428184509277e-01
-3.626189316058046896e-02,-3.816342788800268782e-01,-3.339081917235602048e-02,1.958500679445040679e-02,-1.118488220337768985e-02,-3.885137135657413393e-02,3.554380834102630615e-01
-2.630906907745614309e-02,-3.527477023024817582e-01,-3.993089043557664086e-02,1.693860631655385446e-02,-1.191094299492193032e-02,-1.183979798507783787e-02,3.225026428699493408e-01
-2.787942497042233958e-02,-3.596694285661924395e-01,-3.989848082587568734e-02,1.404734319038787420e-02,-1.079769167413674111e-02,-6.553574948781008130e-03,3.275848925113677979e-01
-3.489085057429591741e-02,-2.757412513581195546e-01,-3.790809709263218141e-02,2.572258753338153153e-02,-1.345397693584389140e-02,-4.176135133833128871e-02,2.550516128540039062e-01
-4.298482020038021933e-02,-2.784181434429663371e-01,-3.727430326653924375e-02,3.510540097305993312e-02,-1.686844284412998204e-02,-4.309105399875214071e-02,2.587029635906219482e-01
-3.065358858678438048e-02,-3.306480392191328832e-01,-4.164653804549535432e-02,1.321207513008482680e-02,-1.338346542296704050e-02,-1.136585930731386779e-02,2.970997691154479980e-01
-4.015011321159138447e-02,-3.159916021722732338e-01,-3.428219285580076658e-02,6.091263953677531449e-03,-1.357676469301975081e-02,-1.990587973262581203e-02,2.821251451969146729e-01
-2.707524998781926651e-02,-3.366421078257171295e-01,-3.932549195440264433e-02,1.287374936449031324e-02,-9.347647056201271662e-03,-8.654665972199807392e-03,3.052433133125305176e-01
-5.247097170420672585e-02,-4.103122099913306675e-01,-4.359234716902413154e-02,7.121584066128798518e-02,-1.601042720969802699e-02,3.916830219533516677e-02,3.897343575954437256e-01
-3.950356348329768508e-02,-3.349499372785400553e-01,-3.868841525162057537e-02,1.316071771809781792e-02,-1.466466776927300049e-02,-1.623791866002850803e-02,2.991418242454528809e-01
-3.878418231508883041e-02,-3.654290043486189132e-01,-3.522213331660041524e-02,8.860463838576464191e-03,-4.328056926821733340e-03,-9.213220989752610862e-03,3.292710483074188232e-01
-3.039270152763851041e-02,-3.434629257055188400e-01,-3.284135722390219003e-02,1.353878470005462874e-02,-1.064106210194937230e-02,-1.563138251927270392e-02,3.144439160823822021e-01
-1.075838973308121393e-02,-3.529752425799993487e-01,-4.849001200464875261e-02,1.960006471848781216e-03,2.576803489638623389e-03,6.942586380870657218e-04,3.250485360622406006e-01
-4.095229193678590063e-02,-3.722215006171522567e-01,-4.496791929576240965e-02,-3.984857243312134832e-03,4.004983387125050052e-03,-5.060515668955906099e-03,3.295417129993438721e-01
-3.904167041593065157e-02,-3.771056763787116184e-01,-3.221630013291487682e-02,2.935610856127641825e-03,-6.682914642024716245e-03,-1.093100395918198027e-02,3.422858119010925293e-01
-5.886063166672465818e-02,-2.843386884610854537e-01,-1.948037211392000811e-02,1.109456359205179266e-01,1.128331193265361132e-02,-2.696589690889220764e-02,3.174283504486083984e-01
-3.242714122736527205e-02,-3.574532130737302360e-01,-3.275957408170393492e-02,1.032970905483325931e-03,-1.080069809247473887e-02,-3.343048425046025660e-03,3.254546225070953369e-01
-3.514326510908311052e-02,-3.813423825299613878e-01,-3.518137624116988993e-02,1.132436149295848156e-03,-4.339855834517411005e-03,-8.121924925138456278e-03,3.465528488159179688e-01
-4.439654618886600124e-02,-3.693748362359206006e-01,-3.268075331195401112e-02,1.161801906751608500e-02,-1.386567001949528047e-02,-1.435011294287130527e-02,3.333991765975952148e-01
-3.858900084099775585e-02,-3.209758713791915907e-01,-2.823405463136639815e-02,6.237690021277148174e-03,1.121681312672442171e-02,1.146624456750076904e-02,2.892443239688873291e-01
-3.996181061469290807e-02,-3.671265047202718623e-01,-2.979922245242247469e-02,-1.938582544868495483e-04,5.389903849105421099e-03,5.810378619338097891e-03,3.326460719108581543e-01
-3.869259431805813221e-02,-3.977471135558440229e-01,-4.985650260892002250e-02,1.366805477653306074e-02,-2.433127989542648115e-03,4.535053531123159169e-03,3.545084297657012939e-01
-4.121799488092567354e-02,-3.834353110213961635e-01,-4.999173887316357701e-02,2.799260411436975231e-03,-5.358859111652190636e-03,3.189136495806563307e-03,3.381232321262359619e-01
-2.639581622452116805e-02,-3.485074626728926206e-01,-3.363918327108850193e-02,4.030339727467985994e-03,1.114323748436538142e-02,3.687338650530763012e-03,3.192761242389678955e-01
-2.778327091985688391e-02,-3.646552659498746296e-01,-3.633646588982632208e-02,2.804917061537594443e-04,1.760845500149091445e-03,2.192992207570348875e-04,3.326924145221710205e-01
-4.074588890511272876e-02,-3.601447763845115890e-01,-2.336507529901611646e-02,-5.084147394619690889e-04,-3.421338852975737681e-03,2.353251352727368361e-03,3.285143077373504639e-01
-3.408913081487924268e-02,-3.295293691811966297e-01,-2.713230349876076530e-02,9.221010006711291215e-03,1.089525242096910269e-02,1.043717575407824942e-02,3.005439341068267822e-01
-3.725440499567239661e-02,-3.485591034062533455e-01,-2.549881302622916679e-02,5.734106347899465411e-03,9.027023046129383638e-03,4.343190602120559386e-03,3.179749548435211182e-01
-3.620275148799032006e-02,-3.713618010356111165e-01,-2.925737593652893986e-02,1.583911140087435054e-02,9.191859105411964020e-03,2.315304411091993406e-02,3.425228893756866455e-01
-1.217714217967393042e-02,-3.341748675754310782e-01,-4.549439053165531266e-02,9.171914453078184107e-03,5.142459958806224786e-03,4.534933166460147422e-03,3.073400259017944336e-01
-2.279428682973450027e-02,-3.253944500544553309e-01,-4.172763510938287679e-02,2.442022460743881532e-02,1.386186683919900589e-02,1.088988914526585255e-03,2.975989878177642822e-01
-4.784478557462169129e-02,-2.125890049718685282e-01,-5.302828733885475709e-02,1.654706925290300862e-02,6.059063362624916155e-03,3.441494764051467037e-02,1.754944324493408203e-01
-2.911054327774499628e-02,-2.931377420022896474e-01,-5.614630197937786615e-02,1.929040563664075753e-02,8.760762221818383169e-03,8.151298306144128675e-03,2.546547949314117432e-01
-3.275206003567862623e-02,-2.722077498847258470e-01,-4.927621286677164036e-02,3.066823307418398842e-02,1.323914955259592775e-02,1.335542624608746301e-02,2.398704290390014648e-01
-5.337099256169200445e-02,-3.438205374347779175e-01,-2.927366962710822862e-02,6.290583904583021968e-02,-1.025363832439214057e-02,2.371293343010369425e-02,3.252913057804107666e-01
-2.647535804981972218e-02,-3.648353351205672057e-01,-4.566914328385125732e-02,3.158956396698445884e-02,8.761257382006818265e-03,3.777314575715560226e-03,3.341081440448760986e-01
-1.579555503912610792e-02,-2.833044488163263264e-01,-4.815384654614134063e-02,5.068081931271705559e-02,6.077888759825489894e-03,-9.894467637903608948e-03,2.684438526630401611e-01
-3.608579508054819696e-02,-3.715708322259290153e-01,-3.608776662149508485e-02,1.119890530726216395e-02,1.373843830685668801e-02,1.192840440154573772e-02,3.375187218189239502e-01
-3.409381715326244289e-02,-3.609399408589490932e-01,-4.720149962725798953e-02,6.271906240872823779e-02,5.952024337529650266e-03,3.270448367247728166e-02,3.432667851448059082e-01
-3.341083737050795643e-02,-3.469885546565554257e-01,-4.312568339021231878e-02,5.110351217364176440e-02,9.009203197260612708e-03,4.507799328827932772e-02,3.309883475303649902e-01
-3.541896419660417461e-02,-3.641738244125333201e-01,-3.645144151231624607e-02,9.026257979146478511e-03,5.835870173109788603e-03,8.503342868520120945e-03,3.290970921516418457e-01
-4.053260365827696110e-02,-3.676268728956263998e-01,-4.008441756714668791e-02,-1.600312870395169352e-03,3.260245487335247400e-03,-9.919439960297863311e-04,3.273835480213165283e-01
-4.223300555789007149e-02,-3.681492729590967183e-01,-3.847508714563718790e-02,-9.121080979257617809e-05,2.507800911689680914e-03,1.067276363283977368e-03,3.278453946113586426e-01
-4.789541515535140903e-02,-3.678410333361644136e-01,-4.370682375326943869e-02,1.854624086090699703e-03,-2.809472559720854225e-03,4.335568446162213984e-04,3.221139907836914062e-01
-3.761699054906564310e-02,-3.675498730163183625e-01,-4.040452758036285064e-02,4.649705466969332088e-04,8.273372841420747071e-04,-8.814852601470019164e-04,3.285556435585021973e-01
-4.102600527496126637e-02,-3.672906913001763307e-01,-4.348649096759517330e-02,-1.820745923727253241e-03,8.483538410982256143e-04,-6.803435624496445046e-04,3.250621855258941650e-01
-3.389805710486491763e-02,-3.641917775540372548e-01,-3.218639280354926302e-02,4.707439606147795371e-04,-1.985313534178567100e-03,-1.453345015202896435e-03,3.311812877655029297e-01
-3.073740167748990892e-02,-3.646363589354656431e-01,-3.114169370005137605e-02,6.475662956680762472e-03,-6.034574495250866373e-03,-2.824797350314401604e-03,3.340848386287689209e-01
-3.792828040843339299e-02,-3.686405861026296193e-01,-2.534289308942207219e-02,2.690328012118873582e-04,-2.212000985746989234e-03,-1.419700779196823468e-03,3.372122645378112793e-01
-3.046824183754341664e-02,-3.697785701580403872e-01,-2.832008985194901796e-02,-1.223779886537677180e-03,-2.119600454666642139e-03,6.909272031366175872e-04,3.404179811477661133e-01
-3.202113395170223809e-02,-3.686371265092257543e-01,-3.020197026657148176e-02,-1.406227129135970925e-03,-4.077946462275165891e-03,-4.029594266557755852e-04,3.376126587390899658e-01
-5.150172308638206742e-02,-3.006932442274067308e-01,-1.643345853107225363e-02,-4.180994764565432284e-04,-6.514316927442183845e-03,4.235447978409174336e-02,2.785218954086303711e-01
-5.587827350846706620e-02,-2.837918175816293020e-01,-4.255047439369290252e-02,-8.570472766743837678e-03,-1.234081973876909825e-03,7.887289880601050518e-02,2.721167504787445068e-01
-4.907841995000748747e-02,-2.999107782822134083e-01,-2.206509743365686615e-02,-5.408358286060204433e-03,-9.928307558590610329e-03,2.929010741039986959e-02,2.708866894245147705e-01
-5.013115561997408265e-02,-3.635804763222963976e-01,-2.237520933379744115e-02,5.656894217716128097e-03,9.978896557298515615e-03,5.381532477164707728e-02,3.417659401893615723e-01
-4.839249643855887684e-02,-3.690110291866413594e-01,-1.848514771266387968e-02,-7.121491202787430487e-04,5.835129490639676120e-03,2.721132646605335659e-02,3.400067389011383057e-01
-5.648783333545402685e-02,-2.721402118522015523e-01,-3.780106116324619125e-02,5.095260104121123075e-03,7.410860398697544614e-03,8.454704108297077247e-02,2.693923711776733398e-01
-3.379783667817155834e-02,-3.529863181064093469e-01,-2.518587343231275255e-02,1.218407090098868294e-02,9.776548841456775274e-03,1.952181295531185343e-02,3.264654576778411865e-01
-4.502196366669689032e-02,-2.922688739284028392e-01,-1.730801832309475374e-02,6.745290560684116463e-03,9.809477909332391110e-03,2.890421298413659371e-02,2.677364647388458252e-01
-3.995142725778146053e-02,-3.746380002916104290e-01,-4.590165967436597716e-02,-4.967353616420335655e-03,-4.520598194746582054e-04,3.223314451997767900e-03,3.319109082221984863e-01
-4.118428381438318797e-02,-3.866045985173843791e-01,-3.368723941813092648e-02,-1.115903240337005192e-03,3.030435653772154628e-03,4.584568096709571577e-03,3.493642508983612061e-01
-3.417054252013747295e-02,-3.451864585025815613e-01,-3.561655803488232575e-02,1.894339395907669935e-02,6.031670461610779375e-03,2.273451832815488044e-02,3.146736919879913330e-01
-3.690597642516500743e-02,-3.772108485495173635e-01,-6.190078603431041493e-02,-4.338475077280241725e-03,9.343890549501601001e-03,3.344721483438251822e-03,3.290565907955169678e-01
-2.425195532841900592e-02,-3.704847503953263566e-01,-3.405879379454829214e-02,5.498875741669408344e-37,-1.625757033529623115e-03,-7.676442824865825718e-04,3.414492309093475342e-01
-6.504208317115475757e-02,-4.154447476952383700e-01,-2.563934532279571465e-02,7.684224005812233249e-02,-6.397397635849040066e-03,2.944696395524244725e-02,3.982207477092742920e-01
-3.307563506228169969e-02,-4.047778686637887868e-01,-5.012490796835095130e-02,-1.667489901472340996e-02,-2.424013338028102073e-03,7.070744891052307794e-03,3.648530542850494385e-01
-4.013179124670317177e-02,-3.784709765861486996e-01,-5.613410801762054592e-02,5.661327272166401031e-04,8.230594086244110092e-04,3.523607217796322316e-04,3.306336998939514160e-01
-3.720980578761864943e-02,-3.715687731398065186e-01,-6.595442407779671112e-02,-2.244566714511130306e-03,3.047180840194756678e-03,1.831260401725113163e-03,3.210361003875732422e-01
-6.608158005231710985e-02,-4.234737849947178834e-01,-2.693423399104369342e-02,4.160762950811275340e-03,3.337597610401061166e-03,-1.227859328116509205e-02,3.791969120502471924e-01
-4.166290623688936878e-02,-3.771529822229746642e-01,-5.220512827159831670e-02,-6.743661295302195860e-04,-5.372398471964685883e-04,-2.997107326063200468e-03,3.303893208503723145e-01
-2.131102941251694638e-02,-4.451410630231925070e-01,-5.958413430122416754e-02,-1.475832571058694961e-02,7.196134941584744066e-03,1.741575703664290098e-02,4.081594645977020264e-01
-3.363369495006447718e-02,-3.504072721713046845e-01,-3.845061833801349804e-02,4.619493465118150281e-03,-6.026534899819842826e-03,-4.853337659721731340e-03,3.147800266742706299e-01
-3.247550651633596130e-02,-3.634956458604866603e-01,-3.241448823222319031e-02,6.095628363315472829e-03,-8.407996059363608693e-03,-1.714428308784485657e-03,3.315522670745849609e-01
-3.212052823394673240e-02,-3.579829289309083284e-01,-3.540392935072138314e-02,6.272958850899728635e-03,-8.708137025118160499e-03,-6.301564770359053408e-03,3.249489665031433105e-01
-5.069830479727074901e-02,-3.691956464240561120e-01,-4.559585081041925281e-02,3.278546241668203482e-03,-5.118962096341431699e-03,3.770007163156357480e-03,3.213179111480712891e-01
-3.004040242429549534e-02,-3.673778852435874986e-01,-3.669370508789819574e-02,3.465385899236288485e-04,-5.904995365720155237e-03,-3.710659523886752822e-03,3.342793881893157959e-01
-3.039819335908218456e-02,-3.556034269557722949e-01,-3.487698234075967130e-02,-6.658729796156012161e-03,-1.062901027818603621e-02,3.059140295064900154e-03,3.237622678279876709e-01
-3.642411140579975004e-02,-3.707476847634746386e-01,-3.757194117206151540e-02,-8.371352596433763796e-03,-3.294725808059412436e-03,6.587821197016896502e-03,3.343094885349273682e-01
-4.237662162737228233e-02,-3.688827129633149848e-01,-4.749463568246863054e-02,-3.075288130184112862e-03,5.263008719189468838e-03,-2.120725187139144846e-03,3.241702020168304443e-01
-5.131209094348618271e-02,-3.797902810682496355e-01,-4.994778234467470157e-02,4.782207351727272432e-03,1.040675533763550133e-02,-6.839301849788930084e-03,3.299723863601684570e-01
-4.619233438459070806e-02,-3.691654138861162338e-01,-4.555450336538072187e-02,-1.408288519745412018e-03,1.266926521487513361e-03,1.769766108367869673e-03,3.233236372470855713e-01
-4.419636437596378975e-02,-3.762323136370284704e-01,-5.145843199269842239e-02,2.744818739002941304e-03,6.134003322463497596e-03,-4.740469637776134615e-03,3.287738263607025146e-01
-3.540967908645821505e-02,-3.705109991475127318e-01,-3.741979389071722895e-02,-8.972586672320835566e-03,-3.974023767151506521e-03,6.557582127807440146e-03,3.347256183624267578e-01
-4.958571155808822600e-02,-2.289873846256425816e-01,-2.912442572167414645e-02,-1.699408165864037604e-02,-1.166647360269830805e-02,4.971922208715659486e-02,2.120498418807983398e-01
-5.093278812048200599e-02,-3.672808830097249455e-01,-1.875639146174998273e-02,-1.183543242366947267e-03,5.673640602450894053e-04,2.061466628738576126e-02,3.355152010917663574e-01
-4.891997969148663417e-02,-2.838680953434073451e-01,-1.976707917485941157e-02,7.174809384119701199e-03,9.044933687976135922e-03,5.281406849251302910e-02,2.677083611488342285e-01
-4.974606999431254589e-02,-2.353634026661834966e-01,-3.608756662677091442e-02,-2.588338964321782246e-02,-8.166259739566743931e-04,6.406317705711384036e-02,2.269355058670043945e-01
-5.833693370552813645e-02,-2.553589518066343156e-01,-2.323708150393713479e-02,1.361473907507127455e-02,7.107597692368400680e-03,7.331713914565476942e-02,2.525845766067504883e-01
-6.587939680068119475e-02,-2.304379058732112240e-01,-3.761402747134993951e-02,6.740150620488913162e-03,1.732996957535983549e-03,4.804581657602898653e-02,1.989980936050415039e-01
-4.611355387035556697e-02,-3.918437558691070244e-01,-6.245910706965328296e-02,1.458622679432493123e-02,-1.134911381146658932e-02,1.033772777510505447e-02,3.398391902446746826e-01
-4.403763786724650131e-02,-3.711351332432509809e-01,-4.843411910526930486e-02,-2.289246361643395775e-03,-4.413419350151823357e-03,-4.651320259765956487e-04,3.250366449356079102e-01
-4.717126776340567484e-02,-3.838727082158254200e-01,-6.179400558795447584e-02,2.583558479019377780e-04,-1.538011636225245470e-02,6.015217120981749578e-03,3.308724462985992432e-01
-4.951079528417239028e-02,-3.916802170912505043e-01,-6.640296516135231475e-02,1.051967108949096452e-02,-2.180341786974670029e-02,1.095103822513745530e-02,3.371990621089935303e-01
-3.124651565892835881e-02,-3.686159677498391241e-01,-3.320751032813117065e-02,2.042276394766721903e-03,-2.823119285177247504e-03,2.189325977933282092e-04,3.364475965499877930e-01
-3.065840817041817767e-02,-3.686712115331088890e-01,-3.880009056417663138e-02,-2.147225487185739235e-03,-4.461055582170387647e-03,-1.632912420618795038e-03,3.341384232044219971e-01
-3.546612050871736366e-02,-3.708466633612076402e-01,-4.253505751087816034e-02,-1.613057684153180711e-04,2.712935574099471715e-04,-2.087922923271423158e-03,3.319226801395416260e-01
-2.045483143925146130e-02,-3.580087985617508295e-01,-4.468776752844885736e-02,3.953383483984666998e-03,-6.831524732159192058e-03,-9.967534721686131978e-04,3.264044523239135742e-01
-2.641167094152035988e-02,-3.367499973793579571e-01,-4.074318420848350997e-02,6.160643478016618844e-03,-9.174389090862777180e-03,-7.036660889233026760e-03,3.042738437652587891e-01
-2.883938923182899350e-02,-3.485340348982092218e-01,-3.976645635177311622e-02,2.351854758076651376e-03,-1.163095202869922004e-02,-5.002989457120732113e-03,3.151638805866241455e-01
-2.284055951599205103e-02,-3.639400477618636720e-01,-4.284881423662377509e-02,2.931580331955242844e-03,-1.673182483951600637e-03,6.259730452138213396e-04,3.316017687320709229e-01
-2.177093001528543348e-02,-3.579967092279331409e-01,-3.775141755488693740e-02,4.948316948599665310e-03,-5.438345492940684610e-03,-2.300746061761779933e-03,3.287980556488037109e-01
-4.388132087507237711e-02,-3.842701043317460763e-01,-4.496433755466612558e-02,7.360088008803527225e-04,-2.904127129065087881e-03,-1.685246334102354993e-03,3.399007022380828857e-01
-3.901596858375278032e-02,-3.739186445663633673e-01,-4.108309240841929999e-02,-4.784316935704465562e-03,-2.148349411175754821e-03,6.551652958120848108e-03,3.341901898384094238e-01
-4.963682681759032378e-02,-3.715651004800168966e-01,-5.651559382043742918e-02,4.519679876133299887e-04,-7.705122665975052895e-03,-1.626350347483808802e-03,3.188374340534210205e-01
-3.709234167276774519e-02,-3.868975513039610847e-01,-5.548546328193497412e-02,-1.547166276607491462e-03,7.781159917494980763e-04,-5.236812946368336538e-03,3.411147296428680420e-01
-4.787301134188241825e-02,-4.063421060358702319e-01,-4.321888702986997899e-02,-3.364569637154563031e-03,-6.371022839858865236e-03,2.158152277175543789e-03,3.610537648200988770e-01
-4.411829304438821819e-02,-3.791030452795771666e-01,-2.951505226005401994e-02,-4.691561214300627933e-03,2.113237109358440314e-05,1.027875492265836743e-03,3.426209390163421631e-01
-5.994107753832150776e-02,-4.134577711068460615e-01,-4.300638958288005576e-02,-1.464572607938874685e-02,-1.978987505444441616e-02,-1.200193616789300456e-02,3.653738796710968018e-01
-6.888000620535293661e-02,-3.691881920036077513e-01,-3.924777263048108422e-02,-5.282299786737303625e-03,-1.230444338152401548e-02,-1.813110100423150691e-04,3.170171678066253662e-01
-6.077555583864972799e-02,-4.128621151059799765e-01,-4.504900028711844584e-02,-1.405341254632376351e-02,-1.456713794494706761e-02,-9.678562601956154990e-03,3.622975349426269531e-01
-2.481654370157698741e-02,-5.541802766494297039e-01,-5.857556029122823471e-02,-4.011451007804747726e-02,3.528867556449107046e-03,7.511157044306354669e-02,5.341207385063171387e-01
-3.876482340860233633e-02,-3.935332230110105689e-01,-4.640685684573224445e-02,1.941666399698053352e-02,-1.750634106415164485e-03,-3.100326852886307882e-02,3.566955029964447021e-01
-5.531391474579135104e-02,-3.813297269517068599e-01,-4.631674401960232668e-02,-2.497471210847183702e-03,8.910490529628497386e-03,-7.848947722015501421e-03,3.312736153602600098e-01
-6.308157843104481022e-02,-3.799934586256935587e-01,-3.585213895881143864e-02,-3.337949820543931623e-03,7.891738320736861254e-03,-1.104577611711421610e-02,3.322502076625823975e-01
-3.956384773721188797e-02,-3.940847026300615674e-01,-4.228271055031662673e-02,1.116217322467595759e-02,-3.812846103188869719e-04,-1.172517308974826804e-02,3.542812466621398926e-01
-4.193318218069493064e-02,-3.524387536456773384e-01,-3.913515345951648627e-02,6.911407808218479609e-03,3.032018072713706948e-04,4.389058658694456119e-03,3.122366368770599365e-01
-3.055968691365049117e-02,-3.114336596088747022e-01,-4.005405787550296581e-02,-4.954154209293870625e-02,-1.070759661530211980e-02,1.940429887387621136e-02,2.918051481246948242e-01
-3.330416882735087736e-02,-3.414277252344884994e-01,-3.733623393419993608e-02,-2.735826558777467929e-02,-3.416153391295480291e-03,1.757455203447885056e-02,3.113214373588562012e-01
-4.114545151778216392e-02,-2.832967142382283310e-01,-3.655516145989277932e-02,-3.581754202850579577e-02,-1.617478366889671046e-02,3.749517802000439798e-02,2.619562447071075439e-01
-4.279105255727978785e-02,-3.760669649562065064e-01,-5.086033957652465187e-02,-4.798393265341900984e-03,7.311240832177433834e-03,-9.146240583638163765e-03,3.300440013408660889e-01
-4.588448663831490304e-02,-3.850544371573528801e-01,-4.462712389140531533e-02,-1.002413565324065215e-04,4.673844801165782936e-03,-1.335598647053957847e-03,3.399046957492828369e-01
-3.771066557297048094e-02,-4.113346988807755622e-01,-4.267166268922044370e-02,-4.006268517103378501e-02,-3.080800895248266870e-03,1.591972471936472025e-02,3.786420822143554688e-01
-4.304096365931797674e-02,-3.695181035141225090e-01,-4.372415005702696977e-02,-5.102615852227492151e-03,3.907705839557015955e-03,3.713777400806196963e-03,3.263894021511077881e-01
-3.917167240388304272e-02,-3.211214720335747730e-01,-3.591153468223352851e-02,2.177966347385572668e-02,1.213877238691628280e-02,4.636073236064881808e-02,2.978902161121368408e-01
-5.129440523581001166e-02,-3.335718783486020245e-01,-1.917887976769350189e-02,2.700315837876391539e-03,7.152277140530525004e-03,1.758623405248813110e-02,3.014641404151916504e-01
-4.312275989285105360e-02,-3.300010319122201885e-01,-2.737536482082851552e-02,1.113929943497614546e-02,2.666504660183557224e-03,5.235229076749829680e-02,3.093227744102478027e-01
-4.910461730498923150e-02,-3.705290255298986368e-01,-2.553257013816367937e-02,9.838802215020989086e-04,7.516392810212231719e-03,2.016392203345789350e-02,3.359137773513793945e-01
-3.650297857958201275e-02,-3.788236306064045045e-01,-4.042471024940227919e-02,7.807207038577665403e-03,5.690130256857253190e-03,1.076947185409478196e-02,3.412978947162628174e-01
-4.318872020270636547e-02,-3.621081925173803562e-01,-2.321145606309760190e-02,2.096898965883594711e-03,5.965177746949819164e-03,1.000218842043308805e-02,3.299998939037322998e-01
-3.925440077304825914e-02,-3.618994302673812502e-01,-1.958466995646963860e-02,1.171378129994772588e-03,7.060291910918463712e-03,8.214568228314393650e-03,3.334503769874572754e-01
-4.118276706778187246e-02,-3.457644413274592043e-01,-2.283789106374711775e-02,1.746744736255044289e-03,1.015366667705302518e-02,8.415931399844395200e-03,3.149999678134918213e-01
-3.399375730851333932e-02,-3.490112429570698671e-01,-3.391116637889059204e-02,1.994630607563042946e-02,1.010764479129458611e-02,2.027221080537098402e-02,3.193665444850921631e-01
-4.020561779889277043e-02,-3.160663150607844196e-01,-3.185069718242775072e-02,2.328947859259860448e-02,1.373144903601390514e-02,3.069451440773105291e-02,2.889516353607177734e-01
-4.620240967677627375e-02,-3.118677122936887591e-01,-2.072414020009606672e-02,1.733939383116218924e-02,1.545535011335498997e-02,4.195890996779039206e-02,2.913693487644195557e-01
-3.549765344785214827e-02,-3.356590836270531564e-01,-3.039334224143022678e-02,5.108841143131101839e-03,1.354037154342263051e-02,1.401185625557790741e-02,3.047496974468231201e-01
-3.757993083196646544e-02,-3.663051359775166826e-01,-2.525749921350274596e-02,-1.283190661004731010e-03,-5.537342519543183433e-03,4.993488404650169195e-03,3.353125751018524170e-01
-4.219079259405859872e-02,-3.390606244378004952e-01,-2.682634068598917232e-02,-5.039739112242178336e-04,-1.049475020164094934e-02,3.402613250970670539e-03,3.054421842098236084e-01
-4.104180167645014865e-02,-3.427533127232021970e-01,-2.022682798713046348e-02,-3.275973885560729514e-03,-7.482369696922191830e-03,-6.664637722309960056e-04,3.129611909389495850e-01
-4.541467375045818433e-02,-3.499672849112738238e-01,-2.118390596515264124e-02,-6.600614669328284294e-04,-6.874921687527422998e-03,5.761183929609980589e-03,3.177446126937866211e-01
-4.926467164574831192e-02,-3.481303333636142638e-01,-1.432808329408559456e-02,-3.638239347993328307e-03,-7.187339263506036489e-03,7.696770235697467967e-03,3.183630108833312988e-01
-1.591824311960327032e-02,-3.332043211451972686e-01,-5.113864867394050939e-02,9.806370890439510338e-03,-7.539488996477416646e-03,-3.928273435041747773e-03,3.020617663860321045e-01
-4.099070805863215539e-02,-3.596029988239855535e-01,-2.170920372018071698e-02,-6.753026978526027214e-03,-6.454330736879086705e-03,5.426973042472188827e-03,3.292097151279449463e-01
-2.961935353873586252e-02,-3.533471049678402198e-01,-4.087405777733904566e-02,-2.260157878486164940e-03,9.769257954675425459e-03,-4.683283179570649907e-03,3.188264369964599609e-01
-2.656372487089782297e-02,-3.654872363171823291e-01,-4.078000608015222572e-02,-1.882861567434364032e-03,7.143944399402914550e-03,-1.913656151013225053e-03,3.323067128658294678e-01
-2.678876537080508713e-02,-3.447206223341620634e-01,-3.885688925399796712e-02,-8.953872331974708013e-03,8.712730175614849179e-03,-3.563474895698863238e-03,3.128830492496490479e-01
-2.704152412760651991e-02,-3.690906869866606432e-01,-3.854846708206412231e-02,-5.521887650394343696e-04,5.188664643416439869e-03,1.963066893230305007e-04,3.365648388862609863e-01
-2.777125491296568438e-02,-3.718822052271966161e-01,-3.827552994575762757e-02,-1.520770381198799587e-03,5.253063957589727655e-03,1.112397043751791681e-03,3.391186892986297607e-01
-4.488613153469261929e-02,-3.606904687846244073e-01,-1.754943935570299485e-02,-1.592179794924296517e-03,-4.761374435446076407e-03,1.128327973377960328e-02,3.310140073299407959e-01
-3.469094633225970614e-02,-3.673042248307012425e-01,-3.457274208320736120e-02,3.483347512451694279e-05,5.863637801884822968e-03,-3.325043279318495897e-05,3.328273892402648926e-01
-3.396726605426010626e-02,-3.685024274612234141e-01,-3.417912091864022672e-02,2.424310882032743551e-03,7.242283237173792292e-03,2.634084705760243728e-03,3.347218930721282959e-01
-4.482966376544397780e-02,-3.549671959592527459e-01,-2.765730194517475315e-02,-1.732931164312009192e-02,1.646723976449667760e-03,-1.006104581061022067e-02,3.209652602672576904e-01
-4.552164932586585944e-02,-3.843650315297227893e-01,-3.494388160325799519e-02,-2.964963599148292064e-02,1.113671693708990183e-02,-4.818428258659396973e-02,3.584487140178680420e-01
-4.602935270471746054e-02,-3.601247137281603505e-01,-2.252728829880165651e-02,-2.498578973516896867e-03,5.839806050192933480e-03,-4.747526461217412529e-03,3.267702460289001465e-01
-4.748262700810657044e-02,-3.726469829947068879e-01,-1.957630146190536546e-02,-1.023086121517551191e-02,1.338538105890769254e-03,-1.451683514364508418e-02,3.413742184638977051e-01
-5.041026319468890071e-02,-3.219424739091924503e-01,-2.186694996890536924e-02,-7.848146783955844974e-04,3.381797470206474097e-04,-7.219164762016280941e-03,2.871470451354980469e-01
-3.858488762737762034e-02,-2.885121719661360995e-01,-2.683506166694211992e-02,-2.439709711151460958e-02,-2.003459673126537985e-03,-4.552944537704202432e-02,2.712098658084869385e-01
-3.506292766205557077e-02,-3.559018966481464208e-01,-4.240925593967485863e-02,-1.813401003626273142e-02,2.933067309056765562e-03,-8.255377181007222606e-03,3.191416859626770020e-01
-4.529047767340024788e-02,-3.574118109708384061e-01,-2.675385019679443754e-02,-5.591779080352012217e-03,2.956499473773898171e-03,-1.575561922163764769e-02,3.231311738491058350e-01
-3.884557794504282791e-02,-3.314936838492785753e-01,-3.734575613521909365e-02,-7.607312247760615598e-03,1.123673583259237121e-02,-9.329713046225667286e-03,2.947840094566345215e-01
-4.190309632011943175e-02,-3.808544691238981428e-01,-3.711064676688756447e-02,-7.169946091968151585e-04,2.997823871047495137e-03,-7.782769313028624000e-03,3.416805863380432129e-01
-2.810573525308580900e-02,-3.724251584041574636e-01,-3.865673402261723957e-02,-1.358562854672113428e-02,5.777956798262069184e-03,-1.667072647180057807e-02,3.413529992103576660e-01
-3.894216121627051830e-02,-2.752165784734387222e-01,-4.110224325778763510e-02,-3.565476149636468556e-02,1.285076301227778585e-02,-2.505658314411316617e-02,2.480173408985137939e-01
-3.369711539327742422e-02,-3.724750760769561797e-01,-4.372626350632446979e-02,1.171918357415941553e-03,1.326651373874011700e-03,8.016588397544708363e-04,3.338933289051055908e-01
-1.287629098933097682e-02,-3.450892128392071823e-01,-4.845667207184434222e-02,5.163486784212192697e-03,-4.890753589424351629e-03,-8.894455640141457099e-04,3.161728084087371826e-01
-2.787543796676265895e-02,-3.610850341565694510e-01,-4.112470676923472845e-02,-2.837426852242399579e-03,6.093556319829107615e-03,-1.085016636437919572e-03,3.269991874694824219e-01
-2.508708139716567254e-02,-3.740479451058126292e-01,-3.628971993764119885e-02,-3.106024491955614378e-02,5.328800572146357058e-03,-1.345615476872568696e-02,3.485864400863647461e-01
-2.428735084318674187e-02,-2.945167096902039927e-01,-5.103584942976084615e-02,-2.997269021337082076e-02,1.343834206304221667e-03,-3.869636360846471709e-03,2.631664574146270752e-01
-3.242945872284798414e-02,-3.695772933590812381e-01,-3.990966148329154473e-02,-1.352713098304988808e-02,1.126401523925584305e-02,-1.421765445838657190e-03,3.348706066608428955e-01
-5.505752296063189111e-02,-3.739130649615426405e-01,-4.426845254855331369e-02,3.078346472323128993e-03,2.909301993954489015e-03,-2.795969578712432721e-03,3.245037496089935303e-01
-2.193589163288540977e-02,-3.430939708672297028e-01,-5.504111824260624064e-02,-1.311773314099727236e-02,2.446497110719853593e-03,-4.812293086920321240e-03,3.069366514682769775e-01
-3.564574064456658975e-02,-3.796048415555952626e-01,-5.419550048614420190e-02,-2.720372850862593254e-04,2.297684734554491755e-04,2.698971481178175525e-03,3.351027071475982666e-01
-3.213083099061758707e-02,-3.825827606157280458e-01,-7.539871071494848309e-02,2.444680869784514668e-03,-1.190614536155247365e-03,5.296948005141448139e-03,3.311067819595336914e-01
-3.639773061486495376e-02,-3.821246922475360908e-01,-7.467412285876741385e-02,-2.402573118336197853e-04,-7.626628737826444786e-03,-4.182326830312782170e-03,3.286125063896179199e-01
-3.287013670581490077e-02,-3.829720250297188322e-01,-6.945390006422211271e-02,1.427186579256479473e-04,-4.125634180729114385e-03,4.628893803306810203e-03,3.334922194480895996e-01
-3.369696954431707081e-02,-3.757940054071208236e-01,-5.628040555653954224e-02,2.299636348406406024e-03,-3.533309811161712988e-03,-5.728794461750392857e-03,3.316118717193603516e-01
-6.231787372220408405e-02,-2.643745327042534843e-01,-2.913264710859794770e-02,8.465027835738485329e-03,3.268907296249688992e-03,2.853111520807616666e-02,2.265448123216629028e-01
-4.939825998754025782e-02,-3.327171721516742897e-01,-1.241487748876873853e-02,2.588270376772057717e-03,3.786699365494689776e-03,1.723754327638170672e-02,3.050737380981445312e-01
-3.753954955062223375e-02,-3.642044358487825928e-01,-3.080741467138399525e-02,-1.927689538935862309e-03,-2.774556694886611864e-03,5.635814178027169670e-04,3.301357626914978027e-01
-4.014261343893071876e-02,-3.650280090643235886e-01,-3.893169746846081303e-02,-7.136278650364077285e-04,1.364991429397148558e-03,1.666661391361112625e-03,3.255162835121154785e-01
-3.231615133754803249e-02,-2.728138392953709523e-01,-3.585471368842033102e-02,3.460953763923850512e-02,1.142079145913557983e-02,4.525272293164500637e-02,2.590923309326171875e-01
-4.048997188102494704e-02,-3.157845656530792189e-01,-3.548415670568264013e-02,2.165541291328014831e-02,1.698372950996676969e-02,1.738587661528808587e-02,2.834947407245635986e-01
-5.151147037701366005e-02,-3.998114436103655800e-01,-4.847798093940410002e-02,-2.497387409414019831e-03,-1.206659139158685994e-02,-7.113557686554187152e-04,3.504792153835296631e-01
-4.839409126419369489e-02,-3.740622157160056194e-01,-3.760291854316968885e-02,-7.256163507320341488e-03,-1.156598172410641320e-03,-3.362676950454348244e-03,3.314912021160125732e-01
-5.480990223651575899e-02,-3.820815248845639278e-01,-4.018658870209575185e-02,-6.387795567144453728e-03,-1.589496811226460971e-02,-2.648701292864963017e-02,3.392512202262878418e-01
-3.786453129524711136e-02,-3.694397027642458697e-01,-4.255455455523399211e-02,-4.755677636524984235e-05,-2.955592111240602717e-04,5.926152993104363571e-04,3.292572200298309326e-01
-6.606476562732785385e-02,-4.098069092239940980e-01,-3.167218415018874245e-02,6.067995199830398395e-03,-5.615992057455857119e-03,-8.692357706661310579e-03,3.627608716487884521e-01
-6.396247650073462465e-02,-4.308574810362339469e-01,-3.258279340997863316e-02,1.533364816586986826e-02,-1.271292506666604587e-02,-2.899363583880834160e-03,3.851299881935119629e-01
-6.506269276045406613e-02,-4.163241835643137767e-01,-2.695698708422428203e-02,5.751346797166492601e-03,-8.758493228850793358e-03,-1.073573733965625839e-02,3.726887106895446777e-01
-4.728933044540317709e-02,-4.556185135929853303e-01,-3.275499764241554534e-02,-1.613175317692758931e-02,-7.377043755626653924e-03,-1.585656407494211856e-02,4.178241491317749023e-01
-6.964781748784801274e-02,-4.296374302064235873e-01,-2.969041846881326219e-02,-2.927178839661339488e-03,-5.131989336958631132e-03,1.886492053991672925e-03,3.816919624805450439e-01
-5.539989610669596165e-02,-6.060234608565440162e-01,-3.500123326673948432e-02,3.451817380912790972e-02,-5.175668094407623668e-03,4.071467853972302042e-02,5.687375068664550781e-01
-2.248153631105989647e-02,-3.444172253348457002e-01,-4.147774890982595941e-02,6.095755023240560962e-03,1.005515365378992568e-02,1.243975853192780777e-03,3.135399818420410156e-01
-1.979764081080685745e-02,-3.604332190701798333e-01,-3.960950201123542014e-02,9.109754317621052144e-03,6.673404558840196309e-03,7.267720474651575505e-04,3.317538797855377197e-01
-2.521626110008948207e-02,-3.226528514155545535e-01,-3.945753928818532263e-02,1.455789303755981173e-02,1.448275844189311073e-02,1.796148849793204050e-02,2.943949103355407715e-01
-1.772971535967086953e-02,-3.427371601520423638e-01,-4.641949362772580800e-02,9.391368168380322470e-03,7.601910086894555704e-03,5.258089897999515538e-03,3.124891221523284912e-01
-2.692187240845178575e-02,-3.317012202930447740e-01,-3.514499589201651453e-02,9.806104701915209498e-03,1.333927962789498850e-02,4.670779214324054067e-03,3.022243678569793701e-01
-5.283969383072965875e-02,-3.800227388844812371e-01,-4.533330218748118923e-02,8.206773862486781319e-04,-5.416993355874009236e-03,5.995185820099961128e-03,3.312988579273223877e-01
-5.751910556349081050e-02,-4.087194564536956731e-01,-6.056641943300843101e-02,1.416834999056565229e-02,-2.067548190045871009e-02,1.876470709611299456e-02,3.538668453693389893e-01
-3.996183594051008758e-02,-4.216817278671100566e-01,-4.620996534441347559e-02,3.420722875210620295e-02,-1.296099660484306172e-02,-3.264381267703960615e-02,3.880403339862823486e-01
-2.346359504132629337e-02,-3.620994199147787307e-01,-3.574767081304687510e-02,-3.134326786729590975e-03,-5.966144697501544851e-03,5.920773479728978815e-04,3.328702449798583984e-01
-5.190522726827623279e-02,-3.679033111548993817e-01,-4.689727953579551911e-02,3.713336418836645511e-04,-7.053649248662305533e-03,1.190025759685122038e-03,3.187731206417083740e-01
-3.964275309896263255e-02,-3.725308037366751868e-01,-3.692238780244321006e-02,9.818361001622611176e-04,3.613982710642884340e-03,8.838611265563935115e-05,3.343195021152496338e-01
-4.010503517407797147e-02,-3.661376710865491546e-01,-3.997015004869480803e-02,-3.962230648793731158e-03,1.357976868682102484e-03,-4.248395947839082691e-03,3.262637853622436523e-01
-4.931310562938420738e-02,-3.786377851143779560e-01,-4.467705760081731869e-02,-9.796844226873045389e-03,-1.218520676671664034e-02,-1.889424916564921408e-03,3.327868580818176270e-01
-3.427276903150054677e-02,-3.589118663339461168e-01,-4.282023855295265247e-02,-1.636438779098388363e-02,6.489262018038301303e-04,-1.761245386742523941e-02,3.231470286846160889e-01
-4.017702853089692716e-02,-3.698532941798028384e-01,-4.079393846262178991e-02,-4.961156607296673439e-03,9.902152732367121377e-04,3.788063563095309572e-04,3.294854462146759033e-01
-4.521788210011021270e-02,-3.865195224976567534e-01,-5.192051018685016339e-02,2.354450003091935247e-03,-9.217948417954962420e-03,9.139204413605331138e-04,3.384053409099578857e-01
-4.880100390414521261e-02,-6.009624297225570899e-01,-5.637431473582227293e-02,-1.815147076456677389e-02,-1.277313124121994339e-02,-7.666921238248930286e-03,5.499201416969299316e-01
-4.388039898530429750e-02,-3.472713663505174742e-01,-2.465447355503926075e-02,-1.110962002226023072e-02,-5.186505557327698857e-03,1.387017693396984906e-02,3.150822222232818604e-01
-5.062715864079597727e-02,-3.431856103898988652e-01,-1.477999506152564979e-02,-6.838218961049701700e-03,-5.506718712380965705e-03,1.084254887223023121e-02,3.129645287990570068e-01
-5.333386707782362957e-02,-3.186683936667054073e-01,-2.064407198567121127e-02,4.428840612403677542e-04,-8.399816455780357086e-03,1.017324817693876678e-02,2.840202748775482178e-01
-4.609256320971534537e-02,-3.464284335042718821e-01,-2.108657975982120014e-02,-5.984808291515601036e-03,-3.222959277379041244e-03,2.422807559110094072e-02,3.166018724441528320e-01
-3.111715116238947254e-02,-3.690181588711866079e-01,-3.537180262922369478e-02,-3.052697808444912626e-03,-3.440073770108405954e-03,-1.542587380140240678e-03,3.358989953994750977e-01
-3.661396597689715871e-02,-3.739614323035895249e-01,-6.703374186934542289e-02,-1.848926005057179370e-03,5.661610977686975729e-03,-2.260168003150699219e-03,3.234012722969055176e-01
-3.678863979477765833e-02,-3.804127019997016745e-01,-3.871487940060261423e-02,-1.431162765018261646e-02,1.945914862971258449e-03,5.819926116831820179e-02,3.580594956874847412e-01
-3.799840204805933486e-02,-3.641946810765228637e-01,-3.716289310274374647e-02,-3.424764844131830688e-03,-9.645707721961150477e-03,5.118789338595407246e-02,3.388984501361846924e-01
-4.175406056212815908e-02,-3.228386371027608392e-01,-2.114497644530458076e-02,-3.167041559699187991e-02,-6.632422160513924865e-03,1.804364311918893807e-02,2.989045083522796631e-01
-1.670761501938260174e-02,-3.065619261200948076e-01,-5.085867698258439429e-02,5.069030947788887714e-02,4.922291402159183205e-03,2.303907325335430301e-02,2.909580469131469727e-01
-4.325297241095017731e-02,-3.626625743221286724e-01,-2.931184737611267077e-02,-1.359852687686595972e-03,6.025598784366426692e-04,1.784012019237754803e-03,3.266281783580780029e-01
-2.297132026388246095e-02,-3.599409222484332149e-01,-4.719168882844219925e-02,1.651483599460491780e-02,-2.292004255663203111e-03,-1.030082211987786919e-02,3.273009359836578369e-01
-2.151052702570245556e-02,-3.387293912942687113e-01,-5.114717896987998336e-02,1.591250924366401087e-02,-1.867879750584949903e-03,-4.453455651533447246e-03,3.048514723777770996e-01
-1.623102801098075254e-02,-3.740128274046839452e-01,-5.002857780351362138e-02,5.572583746915579783e-02,-1.108143806274724912e-02,-2.573529361608699675e-02,3.587887287139892578e-01
-1.953992427505589491e-02,-3.407526594800748265e-01,-4.519099899754143446e-02,1.706411821702911308e-02,2.623391349937924215e-03,4.612810733278118846e-04,3.106299936771392822e-01
-2.385795401893839318e-02,-3.684352908804366944e-01,-4.710091199814217533e-02,2.294698974905432301e-02,-1.851315189037387710e-04,2.716696959930674660e-03,3.359564244747161865e-01
-3.548703809003332654e-02,-3.631964923456425520e-01,-4.600376964418552428e-02,1.572924156109527932e-02,-1.564310567256751733e-03,-1.346592738441030300e-03,3.237478435039520264e-01
-5.473345948129043625e-02,-3.871785541802428843e-01,-6.245606970161068916e-02,6.480335829719770582e-03,-1.954897254724405342e-02,7.156430004401954578e-03,3.308143615722656250e-01
-3.722089443904706696e-02,-3.916395474278143718e-01,-5.009257666721483870e-02,-4.022630015614377975e-03,-7.063146260747234749e-03,5.296420577993368912e-03,3.485665917396545410e-01
-3.469618504696769801e-02,-3.785237372164974023e-01,-3.764707795081674579e-02,-1.507144344855970187e-02,6.949386176066669162e-03,-1.264617060600555475e-02,3.442638516426086426e-01
-3.647105914970012741e-02,-3.771482247044730673e-01,-3.932051478126674660e-02,-1.881344242205597664e-02,2.168253647209507969e-03,-1.245039772552964871e-02,3.415249288082122803e-01
-3.135572756848629961e-02,-3.708767287667206758e-01,-3.652163064771674073e-02,-4.450707347187833098e-04,-1.461173980846798386e-03,6.754848544248957028e-04,3.369801640510559082e-01
-5.415266391372539068e-02,-3.674247696342711755e-01,-4.025630162786282551e-02,1.889766485364931595e-02,-5.304072643511494912e-03,2.338909379596615119e-03,3.222701251506805420e-01
-4.095306201943244018e-02,-4.024473571813612094e-01,-4.021364160961056478e-02,3.194553260089374319e-02,1.359191505897387395e-03,1.215441856340915977e-02,3.666827678680419922e-01
-3.202684315433868001e-02,-3.952793312200075793e-01,-4.020291346068538552e-02,1.816915736744700166e-02,2.926856901136480355e-03,1.111420155973163321e-03,3.606508076190948486e-01
-3.644572831369993771e-02,-3.816989518077756327e-01,-4.458643319599940591e-02,1.081507136900075085e-02,1.200946770840892247e-03,1.099342915554446347e-02,3.423057794570922852e-01
-3.456503176638592301e-02,-3.390328488866452550e-01,-4.010528079350596242e-02,2.763350541038821911e-02,1.912215708458274996e-03,2.514938418000889006e-02,3.086159229278564453e-01
-3.342355167847183006e-02,-3.607939285777964633e-01,-4.088424460428480289e-02,1.335528650376646351e-02,6.566547169216481374e-04,-1.779304165705343542e-03,3.245466053485870361e-01
-2.998809018433741536e-02,-3.635571729963697485e-01,-4.258808442201333921e-02,1.755049388119653622e-02,3.980170457322715176e-03,7.793698423806292956e-03,3.292080461978912354e-01
-3.556086774908015502e-02,-3.751218764887667145e-01,-4.098831175459503873e-02,-3.560237487869363782e-03,-2.874990731325974182e-03,-4.271181105637672851e-03,3.370544910430908203e-01
-3.542523540737932408e-02,-3.685489786934271761e-01,-3.912064411046693724e-02,-2.102827277682203441e-03,-4.214186137910152889e-03,-9.813800837566943013e-04,3.313962817192077637e-01
-2.726506812499565613e-02,-3.636962308502370567e-01,-3.442303916563806132e-02,-5.238448566628064497e-03,-5.154084622222247433e-03,2.939936931914776015e-03,3.331920504570007324e-01
-3.213942837333463864e-02,-3.612715991062603327e-01,-3.283224333227512115e-02,-4.078020447065615339e-03,-1.004241937849893913e-02,9.646246810327876715e-05,3.293218910694122314e-01
-3.465485487338136605e-02,-3.749684207226403609e-01,-3.120624650461446825e-02,-4.157764977277989861e-03,-7.092721642198985578e-03,-9.141706670612220254e-05,3.423472344875335693e-01
-3.311106433532259863e-02,-3.360529657700710437e-01,-3.989256521669699851e-02,-1.450811719109362970e-02,-1.190797983297939115e-02,8.952618267432268032e-03,3.017659485340118408e-01
-4.561135660137825842e-02,-3.713911056888907769e-01,-4.379280878888214268e-02,-5.132588393542604314e-03,2.028911622932622148e-03,-3.659578752804510705e-03,3.268941044807434082e-01
-2.919914752658123169e-02,-3.738210536229842340e-01,-4.191681753539486244e-02,7.638209861103234695e-03,-7.561121331593707862e-03,-5.235771352361587999e-03,3.390752077102661133e-01
-1.654146664692029978e-02,-3.422343901175544101e-01,-5.269805288581480562e-02,1.135963119028303957e-02,-7.146708335426641204e-03,-6.247133073497216325e-03,3.102654814720153809e-01
-2.770758014811904035e-02,-3.396546745586902505e-01,-4.956815685737007982e-02,3.595373902210959732e-02,-9.938971917513202137e-03,-1.651352108840667410e-02,3.097773194313049316e-01
-4.118249452847533298e-02,-2.716512252323419752e-01,-4.755969329662383671e-02,3.459715547221563214e-02,-1.386640248275475100e-02,-2.215314025970396491e-02,2.394300848245620728e-01
-1.584252842297526054e-02,-3.329204061601256370e-01,-4.452549691461996084e-02,2.160435245677773050e-02,3.784804963340230840e-04,3.070203476195841087e-03,3.060969114303588867e-01
-2.683048786904256022e-02,-2.853740650004030210e-01,-5.625412015843707370e-02,2.245818931870176283e-02,7.077321844956329863e-03,5.367595826392542249e-03,2.487027347087860107e-01
-2.996876041663348866e-02,-2.315788307690188619e-01,-5.131113631308210909e-02,5.737492368363122236e-02,3.491523218508876206e-03,5.132103105804285310e-03,2.163111418485641479e-01
-2.192674571463708311e-02,-2.752885413987890550e-01,-5.654174842906337789e-02,5.632930175161762754e-02,7.117461784042905526e-04,-3.559553980968647915e-03,2.572523653507232666e-01
-2.603033213780842070e-02,-2.943944907981158599e-01,-5.809236638534409636e-02,2.763336016759693203e-02,-2.510040663185516760e-03,-5.423142250427908165e-03,2.585361301898956299e-01
-2.170227694609556945e-02,-2.847356900993746054e-01,-5.146622336782627483e-02,5.491159526958575704e-02,-1.299315549685763158e-03,3.357634741918536880e-04,2.670108675956726074e-01
-3.391527410018224664e-02,-3.778913459286794008e-01,-6.615422702828328838e-02,-1.711387943280291745e-03,4.169671386389614542e-03,1.445298046736201469e-04,3.291359543800354004e-01
-3.188928113851838275e-02,-3.693974786065472582e-01,-3.798309197304093610e-02,1.012681417380028193e-03,-6.532457102680373079e-04,-1.586083692526761915e-03,3.345207273960113525e-01
-3.143758656401471341e-02,-3.887694430272625734e-01,-7.310215584351036078e-02,2.866539886498235151e-04,-1.573134549518021485e-03,3.221117134870923361e-03,3.384858965873718262e-01
-3.303221852262583358e-02,-3.852266459936251053e-01,-7.710646697092381208e-02,-2.429461912000618201e-03,5.418292184633510637e-03,-3.628294896222315335e-03,3.325748443603515625e-01
-3.603832294367891043e-02,-3.790037950897414687e-01,-6.745122341398329668e-02,-2.208894071619935118e-03,1.732543133378625869e-03,-1.019555963985928175e-02,3.288982212543487549e-01
-3.357404836768448919e-02,-3.769505095451050614e-01,-6.641656164217470126e-02,8.059494505890703190e-04,-3.074813548208875022e-03,-4.276897487242430421e-03,3.283197581768035889e-01
-4.975905566967210591e-02,-3.752834713447547044e-01,-5.011149294568903456e-02,-3.720309148724371996e-03,1.008753714634120537e-02,1.077530868794121435e-03,3.258862197399139404e-01
-5.375481555133856948e-02,-3.791139994640554400e-01,-5.116173190138811888e-02,-3.238162274089339925e-03,9.653027233812019881e-03,3.934329775465749408e-06,3.271391093730926514e-01
-4.835256279353361553e-02,-3.683079861757563300e-01,-5.634005925627329214e-02,-1.383573912741343798e-03,3.446658246984044775e-03,1.571395248271584234e-03,3.161145746707916260e-01
-4.328185703064174605e-02,-3.687061805895419653e-01,-4.493108305308017580e-02,2.111635206273453232e-04,4.323022494954056189e-03,1.465547969938267928e-03,3.246993422508239746e-01
-4.207685032544299097e-02,-3.858344320722971732e-01,-4.404362171180889463e-02,4.495602719749699556e-05,5.362177788095397191e-03,8.907660027345337336e-03,3.432511687278747559e-01
-4.574543758902072099e-02,-3.692089083891879620e-01,-4.630889103578837707e-02,-6.080051116798801912e-04,1.730294320745945922e-03,1.275789510662372244e-03,3.232052922248840332e-01
-3.435106625107145484e-02,-3.457282973269445447e-01,-3.317969848435461944e-02,-1.544173378739470588e-02,-1.015705192752155116e-02,1.344830594337056116e-02,3.144666850566864014e-01
-5.432484869072144729e-02,-4.079698200116098072e-01,-4.357717694772805794e-02,-5.390904270695030809e-03,1.503995480178837302e-02,-1.646723897598246708e-03,3.602153062820434570e-01
-4.757321961056283632e-02,-3.676640391628764881e-01,-5.249358002893809994e-02,-1.881654757410718311e-03,5.803163957457804951e-03,1.117570061542878454e-03,3.178408145904541016e-01
-4.947423282565831248e-02,-3.748381788100000334e-01,-4.893005603058103725e-02,1.948926915093572663e-03,5.747201125826256057e-03,-2.803396031033213425e-03,3.258421719074249268e-01
-3.323311584158263055e-02,-3.647949427104976161e-01,-2.342271310646266980e-02,1.976013389279270862e-04,4.232688524454240528e-03,1.165026183616673511e-03,3.366603255271911621e-01
-2.936545008734006701e-02,-3.671647487574846158e-01,-2.935982225314393013e-02,7.853054287095577121e-05,1.871559878315186276e-03,6.276058263166173906e-04,3.378194570541381836e-01
-3.533308444990139463e-02,-3.661839924429493576e-01,-2.746644422862330737e-02,1.949461447664255914e-03,1.558889066500833203e-03,4.545395982650564251e-04,3.348823785781860352e-01
-2.990688738005783942e-02,-5.879791736832173932e-01,-5.359919980335986489e-02,-6.263093102265485101e-02,1.448376518609765379e-02,4.067215080735950977e-02,5.622667670249938965e-01
-1.800826264586848080e-02,-3.609378446545649100e-01,-4.323056101055040845e-02,-6.361374212054187946e-03,-5.771339838921466479e-03,-2.431815132008136070e-04,3.313742578029632568e-01
-3.103217521330545181e-02,-3.652542148363665531e-01,-2.921955357548376708e-02,3.056704690031072035e-04,2.077018010875653162e-03,9.050053558108166413e-04,3.351554274559020996e-01
-3.098523806079821197e-02,-3.666515050482211380e-01,-3.145232074171754044e-02,-6.695503768027551064e-04,9.142583413592338896e-04,-4.802644119445472620e-04,3.354397416114807129e-01
-5.055356750570398627e-02,-3.667328969510683656e-01,-4.347315310455129866e-02,7.814580933307712371e-04,-2.025075281966066260e-03,1.325803461962240127e-03,3.198086619377136230e-01
-3.425508889578507410e-02,-3.665329421033259871e-01,-3.020082482098881971e-02,1.691266366499409569e-04,6.767797052075752440e-04,-1.273566489658028164e-03,3.343328833580017090e-01
-4.251379003740429763e-02,-4.250019679115437099e-01,-3.993782763421646620e-02,-5.098166817609529888e-03,4.469620544236074279e-03,-1.667350538268667220e-02,3.850468099117279053e-01
-3.556064359962003707e-02,-3.684826435906561892e-01,-3.371021567789497797e-02,-6.769416310744930327e-04,-4.381399690946172578e-04,-1.755222409544868146e-03,3.338678181171417236e-01
-5.059394723427650120e-02,-4.089351110014185497e-01,-4.512067333074583353e-02,-4.245421540597241541e-03,1.462037510604703716e-02,-1.589050904442007237e-02,3.631150126457214355e-01
-4.405643359519591240e-02,-4.008829315231469126e-01,-5.417883451210021850e-02,1.169393854100268934e-03,1.537741968362413628e-02,-8.378144478718872398e-03,3.531851470470428467e-01
-4.219429088178079656e-02,-3.675115427395224676e-01,-3.749161378272967970e-02,-2.674495048056815729e-03,3.768690283917575860e-04,1.875190514986770128e-03,3.277433812618255615e-01
-4.325471279190323814e-02,-3.720686924161149545e-01,-4.522217357278365824e-02,1.152799774479101218e-03,3.163387488267450920e-03,-4.218469055395746882e-03,3.279679417610168457e-01
-3.940458196067372909e-02,-3.714773891110946247e-01,-3.797294521227796704e-02,-2.359674914053945353e-03,-1.944168324330788596e-03,-2.976414160711371437e-04,3.328334689140319824e-01
-3.683153921923661145e-02,-3.685463825904530255e-01,-3.882475412684331662e-02,1.864695789645392241e-03,-2.288713900835331189e-03,6.084737756784136444e-04,3.307639360427856445e-01
-1.342222144841388742e-02,-3.529131401082551966e-01,-4.010052707313209452e-02,3.506455732155733945e-03,6.204301943779062453e-03,2.652134310953313447e-03,3.272342383861541748e-01
-4.101693463913169690e-02,-3.684595526672188037e-01,-4.646635090852591077e-02,-6.610449784208864525e-03,4.147126825167190764e-03,2.651639093182267364e-03,3.250657916069030762e-01
-3.023477366782624520e-02,-3.701665028068868990e-01,-3.488967858137502487e-02,-8.103156325214757715e-04,-1.780401644692750822e-03,-4.611293785137162565e-04,3.376462757587432861e-01
-2.886023264875425820e-02,-3.686232757829738249e-01,-3.470553209620305668e-02,3.693484358664221394e-04,-1.553142947410337225e-03,-2.626538426827897663e-04,3.368900716304779053e-01
-3.303096145614249635e-02,-3.693388898347448324e-01,-3.541859606003670835e-02,6.296871661736146673e-04,-4.705287051528907281e-04,-1.547218118620206700e-03,3.351339697837829590e-01
-3.344243237574234806e-02,-3.708604805060056742e-01,-3.510762440491357883e-02,-1.311778035214669928e-03,-4.340223403679404832e-03,-4.753271037729733936e-04,3.366811573505401611e-01
-4.628010167288344745e-02,-2.595066038814058951e-01,-2.980504982595873209e-02,8.788969027031544312e-02,-8.317382240282589949e-04,1.099397873386914054e-02,2.697931826114654541e-01
-3.802639030987521596e-02,-3.510422748265478177e-01,-3.675244025781804202e-02,2.968565837635934665e-02,7.059526537960708094e-04,1.058017278728756380e-02,3.183714151382446289e-01
-2.761449028142831663e-02,-3.284720203675244310e-01,-4.214428636418501850e-02,3.810637231396918345e-02,9.110199583945840512e-06,6.069495949746241126e-03,3.013665080070495605e-01
-5.775461031340592410e-02,-3.636577057353103104e-01,-3.109431389258189571e-02,5.746327558309995837e-02,6.507378371633920763e-04,-8.845139157191814379e-04,3.351904451847076416e-01
-7.806127591914040209e-02,-3.698886427520814424e-01,-3.508778931659861655e-02,1.402836484550979423e-01,3.928531947216018158e-03,-2.706865424594530681e-02,4.010407924652099609e-01
-6.085704060507135527e-02,-3.660041092316187461e-01,-4.523903015926729332e-02,1.107580287507467509e-01,-5.732457935470130876e-03,3.369807849950429146e-02,3.720641434192657471e-01
-3.001143757862807793e-02,-3.692862432708816645e-01,-3.357880310857609685e-02,8.271155406045393359e-04,-9.746050176849759038e-04,-6.098345467822867682e-05,3.375125527381896973e-01
-2.281811558000068629e-02,-3.159556185763621738e-01,-5.305159122257763205e-02,-1.511040615516848901e-02,-4.156039355919377565e-03,3.038522219555466787e-03,2.806164324283599854e-01
-4.294195122080052274e-02,-3.090406044589599777e-01,-4.939125349021006306e-02,-1.783928703145163872e-02,-1.338519794976433287e-02,1.508105109389722490e-02,2.670364379882812500e-01
-3.540039614026752046e-02,-2.377402562881313630e-01,-4.185435430043253635e-02,-3.767047336591893697e-02,-1.157904724826281165e-02,2.904036054774963849e-02,2.164870053529739380e-01
-3.853885430358883202e-02,-2.613552878642185773e-01,-4.866950120406833558e-02,-3.259770152373515223e-02,-1.395527545125201281e-02,-6.217053678480233096e-03,2.266727834939956665e-01
-2.370476807806905228e-02,-3.197817521413606201e-01,-5.351532363720680474e-02,-4.198319561251462328e-02,-1.896612325764006910e-03,3.074558112143843062e-03,2.916349470615386963e-01
-3.559342154672005820e-02,-3.298414188063814034e-01,-4.461134498800642390e-02,-3.504231438202481952e-02,-1.532105966563812247e-02,3.395769970436186835e-02,3.030794858932495117e-01
-2.284728397951744927e-02,-3.462884932221604872e-01,-4.533944204749010276e-02,-1.870535227206340453e-02,-5.591676154426621081e-03,1.083360258718187941e-03,3.146302700042724609e-01
-2.742700937958995888e-02,-3.362390507405167983e-01,-4.191904061688338234e-02,-4.741982365075701061e-02,-5.674174236095066819e-03,4.999160957000307881e-03,3.130767643451690674e-01
-2.979227758283405081e-02,-3.055033846812287290e-01,-5.767266905673268385e-02,-5.575721482553768621e-02,-7.807591007569469367e-03,-4.390760318820892925e-03,2.804894149303436279e-01
-3.738104650919378547e-02,-2.252623040903715401e-01,-5.563433445949248629e-02,-3.728434513887757262e-02,-1.331674596764585369e-02,2.220165917957854854e-02,1.959189027547836304e-01
-4.876313401946542891e-02,-4.230060420865701665e-01,-3.953894057860810052e-02,1.856722347372574689e-02,-4.311498274501260677e-03,7.662804890127381148e-03,3.806062042713165283e-01
-5.059050547878700399e-02,-3.674576080343153750e-01,-4.104777091738331940e-02,1.980425915401953958e-03,-1.739771406984187653e-03,-3.237063641571549994e-04,3.217774927616119385e-01
-4.367704191917611001e-02,-3.645878388259133907e-01,-4.675114318809092673e-02,1.046418741960133654e-03,-1.959507933160557595e-03,-2.636826752302276347e-04,3.194083571434020996e-01
-5.643579370485929392e-02,-3.893256882590647727e-01,-4.123391808795046076e-02,-1.251558201753848708e-03,-8.099590934767583045e-03,-1.054691193476712694e-03,3.410457074642181396e-01
-6.106984333839902968e-02,-4.335885482778695232e-01,-4.955960438230280762e-02,-7.557745214387803778e-03,-2.665448818251911142e-02,-1.290638849166056770e-02,3.820902109146118164e-01
-4.482394149472955502e-02,-3.551415966883932906e-01,-4.223014292700308370e-02,2.118006057629641392e-02,-7.363364371691929686e-04,7.323488202239668982e-03,3.140334188938140869e-01
-4.742101706054357990e-02,-5.695638582673652195e-01,-3.472082463751985371e-02,4.436275873680328025e-02,-8.878957783107006146e-03,3.734705468424150132e-02,5.382850766181945801e-01
-4.077000806467268035e-02,-3.708758911425800164e-01,-6.382420844902771118e-02,-4.111541898294883516e-05,-6.025745572967695744e-03,2.959325777549659379e-04,3.193747997283935547e-01
-4.369212759903268184e-02,-3.860280619228365628e-01,-5.745129848545846296e-02,-1.913676566411372021e-03,-7.509610398882130347e-03,-2.258137947851288681e-03,3.359589576721191406e-01
-4.412439009376216414e-02,-3.722288545766410106e-01,-4.337030245594976352e-02,-1.810504216243843251e-03,-1.777092565643127904e-03,-1.706358256413953922e-03,3.285248279571533203e-01
-3.745985013594822777e-02,-3.702201865630273536e-01,-3.721826075508335996e-02,4.547270111895625536e-03,4.496376837759759847e-03,6.862960578832438124e-03,3.332774639129638672e-01
-4.717128813265911158e-02,-3.320836993536330772e-01,-1.953230240348308167e-02,6.753631565085031242e-03,6.864168309694631404e-03,6.347712614086115090e-02,3.196559250354766846e-01
-3.716223780873166571e-02,-3.680474473566023308e-01,-2.897332985631191626e-02,-5.885586794079429758e-03,-7.311357867111097433e-03,1.782057685756957902e-02,3.368659615516662598e-01
-4.038794632543914187e-02,-3.699608110551660389e-01,-4.508957960868144321e-02,3.787549643253926984e-03,-2.538366637715846943e-03,2.275357723675047045e-02,3.297065198421478271e-01
-4.790062998198578448e-02,-3.684443615709145914e-01,-1.767393108218215381e-02,-3.121419032638161114e-04,3.072695525430641124e-03,2.231366952201242065e-02,3.389295339584350586e-01
-4.826651560312843203e-02,-3.646067909493267978e-01,-4.771044967609001930e-02,-2.407198589259559375e-04,-2.918702936373594996e-04,-3.122624974605182397e-05,3.166193664073944092e-01
-3.786672628233446469e-02,-3.668155263388123144e-01,-4.496555638390138665e-02,4.373291193286116783e-03,1.844313038412102315e-04,5.154859237112351805e-02,3.375674784183502197e-01
-4.518333234003403531e-02,-3.774697322002440458e-01,-3.481670769198563775e-02,-1.064017600921348186e-02,1.508835177394363776e-03,3.839169348559259148e-02,3.445789217948913574e-01
-4.071412356057092785e-02,-3.691834821280379764e-01,-4.337140028965200123e-02,2.767931787891398862e-02,-4.726408040333423752e-04,2.834249247516389819e-02,3.342683613300323486e-01
-3.565145160798614821e-02,-3.403879468739645087e-01,-3.042513155987988660e-02,3.886091233559911540e-02,6.887879345608407741e-03,4.177196655227181227e-02,3.230972290039062500e-01
-3.279510981804237280e-02,-3.594466138400791433e-01,-3.450690618301316404e-02,1.937901853492754456e-02,1.338125493462710876e-02,2.595213004886163383e-02,3.314050734043121338e-01
-3.270101020771654099e-02,-3.727796401238308577e-01,-4.373566753304417021e-02,2.751813671729791411e-02,8.455561468979123224e-03,2.146349952684493967e-02,3.404274880886077881e-01
-3.329832568708593343e-02,-3.092733527445027941e-01,-3.886797106933144452e-02,5.115771088550406104e-02,9.717590869557089436e-03,2.323986422197032303e-02,2.905358076095581055e-01
-4.342304042952198351e-02,-3.663478971454227073e-01,-4.953512072940084721e-02,-4.513119935003706519e-04,-1.452053433631206921e-03,2.146317330697862773e-03,3.199450373649597168e-01
-3.897238469997646448e-02,-3.868455766735572898e-01,-3.945934174709536668e-02,7.032246915898289312e-03,-2.490255211306927389e-04,2.219110909753197261e-02,3.499606847763061523e-01
-4.931070143717097842e-02,-3.796992139178797521e-01,-4.307508800979130414e-02,-2.751284275466431457e-03,-3.513235959714755986e-03,-1.199832445766764281e-03,3.336460590362548828e-01
-5.214224151012468444e-02,-3.684021712238848001e-01,-5.089065123482834629e-02,7.207800848305553074e-04,-6.169873199694439134e-03,1.699542623135873480e-04,3.170703053474426270e-01
-2.774351989045817368e-02,-4.101171386014003106e-01,-6.390524205728168039e-02,-3.715536106256452607e-03,-4.679829333616485065e-03,-2.751587927661577979e-03,3.658138811588287354e-01
-2.363155319020002199e-02,-3.853747703493434207e-01,-7.427938033648834315e-02,8.330705683472572690e-03,-5.064204751061285315e-03,-6.643219345339970066e-04,3.396885693073272705e-01
-3.008217116693198689e-02,-4.260308909973092306e-01,-5.831009012357668553e-02,-1.210029106253925504e-05,-8.504428979684433912e-03,8.289565551728006465e-02,4.089345335960388184e-01
-3.164776321133599968e-02,-5.921710199375582739e-01,-5.826396462916319519e-02,-4.751284784533695016e-02,3.881078682576631113e-03,7.778411058747058959e-02,5.700389742851257324e-01
-3.335054401564949145e-02,-3.852482157064116008e-01,-7.039490309420916303e-02,-7.815978490172381318e-03,-1.327957701154263044e-02,3.059723082839404910e-03,3.360190987586975098e-01
-2.066024051308158749e-02,-3.641593882959826001e-01,-4.642753754805978295e-02,3.285614331620286856e-03,-5.736962545510583718e-03,-7.830541487296833417e-04,3.315683007240295410e-01
-2.012929677316312171e-02,-3.379083175594133071e-01,-4.573532421327704267e-02,1.628510432012163570e-02,6.214049352387686874e-04,-3.277974445352315261e-03,3.071337342262268066e-01
-5.018158635328226480e-02,-3.828794302317515275e-01,-3.640596884360362828e-02,1.857783823848199040e-02,-5.899124220710356623e-03,-7.210386981469227990e-03,3.416965305805206299e-01
-1.952614951488304551e-02,-3.285768151078567456e-01,-4.325618662314360818e-02,4.287066155002842993e-02,2.844674212599536227e-03,-6.706544265001483695e-04,3.070520460605621338e-01
-1.356201259807879311e-02,-2.841507056495059524e-01,-4.855709184506858123e-02,3.155237274080296278e-02,5.488175322888180253e-03,4.602701655793028229e-03,2.609869539737701416e-01
-1.941103258943181753e-02,-3.500088143362675153e-01,-4.508632839963913619e-02,1.639146780284491886e-02,-5.972936924456922342e-03,-6.433779927331515110e-03,3.201611638069152832e-01
-3.225073408943246456e-02,-3.328118061436132757e-01,-2.631770052320633879e-02,1.175896888302202514e-02,1.700641521890887756e-02,-5.858654663279456998e-03,3.058444857597351074e-01
-1.227657698340811621e-02,-3.555909623850463941e-01,-5.436545885871230110e-02,1.439597684549158950e-02,1.422647749579091479e-03,1.716725724249558438e-03,3.253047168254852295e-01
-6.097122010303450412e-02,-2.260756536778951720e-01,-4.435242431851542377e-02,-9.493651453192839679e-03,-1.157469768069082673e-02,1.297120225566006542e-02,1.773599684238433838e-01
-6.914594907259102863e-02,-2.418968399535810776e-01,-5.084273643860311165e-02,-4.711108665536977574e-02,-1.441699107220339136e-02,3.146770599608134794e-02,2.087877839803695679e-01
-4.362080322841566105e-02,-3.574972833347270784e-01,-1.629886364053981240e-02,-2.911805890928565246e-03,-3.369404216986875839e-03,1.825707243091930681e-03,3.284967839717864990e-01
-5.627490772910351963e-02,-2.381938022077831063e-01,-5.272781087155710422e-02,-4.078244737322853086e-02,-1.394255744670739802e-02,2.961835712021418029e-02,2.048338353633880615e-01
-4.670741517649540375e-02,-3.736709842020435879e-01,-4.253689251594761078e-02,9.837543844277589272e-05,6.179031347872052105e-03,-6.059291167263226342e-03,3.294099271297454834e-01
-4.747015677534110328e-02,-2.045416752192442400e-01,-5.107039436949793038e-02,-2.103325242847848761e-02,3.214398820839249691e-03,7.313507465089560955e-02,2.037727534770965576e-01
-5.306303596834942293e-02,-3.145897275612218325e-01,-3.433872528144100988e-02,-5.272675542864222430e-03,-1.221935434514147267e-02,1.500421871821016294e-02,2.735880911350250244e-01
-5.434792429328737240e-02,-2.795108455269379455e-01,-3.114367928789739393e-02,-2.616300359492721231e-02,-1.046223982428168622e-02,3.724368820850604972e-02,2.510073184967041016e-01
-4.543607457864294596e-02,-3.666336329571568964e-01,-4.632773154795011283e-02,-4.856153970907662524e-04,-1.902829544409595291e-03,4.494479914545633677e-04,3.207716345787048340e-01
-6.071634949887037142e-02,-1.851274843561150907e-01,-4.203301949808136567e-02,-2.186287265429279897e-02,-7.866943071214074074e-03,4.245830792955096467e-02,1.586800515651702881e-01
-3.925918228251527864e-02,-3.671431013574826263e-01,-3.720802179140876575e-02,1.736921750059434153e-04,1.479248465034159465e-03,2.299078607470088093e-03,3.289485275745391846e-01
-6.363123607480236643e-02,-2.760832151275784963e-01,-3.320284536945709852e-02,-3.619381197389683665e-03,-8.501864483484514179e-03,3.183592010016953605e-02,2.362689673900604248e-01
-3.313158637075250268e-02,-3.807909636440400813e-01,-7.349107325365104859e-02,-3.387451004947823058e-03,-1.680856744472341300e-03,-3.162557582843041493e-03,3.294502794742584229e-01
-3.400387016820471953e-02,-3.829774948027119819e-01,-7.026447705758501194e-02,-1.051883801710125788e-03,-3.738751452970708478e-03,-3.553617987386287116e-03,3.324553668498992920e-01
-3.743882707879839233e-02,-4.371209097886844530e-01,-5.241197670210694104e-02,7.828511777494347353e-04,-1.637699835705069005e-03,1.229094366883864628e-02,3.929994404315948486e-01
-3.259241504087387331e-02,-4.217837233239537520e-01,-6.539002460410621442e-02,-6.646989289210993544e-03,-1.024720509775861078e-02,1.633938190359417869e-02,3.755389451980590820e-01
-2.512794542077720350e-02,-4.058795122881940776e-01,-6.489708712804649615e-02,-1.325520693660459451e-02,-4.568358892762264083e-03,5.906917914929830232e-02,3.774498403072357178e-01
-2.796024108721209545e-02,-3.809385024732737657e-01,-7.298585913561644878e-02,-1.605235937272113866e-03,-3.285132195756464927e-03,-5.349124878124713158e-04,3.328195512294769287e-01
-5.231585815262318473e-02,-5.258619251809988349e-01,-3.009690449941151980e-02,7.476291226157717740e-02,-6.387472864266946146e-03,3.145270244017454170e-02,5.050939917564392090e-01
-2.821538225909006603e-02,-4.237202206109270675e-01,-7.326607967499201846e-02,9.903639973741303407e-03,-5.578487413569008116e-05,2.044906703019960456e-02,3.770737648010253906e-01
-3.608443056271487537e-02,-3.514210186799527347e-01,-2.880984111032396100e-02,4.723270363918525422e-03,1.121271575276780452e-02,1.012168263255137056e-02,3.202116191387176514e-01
-4.672707857087730898e-02,-3.670099754225447097e-01,-4.918753038069294259e-02,1.794066188232624343e-03,-1.236345268513824424e-04,6.747838350397948864e-04,3.190771341323852539e-01
-4.218836426183301958e-02,-3.933142201548632255e-01,-3.651116110265491266e-02,-8.903044845431825607e-04,5.732795326468764080e-03,1.575182066693703309e-02,3.551905751228332520e-01
-3.891939824117000846e-02,-3.878568546061662570e-01,-3.181383921936249692e-02,1.100588613939955732e-02,6.776001979766789647e-03,2.278849388983194765e-02,3.554522693157196045e-01
-3.364402343099258397e-02,-3.061461787814974134e-01,-3.395087214407559173e-02,4.021174084103770058e-02,9.329776715863843592e-03,4.653135847870090019e-02,2.928847670555114746e-01
-4.008623960832616295e-02,-3.305482682594570454e-01,-4.098474895689892261e-02,2.253126609173397576e-02,1.074570122568906626e-02,5.373881071870870163e-02,3.076377511024475098e-01
-7.085483127206532172e-02,-4.427462137458820224e-01,-4.237593417823104502e-02,-8.540568153625379896e-03,-9.944907686672086605e-03,3.915694730696903970e-03,3.876426517963409424e-01
-4.887236495023951355e-02,-3.796712113790984833e-01,-5.847628841289717605e-02,-2.229634432381757871e-03,-9.306657521575585970e-03,-2.743700894616720072e-03,3.265585601329803467e-01
-4.340373995566056131e-02,-3.757927120658949294e-01,-5.103505425845535071e-02,-1.791166534695047422e-04,-3.261049245350897824e-03,-3.393853790943544661e-03,3.287410140037536621e-01
-5.351626036979501011e-02,-3.645081625481323417e-01,-4.819427916605538431e-02,1.483732959523724557e-03,-8.050031042782538823e-03,5.261226542704150640e-03,3.141391873359680176e-01
-5.425419967747244915e-02,-2.189206600165056193e-01,-5.983025614957621086e-02,-1.635482734897370991e-02,-6.115999320976592962e-03,1.620767574131505226e-02,1.671247184276580811e-01
-5.882973677613022312e-02,-2.346310227493695610e-01,-3.201104172111240986e-02,-7.500853214551748797e-03,-7.549466076806997730e-03,5.786286659966737717e-02,2.161578088998794556e-01
-3.106078727430545972e-02,-2.742080286656436439e-01,-4.944676993649499419e-02,-6.711774991282155878e-02,-9.612821486925451908e-03,2.231258501838553204e-02,2.650910615921020508e-01
-3.835270978829459498e-02,-3.724684940475001538e-01,-4.035268920535985127e-02,8.660402980311785945e-03,2.007028309764383525e-04,-2.139634041396026431e-03,3.334786295890808105e-01
-2.816414872524328206e-02,-4.280615918724520741e-01,-5.202439979444459239e-02,-6.582005041873087610e-03,-2.321768172676492992e-03,1.282221266899351460e-02,3.893391788005828857e-01
-4.210737545003813420e-02,-3.753382703707905943e-01,-5.592322113842922160e-02,-4.040367142860630555e-04,1.235714206604187487e-03,-5.447723358114420298e-04,3.265513777732849121e-01
-5.926355304075750507e-02,-7.396485078637003718e-02,-4.356210528376944918e-02,-4.293170815746543550e-02,-4.603942405752668200e-03,3.531788189030166114e-02,1.001425832509994507e-01
-5.465881273192674250e-02,-2.124887929777026230e-01,-5.516064349916405957e-02,-1.765101723719736046e-02,-7.397602411300955617e-03,2.063851908924418596e-02,1.649486124515533447e-01
-6.165185916512658237e-02,-1.961087564755244483e-01,-5.509733791734104658e-02,-2.185454634503782370e-02,-1.013553617531659685e-02,2.026546383770360879e-02,1.482431739568710327e-01
-5.316782841792153796e-02,-2.177605388546811072e-01,-4.788769438599195516e-02,-1.618084212900288907e-02,-7.634539982474988599e-03,1.552734392686267589e-02,1.722536683082580566e-01
-6.417038401240787726e-02,-1.401805505062821977e-01,-5.419115657336523451e-02,4.496823846980459345e-03,-3.921641306540425004e-03,4.695363080183802967e-02,1.155698299407958984e-01
-4.531526308499829458e-02,-3.673640401158062563e-01,-3.194929506588851942e-02,-1.611267196099396264e-03,-1.910381407499244693e-03,6.112346203667189289e-04,3.289656639099121094e-01
-3.025916186727044266e-02,-3.291980579123150452e-01,-4.772551450827648700e-02,-5.641571906492617167e-02,5.941163153462127727e-03,-2.127546580712154356e-02,3.089663386344909668e-01
-3.294521633622769785e-02,-3.673998017614217293e-01,-3.996105430054229524e-02,-2.816293190185765669e-03,2.832084023706645057e-03,-1.049096712194103970e-04,3.310747742652893066e-01
-3.683955393332762063e-02,-3.774425444779344607e-01,-3.467495712562680688e-02,2.184993319293037847e-03,5.079845145005111584e-03,1.758684407449283889e-03,3.418382108211517334e-01
-5.574586282837748485e-02,-3.703843027257799903e-01,-4.218162529135302541e-02,3.840610675414790013e-03,-6.602558359610656916e-03,5.232330941424554946e-03,3.220346868038177490e-01
-3.434969946493642012e-02,-3.702666345389195590e-01,-3.745745887197712842e-02,-1.047370548054421232e-03,2.531475238531874419e-03,7.274412138384380626e-04,3.344099223613739014e-01
-4.236776620193552501e-02,-3.749836326602948855e-01,-3.593671368251440124e-02,4.348992993267655933e-03,8.077715532910836188e-04,2.774491501237150767e-03,3.359993100166320801e-01
-3.403420987271636722e-02,-3.510722043096497491e-01,-3.589683155979227214e-02,-5.153902087917814658e-03,6.565086109973266963e-03,1.998094504899019901e-03,3.164601027965545654e-01
-3.254582038091605178e-02,-3.739717976203811856e-01,-3.804745792232572255e-02,-1.338781999589042440e-03,4.606374859538556535e-03,-1.982291225337638914e-03,3.388279676437377930e-01
-5.010421600819996157e-02,-3.824017286241209179e-01,-3.535996095489693514e-02,-2.761669475337141105e-02,-5.255333154545721759e-03,-1.601396924328753538e-02,3.444978296756744385e-01
-1.603650093188954684e-02,-3.667715393356512088e-01,-4.286491620849383621e-02,1.682562845729255801e-03,9.260168382682642564e-04,8.748730782202386331e-04,3.381398022174835205e-01
-3.188090804537535572e-02,-3.711236785167660868e-01,-3.577790022637740430e-02,4.928619228703593792e-04,5.198307331597995691e-03,7.594679232647299659e-04,3.374349474906921387e-01
-2.480473357893128727e-02,-3.680389057921256146e-01,-4.246091002774916856e-02,-7.833082696053261795e-03,1.035351509236145072e-02,1.349434662468288392e-03,3.355180323123931885e-01
-4.589983209275805276e-02,-3.756606669800210963e-01,-4.744520974662724822e-02,8.391365218276871643e-04,-3.152165349444379424e-03,-2.722926183289157802e-04,3.290397226810455322e-01
-5.024320831200190796e-02,-3.469649922439642653e-01,-1.055513074035271948e-02,1.388939096225487923e-03,-3.092323923819832818e-03,-3.324270366629516397e-04,3.184809088706970215e-01
-5.654469238043331736e-02,-3.812755438137912511e-01,-4.082229709991294642e-02,6.716131635763592997e-03,-4.221066902003988743e-03,2.648397007651156002e-03,3.331856429576873779e-01
-3.103854697710674293e-02,-3.642956507232049113e-01,-3.975706479881638278e-02,-2.497409890430282373e-03,4.273844238909877725e-03,1.756814145695414055e-03,3.291102647781372070e-01
-5.779267273929496185e-02,-4.116183410435564904e-01,-4.800001715157627136e-02,7.142706305577818660e-03,-1.982501015497403068e-02,1.405802256897507006e-03,3.606819510459899902e-01
-4.415362062285077549e-02,-3.651675854897233342e-01,-3.721613330258559393e-02,-1.325057972851173375e-02,-4.427941718253815273e-03,-2.356206256375613373e-02,3.279880881309509277e-01
-3.372911709029427496e-02,-3.728136469044887047e-01,-3.908296726084967143e-02,-5.349348234101258641e-03,3.850703076181669071e-03,2.022721814552201191e-03,3.366514146327972412e-01
-5.539199287567211916e-02,-3.853653999338315650e-01,-4.252640567508098046e-02,1.047448721102172201e-03,-5.645171963861882712e-03,3.306289541503872574e-03,3.367862403392791748e-01
-7.183850641149820693e-02,-4.116450003128255819e-01,-3.175460665414264749e-02,6.813392272216274624e-04,-3.237928679531109494e-03,-1.967914300544522377e-02,3.631674349308013916e-01
-5.427730987216675129e-02,-4.351778701354667711e-01,-3.841465068927737980e-02,-1.725230037095506694e-02,-6.344318271107028152e-03,-1.613083806420547925e-02,3.913735449314117432e-01
-5.494798207752241148e-02,-3.695858443471902732e-01,-3.335191378183746669e-02,-3.218955980920381460e-02,-4.814702603507392195e-03,1.471275716163883071e-02,3.317917287349700928e-01
-4.996198758907108295e-02,-3.719011974438708457e-01,-4.583648706612235280e-02,9.355152374531007162e-03,-9.450585818768014387e-03,1.453350013666828214e-02,3.258131444454193115e-01
-5.652750418022776946e-02,-3.836510848672480267e-01,-3.598248603155228265e-02,1.620721835463343353e-03,-7.802209710986606449e-03,1.024353771050965679e-03,3.381513655185699463e-01
-5.887720070542688811e-02,-4.317997402401829166e-01,-3.290500479570146464e-02,-1.197224033722996649e-02,-8.440566171657800862e-03,-7.673502720970109582e-03,3.876232504844665527e-01
-3.565897154904951183e-02,-3.971943857542129530e-01,-5.178419148742269273e-02,-8.495355761282992815e-03,4.138542349235977205e-03,4.446133974230258995e-02,3.624036014080047607e-01
-3.746749353384153103e-02,-3.736196352303351453e-01,-5.486425885579296335e-02,-3.901958262400252730e-02,1.468126606187269631e-02,9.670657490407565116e-02,3.751314878463745117e-01
-4.024125675995642026e-02,-3.841387495564033694e-01,-5.538062808885066413e-02,-3.481813987624194934e-03,-1.612233518948938914e-04,-4.868610053639928215e-03,3.367429971694946289e-01
-4.077642350325837162e-02,-2.802365368709499593e-01,-5.345780408746841905e-02,-7.038043723699209664e-02,8.109300160113578487e-03,8.812031245013850211e-02,3.046610355377197266e-01
-3.781886504961878837e-02,-3.489126059645821787e-01,-5.758611266708704712e-02,-8.523681910456055999e-02,1.204613891487046375e-02,8.133750360878064245e-02,3.648276925086975098e-01
-3.626297468971953486e-02,-3.756815742711174244e-01,-6.162539171010650296e-02,-8.227031142367292752e-04,8.825239418133373759e-03,-2.945003625656686039e-03,3.278741538524627686e-01
-3.646722246001651846e-02,-2.811154053709181144e-01,-5.698764073632497928e-02,-7.080530308542389017e-02,1.460631822107471070e-02,9.061689782727957998e-02,3.091407716274261475e-01
-2.249816227022777282e-02,-2.896208254285076444e-01,-5.514784351593289558e-02,-6.615480920698581235e-02,1.997449532652282450e-02,9.353254530153871926e-02,3.229092359542846680e-01
-3.438133628144920961e-02,-3.692194098819268078e-01,-3.561135088668040960e-02,-3.934865474798493988e-04,4.795920784696856495e-03,-3.882500812059687390e-04,3.343293368816375732e-01
-2.916214384235681079e-02,-3.711278263258946941e-01,-3.159457465795922904e-02,-3.945277183610563349e-04,8.495709870391731505e-03,2.664986833694371615e-03,3.411054611206054688e-01
-4.825143185559925552e-02,-3.664353343598970580e-01,-1.530121764378908344e-02,5.656032109593944236e-03,-5.335549935243987050e-04,1.009068563531693823e-02,3.364717364311218262e-01
-3.298798043271403135e-02,-2.687791307205940061e-01,-3.135322796834585923e-02,4.262523709310820502e-02,9.565146867204717823e-03,4.090613765827661591e-02,2.583229541778564453e-01
-2.494441642008575488e-02,-3.599351111068342934e-01,-3.558223207893117246e-02,2.041625076425321664e-02,1.088528945243223689e-02,8.539787478913148794e-03,3.325553834438323975e-01
-3.826128969988039363e-02,-3.674721075295682704e-01,-3.601337629653166006e-02,-1.056825776512720612e-03,3.386845177920360175e-03,-2.678941519184713672e-04,3.303979933261871338e-01
-6.438757238278632056e-02,-3.424311164566116727e-01,-3.164399501229162026e-02,1.266483147456724245e-01,-1.111465081116651092e-02,2.802276679602166629e-02,3.719278275966644287e-01
-4.902964967781313355e-02,-3.713440177630412120e-01,-4.200979715377101131e-02,3.124137496030467490e-03,-3.047577993700380326e-03,2.759330867282640178e-03,3.260037004947662354e-01
-3.694242463858793402e-02,-3.720381351307812112e-01,-3.734792833198131989e-02,5.447984246740369789e-03,4.049767387578707099e-03,-3.736908736555978258e-03,3.351619839668273926e-01
-4.211361248090590703e-02,-3.697740872106992649e-01,-4.265669033549054912e-02,-4.762207026307144035e-03,5.428963972084669895e-03,-1.046200960779957063e-02,3.281288743019104004e-01
-2.278463094141308654e-02,-3.709519632603016648e-01,-4.362511359605350525e-02,1.103282247100393666e-02,-4.396996010366164762e-03,-2.896248518780591540e-03,3.388910889625549316e-01
-4.966158741554005385e-02,-3.646869691937098534e-01,-4.233963271157413499e-02,9.977244546688010529e-03,5.881678982061525410e-03,-5.216872840957897939e-03,3.195078670978546143e-01
-5.318573804041340503e-02,-3.683884559251747737e-01,-3.734954336593730717e-02,6.183644911455560625e-03,3.637022563571482622e-03,-1.064398982809509897e-02,3.241750001907348633e-01
-3.660704004838111203e-02,-3.332215091908181659e-01,-4.478726096439218651e-02,6.658739381229401844e-02,3.709738753814039586e-03,-2.643671475794345457e-02,3.178998529911041260e-01
-3.815733155392973808e-02,-3.775380534697968526e-01,-3.941964460322396058e-02,1.307605311451903729e-02,-6.005620175795352809e-03,-1.841970288372761499e-02,3.411619365215301514e-01
-2.669566635238945773e-02,-3.600109681282215313e-01,-3.870810517242159743e-02,1.118244943515712096e-02,7.398301243430742066e-03,9.095082237080337126e-03,3.286745548248291016e-01
-2.876451793914265587e-02,-3.641677657256749412e-01,-3.856410749749834832e-02,1.361493130842132172e-02,7.911734846934739482e-03,8.770387908709226937e-03,3.320831358432769775e-01
-3.991593801796355923e-02,-3.746243639402871417e-01,-4.857770809496425590e-02,8.777650770485166242e-04,2.732685021889938535e-03,1.254593156664545730e-03,3.305072188377380371e-01
-5.042087103166131845e-02,-3.696949705791938712e-01,-5.033016919404949274e-02,3.549410192001084541e-03,-6.140126792986927082e-03,3.818768083082457743e-03,3.196240961551666260e-01
-4.126792868748764553e-02,-3.720876249845909700e-01,-5.148206380136854943e-02,4.534557625000066282e-03,-2.962546270487859037e-03,8.695137140767856924e-04,3.259712457656860352e-01
-4.667536659149566780e-02,-3.699812813074148110e-01,-5.484132132238044022e-02,2.774640669228117026e-03,-8.195773971238239086e-03,3.230478033631356983e-03,3.197017610073089600e-01
-4.391514751749905909e-02,-3.706462248884909716e-01,-5.981842252101676749e-02,4.237682407872749024e-03,-2.633033292499401337e-03,3.899056560187016268e-03,3.192652463912963867e-01
-4.433317312048687397e-02,-3.690066778091002919e-01,-4.816034087463506863e-02,4.055378545462220638e-03,-1.072975479927279225e-03,3.623691223508580198e-03,3.229196965694427490e-01
-1.964505747602680874e-02,-3.415978026346982444e-01,-5.114656662014364918e-02,-1.514897501404106374e-02,-6.191201734428834497e-04,-6.175503571552075572e-04,3.085363507270812988e-01
-3.082230394205329183e-02,-3.436738567610198025e-01,-4.660599238652966825e-02,-2.396049453676167215e-02,4.569265960120858124e-03,-6.954601176024229406e-03,3.084109425544738770e-01
-3.140930021324984944e-02,-3.718483367749001456e-01,-3.778908957928002466e-02,-1.882572038048356544e-02,-9.883807657715520598e-03,8.136719612895481485e-03,3.395915627479553223e-01
-2.258600828061924082e-02,-3.028328206520723986e-01,-4.178475298152041495e-02,-3.716034729204964471e-02,6.632826232426091047e-03,-1.080008219284416329e-02,2.795551121234893799e-01
-2.659247464351263690e-02,-3.327243124540402164e-01,-4.852928458093996866e-02,-2.985318940211308461e-02,-9.320238103367134083e-03,1.172956166822898723e-02,3.013790845870971680e-01
-4.016734234269421500e-02,-3.705587773095009863e-01,-2.456028188248299271e-02,-1.464319433460055993e-03,-1.976686839874360231e-03,-4.046412411649616403e-03,3.385643064975738525e-01
-2.705261822180621278e-02,-3.251405076156687057e-01,-5.046226098653008862e-02,-1.958939228087689527e-02,-7.525180340624550504e-03,1.119128420493972591e-03,2.893978953361511230e-01
-4.174315875367645701e-02,-3.656569861681867040e-01,-3.726784487604389851e-02,6.451033176316113679e-05,7.139513778423490923e-04,-1.739427940908843014e-03,3.261907994747161865e-01
-2.203438917916229756e-02,-3.718683438804427643e-01,-4.459473761459198382e-02,-1.334737863095162430e-02,-2.023556561517186186e-03,-2.020098851437314869e-03,3.399402499198913574e-01
-3.673209480752366585e-02,-3.169598060960135966e-01,-5.230442651241612451e-02,6.327870939830572417e-02,-2.017537416576705225e-02,1.034535144288005748e-01,3.460460603237152100e-01
-2.814157005222323038e-02,-3.796375592189253911e-01,-4.357162159612136543e-02,-3.507239635807755940e-03,1.994301067862670751e-03,-2.273454407976179589e-03,3.441340625286102295e-01
-3.476779634500500038e-02,-3.699641591527628726e-01,-4.318904402533421671e-02,-5.313634410171285197e-03,1.433779407672908278e-03,5.006483710409218588e-04,3.312044143676757812e-01
-2.474213955650633734e-02,-3.701353651338245010e-01,-4.633477384152863421e-02,-1.092783355267269718e-02,2.464931987029180243e-03,-2.225674965476183561e-04,3.356805145740509033e-01
-2.861567577641581372e-02,-3.311423996090090416e-01,-5.283526129766069612e-02,-4.591477657369342352e-02,9.545984039948118144e-03,6.271794655263943606e-03,3.024860620498657227e-01
-2.299031132073862949e-02,-3.276186459838323906e-01,-5.365999353390313309e-02,-1.696133433488683159e-02,-2.959405951916444996e-03,-4.687996489271642128e-03,2.921497225761413574e-01
-2.416504877524640327e-02,-3.263001495008664987e-01,-5.464030133480929363e-02,-1.137473315584065260e-02,3.981038293151550021e-03,6.067985515098846087e-03,2.890551388263702393e-01
-2.343169957238655510e-02,-3.147942668700972613e-01,-5.505365747585684588e-02,-1.240202228084616963e-02,3.518604945900572975e-03,5.235191825613270174e-04,2.778093516826629639e-01
-2.324521934473679219e-02,-3.200088105281466699e-01,-5.512249130015571541e-02,-1.568396358898439466e-02,-4.740395000805712813e-03,-6.047274203165561683e-03,2.837954461574554443e-01
-3.839980541618266685e-02,-3.677788227241759467e-01,-3.580045672970441628e-02,-5.260904905729321679e-03,-8.391035268144074249e-04,-1.514083766053398719e-03,3.308254480361938477e-01
-3.048773272891916464e-02,-3.851279008415082750e-01,-6.651771108457675552e-02,-3.294228163684984143e-03,7.928238405211854301e-03,-4.398257423877647426e-03,3.384808599948883057e-01
-3.384616818690339146e-02,-3.708379173812160756e-01,-3.377714015971917949e-02,-1.279667851444294584e-03,-1.171059758533937170e-03,-1.069945660519773306e-04,3.370397090911865234e-01
-3.284148382118026732e-02,-3.991356695381967912e-01,-5.199386794360903730e-02,1.414883401102845191e-03,5.556207029686357178e-03,-1.282950017828918612e-02,3.579319119453430176e-01
-3.734343798776632029e-02,-4.098671433394428520e-01,-6.140946868927003865e-02,-5.835381523317513183e-03,1.437426665753673526e-02,-6.108804839677392517e-03,3.622456192970275879e-01
-3.503677825214662755e-02,-4.016948681147059497e-01,-5.336461108598911096e-02,-1.055404939940746828e-02,1.068222050916111006e-02,5.829854396714605376e-03,3.589324057102203369e-01
-3.226334629815205690e-02,-4.242093169261293428e-01,-7.202229178280532274e-02,-1.029212103257281206e-02,1.283151192647527528e-02,6.613500050636462492e-03,3.749159872531890869e-01
-2.728367292259670229e-02,-4.100701536424247728e-01,-5.137797026265193689e-02,3.178993281086227828e-03,1.979669672701356992e-02,1.615864308797187662e-02,3.739951848983764648e-01
-3.816496737159692787e-02,-3.701613748504780643e-01,-3.722745279496568471e-02,1.913025882408460332e-02,7.908365557360309481e-03,1.376809731055800116e-02,3.352431356906890869e-01
-3.538268030749890103e-02,-3.349364552156334773e-01,-3.525307962256803151e-02,2.677859005901478406e-02,7.575549980490241080e-03,2.240156675928951444e-02,3.059415519237518311e-01
-3.839321167956953607e-02,-3.664665115000852458e-01,-3.671137211503303077e-02,9.295857650408311662e-04,2.622320002978907735e-04,4.385949094053885004e-04,3.289225697517395020e-01
-3.777013295775158430e-02,-3.769551368027890259e-01,-6.594021663615998174e-02,-3.397341150230301192e-03,2.711223153327448846e-03,1.367695052945628719e-03,3.261095583438873291e-01
-3.549022898217896183e-02,-3.668324616944650951e-01,-2.913725771088661320e-02,5.071956856851297674e-04,2.318330339303006655e-03,2.117583888237547455e-03,3.346092998981475830e-01
-4.053237276906540565e-02,-3.682831345263633538e-01,-3.636994521087062726e-02,-1.010991707327386913e-03,1.432454072007748177e-03,2.469426231727944818e-03,3.298933804035186768e-01
-4.286950972950841210e-02,-3.662361531230711176e-01,-4.415522867608184798e-02,5.295076227001756274e-04,2.630300803393447492e-05,3.510251525618180313e-04,3.227275907993316650e-01
-5.058405154153260141e-02,-3.663692708245718244e-01,-4.663256451013667037e-02,-6.032223831857291786e-04,-3.905041170616945639e-03,-1.313931055862442880e-03,3.178612291812896729e-01
-4.394833573236267554e-02,-3.737244882066771412e-01,-4.624427008519282900e-02,-3.064593487179633011e-03,-2.086714005208175401e-03,-2.518345592260239074e-03,3.287258744239807129e-01
-4.584888238137685423e-02,-3.711173544337243446e-01,-4.784476097774791048e-02,-5.188834302754756619e-04,-8.316619392584394602e-03,1.792901637059312811e-03,3.246110081672668457e-01
-3.069115079727804951e-02,-3.582962445586268529e-01,-3.692433694456470628e-02,2.633622507919630359e-03,5.630183328380870648e-03,6.277763492296358633e-03,3.248939216136932373e-01
-4.085734028468915313e-02,-3.671871964399577304e-01,-4.105850285587503423e-02,-4.222744123017642794e-04,2.623648524787948032e-03,2.467128181063518743e-04,3.262620568275451660e-01
-3.643889210735312689e-02,-3.497342301213917093e-01,-2.476164181449461155e-02,5.439399894640526735e-03,1.060601100105357762e-02,5.420482047327404920e-03,3.200986087322235107e-01
-3.229607301868488156e-02,-3.656809825268384495e-01,-3.515405135214523524e-02,3.524059362832143629e-03,6.422389813652544348e-03,5.861383911322715599e-03,3.323626518249511719e-01
-3.257959233282821387e-02,-3.236732703950293000e-01,-3.569458702723327104e-02,1.663434333858180431e-02,1.596001735662395254e-02,1.804011132811829746e-02,2.939542233943939209e-01
-2.228256072198615823e-02,-3.499031901355007523e-01,-3.348432961159249210e-02,4.500728155306744742e-03,5.865076566573939124e-03,6.206826134680515361e-03,3.225993812084197998e-01
-3.826262010179742878e-02,-3.361508393023849295e-01,-4.472016497597987306e-02,2.407732443520204518e-02,-5.109782593176032811e-03,5.070691389565679108e-02,3.104617893695831299e-01
-5.656858713489949786e-02,-3.411248672215737576e-01,-4.033810020223858872e-02,-7.612405019466500500e-02,6.612783457713698222e-03,2.820722676067337689e-02,3.252029120922088623e-01
-3.701333347589025324e-02,-3.681758612765859695e-01,-3.476858499643895040e-02,-5.399497572401243005e-04,4.115766474188311749e-03,3.726953603238349327e-04,3.323689997196197510e-01
-5.696764672557413228e-02,-2.004768499916066982e-01,-6.100005315655408766e-02,-6.819416716831443182e-02,4.799928206936880139e-03,8.160384082781620141e-02,2.324445694684982300e-01
-3.342121463563951789e-02,-4.316075814021282930e-01,-4.635521726178565283e-02,1.937483774022258224e-03,-1.114041523995045434e-02,1.469945389438927566e-03,3.923768699169158936e-01
-5.635493687469116109e-02,-4.141755664916586532e-01,-4.769933461815947795e-02,-1.504417319498262302e-02,-1.548629581753995822e-02,1.252944838507533305e-02,3.647973239421844482e-01
-4.552793488791852250e-02,-3.805579852739183755e-01,-5.379163965467839703e-02,1.369029981545866843e-03,-6.329874780451662589e-03,1.514254831436657837e-03,3.311759829521179199e-01
-4.929936604903921438e-02,-3.670077910704919733e-01,-4.950867196318103902e-02,7.218655909244399427e-04,-3.188676941167627003e-03,1.664755484643647447e-03,3.176673948764801025e-01
-5.541462923374443350e-02,-2.632571105533200728e-01,-6.646098489253740582e-02,7.339643905817453675e-04,-9.007335339893188242e-03,1.403173939310987592e-02,2.045978903770446777e-01
-3.326036821344595384e-02,-3.660559759166098770e-01,-4.026916234930008609e-02,1.077973941912351540e-02,2.826650185322394145e-03,7.163708517323012521e-04,3.299146294593811035e-01
-3.762879050378996337e-02,-3.745706420559929972e-01,-4.250531058334887369e-02,5.149139783884827334e-03,-4.098882173990927766e-04,-2.720526575300131339e-03,3.346830308437347412e-01
-2.101867651174935125e-02,-3.569255856097385271e-01,-4.428628733893304192e-02,-1.077884063593395440e-02,-5.562639344425079901e-03,7.415662057815377434e-03,3.258303701877593994e-01
-1.750094493657895767e-02,-3.450653915047203757e-01,-4.829043201991579937e-02,1.544856793536202554e-02,8.809974443808451725e-03,3.238614540699759771e-05,3.148170113563537598e-01
-2.581499556210169188e-02,-3.623297821304647948e-01,-4.615050261722929148e-02,2.243478620904529319e-02,3.569894777031959714e-03,1.150350394733085958e-02,3.297843635082244873e-01
-2.611481775206481171e-02,-3.609925989198990437e-01,-3.723434019005726625e-02,1.929218875714556677e-02,1.216095142535010554e-02,1.014462033858201662e-02,3.322831094264984131e-01
-3.328803870465610326e-02,-3.209253099012066013e-01,-3.213387993767953532e-02,-3.686838917723590271e-03,-7.142980415195372169e-03,2.882431179279052250e-02,2.928393483161926270e-01
-3.937750001666676103e-02,-3.275961642912491589e-01,-3.559158871593139095e-02,-1.766020876194828240e-02,-1.364889789181889489e-02,1.482460817343249013e-02,2.938185334205627441e-01
-3.602684448741529100e-02,-3.446314321610004505e-01,-4.244259829323587807e-02,-5.317918617919435015e-02,-1.220653049673040350e-02,2.563527519201294624e-02,3.228011727333068848e-01
-3.828352926926271993e-02,-3.723133489183541034e-01,-3.089155248192160252e-02,-1.315145174082186369e-02,-5.564804675469133335e-03,8.047186114300736853e-03,3.389775156974792480e-01
-4.238635564712785186e-02,-3.305577840307022397e-01,-2.735974967017565374e-02,-8.781000119756977515e-03,-1.173572287184419978e-02,1.431507201313928987e-02,2.980907261371612549e-01
-4.655518802062701134e-02,-3.708852048373432186e-01,-5.754716056457090390e-02,4.849535561145849817e-04,-3.961243891430333772e-03,-2.347098671017970671e-04,3.190512657165527344e-01
-5.681486720399671342e-02,-3.718822324905303178e-01,-5.575762501593528597e-02,-7.607603957494596522e-04,-1.239295135030228819e-02,4.548065014430432659e-04,3.163301646709442139e-01
-4.393394101944676777e-02,-3.709490346117521042e-01,-5.967228736205693052e-02,4.985573071864415169e-05,-2.543974100598863069e-03,2.512487300944890741e-04,3.194675147533416748e-01
-4.423142814196598382e-02,-3.719836245369406713e-01,-6.392193938735346581e-02,2.377523162973206854e-03,-6.697984908730778703e-03,1.688021857305743159e-03,3.186152875423431396e-01
-3.875517214739292171e-02,-3.780808337187694379e-01,-6.287933663206542179e-02,2.178118050377271520e-03,-3.898238084843845975e-03,1.672933763509378696e-03,3.280337750911712646e-01
-4.408475256417845878e-02,-3.913635221636807549e-01,-6.247078689371099447e-02,9.186123536557353267e-03,-1.125477739825633990e-02,5.090901451998038063e-03,3.395090997219085693e-01
-4.760658936269289432e-02,-3.611304362516410404e-01,-1.343118615129629267e-02,-1.228545866793294796e-04,1.343294083510188867e-04,8.029040837939140909e-04,3.319367468357086182e-01
-4.646514844121713006e-02,-3.860898224295820080e-01,-5.645599670574298623e-02,-2.051810597690116849e-03,-9.754601323367107293e-03,-1.683969249013303471e-03,3.351987302303314209e-01
-5.023193821429436379e-02,-3.634410051747372083e-01,-1.850458587474568262e-02,7.699388239042475636e-03,6.903539761111743278e-03,2.130969912198150268e-02,3.327566087245941162e-01
-4.385088731524300343e-02,-3.539810337657513517e-01,-1.354919716684085951e-02,6.983775973040841486e-04,1.562465893645148193e-03,7.164954665172678944e-04,3.263536393642425537e-01
-4.114627518318561550e-02,-3.662209199480702670e-01,-3.798403102691869093e-02,2.590057008803080870e-04,-1.481238815444159852e-03,1.054604779878056883e-03,3.266827464103698730e-01
-4.402413265648932872e-02,-3.758242045160856137e-01,-4.309331736175377181e-02,3.190533857013774788e-02,-9.654776986427998642e-03,6.861253246512923239e-03,3.374547660350799561e-01
-5.515839307343116393e-02,-3.254614488505280789e-01,-1.817536778973437295e-02,-1.944376274207004521e-05,3.132199787945425928e-04,2.100762995160929125e-02,2.928350567817687988e-01
-3.658232762240090641e-02,-3.597263133829916582e-01,-3.378813391367520291e-02,7.737549682065139427e-03,2.613770914485421919e-03,4.765459855199326994e-02,3.351801931858062744e-01
-5.253037162088133871e-02,-2.867590059710196648e-01,-4.007055098943253235e-02,3.959301899384113331e-03,9.299086197163658474e-03,7.929570701416135958e-02,2.776807844638824463e-01
-5.753286529038818820e-02,-3.194109353099806592e-01,-1.966326078788112330e-02,-3.162478783526582841e-03,-5.234563600186087698e-03,1.642550358504720615e-02,2.843466997146606445e-01
-4.209074073214516543e-02,-3.717272880235042432e-01,-3.013809286768175111e-02,2.587173952514623069e-03,9.932873835780908073e-03,1.392514986805402227e-02,3.371067345142364502e-01
-5.267323742663326813e-02,-3.215831566233591232e-01,-1.929341228472446212e-02,8.275799194443748561e-05,1.005622742889883750e-02,1.011449869577774920e-02,2.881201803684234619e-01
-4.919543075438942425e-02,-3.382582221140298939e-01,-2.034876446677165440e-02,4.315617991655677603e-03,9.385384957337384801e-03,9.690213923042548250e-03,3.054991960525512695e-01
-4.883547001904514628e-02,-3.488296477321159994e-01,-1.304509503478425148e-02,7.207235005711825314e-03,5.466176612803803903e-03,1.512737026177424920e-02,3.208525180816650391e-01
-3.631716035402703102e-02,-3.893434382769733748e-01,-4.142507478808918342e-02,-9.702313225859527865e-03,8.225997828748157423e-03,8.213103741509726261e-03,3.514800071716308594e-01
-3.238430321281529634e-02,-3.597376891006169863e-01,-2.773138445731253288e-02,-7.284808815225966632e-04,-6.739589106358361177e-03,7.297932584949661655e-04,3.299158811569213867e-01
-4.585761329547999310e-02,-3.644668717731152086e-01,-1.979063289078353272e-02,3.127488055798619947e-05,5.719530155981445221e-03,1.847133311592408927e-02,3.340931534767150879e-01
-4.401451955722686382e-02,-3.761419668702625785e-01,-3.723204545295545620e-02,1.945239959774973555e-03,2.612755969500785830e-05,-1.109157279466993322e-02,3.361364603042602539e-01
-4.011577631159315982e-02,-3.751257379871606457e-01,-4.030809519322244017e-02,-2.735697629720478495e-03,-1.664482123807937541e-03,-9.931202693015222767e-05,3.349598050117492676e-01
-4.098925985160785379e-02,-3.744390531762857854e-01,-3.824539807925468604e-02,-2.806226335916330548e-03,-1.338104340112674902e-03,8.778689531172172763e-04,3.348768949508666992e-01
-4.031972849410384030e-02,-3.548352006715514984e-01,-2.484774628607784586e-02,2.420373763833599205e-03,-1.021221463573113684e-02,-8.067409617341578243e-03,3.233438432216644287e-01
-3.479406991487646317e-02,-3.595306535637243783e-01,-3.506233140848709351e-02,1.198635952010837112e-03,-5.581927038529769201e-03,-9.983705430475978485e-03,3.252131938934326172e-01
-3.066802826553345629e-02,-3.327893981673468726e-01,-3.676185991162643496e-02,2.301578612437016336e-02,-1.321603417546199366e-02,-1.431729268751734396e-02,3.036470115184783936e-01
-3.489860305011671660e-02,-3.199614388724917324e-01,-2.888615931610137577e-02,1.233197527453953543e-02,-1.224845080921941123e-02,-2.415448316792466465e-02,2.926901280879974365e-01
-3.999577261246679838e-02,-3.313826759739089134e-01,-2.734017837859921418e-02,6.797043629428376615e-03,-1.330552884154186100e-02,-8.046928026396346981e-03,2.993628978729248047e-01
-4.199993511691678394e-02,-3.691757571406093508e-01,-4.097191722813446624e-02,-2.441981879174435696e-03,1.717092100424534281e-03,-2.389939830000591472e-03,3.277579843997955322e-01
-4.434869350807389698e-02,-3.698864038009810340e-01,-4.631040356015800330e-02,-3.169315877382040091e-03,1.627470863030387391e-03,-8.917027966379998923e-04,3.246236443519592285e-01
-3.490290619942949812e-02,-3.497559766886861876e-01,-3.147354843289557058e-02,1.912876277856321704e-03,-7.723844355334855832e-03,-1.810073192187749589e-03,3.168970346450805664e-01
-3.993281370206956671e-02,-3.752680069339865421e-01,-3.093708027409150518e-02,-1.674063038504652315e-03,-3.213623098221564216e-03,-2.361858101013149334e-03,3.400048911571502686e-01
-4.062141524030719875e-02,-3.672413245167045481e-01,-4.175893420671203393e-02,-3.586329149767952351e-04,9.844546662431978221e-04,-9.595987443527982403e-04,3.260619342327117920e-01
-2.406278898920025111e-02,-2.911722367204538364e-01,-5.391090563593051166e-02,6.585594116316124957e-02,4.681034060933331881e-03,2.869290715342477129e-03,2.781494259834289551e-01
-5.191071734134015958e-02,-2.280537893675755878e-01,-5.918313074623826608e-02,1.711371301128042019e-02,-1.305717017592148040e-02,-3.052629087743793240e-02,1.843473762273788452e-01
-2.643358933046302539e-02,-2.374024208329539309e-01,-5.780161719287431332e-02,5.921389691714096237e-02,-1.568846971032187773e-02,-4.056460591348211298e-02,2.346653491258621216e-01
-4.422749948147326748e-02,-3.933783352470360262e-01,-4.268305648103994099e-02,-2.194374998480404064e-03,-4.683499815812943931e-03,1.611798694975891729e-03,3.500514030456542969e-01
-4.004550754518534927e-02,-3.711425148219716363e-01,-3.955125040234258593e-02,-1.645835002800483593e-03,2.034549448155868832e-03,-1.212674841811715127e-03,3.313820660114288330e-01
-3.891460366374410729e-02,-3.573054852317611996e-01,-3.358494411630685850e-02,4.729174186326783914e-03,5.356143152945281281e-03,1.225553187351798544e-02,3.220276832580566406e-01
-4.449617490373940221e-02,-3.642384214476133142e-01,-3.869165346251547677e-02,6.846611753350355899e-03,-3.175716658250230234e-03,2.499185570925868335e-02,3.258364796638488770e-01
-3.925147118095634324e-02,-3.670997256464536562e-01,-6.081093852233010466e-02,-3.266251471012924373e-03,-8.494210514965261707e-03,9.487289319564273793e-03,3.184329569339752197e-01
-4.796389434821127229e-02,-3.679345608548465485e-01,-5.597539930618528059e-02,1.935885612753597681e-03,-4.188246482124409475e-03,1.384990946015008956e-03,3.161512017250061035e-01
-4.810220605879660105e-02,-3.728030724623692116e-01,-4.001465101486928466e-02,-3.427771903503803487e-03,-3.450832240532627701e-03,3.581376779305688388e-03,3.289856314659118652e-01
-4.124172899786483770e-02,-3.717277361504402466e-01,-4.124787824583169005e-02,-2.518650354606443917e-03,-8.765331130440517449e-04,-2.196161317368256535e-03,3.305371105670928955e-01
-3.841040009127608124e-02,-3.658611252228791688e-01,-2.599362658211688826e-02,3.042749330078530889e-03,9.874460086316686272e-03,4.354199490093691761e-03,3.343967795372009277e-01
-4.210917614930116681e-02,-3.787179476348436769e-01,-4.600270426180286254e-02,1.474793367634955228e-02,9.422734032410864241e-03,5.244348979985083425e-02,3.481089770793914795e-01
-4.027885602129584186e-02,-3.721255780576891992e-01,-5.231820665784661650e-02,-1.814805917361937563e-03,-2.157773343289992769e-03,1.920955097520907814e-03,3.260473906993865967e-01
-3.898132324691037931e-02,-3.700572389626779479e-01,-4.613356261940296243e-02,1.049747736262838203e-02,-8.650093368124867803e-04,7.319867618302725726e-03,3.283109068870544434e-01
-1.542121643375776729e-02,-2.908261842718476431e-01,-5.913068476905394832e-02,3.376207569786866119e-02,8.411248688926375658e-03,-1.694948967168065411e-03,2.633649706840515137e-01
-1.768299814942650428e-02,-3.407309902693078651e-01,-5.325345652855528744e-02,1.584427866601891000e-02,1.431849358584918932e-03,1.368420384011677675e-03,3.080571293830871582e-01
-2.639815544829535177e-02,-3.425376148106628049e-01,-4.944303813345948817e-02,5.507900939312382338e-02,1.387724203699484266e-02,9.634642244696048699e-03,3.211652636528015137e-01
-2.066901862844602866e-02,-3.414441663151529527e-01,-4.916205860931170679e-02,1.668050421435319716e-02,4.544325157273853763e-03,1.140912181090435185e-03,3.089810013771057129e-01
-2.909174116032983703e-02,-3.643502672486105820e-01,-3.971414994259914177e-02,-2.128888528339715688e-02,-1.202528489576216650e-02,4.007629410543909164e-03,3.328535854816436768e-01
-3.206482350149221505e-02,-3.934755472324008574e-01,-3.750463046565798153e-02,-1.563618340074063306e-02,-7.832035098726311192e-03,3.538627611808624080e-03,3.600504994392395020e-01
-3.677890395818136926e-02,-3.562048595277835794e-01,-2.545467755891099582e-02,-2.107359409044593825e-03,-5.087637928917215606e-03,3.794002785465182357e-03,3.254421353340148926e-01
-4.465914659142843079e-02,-3.591313641736240680e-01,-1.901142283152146284e-02,-5.007291536448577052e-03,-6.697540010408482326e-03,1.397632603862040794e-02,3.292596042156219482e-01
-3.784928839326558159e-02,-3.810896967305861249e-01,-2.873976441026324102e-02,1.585750843345412608e-02,-5.943501239554688925e-03,-4.046510920012182794e-02,3.560847640037536621e-01
-3.716993606921921434e-02,-3.690915997656318837e-01,-3.764603574173452927e-02,5.974518078186655127e-04,1.897163090109711681e-03,-1.360442084307907616e-04,3.317018449306488037e-01
-3.640940466392260377e-02,-3.692566368356111628e-01,-3.408398675976430370e-02,-1.768111043266087923e-03,-3.309413615049443757e-04,7.621798485231239245e-04,3.340331614017486572e-01
-6.279134862328106248e-02,-2.324976889386491385e-01,-3.661652914373074441e-02,-1.786167264221280582e-02,-2.857621312936856842e-03,5.092099110964955905e-02,2.066103965044021606e-01
-3.703727135238459034e-02,-3.393383440467913070e-01,-3.997466955279281586e-02,-5.154668005493604627e-02,-5.645030634127389153e-03,5.411416214776146143e-03,3.141038417816162109e-01
-3.380349459959673675e-02,-3.425761372230781143e-01,-3.817663733289293482e-02,-3.186450603717247421e-02,-4.782106923024581624e-03,1.633161224963611269e-02,3.129283785820007324e-01
-3.899484113937605467e-02,-3.346961534780056868e-01,-3.193995273760283360e-02,-8.017119864421110714e-03,1.108240722840122747e-02,-1.662712883740024780e-02,3.016054332256317139e-01
-2.675334700779510855e-02,-3.762550207685236847e-01,-3.130104179684620180e-02,-2.465468750626999273e-02,1.298455817277065910e-02,-4.009379517282737893e-02,3.573997318744659424e-01
-3.058065884948979463e-02,-3.696769280475518116e-01,-2.949974003107547205e-02,-3.271233301808141106e-03,1.080796826700692985e-02,-2.746622600246598298e-03,3.402339816093444824e-01
-4.292618111422781546e-02,-4.070909837469836590e-01,-4.080930345976073459e-02,-2.616022974270632018e-02,9.616607068762669710e-04,-2.242967896619066717e-02,3.700763285160064697e-01
-2.398950036006686215e-02,-2.680481158757767046e-01,-4.041055129892184850e-02,5.211494972712080870e-02,1.409000478189706591e-02,1.014566747643120583e-02,2.547132670879364014e-01
-2.059571262474840792e-02,-3.691640391360158091e-01,-4.573626413910414357e-02,2.395274367560294715e-02,1.810433084786074610e-03,-3.642116433076148657e-03,3.393222093582153320e-01
-2.050033095146099049e-02,-3.469897983397519647e-01,-4.796971940090098696e-02,6.202673144630305863e-02,8.804825077304229489e-03,-1.527724504816273471e-03,3.319081068038940430e-01
-2.098119083732079282e-02,-3.562075959183320650e-01,-4.807687428986168188e-02,5.322740608895847741e-02,4.254384272230239163e-03,-3.034516821015877368e-03,3.355728387832641602e-01
-4.705738689750663117e-02,-3.735608256198868493e-01,-3.923924809753111254e-02,1.680481071806115556e-02,-2.496855809662439606e-03,1.685700705843840366e-02,3.330715298652648926e-01
-3.249762021668285705e-02,-3.610347767881624814e-01,-3.375689962027160484e-02,2.106666797492268497e-02,8.017553837760560756e-03,2.257316454473422968e-02,3.325318396091461182e-01
-2.849485732614075173e-02,-3.664222227293032486e-01,-3.952659292031790450e-02,1.044648044013030130e-02,5.914563031352721920e-03,-3.048012629941994952e-04,3.331985771656036377e-01
-3.940531139195324606e-02,-3.698888507636425294e-01,-3.908595784939586371e-02,4.839151859843506161e-03,8.418075523810141653e-04,4.190992636190105092e-03,3.308324217796325684e-01
-1.838085697890461112e-02,-3.461937156239953683e-01,-4.590618346928694582e-02,2.193462301841383674e-02,1.189473039085511483e-02,5.092272658809454157e-03,3.180273473262786865e-01
-3.975967626483596640e-02,-3.569266256853488306e-01,-2.310467349445793905e-02,-5.130636052618496416e-03,-7.510087989841806970e-03,4.704668048080932856e-03,3.262962698936462402e-01
-5.306303798363645741e-02,-3.705329832350214847e-01,-4.334260409457450780e-02,2.192246194698089319e-04,-6.339691630660392561e-04,-7.068117173877621565e-04,3.224444985389709473e-01
-5.012594059543669378e-02,-3.818267625547740463e-01,-6.007862721101561720e-02,5.792069981858390983e-03,-1.052781476120454203e-02,6.367824752135491269e-03,3.276857733726501465e-01
-4.048003216060319653e-02,-3.866217973865091473e-01,-3.571260951978469378e-02,7.897089585746464718e-03,3.416202974308257031e-03,1.447060181459839355e-02,3.497675657272338867e-01
-5.072741183505732887e-02,-3.977244743615731548e-01,-4.699319586824246553e-02,3.928924431457248706e-03,-1.173020530421814943e-02,-3.524248985598247988e-04,3.495370447635650635e-01
-4.444300143474660958e-02,-3.584031998707282729e-01,-1.630676582512070871e-02,-1.606434983981714151e-03,3.908275738664916676e-03,-4.845555812420313836e-03,3.291205167770385742e-01
-4.301951371810154579e-02,-3.583304678979580826e-01,-3.943368570506967929e-02,6.624630022844055222e-02,-9.603865456852572757e-03,2.415148235186261733e-02,3.402305245399475098e-01
-7.032352452420645439e-02,-2.263455397508162548e-01,-4.378751465480938687e-02,2.625081215939762194e-03,-9.499929963958502485e-04,4.602523327866824693e-03,1.710969358682632446e-01
-4.709567709617641651e-02,-3.555808563507403819e-01,-1.862505473930968491e-02,2.204113134772462020e-03,-7.243570043908303599e-03,-2.188992312180277483e-02,3.261379003524780273e-01
-2.927219208272215101e-02,-3.648426455313122374e-01,-4.369192946084314577e-02,1.418168338859318763e-02,2.913665517671611051e-03,1.447658299625963207e-02,3.305059075355529785e-01
-3.935158643643794918e-02,-3.766924649214175025e-01,-4.048310705854037128e-02,6.671157367420165081e-03,1.991133500834956806e-03,-4.011406388515771876e-04,3.369930684566497803e-01
-2.383036621971834634e-02,-3.717479520657972492e-01,-4.337697509011276265e-02,-3.538369540882992884e-03,4.796637377586604641e-03,9.443429978285140759e-04,3.387290537357330322e-01
-3.411502200017928199e-02,-3.744191184291940644e-01,-3.868896928358475651e-02,1.434498267185279740e-04,4.159673866469669468e-03,2.949750620889491411e-03,3.381558060646057129e-01
-3.637000331314461932e-02,-3.693599759485779455e-01,-3.363025113085478524e-02,8.858515329148364996e-04,4.108648280565536416e-03,2.166885858670938945e-03,3.344685733318328857e-01
-3.949080393885200102e-02,-3.595101832763855643e-01,-2.865496641499815089e-02,-2.462902348540018890e-04,6.797441704382608217e-03,-4.709954962709409290e-03,3.258877694606781006e-01
-3.799496996984512431e-02,-3.773686218122184743e-01,-3.367293943236945863e-02,1.650573750402071875e-03,3.948807294186557418e-03,6.903786937204481203e-04,3.416377007961273193e-01
-4.077036692120476757e-02,-3.861268840335971286e-01,-2.973122360908117545e-02,-2.182862302319443608e-03,1.381708382219027850e-02,-2.302424777913440052e-02,3.540943562984466553e-01
-3.896946355924477134e-02,-3.734426175834785200e-01,-4.041425558410986774e-02,1.111901586447156887e-03,1.009071788102679175e-04,2.288938078658812880e-03,3.337822556495666504e-01
-3.757600702902162693e-02,-3.763288246940622028e-01,-3.715021763823850298e-02,2.682762137912715963e-03,3.361014932031190783e-03,1.674606866416021318e-03,3.390601575374603271e-01
-5.430182424428743604e-02,-3.844837088556840587e-01,-3.911646623180413396e-02,5.284343588645494701e-03,-2.175482586851513848e-03,2.476520836213655353e-04,3.381756246089935303e-01
-4.671157831251913917e-02,-3.569192634505520267e-01,-2.679469930694171331e-02,-6.002648697093148147e-03,5.105825005711287813e-03,-1.388749794052208594e-02,3.218210041522979736e-01
-3.853975870640569124e-02,-3.738363515407264748e-01,-2.982905623011437857e-02,-3.171149713043729806e-02,1.161163229742923249e-02,-3.379415317910270528e-02,3.496681749820709229e-01
-3.181465027787803990e-02,-2.219624841324706610e-01,-6.022906567133606143e-02,5.332792266758941413e-02,-6.052278965728566038e-03,-1.031443965544970830e-02,2.012990117073059082e-01
-3.278866777202804617e-02,-3.179019682827914917e-01,-4.429871633043767909e-02,1.910844442466652984e-02,-1.463309198120317164e-02,-2.229422738253597838e-02,2.852530181407928467e-01
-3.704861642463605498e-02,-2.648570337135913721e-01,-4.797945934106016830e-02,3.115081101585730206e-02,-7.190119184472291633e-03,-5.890251393483681396e-03,2.295567840337753296e-01
-2.062778021740638290e-02,-2.837398806125964734e-01,-5.755179615163175111e-02,6.953000120129057549e-02,1.142011021214272160e-03,-3.781786715907710372e-03,2.746384739875793457e-01
-3.771936289017888133e-02,-3.672377814608039914e-01,-3.498959164492593255e-02,1.242161487463768876e-04,4.714207682777952872e-03,7.220349373595537790e-04,3.309949040412902832e-01
-4.378115653299918808e-02,-4.265161274797240609e-01,-3.982314145612739220e-02,5.006654005384335998e-02,-1.352254108746848808e-02,3.255570189649165808e-02,3.990798890590667725e-01
-4.586443015107036225e-02,-4.630786316254562607e-01,-4.183060207524103014e-02,4.826414375711151478e-02,-1.490449796651076471e-02,4.954673644006789973e-02,4.367908835411071777e-01
-6.148547317482476460e-02,-4.023543657689989117e-01,-3.796353799858340206e-02,6.828461034393075446e-02,-1.217896745932327794e-02,3.920675693846296245e-02,3.792197704315185547e-01
-5.645059442126572347e-02,-3.788390861629972184e-01,-4.036890353317942881e-02,3.441821766784582300e-03,-8.547819120421601413e-03,-2.205453656630415420e-03,3.311296403408050537e-01
-7.044599521261403485e-02,-3.701794534737004039e-01,-3.707748283608267026e-02,1.839563989608440989e-03,-3.606572569737470473e-03,-3.578701534921476901e-04,3.178125619888305664e-01
-5.217267043113535396e-02,-4.262516042156092033e-01,-3.414068732436750797e-02,2.488060962556030986e-02,-5.005578616920435854e-03,2.065376451312630687e-02,3.875791728496551514e-01
-5.913238463995036664e-02,-3.782718204509569193e-01,-3.815832483757165827e-02,1.078697807249610029e-02,-8.765159118684234113e-03,5.163725019198090252e-03,3.311239778995513916e-01
-1.145047555042456866e-02,-3.477545714828312873e-01,-4.702410275116730709e-02,8.896868066854926593e-03,5.723034673326984553e-03,1.990706251683947194e-03,3.205463886260986328e-01
-1.901308106112398200e-02,-3.504529601925330251e-01,-4.443198689260877132e-02,1.381487589082600227e-02,7.525935055802892779e-03,2.591084977990905716e-03,3.206809759140014648e-01
-3.739843848758488132e-02,-3.687926926848419940e-01,-3.779178856795388508e-02,9.297338604404343674e-04,-2.871732213831449179e-03,-1.486511727339705647e-03,3.312490284442901611e-01
-2.122645956823034086e-02,-3.581373222323538386e-01,-4.197946522783249645e-02,2.997738550391239754e-03,7.761127124304249662e-03,8.195122907905559107e-04,3.273490369319915771e-01
-2.203529807473690594e-02,-3.528725594122894549e-01,-3.958612203955814979e-02,3.280859534442869853e-03,7.227549681811349346e-03,2.146267466628839615e-03,3.227346837520599365e-01
-2.169763448599623668e-02,-3.520215528555165063e-01,-4.171336516317618315e-02,2.648474608239289717e-03,7.210097960001116309e-03,1.322808822981852341e-03,3.210686743259429932e-01
-3.648928527349525053e-02,-3.463447202565660410e-01,-3.558520629185903117e-02,5.100866690898684525e-02,1.280477670972679852e-02,4.472201418437461717e-02,3.325493335723876953e-01
-2.869797867319746898e-02,-3.651461638983644065e-01,-4.109210695017713466e-02,-2.017477223111178997e-02,-2.132535922629858003e-03,2.929988492394664315e-02,3.361415863037109375e-01
-5.326476083854268795e-02,-2.553605948663619785e-01,-4.242904160289152904e-02,-2.447760602833524632e-02,-1.324249163684619590e-02,2.075030746717770186e-02,2.162527889013290405e-01
-3.726009401805902010e-02,-3.766984959381945997e-01,-2.769329902168650437e-02,9.011484224896270170e-03,-4.691434407527172133e-03,4.386085734032366124e-02,3.530414402484893799e-01
-3.796528648467004108e-02,-3.247229927430840823e-01,-7.094362508505995535e-02,-1.618579984165319230e-02,-1.498524362472206757e-03,1.606892002089152782e-01,3.900211453437805176e-01
-4.225742214181922585e-02,-3.728626016730513526e-01,-3.520536778825297808e-02,-1.462392304823745531e-03,2.038108796314182030e-04,-5.990477506616952511e-03,3.343578279018402100e-01
-2.678313325249762067e-02,-4.189454249682774134e-01,-7.969695446139160588e-02,-5.270512869113776200e-02,1.605593333097040873e-02,1.557125738710015417e-01,4.665687680244445801e-01
-3.997343909930622941e-02,-3.562348392339482750e-01,-2.744805251147441894e-02,-7.533898440273186642e-03,-1.346795194065713826e-03,4.580056477320060965e-02,3.325781822204589844e-01
-4.058604319330660903e-02,-4.024994247288474769e-01,-5.529068567112058186e-02,-3.964946560922231328e-02,-1.380237967634488031e-03,3.506799304768447312e-02,3.664518594741821289e-01
-2.270452884997695153e-02,-3.010496664431213665e-01,-5.886964503766435597e-02,-4.398072055602180591e-02,9.153413560513055242e-03,1.191859850923741998e-01,3.426189124584197998e-01
-1.109475170276480460e-02,-3.549206352622371607e-01,-4.937853395673098833e-02,1.541139892039925484e-02,-1.057887794800390410e-03,-2.118565333931324204e-03,3.274878561496734619e-01
-3.960967349851066133e-02,-3.688527687123903664e-01,-3.428779552344767001e-02,9.978129229642033766e-04,3.012281011887862556e-03,7.281895172972123638e-03,3.322210311889648438e-01
-3.764614117510239888e-02,-2.460126091331066023e-01,-4.912415256824689824e-02,5.988609218598962836e-02,1.181297273141180409e-02,3.055130916860404958e-02,2.348074018955230713e-01
-4.249518037117892832e-02,-3.505107560547501278e-01,-1.747402521903708428e-02,8.214238741799868501e-03,1.083269231035248990e-02,2.230969798949379232e-02,3.244290351867675781e-01
-2.867845651756785463e-02,-3.173647324228722200e-01,-4.741007888261346281e-02,2.394377918591257537e-02,1.252372308106533723e-02,9.085864277487193733e-03,2.841147184371948242e-01
-3.824037773404949381e-02,-2.880400191981262181e-01,-3.540952837444998058e-02,2.066896196578517017e-02,1.685807577879360267e-02,3.177304648938967385e-02,2.613002061843872070e-01
-3.720610314407603314e-02,-3.764655184955194023e-01,-2.567880379090638210e-02,9.262848850380176607e-03,2.571943478925204328e-03,4.118784132651493596e-02,3.528556823730468750e-01
-4.555890543589083408e-02,-3.530685705604760249e-01,-2.206929974558086149e-02,1.457538254610529034e-03,-1.114529194902066749e-02,-1.061336860840777011e-02,3.210205435752868652e-01
-4.418144047997132895e-02,-3.700747607284429197e-01,-2.036264730832193504e-02,-1.934668042984997787e-03,-5.757412563238669193e-03,-7.263045053070217583e-03,3.388290107250213623e-01
-3.731911341429253182e-02,-3.701410134078323977e-01,-3.108354777440461292e-02,1.816333556268269782e-03,-4.211028598311532603e-03,-2.487728363772547056e-03,3.361046016216278076e-01
-3.976038819212135422e-02,-3.552584073080511939e-01,-3.759370448078142024e-02,-2.201644213598676070e-03,-5.772904274817228579e-03,-1.955523534027501370e-02,3.185734152793884277e-01
-2.538464048828570352e-02,-3.025656785966466256e-01,-3.785769950879505630e-02,4.085963588333341862e-02,-1.437779286145070279e-02,-3.299073361589921483e-02,2.870914041996002197e-01
-3.382210576952801584e-02,-3.693194597645703681e-01,-3.844569595419122798e-02,1.494645213853140666e-03,-8.540686304720268357e-04,-1.126976865190333350e-04,3.332230150699615479e-01
-4.535278138628001665e-02,-2.866904827671084011e-01,-3.954704484313717461e-02,2.644069569341686403e-03,-1.433263530884071671e-02,-1.065647776598098624e-02,2.462857365608215332e-01
-3.653623538519268354e-02,-3.083779178175883873e-01,-4.094495134801569292e-02,8.503048131400641266e-03,-1.540640927478510551e-02,-1.150675632955705692e-02,2.721122205257415771e-01
-4.647449752849512616e-02,-3.816841322113896373e-01,-5.310293499267505768e-02,4.972502025252618311e-04,7.484467679093637950e-03,-4.179408838317161257e-03,3.322780728340148926e-01
-3.353342989808270891e-02,-3.957680647010162200e-01,-4.055850749046417680e-02,1.312993656181980426e-02,-5.761304933875254115e-03,-1.841616836126678397e-02,3.610440194606781006e-01
-3.295776767639774230e-02,-3.469144906055598998e-01,-3.842106506786387154e-02,2.466527985508215962e-02,-3.623187821712590051e-04,-8.184682356630685468e-03,3.144994676113128662e-01
-5.143489424111159780e-02,-3.761261583583374035e-01,-4.651227696399606870e-02,-4.875220458811958466e-03,3.772138863451628306e-03,5.393310606293245761e-04,3.273558318614959717e-01
-5.465042164120330337e-02,-4.262096460147293819e-01,-4.062619856426000209e-02,6.255491100716886396e-03,6.194552340099000048e-03,-1.944973683957445729e-02,3.805668950080871582e-01
-4.264921709341819300e-02,-3.744590937854209711e-01,-5.348892022751752795e-02,-3.787706101441143305e-03,6.169432118141390635e-03,-2.243790314851268168e-03,3.267887830734252930e-01
-5.155409758010982835e-02,-3.598589544673100327e-01,-1.524178833775810538e-02,-6.318404445384444290e-03,-4.876553291365365479e-03,1.022057604537128343e-02,3.287403583526611328e-01
-5.216125038704340355e-02,-2.889971606772818724e-01,-3.486575121218259132e-02,-1.233403911575313254e-02,-1.264566561313582721e-02,1.428874330631386101e-02,2.490686774253845215e-01
-5.068703902419816054e-02,-2.651509768306575809e-01,-4.149348773744633567e-02,-1.241608484662992326e-02,-1.070846275985524836e-02,3.122161562862894174e-02,2.275562435388565063e-01
-5.427943414681356271e-02,-2.254691209099007887e-01,-3.484568117846398305e-02,2.080183715367226946e-02,1.167592764617165178e-02,5.064007729672694025e-02,2.059388756752014160e-01
-6.190023100268102901e-02,-2.006930473146545935e-01,-3.027775407161353849e-02,-8.525484224332155123e-03,1.639242178811510693e-03,5.130882665848283952e-02,1.810422539710998535e-01
-5.268369063052888435e-02,-3.320006581684129543e-01,-1.927287299388885655e-02,-1.049067109047460526e-02,5.348819492433164874e-03,3.694261352303004203e-02,3.049208521842956543e-01
-5.048173057305090083e-02,-3.305388497435679529e-01,-1.789278918268717711e-02,3.484821263650925236e-03,-2.889897086184889299e-03,3.723590119658721359e-02,3.046995401382446289e-01
-5.671866851081694416e-02,-2.934294991262102470e-01,-1.853953346289714810e-02,7.727970959841113513e-03,4.930308552043459989e-03,2.733074232146969623e-02,2.627167105674743652e-01
-1.345375994459929725e-02,-3.583972144401451065e-01,-4.646508193410883725e-02,1.274247551244803330e-02,3.256115231446964423e-03,-6.868192901135697489e-04,3.304678797721862793e-01
-3.187622044013198319e-02,-3.667174012658760418e-01,-4.634834349234499828e-02,2.062299586155436765e-03,-2.506076533774173176e-03,-1.866418958516213129e-03,3.279089033603668213e-01
-1.527232545116753715e-02,-3.552235945854290700e-01,-5.027373072281403343e-02,1.774374833175565653e-03,1.216326619159445498e-03,3.973369082041500606e-05,3.238936364650726318e-01
-1.521441334505181653e-02,-3.550247824035490662e-01,-4.667858879149441864e-02,2.253599831773672735e-03,7.415610627481843175e-04,-1.362052309707498677e-03,3.252563178539276123e-01
-4.311268679559346340e-02,-2.157594543740399828e-01,-5.931560516360839808e-02,7.728930901332967118e-02,-4.314086444893614966e-03,6.701245434896534181e-02,2.423237711191177368e-01
-1.242592072696410699e-02,-3.559754407713522362e-01,-4.657719989496424129e-02,1.388193193162627279e-02,-1.602116287654797334e-03,-1.267519188720040617e-03,3.287104666233062744e-01
-2.533834559837533362e-02,-3.685537163196714316e-01,-4.696464547862656824e-02,2.547593008313403865e-02,1.517668614284544250e-03,-3.447102716369106895e-03,3.359042108058929443e-01
-1.976009673105737219e-02,-3.304181261201163400e-01,-5.585647831466471203e-02,4.294061147073394841e-02,3.761418675645907808e-04,-7.841718477404829120e-04,3.035320341587066650e-01
-3.149797382577790295e-02,-3.741216389884858828e-01,-3.628160537904702443e-02,1.260601883257734396e-03,-6.834460814029508398e-03,-2.204248423885068336e-03,3.404913246631622314e-01
-2.554746538997168526e-02,-3.672383861633162772e-01,-3.623210615887158259e-02,6.418627361439033750e-03,-4.781029640383165774e-03,-5.308630816091829694e-04,3.367625474929809570e-01
-2.495359240582818716e-02,-3.537154739455059538e-01,-3.629678387456176936e-02,5.590813126681825652e-03,-6.625854385023929004e-03,-2.203437540986961322e-03,3.236106932163238525e-01
-4.513922184854567143e-02,-3.662510314161575575e-01,-3.882151119687630991e-02,7.974214215537176950e-03,2.397385323856253859e-04,-1.756767176398022282e-02,3.260340690612792969e-01
-4.572078221954527233e-02,-3.684911303345319022e-01,-4.257116681801047242e-02,-3.390708009094947216e-04,2.385435702557122707e-03,1.143235352277459198e-03,3.243895173072814941e-01
-3.441598008741017511e-02,-3.370747634438275853e-01,-3.419550765776957491e-02,1.716283227115400489e-02,-6.944567754564407065e-03,-2.766098719819981566e-02,3.082091510295867920e-01
-4.345287714624532227e-02,-3.721159846120992709e-01,-4.879661033008431126e-02,3.498879702084366217e-03,-2.985630937948818408e-03,3.203123168006592140e-03,3.261685967445373535e-01
-4.245994528649116306e-02,-3.523531934071238991e-01,-3.142734072050701322e-02,5.662668899051979607e-03,-2.578762495824068069e-03,-1.360896733483529623e-02,3.166168630123138428e-01
-3.567937851951510919e-02,-3.536117228442741123e-01,-2.716188716664091896e-02,1.316403107988673186e-03,-6.663793972183311605e-03,-4.342740445076255680e-03,3.225778937339782715e-01
-3.898313944752983262e-02,-3.545756783151529090e-01,-3.674692595265202644e-02,-5.535492394531127749e-03,1.049987644799274533e-02,-4.911439472239454221e-03,3.174971044063568115e-01
-6.487689673939633916e-02,-3.853751286326245751e-01,-4.720783633633689191e-02,2.875574334877897213e-03,-1.686988238501235110e-02,1.647880434201305774e-03,3.310301303863525391e-01
-4.267062084793220300e-02,-3.677330382348910631e-01,-3.364173583736114470e-02,-5.040961181220507403e-03,-4.418827454480509821e-03,-3.445619525564164697e-03,3.299279808998107910e-01
-4.556557699215255108e-02,-3.822605392767067789e-01,-3.874357254499785630e-02,-9.381519673360353209e-03,-7.191507262953580545e-03,-1.112669474448810952e-02,3.413174152374267578e-01
-2.501069372008979386e-02,-3.695023850834604495e-01,-4.270199758252225808e-02,-1.072805245941061900e-02,6.208855251677874824e-03,-5.103855715464083835e-03,3.367967903614044189e-01
-3.941664615438851549e-02,-3.982410815348399469e-01,-3.567153947896210819e-02,-9.049971095006412863e-03,-8.028282514283235222e-03,3.708367192683875713e-02,3.669843375682830811e-01
-2.099730679071037942e-02,-3.700617659060188025e-01,-4.710688708754316723e-02,-5.451222041176552111e-03,-2.808367898376200669e-03,-5.437283029440271621e-03,3.370686471462249756e-01
-3.260282440706474549e-02,-3.706795907980330318e-01,-3.290397254211549494e-02,-6.995867663624573927e-03,-1.053348444815178919e-02,2.758570991874445544e-03,3.386690020561218262e-01
-3.799588820109069121e-02,-3.231006177020827042e-01,-3.975704997229988213e-02,-6.806080587054304243e-02,3.234371696192037387e-03,8.660972798491605590e-03,3.081216216087341309e-01
-5.396868363752579945e-02,-3.261859179678753273e-01,-3.606121852611816891e-02,-8.626948443931377331e-02,5.237574220356776278e-03,8.513088834132923359e-04,3.189190626144409180e-01
-3.813587860097243654e-02,-3.688101681703818691e-01,-3.783557954281542568e-02,-5.823720065085615395e-04,-4.128005799449834153e-03,-2.154718252516205773e-04,3.309035301208496094e-01
-3.520405536319511086e-02,-3.556970912394961659e-01,-4.009856723544120982e-02,-7.067353882443705958e-03,-5.699996415728757551e-03,-3.935552861967978370e-04,3.184632956981658936e-01
-3.377119851810499174e-02,-1.679142801504779903e-01,-3.723128540070719944e-02,-3.983526667677425581e-02,1.143857618693033514e-03,3.545850790365133454e-02,1.614886373281478882e-01
-3.775152355291053197e-02,-4.239393363239529755e-01,-4.667647809691631566e-02,-2.595355751607350287e-03,3.566954264980943222e-03,1.897226135965281862e-02,3.832912743091583252e-01
-3.435271362328701228e-02,-3.685004176411580401e-01,-3.659511046467636697e-02,-1.782702839723512454e-03,-1.301570377359248824e-03,1.198142791223702789e-03,3.330605626106262207e-01
-3.553561421900021389e-02,-3.543060315100312607e-01,-2.512451088549381983e-02,-2.223709423259358046e-03,-4.809783742860136019e-03,4.417645346958336619e-03,3.243215978145599365e-01
-3.375405159270598865e-02,-3.659108222864845272e-01,-4.131428657737509780e-02,-1.657538795277873830e-02,-8.774143297417007561e-03,2.986639756703605725e-03,3.300848901271820068e-01
-3.374707008558414101e-02,-3.760548528124589840e-01,-3.804050652986763759e-02,-1.104661359720141749e-03,-6.089156283523631738e-03,-1.521721637104216790e-03,3.403604328632354736e-01
-3.502243340644839442e-02,-3.679599144598697524e-01,-3.126856244809415875e-02,-2.734573824638557326e-04,-5.797108825493541180e-03,4.588986029962618951e-03,3.350753486156463623e-01
-2.936278237552915338e-02,-3.586096183722766728e-01,-3.447908843086601449e-02,-6.368849386028784670e-03,-9.101574317033348654e-03,-6.695152206456868099e-04,3.272868394851684570e-01
-4.919565457224195359e-02,-3.985170181658808097e-01,-4.346547270467349122e-02,4.521465433724513808e-05,-4.165521794655429287e-03,1.921109071812636751e-02,3.538632392883300781e-01
-1.884830280401540714e-02,-3.443933002949185473e-01,-4.826354174037117417e-02,1.528367703962795962e-02,8.803740149486488295e-03,-5.179293400002583426e-05,3.133721649646759033e-01
-3.523691075387153093e-02,-3.645288621332224421e-01,-3.522294034364441273e-02,4.512349886740013583e-02,1.078335425404155536e-02,4.995370306555609735e-02,3.498301506042480469e-01
-3.591334478911629990e-02,-3.696599834534567419e-01,-3.214762972718640532e-02,-6.297771787228820728e-04,4.188013130164228333e-03,1.310812369384489967e-03,3.357331752777099609e-01
-1.813784821107965184e-02,-3.413646418031157648e-01,-4.632538228045970929e-02,7.512693622070599000e-03,7.496912596482848030e-03,5.084598760110782545e-03,3.107645809650421143e-01
-2.179263222482626106e-02,-3.137552101735571197e-01,-4.807097119624338666e-02,2.988806465327405182e-02,1.496072983255444799e-02,6.725685526997516282e-03,2.859151363372802734e-01
-1.846681150916927583e-02,-3.476011476131404820e-01,-4.038353387299577213e-02,1.026072146923644353e-02,8.689293695600119882e-03,6.646154357932552124e-03,3.197984993457794189e-01
-2.717530369650368594e-02,-3.397315325037961742e-01,-4.938187670358204495e-02,2.588045379976825974e-02,7.557059775789963171e-03,2.534502709259741152e-02,3.087904751300811768e-01
-1.440967110500213089e-02,-3.126568631050987701e-01,-4.955890154054615193e-02,1.299372411224946483e-02,7.922648304312536124e-03,5.652110851779239791e-05,2.835463285446166992e-01
-1.781263478629227515e-02,-3.820369891773688353e-01,-4.872005292359135598e-02,2.398424512586511126e-02,2.493468978493310778e-04,1.646090782230272753e-03,3.522661924362182617e-01
-1.160805693958767704e-02,-3.346260195977913687e-01,-4.861637460873126371e-02,1.273849505732336899e-02,2.730505398778169273e-04,2.163901223827473621e-04,3.069902956485748291e-01
-1.275410012395626624e-02,-3.346537829230802341e-01,-5.206992967833741492e-02,8.642046007347244790e-03,3.600087371017237411e-03,1.421844456086134587e-03,3.045954406261444092e-01
-1.859585261454152483e-02,-3.429281043711763233e-01,-5.054334752552276655e-02,1.689810723944029994e-02,-3.129015084606748438e-03,-5.556085006692678199e-03,3.111737072467803955e-01
-2.054984647459925928e-02,-2.930581477562604897e-01,-5.250147164130443411e-02,6.871989842017504901e-02,-6.656314781332945373e-04,-2.150796336410496152e-04,2.841537296772003174e-01
-1.960951864286833435e-02,-3.285698583639620196e-01,-4.331364043367959271e-02,1.163112782402813544e-02,3.696684176889352552e-03,9.699803339865236546e-03,2.990382015705108643e-01
-1.439639883357921035e-02,-2.828893572071511375e-01,-5.553521223537129931e-02,1.969081881157733541e-02,4.427088457766185231e-03,6.043466055426644119e-03,2.531144917011260986e-01
-2.951638809115024464e-02,-2.286896689037977159e-01,-6.218969265139302760e-02,5.926141809147961181e-02,6.051576713226859867e-03,1.076378738100484088e-02,2.126571834087371826e-01
-3.655664856773760407e-02,-3.633171982832638092e-01,-2.810242474241203547e-02,6.881113608833049414e-04,-6.513837197705953791e-03,-3.069065308343786429e-03,3.313055932521820068e-01
-4.672913792623066553e-02,-3.654223698994903957e-01,-4.815386366304644228e-02,-1.752939861613973110e-04,3.099639076035065242e-04,6.985005568436042237e-04,3.179861605167388916e-01
-4.006320728685416888e-02,-3.725754852389596694e-01,-3.912902847868419964e-02,3.267795967070775010e-03,1.853153844831371380e-04,1.532092560971838298e-03,3.330391645431518555e-01
-3.103950300007546348e-02,-3.710024201627969975e-01,-3.496364848436163408e-02,-6.931191005609044003e-04,4.814884189841445693e-03,-1.603141582703079999e-03,3.381343185901641846e-01
-2.455970903811294237e-02,-3.673270011306878358e-01,-4.040686585219258053e-02,8.500205195512994943e-04,-3.970952612239244360e-03,-8.768813085006262314e-04,3.352020978927612305e-01
-3.260184375587581174e-02,-3.694600024586690012e-01,-4.023361376648941501e-02,-1.897284120560294770e-03,-3.044387960360977335e-03,-2.377641813584426499e-04,3.331660330295562744e-01
-2.594176010513114805e-02,-3.629145866830845168e-01,-3.977966380834725701e-02,6.557169991403497282e-05,-1.279068574427879136e-03,-2.239554971341829390e-03,3.303015828132629395e-01
-1.025411437798245951e-02,-3.372488201546402498e-01,-5.411002244528952121e-02,5.031272271535970619e-03,-1.624076469627085606e-03,-7.492268994118392485e-04,3.075610101222991943e-01
-3.965834374216972713e-02,-3.557824512464454747e-01,-4.116404833306164246e-02,2.919443239300947845e-02,-4.718611963693798532e-03,1.518988329342712239e-02,3.205879926681518555e-01
-2.762147376581083891e-02,-2.642791168373337940e-01,-5.751491986007417623e-02,2.275456169519285074e-02,8.643585543308671126e-03,1.092990779108205315e-03,2.271716892719268799e-01
-4.369403167260738075e-02,-3.658584413062732077e-01,-4.316777156324862197e-02,-7.496648923506763536e-04,1.557760621656914795e-04,-9.231213344559959389e-04,3.224345445632934570e-01
-4.447067268703150389e-02,-3.670993023905502195e-01,-4.080376881006267387e-02,-1.479877555982788122e-03,-4.321183637854483783e-04,-1.587492922827700784e-03,3.245002627372741699e-01
-3.795070478803619363e-02,-3.669215904240036852e-01,-3.754521497729930435e-02,-7.109152257722512695e-04,6.895210100495178455e-05,-9.576801332749671587e-04,3.291803300380706787e-01
-4.190925975340763221e-02,-3.667725226945571237e-01,-4.175042435726047940e-02,-5.265327486983755606e-04,-4.615386008255079422e-04,7.181356026449544011e-04,3.249473571777343750e-01
-1.146830803859197334e-02,-3.477986960353192103e-01,-5.135582231513999285e-02,5.573422960361863569e-03,3.418604754837474644e-03,1.328884311466867717e-03,3.184765279293060303e-01
-1.133013869663565543e-02,-3.500553312666659367e-01,-4.832352565513273190e-02,1.406106804531305791e-04,2.701435030007443439e-03,2.616049188957979103e-04,3.218615055084228516e-01
-7.959381837545742577e-03,-3.481668252469666269e-01,-5.148116920439613220e-02,-4.029528524942002188e-04,3.826141460667329070e-04,-1.205894957682424789e-03,3.206775784492492676e-01
-9.324266899909783302e-03,-3.485196136048343551e-01,-4.912050419539724933e-02,2.269596683526676692e-03,5.458355220595493933e-04,-2.082196218249834178e-05,3.211773335933685303e-01
-4.520483611078653097e-02,-3.687060750624413519e-01,-4.543583822341477896e-02,1.392766915583528841e-03,-1.089365693243897037e-04,1.085300077613953655e-03,3.234003186225891113e-01
-4.635412491994739259e-02,-3.671776933062175785e-01,-4.745090190208799130e-02,1.742772584619701895e-03,-2.665007545946277497e-04,4.265989762427060158e-04,3.202919960021972656e-01
-4.573939342528003660e-02,-3.661896274330874723e-01,-4.716407151856388813e-02,1.261091548280892250e-03,-1.402910143004173875e-03,1.062450704116574881e-03,3.197622597217559814e-01
-4.619245734461308039e-02,-3.665875381159035551e-01,-4.916069657294476480e-02,1.392989975476531224e-03,-1.556442099368910347e-04,6.739834572102003244e-04,3.189327120780944824e-01
-3.908246644606318265e-02,-3.745041524067070915e-01,-5.226190670741065469e-02,-3.504348601773836502e-03,2.366506649070416329e-03,2.675780099238874495e-03,3.291441202163696289e-01
-3.588503660676256590e-02,-3.784775698219494666e-01,-5.142460023418517212e-02,-2.180973640741771385e-03,4.212053210580252345e-04,2.430235471483147437e-03,3.351416289806365967e-01
-3.015836673390701050e-02,-3.906598035274413405e-01,-7.567637595861445576e-02,-6.600741251011666560e-03,5.012066129634557346e-03,6.704549367064279765e-03,3.405360281467437744e-01
-3.925379397542583249e-02,-3.784115674652658301e-01,-5.629350033494169570e-02,-3.708048759689903245e-03,-2.711961292427517677e-03,-1.223619805047194975e-02,3.317403793334960938e-01
-3.429390532281934023e-02,-4.042880313490777588e-01,-4.291760043163905802e-02,-1.033393189368005984e-02,5.731601392520664640e-03,-4.616742185093274109e-03,3.664180338382720947e-01
-1.145907268479268160e-02,-3.514766410471674707e-01,-4.831727866117543901e-02,9.955199127547186434e-04,3.164375446458923737e-03,7.105760365186855176e-04,3.232221603393554688e-01
-8.630066623884019572e-03,-3.527819962037124224e-01,-4.924182381197764191e-02,2.120483390850473344e-03,1.290492186125742928e-03,4.544041064795637137e-04,3.257796168327331543e-01
-5.034479088941232194e-02,-3.650511862965419851e-01,-5.084581843592735073e-02,2.553645917902393203e-04,-2.817950420148311597e-03,3.032436727463707336e-04,3.144948184490203857e-01
-8.477603784631249084e-03,-3.503291161801462827e-01,-5.041247061119967510e-02,1.778479138574936376e-03,1.092594229764075288e-03,-8.135543773617614648e-05,3.229528963565826416e-01
-4.202291660144055752e-02,-2.453352013374872631e-01,-4.278660417225205181e-02,4.704874776052174468e-02,-1.152187663154852042e-03,5.312242482022878215e-02,2.372591644525527954e-01
-4.990647720660516817e-02,-2.875597767683333306e-01,-2.528036595743778092e-02,1.645108436698593940e-02,5.228383334680565021e-03,7.122782540508579285e-02,2.811621427536010742e-01
-3.990174599822605972e-02,-3.665745165384978188e-01,-1.753254753973824964e-02,2.977728971656884091e-03,3.833461029958563221e-03,2.213862315101930434e-02,3.406815826892852783e-01
-5.671168562419710152e-02,-2.632468250376254204e-01,-2.979172827979682803e-02,-2.231569333403793029e-02,5.806026558242702654e-03,9.017961384029425653e-02,2.737399339675903320e-01
-4.098964155975996781e-02,-3.801246702929471644e-01,-3.396563501876224966e-02,-5.033512229985426939e-03,-3.854571488596308590e-04,2.012953410776425339e-02,3.445809483528137207e-01
-4.024139275395893778e-02,-3.810675267379601827e-01,-3.595974392257333951e-02,2.463086251158184622e-02,3.296657362665521458e-03,2.667992463997720734e-02,3.487523198127746582e-01
-5.101495835626997100e-02,-3.875008668554158486e-01,-4.621186029928443795e-02,-1.279362009664450871e-02,-1.329593016633268295e-02,-4.335828557463575206e-03,3.404993116855621338e-01
-4.968573838538183074e-02,-3.633485957988109583e-01,-3.949175533126639270e-02,-2.174215364792837085e-02,-1.159236363157410167e-02,-1.846728992075708647e-02,3.233113288879394531e-01
-5.464955470660803893e-02,-5.042525380574631733e-01,-2.828258559863183752e-02,-7.635069847047456018e-03,-9.428294009130705131e-03,3.943318562172019870e-02,4.688274860382080078e-01
-4.978448550288699925e-02,-4.210983251288668572e-01,-4.050484856089414665e-02,-9.735282023668672541e-03,-1.395966777005542420e-02,-7.411251518456935146e-03,3.774115145206451416e-01
-2.679463146005253704e-02,-2.531694563957273547e-01,-5.504608895550824887e-02,5.214371156754053077e-02,1.014514613360127139e-02,2.733964733314365320e-02,2.373948842287063599e-01
-5.412067643523554850e-02,-4.982848723189197693e-01,-3.767316146385049636e-02,-1.411322453143913115e-02,-1.184929910798151499e-02,-9.170506978691454411e-03,4.540141224861145020e-01
-6.104758032098037135e-02,-4.701788227466134340e-01,-3.675216453895893687e-02,-1.893249415106994932e-02,-1.484971427313191115e-02,-1.433951687201678871e-02,4.245849549770355225e-01
-4.569740049723831909e-02,-3.666427078504321813e-01,-4.555303778315283880e-02,-1.927207370068876593e-03,-1.618866101305998801e-03,-8.832336935967871876e-04,3.210507631301879883e-01
-4.693968906896395232e-02,-3.655498677231427962e-01,-4.541946502500185390e-02,9.964970652701912127e-04,-5.737338937908849357e-04,-2.962910425632185878e-04,3.193796277046203613e-01
-3.621810799641148049e-02,-3.758899565274930188e-01,-4.046616291395073450e-02,3.927679926351209934e-04,-1.341583737690111016e-04,2.094092239229520831e-03,3.375881314277648926e-01
-4.410171036844255654e-02,-3.422941648902837475e-01,-2.016454773538541023e-02,-1.526762371459454860e-04,7.290437654433505089e-03,1.738287473056009114e-03,3.111240863800048828e-01
-4.192219072230915500e-02,-3.652877302869763643e-01,-4.531398698992693264e-02,-1.277127072776683780e-05,-1.045472470061911468e-03,-4.626319165929576984e-04,3.216891586780548096e-01
-4.283633637522737958e-02,-2.438102116325320257e-01,-6.048119440653061674e-02,-1.542436842982223763e-02,-7.361025516080170125e-03,-1.012119004764741462e-03,1.950257569551467896e-01
-6.378806448707695365e-02,-2.025809648949521702e-01,-6.542941042155757392e-02,-1.483698871358251486e-02,-6.388906515421411032e-03,3.064711410588219043e-04,1.407888531684875488e-01
-4.250778224750444145e-02,-2.972279370748631133e-01,-6.670516347682560465e-02,-3.374319361378214782e-02,4.357155103074778456e-03,8.349722889285591740e-03,2.509705722332000732e-01
-3.690356774900349635e-02,-2.665688604120693972e-01,-6.725114973073809121e-02,2.479303930165380199e-02,1.657018299140615609e-03,2.733710259296689461e-03,2.203907370567321777e-01
-3.772103503048546830e-02,-1.958732123189885488e-01,-5.359957441386202504e-02,-2.871498155266344332e-02,-2.478325391668314073e-03,8.345313831260595117e-03,1.595431715250015259e-01
-2.964909454866040961e-02,-2.598988948819128675e-01,-5.699240023456185467e-02,-7.069428008557925025e-02,-1.012429133404776568e-02,1.580108069223424075e-02,2.520246207714080811e-01
-5.133214048718334754e-02,-2.078184483997811416e-01,-5.908737643731207939e-02,-1.540750605905620184e-03,3.547002727437781507e-03,3.705461783669928601e-03,1.530378311872482300e-01
-2.580303416213267087e-02,-3.092389832334748734e-01,-4.663332494388455762e-02,1.196734389237776638e-03,1.129419347936023131e-02,6.483010039017644138e-03,2.745520770549774170e-01
-4.588493779974982256e-02,-3.671015056351258909e-01,-5.641867871792871636e-02,1.535449735085084528e-03,-3.317446423919842742e-03,1.493006163080467163e-03,3.161553442478179932e-01
-4.370595519055019140e-02,-2.579847142138778637e-01,-6.053735805996088987e-02,-2.553365495907086377e-02,-3.213475694174829306e-04,2.243513874349352291e-04,2.110649943351745605e-01
-4.837168255079307699e-02,-3.569623203772993025e-01,-3.629026629386813974e-02,-1.425710092574859463e-04,-9.957202059380777489e-05,-1.074693924493250012e-02,3.153552412986755371e-01
-3.872998983651733396e-02,-3.793617470414578086e-01,-2.959405545776433444e-02,-7.117470593701626796e-03,-2.925211463769115819e-04,-4.476429357634555128e-02,3.541033864021301270e-01
-4.445904397426717058e-02,-3.708632850820788862e-01,-4.491075503127821278e-02,2.527208861334523642e-03,-2.954117071619458655e-03,5.072877598490137165e-04,3.262493014335632324e-01
-4.057559429216610336e-02,-3.696070801448317900e-01,-4.163822863872947144e-02,-2.909600642360086163e-03,1.023944541878980211e-03,-1.952402508742565046e-02,3.302806615829467773e-01
-3.168281226821095808e-02,-3.754660791090264071e-01,-3.415841405451230939e-02,3.900011750879979282e-04,4.196156132944278347e-03,5.473335683257565722e-04,3.426312506198883057e-01
-3.955644456641488338e-02,-3.878948660573690033e-01,-5.418853466508227745e-02,5.700968432112263340e-03,-9.296809494021632259e-03,-6.911855149349750184e-03,3.419896960258483887e-01
-4.798424492284203424e-02,-2.964877637725524817e-01,-3.566516623368967687e-02,-8.828554507024168919e-04,1.226369284709722014e-02,-1.506760463215460130e-02,2.571025490760803223e-01
-3.179331110649563641e-02,-4.088787257873490733e-01,-6.736456354117724421e-02,-1.566075266069864858e-02,-1.010257495964669155e-02,-3.621414783832483525e-02,3.674529492855072021e-01
-2.704478989896744179e-02,-4.532101496044818045e-01,-6.465009507942949540e-02,-6.603032660678899435e-02,-1.970350388615046879e-03,-8.643444606518654871e-02,4.500104486942291260e-01
-5.034280081288157460e-02,-3.764475428841180804e-01,-4.120564056480063853e-02,-5.035155257846128489e-03,-2.738402358029672339e-03,-1.757341079769101635e-03,3.309309184551239014e-01
-4.695572492077024207e-02,-3.801439345094210775e-01,-1.780188370655855223e-02,-4.137117392515954686e-03,-4.385517746851273768e-03,-4.347113704247065197e-02,3.568701446056365967e-01
-3.027001686348253229e-02,-2.509305486164644661e-01,-3.716341544046468381e-02,-4.830368452207074031e-02,-5.083757196693932355e-03,-5.483504638524310665e-02,2.516255378723144531e-01
-4.705207637858234426e-02,-3.606709112890655322e-01,-2.170389419929269481e-02,1.598848665269890761e-03,7.299849200193663477e-03,-1.254432779850730420e-03,3.272937834262847900e-01
-5.185894025411701136e-02,-3.497807721812515869e-01,-4.224256982697051355e-02,6.822488067234629139e-02,-1.885472183906330935e-03,1.715700218631619617e-02,3.264544010162353516e-01
-2.917714689832527630e-02,-3.681196951604643886e-01,-3.433179859638194054e-02,-1.557148234340870229e-03,1.418670574458014925e-03,-2.298263751028756317e-04,3.364148736000061035e-01
-4.679080279718075830e-02,-2.594054871449258393e-01,-3.597629383453608554e-02,1.469590010986785919e-02,1.149881836147498455e-02,2.817414923357536294e-02,2.259362936019897461e-01
-3.728354900682111228e-02,-3.265196371372484085e-01,-4.674749141475163794e-02,2.084437215532336865e-02,-6.331236087319881863e-03,4.931110033734638354e-02,2.995467185974121094e-01
-5.844827472081691455e-02,-3.921477495105940569e-01,-6.627536600525231469e-02,1.138448109084139875e-01,-1.637076604024713389e-02,1.305940709591314752e-01,4.468277990818023682e-01
-4.048776947267822279e-02,-3.645219399651201675e-01,-1.965029401491104333e-02,-2.234384118688662914e-03,-1.811709239242101713e-03,-3.816321340325093560e-05,3.349764645099639893e-01
-8.745655344813141330e-03,-3.460978685573380398e-01,-5.130889308025063378e-02,1.352774873986670526e-04,8.942240319814536136e-04,-2.512209628889142425e-04,3.182168900966644287e-01
-2.879606236946037623e-02,-3.693409268061239592e-01,-3.113388106740161421e-02,5.291511113704867831e-04,-6.179499376614221553e-04,-3.050401456620927053e-04,3.393853306770324707e-01
-3.092225707477418151e-02,-3.350836217597688016e-01,-5.237260351360517596e-02,6.942425609178978752e-05,1.156300050209121272e-02,2.102420027617715487e-04,2.947051823139190674e-01
-4.640358616148114457e-02,-3.709615431782285477e-01,-4.125325184474289142e-02,-1.597122855234322679e-03,-5.031946361335445971e-04,-5.666393875298330598e-04,3.271778523921966553e-01
-6.446294448612840955e-02,-2.524681658869924461e-01,-5.551590717433682598e-02,-1.663186838870937432e-03,-4.191153513115832355e-03,-2.470195785145906306e-02,1.974833160638809204e-01
-4.790239028587713055e-02,-2.363443414367631945e-01,-4.861072144159239716e-02,-2.330551529457944651e-02,5.662676045379044440e-03,-6.777724400309068087e-02,2.255754768848419189e-01
-2.451908944047641314e-02,-3.663083949902636860e-01,-4.039876038847439732e-02,1.680640891878280863e-02,3.419387933897895509e-03,1.941178907929477044e-04,3.354506492614746094e-01
-5.813249686259918531e-02,-1.890945420496781271e-01,-5.074842618572909803e-02,2.479882528974169942e-02,-3.830221143603513602e-03,-4.541598116669173790e-02,1.620166897773742676e-01
-4.421291019041861947e-02,-3.667856136041240944e-01,-1.590699685762422821e-02,7.032911856637687415e-04,3.996725620972093641e-03,-8.147570245883963339e-05,3.376899659633636475e-01
-6.577722910712592574e-02,-2.553237392068100631e-01,-2.902491653560503038e-02,-2.411472585563720350e-03,-2.925814048281852580e-03,2.106036920867898274e-02,2.135851830244064331e-01
-1.300883666197247268e-02,-1.081110067794266993e-01,-4.851080146016891609e-02,3.534319317119813657e-03,-5.520879533666793286e-03,-4.724013445900212410e-02,1.172702163457870483e-01
-5.253329905687034729e-02,-3.000038411748544576e-01,-2.707224531147996160e-02,-1.499000502527672585e-02,6.116059162226977590e-03,-4.981610454099747592e-02,2.764453887939453125e-01
-3.731630021551633758e-02,-3.682863082508109343e-01,-4.063787312732435042e-02,-4.246765630833313106e-03,-6.405184273128612790e-04,-1.968438483989138786e-04,3.294059634208679199e-01
-5.586684107159166357e-02,-2.932050904212069042e-01,-2.400767372506226738e-02,1.220737333040701651e-02,-7.883869678302728168e-03,-5.421605568238645895e-02,2.726857364177703857e-01
-4.612607329447213078e-02,-3.546402459986210953e-01,-1.062388997675781099e-02,1.966503825992981565e-03,2.087986227908560522e-03,5.103886318953086351e-03,3.278675973415374756e-01
-2.577478963894110076e-02,-2.244981186160729392e-01,-4.839595434668018253e-02,-5.521203145734601692e-02,1.226730647305847820e-02,7.987419191902532523e-02,2.534631192684173584e-01
-3.790860555831095102e-02,-2.788888776213811482e-01,-2.615641791835104923e-02,-3.555030574394012211e-02,-5.914336163274508569e-03,2.568761557979448024e-02,2.586843967437744141e-01
-3.600969490484326463e-02,-3.853724043080205552e-01,-5.542775676872027657e-02,-5.764246224020233350e-04,1.497191566100683187e-04,1.389791398932953542e-03,3.400798141956329346e-01
-2.951885037608684148e-02,-3.850551779247115558e-01,-7.187754133671242496e-02,-5.712906417424447672e-03,-3.032499561364802865e-03,1.460947763719923527e-02,3.374997675418853760e-01
-3.623291204168570256e-02,-3.694749666189158788e-01,-3.905642597827148343e-02,-8.527197735574250847e-04,2.419547730055341566e-04,-1.004767562980135543e-03,3.318474292755126953e-01
-2.953343915937170494e-02,-3.902309926845242138e-01,-7.817048182815856949e-02,-4.404192447188069585e-04,2.623871950977164046e-03,-8.986256895425634439e-03,3.393943309783935547e-01
-2.713021480596505830e-02,-3.901884501166679176e-01,-7.844804366549794350e-02,-1.931964141217883514e-03,2.686223428803478572e-03,-8.417797479880537517e-03,3.406741321086883545e-01
-4.773309685661701607e-02,-3.670610129963970403e-01,-4.864734939481281384e-02,4.240027331602869132e-04,-1.026080394437684298e-03,1.653309333366959630e-03,3.188904225826263428e-01
-2.690596718663243458e-02,-4.053456458372297622e-01,-7.176436447638137595e-02,3.204898263895764911e-03,-3.309198182174007390e-03,-5.834771238632128695e-03,3.583552241325378418e-01
-4.091081667382077958e-02,-3.725059353268117546e-01,-2.300405363034650763e-02,-7.284668441150549687e-04,-6.201056591524511594e-03,-4.889861597258097700e-03,3.411780297756195068e-01
-4.052047749648338137e-02,-3.695554375746986642e-01,-3.740774732392014579e-02,-4.134111609791881262e-04,6.855109131569487528e-05,6.085129209801343772e-05,3.306031227111816406e-01
-5.384678588958329015e-02,-2.203315418785019020e-01,-4.350428058676793913e-02,-1.560312470821391103e-03,5.318789996136398177e-03,-4.191830266442111118e-03,1.723104715347290039e-01
-4.500691223762262605e-02,-3.684811603542084146e-01,-4.261302599427384263e-02,-2.688421708562525794e-03,3.122015620068304548e-03,8.471826614821760353e-04,3.247595429420471191e-01
-3.777527491956865491e-02,-3.696930390648249798e-01,-3.865998402064925454e-02,-1.866276298119655961e-03,-2.082968391820206634e-03,1.050219264392682873e-04,3.315117359161376953e-01
-4.045761455181838551e-02,-3.395668695961284178e-01,-3.915447628858736984e-02,-1.866238166054423955e-02,-1.474415141052846587e-02,8.198037934433204457e-03,3.029133081436157227e-01
-4.780422862535289863e-02,-3.517162172407986009e-01,-1.364764510632909822e-02,2.864032884723600558e-04,-1.394698550485687404e-03,1.784098427593087911e-03,3.223746120929718018e-01
-4.593684579520367073e-02,-3.676850488833541264e-01,-5.377074158088822331e-02,-1.618069346936713707e-03,2.045263801177807546e-03,9.119211030580019642e-05,3.179357945919036865e-01
-3.254346351856846065e-02,-3.698867384136115266e-01,-3.472458364509829754e-02,9.722587508577395241e-04,-4.140994614509543349e-03,-8.039417176264955197e-04,3.363415896892547607e-01
-2.079796060262514845e-02,-3.723766579185806558e-01,-4.657839339353873898e-02,-1.746198572644059362e-03,6.540397787414466840e-04,3.888890750835591716e-04,3.394396007061004639e-01
-3.962080029925442448e-02,-3.702739983947810343e-01,-3.801094806780727642e-02,-1.165808341576814958e-03,-2.075625842442002222e-03,-3.528973369064953972e-04,3.314872682094573975e-01
-3.544638336341851548e-02,-3.690117779491191019e-01,-3.323008236943275628e-02,-9.878568494845977460e-04,-9.050717056134411796e-04,8.909542495350620823e-05,3.346871435642242432e-01
-4.196637258098168122e-02,-3.689635740610266446e-01,-4.156726914680883289e-02,-5.678886184825024169e-04,-1.894016852347044609e-03,2.389187297875673916e-04,3.272151350975036621e-01
-3.894718463190897928e-02,-3.691994822893178152e-01,-3.989382357331060225e-02,5.202632773084858286e-04,-7.323868842105905061e-04,-1.068493158631973012e-03,3.297888636589050293e-01
-3.792728009957697932e-02,-3.180264515908849399e-01,-4.628976587720522173e-02,3.084758383431275217e-02,1.666061162589331859e-02,-9.229540954554360521e-02,3.246935904026031494e-01
-2.062521971147877886e-02,-3.638611583338096089e-01,-3.816784347485054074e-02,1.135860134353442472e-03,2.148415967672681007e-03,1.593620208532337467e-03,3.348473310470581055e-01
-4.579864809749800703e-02,-3.492074383572220664e-01,-4.440809212554357177e-02,9.881516483858770669e-03,7.563086919339576802e-03,-2.862771150153789468e-02,3.088752329349517822e-01
-3.094655469792929881e-02,-3.711886424315919419e-01,-2.992157170470721717e-02,-2.569876379200996359e-04,-6.776216447648407979e-04,-8.259946501391582548e-04,3.407610654830932617e-01
-3.889944355643908114e-02,-3.685792179245225841e-01,-3.983968104752373673e-02,6.668604299299028988e-04,3.854039229052326878e-04,8.402264203376838374e-04,3.292165696620941162e-01
-2.870486576920559807e-02,-3.698256807255482226e-01,-3.594543945464866164e-02,3.167352538825516555e-04,-2.369960387789311462e-03,-1.273124105166748834e-03,3.375913798809051514e-01
-3.803054420111627587e-02,-3.075648896644317953e-01,-4.450936666111858508e-02,4.266476557480185922e-02,1.243646150004682621e-02,-4.039203227711578997e-02,2.859438061714172363e-01
-4.768647401290462828e-02,-3.685444327593397906e-01,-4.213825886765867890e-02,9.777725071263550314e-04,7.675334181898874143e-06,-7.902655863892709721e-04,3.236750662326812744e-01
-2.469715754594778434e-02,-3.981839011579931809e-01,-3.196774991409320754e-02,2.230226367202598620e-02,8.767941621523300507e-04,-4.174726344110901016e-02,3.788835108280181885e-01
-3.811331299436004905e-02,-3.818486322284427859e-01,-5.774565357470323734e-02,-4.895634378891386418e-03,6.578137562997563026e-03,3.548335023652615140e-03,3.347096741199493408e-01
-4.408766487286212843e-02,-3.808295806593229305e-01,-3.347301327200337406e-02,1.512007832249483152e-02,-1.391284728977148014e-02,-3.854494999379157183e-02,3.504366874694824219e-01
-3.354007546271742246e-02,-3.612725478001251322e-01,-2.262056467291985451e-02,4.494006738933249050e-04,2.339249817178013901e-03,5.304234188144169851e-04,3.333531916141510010e-01
-2.926945455050382339e-02,-3.666541690780231733e-01,-2.659076350879269190e-02,5.049553896137923660e-04,1.744354426079364542e-03,3.319959187492657615e-04,3.387470841407775879e-01
-4.084454324626528299e-02,-3.717170740361814829e-01,-4.837689960889587915e-02,8.155327764880291458e-04,-1.753955332037235131e-03,-8.666695553557512196e-04,3.271919786930084229e-01
-2.811404429295732976e-02,-3.655561329570150564e-01,-3.847067706011168819e-02,2.871823878233567811e-03,1.947262376046559077e-03,-3.806919393051990015e-04,3.324397802352905273e-01
-3.356037983025149385e-02,-3.618228468007078646e-01,-2.264703710827999095e-02,3.172097722221836505e-04,3.171457977399436048e-03,2.841090321079969253e-04,3.338989615440368652e-01
-3.183417304131662406e-02,-3.652121575639932782e-01,-2.588965097990329756e-02,-9.177347747707547332e-05,1.048540634713916340e-03,-8.649293282920952897e-04,3.363979160785675049e-01
-5.566575179612509583e-02,-3.719958004916179006e-01,-4.256256769374412718e-02,2.650840369309839014e-03,-4.191427749081592935e-03,2.894868656600237816e-03,3.232340514659881592e-01
-4.192228143359807979e-02,-3.722268544776322075e-01,-2.594251155776147733e-02,-1.613765640955851623e-03,2.788423794539834910e-03,-5.627495012271689460e-03,3.387636244297027588e-01
-4.040131840971575294e-02,-3.701129583357524178e-01,-4.127190252575130280e-02,1.053593304014291193e-03,-2.626539005231963301e-04,-2.662865685458242621e-03,3.293148875236511230e-01
-4.183852601777743319e-02,-3.761088601832039968e-01,-4.931899496085886958e-02,-8.174879825013813472e-04,-2.297830719683340538e-03,-9.318736720022624195e-03,3.310143053531646729e-01
-4.276986202090454769e-02,-3.685648736183935181e-01,-3.213120539335792558e-02,1.577128882561506639e-03,5.840959925692644885e-04,-1.463599474054149557e-04,3.312554061412811279e-01
-6.398664820596117186e-02,-1.829961146643959702e-01,-4.359732682766256223e-02,6.181069631950399969e-03,-8.703967972553213915e-04,4.337437753176978661e-02,1.508853882551193237e-01
-5.423100040416414802e-02,-6.128019437231181366e-01,-4.490232089882054134e-02,-7.608992962886738931e-02,-1.499399070091226790e-02,-6.123773940476433947e-02,5.887214541435241699e-01
-4.442010103464305582e-02,-3.644827041098865905e-01,-3.308178989458740449e-02,-1.716206114290471361e-04,2.837745295838790122e-03,-8.716442915381370339e-04,3.259204328060150146e-01
-4.072024572182773861e-02,-3.717424079275661875e-01,-2.097871950193384849e-02,-7.460038064340808288e-04,7.425789292877476959e-04,-2.000929770120141518e-02,3.430812060832977295e-01
-4.425991146151395106e-02,-3.567458629856971042e-01,-1.851798955888185605e-02,-1.262619565027944292e-02,5.268350400574199448e-03,-1.514039045402577194e-02,3.280294537544250488e-01
-4.556892867420515858e-02,-3.573963508563260394e-01,-3.924873006747343906e-02,-1.981358094691709759e-02,-3.745767095451881207e-04,-6.866704022712709354e-02,3.384830057621002197e-01
-7.313288180770287361e-02,-4.910722526798664833e-01,-2.378443149058556694e-02,-1.073469736487926707e-01,-9.698894183991934106e-03,-3.607572439443977597e-02,4.863023161888122559e-01
-1.279411078241068922e-02,-3.620860552231792151e-01,-4.789350168028473631e-02,-2.320475657018809378e-03,-1.035389812080003127e-03,-1.518080718720820482e-03,3.331713974475860596e-01
-1.125791873061474102e-02,-3.465594984229826148e-01,-5.016874732050982666e-02,1.447302533562575553e-03,1.308543762713697007e-03,-2.913173867239407695e-04,3.176570832729339600e-01
-4.881075568971371403e-02,-3.642947665349526298e-01,-4.846750628374300873e-02,4.270764179989673909e-05,-2.381029958296024714e-09,2.044277386381516189e-04,3.156559765338897705e-01
-3.587125457829835884e-02,-3.695251465182234352e-01,-3.391921262807835735e-02,-1.327271005679293717e-03,-2.761552724764286147e-04,5.932513740061776336e-04,3.346439898014068604e-01
-3.173915356875316174e-02,-3.698582984251155281e-01,-3.070820662376118337e-02,-1.035101093787935828e-03,-2.574834218214357411e-03,-7.299008100674900983e-04,3.386722803115844727e-01
-3.457915338052647281e-02,-3.701011071264047603e-01,-3.008464717529020505e-02,-1.073710950040702647e-03,-2.421827694673186690e-03,-3.633795249593038830e-04,3.378233909606933594e-01
-2.823801207748644071e-02,-3.709933020673138460e-01,-3.352688367715829509e-02,-4.234859185778373585e-04,-1.361316203294038723e-03,-3.969437809420258605e-04,3.401513397693634033e-01
-6.271537921926800818e-02,-3.698229051828469949e-01,-3.787907868771243913e-02,9.507280556888403344e-04,-2.969595221817559767e-03,2.674935243236309813e-03,3.203278481960296631e-01
-3.996454257750529926e-02,-3.677516767389785723e-01,-4.448216328379164808e-02,1.719695390658805252e-03,1.879893580390229346e-06,-4.407570098144666308e-05,3.255654573440551758e-01
-4.531926037629964432e-02,-3.655257070283320919e-01,-2.378785319709963986e-02,-1.501163769724204317e-03,-6.548121165708993682e-04,7.016982437170050761e-03,3.317318558692932129e-01
-3.184018504790048221e-02,-3.697554633678458158e-01,-3.041736864202659874e-02,-8.930743875661812910e-04,-3.708182114517919207e-04,3.320841729914512561e-04,3.386335670948028564e-01
-5.791612367483429946e-02,-1.242658367561324251e-01,-2.648865301852707660e-02,-3.515902951728845649e-02,-1.518832159320499149e-02,-4.796044884964267146e-02,1.370266973972320557e-01
-2.276747224430521188e-02,-3.611826971877482029e-01,-3.999428086321549225e-02,1.537216963660498290e-03,2.969234936805892257e-03,3.217310971481167348e-03,3.302368819713592529e-01
-3.061481569692542370e-02,-3.643747108021343495e-01,-2.212827441570995590e-02,-1.288296152448655072e-04,3.387400602811665214e-03,7.621495836846846209e-04,3.381366133689880371e-01
-3.987828195938995790e-02,-3.732894446846843350e-01,-4.046399518203087908e-02,1.771351841071117051e-03,-2.615715799719447033e-04,1.328035643823307580e-03,3.331410586833953857e-01
-4.499867652001698914e-02,-3.699522281163440951e-01,-4.208330586204574175e-02,2.395638654617938696e-03,7.467061232554442381e-04,2.729953515282675276e-03,3.264841735363006592e-01
-3.838809886818302097e-02,-3.387943696850120867e-01,-2.383468861361306979e-02,-1.831105252665752659e-03,7.665822367432665978e-03,-8.802573746727868076e-03,3.086202740669250488e-01
-4.688724038905463243e-02,-3.693001911870991139e-01,-4.723153332512121383e-02,9.025395044133791749e-04,-1.781448093825493311e-03,1.841565240296813349e-03,3.222752809524536133e-01
-3.231153483870560783e-02,-3.554133040948019850e-01,-3.385314524626127641e-02,3.720736553495275489e-02,-1.469330005228894342e-02,-4.556042609739024279e-02,3.390090465545654297e-01
-3.076046586755094847e-02,-3.691217191056364033e-01,-2.864459924981266337e-02,-3.016541702844309199e-04,-7.066311927475116272e-04,5.035414029691586205e-04,3.394278585910797119e-01
-9.194634090822634276e-03,-3.507465787257950662e-01,-5.082274814721984835e-02,1.174253493283967026e-04,-5.006581764800831138e-04,-1.232736121007525848e-05,3.227588236331939697e-01
-4.202921932506374636e-02,-3.729556823281140465e-01,-3.933315062098875770e-02,2.933919076229972531e-03,7.563820060233131378e-04,1.646284880403886108e-03,3.323363661766052246e-01
-4.291410500376194315e-02,-3.709280635153362482e-01,-4.181061472888369934e-02,2.254546086992262636e-04,-2.493336078719878999e-04,1.748132519888488494e-03,3.285815715789794922e-01
-3.472527445678619262e-02,-2.788636552545106784e-01,-4.771300042610057690e-02,-1.662495932716717695e-02,1.181950990025787233e-02,-1.079487673423143793e-02,2.412452846765518188e-01
-5.535981479744318812e-02,-3.360677123947121148e-01,-5.596605515835774425e-02,-4.705625041773697781e-02,1.465563924367286946e-03,-5.583842806106048551e-02,3.076202571392059326e-01
-3.790406700377337013e-02,-3.682601229359832029e-01,-3.695544930400736228e-02,2.119823947575857686e-04,3.575816842509747730e-04,-8.722189578263646803e-04,3.308356106281280518e-01
-3.374463528847226890e-02,-2.744398128160098205e-01,-4.771115834794445454e-02,-1.248338435972335889e-02,1.137794796313071170e-02,-9.375310493838049861e-03,2.364045828580856323e-01
-3.483627825856466798e-02,-3.144099056034787010e-01,-3.134756490410031682e-02,-2.986280765528515416e-02,2.018333711328619898e-02,-3.685776660148836620e-02,2.951641678810119629e-01
-4.475279959821294729e-02,-3.660592240043012424e-01,-4.968768302082410271e-02,-9.642886395011215396e-04,7.696081992160690643e-04,-9.083600347912490752e-04,3.188786804676055908e-01
-3.878967467651457668e-02,-3.734084184143317553e-01,-3.035949291712206066e-02,-3.709484063282066091e-04,5.725269985046554586e-03,-1.721547530256060336e-03,3.390712440013885498e-01
-3.593968745424733213e-02,-3.695225040269307093e-01,-3.475228670079429094e-02,8.979913929689912686e-03,1.849172767677990242e-03,1.470452206647386833e-03,3.345648944377899170e-01
-3.626271559496256625e-02,-3.063933716456653245e-01,-3.486086146611033776e-02,-1.556146129267620658e-02,1.251319144417088747e-02,-9.362675351733186838e-03,2.735149264335632324e-01
-3.488013801858330654e-02,-3.770297284502045487e-01,-3.247267036645858085e-02,4.470834661445666062e-04,1.083920588970483214e-03,1.521044028353939139e-04,3.433657586574554443e-01
-3.629033214057866830e-02,-3.751811365485286931e-01,-2.881254407256642058e-02,3.445362160430140409e-04,1.962702390215796070e-03,-4.418315267197394985e-04,3.427091240882873535e-01
-3.399532939261823428e-02,-3.762792042947853965e-01,-3.213414634490302513e-02,1.341410215262447102e-04,3.400653079667294038e-03,5.704464039639820091e-04,3.432703018188476562e-01
-4.575762967400887060e-02,-3.471530731658075686e-01,-1.724109842821178185e-02,3.051966884143141219e-03,-5.802652745805602329e-03,-4.612148325922824262e-03,3.169226050376892090e-01
-4.281461634404763739e-02,-3.603330552258956487e-01,-2.011238829022556074e-02,3.852531994805890626e-04,-2.223753714857190124e-03,-1.541652898897175083e-04,3.294800221920013428e-01
-2.693791041616702686e-02,-3.693102011117814776e-01,-3.373842160096852949e-02,-1.759769347326731778e-04,-1.198278000520810495e-03,-1.414324690973149147e-03,3.390385210514068604e-01
-4.483920546326838896e-02,-3.599196761823223456e-01,-1.598824623749683926e-02,-1.007259428285181557e-03,-1.200106707554314447e-03,-1.634176228308784843e-03,3.304751515388488770e-01
-6.414990170687306925e-02,-1.764468126103502787e-01,-7.023914671599551518e-02,-5.167471375689614487e-04,-1.694039105333545753e-03,1.937560286282473052e-03,1.094739437103271484e-01
-4.281010584826480669e-02,-3.650920281433912562e-01,-1.822801658860115359e-02,-3.966812945036180720e-04,-2.362182528523488426e-03,-9.807319134449087820e-04,3.352795541286468506e-01
-1.882586041025897938e-02,-3.155741650319561220e-01,-4.710513888711365116e-02,7.523112042425669083e-03,1.018388035025262657e-02,7.500559858495016788e-03,2.848107218742370605e-01
-3.029080831412961361e-02,-2.973093442020260380e-01,-4.134540165466173145e-02,1.875103000408501544e-02,1.345626625401511942e-02,1.219900621089794286e-03,2.647107839584350586e-01
-3.990477784308245346e-02,-3.722478404340400782e-01,-5.667359136023146504e-02,-4.771874096473893018e-02,8.996963553731229454e-03,3.636205562201472868e-02,3.408823311328887939e-01
-3.153315726286090581e-02,-3.080982719243819945e-01,-3.680149546135018379e-02,1.631403993027882512e-02,1.519671057969620813e-02,1.718987001459507807e-02,2.782745361328125000e-01
-3.366105605800223666e-02,-3.130090719148848066e-01,-3.400201905584779305e-02,9.479114483761898885e-03,1.458408003168904996e-02,6.415699395171075084e-03,2.810183465480804443e-01
-2.199937755485688318e-02,-3.341616539939680219e-01,-4.053730685584130966e-02,6.355427563689564074e-03,9.773021965096141683e-03,2.912561170663624435e-03,3.040316700935363770e-01
-3.334393702605460696e-02,-3.705925951191202383e-01,-3.133331179001756783e-02,4.648950677207780414e-04,2.306008097911848675e-04,-6.698183501858930630e-04,3.382616341114044189e-01
-6.946025178387287002e-02,-4.457009835009910770e-01,-2.617224959689198882e-02,9.759021450552494287e-03,1.254115636636818007e-02,-4.604101717586564155e-03,4.006729423999786377e-01
-5.998073542590909302e-02,-3.949359312580537074e-01,-3.244343123836251896e-02,2.215167755993116550e-02,2.223546103567978919e-04,-8.432620780562644081e-03,3.519411981105804443e-01
-7.758930247728593188e-02,-4.037094995978392498e-01,-2.503506162017152259e-02,-1.277466678176628295e-04,8.301039026849883068e-03,-4.970373688765190867e-03,3.557192981243133545e-01
-7.287495531409156346e-02,-3.854825165241198004e-01,-2.809273412073690079e-02,2.013574767684162079e-03,4.412685852218313672e-03,-2.859257549274955412e-03,3.373771011829376221e-01
-2.935702764103186035e-02,-3.672580049620846054e-01,-2.836876136940820470e-02,-3.459917938203680289e-04,4.073003764881433751e-04,-5.476608196122660210e-04,3.383987843990325928e-01
-2.918742668392622364e-02,-3.655978166173206034e-01,-2.859143502665777159e-02,-3.199340886855126724e-04,2.195081283005072704e-03,-5.186622866279915937e-05,3.367307186126708984e-01
-2.677571752292176588e-02,-3.659642306241379650e-01,-2.858694597925415248e-02,1.858287185614361948e-06,1.573810088951147369e-03,4.137274833116655012e-04,3.382982909679412842e-01
-4.645065956554156328e-02,-5.776877666427910896e-01,-6.940335298226404936e-02,-6.564005140550691064e-02,-2.219905100993355487e-02,-7.086938894923115739e-02,5.477390289306640625e-01
-2.685066993659415702e-02,-3.669496612017498771e-01,-2.866998866216814712e-02,4.192543946637497412e-04,1.499345260718000158e-03,4.963604105307081130e-04,3.392047882080078125e-01
-4.695733298065907224e-02,-3.676765934888482912e-01,-4.717669709246075094e-02,1.240392388709837422e-03,2.343419192507651056e-04,-1.310278435926199225e-03,3.206251263618469238e-01
-4.194383037622957666e-02,-3.686652027783078323e-01,-4.561112839347936099e-02,1.350031172531561104e-03,-4.433740753321775761e-04,-7.811786972070632355e-04,3.249153792858123779e-01
-4.409737216227581358e-02,-3.680837064201454290e-01,-4.545821218128148766e-02,-6.562634822532198084e-04,1.928769389558750375e-03,-1.179342627273457025e-03,3.233337700366973877e-01
-4.068153365697597945e-02,-3.693143575317924809e-01,-4.194728052487904646e-02,1.297905425705363127e-03,2.900990824363190983e-04,-1.321431144179454481e-03,3.280178606510162354e-01
-2.769914408816645524e-02,-3.682895679591483007e-01,-2.818424059628518719e-02,1.811595493291829739e-03,-5.493455371142109619e-03,-1.715070285929349821e-03,3.405085206031799316e-01
-1.584851010606469490e-02,-3.615768224140817888e-01,-4.714412949155301347e-02,-1.094166391762305254e-03,-4.491163047848082865e-04,-4.343728789045188062e-04,3.311985135078430176e-01
-2.606280153175709324e-02,-3.634807756355630803e-01,-4.357389638125809539e-02,-3.427395900318583864e-04,-7.793053039242828694e-04,-7.587747320121257565e-04,3.290180265903472900e-01
-3.675241013209475105e-02,-3.637500866757686357e-01,-2.423051869346853904e-02,2.875829628650306393e-04,-2.159095860200148723e-03,-9.520756322243419242e-04,3.334604203701019287e-01
-4.024016746759837004e-02,-3.697675967051908263e-01,-3.926417662467934777e-02,-3.585962687972025207e-04,-5.680889842068889608e-04,-1.378481252939120797e-03,3.300271928310394287e-01
-3.522034858158097637e-02,-3.697250078048782695e-01,-2.780997777740243371e-02,-5.374740010423344292e-04,-1.144116377214502399e-03,6.958694966588596566e-04,3.382799625396728516e-01
-3.689037822271638845e-02,-3.663835759747890997e-01,-2.394178913716818458e-02,-5.398066153823609424e-04,-3.252013215998519197e-03,-7.643610442315726644e-05,3.362030982971191406e-01
-5.695038474086130953e-02,-3.244815547554190105e-01,-2.154919109218285389e-02,3.412244174347397237e-03,2.330505676692782614e-03,-1.005627812455243963e-02,2.874920964241027832e-01
-5.161465948123920844e-02,-3.721803986789127272e-01,-4.556545089338417953e-02,-2.463683509986323069e-03,4.832776344179951465e-03,1.287158491928495170e-03,3.237767815589904785e-01
-5.006721620223354707e-02,-3.525523302139095816e-01,-1.382802617796408118e-02,-5.136229444688513628e-04,2.577980616659697813e-03,-7.942028084315507983e-03,3.224628567695617676e-01
-4.271040747085882994e-02,-3.209550508991680928e-01,-2.099664053080596560e-02,-3.837388325121223517e-03,6.418135250673581010e-03,-1.175599241804546786e-02,2.907157838344573975e-01
-4.641018338230683271e-02,-3.645361056842778558e-01,-2.251314224901368455e-02,-2.277572198788969937e-03,6.944804895177981822e-03,-1.302909857807240529e-02,3.317332863807678223e-01
-5.612846813761791093e-02,-2.436638506038202590e-01,-4.946704248312981667e-02,-2.039596051353551737e-02,2.188319560537014359e-04,-5.658812648392381323e-02,2.175268381834030151e-01
-1.415531622254065369e-02,-3.497713766982445405e-01,-4.917014583009370055e-02,-5.750343661114281149e-03,-2.150693448343225789e-03,-1.281328197702699895e-03,3.197352588176727295e-01
-5.602682165815258547e-02,-2.027837271439074662e-01,-4.597548029254601432e-02,-3.459012412361727601e-02,2.204989556825928763e-03,-5.796980548016226337e-02,1.918312609195709229e-01
-6.602848398947094855e-02,-2.495252282594681015e-01,-3.692189698907279161e-02,3.475487469552224554e-03,-5.940301751944039414e-03,-2.619433843386292926e-02,2.050847113132476807e-01
-6.852422842743349785e-02,-1.965612907651084484e-01,-6.390343820870082736e-02,6.716002584352096655e-03,-4.165316062916727020e-03,-1.955551895612714017e-02,1.354292929172515869e-01
-6.337451278891848006e-02,-2.090494162899787511e-01,-6.036623785327872860e-02,6.422406800449522932e-03,-1.047974191360372294e-02,-7.108427178969756177e-02,1.930818408727645874e-01
-6.198172380277870708e-02,-1.322575184673140392e-01,-5.703115880358225476e-02,7.868669661136857077e-03,-4.332484661708851936e-03,-2.382708888287665347e-02,8.518420904874801636e-02
-5.339636864060923194e-02,-3.659655440732396126e-01,-4.558773722833303621e-02,-6.126899993703434529e-04,2.338471277589097928e-03,4.043867666010155372e-04,3.165741860866546631e-01
-2.135471518747755759e-02,-3.679912000723203902e-01,-4.752131246079076277e-02,2.217323023843780286e-02,2.187706470812674203e-03,1.396183549584622445e-03,3.365507423877716064e-01
-2.898408680119773928e-02,-3.714840466560879184e-01,-3.255736520233415421e-02,-7.116331578575283540e-05,-6.372926621315712749e-04,5.384890809712356442e-04,3.407304584980010986e-01
-2.791312475032145524e-02,-3.700813662718713815e-01,-3.230423084521774624e-02,-4.058109304355047306e-04,-1.225078754497664103e-03,1.291971183318530001e-04,3.400013744831085205e-01
-7.133424288846079708e-02,-3.780121954247033234e-01,-3.513155334816228659e-02,5.590328059746148444e-03,-9.973106990145799364e-03,-9.953442516155959019e-05,3.268894851207733154e-01
-5.356539706482285612e-02,-3.689045237245727749e-01,-4.325791475910466255e-02,1.501468329323717653e-04,1.685336156491612373e-03,1.024141310706390689e-04,3.206306099891662598e-01
-6.385366990891706840e-02,-3.784624889719070961e-01,-3.970478872375353407e-02,1.533076879653188888e-02,-8.362384149476194059e-03,2.944857270970317308e-03,3.287859857082366943e-01
-4.952254546499029741e-02,-3.646124295712018792e-01,-4.734384755567180858e-02,-1.033643482846282647e-04,1.192566236125129370e-03,-5.822324932121021731e-05,3.161916732788085938e-01
-6.595455376716406748e-02,-3.796238641206566289e-01,-3.720847881350412834e-02,-2.372167534407674909e-03,-3.872304174032392254e-03,-1.606133337803224235e-03,3.290913701057434082e-01
-4.879421603783015704e-02,-3.827028594560179520e-01,-3.988971579142752688e-02,7.490263119185668972e-04,1.208184643363635971e-03,2.170054106560225741e-03,3.384785950183868408e-01
-4.788273077666289901e-02,-3.721730979624069402e-01,-4.095309345509517973e-02,5.573649582304474352e-04,-6.061266881034674519e-04,4.187805389612762690e-04,3.278140425682067871e-01
-5.053828946534687228e-02,-1.708415654399078887e-01,-4.498127999973580704e-02,-2.863402057160059286e-02,8.223256875361054444e-03,8.013288929498990631e-02,1.926102638244628906e-01
-4.661267131912172346e-02,-3.686787489375266125e-01,-3.884305992381037465e-02,5.494975703158221569e-04,2.653219635342698220e-03,-2.695697998999471083e-04,3.260544240474700928e-01
-4.705456512728986573e-02,-3.648107937304112536e-01,-4.925491099626599922e-02,2.413291339170400612e-04,1.157857695345055390e-03,7.308874444719380659e-05,3.166684508323669434e-01
-4.722376577622267035e-02,-3.663565361615951366e-01,-4.609615149670762135e-02,-5.303377815595640031e-04,-9.289222282813626048e-06,1.183422586328780612e-03,3.197059631347656250e-01
-4.245262251980261303e-02,-3.682736625041893586e-01,-3.935042842633984517e-02,-1.510160486079297230e-03,-5.577962755497159085e-04,1.282106954411807703e-03,3.274025619029998779e-01
-2.934689187653904963e-02,-3.659202933816331771e-01,-3.141072708474645925e-02,-1.143364106365392851e-03,-4.798121605424084807e-03,1.447491845297491260e-05,3.356549739837646484e-01
-4.582846541731547263e-02,-3.679688922742839763e-01,-4.521019661068119422e-02,-9.247217553551791060e-04,1.185328497981835271e-03,-6.560698010078291941e-04,3.224625289440155029e-01
-4.729510585978946580e-02,-3.702460369967045528e-01,-4.186405095607842464e-02,1.844348067268546847e-03,-1.293443812806882370e-03,2.772100831577600615e-03,3.257591724395751953e-01
-3.728580326230833408e-02,-3.721004014448523467e-01,-3.719980989586715858e-02,2.630327762462810349e-03,6.143266946781818401e-04,2.314345541600407088e-03,3.349142670631408691e-01
-4.135630507475576700e-02,-3.722979667623723121e-01,-4.449418739667618250e-02,2.614407844450037256e-03,1.899875832027937304e-03,-8.406219132155884908e-04,3.294347226619720459e-01
-4.125304763334575187e-02,-3.725890009363784783e-01,-3.970649648143864674e-02,2.988700683561650809e-03,-7.354092083891002659e-04,1.535115006278311295e-03,3.321653604507446289e-01
-4.547289837867517226e-02,-3.675489422597664757e-01,-4.553978773887143450e-02,-8.121856196562385289e-04,-8.856708245630024812e-04,-5.891376940459472675e-05,3.220493495464324951e-01
-4.244114116654942870e-02,-3.675729698080928420e-01,-4.112806780158169417e-02,-9.912341690376186634e-04,4.066700931854808510e-04,-1.116483963582021394e-03,3.258013725280761719e-01
-2.575890909908755411e-02,-3.709921712713649677e-01,-3.892830018541224013e-02,-7.225158880305400161e-04,7.499273900931144451e-04,1.093488833020122165e-03,3.388506472110748291e-01
-3.600422168846566240e-02,-3.690946501239684707e-01,-3.478157323866321038e-02,7.166756327733634973e-04,-1.145439210836810299e-03,3.603062780169023218e-04,3.337122201919555664e-01
-4.854436679680054767e-02,-3.680756193239973495e-01,-5.552575913527803275e-02,2.185884283224129396e-03,-3.293217134251745330e-03,1.657130955658495629e-03,3.161855340003967285e-01
-5.704678993053323433e-02,-3.724749928667724364e-01,-5.204401433822859746e-02,-4.919955795561949271e-05,-1.191066773309921306e-02,1.312997107438579943e-03,3.186357915401458740e-01
-2.749691592110042881e-02,-3.700443929469956483e-01,-3.173736905868616842e-02,2.820796053347559207e-04,-8.769931238518140692e-04,4.663795538672696460e-06,3.404507935047149658e-01
-4.672456863970271546e-02,-3.690395972827407167e-01,-5.279304550552710307e-02,2.613036413557697207e-03,-5.610273089015268937e-03,4.676353540459905951e-04,3.195049464702606201e-01
-4.978351717006601618e-02,-4.351495458169662989e-01,-4.634226888640338715e-02,-1.966180936225977918e-03,-9.314740209256265266e-03,2.041253241494693418e-03,3.874652981758117676e-01
-4.962213779574300987e-02,-4.219553155020709378e-01,-5.643837822066613552e-02,-4.163036716402720300e-02,-2.425361506740757525e-02,-4.234161272239572033e-02,3.853348493576049805e-01
-4.833600734913136299e-02,-4.183953582738251242e-01,-4.573065524392413983e-02,-1.127226407086956948e-02,-7.939448707607842104e-03,8.055752656423153255e-04,3.721385300159454346e-01
-5.098353882667115700e-02,-3.752415229310774869e-01,-4.223298467555031133e-02,5.021441684868745668e-03,-8.477447172797126368e-03,3.239672031078883688e-03,3.292111456394195557e-01
-4.316518629584230327e-02,-3.667989373364842765e-01,-4.833849163079922961e-02,-2.163001629546665240e-04,2.266145557078923147e-03,-1.695373000236729058e-03,3.211160004138946533e-01
-4.893721971485706645e-02,-1.580194998807906148e-01,-5.646981237456611541e-02,-1.683795662915857924e-03,9.432893581164123256e-03,1.046202458533709856e-01,2.103464901447296143e-01
-3.510479908335292776e-02,-3.832436841896303403e-01,-3.986710636860957280e-02,-1.526566051051646625e-02,1.026514125549874215e-02,-3.341539547965288737e-02,3.520375192165374756e-01
-5.184289580274753506e-02,-3.840062540601864027e-01,-4.076728197178568214e-02,2.986236814563921708e-03,-8.064416985125787835e-03,1.573860557884968099e-03,3.381765186786651611e-01
-4.617118421861196587e-02,-3.672165668410308781e-01,-1.863012462333712982e-02,-5.923892359701548975e-04,2.394412563970384558e-03,-1.657829700614007551e-03,3.357038497924804688e-01
-4.917960691677443485e-02,-3.552282061519479450e-01,-1.622471475390134532e-02,8.405741122368287101e-05,3.374399079980214874e-03,-4.466584989383019094e-03,3.239314854145050049e-01
-4.875497479505816467e-02,-3.597184460560508557e-01,-1.335253195782809543e-02,-3.102350882396833691e-04,8.169891883897795323e-04,1.981873490322208281e-04,3.300952613353729248e-01
-2.846562057623978903e-02,-3.699235056683837786e-01,-2.995880137200057636e-02,3.121527583088953340e-04,-4.969621264765539375e-04,-4.850340866760021418e-05,3.407152891159057617e-01
-4.731049912825427417e-02,-3.693531153653266674e-01,-1.901886827063239971e-02,-3.929183233886981660e-04,5.783184444834393954e-04,-3.607317605992005349e-03,3.371401429176330566e-01
-1.716106444743814574e-02,-3.690090404428748583e-01,-4.558052564149539521e-02,-1.691538232984226772e-03,1.777169387628835815e-03,-2.779010761738141041e-04,3.385611176490783691e-01
-2.306128874093937853e-02,-3.699561598053915379e-01,-4.108645058558497987e-02,-8.725499083596529280e-05,3.335163758928582668e-03,2.744066875849559737e-04,3.382923901081085205e-01
-1.917798120725826283e-02,-3.624108454886391106e-01,-4.334128440826211237e-02,-4.695520605460498480e-03,5.345680144926623009e-03,6.698419757960401202e-04,3.320425450801849365e-01
-3.607123597541228577e-02,-3.699366050622731050e-01,-3.897107668430208061e-02,1.343739083969974248e-03,-2.356431652929993903e-03,-1.336388056721153151e-03,3.324661850929260254e-01
-4.675314850986427018e-02,-3.700469723316163750e-01,-4.184357214525410984e-02,-3.366701299460329085e-03,1.621693306569789309e-03,-2.713130950771955752e-03,3.258745372295379639e-01
-4.182879951992798939e-02,-3.694143942394713664e-01,-3.956711271957269460e-02,5.160860655707371047e-05,-6.183837995641865799e-04,-7.438808076943706276e-04,3.287265598773956299e-01
-2.146535608104610526e-02,-3.773354075347048475e-01,-4.081749342542097259e-02,-1.102119621179692942e-02,2.626376635186413160e-03,-5.065119783418490541e-03,3.472653329372406006e-01
-3.528575384165237583e-02,-3.696632731390861459e-01,-3.515637071585993312e-02,-1.122839761595173687e-03,-4.867727329612962111e-04,-6.559674563797524872e-04,3.344508707523345947e-01
-3.556933483930869999e-02,-3.693962112678942367e-01,-3.726101312318153003e-02,-1.634160552423366336e-04,-1.309519292414052048e-03,9.013821809300809730e-04,3.329957723617553711e-01
-4.938076953408311598e-02,-3.188608160618767728e-01,-1.604076483940812536e-02,-1.606512373006829027e-03,-4.370805652026837212e-03,7.440181097497460330e-03,2.880045771598815918e-01
-4.323270270983169128e-02,-3.687488025723349994e-01,-4.471769522988904011e-02,9.679269935560957158e-04,9.844161311183083785e-04,-2.301086083855601212e-03,3.248094022274017334e-01
-3.347846970012301193e-02,-3.577798786050110924e-01,-2.756217267730634579e-02,-2.074439959982832780e-03,-7.471632785937124162e-03,3.501764178095562153e-04,3.275756835937500000e-01
-4.306514500015425073e-02,-3.680956615705778256e-01,-4.416898125435536615e-02,-1.122704566488865992e-03,-8.411703718722088330e-04,-1.372704481150122981e-03,3.244978189468383789e-01
-4.546962517584082764e-02,-3.669403555818751550e-01,-4.759524267108469764e-02,1.036088962682144834e-03,5.371293917909342359e-04,-1.106802984614869935e-03,3.204253315925598145e-01
-3.206828863119791373e-02,-3.250753327891356403e-01,-3.818236211345031605e-02,-1.271126951270461561e-02,-1.155968963328850123e-02,1.359278269141500108e-02,2.924704253673553467e-01
-4.309567265042646422e-02,-3.325440526623473780e-01,-3.610620634276888452e-02,-8.452922518678710959e-03,-1.467733751329140801e-02,1.782741061011653902e-02,2.960850894451141357e-01
-3.064726172331017073e-02,-3.701287318120327630e-01,-4.120782584173347807e-02,-2.800309554448739916e-03,-1.435619428940646414e-03,-2.780025312975218862e-03,3.344053924083709717e-01
-6.248682245058712059e-02,-2.843108873286283034e-01,-1.990770922491398587e-02,-8.899610996861847048e-03,-7.885389090246578900e-03,3.382646065069219721e-02,2.536154687404632568e-01
-5.745111644057650235e-02,-3.219153834592826113e-01,-1.600400275681516937e-02,-8.252291232416178457e-03,-3.814358985093714832e-03,9.540103424891045389e-03,2.883426547050476074e-01
-3.976325493650824383e-02,-2.931520867416878007e-01,-3.449209360893526477e-02,-1.029084556302477423e-02,-1.367260347130251977e-02,1.380040670961216014e-02,2.588807046413421631e-01
-2.606487681689617641e-02,-3.731347159125828483e-01,-3.910047710732227066e-02,-1.322615551613406503e-03,1.175889573696939404e-03,1.862233351814561238e-03,3.407681584358215332e-01
-5.203703882711650797e-02,-2.733914525552848529e-01,-3.046203836758336336e-02,-8.641177022643859330e-04,-1.076556521030235837e-02,2.348098660808173657e-02,2.371560335159301758e-01
-4.206854482199946788e-02,-3.498510643633239159e-01,-3.032426681696258342e-02,-6.048623508838742342e-03,-1.131908111178852455e-02,1.493448091334750351e-02,3.156674206256866455e-01
-5.615970393897765089e-02,-3.026265923451233464e-01,-2.527893714837432804e-02,-1.999361286165251498e-03,-7.190108479611739822e-03,1.217655315720698713e-03,2.635947167873382568e-01
-4.597256748685427108e-02,-3.031907010687065473e-01,-4.017654305115464508e-02,4.669833074546297924e-02,-1.769919180681898269e-02,-3.556388435234847378e-02,2.810017168521881104e-01
-3.638791287027282051e-02,-3.246598135498918736e-01,-3.385833299254621676e-02,2.461676411376067033e-02,-1.872348414371071551e-02,-4.890827625407178497e-02,3.064017295837402344e-01
-2.974117038141001201e-02,-3.680886912971021996e-01,-3.066228468047145495e-02,-1.006048143808111308e-03,-3.095549685078447053e-03,1.295346870804164842e-03,3.379423916339874268e-01
-5.202121268330464621e-02,-3.702730580879510791e-01,-2.877914254406913064e-02,-8.010625227210594473e-03,-1.090882650344607123e-02,-5.652937861270486419e-02,3.454815447330474854e-01
-4.426091679914212484e-02,-3.723847869396237353e-01,-3.195423308933387219e-02,-1.408651759985825053e-03,-7.019535004354961194e-03,-4.846273021465491437e-02,3.450427949428558350e-01
-2.846085376673140876e-02,-3.698396530702695029e-01,-3.005441458869954896e-02,6.580440529171775743e-04,-8.534381745996245635e-04,-4.132448216636605754e-05,3.405899405479431152e-01
-5.233859703975923816e-02,-4.659838839224993839e-02,-4.080664299867470257e-02,-6.740827758868118318e-04,-2.143547461617619117e-03,2.758927381085246600e-02,4.897337779402732849e-02
-4.595247775946960378e-02,-2.858726547063711321e-01,-4.414076815924326824e-02,1.717192457870585177e-03,-1.265116589102017325e-02,-1.267258759670271927e-02,2.428382635116577148e-01
-4.053233402383740747e-02,-3.264281537245117271e-01,-2.128472589154631334e-02,8.400339991787824766e-04,-1.006420617976266051e-02,-1.297764079654648017e-02,2.973565757274627686e-01
-3.778554180759449710e-02,-2.896497841747620594e-01,-4.194645155309821571e-02,9.481471078950842388e-03,-1.679826187132942711e-02,-1.724460911412656686e-02,2.537977397441864014e-01
-1.970885851286344193e-02,-3.649048912144026158e-01,-4.015607112945984714e-02,1.742556577925032514e-04,-1.602860527616264920e-03,-2.109420705213221892e-03,3.354716598987579346e-01
-2.996180826238198369e-02,-3.700218084879086100e-01,-3.153143851504540407e-02,3.812111421446990125e-04,-3.182295173409868411e-04,-1.070478271828518169e-03,3.392840623855590820e-01
-4.854568392876859595e-02,-3.669564634824957761e-01,-4.940503786393586616e-02,-1.340973689133793294e-03,2.910940573451634150e-03,1.062258613895351173e-03,3.180357515811920166e-01
-4.713292666928123320e-02,-3.664616616130474958e-01,-4.739560296741418544e-02,-1.122859758265000408e-03,1.612625535716343808e-03,1.294323555112928065e-03,3.192234933376312256e-01
-4.693187008611307554e-02,-3.661605779654523163e-01,-4.532842248252993977e-02,-1.253054036228214629e-03,3.324801478113328500e-04,9.851689463238868984e-04,3.200458586215972900e-01
-4.709214841503318871e-02,-3.662574482598284775e-01,-4.602924710134170816e-02,-1.095824334566537252e-03,-6.967713875877973881e-05,1.128524915028786572e-03,3.197097182273864746e-01
-3.420385104367410639e-02,-1.926921489594742853e-01,-2.669573838858281534e-02,5.597853755004014026e-02,-1.786529276002682756e-02,6.344755403990828824e-02,2.209070622920989990e-01
-4.889538585325091391e-02,-3.652741450239393450e-01,-4.957178549218184405e-02,-4.678211939761163030e-04,3.370319179122286540e-04,-3.418811513864007993e-04,3.160432279109954834e-01
-4.116437514879538184e-02,-3.680719532880387668e-01,-3.847191758087196989e-02,-1.085123516126961169e-03,-6.068621255728527935e-04,-3.796540066325960507e-04,3.282698094844818115e-01
-3.846755230648585266e-02,-3.687198585387454486e-01,-3.811558901898629004e-02,6.689317768775188003e-05,2.266093353752990228e-04,3.344683581888490071e-04,3.304291963577270508e-01
-5.663399748024969260e-02,-5.547390977253014999e-01,-5.109513460212444791e-02,8.154672201713666913e-02,1.558925721226569854e-02,-9.105422066289135807e-02,5.444718599319458008e-01
-3.923342370068828855e-02,-3.689040768421985583e-01,-3.754217493674533168e-02,9.436315540919155845e-04,-6.044036564462600819e-04,-1.299362056472008037e-04,3.305253088474273682e-01
-4.792940341637784429e-02,-3.643582664883480149e-01,-1.552685197057257493e-02,4.779723510937409098e-05,3.291782394065250524e-04,-1.351948669636967139e-03,3.338204026222229004e-01
-3.794800254915108029e-02,-3.698237682936064141e-01,-3.310477174332174255e-02,1.384707308572763311e-04,-4.678546689856421343e-04,2.469608861135548267e-04,3.343250453472137451e-01
-3.916498180609610802e-02,-3.698467190019034678e-01,-3.563451101000021659e-02,-6.057290737195224033e-04,-2.150192607758593007e-03,-1.017085927245793423e-03,3.324882090091705322e-01
-5.665270779380894572e-02,-3.827433516249263423e-01,-5.437171505473904765e-02,-1.559191232702609054e-03,1.688928391397429007e-02,-1.491455251743193820e-03,3.285632729530334473e-01
-2.755726631183916253e-02,-4.077051429757946321e-01,-5.308297140384259094e-02,-1.343773680573860652e-02,7.925530107455093509e-03,3.040632938599470859e-03,3.690776526927947998e-01
-3.055234357727612537e-02,-3.668538778528250832e-01,-3.844920964935094609e-02,4.688222877428361007e-04,6.251259864484897191e-03,7.912743830904890325e-04,3.326035439968109131e-01
-4.614401418468482008e-02,-3.641926047350067530e-01,-3.436457393746181199e-02,-4.493835651550753124e-02,7.664351095083768569e-04,3.592362119368005396e-02,3.390748500823974609e-01
-3.567368295905240516e-02,-3.672096238405875290e-01,-3.765507662730348259e-02,-1.728235596682057423e-02,-5.741370143216363879e-04,1.514439217583089456e-02,3.329387307167053223e-01
-4.452825392878723143e-02,-3.000668439348841421e-01,-2.764406554714009256e-02,8.335601831342336976e-04,1.185663421139180815e-02,2.946607383919276971e-03,2.652347683906555176e-01
-3.198555614359144261e-02,-3.757173359381570377e-01,-7.941622864839323337e-02,4.762195760629385911e-05,-3.232578698698973518e-03,2.997036282167855285e-03,3.227322101593017578e-01
-5.267458512527684045e-02,-3.655843064727807845e-01,-4.465325965754834980e-02,-7.810962354273237444e-05,1.597116947960216821e-03,-3.392109656845579803e-04,3.170091509819030762e-01
-3.743272359602690946e-02,-3.968526032555675376e-01,-4.929051157136109251e-02,-1.194930126270782322e-02,1.790157990653644523e-03,1.424733399351479912e-02,3.551172614097595215e-01
-3.507573231217210596e-02,-3.740205781756608117e-01,-3.955271824900248590e-02,-3.837042207644823896e-04,2.303706782595631836e-04,1.998520456239257902e-03,3.367473483085632324e-01
-5.465707939623552780e-02,-2.871727224378545218e-01,-2.972753301298099171e-02,-4.205907717821266018e-03,-9.360602230796304796e-03,1.949725970398060587e-02,2.488732188940048218e-01
-3.528429288069324932e-02,-3.556037082025073071e-01,-4.377472613696629933e-02,-1.984875761445875283e-02,1.382258860573599936e-03,1.820789469625105558e-02,3.195922374725341797e-01
-5.295123742360657859e-02,-2.405311421677638617e-01,-4.648699419855674420e-02,-3.727525079855317780e-02,-2.019473497668856227e-02,2.821977767834888545e-02,2.102889716625213623e-01
-1.851679829953251089e-02,-3.644872129564454832e-01,-4.748698750768751142e-02,7.556965902271215764e-03,1.671498797790347884e-03,-1.867208185713282401e-03,3.327192962169647217e-01
-4.414395459372429109e-02,-3.730038395747287128e-01,-3.905741085791976375e-02,2.781902957668911779e-03,7.412067880302169315e-04,-9.535092966688247683e-04,3.314740657806396484e-01
-5.613523333795022996e-02,-1.835265902734509180e-01,-6.521662090635693687e-02,2.819327405694356200e-04,-3.178348614380800252e-03,3.708155758768515772e-03,1.233934164047241211e-01
-3.387505168627095997e-02,-3.699450436880991622e-01,-3.792033228008900858e-02,-6.463379925641995344e-04,-2.237383204582570409e-03,-1.321199396147815404e-03,3.340979218482971191e-01
-5.744665020782475234e-02,-2.160901736305386178e-01,-6.057111809957067827e-02,-1.866466031550857718e-02,-7.616108240202586026e-03,2.043851874037169031e-02,1.647852361202239990e-01
-6.621210953825290568e-02,-3.725621794551512433e-01,-3.396298140200587623e-02,3.902698187099552449e-03,1.773834892918360953e-03,1.075417527301638070e-03,3.237722814083099365e-01
-3.938757467076683949e-02,-3.712145136767316389e-01,-4.342061749556004602e-02,4.883553031240753153e-04,3.392898500814269056e-04,4.579137302739488477e-03,3.299258649349212646e-01
-1.920399237338821230e-02,-3.557077760351481377e-01,-4.794639742966032292e-02,-7.089769902284855443e-03,-4.239211147593057241e-03,-1.985441522083049217e-03,3.234277665615081787e-01
-4.665464685720915883e-02,-3.679233248485822005e-01,-4.986789488385368063e-02,-2.471660476730099063e-03,1.393387088887572487e-03,-4.011299671808318573e-04,3.197126984596252441e-01
-3.942221591975481054e-02,-3.694301338013368796e-01,-4.081696524113599678e-02,3.627191653381576153e-04,1.287229716787535499e-04,-1.808914645295585637e-03,3.293283283710479736e-01
-2.056652709387866984e-02,-3.646347848398093228e-01,-4.080628350512696678e-02,-3.357626459393227292e-03,4.410770021357438876e-03,-4.522004169674873259e-04,3.345468044281005859e-01
-3.223849547155270556e-02,-3.700937415590883628e-01,-3.503114233263855681e-02,-1.063222887577206345e-03,-2.018876947836166123e-04,-9.368571968880545038e-04,3.364767432212829590e-01
-6.218928874296059117e-02,-2.358285425777844890e-01,-4.591149050309484281e-02,-1.123558620190968568e-02,-1.127565086958058280e-02,1.568014259197281560e-02,1.863860487937927246e-01
-3.948817986559126358e-02,-2.671260995285920092e-01,-5.564051429833542783e-02,-3.200580767124490411e-02,-1.570258835530127794e-02,1.163636531428869324e-02,2.293950319290161133e-01
-3.646575290122845703e-02,-3.657062474792474038e-01,-2.600828960700435344e-02,-1.928774491626648749e-03,-2.410044407794464504e-03,1.882531489373206243e-03,3.346504271030426025e-01
-5.206391435928148237e-02,-2.431459163403571488e-01,-6.225632683537175166e-02,-2.561699939081785171e-02,-4.120213454668084606e-03,1.109183307030301227e-02,1.925028264522552490e-01
-3.613497225247250255e-02,-3.640530345569173987e-01,-2.414994727258323870e-02,4.564340635716626648e-04,-2.765687285762692769e-03,4.215172548330153629e-04,3.341079354286193848e-01
-5.937940630027038758e-02,-4.677582736193055535e-01,-3.777096618780664827e-02,-1.039133104391492812e-01,8.174506624144746089e-03,2.571967024972646870e-02,4.589592218399047852e-01
-4.755492307678582664e-02,-3.720425356331659716e-01,-4.011731560719801470e-02,-6.091373538268417438e-03,3.181835493635069281e-04,-6.118946576949256273e-04,3.284412920475006104e-01
-2.094682901215040582e-02,-3.685580035334031779e-01,-4.220879014629709547e-02,-5.641602360564229417e-03,-3.574028828978043255e-03,-1.203014903731133167e-04,3.376811444759368896e-01
-6.325049062103525743e-02,-3.687906848353663669e-01,-3.209565652353893461e-02,-3.608592324861684131e-02,-6.838170993237351059e-03,-2.488024446107985066e-02,3.312830030918121338e-01
-6.846091680123346512e-02,-4.474550697602773242e-01,-3.385576042472066005e-02,-5.667465724584693637e-02,-5.393646072124808066e-03,-5.123154912391855720e-02,4.189827740192413330e-01
-2.824989910477479493e-02,-3.715821155587111235e-01,-3.187232967073337642e-02,-6.365861078454033636e-04,-8.826447633621403461e-04,2.467700751330845324e-07,3.415406048297882080e-01
-6.480473443336087769e-02,-3.529537656894355946e-01,-3.523737172937016493e-02,-9.293153898948043612e-02,-6.247355621759124447e-04,-1.158795497205586909e-02,3.445819616317749023e-01
-3.591434890657220491e-02,-3.709236667660392173e-01,-4.271429006318830379e-02,-4.023658094816654797e-03,-1.597760195882199502e-03,-2.170581510459893091e-03,3.317676782608032227e-01
-6.674650135062092093e-02,-4.460037982034258941e-01,-3.611709214880634566e-02,-1.012152488107715825e-01,-6.008341636535286662e-03,-4.791609615679740669e-02,4.405909776687622070e-01
-3.640948562030471569e-02,-4.086394156028868019e-01,-3.728063136534459643e-02,-2.337517688710998368e-02,3.017323224111027186e-03,-1.199968164759082287e-02,3.746065795421600342e-01
-7.250275829063217159e-02,-4.082216830781669747e-01,-3.114817259108498826e-02,9.880312629293222168e-03,-8.500410866336991639e-03,1.103827280470685325e-02,3.594107329845428467e-01
-6.591769077070250282e-02,-3.890927877423149828e-01,-3.294730811065277321e-02,9.078932958281399823e-04,-2.116824617579285677e-03,-2.993896332165648950e-03,3.409211039543151855e-01
-3.087670955029185593e-02,-3.744384926282557924e-01,-3.855549874293111301e-02,8.047410887368293929e-04,2.641140651249881000e-03,1.897009985268779172e-03,3.398370146751403809e-01
-5.817414018521215036e-02,-3.733189527702108768e-01,-4.553993753069061901e-02,-2.141285904097061309e-04,2.679805036715777501e-03,1.405337369624860442e-03,3.216909766197204590e-01
-2.619036835328651669e-02,-3.509687201723424854e-01,-4.272812583187647617e-02,1.369113850514185569e-02,5.112538411757251364e-03,8.352205967711660503e-03,3.181719779968261719e-01
-4.626409825266959708e-02,-3.733254030411601310e-01,-3.534104944914714941e-02,1.537509119892258719e-02,4.670213432386820240e-03,-8.943159882181161893e-04,3.338232040405273438e-01
-5.250354097672292608e-02,-3.677619673781828413e-01,-4.418635034520145000e-02,3.956589684899464339e-03,7.349868205217741091e-03,-6.127849702315888705e-04,3.198269307613372803e-01
-6.458397805105677014e-02,-4.203122182351414771e-01,-3.548114050607004133e-02,3.172003023742744378e-03,1.007998006727026281e-02,-4.168205091642853376e-03,3.716576099395751953e-01
-2.096787019818759090e-02,-3.338772995715814096e-01,-4.190930103275915253e-02,6.338301940352065490e-03,-9.446927121065552477e-03,-2.667293395207194495e-03,3.036571741104125977e-01
-4.995347337700251078e-02,-3.783367045367079795e-01,-4.926452237565333292e-02,2.280047115335282881e-03,9.315868563182701581e-03,-5.938813665255937395e-03,3.293083906173706055e-01
-3.076461081371451023e-02,-3.575886518458560870e-01,-3.649123745156816756e-02,-4.812771513910567289e-03,9.708347417112937056e-03,4.815058133968506526e-04,3.245428800582885742e-01
-5.481471958235246966e-02,-3.749757453757243120e-01,-4.439982864793383388e-02,-1.714154969219725596e-03,8.047677402987353165e-03,4.400298207535876041e-03,3.258944451808929443e-01
-5.558546542911521615e-02,-3.746235894518825660e-01,-3.554842414440589904e-02,-1.583516598901485353e-03,8.330557721670006676e-04,-8.742569641543666012e-04,3.295319080352783203e-01
-4.623733769342454336e-02,-3.524278460250832024e-01,-1.913516156171703175e-02,1.734354355455290870e-03,-6.449098093863048740e-03,-8.997777597479906034e-03,3.211888372898101807e-01
-4.246312837391227890e-02,-3.306818401010897523e-01,-2.123112572874570614e-02,6.950002375772657177e-03,-1.121097125613993058e-02,-9.286301337944839057e-03,3.007007837295532227e-01
-4.533849845117331190e-02,-3.506337546917722148e-01,-2.468431818762299723e-02,-1.843041904591691390e-03,-9.835237304352038509e-03,-1.260651722727061034e-04,3.166036009788513184e-01
-4.579465047687561463e-02,-3.554247139494600694e-01,-2.220492438575878691e-02,8.739736043194907189e-04,-1.118827682172387865e-02,-1.212155843952879286e-02,3.233418762683868408e-01
-2.934505005585001658e-02,-3.670923850762878304e-01,-4.057989827375622915e-02,3.418248827973270707e-03,-1.262766790759996998e-03,-1.325441838427740548e-03,3.323402702808380127e-01
-3.294119367802794685e-02,-3.716215517729729578e-01,-4.121465595023332540e-02,-1.720767967302676282e-02,8.738180870625635727e-03,2.484926606331619176e-03,3.363133668899536133e-01
-4.823590098159594164e-02,-3.031837723853807454e-01,-3.101097575290223674e-02,6.859993590911883654e-03,-9.786298916132115180e-03,-1.874719472809868032e-03,2.648124098777770996e-01
-4.738367485552526237e-02,-3.184703705015161646e-01,-2.973955141442585770e-02,2.301861915951875642e-02,-1.290467670990205762e-02,-4.689427479527247949e-02,2.954128980636596680e-01
-3.545600805224041752e-02,-2.960137023295807968e-01,-3.984739616340836343e-02,1.005816791009468344e-02,-1.531009215847171402e-02,-1.113746970109915843e-02,2.610444724559783936e-01
-3.561729612354025409e-02,-3.758853952418143018e-01,-5.730123370113596182e-02,-2.292343806626682187e-03,9.674528857429236066e-04,-4.613883836700793765e-03,3.300858438014984131e-01
-3.888204554399778134e-02,-3.744477505859565847e-01,-3.654225814192657573e-02,3.838026127554110961e-03,-3.859322709735575098e-03,-1.281488386842731531e-02,3.376040756702423096e-01
-4.012643255069552051e-02,-3.734102478942403769e-01,-3.913684646423092051e-02,3.019780919123781979e-03,2.112521401830126210e-04,1.314408446207699028e-03,3.338286578655242920e-01
-4.676973047915997106e-02,-2.396513171415099452e-01,-4.665078577960096728e-02,1.288481351119011471e-02,1.247664507105343372e-02,9.805562724381006873e-03,1.961625963449478149e-01
-3.885740479888284693e-02,-3.727357624214620579e-01,-3.670279210245704082e-02,1.788073904479823987e-03,1.805804420445426568e-03,1.934807111022044833e-03,3.350065350532531738e-01
-3.574280154942768850e-02,-3.730500262094669228e-01,-2.796190162261638634e-02,-1.421174376286370759e-05,5.357101500012375651e-03,-1.019178827841445275e-03,3.413949012756347656e-01
-1.494857250099215773e-02,-3.675768159969821092e-01,-4.996085377854159182e-02,-6.704142676486200131e-03,3.040384040542414620e-03,-3.385117142530985699e-03,3.367835581302642822e-01
-1.969014342247960014e-02,-3.697643283882295906e-01,-4.569946724570969621e-02,8.558757648557416492e-04,1.647331029905356112e-03,-8.443943730360875611e-06,3.378365933895111084e-01
-1.747769143041091877e-02,-3.691850587509179493e-01,-4.624705023437593321e-02,1.645339715772838139e-03,4.654469626606120479e-05,-7.294234659151245005e-04,3.382559418678283691e-01
-6.028129502693198305e-02,-3.725712291245860674e-01,-4.015492833892983504e-02,9.705584140012033824e-04,1.930670287325375514e-03,-8.548065808509894324e-04,3.228490948677062988e-01
-4.231672705604740126e-02,-3.723191198456095030e-01,-3.623342108004401485e-02,7.702919637516327835e-03,6.455635754454514203e-04,-6.596495392842602595e-04,3.333566486835479736e-01
-1.371266969469084329e-02,-3.647075546505262333e-01,-4.951093340038850710e-02,-1.577913781732540911e-03,-3.946146510412343778e-04,-1.241446111370416144e-03,3.345541357994079590e-01
-5.797059296698980901e-02,-3.784818588498422565e-01,-4.553815748737068125e-02,-1.782811111398607655e-04,1.324979840224660421e-02,-6.349891259881594412e-03,3.278940320014953613e-01
-3.224252031633541293e-02,-3.745919977660957523e-01,-3.648550884432814889e-02,1.704729344162084562e-03,3.666939360364724308e-03,1.679808288709748031e-03,3.403323590755462646e-01
-3.491837030514909068e-02,-3.774356313493535398e-01,-3.287727651964089670e-02,4.547365133549327999e-04,1.092367961431352187e-03,-1.691531332038283232e-04,3.435485959053039551e-01
-3.378401529354342625e-02,-3.778152615104518608e-01,-3.288509756256803584e-02,3.198558410961489123e-04,4.621200147811854449e-04,3.074575637721359300e-04,3.444833755493164062e-01
-5.854604702447759046e-02,-3.695033657599665622e-01,-4.158252518860268421e-02,-2.211297850093731174e-03,2.341046693229803695e-03,-2.079714257614070135e-03,3.198456466197967529e-01
-4.115944977266340621e-02,-3.662326883487164730e-01,-5.098241398094106869e-02,4.974141716170270722e-04,-1.413186658773567033e-03,1.394702170054960833e-03,3.202943801879882812e-01
-7.013515580304596764e-02,-3.801697009863563848e-01,-3.105475252095166172e-02,2.944334396536935072e-03,1.375264446935070290e-03,-5.603154602535223919e-04,3.313572108745574951e-01
-3.268167879076663840e-02,-3.769515378960121010e-01,-3.460691054755060669e-02,1.110450635843961760e-04,1.322818318969195802e-03,3.468362385074316300e-04,3.433195054531097412e-01
-2.616112562469613545e-02,-3.734831796622443134e-01,-4.298518362514872071e-02,-1.328056281025444436e-03,1.355408907477134023e-03,1.397559347937126851e-03,3.392476439476013184e-01
-3.355452723762525347e-02,-3.774932390176022334e-01,-3.412649196854722344e-02,2.050291075355822098e-04,2.825608384074694860e-04,2.539360441937959956e-08,3.436536192893981934e-01
-4.703478270847355480e-02,-3.689545029656927655e-01,-5.681459512716202642e-02,-1.816115745964275250e-03,6.345454390592039987e-03,-8.565181334619805225e-04,3.173523843288421631e-01
-3.538157014418656654e-02,-3.765988277090273062e-01,-3.528532254902218279e-02,6.910754238566678420e-04,1.393693395123171046e-04,8.510229828116563835e-04,3.412707448005676270e-01
-3.338435711553361385e-02,-4.323708077809703121e-01,-7.100676159516322583e-02,-4.938300382484573162e-03,-1.089462218078777675e-02,4.971665064652677421e-03,3.822279274463653564e-01
-3.278044314152339656e-02,-3.892766493824290630e-01,-7.629442781451024891e-02,2.072437795539718247e-04,-7.661557656429492623e-03,-6.818647259533232308e-03,3.373220264911651611e-01
-1.770794641909431699e-02,-6.145527157093724213e-01,-6.470722571997980510e-02,-3.441716889292880527e-02,2.841766310672597801e-03,-3.576684546352252442e-02,5.812030434608459473e-01
-3.862463082207889808e-02,-4.358138407946132165e-01,-5.189023297458288109e-02,1.050378875247305090e-02,-1.215208617758782930e-02,2.302026914449889494e-02,3.937386274337768555e-01
-4.070688612612244350e-02,-4.431132801646623931e-01,-5.703577812791889301e-02,2.559592715805658961e-03,-2.031528425649803404e-02,1.822888447607752538e-02,3.973428606986999512e-01
-3.033967904177969910e-02,-4.170323324778395513e-01,-7.997364358496515668e-02,1.824224061122720975e-03,-1.404082245548191228e-02,2.600157311716694980e-02,3.680099248886108398e-01
-2.819814896896305489e-02,-3.752859950401447042e-01,-8.148260116486907845e-02,1.123882719631166469e-02,-1.215203931428843719e-02,1.129795884350745343e-02,3.256066739559173584e-01
-3.291070826785987002e-02,-1.946866511625342522e-01,-3.908324236811178826e-02,6.674627256380095963e-02,-9.992432084030432662e-03,7.035494970782119051e-02,2.317869365215301514e-01
-3.600944530891742046e-02,-4.445331259347725661e-01,-7.467968863284764336e-02,1.217109668778018497e-03,-8.155762256349591288e-03,-3.635456626755837351e-04,3.908883035182952881e-01
-4.085587798602351162e-02,-3.648799283617903955e-01,-2.506022406244294565e-02,-5.196359004302975731e-03,-5.610905103224314745e-03,6.902814910707441055e-03,3.326825201511383057e-01
-4.593833962121626757e-02,-4.052119794729819313e-01,-6.892374419169615407e-02,3.287486363178443449e-02,-9.019387769114897008e-03,1.219744251810711694e-01,4.116642177104949951e-01
-4.908947079146899761e-02,-2.566904647000225470e-01,-4.869118096645483340e-02,1.678707434419948047e-02,1.207097240637573787e-02,1.242791220411539055e-02,2.119597047567367554e-01
-3.825681878681717885e-02,-3.737048139100290767e-01,-4.036579561889788725e-02,1.782313215397548015e-02,1.398009845802618235e-03,4.590136861227823301e-02,3.451116085052490234e-01
-5.639870787730852375e-02,-2.956056061306145955e-01,-2.213926017041055461e-02,2.537441304255153365e-02,6.728430878825063591e-03,6.368741828880460087e-02,2.842963337898254395e-01
-5.531042425248702821e-02,-3.010467964008959330e-01,-3.246953333497130945e-02,-1.420934520215859885e-02,-1.359140553197080159e-02,3.891075986330494452e-02,2.687432765960693359e-01
-4.377688795897519136e-02,-3.387514191407276498e-01,-3.312684151714007097e-02,-7.009268749078988864e-03,2.957456126823443474e-03,3.396768049789837540e-02,3.064309656620025635e-01
-4.666138012816961611e-02,-2.429543881380148707e-01,-5.896278800624009386e-02,6.841445957843557413e-02,-4.389152308544697068e-03,1.084216398307812218e-01,2.926307320594787598e-01
-4.729115196754356265e-02,-3.680085469302420420e-01,-4.920367105768679028e-02,1.006923324236239916e-03,2.312608899108262520e-03,-9.291313742109875333e-04,3.197993040084838867e-01
-4.969310165531132251e-02,-3.659843239958139871e-01,-4.886693192245256112e-02,3.578560299757658852e-04,3.160642485579562961e-04,-4.754716072589608780e-04,3.167072534561157227e-01
-4.713237741642210821e-02,-3.669700417581699958e-01,-4.847482958456562907e-02,5.731875671796444230e-05,3.623137460754186773e-03,-7.556421664287000855e-04,3.192329406738281250e-01
-4.018366500745233771e-02,-3.612306771232854374e-01,-2.402061631384792839e-02,4.833348819158334974e-05,-4.653536959481755983e-03,-1.327968770447498451e-03,3.295326828956604004e-01
-4.660158081178494838e-02,-3.527362297693520943e-01,-9.979454086656236456e-03,1.906563494312921983e-03,1.524211708187865480e-03,2.232770457577722915e-03,3.260425329208374023e-01
-1.270675657959424720e-02,-3.583589709610709995e-01,-4.694517932789786518e-02,1.573422780824299634e-03,-1.548197274485008795e-03,-1.763592548686730190e-03,3.299046456813812256e-01
-3.445656596472919386e-02,-3.701405405914574009e-01,-2.634720248364044726e-02,-5.985272524514150894e-04,-1.995431177459058934e-03,-1.280406739563987300e-03,3.398376405239105225e-01
-5.136306158615067119e-02,-3.663114678331794161e-01,-4.816500164956882823e-02,1.803271957895045464e-04,3.362926222816974529e-03,-1.350555757157215426e-03,3.166219294071197510e-01
-2.819855388718248146e-02,-3.742537109472424683e-01,-3.686522820823326385e-02,4.391532180225826416e-04,2.770330753703928797e-03,7.706786077955336389e-04,3.418413698673248291e-01
-3.451151369210046782e-02,-3.750545443580561855e-01,-3.546058356870972206e-02,1.255062120947497391e-03,5.565324695018833250e-04,2.042293108064529260e-03,3.400962054729461670e-01
-6.572120146938852103e-02,-2.340913707733718041e-01,-5.525325483520261705e-02,-7.111007417722605773e-04,-5.811668071525872767e-03,-2.042150486839880430e-03,1.741721481084823608e-01
-3.182577224616073286e-02,-3.743162865417078433e-01,-3.267965781122757207e-02,1.111337653162455981e-03,3.770033653482863633e-03,2.154654703101523388e-03,3.421524465084075928e-01
-3.314985771816113258e-02,-3.750459165147567164e-01,-3.650890673932088992e-02,1.260938137795605948e-03,2.293674402401052904e-04,1.854598089904944437e-03,3.402513861656188965e-01
-9.326234545878137050e-03,-3.564692951989303360e-01,-5.084269150267377302e-02,4.265228443628719945e-03,3.288207778904528029e-04,-1.383252983114514239e-03,3.284515440464019775e-01
-1.396076040324517598e-02,-3.625713451101900686e-01,-5.341862978029486564e-02,-6.980110553709882940e-03,-2.279199980186733844e-03,-1.344665130475982328e-03,3.309048414230346680e-01
-2.934152088280685133e-02,-3.661481871933190968e-01,-4.386746475865849204e-02,2.927985442502307935e-03,2.184726981860895022e-06,-2.200275332801240793e-03,3.298447132110595703e-01
-1.013297067261428874e-02,-3.288850151732918281e-01,-5.322229116747133337e-02,1.417174776788064812e-02,-1.143914185708401563e-03,-3.686334548740637009e-04,3.005521595478057861e-01
-1.519455841992059519e-02,-3.602465163746583210e-01,-4.916208316726203287e-02,-7.354209176199517873e-04,1.456209692588638217e-04,-2.359655905041007414e-03,3.294123113155364990e-01
-1.467017427560615705e-02,-3.603336083018311431e-01,-4.779444377195365967e-02,-7.706580797951082581e-04,-6.645966903748273379e-04,-2.257537495929444644e-03,3.303770124912261963e-01
-1.432243325720272686e-02,-3.623860913926559846e-01,-4.841464264188008459e-02,-1.611760008160238169e-03,-2.272256868875208169e-03,-4.749986033831960766e-04,3.323676884174346924e-01
-3.181877312386086065e-02,-3.669602497348554149e-01,-3.769749174597658570e-02,5.331543309695277021e-04,5.092086714359943223e-05,-8.953731629387878766e-04,3.322460353374481201e-01
-5.373846480915114854e-02,-3.633914147285802754e-01,-1.509905897092092553e-02,-3.033576259034006552e-03,-6.236888875952734937e-04,-6.424924264070573827e-03,3.309008479118347168e-01
-4.606753229333883370e-02,-3.621584796421440933e-01,-1.350740109692588620e-02,-5.614236268440556338e-04,-3.816789874027775621e-03,-7.727220892004512710e-03,3.339002728462219238e-01
-4.831175730716691374e-02,-4.564333676080516988e-01,-5.016611161606290836e-02,-8.594115068011660974e-02,-1.863720432827996668e-02,-7.971433527620253034e-02,4.561498463153839111e-01
-1.622691625616005939e-02,-3.574492720805168000e-01,-3.804344066561636539e-02,4.337342287667998601e-07,3.268071566891322510e-03,-7.567444886393101706e-04,3.309050202369689941e-01
-4.850054507942103132e-02,-3.621625369082613899e-01,-1.286296242279505453e-02,-2.104025556314528984e-03,-4.016285805141868621e-03,-8.788422458219471642e-03,3.333548009395599365e-01
-5.749826473746258437e-02,-3.737525178063195730e-01,-4.273327295287207561e-02,1.180571930174078438e-03,-1.084138874824582682e-02,1.807425928682921670e-03,3.244546651840209961e-01
-5.162085617944651983e-02,-2.252274344803952832e-01,-5.971746033312735208e-02,1.353953533441950262e-02,-9.415624443386299072e-03,-9.436287944902652450e-03,1.728647649288177490e-01
-1.302008281781331933e-02,-3.461409801771334616e-01,-4.500910385533829494e-02,3.952702454928025584e-03,5.707454970409336914e-03,1.028512019983062603e-03,3.185661435127258301e-01
-4.713865413569211238e-02,-3.627959570944440104e-01,-1.545668336487668326e-02,-7.553589840540730644e-04,-5.543606632545682901e-04,-4.254272486161600800e-04,3.326365947723388672e-01
-4.302617390138667453e-02,-3.450434212082479357e-01,-2.076440411576792322e-02,2.771294401370514617e-03,-5.087067363804089956e-03,-1.553049719203766429e-02,3.150519132614135742e-01
-4.085856280123927042e-02,-3.754873513801401108e-01,-3.795901887963729071e-02,-6.677171938909864544e-04,4.595605331251753460e-03,-6.171202654860200552e-03,3.363540470600128174e-01
-6.949934190995044059e-02,-3.765483979753139199e-01,-3.428121159154587372e-02,-1.557910803636092809e-03,1.997712261429279712e-03,-1.159787690588039676e-03,3.261233270168304443e-01
-3.601886557493494401e-02,-3.737067169491676832e-01,-5.009419770292965202e-02,-3.044134531581927337e-03,-5.175338215190886299e-05,2.292042643392146629e-03,3.309406340122222900e-01
-6.022328140017452203e-02,-4.310297580838549636e-01,-2.967323389378670462e-02,-4.159252073210797235e-03,3.665478792642654863e-03,-1.131636707049982551e-02,3.876019716262817383e-01
-3.283047630597100974e-02,-2.328621776794397580e-01,-2.946595971651035095e-02,6.966487453129606433e-02,-1.647931235382905923e-02,5.516143084234280403e-02,2.553422152996063232e-01
-4.279912655845735658e-02,-3.648044838888991892e-01,-2.627353811261799732e-02,-3.249434956296144966e-03,-2.010150547567367957e-04,-3.140407936591051467e-04,3.306266367435455322e-01
-4.813123428700612216e-02,-3.658165939551621948e-01,-2.828664033917920040e-02,-3.620050874154857531e-03,2.953638487951291535e-03,2.005525266754669243e-05,3.281579315662384033e-01
-4.946386514238550192e-02,-3.773071576600977028e-01,-2.929148817056043130e-02,3.601317210234161736e-02,-1.062235621293222687e-02,-4.510392473030167687e-02,3.533185124397277832e-01
-4.797654989982490237e-02,-3.691053249545737658e-01,-1.866756456875731662e-02,-1.662895249665218358e-03,8.549302723806445712e-04,-3.586473928063280050e-03,3.368141055107116699e-01
-4.794755235753064837e-02,-3.711398175770219687e-01,-3.735516968040454577e-02,4.890900590897286938e-03,7.574479935627679347e-05,-4.301661084110034936e-03,3.288101255893707275e-01
-3.135587787414981231e-02,-3.896394137593567342e-01,-7.045489611172538191e-02,-5.998789373958626249e-03,5.722218918243283763e-03,4.536056636801982789e-03,3.408155143260955811e-01
-4.623622802937016329e-02,-1.396756208607865535e-01,-3.750424112918153419e-02,-1.721873742237266594e-02,7.128858660454534014e-03,6.057515292423928943e-02,1.472176760435104370e-01
-1.957671741006168642e-02,-3.450158654349414489e-01,-4.630300231916480158e-02,-5.674053682178532279e-04,-6.565477900680049758e-03,-4.437956828815321260e-05,3.131412565708160400e-01
-3.209284664501636797e-02,-3.462118271566138605e-01,-2.799128440138916318e-02,-4.178172408695467188e-03,-8.418724037176276639e-03,5.478632462629773672e-03,3.167506456375122070e-01
-4.039051259971725150e-02,-1.429628124112286014e-01,-3.884534028234028907e-02,3.497841448071781212e-02,-2.688222621315745041e-03,7.212713679094745478e-02,1.731504499912261963e-01
-4.578105095829640425e-02,-3.708046546060315141e-01,-2.508426674979202797e-02,-1.066239958418412764e-02,-5.043019126673721139e-03,1.662768193951561987e-02,3.377017080783843994e-01
-3.660667666398172149e-02,-3.180546669224088019e-01,-3.837640933579103408e-02,-3.776763879724538003e-02,-1.146913556949419495e-02,-1.592324746560880647e-02,2.900904417037963867e-01
-1.945578840569617274e-02,-3.578281458268228188e-01,-3.957042277729874713e-02,1.464353012199038923e-03,-1.012006969001324466e-03,-1.020315546939492548e-03,3.287960588932037354e-01
-1.639377973743325057e-02,-3.646677963480721152e-01,-4.598890035669442322e-02,-2.323037429045034762e-03,-2.339181253496145588e-03,-1.409931287756408880e-03,3.345175981521606445e-01
-3.845493600248937882e-02,-3.459542486116696791e-01,-3.885153065366897529e-02,-2.423197807909177950e-02,-3.941362686153746138e-03,2.916154268023989776e-02,3.143141567707061768e-01
-2.059876646217570495e-02,-3.697592844852470306e-01,-4.700303571611438858e-02,-3.555902393881911570e-03,1.493118335566417140e-04,-1.560907017329837268e-03,3.368029594421386719e-01
-3.828201745068797457e-02,-3.554517633919552222e-01,-3.674948513537519557e-02,-7.495013420395189602e-04,-5.118014623916663933e-04,-2.015697636399934115e-02,3.198537826538085938e-01
-4.070866378294110688e-02,-4.265720732491704026e-01,-4.747009529013408724e-02,-2.042162397764767101e-02,-2.944266086161780472e-03,1.628659998097486267e-02,3.852274417877197266e-01
-4.264056725033417428e-02,-3.686727049271673606e-01,-3.217335686809923156e-02,7.921101569705711479e-04,6.268019014581139572e-04,1.720339701548469213e-02,3.327312767505645752e-01
-4.230341651857690011e-02,-3.449158372217318025e-01,-3.130631282397720871e-02,-2.305898774788824740e-02,2.650745326599244101e-03,3.097178046307758406e-02,3.154632449150085449e-01
-4.836928153463743163e-02,-3.746480644182506037e-01,-3.979840920226543344e-02,-5.682591192834604912e-03,1.435832819451219287e-03,-1.193661628128625876e-03,3.308098018169403076e-01
-3.177060170295188668e-02,-3.663581176785604687e-01,-3.866303560725127542e-02,-2.795128444289570607e-02,-5.197070783084490296e-03,1.120223918326149551e-02,3.353975415229797363e-01
-4.624762943370328006e-02,-3.671979370921988339e-01,-4.105925675391892959e-02,2.483516428612650428e-03,-1.850525139816114795e-04,-4.202824473774341776e-03,3.236863017082214355e-01
-2.636449686901315426e-02,-3.862503454840012229e-01,-4.196714865655029603e-02,-1.711516481847435165e-03,-2.689534086994325307e-03,-2.456721946629154656e-03,3.524126708507537842e-01
-4.061911431677227291e-02,-3.765297229698118531e-01,-4.866544313390999688e-02,3.198690539047401786e-04,3.529214063834035416e-03,-2.597758840028090849e-03,3.320478200912475586e-01
-3.517127113956219908e-02,-2.661823438820687393e-01,-3.268912523386573177e-02,-4.656424691433935781e-02,-1.095900692104724398e-02,2.566874763219416378e-02,2.505739927291870117e-01
-6.116928892055469025e-02,-3.748296816013536037e-01,-3.986033025598324786e-02,1.336052473704452950e-03,4.858913043055326959e-03,-4.941931203612743087e-03,3.250694274902343750e-01
-3.083594479378634623e-02,-3.611107540942888883e-01,-5.103800598892464790e-02,-2.618548071555077544e-02,-2.336767692843634038e-03,7.050912780701515392e-02,3.461291193962097168e-01
-1.820535911398984963e-02,-3.643910379455105319e-01,-4.292783617266626717e-02,7.385563704586628996e-03,2.073495990410063276e-03,-6.570698670944923785e-05,3.347741067409515381e-01
-4.462259986391735322e-02,-2.765398831875241492e-01,-5.781673559489682035e-02,4.042339045274278078e-03,-1.021257104831677781e-02,-1.113106028549157387e-03,2.264186143875122070e-01
-2.931042281298275320e-02,-3.919196660459772774e-01,-3.739224195886134416e-02,-1.068632771462604998e-02,-5.318106526924019570e-03,-2.147324980416434170e-03,3.592513203620910645e-01
-4.892984223769321350e-02,-3.662333615885710048e-01,-5.144153107313527429e-02,4.542432299326476909e-04,2.382491061634800164e-03,-2.173484774933627951e-04,3.160833120346069336e-01
-4.881404526153906853e-02,-3.685185488378760477e-01,-4.887028838648654894e-02,-2.163079567835509993e-03,4.665701794888667438e-03,7.646644098096641454e-04,3.198032081127166748e-01
-4.569972024681105693e-02,-3.664307302792794152e-01,-4.814812380920879820e-02,-2.228113885503492353e-04,3.346618955145546411e-03,-7.679691034604590235e-05,3.195666670799255371e-01
-4.883500841725298136e-02,-3.661544717473539379e-01,-5.161233188001138061e-02,-7.251404303797866994e-04,3.024107464292329246e-03,-7.951770281118998725e-05,3.159858882427215576e-01
-3.523488737738937615e-02,-3.701190071450856101e-01,-2.705298402331894614e-02,-1.268741657667427341e-03,-1.709486936667790934e-03,2.398747570306946698e-04,3.390694260597229004e-01
-8.994428441782525985e-03,-3.504850580451308595e-01,-4.928151337918400265e-02,2.325850250814241738e-03,9.486974932262154858e-04,7.813070313271210923e-04,3.232676982879638672e-01
-2.596613908231784618e-02,-2.838409727385001746e-01,-5.610004610949080595e-02,3.870082327549111481e-03,-3.438990647398227317e-03,1.785588096693274110e-03,2.443904280662536621e-01
-6.319446875075503123e-02,-3.834944675465623565e-01,-3.521642541304270679e-02,8.714925787366255283e-02,-4.460444983654296078e-03,-1.315462897415323879e-02,3.683748543262481689e-01
-3.574758513886359956e-02,-3.500476823916289781e-01,-2.385451372786533131e-02,7.743278001293128071e-03,6.158679519799336623e-03,8.254281204088277993e-03,3.211885094642639160e-01
-1.373971978924512505e-02,-3.552270560830116386e-01,-4.892187491794283694e-02,4.578916122857800038e-03,-3.504100414551326870e-03,-2.741292160094360719e-03,3.255140483379364014e-01
-1.838838327151798291e-02,-3.652532240966768762e-01,-4.904926704928799785e-02,7.417254943042608274e-03,7.251839732527589960e-04,-2.759365175540524993e-03,3.328807353973388672e-01
-1.102765037410277649e-02,-3.525456891824113592e-01,-5.076859366533752194e-02,1.354442790301651350e-03,-1.091092397211559104e-03,-1.607176956732784016e-03,3.235096335411071777e-01
-1.702286951591296116e-02,-3.566753524708400902e-01,-4.378234323298400843e-02,2.822761230086449696e-04,-3.135627540120524467e-03,-5.196533419363648766e-04,3.271414041519165039e-01
-1.328072171051443429e-02,-3.464137531267569292e-01,-4.754902775974971518e-02,6.594237793630688266e-03,-4.092315779508325958e-03,-4.543405335428061446e-05,3.176739215850830078e-01
-4.442826269441964293e-02,-3.554546035351523470e-01,-1.736477279528711448e-02,-2.387212120015534938e-03,-2.519876986124039518e-03,-6.586368185117825091e-05,3.254587948322296143e-01
-5.258938131013826678e-02,-3.554341179234195014e-01,-1.539862368564035022e-02,-2.999595555801086878e-03,-5.149516460160638576e-03,3.842411180383043141e-03,3.232830762863159180e-01
-6.184605990337786741e-02,-1.884116993447618182e-01,-7.119698805028890076e-02,2.778889345375579363e-03,-2.306587079334228556e-03,2.557855821063858767e-03,1.223991438746452332e-01
-4.663447110278018393e-02,-3.535599000225324029e-01,-1.378795647401108437e-02,-1.259626499876223332e-03,-1.223569648661640766e-03,2.153356243036374379e-03,3.246331810951232910e-01
-2.623914028840958201e-02,-3.670528363461910693e-01,-3.864769527533749860e-02,2.266588289941414997e-03,-2.644213974864095991e-03,-1.570409517122423049e-03,3.348473310470581055e-01
-7.014656662617133054e-02,-3.892141919935421246e-01,-3.483422949286538173e-02,-1.712693262419572341e-03,-4.223060866772697722e-03,-3.573341301972410029e-03,3.382583856582641602e-01
-5.835172082845231645e-02,-3.963840107136342716e-01,-5.057939721147920731e-02,1.143345409685068426e-01,-2.053187167760087486e-02,1.346587757614918501e-01,4.602546393871307373e-01
-4.335031361628553792e-02,-3.583040105972449263e-01,-1.577864925259507556e-02,-1.654084142596248938e-03,-2.255609978015966823e-03,1.438115395560134136e-03,3.296505808830261230e-01
-4.322469821076899144e-02,-4.262169470011972772e-01,-2.938436401919258811e-02,2.566037153195243128e-02,-1.075927829461476894e-02,4.451781188267603905e-03,3.931379616260528564e-01
-4.978374213275474358e-02,-4.545219182988906037e-01,-4.968342732696451325e-02,-7.672705107839604410e-02,-1.836153946599928741e-02,-8.512462949669767631e-02,4.519565999507904053e-01
-3.372591730937625487e-02,-3.772727362965540565e-01,-5.544122212892453605e-02,-9.679032948217335336e-04,-4.577653262812866083e-04,-3.639778491339750767e-03,3.332850635051727295e-01
-3.466555157809031451e-02,-3.847654149502582333e-01,-6.582523520429241215e-02,-2.462609718749062589e-03,3.732824830485052293e-03,-1.996168302630448033e-03,3.357138633728027344e-01
-3.502972771991777479e-02,-3.850531611236910345e-01,-6.998943663113878222e-02,-1.445474133805710196e-03,9.162564106200967937e-04,-1.606893178442666973e-03,3.339436948299407959e-01
-3.032254026177727546e-02,-3.830802978587403151e-01,-7.065164312584545914e-02,-1.034644131885918564e-03,1.015506793758849322e-02,6.170982496247177235e-03,3.350595533847808838e-01
-3.942010628225939284e-02,-3.746428362213286012e-01,-5.370463269047755228e-02,-4.192789123017026838e-03,-5.745612419512038807e-04,1.723902112011848134e-02,3.297500610351562500e-01
-3.333243615393594039e-02,-3.856962482239132961e-01,-7.497689091401250894e-02,-3.324845936263944295e-03,4.596939029479303954e-03,-3.615750193392225993e-04,3.336427211761474609e-01
-6.765661215605790757e-02,-4.224878256067531312e-01,-3.382104339654051772e-02,7.630046498826388753e-03,1.328440503275638181e-02,-1.119834763441034803e-02,3.743477463722229004e-01
-4.399773337841009213e-02,-3.698845885897867891e-01,-5.746804554479334470e-02,-1.584111151603224792e-03,-1.515109116996064039e-03,-1.782527399948584780e-03,3.194023072719573975e-01
-4.053558366134800417e-02,-3.727228836941310353e-01,-5.216893652878791532e-02,-2.222665333092055644e-03,-2.494867530456715450e-03,8.160746424691764584e-04,3.265804350376129150e-01
-6.169946244474869279e-02,-3.823895806982008927e-01,-3.286730043002134005e-02,2.744859523336606790e-03,4.358023535455148034e-03,9.482236817991902844e-05,3.361535966396331787e-01
-4.678838256014383745e-02,-3.758831039574168642e-01,-4.707299143416059095e-02,-2.947261507239148925e-02,-1.249524437744230741e-02,-3.999203324656322445e-03,3.336645364761352539e-01
-4.480355947653731630e-02,-3.697967352929241169e-01,-5.590162856795953539e-02,-1.345444362339276966e-03,-2.684976624390640696e-03,-1.853201800251868961e-03,3.196471333503723145e-01
-4.405469618991100789e-02,-3.665943593749813045e-01,-4.725543607378512867e-02,-5.028186520142628214e-04,-1.817051516171627442e-03,-3.164478093953929680e-04,3.209683299064636230e-01
-2.525098054747516862e-02,-3.595900539553077424e-01,-4.375081933646725318e-02,-6.295614173247776526e-04,6.565954122710188946e-03,9.103340259547346202e-04,3.256879746913909912e-01
-4.210735640495565091e-02,-3.706823300579940028e-01,-4.980058903053666275e-02,3.480655324436494197e-03,-7.455865785424268914e-03,2.368022534035651213e-03,3.251351118087768555e-01
-4.112449909480066224e-02,-3.724312723444862527e-01,-4.635243198016827937e-02,-7.404942062951817448e-04,-4.430618139195242455e-04,-1.947511576979951524e-03,3.287446796894073486e-01
-3.079378266612363413e-02,-3.694549318208563138e-01,-2.997030738402850503e-02,1.190872529906217042e-04,-1.744256173760647599e-03,5.271395984218349082e-04,3.390883803367614746e-01
-3.097692914713660872e-02,-3.687450494933378620e-01,-3.024126458846702892e-02,6.672684442615589595e-05,-8.954794788564683899e-04,-2.795106705181328371e-04,3.381404876708984375e-01
-3.078040284316847786e-02,-3.700203034108219269e-01,-2.895372240135946074e-02,-4.139043679558663375e-05,-1.509434049978084641e-03,2.916663911702293416e-04,3.401673436164855957e-01
-3.602598611237808890e-02,-3.738334041162890697e-01,-3.732280569654264357e-02,-3.989256255422742037e-03,-2.662419273590987175e-03,3.105840985440638390e-04,3.372636437416076660e-01
-3.641964883738961489e-02,-3.656047113954472016e-01,-2.343260407942296397e-02,-4.403971366682420769e-04,-1.999539731758291812e-03,6.538332350808335287e-04,3.358875811100006104e-01
-1.063648107618378469e-02,-3.507553909673269965e-01,-5.086607525298247889e-02,5.074536964624478752e-04,-6.053548151060111210e-04,6.264698016179039142e-05,3.218980133533477783e-01
-1.492112129351119698e-02,-3.624278132800019536e-01,-4.571441444199586535e-02,9.154244677288899843e-04,-2.740817198631126730e-03,-2.834517955588580860e-03,3.332527577877044678e-01
-1.601242648165047966e-02,-3.350998181610383986e-01,-5.299427987885356461e-02,1.847567649761946984e-02,2.958692224340644331e-03,1.365840700847066472e-03,3.040392994880676270e-01
-4.798141187954149678e-02,-4.355501908555323709e-01,-4.956119920345863905e-02,-4.803810419963474958e-03,1.016800691891997510e-02,-5.451825819582725892e-03,3.873865604400634766e-01
-1.444975969886524991e-02,-3.515617370764499983e-01,-4.808111125069200464e-02,-6.462082828303800618e-03,1.262871904752181857e-03,-1.504132509583291184e-03,3.218305110931396484e-01
-1.564422786287701650e-02,-3.616749220012469013e-01,-4.446017944884653184e-02,1.852362542699069470e-03,1.756781121800470545e-03,-3.783884352424193723e-05,3.325897753238677979e-01
-5.820897871555531788e-02,-3.834732759115193623e-01,-3.540082512584130647e-02,1.907540714491379186e-02,-1.233098701159538108e-04,-6.140553066675824567e-03,3.390288054943084717e-01
-4.109801457341262509e-02,-3.674675264272216912e-01,-4.491006040141792832e-02,-1.818687509188802922e-03,-1.141738496524521610e-04,-1.561402290060996635e-03,3.245069086551666260e-01
-2.919434028846645823e-02,-2.804309593743741225e-01,-4.938829084283440085e-02,1.954623727286257731e-02,1.124262577896986345e-02,1.095511866113732351e-02,2.456411570310592651e-01
-3.376623315561091965e-02,-4.114266413004795675e-01,-5.593471607061664685e-02,-7.220674375423371920e-03,7.593417987468224252e-03,5.229664359786061564e-05,3.675269782543182373e-01
-1.839372003367928388e-02,-3.642353055437406728e-01,-4.221724750457177266e-02,7.478145818429458164e-03,2.356597421578847558e-03,2.586579308827419567e-04,3.348423838615417480e-01
-3.261913447874939531e-02,-3.387908316597106895e-01,-3.264519536338211791e-02,-2.572376575536054278e-04,1.142178786012369024e-02,6.721499132826949717e-05,3.067975044250488281e-01
-3.562321334693249741e-02,-3.847934882326411454e-01,-4.431855730193179355e-02,1.431242776575843666e-03,-5.402245356106313238e-04,-1.437648438750631884e-02,3.458126783370971680e-01
-3.869771649275814684e-02,-3.768611739517053749e-01,-5.334699150337325613e-02,8.259220672034604457e-03,5.157228981154419675e-03,-4.967754854239758364e-03,3.316228985786437988e-01
-9.177675857570372076e-03,-3.525301198576111239e-01,-5.084085055349299442e-02,2.575980299412486407e-03,1.157363670634447075e-03,-6.299494978769863652e-04,3.245715498924255371e-01
-4.433208960501305862e-02,-4.058837421648234245e-01,-6.407985465974143369e-02,-3.396206291475308871e-03,1.248116185617773564e-02,8.651181471254480726e-03,3.531234860420227051e-01
-4.095371910403354521e-02,-3.626270141555207882e-01,-4.559122423557165904e-02,-7.600685992839104586e-03,2.931313400030865265e-03,-5.809413456626393198e-03,3.198496401309967041e-01
-4.475191749515830542e-02,-4.084176711163460816e-01,-5.093223303828253723e-02,-6.353896791381209198e-03,1.228983323210412239e-02,-9.311572505067774660e-03,3.617703020572662354e-01
-4.107408630193934429e-02,-4.036186369579951583e-01,-6.464217088076935902e-02,-1.095196591644638333e-02,1.297856015239775597e-02,3.652956570927522444e-03,3.526396453380584717e-01
-5.090352729290367750e-02,-3.732962650896431978e-01,-4.300962143723371933e-02,-2.445897180829007846e-04,-1.913045093725803530e-03,-1.842120943472303147e-03,3.264439702033996582e-01
-4.004644509307427047e-02,-2.438480813625502619e-01,-6.558816487308849474e-02,5.104760351769065119e-03,6.639819443191878091e-03,5.272274292427544390e-03,1.930695921182632446e-01
-1.334645868921596756e-02,-3.579544066143784953e-01,-4.441562968963633229e-02,2.290052932667377243e-03,1.948048640084991921e-03,-7.742791152412660787e-04,3.302153348922729492e-01
-3.680807297508076337e-02,-3.690018156684524708e-01,-4.146719835944213950e-02,4.907128562707719147e-03,5.238447433637392512e-04,1.881271329283572692e-04,3.299997448921203613e-01
-2.313274840827982126e-02,-2.606390483374242395e-01,-6.341378935678963769e-02,2.626543395376869025e-02,3.833652866444488966e-03,8.860019494522876002e-03,2.254196405410766602e-01
-4.923365292254473780e-02,-3.755767609782194594e-01,-4.179500635272632991e-02,-2.771708310925700015e-03,4.515482177820371082e-04,-5.218123619324196603e-04,3.301623463630676270e-01
-4.210194804333980412e-02,-3.894329982736083329e-01,-6.624570550640920819e-02,8.869054945972225379e-02,-2.518788804341313622e-02,1.281746331890473989e-01,4.331552088260650635e-01
-3.674851932823589018e-02,-3.727230545543248619e-01,-4.243621280726965483e-02,7.187221240387001685e-03,2.273149929465494721e-04,-7.996094979512406058e-05,3.333998620510101318e-01
-4.379559695220845705e-02,-3.705607365575550594e-01,-4.276717973203458811e-02,2.379588048120131333e-02,6.603493149792632284e-04,-1.761488345461847786e-03,3.298816680908203125e-01
-2.660388056957349590e-02,-3.639323725574581392e-01,-4.324683147279501094e-02,1.887934014872998112e-02,6.412402406479978355e-03,3.615134240454473923e-03,3.311875760555267334e-01
-3.757022706105385412e-02,-3.698485686005025808e-01,-3.899562028637902633e-02,5.737624932501963863e-03,2.194871496323270717e-04,8.603139796443096034e-04,3.317204117774963379e-01
-3.016713930562725521e-02,-3.660314190092514020e-01,-4.174564707832371935e-02,1.660883452526073015e-02,3.256588890184400516e-03,1.068656275600931476e-03,3.315311074256896973e-01
-2.952138137522242189e-02,-3.672488486157157173e-01,-4.156411801018805585e-02,-1.437768389214742759e-03,4.474934467767379266e-04,1.659860705025793153e-03,3.318927288055419922e-01
-3.597971780625724980e-02,-3.689607206406730899e-01,-2.454402493906314431e-02,1.289954433397529293e-03,-2.433094075327642356e-03,-1.194457828176371996e-03,3.388834893703460693e-01
-7.168110069919210459e-02,-3.773937408618138756e-01,-3.285427943324240041e-02,-9.529634605762802701e-04,-1.295270312905400867e-03,-3.650142271292025294e-04,3.268726766109466553e-01
-4.929338402732162672e-02,-3.519429752476359585e-01,-8.915630754044834294e-03,2.500958901526423891e-04,9.573138646960860018e-04,2.139716295410252090e-03,3.247523903846740723e-01
-3.661716663448578990e-02,-3.642238231413013061e-01,-2.804740478625890321e-02,8.048506879800629949e-05,-6.546857641607482098e-03,-3.429296841112636327e-04,3.321686685085296631e-01
-4.427979180882885002e-02,-3.628390310738688340e-01,-2.134924162686911708e-02,1.782625461141057119e-03,-4.953485525503152805e-03,-2.656848738642080183e-04,3.307474851608276367e-01
-4.288754995332792752e-02,-3.583720832102420539e-01,-1.560112925281380292e-02,1.029790632851702728e-03,-7.010697484857105616e-03,-3.289498032635707579e-03,3.302522897720336914e-01
-4.476842705242845694e-02,-1.959028175553885476e-01,-5.923902927901655152e-02,2.953623897660770728e-02,5.496627314380138699e-03,4.916781316377145244e-03,1.537671238183975220e-01
-3.171320719067541316e-02,-2.856462081929522223e-01,-5.402148827034863876e-02,5.990093806969433443e-02,6.433886292621295022e-03,1.150895302339358800e-02,2.657079994678497314e-01
-3.848020398591901758e-02,-3.590866774828770369e-01,-2.236897872774011586e-02,4.664244259880783675e-04,-4.950721592051504118e-03,-2.049120886022511630e-03,3.290899991989135742e-01
-4.080271067717022859e-02,-3.979034678651812706e-01,-3.293608388109468821e-02,-2.910999153212662574e-02,5.699092531463662362e-03,-3.291370592153234492e-02,3.691633343696594238e-01
-5.048981241160034605e-02,-3.796587003856859432e-01,-3.644899064150756984e-02,-4.078760043609993072e-03,-8.807639901701582244e-04,-9.688069528783471978e-04,3.364909291267395020e-01
-4.517742963265614087e-02,-3.689387334975515742e-01,-4.533435342915055621e-02,1.663196187486896049e-03,-4.276129010846491823e-04,1.320989580101699376e-03,3.237046301364898682e-01
-3.999088532833633414e-02,-3.731331130282416475e-01,-4.033337073696613428e-02,8.544774217810266340e-04,3.394809796913248324e-04,1.643152819881510277e-03,3.329870998859405518e-01
-4.351614430333852757e-02,-3.712744540169019558e-01,-4.394604023431007700e-02,2.430821442352584360e-03,-1.031802393508567811e-03,3.538720660970367279e-04,3.275760710239410400e-01
-4.375517770290313080e-02,-3.727462739481904874e-01,-4.201718560010726800e-02,-3.347518397819401834e-03,1.327765724069320625e-03,-1.489968383945505315e-03,3.299326002597808838e-01
-4.205090279860408675e-02,-3.658035997017081709e-01,-3.024150116385358744e-02,-2.831124200987520864e-03,-2.764023517157989610e-03,-1.978059366963966052e-03,3.299049735069274902e-01
-3.704275251560039395e-02,-3.551373636480323892e-01,-5.640813961225384088e-02,-3.768434234401069755e-02,1.186605862862354435e-02,1.281699899429159517e-01,3.864771127700805664e-01
-4.557416000495953523e-02,-3.710145072236683550e-01,-4.331646997187535431e-02,-3.236781114655152766e-03,-1.615531904993579120e-03,-1.742447385190978772e-03,3.266490995883941650e-01
-4.010217956614330059e-02,-3.717408080557260686e-01,-2.912572169586390147e-02,-2.233762640714076660e-03,-1.196461537868993927e-03,-6.100950768994327367e-04,3.372910618782043457e-01
-4.218858437692188379e-02,-3.707971910742654531e-01,-4.392681550133062385e-02,-1.435729559908988052e-03,2.700226210488674249e-03,2.078144446811538808e-03,3.278055191040039062e-01
-2.688208075076072012e-02,-3.445773040351758354e-01,-3.330312428514971279e-02,3.549791504269966987e-03,1.015770633536576192e-02,6.604174171980408195e-04,3.150876164436340332e-01
-1.788748556514280219e-02,-3.563388683414215885e-01,-3.793805296098609614e-02,-1.926230344657749085e-04,3.015304073194462978e-03,-4.634271645471777293e-04,3.289274275302886963e-01
-2.301048885561891855e-02,-3.593897076074892838e-01,-3.436970716250181690e-02,2.205356978259474733e-04,1.961762386126050545e-03,1.784266143225607219e-03,3.308779895305633545e-01
-5.817121110828439579e-02,-3.688005184620705146e-01,-4.325653127489141603e-02,-2.191990834842068791e-04,-2.562742155928970055e-03,3.428089986543642834e-03,3.184353113174438477e-01
-4.305898565460278271e-02,-3.724262706975829396e-01,-3.949866921176986567e-02,-4.170139742349519207e-07,-4.170119803332542811e-05,3.356778161767664734e-03,3.312128484249114990e-01
-2.609403471421886667e-02,-3.518412666562547031e-01,-4.328984506902980312e-02,1.613178732375299129e-02,5.011379286918988402e-03,2.574004373258856077e-03,3.188751935958862305e-01
-2.263090456037109011e-02,-3.640315696204068918e-01,-3.277366023044986365e-02,1.249541712604338448e-03,4.967682932062500271e-03,1.206295126476855054e-03,3.365674316883087158e-01
-2.324400845845261965e-02,-3.635852729082174051e-01,-3.477717424935185264e-02,5.202571315695430319e-03,6.420732928317560151e-03,4.371986434845599457e-05,3.350296318531036377e-01
-4.271973058213056340e-02,-3.803546426125404278e-01,-4.813293646588470698e-02,-2.672442508071499068e-03,3.023447291874231668e-03,7.826207201329438753e-04,3.350367546081542969e-01
-3.284281131136490561e-02,-3.769930273558713685e-01,-3.496304683123155344e-02,-2.586638589167992975e-04,2.104997400161593476e-03,-4.007394403093957145e-04,3.431153893470764160e-01
-3.701789392655198407e-02,-3.768876753249248979e-01,-3.425344591306779540e-02,1.382539352638995490e-04,4.991779409230118767e-04,8.034884125932241147e-04,3.412644267082214355e-01
-4.243728596901299999e-02,-3.558805500640044306e-01,-1.446411344802439602e-02,2.375347169719805793e-03,2.296905035560676059e-03,3.209290501210120775e-03,3.284217417240142822e-01
-2.166282409280653742e-02,-3.648517568507676501e-01,-3.977280640511990373e-02,-1.962974385183023640e-03,-2.266093210965092457e-03,-1.677329342029941234e-03,3.345547318458557129e-01
-3.472136198735924217e-02,-3.769897563610766777e-01,-3.304666153414896612e-02,-3.789394020941124668e-04,2.050130205586401036e-03,-2.995399020866242371e-04,3.431282043457031250e-01
-3.701349097817389910e-02,-3.732931356353168528e-01,-3.976294745626138272e-02,2.901515093497312667e-03,2.704762991486308298e-03,2.470834309643057166e-03,3.350111842155456543e-01
-1.532145841428821098e-02,-3.578446062717730580e-01,-4.246053640069509527e-02,2.626637244385967435e-03,2.162326596844576804e-03,2.261921989162302919e-03,3.298680782318115234e-01
-3.691509612785975891e-02,-3.733381851809773888e-01,-4.017620326958794286e-02,2.918851566584549327e-03,1.390300352414109201e-04,1.575410375436589114e-03,3.348538279533386230e-01
-2.300174865085402587e-02,-3.656395458733592285e-01,-4.328334930591369589e-02,3.365029286871442250e-03,1.703685519499624880e-03,-9.457286550350511660e-05,3.330247104167938232e-01
-3.527890503378768028e-02,-3.750058637496035407e-01,-3.628120291404161868e-02,2.016161717855175731e-03,8.993251484102752526e-04,3.049306230176384246e-04,3.392488956451416016e-01
-3.604997303793108787e-02,-3.748760073728953368e-01,-3.555967351644151453e-02,4.047316138729368292e-04,-3.797498580774791603e-04,-2.163469400196119737e-04,3.390730321407318115e-01
-4.006408273349551519e-02,-3.730295139688235562e-01,-3.967547616396208121e-02,1.749514024981224745e-03,4.515717368427445654e-05,7.923790885096377266e-04,3.331765234470367432e-01
-2.802632088514744879e-02,-3.647896410455619964e-01,-3.182771840210799064e-02,2.001174153702209475e-03,6.467219290182795073e-03,1.190518387065220805e-03,3.350903689861297607e-01
-2.603878452334904003e-02,-3.672070277511162439e-01,-3.120696889514354422e-02,8.412947297315160168e-04,1.303931224080386768e-03,-3.183731622734870155e-04,3.386248350143432617e-01
-3.371156086167877153e-02,-3.630340387692667092e-01,-2.285168337347853740e-02,8.213792854550134789e-04,1.274749301259873969e-03,5.438625078230993181e-04,3.348961472511291504e-01
-3.658791046210216336e-02,-3.590843076539718681e-01,-2.066006587544903794e-02,9.884623475980554384e-04,1.227233318726594262e-03,1.530401656008289818e-03,3.307699561119079590e-01
-2.637461780673543144e-02,-3.665524194912968547e-01,-2.908169233358895434e-02,1.064492263685783927e-04,7.615481576185503939e-04,-6.029833965311755267e-05,3.388350009918212891e-01
-2.812569538176785955e-02,-3.650483036883868659e-01,-2.957392650646831211e-02,2.644610484081382439e-04,2.226945049829381646e-03,-1.569200061879826979e-04,3.362233936786651611e-01
-5.264519651512651610e-02,-3.746522550411022223e-01,-3.803078921586615369e-02,2.177775448885222245e-03,-5.868292498969238753e-04,-6.419509997602441736e-04,3.295824229717254639e-01
-2.614973722749158735e-02,-3.605201030250088090e-01,-2.915942791178431637e-02,-1.036500789620103339e-03,6.049294005594354172e-03,-9.753539432409703402e-04,3.330497145652770996e-01
-2.915724072718610393e-02,-3.664202068201738438e-01,-2.602492135417061592e-02,2.320277032077068741e-04,9.307574525272226638e-04,2.143632085064269889e-04,3.388442695140838623e-01
-2.918806398344571396e-02,-3.667075652795762641e-01,-2.891295167421520373e-02,-7.744478599699092150e-05,1.265916592924869590e-04,7.553360401724320107e-05,3.376572728157043457e-01
-4.910673388637010195e-02,-2.864570736708160759e-01,-3.638973140846897547e-02,1.455821933791732851e-02,1.121008940843506649e-02,1.226468377717901750e-02,2.469400316476821899e-01
-2.837426438127424455e-02,-3.666471802259088641e-01,-2.772073994395402030e-02,-4.348582799535727372e-04,7.051031995313803520e-04,-5.283022209258455681e-04,3.386044204235076904e-01
-5.313786705068725136e-02,-2.833760721533246096e-01,-3.184582890473484917e-02,-4.820425382859651353e-04,-1.321400458076341447e-02,1.597544915593840029e-02,2.442445307970046997e-01
-6.150879332063113186e-02,-1.968831940629707233e-01,-6.450791958432536277e-02,3.268046398029883070e-03,1.501028298417995130e-03,3.906532337079058996e-03,1.342155039310455322e-01
-2.870484224591854372e-02,-3.678996780994099325e-01,-2.787407667430288893e-02,9.475603963004043804e-09,1.009269221210085002e-04,2.133128619432350821e-04,3.396112322807312012e-01
-2.639287673187369621e-02,-3.426545128470522839e-01,-3.422830105827470715e-02,2.902647982965040046e-03,9.658480757414471957e-03,7.009028491605253080e-04,3.129079341888427734e-01
-4.280312909652608799e-02,-3.726979279534041178e-01,-4.787170135604082444e-02,3.571338956553872859e-03,-9.585396326150737211e-04,2.853865290637657738e-03,3.274898827075958252e-01
-6.079109457976966668e-02,-3.766295919682575155e-01,-4.696224380291920408e-02,2.613119877462492541e-03,-1.243033547792044870e-02,-1.230021226947936551e-03,3.237304985523223877e-01
-6.327069433729173853e-02,-3.769570403170174333e-01,-3.839662745764520213e-02,-1.659134397300133373e-03,-2.986845632313754433e-03,-4.715016500207783981e-04,3.268886506557464600e-01
-4.730273621113406657e-02,-3.707511682739145220e-01,-5.163887923049936823e-02,1.578068497002273066e-03,-4.708834948382640065e-03,1.378257224543341522e-03,3.214263021945953369e-01
-5.155764217874404809e-02,-3.739683836549499985e-01,-4.396115766839903127e-02,6.158062374343985235e-03,-6.252283476657577964e-03,1.977904634783185652e-04,3.266293704509735107e-01
-4.946542528810139727e-02,-3.668741110585846954e-01,-4.845910458274348132e-02,1.124509745289671873e-03,-3.328479888892119380e-04,1.129400928184326729e-03,3.179255425930023193e-01
-3.665629805958182941e-02,-3.775772958042732386e-01,-6.791547334513028944e-02,-4.203410633058273643e-03,2.437645644949159186e-03,3.871013016970824890e-03,3.265932202339172363e-01
-5.142133212157545818e-02,-3.675222742872507609e-01,-4.855639455553219241e-02,1.285600295039776055e-03,-4.441726989884924905e-03,1.635878730436179538e-03,3.176567256450653076e-01
-4.319123488465793914e-02,-3.639233415367021385e-01,-2.193120951811806940e-02,1.007277483442302248e-03,2.054498173347925512e-03,7.131081889050324731e-03,3.321266472339630127e-01
-3.763622633514766835e-02,-3.678409184002715548e-01,-3.955838485767554369e-02,2.587667542747504150e-03,2.813359692912963854e-04,-6.890610636386882131e-04,3.292808532714843750e-01
-2.841664268029635287e-02,-3.665714091908649497e-01,-3.844615663366750258e-02,2.285281400195870918e-03,1.111977126766542680e-03,-2.042455662393158323e-04,3.332824707031250000e-01
-4.781561300428258110e-02,-3.708725538162134239e-01,-4.573702033086117502e-02,1.960398120874306573e-03,-2.323030560412571183e-03,2.316400328887720152e-03,3.241688311100006104e-01
-4.852135396169790504e-02,-3.708582641148612247e-01,-4.502380932648165912e-02,1.440651796214000371e-03,-1.812827732769403243e-03,3.344569057982419574e-03,3.241764008998870850e-01
-3.817589769899486229e-02,-3.657445173726655563e-01,-4.185115138125010403e-02,1.039621891882972979e-03,-1.682174165005154978e-03,1.671488071002772292e-04,3.257646858692169189e-01
-5.554493089577923481e-02,-3.688650902596456449e-01,-4.636799633362040374e-02,9.534586631835664035e-05,-5.339757413679476622e-03,2.622000233460476410e-03,3.181748688220977783e-01
-2.711205628013198254e-02,-3.635782472709890856e-01,-3.060287410161352528e-02,-4.752405641664506270e-04,1.364012797177110948e-03,8.989006634148458477e-04,3.347474038600921631e-01
-1.272484022993546071e-02,-3.438245484385281658e-01,-5.001247701220784547e-02,5.585712601643907926e-03,-3.286620766833340829e-03,-1.456728226016425643e-03,3.143307566642761230e-01
-9.279609424302726062e-03,-3.497535884957821972e-01,-4.969586443438162027e-02,7.290559576292121070e-03,1.405074622551004534e-03,6.224737653235260307e-04,3.224311769008636475e-01
-8.786146500255664904e-03,-3.495651741551972780e-01,-5.151323262956641891e-02,1.873851088987290355e-03,3.132510745115200143e-04,-4.960087172694200046e-04,3.215696215629577637e-01
-4.194618392630125592e-02,-3.665359580067233392e-01,-4.362459895769220386e-02,6.582588052109428428e-05,8.539581718280760039e-04,1.080145309931266001e-03,3.237626254558563232e-01
-9.244922075679062878e-03,-3.386873511093253519e-01,-5.331889108564534518e-02,8.284297172389511882e-03,-3.504341459307809136e-04,6.337801513127962975e-04,3.101007044315338135e-01
-4.260402903505920713e-02,-3.626152525893255318e-01,-2.567585443481626428e-02,-1.154891603979358965e-02,-4.164472673022739761e-03,5.526838030886427333e-02,3.431135416030883789e-01
-5.290343469165875723e-02,-3.675899447601995718e-01,-4.662470385141120888e-02,1.600215373371845261e-03,-9.754850201754972343e-04,1.858686095215044635e-03,3.179052472114562988e-01
-2.204933181643217721e-02,-3.679874047585494079e-01,-4.371383096771028209e-02,-4.150691166451000525e-04,1.328262191478995612e-03,7.653965627405868782e-04,3.356419205665588379e-01
-4.786180709351067764e-02,-3.692229007333155399e-01,-2.582495356740623083e-02,2.459770348971764367e-04,-1.052076487427117991e-02,-5.131111809201013840e-02,3.450667858123779297e-01
-3.769760437936477138e-02,-3.669383132520969149e-01,-3.728068619549176899e-02,-9.143871076978221353e-04,-3.065917150555338738e-04,-8.127477240975752512e-04,3.294565975666046143e-01
-3.758745845976629862e-02,-3.714499716452101530e-01,-4.416869608191181795e-02,-7.661142323742394129e-03,1.402703466235166513e-03,1.371287877387367517e-03,3.309046328067779541e-01
-4.613334861705467582e-02,-4.114691279811463209e-01,-4.073135562678872890e-02,-1.381316009149626857e-02,2.347475249458279165e-05,-1.935971645412111822e-02,3.703643679618835449e-01
-3.910776884847320944e-02,-3.701146589807186582e-01,-4.618968199692442822e-02,-9.790959906094355916e-03,7.283178186897118836e-03,-1.132118391106120897e-03,3.282104730606079102e-01
-2.834730059581272443e-02,-3.712345750716170567e-01,-3.648138376107409875e-02,-2.071466787043613113e-03,4.487440033142394737e-03,-1.615314877101249396e-04,3.390016853809356689e-01
-3.711615913324800564e-02,-3.083067413613225782e-01,-6.200081895614424632e-02,3.649429596481898637e-03,8.339492127078922470e-03,-9.789174020247833063e-02,3.105029165744781494e-01
-2.560230038834152011e-02,-3.711437040514300456e-01,-3.907186481288928148e-02,1.415431679256554738e-04,1.787823785648255670e-03,1.297542338914395516e-03,3.390290439128875732e-01
-5.666692307957453545e-02,-3.751366607134014597e-01,-3.247468886879414929e-02,6.604842980594047459e-03,1.453754218661626810e-03,-5.945854223472838958e-04,3.314377963542938232e-01
-4.730919556386674329e-02,-2.078179027735721773e-01,-5.470481365461576928e-02,-3.809011460875297295e-02,3.689376798510197054e-03,-5.072204776178689672e-02,1.916827112436294556e-01
-3.942923635562120555e-02,-3.866359098940208572e-01,-4.974973157330730977e-02,-7.711890243982015038e-03,6.670050125995124340e-03,-9.753334973192188950e-03,3.430348634719848633e-01
-2.432107193018731572e-02,-3.658085572297226085e-01,-5.100904900794439589e-02,-3.275735523803999238e-02,1.938216497403120195e-03,5.477605998196957010e-02,3.470504283905029297e-01
-3.538486411010859090e-02,-3.561844902717892225e-01,-4.482622358379088900e-02,2.885643897053810289e-02,9.900886923044749377e-03,-1.954166306056598704e-02,3.223516047000885010e-01
-3.682097987861096544e-02,-3.758553534513354721e-01,-3.700102451921014057e-02,1.159724904180127686e-03,1.236533509272457485e-03,3.992700331293169615e-04,3.389578163623809814e-01
-3.331270734492024210e-02,-3.769456820383812468e-01,-3.510223928701830531e-02,-2.501410382725091609e-05,1.459815078622513605e-03,4.792102161099769065e-04,3.427520394325256348e-01
-4.019570576242589843e-02,-3.737938030300568260e-01,-3.954615371434003213e-02,2.252012564083865839e-03,-1.501072636364617465e-04,3.145664862169854879e-03,3.339906632900238037e-01
-3.049220444218361803e-02,-3.683534628717568538e-01,-3.017771718050571428e-02,-3.243091976019281918e-03,1.080541572042868596e-02,-3.016567720007691002e-03,3.386232554912567139e-01
-3.337914587949272760e-02,-3.624974277510235598e-01,-3.856182877685632171e-02,2.837427928920095038e-04,1.243305727588346664e-03,-5.584171279782845082e-03,3.267084658145904541e-01
-1.859333025389391103e-02,-3.629195161926367375e-01,-3.752847423784792802e-02,2.079377668389697630e-03,1.908639018242714366e-03,-8.035231076193530969e-04,3.352984189987182617e-01
-4.057750410096841454e-02,-3.763765594877838683e-01,-3.995609540176853214e-02,-1.239263757854267185e-03,5.727635311090929077e-04,2.775183479945605471e-03,3.361528813838958740e-01
-3.330072662377939197e-02,-3.695333784645024044e-01,-3.828538422344018866e-02,1.439920976042747191e-03,4.047895813925541687e-03,2.634943787366200718e-03,3.338823914527893066e-01
-3.034687134780955642e-02,-3.668071152905767462e-01,-2.872572117890079268e-02,6.164415195661129138e-04,1.764009938122282958e-03,3.086186862962983610e-04,3.372896909713745117e-01
-3.126178739416113350e-02,-3.722058024745756866e-01,-3.833883423147753378e-02,9.199721753832129645e-04,2.126807647277764030e-03,1.002929010530929270e-03,3.374894857406616211e-01
-3.619507885838266215e-02,-3.734056970902521755e-01,-3.861077518505534600e-02,2.716146501347400672e-03,1.971558892030949531e-03,2.499414234358141550e-03,3.360874354839324951e-01
-6.132813405573990517e-02,-3.720845805958649666e-01,-4.427970765641942030e-02,1.038517148072409671e-03,-4.595830778188661481e-03,1.327480560066814129e-03,3.197342753410339355e-01
-4.889281556143666718e-02,-3.671269466157862649e-01,-4.711317908464805748e-02,2.295976619258100393e-04,-1.821202684011025618e-03,1.785051690069147179e-03,3.191584944725036621e-01
-4.627224494335377414e-02,-3.692724315393989820e-01,-4.722501188429763241e-02,2.181665051767192696e-03,-1.767806885268740713e-03,1.723578443143826021e-03,3.225753307342529297e-01
-4.847397343258552649e-02,-3.652398430432233223e-01,-4.941128571755397381e-02,2.179876779541995596e-04,-9.378195378822001523e-04,7.965895114411740245e-04,3.163056671619415283e-01
-3.779313631108556504e-02,-3.631695949969782067e-01,-2.506955841480938696e-02,6.523367682271364156e-04,1.227212808092585780e-03,9.711798947302000516e-04,3.319341838359832764e-01
-3.785006265348324350e-02,-3.703030844155422163e-01,-4.099206305544472739e-02,2.143016563578157858e-03,6.462544631848786486e-06,-2.246076260059448864e-03,3.309369087219238281e-01
-4.828452734834051685e-02,-3.666995506209272948e-01,-4.765096597466086936e-02,4.270835451535839270e-04,4.948851673748126071e-04,1.669218233178821015e-04,3.187344074249267578e-01
-4.841760434502397070e-02,-3.652592332699908795e-01,-4.550692108811334180e-02,4.691353362055558271e-04,-1.093330661439756478e-03,-7.415860686375330734e-04,3.183162212371826172e-01
-4.778649122929157222e-02,-3.731405816353675631e-01,-5.649790096536998207e-02,8.113846359751772342e-05,-8.323838816631998205e-03,-5.241049389897624181e-04,3.214118480682373047e-01
-3.366650900087750364e-02,-3.677224061742756511e-01,-3.793646797966203355e-02,7.413177888470297958e-06,-4.747977477440071216e-04,-1.285480660165083493e-03,3.319500088691711426e-01
-4.265316429612034388e-02,-2.886747652571787226e-01,-4.107282300566078570e-02,1.564487307997903696e-03,1.188959848392164009e-02,1.529525419679120561e-03,2.477021813392639160e-01
-4.376678248880906674e-02,-3.676229347687117732e-01,-2.215248974785495595e-02,7.965251262144505337e-04,1.291366368391266882e-03,-9.499840133100016099e-04,3.352007269859313965e-01
-4.628012318286146842e-02,-3.659102309311347834e-01,-4.493110232213520794e-02,-3.739513732605826237e-04,-1.395019406693204017e-03,-3.894637820142919128e-04,3.203172385692596436e-01
-4.884410966892595296e-02,-3.724193454413958770e-01,-5.414251509404499618e-02,-9.970303802100767879e-05,-1.285285354452962193e-02,-5.415480577946668247e-03,3.218666911125183105e-01
-5.680885663274080899e-02,-3.045386386730312700e-01,-1.371887604257608639e-02,-1.213241336452531411e-04,1.412459719391371367e-03,1.382030262485719509e-02,2.729111611843109131e-01
-4.902426751610085287e-02,-3.715117864129985348e-01,-5.445915055918106040e-02,3.122568988359872722e-03,-2.462779162864089846e-03,4.470944604141796809e-05,3.198789060115814209e-01
-4.526050317860687289e-02,-3.651874116616700139e-01,-4.981937450294895986e-02,9.238778726315191592e-04,-7.036652450342626482e-04,6.073277023110144196e-04,3.176801204681396484e-01
-3.706106757995672463e-02,-3.950700138311927789e-01,-5.810240595659924012e-02,-3.718727272470422757e-02,1.614561155067831613e-02,9.144876147571208425e-02,3.887152075767517090e-01
-4.722676240445367046e-02,-3.667365745633397456e-01,-4.932477922904990320e-02,-1.162904425108403318e-03,3.505408236144093650e-03,1.113455220863437305e-03,3.185360729694366455e-01
-4.296914653963924968e-02,-3.698171447756132268e-01,-4.590788786615736250e-02,-2.040166876692633795e-03,2.577756770663107606e-03,-6.791627118960191041e-04,3.254405260086059570e-01
-4.834328193408599095e-02,-3.699146529170908027e-01,-4.231186610101707324e-02,2.155302531563420992e-04,2.014085799041457877e-04,-5.364569365517865779e-04,3.246308267116546631e-01
-4.819814411506519181e-02,-3.683458838068208729e-01,-4.310955516410347466e-02,-2.123743913938939271e-03,8.405499155810855624e-04,8.682078060862679020e-04,3.227498829364776611e-01
-4.227088009468675522e-02,-3.684310718724983502e-01,-4.044668717040826589e-02,-1.387317624853728329e-03,-3.589986538287303681e-05,1.003337972803101290e-03,3.270895481109619141e-01
-4.218348869384877520e-02,-3.683941222649256275e-01,-3.919965665234186047e-02,-1.803418270500327858e-03,5.096089619231864397e-04,5.790068342090699512e-04,3.277303576469421387e-01
-2.734639998747226408e-02,-4.135476321891682905e-01,-7.321284314980650021e-02,7.583068211140439434e-03,-2.221706398278520185e-04,1.872111848473752282e-02,3.671042621135711670e-01
-2.646798314719284173e-02,-4.403093510224923568e-01,-7.432543322253036544e-02,-1.852388901666178478e-02,5.375387223561625726e-04,1.507870190284367300e-02,3.942866921424865723e-01
-5.839992538888198748e-02,-3.723213724154840198e-01,-4.159729564995455486e-02,-1.038606121414249392e-03,-2.104922488627993925e-03,2.623520578499713689e-03,3.227086663246154785e-01
-1.615224434834861000e-02,-3.816794344510782144e-01,-8.261333843867540994e-02,-2.336868075259071476e-02,-7.100802672662308258e-04,1.356807839757830786e-02,3.404789865016937256e-01
-2.998007324672033458e-02,-5.069369547064553894e-01,-7.045613432644229346e-02,-1.462941121549345830e-02,-5.698976612440531143e-03,5.764577665364926246e-02,4.696056246757507324e-01
-5.509869874491045427e-02,-3.694918334228383672e-01,-4.324954768280066253e-02,-3.951255119599152935e-04,-2.020778207563292059e-03,2.154429572557297766e-04,3.205021023750305176e-01
-2.037806201325781386e-02,-3.312822441503794346e-01,-4.335892127848102462e-02,4.220892948608002439e-03,1.032160122731914237e-02,6.755649869029681188e-04,3.006977140903472900e-01
-1.449674345050144808e-02,-4.477244087940528972e-01,-5.221159100883912552e-02,-1.065138621118842666e-02,4.543090358596738737e-03,5.287011534514331548e-03,4.162398874759674072e-01
-3.028677752260479361e-02,-3.686811434993834680e-01,-3.002009426657599456e-02,1.983899874486901309e-04,-3.111309032089144312e-03,5.440095379217859333e-05,3.385708630084991455e-01
-2.734759597921565533e-02,-3.696150939192092144e-01,-3.488810024848759683e-02,4.442906806496481516e-04,-1.937781271858003088e-03,-2.143713178142701761e-03,3.385981023311614990e-01
-3.113903997995313977e-02,-3.708087569626170588e-01,-3.598266674077992000e-02,-4.427082004330822854e-04,-1.337508118334956040e-03,-2.938982734987136505e-04,3.372831940650939941e-01
-3.005700205678911441e-02,-3.716049484919120016e-01,-3.022317980692566797e-02,-6.711137433259072114e-04,-8.449892480909541219e-04,-3.258250179713360401e-05,3.414700031280517578e-01
-2.934346504860758931e-02,-3.702151568607225940e-01,-3.348914879638417719e-02,4.403095537108726735e-04,-9.963179915131010426e-04,-1.080885360266345147e-03,3.388282954692840576e-01
-3.965772938793284130e-02,-3.666509169072998953e-01,-4.024179529111535092e-02,-6.062825064538383737e-04,2.284773583414586098e-03,1.122881397632415328e-03,3.267329931259155273e-01
-3.514067804216527979e-02,-3.749019106865541517e-01,-3.953455105356119825e-02,3.225533092853737332e-04,1.545694403129549074e-03,1.353361279636213681e-03,3.376049697399139404e-01
-1.689355961592389765e-02,-3.597870049408783966e-01,-3.995630922806855945e-02,7.234207364101656037e-04,2.358763601946477738e-03,1.176289230549657991e-03,3.319972157478332520e-01
-5.524493110960300435e-02,-3.750667331383061853e-01,-3.889962457453144395e-02,-1.903559801515173006e-03,-1.855391053100098825e-03,1.658340403807233646e-03,3.283446133136749268e-01
-1.979227946221631673e-02,-3.608007140390248058e-01,-3.731909169945449301e-02,-7.921787909849252809e-04,1.433400458140810050e-03,7.185428811960170538e-04,3.326059877872467041e-01
-1.678280407562755816e-02,-3.559712548457646397e-01,-4.120429411970510936e-02,3.015094550434929471e-04,3.474190728187408206e-03,2.731597303672934234e-04,3.277170062065124512e-01
-4.669767054678897189e-02,-4.202394447517154852e-01,-3.645118990110920998e-02,-3.539113000856743824e-02,7.321032286202003823e-03,1.731264122467981309e-02,3.850759863853454590e-01
-2.557907116190256958e-02,-3.659271000276437813e-01,-3.702488983505183850e-02,3.670106459173845450e-04,9.233399507366202644e-03,7.638436944886315859e-04,3.351568877696990967e-01
-3.653888221955356452e-02,-3.843282623289746569e-01,-7.045838915658921009e-02,-3.757840015201855972e-03,8.958944922697010746e-03,6.385151539345572044e-03,3.327410519123077393e-01
-2.591444564358848235e-02,-3.753262909153149973e-01,-3.927355127349134445e-02,3.051551104437565587e-04,1.784575094780148623e-03,-4.748039202490026388e-04,3.429428339004516602e-01
-3.530422084722797949e-02,-4.059641476250627212e-01,-5.560035373981767060e-02,-9.673707024202612276e-03,-3.274747515870065143e-03,1.228258514017568914e-02,3.619989752769470215e-01
-3.255012688856850911e-02,-3.763244211642775561e-01,-3.524793250075586304e-02,-4.135341962744780225e-04,6.400656404195344523e-04,8.496932391636799605e-04,3.424390554428100586e-01
-2.902324835556430171e-02,-5.025460038815110497e-01,-6.964037659287219961e-02,-1.134541972934969070e-02,-6.386325712046971720e-03,5.569424279581000614e-02,4.652466773986816406e-01
-3.174152056692891577e-02,-3.860494072273267241e-01,-7.608048521145716059e-02,-2.018040229839765192e-04,3.681142730838186396e-04,5.072386292423494182e-03,3.344668745994567871e-01
-2.870797780475939365e-02,-3.856638413635142815e-01,-8.044708300100961162e-02,1.734403195524430660e-03,1.718244558795135879e-03,4.029479606278976549e-03,3.342041969299316406e-01
-3.050379726308768968e-02,-3.769377986719467111e-01,-7.218582907223206058e-02,-3.174358702210413577e-04,6.263247444328385498e-04,-2.175269315240478327e-03,3.276118338108062744e-01
-3.274348666065104996e-02,-3.797359705580584666e-01,-6.819069456239651439e-02,-1.458650397826735017e-03,-3.749433849092083468e-03,1.625275411191610953e-03,3.307821750640869141e-01
-2.999289927025254598e-02,-3.679119050557865256e-01,-2.928579585302662491e-02,2.973837379982643557e-04,-6.293261420309170687e-05,2.682536419592897441e-04,3.382738530635833740e-01
-2.856420936535367106e-02,-3.972930727233811021e-01,-6.685357832916689891e-02,-7.390639408218861988e-04,6.588571058203289942e-03,4.081900280679142540e-03,3.514121472835540771e-01
-2.771421527067376156e-02,-3.666730748129185535e-01,-3.228004117570879017e-02,1.470779716033781062e-03,1.220531916638002224e-03,2.989519777003027076e-04,3.367158472537994385e-01
-5.618260746779916298e-02,-2.268050734727024842e-01,-5.129613091043908751e-02,1.613253961706054632e-02,-5.383060476223344021e-03,-1.199583558539019379e-01,2.720429599285125732e-01
-2.737025808580555164e-02,-2.349254645820421372e-01,-6.622811240106021846e-02,5.443790270262160308e-02,-6.751260923631624555e-03,-4.257208633886817341e-03,2.135544717311859131e-01
-4.487618433778904625e-02,-2.278151298421767779e-01,-3.435339148568174183e-02,1.193245741797142358e-02,-8.656249709465036607e-03,-3.059157782663536954e-02,1.973876655101776123e-01
-2.767116193424666581e-02,-3.671468852558096296e-01,-2.917683766297740622e-02,1.651091210973275401e-04,5.537793202345319375e-04,-5.076603410063624991e-05,3.387268781661987305e-01
-2.502707247625572673e-02,-3.024409249042180337e-01,-5.302868690715602240e-02,2.196072722716089966e-03,4.726633623063718724e-03,9.285820175886166060e-04,2.646858096122741699e-01
-6.044616478902308659e-02,-2.690668468791317380e-01,-3.350917237665716752e-02,-4.836752337841703116e-03,3.799004858371715101e-04,-2.721780022637873553e-02,2.283874899148941040e-01
-4.809212969870810261e-02,-1.976573136286311205e-01,-6.214064752989674478e-02,2.508726570848913984e-02,-6.575692835956804816e-03,-1.252951547076607344e-02,1.515081971883773804e-01
-3.418115327206600051e-02,-3.576866647114760878e-01,-3.454537068686688861e-02,-4.360490378756624874e-03,-1.057679715904512319e-02,2.692875425975693477e-03,3.239637613296508789e-01
-3.257186795606129004e-02,-3.767183086641529011e-01,-3.484120395019137117e-02,4.694668718895194932e-04,1.859034183102914201e-03,7.494156026989718051e-04,3.430359363555908203e-01
-4.630131980682018755e-02,-1.733780992919179975e-01,-6.387341329402897172e-02,6.215499003363843949e-02,1.117624962792524964e-03,1.823761049553891504e-03,1.607100963592529297e-01
-5.046603275295718366e-02,-2.271135129325645985e-01,-3.596056378284408217e-02,1.650497757469158305e-02,-1.164150471465450268e-02,-2.960611997615172561e-02,1.945005953311920166e-01
-3.394891628879159740e-02,-3.759110652916245465e-01,-3.296045950633985644e-02,1.220058397059969641e-04,3.392069429075719560e-03,-4.097670517438796705e-05,3.425079286098480225e-01
-3.712602847574426879e-02,-3.750474531764375064e-01,-3.240729951724755087e-02,1.253238149968503379e-03,3.331263913343051469e-03,8.599257910902167621e-04,3.403644263744354248e-01
-3.174334332631080502e-02,-3.669058345241508756e-01,-3.429478586046386113e-02,4.120550742880722600e-04,1.039323811197380518e-03,4.422317614094271139e-04,3.339005708694458008e-01
-3.503774420323452210e-02,-3.757797122725206052e-01,-3.471381289488476019e-02,1.016325143420025419e-03,1.867845980204853242e-04,1.249767975039352361e-03,3.409156203269958496e-01
-3.410415039734160381e-02,-3.776952653611277411e-01,-3.540902824060414289e-02,6.318628047916922887e-05,6.714963000105779543e-04,-2.628929903526396072e-04,3.429428339004516602e-01
-3.369679962692670450e-02,-3.770842140764043560e-01,-3.369906303861813779e-02,2.720600660299529565e-04,-5.857871919261947219e-08,-4.171453292628652418e-04,3.433873653411865234e-01
-3.450226478566821575e-02,-3.758635165946506707e-01,-3.687720728928876868e-02,7.269297585121808729e-04,2.186208518881744406e-04,9.714873523591937340e-04,3.401867151260375977e-01
-3.353914442496092052e-02,-3.443733943718960688e-01,-3.750020790180354224e-02,-2.712914854758216934e-02,-3.378403272118685532e-03,1.942808285627800613e-02,3.142880201339721680e-01
-4.523188475000390618e-02,-3.661059405446909221e-01,-2.475957134872466825e-02,-2.511395175516267786e-03,-2.192019426051000164e-04,7.199542430294125599e-03,3.318476676940917969e-01
-3.368541620687988403e-02,-3.518176487196483793e-01,-3.158661304427617944e-02,-1.600514508432965277e-02,-9.211917124502960047e-03,1.273948864249460459e-02,3.215434253215789795e-01
-1.950627648656057256e-02,-3.568052135676203496e-01,-4.388427414884649158e-02,3.738354064088654245e-03,-5.283414712514105174e-03,-1.478791411342945516e-03,3.259975612163543701e-01
-4.713994834339099715e-02,-3.651775915439637865e-01,-4.258418561900062516e-02,5.797945970943231076e-04,-9.892790627876245184e-04,5.272843372271340638e-04,3.203472793102264404e-01
-2.148710767177090808e-02,-3.624689431373001591e-01,-3.690498162180316788e-02,3.730342122615437541e-03,-6.918976568189823609e-03,-1.799076368620016820e-03,3.338325619697570801e-01
-2.379115858353333945e-02,-3.635061575073249562e-01,-3.622609542256531590e-02,3.269868009923488131e-04,-3.449392303308700981e-03,-6.434118806927888613e-04,3.337271809577941895e-01
-2.116172558664503045e-02,-3.631817038170460643e-01,-3.988646869330228495e-02,-6.659642933384787335e-04,-1.249604106153337068e-03,-1.163183639553871810e-03,3.330677449703216553e-01
-4.177088669689893452e-02,-3.676897299512184025e-01,-3.852025222800220527e-02,-2.851803734760059370e-02,5.566488477657372501e-03,-3.161784448624427053e-03,3.314451575279235840e-01
-7.612035497063562861e-02,-3.891473759868268045e-01,-2.763951365249325831e-02,4.442851598924308851e-03,-1.153460394668697105e-02,2.094628117866818590e-03,3.405637145042419434e-01
-4.638282427535363184e-02,-3.691336316551727670e-01,-4.631765398174977899e-02,2.132729839848585950e-03,-1.111662662569870086e-03,1.560515446676572849e-03,3.228215873241424561e-01
-6.332588886806157780e-02,-4.333183634473781742e-01,-3.033478952355905811e-02,-5.536242178358245780e-02,-3.727763509218170058e-03,-1.669953813993914002e-02,4.003281295299530029e-01
-5.483440899882317809e-02,-3.650514463496124518e-01,-4.635559861543807336e-02,-1.837317197287390838e-04,-2.395831200914985779e-03,1.138075118817630325e-03,3.145758807659149170e-01
-4.254865103687975603e-02,-3.647630934944644521e-01,-1.825908834346516574e-02,-4.938212191186311991e-04,1.710092431694353737e-03,9.022580459557037053e-03,3.353987336158752441e-01
-6.816110161502036968e-02,-4.605160143306514797e-01,-2.906506278818052347e-02,-4.354039004222955839e-02,-6.952432154045632730e-03,7.674269857512386675e-03,4.204989671707153320e-01
-2.022821999730566034e-02,-3.602536761633914342e-01,-4.525966330985914388e-02,-2.162014990585818964e-03,3.987915194885669964e-03,-8.892223408665481544e-04,3.283240199089050293e-01
-4.296908904214272185e-02,-3.736573200267213624e-01,-4.088964140815426473e-02,-3.967199932844939561e-03,-1.520527254381892754e-03,-1.417250183959119746e-03,3.318235278129577637e-01
-3.882664029993544708e-02,-3.671068371652340678e-01,-3.725236012240852601e-02,1.832631160044225022e-05,7.425036428386767558e-04,-4.381069935770512099e-04,3.290735483169555664e-01
-6.531536345570108926e-02,-3.944901699094965353e-01,-3.063317458814229788e-02,-4.387322491973411759e-02,-7.449453403296695496e-03,-8.390291096137640625e-03,3.565496802330017090e-01
-4.280481894929447084e-02,-3.706588424692509598e-01,-4.003356023446856538e-02,4.602226540521432143e-04,2.325070269599202870e-04,2.217918011485286826e-03,3.292720317840576172e-01
-4.819916040508089028e-02,-3.866447479178955482e-01,-5.517083814774782768e-02,8.422191826398063574e-03,-1.485243271646908940e-02,-4.184891246944805361e-03,3.363950252532958984e-01
-6.526610237748867172e-02,-3.117545841997909628e-01,-3.003901634043439073e-02,2.360554570379225139e-03,2.249203058151676854e-04,-1.780742275863083984e-03,2.659078240394592285e-01
-6.217518416840954465e-02,-4.075893561946615229e-01,-4.458891057311317740e-02,6.416576583164507359e-03,-1.489013362132059030e-02,-1.594772178401144061e-02,3.567161858081817627e-01
-2.866909604332877615e-02,-3.694549479351922905e-01,-3.947081156442917849e-02,-1.655990229610567735e-03,6.058206923433635989e-03,-1.025232987914639253e-03,3.356964290142059326e-01
-5.026938953423432110e-02,-3.642795919122361337e-01,-4.772973993495434331e-02,5.057588316838092018e-04,-9.148574748884532540e-04,5.963138973809705388e-04,3.152945935726165771e-01
-1.832692478790889923e-02,-3.454247860473957377e-01,-4.154681056041896470e-02,7.330569554150630218e-03,7.322973567617893642e-03,2.220743802101438069e-03,3.166605234146118164e-01
-3.211385537999178474e-02,-3.762649916894514890e-01,-3.315882424164592890e-02,-2.255821186511602363e-04,3.567216638531562484e-03,2.743660942916151604e-04,3.436859250068664551e-01
-3.689180878932510343e-02,-3.754092572018881135e-01,-3.337518902197755821e-02,9.897468389831443579e-04,1.247639158086139867e-04,2.602483392086374489e-04,3.402940630912780762e-01
-2.090510450907177853e-02,-3.705095956885871011e-01,-4.095528097685628699e-02,-2.111214895280454518e-03,4.625063898244540818e-03,6.476182317276729444e-04,3.401389122009277344e-01
-3.459690751391145125e-02,-3.698755453197113408e-01,-3.770594877543005652e-02,5.421235922674985403e-04,2.105621823791229471e-03,6.711923711820162557e-03,3.339586257934570312e-01
-2.806499373109234974e-02,-3.718732536510547249e-01,-3.918229989449224793e-02,-1.219623180631697942e-03,1.134306956657934367e-03,6.247636572578021876e-04,3.384006321430206299e-01
-2.922857098173310686e-02,-3.754608209518346396e-01,-3.689618622031708151e-02,-4.554840980257762219e-04,2.271058012796923088e-03,2.950547780026827288e-04,3.424867093563079834e-01
-1.714336537089711232e-02,-3.551837518106657487e-01,-4.656277409856668381e-02,1.108995337393381235e-03,-1.824581405432174194e-03,-4.808140074944154425e-04,3.243550956249237061e-01
-3.400834107840086662e-02,-3.768394287101487494e-01,-3.368610269952355962e-02,7.079829733461081253e-05,6.946643144258203431e-04,7.493960038906205112e-04,3.429968953132629395e-01
-1.892505344899332587e-02,-3.583707913683434887e-01,-4.315323523017844387e-02,1.717305344596452288e-02,-4.308916813037969723e-03,-4.157504633397781507e-03,3.295125961303710938e-01
-3.169043287619699445e-02,-3.769317394747483396e-01,-3.662576669856018596e-02,1.699669391551113641e-04,1.059535038278352397e-03,2.361647801732870281e-04,3.428055644035339355e-01
-1.059157472555855017e-02,-3.481469534364017848e-01,-5.006069934239336383e-02,2.649161170891132112e-03,-1.198154948943706702e-03,-2.268985511648292190e-05,3.196932673454284668e-01
-1.341065798360263628e-02,-3.542216230500402352e-01,-4.547287937125230051e-02,3.930904775259800622e-03,-4.686797275745078172e-03,-2.015095948380276822e-03,3.261554539203643799e-01
-1.172164591060798067e-02,-3.582069201026403249e-01,-4.988112621583822015e-02,3.986101814731447812e-03,-1.056933653158577706e-03,-8.224963084954093739e-04,3.291497230529785156e-01
-1.655193450316164161e-02,-3.639281635955744498e-01,-4.543800308666394450e-02,5.192115218971782515e-04,2.558219089221107096e-03,-2.520090426381978556e-04,3.339025974273681641e-01
-1.594540526825255489e-02,-3.625200017259262997e-01,-4.532119652080514316e-02,2.048077024709819296e-04,-1.913360068000800537e-03,-1.517719944237354811e-03,3.328873813152313232e-01
-3.975821464714075770e-02,-3.301833185904510248e-01,-2.159389063981476120e-02,2.867632128760734013e-03,1.008573467945845549e-02,8.384892209650577841e-03,3.008202314376831055e-01
-3.790032976548350641e-02,-3.560212965148890074e-01,-3.338356123819510857e-02,1.053634661974300890e-02,3.277388670120217999e-03,1.195761920784360263e-02,3.216402530670166016e-01
-4.768387389318839986e-02,-3.504119575507600448e-01,-1.322326913474553001e-02,7.768866561171035344e-04,5.127199705489002973e-03,4.315498839533475801e-03,3.215595781803131104e-01
-4.685625755758569821e-02,-3.596496802356990985e-01,-1.414600257871190259e-02,4.261420528495477771e-04,5.193970831623880881e-03,1.505940096784770012e-02,3.315163254737854004e-01
-4.976641188133403004e-02,-3.395567460384578684e-01,-2.092307271364252097e-02,6.171734472642554335e-03,1.183608006090042936e-02,1.159811918374160228e-02,3.067686259746551514e-01
-4.400920907151649464e-02,-3.476273018900569722e-01,-1.372509706078046954e-02,3.569166655332634648e-04,5.979875660351466164e-03,5.406873904137691339e-03,3.201425373554229736e-01
-4.013259753073443459e-02,-3.205360063010235239e-01,-2.443248101174508302e-02,2.167719482850625698e-02,1.184933912412622706e-02,3.226670616707997402e-02,2.970341444015502930e-01
-5.342802465790377764e-02,-5.662088479064670832e-01,-2.824621231455859416e-02,-4.529043910323154315e-02,1.700929772087097277e-03,-4.476090893183332781e-02,5.372745990753173828e-01
-3.410448422369949384e-02,-2.862455373277352777e-01,-4.715639584534317419e-02,3.546686829969560029e-02,1.574452153854306868e-02,1.521594215382501315e-02,2.562547326087951660e-01
-3.551014498673446540e-02,-3.599623217844879486e-01,-4.871305403353466679e-02,3.949033387405302686e-02,-2.759906023323110275e-03,4.991099955118800946e-02,3.366518318653106689e-01
-9.513424220249228069e-03,-3.489145359347836095e-01,-4.953662764526028939e-02,6.676747058776529888e-03,1.230964952432624061e-03,-1.042286572317825417e-03,3.214849829673767090e-01
-3.998748281471874166e-02,-2.541988305019557415e-01,-3.558995935572317748e-02,8.672038772781773264e-02,-1.305918611721425607e-02,7.461129185760448368e-02,2.943149209022521973e-01
-2.890966915226650391e-02,-3.587072453660928306e-01,-4.292612046418665950e-02,4.688513396593657623e-02,3.163605049477918613e-03,1.600441012290027692e-02,3.342654705047607422e-01
-5.873061805535395585e-02,-1.107685804104357463e-01,-5.487926998970972525e-02,9.876754569362114489e-03,8.088392253567354960e-05,4.088541069370169728e-02,9.072331339120864868e-02
-7.174522356412657564e-02,-2.075648925071064688e-01,-6.961218768587769390e-02,-9.044601635960842351e-03,-1.409306818150576294e-03,-2.900705645355096569e-03,1.379052400588989258e-01
-6.881539906927051919e-02,-1.699499499939829961e-01,-6.691673113498236569e-02,4.816938013338533287e-04,-2.181099331288783444e-03,1.154019223722297163e-02,1.041072458028793335e-01
-5.031273689322236786e-02,-3.646920233585447813e-01,-4.831695077034897645e-02,5.743103692916922461e-04,-7.873474135849810231e-04,1.980430148376170979e-04,3.153866231441497803e-01
-7.079627782408048908e-02,-1.920508306529840614e-01,-7.299920437952527041e-02,2.721669629945118116e-03,-2.217850159162596674e-03,-9.907016918137001582e-03,1.215394213795661926e-01
-3.794054622672310417e-02,-3.666565503573430140e-01,-3.639427815791776433e-02,-4.589643008562073164e-04,6.482153385370218205e-04,-1.015446969486299761e-03,3.294994235038757324e-01
-6.733736008398899520e-02,-1.799137216072004275e-01,-6.466468338642600289e-02,3.424916140845020440e-02,-3.789216183774504060e-03,-2.331200149359524687e-02,1.348105967044830322e-01
-6.552107005955271068e-02,-1.585856170839585466e-01,-6.893529792120768607e-02,8.080459410456256129e-04,-1.081156365247390276e-03,-1.159678230810199696e-02,9.361541271209716797e-02
-4.630625242151423238e-02,-3.645392595016372916e-01,-4.378147499433653056e-02,2.586919250964233685e-04,-9.952227273172897619e-04,9.055427385130318269e-04,3.195116817951202393e-01
-6.965632199736615515e-02,-2.003835573221363076e-01,-7.193499453860963122e-02,1.508701780558210741e-02,-5.471192193418384113e-04,1.682990905490985888e-03,1.322466135025024414e-01
-4.725861135885463249e-02,-3.666172309387486505e-01,-4.512476168556441014e-02,2.049431191225155823e-04,-6.531025178206688537e-05,1.747010199878341104e-03,3.204453885555267334e-01
-2.003620027918989743e-02,-3.695510992634005731e-01,-4.319607900923311261e-02,-8.537205705526739862e-04,2.263134587849883767e-03,-9.952022401900984319e-04,3.385599553585052490e-01
-6.994231584205973240e-02,-2.053614759684023738e-01,-6.367940833724457239e-02,7.314410367746812525e-03,-3.057600957446177624e-03,1.215050736131466184e-02,1.409153789281845093e-01
-4.995029799733637088e-02,-3.316232455337270735e-01,-2.227595552747582697e-02,-8.031075095691434310e-03,-7.133508954114927900e-03,-4.689613309904169304e-04,2.970647215843200684e-01
-3.548640542179551383e-02,-3.619174894508198070e-01,-2.232985131712499072e-02,1.238838772595107383e-03,-6.037374919901503795e-03,-4.494573075158040353e-03,3.334660530090332031e-01
-4.217599868164698118e-02,-3.524210776939050715e-01,-2.103223314931286503e-02,9.995495773123044825e-04,-6.496291231037783914e-03,-9.863052180254738843e-03,3.219941854476928711e-01
-4.718367631632044978e-02,-3.630673267572648855e-01,-1.849589581367019897e-02,8.588708305935513704e-04,-6.165892388793083739e-03,-5.794778775035023567e-03,3.314882814884185791e-01
-3.556513371182841443e-02,-3.748530634532007411e-01,-2.850063457910491371e-02,9.243924526382310504e-04,2.476697021266491099e-03,-3.500909747334945529e-07,3.429053425788879395e-01
-3.477365264046801407e-02,-3.427613677381183832e-01,-3.047775032301880405e-02,-6.461526981933674496e-06,-1.183392363763267723e-02,-2.877225593937898611e-03,3.108744621276855469e-01
-4.299585284732665436e-02,-3.624079467347379180e-01,-2.069006820421703807e-02,-2.406527244132726127e-04,-6.620540302047677947e-03,-5.762724923862567496e-03,3.314779996871948242e-01
-1.511126273849554280e-02,-3.539077728811953483e-01,-4.735900095087042239e-02,1.664998888438708885e-02,4.763196766399913941e-03,5.388956562429190328e-03,3.253988623619079590e-01
-3.252520897255804788e-02,-3.767122561033837691e-01,-3.234579708268875420e-02,8.669635164249917458e-04,1.188653304798813594e-03,2.770624261343229895e-04,3.442865610122680664e-01
-2.106028428390301077e-02,-3.675105365782025402e-01,-4.365265270853607715e-02,1.511148948533912737e-04,1.291797469626874842e-03,7.330731116112689395e-04,3.357346355915069580e-01
-2.211182966811402195e-02,-3.570852959910312263e-01,-3.976075355950925427e-02,5.844188249868171019e-04,5.586795790681380915e-03,-8.805955900193602678e-04,3.266554474830627441e-01
-2.833452998943554457e-02,-3.646899303604640985e-01,-2.788832401173786668e-02,1.375232587854752610e-03,3.567860116256944998e-03,5.579745570489294797e-04,3.366452753543853760e-01
-2.830602246474633876e-02,-3.553369984853305130e-01,-3.756999013545267441e-02,4.294175574131114947e-03,1.279310477905843020e-02,5.188728539322823470e-03,3.234695494174957275e-01
-4.289366300550602473e-02,-3.704284211722481679e-01,-4.531668329199961542e-02,2.710544783487623039e-04,1.337542825805146211e-03,2.641768061735859222e-04,3.263388872146606445e-01
-3.755544528312153296e-02,-3.735993025249789157e-01,-3.672256136857164621e-02,2.907942284614139714e-03,-4.126664783931944798e-04,-2.593466911387207023e-03,3.365295231342315674e-01
-1.375237646672664016e-02,-3.569383476901049068e-01,-4.888990191463078727e-02,3.798166996040464472e-03,3.557698988153576523e-03,7.983241570166741536e-05,3.271602392196655273e-01
-1.390313985292988830e-02,-3.514686250618921926e-01,-4.379361700580343408e-02,1.825820928791639436e-03,2.057224777653764158e-03,8.138681910079191518e-04,3.236952126026153564e-01
-2.312481068744966228e-02,-3.587699747640635817e-01,-3.936337277346707575e-02,5.223054245766137020e-04,5.052092759024591657e-03,1.406382017979061890e-03,3.279547095298767090e-01
-3.723175632283269587e-02,-3.751294253562532655e-01,-4.025922187452096734e-02,4.401882878276278826e-04,1.526043522818450572e-03,-1.819068506957309431e-04,3.364055454730987549e-01
-3.433516696297798931e-02,-3.670686077108736844e-01,-3.197459598347032750e-02,3.160071461205566116e-04,5.981218591370202758e-04,4.007416784479855940e-04,3.339227735996246338e-01
-5.167240220275742812e-02,-3.820888047092576012e-01,-3.385817605148985776e-02,-1.005336850333992223e-04,2.012016010509513550e-03,-3.372733946516388425e-03,3.397421836853027344e-01
-6.259311999316088948e-02,-3.766411135169783209e-01,-3.568380548186433909e-02,-4.866876845058748687e-03,-1.271290620594801466e-03,-1.097451543491498706e-03,3.284518122673034668e-01
-7.491631285973893162e-02,-4.136501503213667053e-01,-2.696422908094209259e-02,-1.178301771584071246e-03,3.526602448681989341e-03,-1.213014148331901555e-02,3.657402098178863525e-01
-3.512837367125595800e-02,-3.774596510645455982e-01,-3.278009983437035757e-02,-2.292147907613251178e-04,1.030311741326067707e-03,3.001288292925499246e-04,3.435166776180267334e-01
-7.298138692578892694e-02,-3.869234916136147229e-01,-3.082484885047043210e-02,1.994941798386665015e-03,5.478555004919414482e-05,-2.331901001444894924e-03,3.370456695556640625e-01
-7.318849669769865451e-02,-3.798586200495597254e-01,-3.110165760791713807e-02,2.036756548218250987e-03,3.887623427445099922e-03,1.317348715871105970e-03,3.298296928405761719e-01
-7.252107136958839406e-02,-3.841669282342581315e-01,-3.172815649084054224e-02,-3.621424835494597809e-04,6.738203160702642500e-04,-9.715741556825047620e-04,3.339232504367828369e-01
-3.261634305912457232e-02,-3.654566693461474003e-01,-2.626101868382003934e-02,1.148065176551421466e-03,-1.823628919576485152e-03,-6.606159359095699259e-04,3.360857367515563965e-01
-6.324218183541427396e-02,-3.757517008401495828e-01,-3.300833353281111548e-02,-3.142439355388642469e-03,8.188585990923270483e-03,-7.092825936976764056e-03,3.292511999607086182e-01
-4.305917919320839671e-02,-3.129567461582328791e-01,-3.390873856559399602e-02,-1.081946224504964915e-02,-1.328573910767976742e-02,1.489864875005444261e-02,2.773891389369964600e-01
-4.369490875580457623e-02,-2.542180902543658139e-01,-4.698888688968186345e-02,2.588427011989889465e-03,-6.004179792703387636e-04,9.510789180698880907e-02,2.660735249519348145e-01
-2.774133266759915006e-02,-3.691168752002077502e-01,-3.892465193858586636e-02,-6.391008951937390999e-03,-6.279157772101603627e-03,-9.741086581084754895e-04,3.362860083580017090e-01
-5.143990157851585643e-02,-3.462126191337860925e-01,-9.224084598486614883e-03,-5.514106043765792812e-04,4.551157988276328622e-04,4.358113839083467686e-04,3.179926276206970215e-01
-5.238924718986281981e-02,-2.870854742660217118e-01,-1.772462653713610670e-02,-1.976443102192958559e-02,-1.006751048896519299e-02,2.117062676260968515e-02,2.593070864677429199e-01
-3.443932229059570860e-02,-3.673611881988172456e-01,-3.877271022368150577e-02,8.341788342235540409e-04,-3.215269243309220085e-04,-1.152593913912318586e-03,3.307861089706420898e-01
-5.968181487624105858e-02,-2.224606296756775348e-01,-3.561943578043351433e-02,1.055898343263077070e-02,8.760930469061997683e-03,5.141601672274899448e-02,1.987167447805404663e-01
-4.121435062648824699e-02,-3.538672730046506509e-01,-5.570795759845917350e-02,-1.580941620009117601e-02,-1.675404522013277352e-03,1.497296544875310019e-02,3.079955279827117920e-01
-5.830325725832723183e-02,-2.041392859691340544e-01,-5.014963865633090961e-02,5.851471356140397137e-03,2.428946446357682556e-03,2.317618613057589524e-02,1.557419151067733765e-01
-4.412794705806673268e-02,-3.654435164251292889e-01,-4.365617369485787214e-02,-8.221989554811499337e-04,2.374907856982299247e-04,-6.241915936743119278e-04,3.215569555759429932e-01
-4.383059313282697267e-02,-3.605594297683351046e-01,-1.562171112968922804e-02,-6.932540817208200255e-04,-4.160620761271243383e-03,4.046459713047128801e-03,3.318884670734405518e-01
-3.156704049720358840e-02,-3.664435203263649576e-01,-2.902119754770224325e-02,-6.079352427694059095e-04,-4.212814865984212780e-03,-2.536948434464561248e-04,3.362377583980560303e-01
-3.271421663314387496e-02,-3.830277359066989185e-01,-4.927752678096537775e-02,-1.709018310154007160e-03,-3.591204886420028709e-03,1.231894621390568038e-02,3.430660068988800049e-01
-3.739752737512262726e-02,-3.846233622240398109e-01,-4.131220288353829040e-02,3.174592008189416198e-02,-4.955364701338513169e-04,-7.366336213490221399e-03,3.498696386814117432e-01
-4.485720878490725982e-02,-3.540864181671176114e-01,-1.164648868082907018e-02,-4.606967644243396593e-04,3.356500519368858793e-03,1.415705748238842805e-03,3.271633088588714600e-01
-3.796030608967279618e-02,-3.662047853685412857e-01,-3.885384493576594933e-02,-2.139017520417832758e-05,3.892695968826470707e-04,8.799359027371941172e-04,3.278028666973114014e-01
-3.707953000719706182e-02,-3.381023407009968174e-01,-3.469456269232149004e-02,-4.553760176673303929e-04,-1.241287048258439725e-02,-3.739595666699382839e-04,3.029878437519073486e-01
-5.298375815619477125e-02,-3.420567718876686980e-01,-2.082186137343795818e-02,-6.293450825301203375e-04,-8.674202972078022891e-03,5.911977263815126763e-04,3.067942261695861816e-01
-4.684990160777759149e-02,-2.879323391911234875e-01,-3.056081310997194045e-02,8.327709032006337664e-02,1.146862304182750918e-02,-6.880139246068639469e-02,3.125920593738555908e-01
-3.128970813290467279e-02,-3.698021579314887397e-01,-2.724509964123406069e-02,7.194255159348387878e-04,-2.535934787242549032e-03,-7.380196536292793052e-04,3.405857682228088379e-01
-2.020161150422597474e-02,-3.614974702610263546e-01,-4.327329588528346094e-02,2.896239997382346089e-03,-1.142691109274805716e-03,-1.122370899125762697e-03,3.304145336151123047e-01
-1.416052437909354200e-02,-3.637479884375557915e-01,-4.728274701315554607e-02,-2.323768804496590366e-03,-4.568661826064160988e-04,-4.200758609724739847e-04,3.342853784561157227e-01
-2.049629533133881520e-02,-3.664025534778646565e-01,-3.993266898166693279e-02,1.080741484840331158e-03,-1.489374889609313204e-03,-2.451981130506896301e-03,3.366510570049285889e-01
-3.595352332351210711e-02,-3.604736291442375284e-01,-2.328589205983995492e-02,-2.215487809688777322e-03,-3.857672343465050162e-03,2.757503899608034891e-03,3.311598598957061768e-01
-3.238118606435475000e-02,-3.703693299930314042e-01,-4.112491918862928864e-02,-5.726800355496999015e-04,-2.201691093536882265e-04,-2.679561298094079811e-03,3.337361812591552734e-01
-2.722763829020509452e-02,-3.627932870838388446e-01,-4.356473069841648726e-02,4.602521767169884259e-02,-1.795751968063726781e-03,-1.804702778528510104e-02,3.387193083763122559e-01
-5.161074680333463394e-02,-4.691196128375821894e-01,-3.254189921125744123e-02,-9.214559875145987566e-02,2.012173099728924684e-03,-3.765340083363825918e-02,4.608433544635772705e-01
-2.903391962388804370e-02,-3.304533930510651363e-01,-3.979440541200650328e-02,3.464971627962595141e-02,8.893685082302075010e-03,2.697419885438102904e-02,3.061829507350921631e-01
-5.789876779325255074e-02,-2.186717816916763368e-01,-4.977979037604145923e-02,1.102094271301716916e-01,5.114194507246082669e-03,4.403884240884109263e-04,2.524610757827758789e-01
-2.006561017101876621e-02,-3.488484485366754040e-01,-4.324070969254474595e-02,1.364047058494588169e-02,-8.623684723740240865e-03,-3.696615244211825992e-03,3.191205859184265137e-01
-5.421374014892053894e-02,-2.835124531597277286e-01,-2.476579136085198252e-02,1.115739398773185481e-01,-1.627160412231152403e-02,4.211982875805510979e-02,3.219630718231201172e-01
-1.869635317337241254e-02,-3.390699265550993768e-01,-4.537872158844434567e-02,1.376469638190597720e-02,-1.453584501097781277e-03,4.034860648464136910e-03,3.089116811752319336e-01
-4.880232019922331466e-02,-3.534656796343694785e-01,-1.633345745508651969e-02,1.153861383767363350e-04,-3.982424461811561248e-03,-9.515258580840487703e-05,3.222013413906097412e-01
-3.001335383897196785e-02,-3.696993963459370147e-01,-3.205863970030656263e-02,-7.482091310555632709e-05,-1.639757097047931311e-04,-6.691463082400910239e-04,3.386701643466949463e-01
-4.777666320888215856e-02,-3.718770862672414745e-01,-3.689698562552051753e-02,4.239576161568246737e-03,1.177521853128734057e-03,-3.938602881415708898e-03,3.298335671424865723e-01
-3.229560050470238475e-02,-3.666415764028774227e-01,-3.012115030418803518e-02,-1.345375795344217786e-03,-3.004463025871029029e-03,1.268625290792629347e-03,3.354941308498382568e-01
-3.382926076705421170e-02,-3.659609431276429903e-01,-3.035054168661004137e-02,4.744089640198577581e-04,-1.614423749933067498e-03,-5.304390133827394235e-04,3.338986039161682129e-01
-3.408057437366235343e-02,-3.701685057657143618e-01,-2.665019913812713415e-02,-1.321200102145164094e-03,-1.906990344036391073e-03,-9.594377926917350020e-04,3.398918509483337402e-01
-5.502237347563034009e-02,-3.088588113028931659e-01,-2.876240962231128850e-02,-7.555292120871721613e-04,-1.078353577900557046e-02,1.315882266410331068e-03,2.685963809490203857e-01
-1.915300871112275705e-02,-3.690690289721635930e-01,-4.380245522752575227e-02,-5.191378772327233382e-03,-1.459264671144555126e-03,-6.885229045755207221e-04,3.383965790271759033e-01
-2.884917941507282590e-02,-3.700019885109220863e-01,-3.124311775406730940e-02,-1.906619787113878899e-06,-2.365511699198866950e-11,2.399440567925482153e-05,3.399621546268463135e-01
-3.336018378772304116e-02,-3.668504851004214529e-01,-2.900695363690784789e-02,-1.798426157402341699e-03,-5.616305011365369838e-03,5.444493479584762863e-04,3.358447849750518799e-01
-3.616236597581454215e-02,-3.624901738271844032e-01,-2.339957460103735121e-02,-9.572177161474109655e-05,-3.352303509191790348e-03,-2.547375637689949183e-04,3.329437077045440674e-01
-3.168681907943199372e-02,-3.652694832959412219e-01,-2.944679938215763459e-02,2.901523346746190824e-05,-4.271720041930657415e-03,3.008043545501111688e-04,3.347904682159423828e-01
-2.891775378461655666e-02,-2.677698516625278691e-01,-5.211636900925509241e-02,4.849389113851115124e-02,1.379222682337182156e-02,3.471221782984306586e-02,2.515709102153778076e-01
-1.746722445046931804e-02,-3.612773977835648243e-01,-4.004354513022533035e-02,1.458209846144137203e-03,2.574024899810728809e-03,7.488618575076355080e-04,3.331382572650909424e-01
-1.339678906874315623e-02,-3.377814207608834662e-01,-4.468205221898646773e-02,1.088877604304180208e-02,4.728801303591319109e-03,2.387257206428497393e-03,3.106373846530914307e-01
-5.004421294088559624e-02,-3.738670132835512638e-01,-3.602536621857303778e-02,-4.571773237821952565e-03,-1.366218292437417371e-03,1.314373858870650788e-03,3.311658799648284912e-01
-4.980357494939154084e-02,-3.638101271200477327e-01,-1.406632236387300727e-02,-9.297951964390473991e-04,2.609805514453858400e-04,-1.966347147921682949e-03,3.333367705345153809e-01
-5.064444657760325263e-02,-3.422647197278862463e-01,-8.915118372114338996e-03,1.910066877447699004e-04,1.425049340862016845e-03,1.158694651405389959e-03,3.145839571952819824e-01
-5.388825703987434879e-02,-3.651976084557601032e-01,-1.535340401652382503e-02,-9.398266034354139931e-04,1.572471332361971693e-03,-5.858087080137542972e-03,3.324270248413085938e-01
-4.755424684004719293e-02,-3.524652355981031659e-01,-1.066128124475451688e-02,-7.364964595132733832e-05,-7.728995927354693910e-04,-1.154258141601835095e-03,3.249410390853881836e-01
-4.710365955878204058e-02,-3.747575709068718397e-01,-4.174107094572625243e-02,-2.691687069309636055e-03,1.551645316699479943e-03,-4.601684379224131247e-03,3.305077850818634033e-01
-4.640427615779163517e-02,-3.675674774508370657e-01,-1.753590813426225692e-02,-9.908755919376410499e-04,2.396018505443686230e-03,-1.472220820289988925e-03,3.365669548511505127e-01
-3.658305812501905230e-02,-3.672579856936384890e-01,-2.575473998337962644e-02,-1.164393607030639191e-03,-5.147330809084386602e-03,5.331272816243674828e-03,3.364708423614501953e-01
-5.582122631471053004e-02,-1.396481955249643248e-01,-1.135977285656349089e-02,3.256777017055358797e-02,-1.146955677433896675e-02,5.817634562186583397e-02,1.626681983470916748e-01
-4.633839543427614727e-02,-3.638188250065108043e-01,-1.648498326192415764e-02,-7.111047543038296302e-04,7.065373865930538221e-04,-3.235644078112632008e-04,3.334160447120666504e-01
-2.548733089411159281e-02,-3.692201813377533615e-01,-3.758601837754663166e-02,-4.702909354551309444e-04,-3.485352920191534237e-03,-1.087201956664988426e-03,3.379061818122863770e-01
-5.109137340386919746e-02,-3.458028625962180636e-01,-1.049057575831674471e-02,6.396161143271601214e-04,-8.196447594682390722e-04,1.156713180112467878e-03,3.169795870780944824e-01
-3.474586013862329681e-02,-3.678627242545805531e-01,-2.867050535283642565e-02,-2.047943202248259792e-03,-5.962986727822686649e-03,1.256851404290669537e-03,3.363800644874572754e-01
-2.504409562016872426e-02,-3.554058251176956951e-01,-3.368831736763515383e-02,-1.710802585960498638e-03,-5.919211534848713673e-03,3.419789754088087340e-04,3.263006508350372314e-01
-2.798884962012182509e-02,-3.623783982445988872e-01,-3.428632320823796209e-02,-5.559909625657533626e-04,-7.353765021090470470e-03,1.086041557129719141e-03,3.315372169017791748e-01
-2.889326846073110577e-02,-3.678298227443822510e-01,-3.242480768902722410e-02,-2.272520395174805734e-03,-3.829448413686521724e-03,4.546025256227251093e-04,3.372737765312194824e-01
-4.470068477938010654e-02,-3.608113806389017242e-01,-1.462301419835865257e-02,-1.550121082373304366e-03,-4.480754584379069753e-04,2.962275106076227120e-03,3.322238028049468994e-01
-3.227661421062391622e-02,-3.697524183734445247e-01,-3.819582691976179667e-02,-6.281678475021282683e-04,-1.246434147236153865e-03,-1.295882881215108416e-03,3.345717489719390869e-01
-4.061042885936530511e-02,-3.420149386783957746e-01,-4.496845620399084198e-02,-4.476023944419334905e-02,-8.338324445509220917e-03,2.161593301368963660e-02,3.117224872112274170e-01
-4.681972567406680885e-02,-4.841386893939373937e-01,-5.046042728084293438e-02,2.088168286610059959e-02,-1.048618966225688988e-02,1.535514141047325185e-02,4.381943941116333008e-01
-4.273827014852188411e-02,-3.872992706360657289e-01,-5.792243289143995943e-02,4.009336701797434031e-03,-1.118837696314664738e-02,3.359613038729016531e-03,3.379032313823699951e-01
-4.461398113076089911e-02,-3.904304714324668413e-01,-6.133658763260943503e-02,6.377818254042481004e-03,-8.187283161862127928e-03,8.813032514657904125e-04,3.382472395896911621e-01
-4.312354752277022807e-02,-3.715622918080927484e-01,-5.318510854050202685e-02,-6.391298511706807036e-04,-6.472801141238477760e-03,3.863565356544622180e-03,3.237905800342559814e-01
-3.982752394037289423e-02,-3.797496168018396068e-01,-6.832579715284063659e-02,-2.928168222997329026e-03,-1.469290396718061532e-02,-1.043973963068366715e-03,3.276410102844238281e-01
-4.991129330779293938e-02,-3.832687290397776558e-01,-4.835186988265226249e-02,3.892674268550697352e-03,-1.027805128933981064e-02,-2.793230610760685686e-04,3.346820473670959473e-01
-4.337394673345953966e-02,-4.011803486789305984e-01,-6.328183544854329434e-02,-3.737847845716000574e-03,-1.974556302834250612e-02,6.866819914247705020e-03,3.502165079116821289e-01
-4.474609316310303175e-02,-3.712250059526067680e-01,-5.327659262263539919e-02,3.016754327506264259e-03,-5.348002944030084277e-03,3.797616699966237068e-03,3.225408494472503662e-01
-2.909872146006606264e-02,-4.388757420460757119e-01,-5.936647050998347663e-02,-1.045460310887709292e-02,5.873698850610021768e-03,1.811241605913076549e-02,3.972982466220855713e-01
-2.106075056272929680e-02,-4.426928617368258156e-01,-7.474908859530993155e-02,-8.556107137221448042e-03,8.762292296169992695e-03,-1.291588412102075666e-02,3.987101316452026367e-01
-2.006969228985391873e-02,-4.158977977567938078e-01,-7.042117412995384240e-02,-3.740718457904297634e-02,6.617235100342724538e-03,4.621380184070319336e-03,3.790487647056579590e-01
-6.428271259489212741e-02,-2.359940204038280531e-01,-4.000379823608138374e-02,1.955518958339004781e-03,4.688531649035798318e-03,4.010756307349357640e-03,1.853884607553482056e-01
-4.022461171270275138e-02,-4.216003329751660811e-01,-5.763504503658686828e-02,-2.480371446931759274e-02,-4.651073934295174030e-04,-3.049028891151054927e-03,3.754795193672180176e-01
-3.027397599031605990e-02,-4.351947538447070163e-01,-4.554399884663372367e-02,-1.270590476960090608e-02,1.181597513226704220e-02,-9.512299563294256827e-03,3.989805579185485840e-01
-4.824421661404718065e-02,-3.445237194379527912e-01,-1.418224805360554508e-02,1.589295866635444731e-03,5.269325283113785070e-03,4.156582808096574710e-03,3.149227499961853027e-01
-3.462306820033858590e-02,-5.284613663054618105e-01,-5.094396004670206923e-02,-7.571216672248895496e-02,1.077622634833629717e-02,4.368379814288618490e-02,5.092670917510986328e-01
-4.908842959732902245e-02,-3.499853345406960248e-01,-8.445562302738379712e-03,9.987234343961349202e-04,1.426326621808624235e-03,3.524325367059261485e-03,3.232127130031585693e-01
-4.771570947115173766e-02,-3.420606018469015686e-01,-1.477218565550558749e-02,-1.734964240218646650e-04,8.099816682151778774e-03,1.767562838787188444e-03,3.124535679817199707e-01
-3.855702589507806199e-02,-4.232387051932216537e-01,-5.044220555574382980e-02,5.438935752744710091e-04,5.056721097059535888e-03,1.520501425441813693e-02,3.798952698707580566e-01
-2.730461843780454534e-02,-4.137731307627787736e-01,-4.827121704182195383e-02,-9.475330164499640162e-03,1.067048075683933207e-03,1.840016702802047335e-02,3.781309723854064941e-01
-5.281742884228195212e-02,-4.388069667948010788e-02,-4.414353230224096758e-02,5.892816895758120829e-03,-4.899183396630213362e-04,2.019543769473849254e-02,3.749731183052062988e-02
-2.018589484174197757e-02,-3.557147374996045830e-01,-4.411875415779702159e-02,2.098811912238635231e-03,-6.513445882481487710e-03,-2.290638375549331873e-03,3.244664072990417480e-01
-5.972879539632418994e-02,-1.778845812097370471e-01,-4.836955535833192821e-02,-1.759239976239042325e-02,-9.162450245443150981e-03,3.085895156394936195e-02,1.395318508148193359e-01
-5.638682921465424519e-02,-7.610996249973617234e-02,-4.382941014978315036e-02,-2.886014980011255421e-02,-5.568046618939728569e-03,2.119862550831162415e-02,6.880582869052886963e-02
-5.014482360902887403e-02,-3.414527179423129666e-02,-5.230988819591915473e-02,-1.672895505674443575e-02,1.395365399442183242e-04,1.464213955037354728e-02,4.216778650879859924e-02
-5.769451157938070007e-02,-3.564183540937785333e-01,-2.536741137056806872e-02,1.089389801355812315e-01,9.493391749769592228e-03,1.274197058907180049e-03,3.685325086116790771e-01
-1.540624160290955669e-02,-3.223834269695401433e-01,-5.639285957823568507e-02,1.989809387788200878e-02,-1.237814392877762662e-04,-6.330619253442928973e-03,2.909312844276428223e-01
-2.152790445665399288e-02,-3.309089199750694377e-01,-5.183591681798228878e-02,4.293931780762769157e-02,-5.655411823521507876e-03,-8.061302277393381926e-03,3.050913512706756592e-01
-8.751832154161726107e-03,-3.463157145674368165e-01,-5.092294595343561936e-02,1.147190159474889646e-03,2.113656390148733848e-03,-1.903844262719245361e-04,3.186060190200805664e-01
-2.954477107954031623e-02,-3.665137910682807476e-01,-4.790933311804369821e-02,6.405611383203660067e-04,-1.607538901296338442e-04,-6.895553186602270106e-04,3.281765282154083252e-01
-3.577965613230059405e-02,-3.592096059681895159e-01,-1.661186509863403493e-02,-2.257273319770744676e-04,4.128578712965989134e-03,7.516055358735032567e-04,3.335067629814147949e-01
-2.604130956644429284e-02,-3.770887182768997148e-01,-4.076429730198907753e-02,2.356109823582579893e-02,-6.608855075547326709e-04,-6.247757451382358190e-03,3.465059399604797363e-01
-2.360702734757466614e-02,-3.706721473042670079e-01,-4.271028417795058596e-02,1.303068386125965077e-03,9.926344297439995516e-04,7.394653028749987580e-04,3.379330635070800781e-01
-3.334512471081763074e-02,-3.649300915397407641e-01,-4.338042822800942944e-02,1.219831783904964592e-03,-1.760390484211330885e-03,-3.587662505063482499e-03,3.267630934715270996e-01
-1.974905169319636500e-02,-3.345862206407508310e-01,-6.019198284674254218e-02,4.230332731173937211e-02,-2.839635285797829055e-03,-1.881858506100715298e-02,3.073767423629760742e-01
-3.010545066089817534e-02,-3.659187398256380508e-01,-4.332440044923352440e-02,1.456264983729992730e-03,-3.332116583081661497e-04,-2.582100421014512249e-03,3.294433355331420898e-01
-3.714045952155332897e-02,-3.759045447646719440e-01,-6.158212356617190353e-02,-1.311665914195762330e-03,-6.394808468034323843e-04,-4.438884092579543569e-03,3.273286521434783936e-01
-3.402928882396213939e-02,-3.646506887049799639e-01,-2.667406624070353671e-02,2.542766529728895746e-04,7.621378917296518958e-04,9.050980635654739702e-04,3.343662619590759277e-01
-3.130263805641755881e-02,-3.862052910393806160e-01,-6.559831873469150476e-02,-4.011149424724278953e-04,-2.448281108802541264e-03,-1.453244017795970490e-02,3.400183916091918945e-01
-3.689849233858072397e-02,-3.633009936630066106e-01,-2.143149851438443110e-02,-7.037071190594717304e-04,1.849448612763209812e-03,1.913100622051824807e-03,3.344383537769317627e-01
-3.963132598583046784e-02,-3.552006053783466344e-01,-5.993517576354129295e-02,6.098344687563136274e-02,-1.560753307069659424e-02,1.070486179602597870e-01,3.739717900753021240e-01
-2.996227040768698058e-02,-4.119932859756626486e-01,-7.807460468126599384e-02,-1.198274960915062144e-02,-1.033515930267308106e-02,-4.560187249112401808e-02,3.699620068073272705e-01
-3.791941358785531901e-02,-3.676274608374575648e-01,-3.209193023563425284e-02,-1.296170679883859415e-03,-2.164993082093129046e-04,3.977891341200983375e-04,3.326685726642608643e-01
-1.977764794419709093e-02,-3.790121292032169187e-01,-6.860791913998130764e-02,-1.605217308020829778e-02,-1.777409519957121389e-03,-7.377902325894354456e-03,3.388776779174804688e-01
-2.755040597177624284e-02,-3.624438714551050378e-01,-2.975516240764762566e-02,-1.295583968525089121e-04,4.646994161304572775e-03,4.639189355006015304e-04,3.338946104049682617e-01
-3.131805552564315143e-02,-3.651366092562610688e-01,-2.657828437472198324e-02,-1.089507725854416587e-04,9.835842371497983006e-04,9.256722015767305644e-04,3.362216949462890625e-01
-3.334641572163982159e-02,-3.618147352893468227e-01,-2.199152079492214251e-02,1.096519192477014073e-04,2.129439028967482390e-03,-2.922807897783651163e-04,3.343112170696258545e-01
-2.324228487816135114e-02,-4.339054232471398764e-01,-7.440917309988034911e-02,-5.383999992698511490e-03,-9.030738872019536401e-03,1.863968716477739512e-02,3.893890678882598877e-01
-2.964704355001068770e-02,-4.433273392486613562e-01,-7.265039612180464179e-02,-7.535311832795200254e-03,3.603595993045748624e-04,1.144515581356521546e-02,3.946577608585357666e-01
-3.544177388598979128e-02,-3.855685523193936870e-01,-6.875479606556068879e-02,-2.318849333864726227e-03,-4.528499571338245877e-03,-3.368951145803301093e-03,3.348827362060546875e-01
-3.994389842170097127e-02,-3.662037998132540162e-01,-2.529116052978072626e-02,-1.804869907731310435e-03,6.577679114285901393e-03,-2.244494330874043965e-03,3.340591490268707275e-01
-3.806712268887293971e-02,-3.746671036198278015e-01,-3.317967428889039005e-02,3.779645190366823747e-03,3.728346054341124052e-03,-5.643570851362876995e-04,3.391962051391601562e-01
-2.696787775130697618e-02,-3.638734802949614711e-01,-3.193976949915561248e-02,-1.041629290498943176e-04,1.803240043667818284e-03,-8.369682995053953113e-04,3.344651460647583008e-01
-3.502781345933272950e-02,-3.731680956866417764e-01,-2.942031830578922813e-02,-2.565819307683491423e-04,5.741502036979616308e-03,-7.681032755263631330e-04,3.411264717578887939e-01
-4.140476989747801650e-02,-3.719200083755450081e-01,-2.378016369427839172e-02,-2.614029583290455568e-04,3.089181818122716579e-03,-6.955200676721329071e-04,3.397152423858642578e-01
-3.879545682211171798e-02,-3.722022869226606634e-01,-2.797391445392273523e-02,1.505983228096119918e-03,8.571052653943357809e-04,1.227191706276292314e-03,3.389671444892883301e-01
-4.595798766029014770e-02,-3.653057435220068427e-01,-4.996878375892423174e-02,1.108043397094335891e-03,-4.145271521271999809e-04,5.181825290174332192e-04,3.173692524433135986e-01
-2.090255003948457424e-02,-4.410193287382854210e-01,-5.237770693343732353e-02,-9.121666180791181133e-03,-1.856408845513725695e-04,-4.429636877701145781e-02,4.127975106239318848e-01
-2.866919236961097683e-02,-3.674646267749139272e-01,-2.779075603138439488e-02,8.120710562979906676e-05,-8.085293894833160757e-10,-1.923617796994274150e-05,3.392355442047119141e-01
-3.394000251033796323e-02,-4.138072487005558520e-01,-4.012646650684278948e-02,5.408825090446101047e-03,-8.089377701534625556e-03,3.758903111554594972e-02,3.827665746212005615e-01
-2.357336101948072360e-02,-3.711890903301748867e-01,-4.137461004077182258e-02,-6.642008211302754183e-04,3.156991647901862853e-03,-2.498229103797064291e-04,3.391120731830596924e-01
-3.141682881111262926e-02,-4.272187020759535825e-01,-5.757983631612552389e-02,-1.372548251736279519e-03,-4.769330425439922451e-03,8.924976615619962389e-03,3.837982714176177979e-01
-3.629109048874121224e-02,-3.753115470366579776e-01,-5.521700060644640917e-02,-2.578143631295594547e-03,8.869054142259389295e-04,-2.681867163020240641e-03,3.300313055515289307e-01
-8.263268237723706000e-03,-1.507804489319785057e-01,-3.618316771365624740e-02,3.280366428858955130e-02,-3.001466823761296532e-03,6.254898181862456052e-02,1.791758835315704346e-01
-3.781932344958013892e-02,-3.984428019049960357e-01,-5.308938049039016449e-02,-8.778458263062600617e-03,-4.034655504779442910e-03,1.107627321594853789e-02,3.541522324085235596e-01
-2.106400343228477523e-02,-3.540366718749800024e-01,-3.793791389143635895e-02,1.697468018493290603e-03,-1.051733236446912231e-02,-2.608420081695294050e-04,3.253884911537170410e-01
-3.975323144172299150e-02,-3.594923935808516102e-01,-2.260785373832714662e-02,4.046802641500876351e-04,4.201151410200443248e-03,1.533479886751001322e-03,3.287394642829895020e-01
-3.813310101988792722e-02,-4.174582107890757454e-01,-4.506013605662832766e-02,3.894261753426890833e-06,-6.604869265185364310e-04,2.640222082752930952e-02,3.786825239658355713e-01
-2.695777631994986101e-02,-3.663236545241838060e-01,-3.462392315735927928e-02,-1.450217603856073228e-04,-2.451889701231628384e-03,1.839693819766429698e-04,3.356255888938903809e-01
-3.680988565827220116e-02,-3.699783738489959561e-01,-3.992175013377308179e-02,4.626631988836209936e-03,1.005394560607369503e-03,6.171148604731576661e-04,3.317266106605529785e-01
-3.047324605067534831e-02,-3.573969621994086965e-01,-3.605738980043055042e-02,1.506250948282834195e-03,8.818540508583536108e-03,3.701099528918507745e-03,3.246011435985565186e-01
-4.714354715705902643e-02,-3.699076028273038386e-01,-4.035908515935009155e-02,-2.146530987103993822e-03,-6.465872527462311788e-05,-1.386550982181927001e-03,3.262392580509185791e-01
-2.463857807924001164e-02,-3.652789179605033798e-01,-3.925273250323151053e-02,3.102523294554844751e-03,2.860316065869746623e-03,5.211462845636584450e-04,3.336547315120697021e-01
-2.455844176971744286e-02,-2.782188975179556989e-01,-5.244000667281516204e-02,-3.293213110649253345e-02,1.362465272562984539e-03,-6.672901705094969049e-02,2.732507884502410889e-01
-4.768512201975716458e-02,-3.405542322208947037e-01,-1.572799032964836141e-02,-6.271144140816728267e-04,-3.869085540687827816e-03,5.891073723284800685e-04,3.101611733436584473e-01
-2.065874873570862358e-02,-3.722740522274324837e-01,-4.030351844302339226e-02,-3.589061669387559432e-03,2.299322581078042202e-04,-1.682718900191442694e-05,3.422727584838867188e-01
-2.444243358114316089e-02,-3.460805840885299856e-01,-4.881295696022878994e-02,-5.688366349165183133e-04,-9.984383436421544189e-03,-4.449162415712028679e-05,3.106550574302673340e-01
-1.515932905798186847e-02,-3.532536192838392486e-01,-4.976801960590283846e-02,-7.269903033926866827e-03,2.317093549495637898e-03,-1.609053480567911032e-04,3.224581480026245117e-01
-4.930674210191514362e-02,-3.701971671884057846e-01,-1.886744457491976168e-02,-2.419097496388097988e-03,9.824540277771104824e-04,-1.312659737698124510e-02,3.379382491111755371e-01
-2.806120422613615772e-02,-3.297777811834817774e-01,-3.171563386296875897e-02,-3.891727161880526031e-02,1.348593639211335092e-02,-1.544397054575308119e-02,3.094325065612792969e-01
-4.659972084960936622e-02,-3.629713211126397443e-01,-1.642503928602748187e-02,5.371344074055717189e-04,1.113302913873931866e-03,-3.036138084204246189e-04,3.324947655200958252e-01
-2.009000338091442017e-02,-3.609747837296992667e-01,-3.984231857740673510e-02,2.640565273839985943e-03,-1.601322129184409989e-03,-2.219453267407861508e-04,3.314937055110931396e-01
-5.288975556793425181e-02,-3.538276926457867844e-01,-1.448616130207075470e-02,-2.368138899293506950e-03,-6.260476517431248734e-04,-7.334832438601506140e-03,3.221412301063537598e-01
-5.835948298388564381e-02,-3.329904834297123806e-01,-1.545113744846808579e-02,-6.667310354212021553e-04,-3.318776273318504826e-03,1.395965923080447896e-03,2.984752953052520752e-01
-6.089190244500652938e-02,-2.881022242782449450e-01,-4.297934501131597806e-02,-1.472806677451629111e-02,6.747722416395871177e-03,-2.523789781084633324e-02,2.423087060451507568e-01
-5.467139872649777466e-02,-3.162891753944081508e-01,-2.924618624234225084e-02,-5.581969961763732233e-04,-2.688015040492610763e-03,-3.392063697855370041e-02,2.814541459083557129e-01
-4.680520128595830331e-02,-3.664200543096437501e-01,-2.992761631201913686e-02,-5.617930084947973064e-04,-1.653904428423975427e-03,2.144179611236457964e-05,3.283930420875549316e-01
-5.276770708848327329e-02,-3.316681536595650903e-01,-1.182877884653660283e-02,-7.293575521010187959e-04,9.117224249776458575e-04,1.350388151154174573e-03,3.014778494834899902e-01
-2.152887639757762595e-02,-3.562899976294096049e-01,-3.946428915064779941e-02,6.116302859743299883e-04,-6.098430424885581749e-03,-2.780755770330021331e-04,3.263365328311920166e-01
-4.028280087113512986e-02,-3.729301251288097974e-01,-3.957103428360675412e-02,1.622779218327400404e-03,-3.659327683917469511e-04,2.636424469879317372e-03,3.330475389957427979e-01
-3.907296313556615774e-02,-3.544490199347408721e-01,-2.743169731332510686e-02,3.050426121014329596e-04,-9.792665554264218600e-03,-7.326341623697580664e-04,3.218051195144653320e-01
-4.673905265549717358e-02,-3.690920302310446433e-01,-1.766911622379679914e-02,-1.686521746064862954e-03,-4.326320001138300210e-04,-3.660460251344967771e-03,3.379002511501312256e-01
-4.003824519321050324e-02,-3.682117766573805850e-01,-3.450029353458435033e-02,-1.219169372466114330e-04,2.422083217714436978e-03,-2.345076835054025251e-03,3.310288190841674805e-01
-3.405658310445165704e-02,-3.172147552048983354e-01,-4.671577355214283356e-02,-1.303749732401929999e-03,-1.148639463370989752e-02,3.002074340342637647e-05,2.777681946754455566e-01
-5.091014991258371869e-02,-3.431596407636313684e-01,-1.493922582972719015e-02,5.950291488500547435e-04,4.098134848898470420e-03,7.199122600408425525e-04,3.118800520896911621e-01
-3.937208974423221652e-02,-3.815140092652297144e-01,-2.462067253527622235e-02,1.753660607485089257e-02,-6.410519936404860709e-03,-4.224980463991013374e-02,3.587851524353027344e-01
-3.357600724482806553e-02,-3.557717924221929784e-01,-2.093473309964136164e-02,6.744617757017796165e-04,1.016840943620338222e-02,1.668131701177289405e-03,3.291850388050079346e-01
-5.997225832618446190e-02,-2.549148064407107950e-01,-4.137977791779823278e-02,-2.231790322800502897e-03,-2.416286622979444581e-04,1.232051330830702960e-03,2.049205005168914795e-01
-3.022716862672412963e-02,-3.658482377493358362e-01,-3.562900142558944605e-02,2.474960841650700530e-03,3.436066899644100309e-03,1.084928659586054372e-03,3.330391049385070801e-01
-5.433697367074780127e-02,-3.433532498823583801e-01,-1.272936961297811698e-02,-6.730249507582306478e-04,3.529944268970415522e-03,1.568886505368914924e-03,3.119823634624481201e-01
-4.835621167451592539e-02,-3.703823546022689817e-01,-4.361086905333651231e-02,-2.654056021503390555e-04,-3.361615319738337892e-03,-2.506057974603689430e-04,3.244777023792266846e-01
-3.722355371825487869e-02,-3.663993499962522327e-01,-3.691888914401728061e-02,-2.173020602221878940e-05,-5.530605209488133507e-05,1.224397506543353385e-03,3.293350636959075928e-01
-3.515092019815101165e-02,-3.661951601481214791e-01,-3.557876607600382601e-02,-1.403631474719307720e-03,1.524080026459051669e-03,5.709572692179021915e-05,3.308500051498413086e-01
-4.351775619307281240e-02,-3.667126923889861279e-01,-4.289761102249119162e-02,6.059170804849869267e-04,-2.176257920752368031e-03,-6.660135646904376608e-04,3.235311806201934814e-01
-3.618916179525302756e-02,-3.673980542147680661e-01,-3.735472050976389180e-02,2.434881048161643795e-03,-7.480004674958511341e-04,7.463486716576184970e-04,3.306596279144287109e-01
-2.941453646365418950e-02,-3.693030356597819530e-01,-3.121976414502000696e-02,3.566768362068937115e-04,-1.468130062186451300e-03,-8.186093630530409540e-04,3.390025496482849121e-01
-3.401844235588058485e-02,-5.071820220313456584e-01,-6.390936515949915964e-02,2.088105781610031034e-02,-1.211605152600160606e-02,1.142983583618320392e-01,5.015722513198852539e-01
-3.970839053881214387e-02,-3.733918346229393448e-01,-4.202282220144912261e-02,1.153964747155272579e-02,-2.327084393857327925e-03,3.179984147369133238e-03,3.332023024559020996e-01
-2.672120549798953637e-02,-3.561221231636566564e-01,-3.630767397147401099e-02,1.865826285805179553e-04,6.223835503906671208e-03,1.328192244998929359e-04,3.248929679393768311e-01
-3.258765986425379846e-02,-3.005325374896902213e-01,-5.941234824035804274e-02,-7.379953738232410132e-02,-7.734157323834296369e-03,-1.713084232461812087e-02,2.876203060150146484e-01
-3.607149077607094134e-02,-2.058976936375796485e-01,-5.777412720932888907e-02,-4.101566601497724091e-02,6.962694924230135307e-03,-9.462401436442162417e-03,1.763155460357666016e-01
-3.590135937893552953e-02,-2.628126955997887038e-01,-4.295263745514335540e-02,-4.631321473359588381e-02,-1.337994803308451344e-02,2.487271655024308678e-02,2.424174696207046509e-01
-6.476044161628993767e-02,-1.392216269984308807e-01,-5.453795354833197023e-02,-4.650149401884906553e-02,-4.485780031433201503e-03,4.488326134311401011e-02,1.378448456525802612e-01
-6.054442949819204001e-02,-1.522330527564385028e-01,-6.234731793039360870e-02,-4.096737390960068781e-02,-4.037645911341601439e-03,8.770312690404282949e-03,1.164447963237762451e-01
-5.679935852147435793e-02,-1.990712205693832004e-01,-6.023210107488334575e-02,-2.214575719043767807e-02,-1.152597350338333861e-02,1.187330605830395208e-02,1.485175341367721558e-01
-4.185044407010887757e-02,-3.708842589558416503e-01,-3.967868119236712954e-02,-2.650141672289864792e-03,-1.697828636113084700e-03,-2.123508820836451233e-02,3.322123587131500244e-01
-4.813179953682927836e-02,-3.632813268765802128e-01,-1.430485518511942500e-02,-1.340144922490850616e-04,-1.213381620390110299e-03,-1.181181797232483486e-03,3.333657085895538330e-01
-7.276073218294486222e-02,-1.604871045369775651e-01,-2.987084385278569038e-02,-1.220864417725412987e-01,-5.623190365773888741e-03,-2.831335762599059697e-02,2.459941655397415161e-01
-2.850966399337104273e-02,-3.680381217934410865e-01,-2.900185443153009690e-02,-3.494723272539187109e-04,6.124036107888826581e-04,5.265551155992668694e-04,3.392860591411590576e-01
-7.819180975212997042e-02,-4.376111100199920889e-01,-3.472487609374869111e-02,-1.707420595321194976e-03,9.387361085605849115e-03,1.795940947937707186e-02,3.846234381198883057e-01
-7.234809149772754300e-02,-3.884411754310144183e-01,-3.095364284492954643e-02,9.679003576091088287e-03,9.481202061927072183e-04,-4.674997540387686710e-04,3.391124308109283447e-01
-3.614700865245247530e-02,-3.573180025754547628e-01,-3.160151163876595559e-02,2.822123422606601442e-02,1.589747201497176878e-03,2.854517150829919553e-02,3.308666348457336426e-01
-7.351583904192057761e-02,-3.861189133960642450e-01,-2.412545928961704056e-02,5.640007307549365148e-03,3.715009944520355177e-03,-4.967013289791023800e-03,3.403094410896301270e-01
-7.323361093297146851e-02,-3.871127596683839878e-01,-3.522955221481108290e-02,6.148470243907522281e-03,4.599426561175475221e-03,-4.721191966199658058e-03,3.348684012889862061e-01
-3.484164980030055037e-02,-4.055623962630208745e-01,-3.206391678130118827e-02,1.985622919436694916e-02,-2.173332566781056158e-03,-3.991101880801683349e-02,3.800618350505828857e-01
-3.608819462834506053e-02,-3.835769115368859450e-01,-3.204139142354556213e-02,2.666423663724141633e-04,-3.489812048976024747e-03,-1.675375214964309328e-02,3.507845699787139893e-01
-3.373932515898586670e-02,-3.737991732129433697e-01,-5.407741333664493888e-02,-4.794340663021258789e-03,9.992692859753748297e-03,-6.215999089696749164e-02,3.479917943477630615e-01
-2.712957619113351426e-02,-4.238299983175293772e-01,-6.914446067622928571e-02,-1.035699409474480186e-02,2.119359739167841691e-02,8.974862359612654009e-03,3.799738287925720215e-01
-3.846711045970171994e-02,-3.999406010638669740e-01,-6.088541717915658957e-02,3.913109665959496435e-03,1.575995057276701264e-02,-2.773597193309217633e-03,3.519604802131652832e-01
-2.523150457963313498e-02,-3.599512245025823787e-01,-3.799756192834240209e-02,4.227605293987410292e-05,-8.254052613165701810e-03,-7.395364039428324729e-04,3.288362026214599609e-01
-2.785405421368374046e-02,-3.600700077626457496e-01,-3.620586313967558145e-02,4.228790052225073236e-05,-8.639173629964006298e-03,-7.397462273463040021e-04,3.284633159637451172e-01
-3.779196496035873432e-02,-3.375956531034848274e-01,-3.046766454645202793e-02,-4.317744504230306909e-04,-1.078437061548505674e-02,-4.832221408511946968e-04,3.041084110736846924e-01
-2.544543548365858776e-02,-3.707840534710904468e-01,-4.120640165144151545e-02,7.152538097555735793e-04,2.777711987330966966e-03,6.526529270683365793e-04,3.377724885940551758e-01
-5.742235479862046327e-02,-2.626659574503783512e-01,-3.667698404517857891e-02,1.085164046821028155e-01,-8.700980016986168200e-03,4.893405133455436956e-02,2.992512881755828857e-01
-2.342793800478940036e-02,-2.384389795055497641e-01,-4.779499253195008956e-02,-6.770321450930340962e-03,5.336794738667506458e-04,8.986493729273366260e-02,2.568069398403167725e-01
-4.630942913486719992e-02,-4.056179136908969474e-01,-3.916588859783960708e-02,-2.471172931047137603e-02,-6.578824386661345780e-03,-1.504498212353314567e-02,3.665532171726226807e-01
-5.018714862021575462e-02,-3.077206931044478289e-01,-2.546360007053381780e-02,-1.034452981233221569e-03,-7.087592763227784122e-03,1.125700243064055523e-03,2.710343897342681885e-01
-5.544615013659116853e-02,-2.958915214521933290e-01,-2.513258179014872529e-02,-2.014581103333415652e-04,-6.297904221520012622e-04,3.825805154659917950e-03,2.570347487926483154e-01
-5.735425522554649796e-02,-1.961316607216936347e-01,-2.501285239994563425e-02,-9.591851042343199629e-02,1.183458551210113396e-02,3.162727063442682951e-02,2.362530380487442017e-01
-3.030725673552495114e-02,-3.539191319871825003e-01,-4.175942425345453846e-02,5.251632207204871838e-02,1.131076133560094017e-02,-9.738034093858224591e-03,3.318010270595550537e-01
-4.000913604210929592e-02,-2.254465940441378879e-01,-3.464085628190208266e-02,7.260738984454875866e-02,-2.469369975372185701e-03,3.033658988728646019e-02,2.323920577764511108e-01
-2.130065006376048731e-02,-3.710528465787947816e-01,-4.269122674395314787e-02,-6.163637917809415730e-04,1.580663068865177396e-03,-3.305327552764994632e-04,3.395757973194122314e-01
-5.970407510638049697e-02,-2.489009369374673430e-01,-3.435242761214266083e-02,1.034101193765576965e-01,-6.221572336310361370e-03,5.282687592806933896e-02,2.860135138034820557e-01
-6.494410135611916601e-02,-1.496771745563522105e-01,-5.196768949737518017e-02,-3.737894361678635244e-03,-9.869945290131148033e-03,-6.336832299580534567e-02,1.443205028772354126e-01
-5.101667774841441017e-02,-3.005833549551684136e-01,-2.486555798764616965e-02,1.145489462649806021e-03,7.900000318882870534e-03,1.261520088213448397e-03,2.639882564544677734e-01
-4.318948049374667086e-02,-2.560931613688531838e-01,-5.100838997032584865e-02,2.362641893772600594e-03,-9.620250215431268639e-03,-6.748133175575782338e-04,2.098099142313003540e-01
-5.102625716343464624e-02,-2.543455252438266978e-01,-4.587921171269178366e-02,-9.985289670757342088e-04,-1.027374825559456556e-02,3.078277262503792064e-03,2.067843824625015259e-01
-6.270083097207164446e-02,-1.672697172069733118e-01,-5.214846065161697630e-02,-9.141572894161564822e-03,1.290071649922614697e-03,-7.081777568816732468e-03,1.120518073439598083e-01
-5.747701624042106383e-02,-1.882958637816334324e-01,-5.266248258106769053e-02,-2.170656628335862828e-02,-3.459937663524208836e-03,6.888957153822262459e-04,1.386269927024841309e-01
-6.472140000297313400e-02,-2.572943779686274191e-01,-5.659355107925109762e-02,-7.566517002241730443e-06,-4.062536368821533482e-03,-2.709039919158214710e-02,2.024025619029998779e-01
-3.005453925455334185e-02,-2.974272490419688220e-01,-5.166976714362433998e-02,-3.437924065453527335e-03,-3.013347352124207817e-03,1.062120250999742206e-03,2.573755085468292236e-01
-4.503519981871506594e-02,-3.622856642847136488e-01,-1.757209639731893702e-02,-5.736377839763285138e-04,-1.586704381091454813e-03,-1.043745436746419198e-03,3.318532407283782959e-01
-4.670696440977735453e-02,-2.999626454892040939e-01,-2.464717652413468685e-02,1.510898844420752391e-03,1.222092322215498003e-02,2.040713757089295758e-03,2.658556699752807617e-01
-6.964313693299183095e-02,-1.928981368349064196e-01,-6.808783011090273340e-02,1.047687048091198135e-02,-3.776572996221481569e-04,1.208854424323858520e-02,1.270985156297683716e-01
-5.024052468471980337e-02,-3.766113908610306260e-01,-4.278228100293812730e-02,5.230560988284127261e-04,3.899338143200190877e-03,2.405985356070070589e-04,3.302337527275085449e-01
-4.520413266307184152e-02,-3.650229511326581466e-01,-1.528520347670417334e-02,-9.100803126530862151e-04,-1.985487082357602698e-03,-1.474664553964951915e-03,3.358105123043060303e-01
-5.177823643889978289e-02,-1.025307316252800638e-01,-5.230923491522559976e-02,4.860569535478233283e-02,-2.096190001581286263e-03,2.490385191432414186e-02,1.072868928313255310e-01
-6.010300482643616410e-02,-3.922277524124549719e-02,-4.388055333272489200e-02,-4.690265972167911857e-02,1.515634919834675141e-04,-1.555817539356947783e-02,8.767121285200119019e-02
-3.261309363178566123e-02,-3.398018225516024060e-01,-3.307779224273886542e-02,-2.411823799298826621e-04,1.067622639528005568e-02,4.148060790304671061e-04,3.075142502784729004e-01
-6.482969212307335138e-02,-1.222946474899158920e-01,-6.484937623464544221e-02,-5.105624809241232631e-02,-9.388408397339153763e-03,1.630062978760589984e-03,1.067413240671157837e-01
-4.642570145904230394e-02,-2.966239142851065935e-01,-6.338849592537500188e-02,-2.896972501002431991e-02,-3.044373591390941384e-03,2.481562952760846979e-04,2.473631799221038818e-01
-4.387921523999346873e-02,-2.567921677542297498e-01,-5.577120146053060612e-02,2.935540237080275488e-03,8.179629948171616635e-03,1.444797309172612910e-03,2.077840715646743774e-01
-6.795885500615693464e-02,-1.198219102939477032e-01,-6.540703197014141601e-02,-3.658183248127805810e-03,-6.411299839443852615e-03,-6.233385379276965010e-03,5.575535818934440613e-02
-1.440366836115579419e-02,-3.428229539438366613e-01,-4.618663745598963755e-02,1.905840532677962728e-03,8.821944588203393944e-03,5.439414160633907055e-04,3.141281604766845703e-01
-5.551985002003889669e-02,-2.852453660201474950e-01,-1.917403342825972634e-02,1.022120244446970000e-01,-1.687417895146121546e-02,5.639618385428555453e-02,3.227725028991699219e-01
-4.573961581896715534e-02,-2.843350245863173198e-01,-4.572882306090697568e-02,2.026319047760322990e-03,1.175335820970162086e-02,1.789282483282308815e-03,2.395134419202804565e-01
-6.277862968180694669e-02,-1.189086722769436555e-01,-6.008386751264023495e-02,-7.884951949738349883e-03,-1.561674543728602815e-03,-8.789390678729795681e-03,6.111214682459831238e-02
-6.790317481642582642e-02,-1.667609466838199661e-01,-6.518608246474949519e-02,-5.288831239480670451e-03,-1.446545812925246468e-03,2.344111810311379912e-03,1.007746234536170959e-01
-6.731296549018753184e-02,-1.987928938942767620e-01,-5.463255233586412213e-02,1.280012760078870796e-03,-6.502859433870050720e-03,1.160928289084290146e-02,1.401823312044143677e-01
-5.807218226374619152e-02,-2.075043147317142678e-01,-6.226692641746033041e-02,-1.908919927274508113e-02,-1.081454977280573923e-02,8.297244329094358162e-03,1.528768092393875122e-01
-1.127489428479006017e-02,-3.468705179777841208e-01,-5.409026359085647440e-02,4.736618862414266034e-04,-1.561402964192523278e-03,1.147174237928330674e-04,3.163810372352600098e-01
-6.402496843334021248e-02,-2.218983313069027297e-01,-5.713606121693404205e-02,-1.135981020287937272e-02,-7.093746200706118124e-03,1.859474743500225472e-02,1.662360429763793945e-01
-3.199110292601592409e-02,-3.678182126643416705e-01,-4.027631554375517287e-02,9.652755966056582662e-03,4.680671528800815599e-03,1.662543363075171324e-03,3.322944939136505127e-01
-1.746443829034602380e-02,-3.552203649911875871e-01,-4.198858737854110901e-02,7.448027978252452427e-04,3.050042130795055546e-03,1.299398071602328236e-03,3.262391090393066406e-01
-3.360894815622807175e-02,-3.679968993864903837e-01,-4.033947201440274410e-02,9.465663841767510758e-03,2.907514522649058079e-03,3.439434335757746044e-04,3.315185010433197021e-01
-4.755240852120123929e-02,-3.696932326006546754e-01,-4.122306794303269573e-02,-2.712879152354065199e-03,-1.818657192822523139e-03,-2.444111982020488708e-05,3.254008591175079346e-01
-3.304122336777878810e-02,-3.696418397508656195e-01,-4.059090317160955752e-02,-1.839274606497442663e-03,2.793683320064500441e-03,1.047860068150673974e-03,3.329453468322753906e-01
-3.381843955724761486e-02,-3.783909564976309925e-01,-6.724082183769353183e-02,-4.752328865842603994e-04,2.230797210724184271e-03,-9.721903294466954781e-03,3.295906484127044678e-01
-3.331343546599649375e-02,-3.884485849841190497e-01,-7.048750418234482618e-02,-7.223832202090529767e-05,-5.976649890689545884e-04,3.565882292870138116e-03,3.381424248218536377e-01
-1.580589673461894884e-02,-3.599200694559608893e-01,-4.274088350373568546e-02,4.105709858873453182e-03,2.122277907737487711e-03,1.547131913461918286e-03,3.315759599208831787e-01
-1.923467652433416553e-02,-3.691537933491932932e-01,-4.785171894008591331e-02,-5.143008106831147355e-03,-1.917101963936423568e-03,-2.274114758179719351e-03,3.366816937923431396e-01
-2.122066488833361519e-02,-3.714775288998989344e-01,-4.555482519917752882e-02,-5.245379031383219474e-03,-2.998361642336129333e-03,-2.584737708533545349e-03,3.389371335506439209e-01
-3.406994208507591049e-02,-6.298032422345043457e-01,-5.806128625819151345e-02,-6.226144217823767479e-02,-1.329208023325815363e-02,2.996715482240676007e-02,5.966866016387939453e-01
-3.901637185880091341e-02,-4.125269960694948335e-01,-5.612324511854598075e-02,-5.876913408807886950e-03,6.743891135675096279e-03,1.928747592784188080e-04,3.655863702297210693e-01
-2.788377785964893385e-02,-2.920329940990248896e-01,-5.419731082705096792e-02,-6.312899639081326125e-04,5.783066538739303937e-03,9.990250428433924187e-04,2.522321045398712158e-01
-1.987707037319907943e-02,-3.460212825102455536e-01,-5.548686389346170478e-02,-2.571639957500518347e-04,-6.660849541711472491e-03,-1.343179869101914089e-04,3.100927770137786865e-01
-1.474049655919720814e-02,-3.641017176553023593e-01,-4.908526017774293704e-02,-1.985897794891511910e-03,4.877355575522274687e-04,-1.134405991179116436e-03,3.335423469543457031e-01
-2.940672178126471636e-02,-4.133847735338310181e-01,-6.372845979346547507e-02,-8.186740660834228994e-03,-3.287019898230045863e-03,6.046293802156352086e-03,3.684853911399841309e-01
-5.077630795346526477e-02,-2.114716091652290297e-01,-6.351995294596060604e-02,-1.951678497158848471e-03,-7.197130480596555108e-03,1.891419857535821085e-03,1.552903503179550171e-01
-4.105224316506941862e-02,-4.084275062271066070e-01,-5.436288477349893178e-02,-1.023300796719666360e-02,-7.892176955919229936e-03,-3.120467251925725105e-02,3.656144738197326660e-01
-3.676575765799855455e-02,-3.800051267025869040e-01,-7.166779420078717155e-02,2.047476395566506097e-03,-1.157565272662781572e-02,-3.296424757998419729e-03,3.278701305389404297e-01
-4.054101018114773802e-02,-3.654572248862218986e-01,-2.109237577480847781e-02,1.004198562751006584e-03,2.331011246971446786e-03,4.009520554653534831e-03,3.351649343967437744e-01
-3.018823218751660875e-02,-2.935362620181245497e-01,-6.294538327518497955e-02,-9.442472695368219534e-04,8.230890569730106663e-04,-4.208331869018650385e-04,2.486039549112319946e-01
-6.483464804708653773e-02,-3.922591705500871329e-01,-3.258485352738235696e-02,-1.626628454395892542e-02,8.659722327576578615e-03,-7.155579791914487564e-04,3.461596965789794922e-01
-4.124575357943253973e-02,-3.731677548579676595e-01,-3.953031108867006982e-02,-2.260735629326298800e-03,9.133589645169940159e-04,1.832930177182049824e-03,3.328249752521514893e-01
-8.112784948775192406e-02,-4.178365194904818947e-01,-3.437918346210239173e-02,6.408370249777335355e-04,1.161381176616838908e-02,-4.904479176994556815e-03,3.630108535289764404e-01
-5.491547823480430468e-02,-2.350369987509536296e-01,-4.193186753749540696e-02,1.806414591685307196e-03,7.913188769152149776e-03,4.039941643869324195e-03,1.876101642847061157e-01
-2.426489553369466645e-02,-3.660240026546726089e-01,-4.084228502257582216e-02,4.723817416756012459e-03,-1.659222929165281085e-03,-3.367407104415240555e-03,3.339428901672363281e-01
-4.704073686986437464e-02,-3.865377380759432713e-01,-3.410526162258116500e-02,4.235085431128219474e-03,2.505823060857947926e-03,-3.576994704771454311e-03,3.463064134120941162e-01
-4.023855386495014952e-02,-4.056249415062042618e-01,-3.430681922789630134e-02,-2.565977986475982686e-02,-7.902318877295094399e-03,1.226404375646547064e-02,3.719188272953033447e-01
-3.787914815720754003e-02,-3.396803042300198250e-01,-2.510179397701108039e-02,1.224543079993198292e-03,9.925605066370418381e-03,2.381608465148383688e-03,3.089020550251007080e-01
-5.452274432073171695e-02,-2.112655938733373207e-01,-5.816650339678317017e-02,-2.126034927553114727e-04,-6.496635834146822532e-03,-4.673785458421862932e-04,1.553636789321899414e-01
-6.912171786041096389e-02,-1.776111502526697139e-01,-6.165698787282416354e-02,2.545497434049580470e-06,-3.393698360537233862e-03,3.529223780713779818e-03,1.127272844314575195e-01
-7.220804324712795652e-02,-2.572325657505148411e-01,-4.720644361341663764e-02,1.051732272669052152e-03,-8.202080242770606183e-03,2.661049700901228082e-03,1.992773115634918213e-01
-3.024614383716033028e-02,-3.755868085556302582e-01,-4.381954045709979262e-02,-7.674824727729871385e-03,-8.730698358246839590e-04,9.366065291965593057e-05,3.390220999717712402e-01
-5.355840974316508629e-02,-2.630364380635695776e-01,-4.289715459202614323e-02,1.459691535603285101e-02,-1.096939081946666714e-02,-1.457724601888168645e-02,2.187822759151458740e-01
-4.598951252045838101e-02,-3.776498658979283718e-01,-4.410572162753971515e-02,1.487488663429785635e-03,-1.755112677125007076e-04,-1.359047440638569632e-03,3.326247036457061768e-01
-6.445202768216082290e-02,-1.650224156791882113e-01,-6.544914186142189449e-02,2.629559287152560040e-03,-4.565894524439983657e-04,3.992194479551998063e-03,1.004206091165542603e-01
-4.301818958755329603e-02,-2.579437430247176755e-01,-6.554338215261948375e-02,3.217690766218396937e-03,4.260667521546741658e-03,-3.874870104856498903e-04,2.048050463199615479e-01
-3.096594830058382875e-02,-4.059490099802618435e-01,-4.181884551116842041e-02,-2.636872930784638427e-02,5.482046873401014674e-03,7.389804746206932000e-03,3.728275001049041748e-01
-1.130321388560370788e-02,-3.457280571576055173e-01,-5.119685634845377864e-02,5.028561371086169574e-03,3.423654646602596052e-03,1.856192917970893958e-03,3.165618777275085449e-01
-4.617020836828890362e-02,-2.841620385710210694e-01,-4.398256476997979003e-02,1.914850810094770837e-03,1.233800205481629629e-02,2.160830366877574196e-03,2.400983721017837524e-01
-3.940479357655267412e-02,-3.667996829704837092e-01,-3.581283440174221067e-02,-7.164858662540750855e-04,1.577030988759291772e-03,-7.166837053636150329e-04,3.292215764522552490e-01
-6.809404177056543883e-02,-1.886009551122442285e-01,-6.619304942699902328e-02,2.844108817704043939e-03,-3.365369100975121059e-03,5.698347423008140976e-04,1.217120811343193054e-01
-1.341775792367680409e-02,-3.604514647778119807e-01,-4.381044938540522293e-02,1.166127715133009196e-02,3.337710219548313800e-03,2.667585850919678998e-03,3.335739076137542725e-01
-1.318867214999355775e-02,-3.526980817419818059e-01,-4.693157488205669525e-02,2.511757537487837536e-03,6.118847451455575355e-03,-3.067722909045689575e-04,3.241615593433380127e-01
-1.308809883035666477e-02,-3.552051423916476880e-01,-5.043485936375725898e-02,1.192835627093640286e-02,3.061671369080821211e-03,-4.938989337510132438e-04,3.257569670677185059e-01
-4.171208602151038614e-02,-2.439133116455688977e-01,-6.294761975514856500e-02,2.927574762147497952e-03,-1.941715803514385778e-03,8.900435113343518434e-05,1.925603300333023071e-01
-1.698905864628423579e-02,-2.973848297678584052e-01,-4.465910505522617535e-02,5.145813554656882005e-02,6.849243869485126777e-03,1.344235740211227083e-02,2.832940220832824707e-01
-1.566403662460613688e-02,-3.351261058483422928e-01,-5.159386436365574757e-02,1.364252568384114947e-02,7.832787091060331927e-03,7.725511453150373572e-04,3.043237626552581787e-01
-2.513508929045465967e-02,-3.052923424855845114e-01,-5.216159077732293592e-02,1.292175258484111727e-03,7.245290184962624794e-03,4.738805255254887770e-04,2.679738998413085938e-01
-8.773416239821418827e-03,-3.476074432689895133e-01,-5.142364965365950336e-02,2.132223024709241528e-03,2.665974374120259069e-04,-3.446720932531645992e-04,3.196723163127899170e-01
-1.061131100356302315e-02,-3.506631989780035208e-01,-5.004675102162425837e-02,-6.984025871688078640e-05,-1.612902028790112264e-03,2.627941808013608128e-04,3.221620321273803711e-01
-8.801169438948042156e-03,-3.479628117166853052e-01,-5.008903665152114604e-02,2.454961364145268922e-03,-2.427414899732616561e-04,-3.459913324302155992e-04,3.205474317073822021e-01
-6.265184855201905156e-02,-3.788622836855360942e-01,-3.885996682487424803e-02,3.604108470364067972e-03,2.811000477825302893e-03,-2.177200620193102832e-03,3.288696110248565674e-01
-1.945696521061995865e-02,-3.133928536560489087e-01,-5.053944955508817005e-02,1.149162614540661168e-02,-7.866793915217568794e-03,-7.498032667298220981e-04,2.807341814041137695e-01
-7.511784864074549928e-02,-3.859481115836920773e-01,-2.954538379123961001e-02,4.706053939887655741e-04,-2.026208438288339478e-03,-1.648011556266595077e-03,3.359743058681488037e-01
-5.416092623775563275e-02,-3.803741435136822613e-01,-3.502553750664202936e-02,-2.446559257270803679e-03,-9.749652901896523104e-04,-4.772566760297892140e-03,3.363221287727355957e-01
-6.973512829512495959e-02,-3.827673551764843030e-01,-3.098386320390453252e-02,3.881756346499154985e-03,2.985915018850033090e-03,-5.602425826844442160e-03,3.343461453914642334e-01
-2.109594266669327645e-02,-3.356582875512239550e-01,-5.067254347017777216e-02,-8.184639277979246022e-03,-3.112881054560021066e-03,-1.462605646278166685e-03,3.012590408325195312e-01
-5.399950727845662102e-02,-2.333833540803337825e-01,-1.616007627612188469e-02,8.431526016338282414e-02,1.379543173835716396e-02,-1.870637287342627811e-02,2.516864836215972900e-01
-7.413970823265966792e-02,-4.061400649792371031e-01,-3.384013999618115665e-02,7.983512921689502398e-03,8.344989204871068600e-03,-9.425690743276003702e-03,3.548160493373870850e-01
-6.127723327213500937e-02,-3.724959967197470911e-01,-4.614111548117395822e-02,-1.843932372117944047e-03,-5.406082781320833107e-03,-1.673338098788173514e-03,3.192227184772491455e-01
-1.885775487372627623e-02,-3.454290245028870388e-01,-4.920334961958280906e-02,-7.184412140393267370e-04,4.117500768730631734e-03,6.688834845093922414e-04,3.125914335250854492e-01
-3.096099507013677643e-02,-3.742576467710708732e-01,-3.088197140650851547e-02,-8.587955345495212444e-05,6.856785770749708638e-03,-1.120710759970552385e-04,3.435415923595428467e-01
-6.054156021709500290e-02,-3.769865242609478084e-01,-2.633912825963732884e-02,-7.292583607959687853e-02,5.157197706981632608e-03,-2.696565086287172966e-02,3.610348701477050781e-01
-6.523630682298617312e-02,-3.836442766752973244e-01,-3.391059878755200985e-02,-9.149653139991940562e-03,3.007617316159999846e-03,-5.240642731594931554e-03,3.357081711292266846e-01
-5.941514465348578244e-02,-3.815803109915339997e-01,-3.894998195137322483e-02,-3.342975973511917113e-03,-9.180254925873888514e-03,8.288774119850435187e-04,3.333028554916381836e-01
-6.975770716983881181e-02,-3.855289093865529315e-01,-2.968475732415637447e-02,-1.119285492391703177e-03,-3.517000300439278217e-03,-7.148077352215977706e-05,3.376567065715789795e-01
-3.322531163424324863e-02,-3.700874536415821314e-01,-3.935064997686880950e-02,4.231217405156013022e-04,4.972539327248433019e-05,-4.271146203928144632e-04,3.338432610034942627e-01
-6.614033900053226112e-02,-1.777767969410530280e-01,-6.607069540483859194e-02,-7.034262483421307652e-04,-4.003245368282609164e-03,4.513153529756122433e-03,1.121657118201255798e-01
-3.128476136511774974e-02,-3.683835028003179524e-01,-3.895829255160598859e-02,-3.269862657768093147e-03,-2.718175448143820422e-03,4.729771294359157835e-05,3.334095776081085205e-01
-4.317488942078599734e-02,-3.688832553890873944e-01,-5.521207946808065481e-02,3.987852759865344321e-03,-2.815002267895304507e-03,-2.456611988208134148e-05,3.199714124202728271e-01
-3.649543150949170756e-02,-3.699196346253018630e-01,-3.727455950258762307e-02,-1.654863531368351787e-03,-3.186774866217021579e-03,1.299771795566509935e-04,3.330934643745422363e-01
-3.815108036607331443e-02,-4.072840844023877249e-01,-4.839734519948181435e-02,9.162537669119374603e-03,-7.423534045412827007e-03,3.929243927251832580e-02,3.709862530231475830e-01
-2.031406046912409558e-02,-3.417151495476305478e-01,-4.449842531913775212e-02,-9.311922520410699164e-03,2.910876120495594147e-03,-9.751996717728120614e-03,3.109365105628967285e-01
-3.935995177235797338e-02,-3.721852549338017235e-01,-3.921785815504733042e-02,3.778959654424683744e-04,-3.784456947486726942e-04,-2.697858998590291213e-03,3.329304456710815430e-01
-1.932784666750347879e-02,-3.524824874884092130e-01,-4.701772723535399545e-02,5.363825339381381304e-04,5.535220189042068008e-03,-1.515234639195764312e-03,3.203644752502441406e-01
-3.901515151303280859e-02,-3.708760756763144761e-01,-4.235315746075969667e-02,7.352476695306412856e-04,4.270973077928298862e-04,-2.161723420464362923e-03,3.302290737628936768e-01
-3.377620717311628773e-02,-3.550748982779229346e-01,-2.949177786364655385e-02,-5.450112748978479076e-03,-6.394216269723105271e-03,1.698471421619856441e-03,3.238027393817901611e-01
-3.592847337584646750e-02,-3.663189579211344471e-01,-3.066434590818993555e-02,-2.939627465185385650e-03,-1.889738423225924757e-03,7.391504465746680285e-04,3.331111967563629150e-01
-4.827420262522200134e-02,-3.691800798986450971e-01,-4.583344657053457782e-02,1.590161869624972385e-03,4.217084576414014134e-04,-1.624055692542951488e-03,3.221580684185028076e-01
-5.494010311529218260e-02,-3.713111988203976477e-01,-3.786072270315780919e-02,-1.897410277749035559e-03,-1.851780088401356900e-03,3.610815560640755466e-03,3.253398239612579346e-01
-5.536065425619684371e-02,-2.127185351625880960e-01,-6.928014838951923604e-02,-1.436301316159659938e-03,-2.908471399763304637e-03,1.268884904196700223e-03,1.510010212659835815e-01
-4.320749819347467768e-02,-3.728190309018982185e-01,-5.714947153430673110e-02,9.966467561195672519e-04,4.651925857488163271e-03,-4.631344599542930886e-06,3.229715228080749512e-01
-6.152451280217454549e-02,-1.920341483724039566e-01,-6.065489310505461917e-02,1.250976808846082340e-03,6.258593325644909271e-03,2.836574353818897484e-03,1.315042078495025635e-01
-4.998526334892341993e-02,-2.837523176199902020e-01,-4.831243967000696526e-02,-3.399331564088121233e-02,-3.939294220443103635e-04,-5.800222246735758924e-02,2.619174718856811523e-01
-6.174466428225791614e-02,-2.463409641932021721e-01,-4.019885852074171761e-02,1.116671769841192929e-01,-2.193559023887225838e-03,2.458687915324848580e-02,2.788439393043518066e-01
-5.525046564113364478e-02,-3.704438382049042300e-01,-4.748418295503052666e-02,9.579977100858784803e-04,4.545229607623179659e-03,-1.096443985336234160e-03,3.192544281482696533e-01
-4.794816601492470076e-02,-3.139888448261523579e-01,-3.529871961176597739e-02,9.653937655845801517e-04,-1.192056355467739290e-02,-2.690651569352373040e-03,2.734112739562988281e-01
-2.321886150610177890e-02,-3.060175212451681781e-01,-5.919606326866513890e-02,1.757014481181863336e-03,4.931424932551374020e-03,-9.836240880558239173e-04,2.667962908744812012e-01
-4.554675494503414301e-02,-3.682228391650433363e-01,-5.047763389787192356e-02,-2.421342739318230273e-03,8.347266629057830886e-03,-2.247189751520934590e-03,3.206163644790649414e-01
-5.197107329019215460e-02,-3.663158677385500717e-01,-4.893417522411341869e-02,4.996471713449417975e-04,2.653649024943433715e-03,-7.521576337733874374e-04,3.159115016460418701e-01
-5.812262496530977429e-02,-3.687721882581658228e-01,-4.457184473471023645e-02,3.434443669649591660e-04,2.851774571000203779e-03,-7.903135195885420666e-04,3.176837265491485596e-01
-1.223629505709558640e-02,-3.337364686389082680e-01,-5.166223425724579543e-02,5.742126270369346010e-03,5.107573051471317460e-03,4.924066921843537649e-03,3.041237294673919678e-01
-5.323890849291719463e-02,-2.466443811978083211e-01,-5.567595335542759039e-02,1.433927068461711245e-02,-1.045981972285647647e-02,-1.423892595845205160e-03,1.946572065353393555e-01
-3.145356173615118656e-02,-2.045586130490939514e-01,-4.292421265278838910e-02,6.153824116999773858e-02,-1.893796581649281191e-02,7.675713495309025025e-02,2.412946075201034546e-01
-4.404718625852081793e-02,-2.090252633599234133e-01,-4.318734351327317006e-02,7.070857276039309303e-02,-7.958800503483482586e-03,7.587839249170454103e-02,2.445855438709259033e-01
-5.273220484524396290e-02,-1.897360097188457717e-01,-4.428741539042530678e-02,8.599558762755483976e-02,-8.441153758681836823e-04,4.469321507494186663e-02,2.194963246583938599e-01
-3.477447793075437443e-02,-1.622516352443325871e-01,-3.322104203351017998e-02,6.112272443943115446e-02,-1.518874470177981016e-02,5.521973202221924087e-02,1.936454921960830688e-01
-3.603009392727597737e-02,-2.899570870260935185e-01,-3.444140298457647187e-02,3.165269683417912261e-02,1.671808666778832470e-02,3.622530179085876184e-02,2.695659995079040527e-01
-4.258354205933975734e-02,-3.617735995842519259e-01,-1.451689538583716965e-02,1.291987128190253634e-03,4.191283634440189261e-03,1.371219715357967217e-02,3.350379168987274170e-01
-4.632722847143083689e-02,-3.123130830929706225e-01,-2.184699696754882625e-02,1.722969010106563045e-02,9.273226007795115980e-03,5.101070815094116417e-02,2.946421504020690918e-01
-3.929394301783845078e-02,-3.663858515760564094e-01,-2.969441541397044304e-02,-9.354786363850576105e-04,3.008062921087928301e-03,4.888888227686652606e-03,3.321485519409179688e-01
-4.235299590752927834e-02,-3.646463911331966345e-01,-2.931290584249611475e-02,1.358872311551035305e-03,2.517280126810322437e-03,1.441370705170651667e-03,3.290540874004364014e-01
-4.211009662356340888e-02,-3.597345150643965761e-01,-1.810835979230221437e-02,2.593010350637913863e-03,2.542382050777530333e-03,2.050818786554891790e-03,3.303590118885040283e-01
-1.136051083652346583e-02,-3.485937098933530320e-01,-4.815582914754100441e-02,4.280385153714792138e-04,2.883273013128445812e-03,5.056488161586439583e-04,3.204649388790130615e-01
-3.907598540375781249e-02,-3.667160129859957651e-01,-3.418414456183556382e-02,-4.517938170786164388e-04,9.356352293650206653e-04,-8.581067729261925318e-04,3.301213979721069336e-01
-3.708130748426245737e-02,-3.871641773829761490e-01,-5.063768818381636505e-02,-3.671740940144467644e-03,4.627354018404751870e-03,-1.703888419225318279e-02,3.449225723743438721e-01
-3.482320015387610490e-02,-3.790906528652598362e-01,-5.256864458634198656e-02,-7.455305342695384943e-05,-4.797103388184850411e-04,-6.892269970872494725e-03,3.359598517417907715e-01
-4.495171935675597308e-02,-3.763262710949205614e-01,-3.013050007793058316e-02,6.816328172914679507e-04,6.981059619729102633e-04,-2.179741205359496045e-02,3.411280810832977295e-01
-2.795319200389684289e-02,-3.951976715368997750e-01,-7.296418238757916563e-02,-1.476261953932241338e-03,-2.002176899496130400e-03,-2.385173647896586622e-03,3.469871580600738525e-01
-3.280760460299969594e-02,-3.896752738434655638e-01,-5.768857320340123329e-02,-1.380213917947398792e-04,-1.744131025202863127e-03,-1.005097885566377976e-02,3.455526530742645264e-01
-3.324649690922490408e-02,-4.129274741280427596e-01,-7.269658456990998885e-02,1.560888742991947686e-02,-6.935279761568239817e-03,7.676332917894793280e-03,3.630254566669464111e-01
-1.644723181222439157e-02,-3.464540096589213691e-01,-5.853177233537644464e-02,-7.406538607211786548e-04,9.030984664578404174e-04,7.405102832115493692e-04,3.111159503459930420e-01
-6.487555542710740641e-02,-3.734795410982083563e-01,-4.111141204832827190e-02,-6.771178196545815956e-04,-1.088173965068008411e-02,-2.269267913540603404e-04,3.217011392116546631e-01
-5.882364148707432128e-02,-4.263364837341316882e-01,-3.387643262115455633e-02,4.181173796013262084e-03,-1.754174339223169357e-02,-8.219859531170569701e-04,3.818822801113128662e-01
-1.677108980091679413e-02,-3.672919300519338348e-01,-4.417296139606510796e-02,-3.642035368743970535e-04,3.577096964117701568e-03,7.580653267719260737e-04,3.377148211002349854e-01
-6.360573702278675412e-02,-3.777427155232545575e-01,-3.794897507590208607e-02,4.112621344247647213e-03,-4.190047392675061433e-03,1.387653301487440025e-03,3.278860151767730713e-01
-3.309242514431648408e-02,-6.159034193411787594e-01,-5.307988073405514595e-02,-2.141822341376729485e-02,-1.080277114672730443e-03,3.872888613072686392e-02,5.781857371330261230e-01
-6.721109111507926615e-02,-4.064646928739611975e-01,-4.049635312504676343e-02,2.052615712745103644e-03,-1.796579485522903363e-02,8.056199039900359057e-03,3.550287485122680664e-01
-3.078204800118715390e-02,-3.312176909911713207e-01,-4.923656407219331732e-02,-2.617201527454033022e-04,9.629299343871192823e-03,2.146522122337290138e-03,2.921471297740936279e-01
-4.860647451177575740e-02,-3.608902675410514682e-01,-1.603418577387707988e-02,-4.663964858306347263e-04,-1.734531687575444374e-03,-1.061381455496611913e-03,3.297984004020690918e-01
-2.318639919337578403e-02,-2.254871047797213091e-01,-4.961357323364071897e-02,-5.723272885363443752e-02,2.439072981534493381e-02,8.215701980791098591e-02,2.610335946083068848e-01
-6.630566799419899959e-02,-3.913718388598640407e-01,-4.622474990949247686e-02,1.606419743793640817e-03,-1.526420679564863617e-02,1.895483170107857161e-03,3.366250097751617432e-01
-6.870164139405554593e-02,-3.772734015918143280e-01,-3.535416153526965699e-02,3.752255994482070825e-03,-6.591159389690863860e-03,-4.098040318782462076e-03,3.268663883209228516e-01
-4.733155896629076542e-02,-3.666708230364589260e-01,-4.839898677310822128e-02,1.554444448587201171e-04,3.608782715155563724e-04,4.508165694120481537e-04,3.188085854053497314e-01
-4.775675334994181065e-02,-2.889044056840627261e-01,-4.634950179274577309e-02,-9.190964312215187766e-04,1.189239693294061144e-02,3.453561196936454623e-04,2.427358776330947876e-01
-5.139232270728538721e-02,-6.206186208548372107e-01,-3.357527896297651804e-02,7.510325168314290444e-03,-6.919147931222503246e-03,6.448604859032580454e-03,5.787189006805419922e-01
-7.653489052951353844e-02,-3.799980255889548464e-01,-3.224063771253188326e-02,-3.496269473266108360e-03,-4.260982124677745522e-03,-6.517346629965126321e-03,3.281952142715454102e-01
-4.304633988487852059e-02,-3.711917442621186503e-01,-4.352077920473428063e-02,-1.799371588855483764e-04,4.053062338874061045e-04,2.306653605030069970e-03,3.279336690902709961e-01
-5.436817219081056807e-02,-3.780772801435252628e-01,-3.238028504076553848e-02,6.944005581062871919e-03,6.798520199720194113e-03,2.811240055496547468e-03,3.357018828392028809e-01
-6.185170585657391584e-02,-4.289701341169549487e-01,-3.089250317229844112e-02,3.209154019713272854e-02,-4.851999593108282174e-03,2.440453556597427937e-02,3.899321556091308594e-01
-4.490565471767625494e-02,-3.302501311677306095e-01,-3.379155711056647249e-02,8.912434598782801014e-04,1.076455105191241601e-02,-4.733153150434141849e-04,2.916625142097473145e-01
-4.381948106976529811e-02,-3.694916203198881366e-01,-5.895614007437978421e-02,2.231497622998014759e-04,-2.359458287667912536e-03,1.119057291663422271e-03,3.184061646461486816e-01
-5.345252179823563321e-02,-3.762637287276773823e-01,-4.050401782540773155e-02,4.543256949668218921e-03,-1.544992433136964036e-03,3.346002519007588039e-03,3.296321034431457520e-01
-1.628513251630417380e-02,-4.128565179700552923e-01,-6.166835832711885235e-02,-3.497832978443100177e-02,-2.582396138716808263e-03,6.256766101912343558e-02,3.959361016750335693e-01
-5.154341273790759292e-02,-2.637447280971992325e-01,-4.030479205160161782e-02,-7.103890309485602628e-02,-4.773213345027716575e-03,-1.984098830882418535e-02,2.528427839279174805e-01
-5.282896262966846335e-02,-3.816432724898589646e-01,-3.611395612786172382e-02,-3.495269028678084280e-03,-1.740477741741956090e-03,-1.929820995750984548e-03,3.375667035579681396e-01
-5.570943957257196155e-02,-3.846487485529708206e-01,-3.617771590309552809e-02,-1.361837907422101292e-03,2.857897471735269855e-04,-1.190149160444225768e-03,3.391421139240264893e-01
-5.086360417238652842e-02,-5.688894124603749436e-01,-3.464004820667579421e-02,1.001327411622225938e-01,-6.218828765963315373e-03,1.454692732121114739e-02,5.548411607742309570e-01
-2.246983738795185759e-02,-2.974967881610670606e-01,-5.686783198686085061e-02,1.905821431179116534e-03,-4.031847296564018196e-07,-8.213903213094529698e-04,2.595680952072143555e-01
-6.159691498487585015e-02,-4.829339365451029153e-01,-2.669353878193020391e-02,6.437830470240472891e-02,6.437585381956254828e-03,-5.021593040636035399e-02,4.621386826038360596e-01
-7.091756070023971792e-02,-4.498761049907450960e-01,-2.416746028849314776e-02,-3.033891640468744377e-03,2.450749594523126372e-03,-2.176071053708409590e-03,4.044395387172698975e-01
-6.424400654972048375e-02,-1.886438535024947960e-01,-7.039997029751467184e-02,2.584178618297049319e-03,-3.514541860459246322e-03,8.501975392586134765e-04,1.216826811432838440e-01
-4.456704778491137053e-02,-3.577724548750725875e-01,-2.029501473628572694e-02,-1.131828662464556389e-03,-4.185682380016221213e-03,-2.031513915300935721e-03,3.261252343654632568e-01
-5.838322058891048938e-02,-2.341279749891195805e-01,-5.680742956462514481e-02,1.777981165918390014e-03,-6.805428647356671391e-03,8.272793910660229943e-06,1.769578009843826294e-01
-4.670085830628653567e-02,-3.672009957140059955e-01,-4.726951569381562801e-02,1.910874415035825275e-03,-2.977966217073169954e-04,3.168898452115112888e-04,3.202341794967651367e-01
-7.177752813132075305e-02,-4.252898298990057668e-01,-3.017223261642237864e-02,6.584338387242255099e-03,3.351383523365557802e-03,-5.086029145451754097e-05,3.762628138065338135e-01
-6.903933558151767458e-02,-4.163016554773013023e-01,-2.782279468701337466e-02,-1.862195078438635065e-04,4.102512027283127145e-03,-1.809115090936157244e-02,3.709923624992370605e-01
-4.198781601811008013e-02,-3.698877053522152680e-01,-4.293963422235315408e-02,-3.759828514542470939e-05,1.106534184061746693e-03,-8.995781570804690193e-04,3.274343311786651611e-01
-7.660101181309900142e-02,-3.883533805085669366e-01,-3.037325945660040993e-02,5.343851587663174356e-03,-9.986325300731284382e-03,-3.289853997831715827e-03,3.378690183162689209e-01
-7.257310006595985019e-02,-4.096316204338944500e-01,-3.380175323495715478e-02,5.316182872158479143e-03,-1.240401212379783165e-03,-7.126936420044922837e-03,3.583596646785736084e-01
-4.715970157571078292e-02,-4.625828411786075955e-01,-4.878553676730346123e-02,3.343822546050481681e-02,-4.732164054034083273e-03,1.131247200261339958e-02,4.191766381263732910e-01
-3.065462323748467666e-02,-3.662433702322674400e-01,-5.129739288913842676e-02,3.870094262984783394e-03,4.453651162145264215e-04,1.656225110151890098e-02,3.270885348320007324e-01
-2.432167161363925356e-02,-2.991749123685876199e-01,-6.710566965893154101e-02,1.663816149755423593e-03,-5.456906366267369815e-03,-2.674555227217172496e-03,2.563875019550323486e-01
-4.035727159511358353e-02,-3.842853955858766546e-01,-5.102908951961780681e-02,7.159707877716013115e-03,5.662172838712914262e-03,-4.148940460612574391e-03,3.391632437705993652e-01
-3.595903623029075846e-02,-3.693020151326198430e-01,-4.965685616590879981e-02,-7.984912093971803905e-04,5.342688203747524662e-04,5.566531639838663602e-04,3.267151713371276855e-01
-3.446876137530814621e-02,-3.679553077538094685e-01,-5.107620738651590109e-02,3.753443415254731613e-04,-1.774082185286708245e-03,-1.858669149187140311e-04,3.255160450935363770e-01
-4.192754183957630998e-02,-3.635435192726448328e-01,-4.637685880568030716e-02,-1.183963613314954711e-03,-1.248451344665775552e-03,2.101927739839887233e-02,3.214964568614959717e-01
-1.293570767759334716e-02,-3.314628287686492980e-01,-5.279368930168719387e-02,1.659095492399784762e-03,6.937590649557263001e-04,1.863771316281273918e-04,3.006029725074768066e-01
-2.671132438124393382e-02,-3.474999321288070320e-01,-4.289192711019325366e-02,8.194438384108866311e-03,-1.275822797271060696e-02,-1.075099535047780927e-02,3.146634697914123535e-01
-3.186490728644061909e-02,-3.744133365697659421e-01,-3.983771545493765276e-02,-3.463030519538301891e-03,4.463246705055075661e-03,1.783160702704275407e-03,3.387878239154815674e-01
-4.345017549425155001e-02,-3.760499306571569722e-01,-3.682728297606956136e-02,4.026003881080989638e-03,2.970485625059558505e-03,8.314569180573803909e-04,3.360750079154968262e-01
-2.983078866228486281e-02,-3.574676729143467790e-01,-3.586121557656699044e-02,-2.132101784188364380e-03,9.586400599633917302e-03,7.403517898616790872e-04,3.251114785671234131e-01
-2.817354039950853428e-02,-3.661013582380427955e-01,-3.936997099403709288e-02,2.878370435410694799e-03,1.936029229248281735e-03,1.849730728732114859e-04,3.325254619121551514e-01
-2.484070154532028174e-02,-3.410075206965633710e-01,-4.053556314400899585e-02,-9.687140934197861764e-03,9.433929131041124752e-03,-7.721951613807418206e-04,3.095091283321380615e-01
-1.979490666362325457e-02,-3.591599542605115047e-01,-4.612189962512019958e-02,-1.462799391816007677e-03,7.991405546763058476e-03,1.294438251677446647e-03,3.273076713085174561e-01
-3.188324422246058276e-02,-2.959971744654234516e-01,-4.487117385767724898e-02,1.335518798454320144e-02,-1.572627287676183622e-02,-7.777206380761170906e-03,2.606780529022216797e-01
-4.012543305244983816e-02,-7.589643353812400295e-02,-4.129990780356809776e-02,9.073812420690873307e-03,4.753952011662349671e-05,4.529254670893582274e-02,8.740815520286560059e-02
-6.278245486853969992e-02,-1.939155874322291695e-01,-5.059169990976341430e-02,9.096705634034465623e-03,1.079776958335547024e-04,2.489298535577706695e-02,1.450875401496887207e-01
-3.661064227488468326e-02,-3.852322781919114147e-01,-2.965731643449960597e-02,-4.852783296459530805e-03,1.014730929035397022e-02,-9.282947975023459267e-03,3.530545830726623535e-01
-5.824254796889018204e-02,-2.911538761028767963e-01,-5.309458053095533758e-02,9.879752888998357893e-04,4.189994351808934252e-03,1.518379312216222099e-03,2.356601804494857788e-01
-5.359262716941127352e-02,-1.302238303364458005e-01,-6.327481235741773402e-02,1.444530615014398556e-02,-2.082163015981381305e-03,1.411845600905575586e-02,8.038114011287689209e-02
-6.372374884344569890e-02,-1.264218096074429809e-01,-6.376195363747623468e-02,9.467607311020408275e-04,-1.833687812835878110e-03,1.453509105679883819e-02,6.764049082994461060e-02
-4.877948878386840353e-02,-2.624304085897982697e-02,-4.930064744972920826e-02,1.875261442327218891e-02,-4.232960251547224044e-03,1.613435059832069030e-02,4.908762872219085693e-02
-3.458837579106348314e-02,-3.518325587728703407e-01,-3.519289187188345824e-02,6.983151771081174764e-04,1.160483160868027060e-02,6.609002614493189728e-04,3.175834417343139648e-01
-6.637755072808707024e-02,-1.703221793227580050e-01,-6.758498975642066031e-02,6.694755823555133094e-03,-1.221016764409912437e-03,1.268653799807862789e-02,1.063118726015090942e-01
-5.057350487243159054e-02,-3.672842828778012936e-01,-4.655462216573562351e-02,2.231881348422092893e-04,-9.254067765667531049e-04,1.794653346533304225e-03,3.187586367130279541e-01
-7.020546887130957314e-02,-2.333842304536237755e-01,-5.742767217789127021e-02,3.474801883665252101e-03,-4.184279867261001679e-03,1.250854781866913906e-03,1.702030748128890991e-01
-6.740069839260048878e-02,-1.434531733145309462e-01,-5.836625465911604582e-02,-1.481085796520377473e-02,-2.260324763772758767e-03,3.920045185074259170e-02,1.087939813733100891e-01
-2.548035118343670857e-02,-3.725512928934184842e-01,-4.162541967100977236e-02,1.370260149655235838e-04,7.166023481312277892e-03,-3.032069926136964078e-04,3.395140767097473145e-01
-4.939430243564715828e-02,-3.820899883427077981e-01,-3.952070732588487678e-02,-8.765208697103786181e-03,-1.834333452523260457e-03,-6.238955905450759530e-03,3.382693529129028320e-01
-5.238221572641829638e-02,-2.276983889151375784e-01,-5.160303734317765734e-02,3.081487834753530650e-02,8.764562449643943653e-03,2.119239347005258400e-02,1.878814697265625000e-01
-6.907066122883229187e-02,-1.671473714875625904e-01,-6.739102873580692099e-02,5.341414345785819090e-04,-3.369131255231093240e-03,1.333221085305079552e-02,1.017582789063453674e-01
-3.593247536529663166e-02,-3.748812917792718746e-01,-3.150449996390632112e-02,1.403255304477956040e-03,1.518850320792784455e-03,1.147647747991343463e-03,3.412089347839355469e-01
-6.900657803560797388e-02,-1.855935271691251387e-01,-6.634636747722767736e-02,2.736456846018478755e-03,-2.611340386750423976e-03,3.664232402466199162e-03,1.182917654514312744e-01
-4.845250410966879528e-02,-3.585158058579363538e-01,-1.463386843818181848e-02,-9.821170600898413219e-04,-2.679234011943441851e-03,3.634241570272099694e-05,3.283188939094543457e-01
-6.739513628795409939e-02,-2.349843280204005624e-01,-5.460564099778413005e-02,2.597916952308964786e-03,-9.786900571953640118e-03,-2.443123660759517258e-04,1.752166301012039185e-01
-3.140404495143975239e-02,-4.173972109476231096e-01,-3.887388799328168887e-02,-4.293849919413349203e-02,-1.092367705410101850e-02,-1.106040663759951664e-02,3.904092013835906982e-01
-6.546224455276911103e-02,-2.040604564191778048e-01,-4.993594670510399791e-02,8.470231509059296393e-03,6.338248214915461615e-03,1.942723166232923973e-02,1.518896073102951050e-01
-7.067782443559965377e-02,-2.165371861942226306e-01,-5.747619843568154557e-02,-6.733467845762574483e-03,-6.279129314225870631e-03,1.695378394376242590e-02,1.564973145723342896e-01
-4.271628126740495413e-02,-3.710737954618986700e-01,-1.930727253278322064e-02,-4.435608246872761555e-03,3.172973397305548209e-03,-1.429381485817180983e-02,3.416948020458221436e-01
-4.139366874919564454e-02,-3.756652389904164835e-01,-3.837638099887871745e-02,-2.756953850322015846e-03,1.877339333385021850e-03,1.818982790028518320e-03,3.358548581600189209e-01
-4.339570503193880546e-02,-3.715337334205430775e-01,-5.678181112517927120e-02,1.862252030498781239e-03,-1.808786648142797406e-03,1.862506739205671818e-03,3.217015564441680908e-01
-3.558433416139793193e-02,-3.878231703206791448e-01,-5.247784878969194433e-02,-2.215370556185736282e-03,5.112816145338794040e-05,5.007984339652295268e-04,3.441257476806640625e-01
-3.567487762622387204e-02,-3.731346398388774022e-01,-5.641016591543474012e-02,-4.930463138696664777e-03,-8.208486644817481609e-04,-9.001183694518679820e-03,3.280697166919708252e-01
-3.607580074125206482e-02,-3.767050829694844616e-01,-4.971976508049005816e-02,-3.626011660400826203e-03,-2.225939431238211069e-03,-8.266105445231618221e-03,3.344042897224426270e-01
-5.893984512587344821e-02,-2.308313587409389911e-01,-4.803699120894922014e-02,1.253216827518505681e-03,4.780135172251838253e-03,-5.482956497702617601e-04,1.778028011322021484e-01
-4.806687495294928447e-02,-3.645806600464411296e-01,-4.845730648284624076e-02,3.559153772095234467e-05,-1.317452645845578558e-04,-3.097936534569523332e-04,3.163192868232727051e-01
-4.571660999330350028e-02,-3.679265780899605986e-01,-3.978619030799963874e-02,-2.415812088172637903e-04,9.695603465903416662e-04,2.102269559290813241e-04,3.252205550670623779e-01
-5.172379139543312188e-02,-3.689596843115364733e-01,-4.418592345306317226e-02,4.626447477548036166e-04,-4.565422542322131183e-03,3.933990735432326530e-04,3.211702704429626465e-01
-4.941414915755937276e-02,-3.666121711227970370e-01,-4.621941715474818524e-02,-6.493422160693472197e-04,-2.200523334544714216e-03,-1.512861109339856507e-03,3.188429176807403564e-01
-5.033086860370653004e-02,-3.408498059367528477e-01,-1.791229306300574919e-02,3.883661228925078712e-04,-1.235719896552121312e-03,-1.281513574334764826e-03,3.080266118049621582e-01
-3.797365033773068832e-02,-3.869315546370462600e-01,-2.874275386882590988e-02,-3.210861905688837479e-03,9.416553689282501985e-03,-3.599823932119822559e-03,3.541381657123565674e-01
-1.282072468586609171e-02,-3.347577762190259154e-01,-4.715403649044273837e-02,1.320131988713218324e-02,-2.590057309715056329e-03,-1.891674125508648052e-03,3.071201145648956299e-01
-4.993355427435990090e-02,-3.679329047412999154e-01,-4.510045244061498815e-02,1.923298248145025729e-03,-2.520947275112588037e-03,-1.228347783181181767e-04,3.204903602600097656e-01
-1.315601046559539133e-02,-3.579396682787219230e-01,-4.431997442760042538e-02,1.330307137044677230e-03,2.184113855590086306e-03,1.029125480146577537e-03,3.303406238555908203e-01
-4.751346149143331754e-02,-3.681846378291256938e-01,-4.511495032093908175e-02,-5.192478210573251264e-04,-2.396354940223059411e-03,-6.412994142780151187e-04,3.219070732593536377e-01
-3.089608544074909369e-02,-3.284202708870810339e-01,-4.545218335582737468e-02,-2.548534645081470748e-02,-8.196516705446259612e-03,5.866678670611347006e-03,2.943722903728485107e-01
-4.701546094910484530e-02,-4.107660995874005683e-01,-4.131324008529915770e-02,-3.049252325185802109e-02,-2.213301196571786783e-02,-3.086535911735497142e-02,3.762156665325164795e-01
-1.298566865254445479e-02,-3.521063801231209545e-01,-4.596213696723384923e-02,1.811764442914847156e-03,-1.161868620310644576e-03,-2.287116869031294904e-03,3.239396512508392334e-01
-7.623833919573788642e-02,-1.445639646977766035e-01,-5.739507927307802015e-02,-1.219997377811583850e-01,3.085688304490312797e-03,-2.495841308118425597e-02,2.299131900072097778e-01
-3.071150868969224623e-02,-3.146466222261016243e-01,-5.556841789463824732e-02,1.385533743914714759e-03,-1.273094851160118737e-02,6.495959300555354248e-05,2.732604444026947021e-01
-2.593979002738011630e-02,-2.889556250954734007e-01,-5.449953144383742898e-02,-3.226871561368061664e-02,-1.276132147622780237e-03,-7.224788328769935104e-03,2.564500272274017334e-01
-3.318436098857326100e-02,-2.723248271548971977e-01,-4.586183784859899915e-02,-5.251037129136205267e-02,-1.028689187267262106e-02,1.007114132533210547e-02,2.514178752899169922e-01
-2.164004014125887887e-02,-3.467553037356027601e-01,-4.691748977280019162e-02,-1.624872793453587677e-02,5.978678081167005699e-03,-6.805009431202610828e-03,3.148952424526214600e-01
-5.115854167727075519e-02,-2.734103774663541042e-01,-4.127653491229979488e-02,-5.314802178455637488e-02,-1.302463994854626645e-03,2.766136317349403989e-02,2.499289959669113159e-01
-7.351135795842697607e-02,-4.357939100765799156e-01,-3.090863354647796490e-02,-7.113643295869217370e-03,-1.183882534816831263e-02,-3.325342381001747307e-03,3.861390054225921631e-01
-4.436708365411283495e-02,-3.777877744581781827e-01,-3.826510531277370342e-02,-5.969627033275759671e-03,-4.489534595903261734e-05,1.547438989220680135e-03,3.366826772689819336e-01
-6.392560002000720332e-02,-3.600509108139404724e-01,-4.810101936294541858e-02,1.055205233869225268e-01,1.075980325303959977e-02,-7.181338373566230338e-02,3.766287565231323242e-01
-7.885660770769936656e-02,-5.549378434626281997e-01,-3.373185395666547515e-02,-1.017975158087184723e-01,8.648952390385150971e-03,8.872339396811707024e-02,5.523592829704284668e-01
-6.431612828028396289e-02,-4.353897343337077008e-01,-3.028056077188714945e-02,1.577674116024047751e-02,-1.362297939429232829e-02,3.084413271704315122e-03,3.909165561199188232e-01
-3.426283035970856261e-02,-3.662610803431526341e-01,-3.436141739294260034e-02,7.356891319987440576e-04,1.674383894875783926e-03,-9.660918956597402529e-04,3.319683074951171875e-01
-5.804006380961239386e-02,-4.262967935075400727e-01,-2.867616950577334123e-02,-6.090370349015074118e-03,2.184340228535695035e-03,-1.312704709459786706e-02,3.846183419227600098e-01
-6.167770742933882666e-02,-3.793750825457078979e-01,-2.544476558283950696e-02,-1.491154109270637074e-02,3.827516848876054943e-03,-1.670001646049103575e-02,3.395633101463317871e-01
-5.073372951370880291e-02,-3.608705344619583255e-01,-1.282060186026501292e-02,1.262302778245815804e-04,1.093970386807434055e-03,-2.193620438804905952e-04,3.307329416275024414e-01
-1.638710131765450106e-02,-3.581802219429042755e-01,-4.281576229526501409e-02,3.044509951591553858e-06,3.276998485915224874e-03,2.522317081098742354e-03,3.294528424739837646e-01
-1.705732490114783562e-02,-3.495307588039668900e-01,-4.015105195686220763e-02,6.962991873820102403e-04,3.125554988916730628e-03,3.876319249807104288e-03,3.216670453548431396e-01
-2.216644905947530442e-02,-3.709248644984085574e-01,-3.858771497462951117e-02,2.008891660961653527e-04,4.175549092994760951e-03,7.196113257248250338e-04,3.409237563610076904e-01
-4.025399716840447062e-02,-3.933414701000760294e-01,-6.778985224896791340e-02,1.300036079657633341e-02,4.375108073178143181e-03,-1.119931001350038952e-01,3.922986686229705811e-01
-8.863506907465132367e-02,-3.908061122120825570e-01,-3.222145652274024941e-02,3.108154500372400323e-03,-5.442457355101525812e-03,-2.333968711244810510e-03,3.341714739799499512e-01
-5.358331882641725885e-02,-3.821838420560655925e-01,-4.323073228707874360e-02,4.550819374255350887e-03,1.792735925106827242e-03,-4.060165091625407910e-03,3.340786993503570557e-01
-2.301145635180337767e-02,-4.023024900474575505e-01,-3.902748848869852516e-02,-1.974133005372629215e-02,-6.809322539413566362e-03,-2.720173639032763546e-02,3.762599229812622070e-01
-3.693403804402560497e-02,-3.742990118003954869e-01,-3.668825062732040954e-02,-7.524944764114955761e-04,5.057072542457494851e-03,-2.652179165007827557e-04,3.376044034957885742e-01
-3.333845050529152254e-02,-2.997080539492575912e-01,-6.496939205842781895e-02,-3.173494624194750369e-03,-1.051847238531235240e-02,2.482507584710082552e-03,2.528010606765747070e-01
-3.117343222907206779e-02,-3.753793220876633363e-01,-3.489795230518544233e-02,8.138405143755832790e-04,5.117927425417755256e-03,-2.655255720935468145e-04,3.424767851829528809e-01
-2.538777211476586637e-02,-3.624472695937400735e-01,-4.033412277724197914e-02,5.577905283921291615e-04,8.902506294166827316e-03,-8.798967902651494552e-04,3.302055597305297852e-01
-5.420850959813566794e-02,-3.888819587550923496e-01,-3.639691705262673715e-02,7.263812633698475338e-03,-1.661098087998947497e-03,-2.285697073433103944e-03,3.441901803016662598e-01
-2.525702996721973514e-02,-4.527979809527645227e-01,-6.391510066879670104e-02,2.443137741489871326e-02,1.439433522141231672e-02,-7.276207868142227364e-02,4.313386380672454834e-01
-2.440801849796861434e-02,-3.651607897347752818e-01,-4.234491230544651375e-02,-1.085668603652056342e-02,2.354271454380350414e-03,-3.776332467125897725e-03,3.327689170837402344e-01
-6.730641245908763892e-02,-1.694365327452364567e-01,-6.408522638512580138e-02,-7.067205126726836938e-04,-1.077219932181036274e-02,-2.303793385335474800e-02,1.127465143799781799e-01
-1.142470160272296420e-02,-3.503621735404408577e-01,-4.532403960701120171e-02,7.822849726227791437e-04,3.468820048385559511e-03,-9.852622255057372528e-05,3.233821094036102295e-01
-5.569632880305325218e-02,-2.481271471365128489e-01,-3.565928356161700286e-02,-3.535285710444965434e-03,1.197718282827964567e-03,-3.157787522937838265e-02,2.105234712362289429e-01
-4.395120040684732943e-02,-3.607486107635704542e-01,-2.543542322437633563e-02,8.783187074778348903e-04,7.013934271225544075e-03,-3.965695382455859501e-04,3.266795873641967773e-01
-3.936893045414385783e-02,-3.721951811080556061e-01,-4.665835428384546013e-02,-1.080048067260551848e-03,-1.601513275151602883e-04,5.804847303106940720e-03,3.294009864330291748e-01
-5.280036499293937896e-02,-1.855486776314412278e-01,-4.704032009896617211e-02,-2.008761891707148625e-02,9.325057669125780269e-03,-1.820992033724558659e-02,1.445203721523284912e-01
-5.345743823142436874e-02,-2.007340623407535274e-01,-5.006657684409983322e-02,-2.351573481627956472e-02,9.093276129820049639e-03,-2.330828900300706275e-02,1.604311615228652954e-01
-5.038945629559213324e-02,-4.635560538229049343e-01,-3.728800676717519691e-02,-8.789200861364233897e-02,6.004424914158319748e-03,2.605505259675745464e-02,4.490112960338592529e-01
-3.709407481380271043e-02,-3.745589191945951635e-01,-3.522748548657832213e-02,4.542343775982004032e-04,1.075520301202928649e-03,1.992828134304180931e-03,3.384256362915039062e-01
-4.097332969633027400e-02,-1.174101535784927014e-01,-5.023304194232379449e-02,-2.691010556887063129e-02,-2.303731242097805179e-03,-5.987362537813029767e-02,1.347719728946685791e-01
-3.848341260433801869e-02,-3.703660858651490750e-01,-3.073543668409346730e-02,7.792198878441096953e-04,6.390019650179958738e-03,4.803556063795848003e-04,3.360097706317901611e-01
-5.048693706744231124e-02,-2.638012465335728418e-01,-4.353967880425367587e-02,7.159337491888398061e-03,-2.576591871857097406e-03,-5.564083792748140966e-02,2.376859337091445923e-01
-5.715141977698058595e-02,-2.361504485735971548e-01,-4.784385279550427972e-02,-1.377375923554754675e-02,5.332842366854103483e-03,-7.136592667180627347e-02,2.229956984519958496e-01
-5.624720983045069372e-02,-2.517484201277495059e-01,-3.660851009162149894e-02,-4.513590124307621104e-03,1.519388722132512196e-03,-2.978528008662741783e-02,2.125448733568191528e-01
-3.297689555968835728e-02,-3.717554135698787343e-01,-4.530638701326658579e-02,-9.966894060820486682e-04,-1.945727876854681055e-03,2.355134841122953973e-02,3.352972865104675293e-01
-3.697604390751148273e-02,-3.718186677518815486e-01,-3.934204490378115371e-02,3.010135683448840645e-03,7.632704313845385799e-04,1.738593651339186445e-03,3.337228596210479736e-01
-4.457376187483189089e-02,-3.134238564371440994e-01,-3.465759244251245819e-02,4.169336747479170731e-04,-1.008488227436732040e-02,-2.765221631220437896e-03,2.745418846607208252e-01
-2.046838689289900981e-02,-4.296454698214803303e-01,-5.243438310820110193e-02,-3.160529876011222792e-03,3.414424965254391278e-03,4.166033402210969801e-03,3.943158090114593506e-01
-4.117678149701653467e-02,-3.768059284364674300e-01,-4.929492274903764237e-02,-4.851871615804463633e-03,1.407326418663777884e-03,2.475034308109604064e-02,3.345182240009307861e-01
-5.247886867854592574e-02,-3.101159087681271131e-01,-3.102222601927279166e-02,-1.261777755530652044e-04,5.597838762210544626e-03,-1.470463758998787410e-03,2.691947221755981445e-01
-3.310732732351537311e-02,-3.809385893597189710e-01,-5.243899575503355170e-02,-4.151016114642303891e-03,-1.143651665446176221e-04,-4.445748278528637888e-03,3.387435078620910645e-01
-3.289732844146686652e-02,-5.127022380473937879e-01,-7.038637403251518654e-02,2.727424285021788283e-02,-6.625102321437783409e-03,6.244700399796647428e-02,4.771718382835388184e-01
-7.005905117114943903e-02,-3.766471891919970227e-01,-3.749853080883384926e-02,2.458646452267478880e-04,-6.015832419874093430e-03,2.284750194103468430e-03,3.242893218994140625e-01
-2.004325729741754381e-02,-6.116153650721273261e-01,-6.872179856782550944e-02,-2.679298327599593035e-02,2.846386050291163389e-03,6.292368222832629698e-02,5.810218453407287598e-01
-4.910888974507141014e-02,-3.475274171486492092e-01,-1.123039519243260176e-02,-3.501384523723003080e-03,-3.061600020844353412e-03,9.526060784435312970e-03,3.195765614509582520e-01
-3.671011500936646743e-02,-4.416642798123332492e-01,-7.405870970123715202e-02,-2.076287748313422089e-03,-1.405460697592261256e-02,2.549330416444398322e-03,3.884370625019073486e-01
-3.256285024870782252e-02,-3.798568940250277581e-01,-5.109692369549942437e-02,-3.802820032956884450e-04,-2.017760783250956234e-03,3.364851116270308785e-03,3.384767472743988037e-01
-3.356207534856715802e-02,-3.793057544761151423e-01,-5.115588971300781551e-02,-1.081152722607493961e-03,1.295695358364767902e-03,2.479630346894189184e-03,3.373311161994934082e-01
-3.683326060781394462e-02,-3.776716828192107078e-01,-5.293398496893304828e-02,1.773661125447545037e-04,9.669995309019215621e-04,3.663273885511003376e-03,3.331448137760162354e-01
-2.736523740079463418e-02,-3.639081200476229627e-01,-3.630913675133527752e-02,1.749626628380479597e-03,-4.827130374484107575e-03,-5.942062530878053882e-04,3.322818875312805176e-01
-3.072200061964502904e-02,-3.904693441925379815e-01,-7.512405851777151367e-02,-4.513701420995839056e-03,1.770350416415918853e-03,1.417218771177042617e-03,3.398422002792358398e-01
-3.989015150276123411e-02,-3.687345554391049940e-01,-3.584522474938781067e-02,4.462334477253669619e-04,5.576937626623632233e-04,-5.834915028169300206e-04,3.308892548084259033e-01
-7.055003290368379310e-02,-3.774969880626314334e-01,-3.477075200651216780e-02,-1.036969909592668111e-03,-4.772191665817783132e-03,1.585888722639573864e-04,3.264208137989044189e-01
-4.562775194150997526e-02,-2.278154679809471506e-01,-5.111522694850253318e-02,-6.315108845774825008e-02,-3.781468519011453675e-03,6.477597540684423318e-03,2.106078863143920898e-01
-4.149549798580649818e-02,-3.850332782047831692e-01,-3.841684089966802829e-02,-1.013917275414599924e-02,9.826534382462445011e-03,-1.032010147541540142e-02,3.464143872261047363e-01
-1.635553013045110138e-02,-3.354343062176969870e-01,-5.449890841808101294e-02,-1.645449671218028598e-02,-2.400786109068967205e-03,-2.896594711823551223e-03,3.032328486442565918e-01
-9.629965778475191307e-03,-3.573217950935406728e-01,-5.048498462837294753e-02,3.781640618540648129e-03,5.895539014683907507e-04,-5.272414734597675014e-04,3.292393684387207031e-01
-5.911504573590603551e-02,-3.613903946672187839e-01,-3.902985197298829145e-02,-8.161881326581339746e-02,6.494635293083516128e-03,-2.952241537383899512e-03,3.434860110282897949e-01
-3.525887807640913640e-02,-3.699892410060066639e-01,-2.864970088978985308e-02,-4.131662572736400762e-04,-1.074065233717651918e-03,-5.420292104061974264e-05,3.380892872810363770e-01
-3.192945683503047027e-02,-3.372647783890300732e-01,-3.786462279870822512e-02,7.568816259700698758e-06,-1.132057706549791619e-02,3.923758171791300649e-05,3.030464351177215576e-01
-5.918230259762372047e-02,-3.357595098065025985e-01,-3.494240933193544507e-02,-1.011226321958655500e-01,9.526532801130690802e-05,-3.829847151664647620e-02,3.447672128677368164e-01
-2.922752845491398410e-02,-3.363615336984964177e-01,-4.374960695257885945e-02,-5.381296853356479920e-02,-2.733739602376019946e-03,-1.356521506763830494e-02,3.151887357234954834e-01
-4.388634137534649926e-02,-3.695978959097746541e-01,-4.948777029455093956e-02,-1.850305831151370824e-03,-3.504630273209967568e-03,-2.434089266085223691e-03,3.230477273464202881e-01
-2.368129162928311882e-02,-3.610634518144298921e-01,-3.975331041662052978e-02,-2.458665382369298186e-04,-4.363308693306908181e-03,1.755050467885317157e-04,3.297271728515625000e-01
-5.810900457269915775e-02,-3.700328385066848913e-01,-3.517719824487955393e-02,-4.521663842806228004e-03,-2.349133613544933819e-03,-6.348844360104048332e-03,3.243056237697601318e-01
-4.690029908598015995e-02,-4.258553911863438013e-01,-3.687558651344444161e-02,2.785793928266480125e-03,1.210467194564966362e-02,-2.051800704121247571e-02,3.863058388233184814e-01
-5.814565521990416874e-02,-3.778587188385916784e-01,-4.432379506295398841e-02,-6.798845623973123796e-04,2.856873061218542613e-03,-2.679405314981397456e-03,3.269157707691192627e-01
-5.873186486230834447e-02,-3.732286028891407259e-01,-3.721382258564653878e-02,5.496806430214422811e-04,4.455440792922705541e-03,-2.687043746396817687e-03,3.259151577949523926e-01
-5.502053052781476217e-02,-3.449600029109515242e-01,-1.832937160892475492e-02,1.277763137149179719e-03,2.278978280371618363e-03,-2.099513923515442405e-03,3.099726736545562744e-01
-4.880141027300363699e-02,-3.714917527386084051e-01,-4.387327984414408910e-02,-2.997105979852476409e-03,7.527422299368281659e-03,1.003727571006176851e-03,3.254897296428680420e-01
-5.992065438371234343e-02,-4.086147872394170211e-01,-3.389469094531175064e-02,6.227801518639810609e-03,6.277977873809905199e-03,-1.258334947607085696e-02,3.633863925933837891e-01
-3.210644837775686322e-02,-3.786857436859758508e-01,-7.851735697213527154e-02,-2.358675655139158382e-03,-1.652659154225539790e-03,-1.445134281770970534e-03,3.259099125862121582e-01
-3.893362366009819886e-02,-3.718939494619603048e-01,-2.611039523772812343e-02,1.405620411287455268e-03,1.568859574693368553e-03,2.003750412853019509e-04,3.395733535289764404e-01
-5.346345205635856523e-02,-3.780205656935131664e-01,-4.442626944096442210e-02,-5.610763975459588052e-04,7.815029826628041437e-03,-4.461955615084466087e-03,3.295390307903289795e-01
-5.405425906254654467e-02,-3.790085829921777671e-01,-3.835841292363920130e-02,-2.062763736775259735e-03,-2.035194515583371234e-04,-3.350017785157833987e-03,3.331496119499206543e-01
-6.385079461146873914e-02,-3.726930700615034842e-01,-3.742270138070603880e-02,2.173946917413894370e-03,3.498872255534745367e-03,-2.594017693097092417e-03,3.229786455631256104e-01
-5.654788301166516207e-02,-3.712644663873309048e-01,-4.114149380255385791e-02,1.752261140662842234e-03,-1.502509032746435951e-03,1.562055853947287793e-03,3.227318227291107178e-01
-5.509014064857267745e-02,-2.859416611007604136e-01,-2.765634763465461832e-02,1.207746679850387134e-03,-3.994848698642011059e-03,-9.708248000075631393e-04,2.458317577838897705e-01
-7.954377307663372532e-02,-3.862962265025471353e-01,-3.075809888961497651e-02,-3.565819805542342919e-04,-5.280630796519914828e-03,-2.113151237850890637e-03,3.339755535125732422e-01
-7.401700767963523275e-02,-3.862535382060559019e-01,-2.964188972798384447e-02,3.979466889086557928e-03,-9.203609043950576000e-04,-1.844318236707230812e-03,3.367144167423248291e-01
-4.730792784051854327e-02,-3.509460243618864883e-01,-2.251122150759225782e-02,1.031784631918314821e-04,-9.925756705719200948e-03,-3.495755658741982750e-04,3.172320127487182617e-01
-7.104991338124300171e-02,-3.856794182288068029e-01,-3.347466621354183713e-02,1.443608485965906492e-03,-1.590279484817234534e-03,-1.087332933203289699e-03,3.350273072719573975e-01
-2.904613536121522510e-02,-4.058291322390326084e-01,-8.284732419002271975e-02,5.204536446904287940e-03,1.258128135032103925e-02,-5.895722127113141135e-03,3.539053797721862793e-01
-3.945793082331403023e-02,-3.696830730432402179e-01,-6.116266820881559318e-02,-8.575454469132086192e-04,-2.157419280435017919e-03,3.424277578125731192e-03,3.200056850910186768e-01
-7.305595310203692738e-02,-4.320924201255725294e-01,-2.336594515072318301e-02,3.736487708343274369e-03,-7.855086306939448523e-03,-1.103462141824103869e-02,3.870517909526824951e-01
-6.576469366310801201e-02,-3.855856915165190024e-01,-4.346366271752365174e-02,1.932847842435588210e-03,-1.737345662572729876e-02,2.489338365982244738e-03,3.329421281814575195e-01
-2.999380762907206954e-02,-3.799695369144317492e-01,-4.388106729883516077e-02,-5.582782193858907579e-05,5.014774656585302241e-03,-7.375358486628056038e-04,3.433551490306854248e-01
-7.129803180383396943e-02,-3.760339608436880088e-01,-3.545651525008147731e-02,-6.588904051754106671e-04,3.288757439203192703e-03,-3.669657722955669936e-03,3.242606222629547119e-01
-6.175049355919737248e-02,-3.889097090795337053e-01,-3.904139300667322510e-02,-3.178008453209007177e-03,-5.093269806445090489e-03,-1.432182285421448572e-03,3.392530381679534912e-01
-4.916073922177557898e-02,-3.433294411317411865e-01,-1.377359018738298635e-02,4.793855953534861825e-03,6.584525339692220459e-03,1.601729573651747632e-02,3.149062395095825195e-01
-4.881023401735974654e-02,-3.575188091770074572e-01,-1.254119256909452806e-02,-9.367939451534734719e-05,-2.677777477017542112e-04,2.816789482794819521e-04,3.283496201038360596e-01
-5.103316407615264561e-02,-3.589425660154221820e-01,-1.320841568830438684e-02,-1.799088246427505257e-03,-1.486004542101154735e-03,3.684717088607034150e-03,3.285461366176605225e-01
-4.309878150141717434e-02,-3.587485297831157771e-01,-2.192335055098910968e-02,-3.732970905038463611e-04,-5.067508641791982488e-03,-1.374100397973041518e-03,3.268796503543853760e-01
-4.438647545711128795e-02,-3.576209108794547453e-01,-1.541915202208496427e-02,2.250965157730502441e-03,2.332125405022161639e-03,1.776837485097701235e-03,3.287392258644104004e-01
-2.388240369010123654e-02,-3.656822724837409666e-01,-3.268750226457049768e-02,-9.387423691904140310e-04,-1.221647650735278780e-03,2.787312902111061756e-04,3.374943733215332031e-01
-5.007596560280397346e-02,-3.467794669460491086e-01,-1.557991467002686758e-02,-2.412225699351041534e-03,-2.150276631628702043e-03,7.706140988958983494e-03,3.157016336917877197e-01
-3.513798449159655224e-02,-3.687341139858375527e-01,-2.796061064441138222e-02,4.844140631173006256e-04,-7.931641527575529829e-03,-5.096048239190276684e-03,3.376382291316986084e-01
-5.328914998538528125e-02,-3.382369609936199950e-01,-1.138143999622089064e-02,-8.497911977663689508e-04,1.230781992185508685e-03,1.112163736473078396e-02,3.086597025394439697e-01
-3.660130183010219806e-02,-3.575134104755074982e-01,-2.765573667171995764e-02,-1.253931207915005104e-03,-9.623849772223046217e-03,9.358933123210132687e-04,3.259149491786956787e-01
-5.034134194536254991e-02,-3.514736407915971528e-01,-1.129996352008094673e-02,-2.188036559323931762e-03,-1.267243966396710197e-03,8.600655738572336772e-04,3.224638104438781738e-01
-5.027706717442985418e-02,-3.509955692774426317e-01,-1.030182219217920525e-02,-2.204570497723620445e-03,-1.904554472628573140e-03,6.015116104166240776e-03,3.227769136428833008e-01
-3.141313918883242851e-02,-3.678046808527723477e-01,-3.924249788879748124e-02,1.498402988278866536e-03,-1.214792157494217015e-03,-1.117112362485461101e-03,3.325684070587158203e-01
-5.284470898116801207e-02,-3.481717666698392333e-01,-1.024339685079267426e-02,5.442553749810937012e-05,-6.730667292158563691e-04,6.450793054124980344e-03,3.189678192138671875e-01
-2.204976665907082065e-02,-7.544372810775017146e-02,-4.761881677996192969e-02,-3.469130262310466534e-02,-9.152780386719407482e-03,2.304488254410796619e-02,8.714607357978820801e-02
-4.916124628024161336e-02,-7.216851364988795259e-02,-9.136799903615766549e-03,2.921657024543707765e-02,-1.420681205603011033e-02,1.187982582053219265e-02,8.149760216474533081e-02
-5.931621411080532924e-02,-2.099582283766944224e-01,-6.033291020940188126e-02,-2.122382391137967936e-02,-3.804301340022938575e-03,-3.838668574934316763e-02,1.683932244777679443e-01
-6.012683192781022312e-02,-1.312173142968756923e-01,-6.416663989924523137e-02,-1.599255841348239462e-02,-2.409893965868368983e-03,-5.799627695311674463e-03,7.529010623693466187e-02
-5.740661345350842742e-02,-1.371100911355354612e-01,-7.035766361902709431e-02,-3.335477553064102041e-02,-6.057675379640251739e-03,-1.759999335508856746e-02,9.932330250740051270e-02
-6.203001380889133776e-02,-1.321216252838011695e-01,-6.331875471022316293e-02,1.241736911231325693e-02,-2.523201012666299523e-03,9.050527232062345953e-03,7.450888305902481079e-02
-6.323146546267424672e-02,-1.353467636885464231e-01,-6.460073913147544589e-02,9.123680696154224876e-03,-1.709002106053902469e-03,1.441871491125804212e-02,7.736879587173461914e-02
-6.248880441853640888e-02,-2.143396499768069896e-01,-5.932106805083274537e-02,-3.433388201282481372e-02,-3.050323951188841417e-03,-3.217146412604750261e-02,1.738364398479461670e-01
-6.862718641777913742e-02,-1.646509142831259487e-01,-6.509668875379684416e-02,6.648018950879830283e-04,-5.528841318954631420e-03,-3.843400172734620299e-03,9.853617101907730103e-02
-3.390000079273107481e-02,-3.763611915178088907e-01,-2.858239829148599698e-02,3.971004344873037772e-04,2.926499181579925515e-03,-5.640213554607630912e-04,3.451899886131286621e-01
-6.934643568349133091e-02,-2.228112732848671895e-01,-6.675625029606069294e-02,-2.461650868241283333e-02,-3.902033530052436468e-03,-1.139183870059498832e-03,1.606958508491516113e-01
-5.658413129117154106e-02,-1.330493902964599573e-01,-5.635551010812915596e-02,-5.271544840862698450e-03,-6.462851658299141253e-03,-1.290650491941147324e-02,8.107327669858932495e-02
-3.514099590291760999e-02,-3.287729421072171920e-01,-3.511245770539360433e-02,8.155367196867990831e-03,1.440241966483836282e-02,4.059275418977190825e-03,2.951259911060333252e-01
-5.935810111810540385e-02,-2.226049036308084816e-01,-5.191996505785741178e-02,6.470248767742225321e-03,-1.203321618450273883e-03,-3.141062669784794488e-03,1.675667911767959595e-01
-3.318577324625694713e-02,-3.702603369636114361e-01,-3.689657627406552065e-02,8.542543090257946831e-04,-4.327827355317642299e-04,-5.288171597351859097e-04,3.352399170398712158e-01
-3.631266029134827544e-02,-3.694843451347619157e-01,-3.616032933758202284e-02,-1.213489180741742234e-04,-1.722637434273298915e-03,7.133106642954494718e-04,3.332635760307312012e-01
-3.955504970961651323e-02,-3.684476176703502803e-01,-4.151809199145753415e-02,8.636262159831429794e-04,-5.491686230524587853e-05,-1.190218897479810136e-03,3.279253542423248291e-01
-5.375065437422156533e-02,-2.451367907125084622e-01,-5.649633661710789373e-02,-1.788018649948424840e-02,-4.587089422267400657e-03,-9.552824747564021834e-02,2.539879381656646729e-01
-3.692491872087905191e-02,-3.692109256594447442e-01,-4.176181425281662307e-02,1.012432452294532081e-03,-2.624974262111794479e-03,-1.681810314566938632e-03,3.299430012702941895e-01
-3.757341842448318203e-02,-3.738276935727504746e-01,-7.044936542246998945e-02,-5.684378821332108575e-04,-3.014267437634843456e-03,2.702407969310213786e-04,3.211254179477691650e-01
-4.847809483624626603e-02,-3.636602860054208852e-01,-1.439708724986960009e-02,7.179110261566049740e-07,4.416694226798505954e-04,-1.322399833891327011e-03,3.335399329662322998e-01
-3.708795435291167841e-02,-3.688441184776162229e-01,-3.909655958264968145e-02,-5.353319510783252546e-04,-2.911682407413289809e-03,-9.578442450250017120e-04,3.308003544807434082e-01
-1.178135473260779123e-02,-2.528838705584517468e-02,-4.585865417564664870e-02,4.247986042070777020e-03,-1.711740703654674595e-02,-1.642662509042413371e-02,5.124523490667343140e-02
-3.791872730530233826e-02,-1.129230387957044640e-01,-4.444751710006693279e-02,-4.576810662932069562e-02,4.356492844429816873e-03,-5.017844865772508323e-02,1.381061524152755737e-01
-5.171365226803341375e-02,-3.582594477147272860e-01,-1.468275795304366249e-02,-4.812862335962829821e-04,-2.618574656118999224e-03,-2.455702430880949179e-06,3.266719281673431396e-01
-6.593290928817824303e-02,-1.764434251316077118e-01,-5.466038522158699065e-02,-3.389743391197447275e-02,-1.009595700990511408e-02,-5.661114363899575480e-02,1.641728729009628296e-01
-5.894710913178696776e-02,-2.762829172719845072e-01,-3.885908075719474164e-02,-1.819293813317042138e-02,3.242257170130129727e-03,-2.764188941328240071e-02,2.352040410041809082e-01
-5.959954211134715907e-02,-1.524682050124408772e-01,-4.156779648151077977e-02,-4.400730526411602422e-02,-3.999112046583661387e-03,-2.956635757542876511e-02,1.382198631763458252e-01
-5.742761564812482594e-02,-2.137296864205189828e-01,-4.655517836483091809e-02,-4.723098553507491804e-02,2.141888597206088613e-03,-4.642811279886973480e-02,1.985464692115783691e-01
-5.048661270832506542e-02,-2.750228811346627777e-01,-4.004273698416598026e-02,-1.680042524499938267e-02,5.325363063928121969e-03,-2.456455840340002542e-02,2.358235269784927368e-01
-3.491613303596037554e-02,-3.752899023643057053e-01,-5.540180081563092496e-02,-4.470492848454158015e-03,1.464195798120335526e-02,5.989124232587410453e-03,3.318311572074890137e-01
-4.550569364171652698e-02,-3.592422270232325521e-01,-1.899569060994450720e-02,-6.725293145958293655e-04,-4.087108955545916585e-03,3.788291244085993225e-04,3.278756737709045410e-01
-3.700486949471154530e-02,-4.100332868684060106e-01,-6.056090161433511088e-02,-6.229605116193623338e-03,1.239268478377644582e-02,-8.258853557591000743e-04,3.626254498958587646e-01
-3.122526544873749366e-02,-3.976466829934074410e-01,-5.824521343312004384e-02,-2.782838494701841622e-02,8.275650274710732307e-03,4.405101101146004922e-02,3.653002083301544189e-01
-2.844019506108191875e-02,-4.412239826651112584e-01,-7.365946883728925754e-02,-1.743298668086450814e-02,5.321567435155174185e-03,1.273654587714871493e-02,3.940213024616241455e-01
-4.125767248331622949e-02,-3.690313951832354666e-01,-2.385513566552265041e-02,-1.692553227741008196e-03,-2.222207169220184221e-03,-2.489528447490484738e-03,3.368746936321258545e-01
-5.271547308781303343e-02,-2.932631698435480549e-01,-2.279473441346829832e-02,1.376382714529183864e-02,5.146379766069105258e-03,-3.617426683304920954e-02,2.655735909938812256e-01
-3.458853305406754675e-02,-3.883782072066706004e-01,-5.399310988986186222e-02,-2.523061752841857484e-03,1.145651769788891158e-05,1.618865971788750746e-02,3.456643521785736084e-01
-3.669760589052054045e-02,-4.203182951353754415e-01,-5.861557569753016173e-02,-8.321651215691517819e-03,2.308026620988645403e-03,8.012340478367845076e-03,3.737022578716278076e-01
-4.466018901213378300e-02,-3.584727157940934550e-01,-1.455080204569603186e-02,-6.517058424556018432e-04,-1.624616670843460594e-03,5.080375727877260239e-04,3.299144506454467773e-01
-4.009521549334990609e-02,-3.671440595672946783e-01,-2.369299856829334971e-02,-4.833839630433121328e-04,-2.512747263873116570e-03,-2.934494647631642056e-03,3.356184959411621094e-01
-3.127498753061042081e-02,-3.750789574359137957e-01,-3.707410786996194474e-02,1.152999220744457256e-03,1.570111782052206100e-03,1.230982455560086439e-03,3.409647643566131592e-01
-3.178299454484428965e-02,-3.699818033379971283e-01,-2.794134245309423670e-02,2.175990369360686393e-04,-1.668763628125153210e-03,-2.509427144014794177e-04,3.401486873626708984e-01
-2.824185588823925619e-02,-3.755214052894385590e-01,-3.409632950595377354e-02,1.659367847016768110e-04,3.206806272218891505e-03,9.860424807376570559e-04,3.444387912750244141e-01
-4.403703011487396235e-02,-3.112890651857300184e-01,-4.376555880708632440e-02,9.900097170184216609e-04,1.205038775458582880e-02,-5.531170121269476632e-04,2.682084441184997559e-01
-3.156077206893538600e-02,-3.755484190694278190e-01,-3.516934691708023530e-02,2.816859753157645091e-04,1.202669842742124526e-03,1.358696036363537130e-03,3.422124087810516357e-01
-2.089715457539603749e-02,-3.495254123422253389e-01,-3.873644417398691697e-02,7.760641277075983231e-04,-6.787278301384175316e-03,3.226309537414674407e-05,3.203003108501434326e-01
-3.766512642425171031e-02,-3.681825250603592004e-01,-3.310550618758692498e-02,2.261845677391026693e-03,3.079010580804939813e-03,-4.713460424148647619e-05,3.328864276409149170e-01
-3.831742826060341445e-02,-3.570504619647871802e-01,-2.276153984944291608e-02,-8.603450387205042234e-04,-8.144432299976672035e-03,-8.821905799219530511e-05,3.270965516567230225e-01
-4.887647008208179100e-02,-3.651100224006651462e-01,-4.910497511666554737e-02,1.970731889363956375e-04,-8.109457493138609208e-06,2.297860064687340484e-04,3.161197900772094727e-01
-4.302343613792795896e-02,-3.682847494369717589e-01,-4.519192976911293180e-02,4.920248221725699112e-04,1.464193655009661445e-04,3.941065497918076451e-04,3.241844475269317627e-01
-3.919034833181025967e-02,-3.671375657855529551e-01,-3.584842490141640359e-02,2.030446397791354747e-04,8.909347321661778563e-04,6.112966269734398505e-04,3.296363949775695801e-01
-4.253273662869949678e-02,-3.709888753158556152e-01,-6.018063189509695321e-02,7.022604409198131541e-05,-3.334099888185785426e-03,-2.599721799795807965e-04,3.200498223304748535e-01
-4.456199003678969206e-02,-3.689290697844033740e-01,-4.810171178229154243e-02,-1.453428999413610995e-03,-3.337010163373194376e-03,-1.558967496261270871e-03,3.226846754550933838e-01
-1.717896556171724654e-02,-3.600554134991236221e-01,-3.935912142629947874e-02,-1.142459500311107830e-03,-1.148867904435494627e-03,1.544748389411234246e-04,3.323538899421691895e-01
-4.015481820345910557e-02,-3.666354554453891135e-01,-3.954010680916957010e-02,9.881531254309337299e-04,1.723533221508896261e-03,-3.719783064075662797e-04,3.268071711063385010e-01
-4.488550072641125932e-02,-3.678085855068634613e-01,-4.474460894248019627e-02,2.612780765788011222e-04,-3.305048093410189840e-03,-8.098107211442030556e-04,3.230476379394531250e-01
-3.861481161703224363e-02,-3.680240365809118175e-01,-3.654274062820959956e-02,-1.658573818961802879e-03,7.330418923099296441e-04,-9.453692636187577313e-04,3.304691016674041748e-01
-4.187163522362842560e-02,-3.667654364183139393e-01,-4.071646935107336995e-02,-6.122808170483937714e-04,-2.353330699716867612e-04,-1.570219323288836542e-03,3.254862725734710693e-01
-2.948524095842339210e-02,-3.700509861681898216e-01,-2.918534559137149487e-02,-5.845758710284112286e-04,-7.414326335954098471e-04,4.651222296249651433e-04,3.407206833362579346e-01
-4.972611056016497388e-02,-4.211090101330814406e-01,-4.701942531472039222e-02,1.219636104150279010e-02,1.587177919222984568e-02,-1.008798620936863892e-02,3.747600615024566650e-01
-4.148480363100368051e-02,-4.151734566303141305e-01,-5.158197719221277455e-02,-2.358617216273952572e-02,1.249655627438548723e-02,-5.654911315502917507e-03,3.717597424983978271e-01
-5.678339937717452601e-02,-3.728952148667399324e-01,-3.830345946345402319e-02,6.274496649743122219e-03,-5.349645184639990891e-03,9.754003374109756705e-05,3.260581493377685547e-01
-2.761989557863489542e-02,-3.595608129567322564e-01,-3.130623238607223302e-02,-4.039725003722555662e-05,-6.181373237581043803e-03,2.030496269700507331e-04,3.302869498729705811e-01
-4.482264333364735509e-02,-3.366166751705031990e-01,-1.445107932152765728e-02,1.466335990177186806e-03,4.923731260901997690e-03,1.091021731486647474e-02,3.088117539882659912e-01
-4.499804652948363737e-02,-3.544423253541987284e-01,-1.489819179227939994e-02,2.885828609210053122e-05,-5.876907251025758130e-03,-4.756910711856692994e-03,3.258028328418731689e-01
-4.305815058355784430e-02,-3.561001174354758714e-01,-2.766365845857100825e-02,-1.539132739882074141e-03,-7.779075786078175521e-03,-4.856184259002385879e-03,3.214199542999267578e-01
-4.542011300157200449e-02,-3.676900955841759244e-01,-2.200688500578357187e-02,-5.084790057432833285e-03,-5.068958273702251112e-03,-5.053843103602612304e-03,3.349369764328002930e-01
-5.115259172746484950e-02,-3.550561354638056555e-01,-1.417295625814132820e-02,2.466894424557426399e-03,-3.262373327399682287e-03,-7.029902486803147471e-03,3.242861926555633545e-01
-5.170344948533418805e-02,-3.614579086490675719e-01,-1.472891723068722736e-02,1.751694431768004850e-03,-3.241085345388519320e-03,-5.853271904339573881e-03,3.300173878669738770e-01
-4.025912581248362876e-02,-3.613511678986600639e-01,-2.091183639292513996e-02,-1.189625117993453043e-03,-1.621772894806349083e-03,1.833209351196933221e-03,3.312233388423919678e-01
-3.013436130106367239e-02,-3.714713889819245551e-01,-3.132593221664940752e-02,-8.501112048499394943e-04,-5.560142710708874903e-04,-2.126764670721270904e-04,3.407475352287292480e-01
-4.287167458555499189e-02,-3.572528661805129957e-01,-1.562296252929326612e-02,-4.930495443109646431e-04,-6.779636004225265446e-03,-2.990928742570917419e-03,3.291047811508178711e-01
-3.512668970003493540e-02,-3.741023044223921179e-01,-5.666985263447973931e-02,4.824441581644730594e-04,-7.832651215012034155e-04,-1.169945415702156911e-02,3.293617069721221924e-01
-4.414395586386586634e-02,-3.574697050366660300e-01,-3.097507667466761760e-02,3.478875855917559681e-03,-8.926937755822201073e-03,-2.419826322072407554e-02,3.232717812061309814e-01
-5.583442591753431938e-02,-3.465086153150327419e-01,-2.040969958926767969e-02,-4.253705812002096624e-03,-6.113845058209898403e-03,-1.873577670451770372e-02,3.118700981140136719e-01
-4.256780608280674727e-02,-3.739421763159975765e-01,-4.136146285211252105e-02,2.682219791857020502e-03,-2.218035026466602872e-04,-5.255287083472806771e-03,3.321366608142852783e-01
-5.629660343316336690e-02,-3.025503440384464948e-01,-2.001733863230563404e-02,1.137654307015472386e-03,-4.236054400074480870e-03,-1.670124757336083343e-02,2.679281830787658691e-01
-3.120480341474998753e-02,-3.699551598086373572e-01,-3.248341262344346669e-02,-4.690707175192652283e-04,-1.107341340043359540e-03,-1.251373261175454162e-03,3.381262421607971191e-01
-5.204542844156705150e-02,-3.420065920244953483e-01,-1.802803975137008685e-02,-3.844415311149492354e-04,8.686905899029381080e-04,-1.628014619109127703e-02,3.096711337566375732e-01
-3.721166395375591351e-02,-3.724043411990934915e-01,-6.356325447545947693e-02,4.028458544301000491e-03,-2.386237922298273164e-03,-8.424965110073480683e-04,3.229296803474426270e-01
-5.289558879668347646e-02,-3.188168813156557757e-01,-2.159878271633490499e-02,-6.083736864548322651e-04,4.275585358988950695e-03,-1.144706109754209389e-02,2.836638391017913818e-01
-3.946096365120821403e-02,-3.692857997238934153e-01,-3.089176538786171655e-02,-1.130145476086473130e-03,-1.426434353653125743e-03,3.173179263259173072e-03,3.342519104480743408e-01
-5.081999961931966958e-02,-3.479948706860064300e-01,-2.132097339751706788e-02,8.588207908185450283e-04,-6.599380266990660659e-03,-2.124889815583548905e-02,3.153361380100250244e-01
-1.767484015700998556e-02,-3.420092781576286045e-01,-4.522856743700076620e-02,-1.400042055355189483e-02,-2.994938268033700210e-03,-1.620548160761818004e-03,3.124711811542510986e-01
-2.734473104041797165e-02,-3.729097126831151243e-01,-4.428359641080850673e-02,6.751112513092316116e-04,1.388195716560379229e-04,-2.774440878226031807e-03,3.374509215354919434e-01
-3.353248452589334405e-02,-3.658923280312890158e-01,-2.852771784989241444e-02,2.813325576040082913e-04,-1.346524660364905321e-03,4.631036804783088203e-04,3.348997235298156738e-01
-1.602440975310925886e-02,-3.666191814307214192e-01,-4.670022913631868833e-02,-1.950690453671408316e-03,-1.065556317418574987e-03,-9.615779566731294135e-04,3.363339304924011230e-01
-3.261751276090947560e-02,-3.645375263608534588e-01,-2.771697453610784401e-02,8.877296377874877237e-04,-1.389021592588932184e-03,-9.137616548557263079e-04,3.344131410121917725e-01
-2.944154302479395913e-02,-3.634969428330177554e-01,-4.812728242379413213e-02,-1.215286775548406412e-03,1.639335934083120108e-03,-2.552296455187553787e-03,3.251647651195526123e-01
-1.564062947929220626e-02,-3.622002342065423486e-01,-5.013487245621182919e-02,-3.344001284624261751e-03,-1.690587684413816759e-03,-2.786790627209742403e-03,3.307635486125946045e-01
-1.454792679756332363e-02,-3.512464916981481444e-01,-4.637970843017344413e-02,-4.769674881515844483e-03,-2.212159996560343796e-03,7.945260404484804371e-04,3.220967054367065430e-01
-1.586150186522319872e-02,-3.624807782339363182e-01,-5.277033003168174474e-02,-4.747527678685017558e-03,-8.638416376521045785e-04,-2.627191716259822145e-04,3.298240900039672852e-01
-4.725549244495431955e-02,-2.656343358056919568e-01,-4.013195683246160994e-02,2.002228270185344577e-02,1.351990847526935401e-02,9.583977689295189537e-04,2.259413450956344604e-01
-1.793257488287636203e-02,-3.611873394582277297e-01,-5.072775072045201949e-02,-5.866967609815496552e-03,-5.345164650056055330e-03,-1.036819494857958452e-03,3.283815681934356689e-01
-1.618752346693839994e-02,-3.451990070454767356e-01,-5.130887336041885238e-02,3.951991469539086182e-04,-1.472635358507738169e-03,-1.034833850179614836e-03,3.129487633705139160e-01
-2.102080950551070415e-02,-3.380186958971898026e-01,-5.146577245556011038e-02,-8.129689278475338982e-03,-2.724653538441500211e-03,1.022286234102285209e-04,3.032888770103454590e-01
-1.972902745732452168e-02,-3.156957594123713795e-01,-5.810201130804293346e-02,-1.315388540698660472e-02,4.385176682951096570e-04,2.888007262275706522e-03,2.797433435916900635e-01
-2.707851036301645031e-02,-3.895395088857711574e-01,-7.474762735976686612e-02,-1.866131981969384535e-03,5.235879370290434957e-04,-9.180496566769712284e-05,3.411501348018646240e-01
-4.201817660234632990e-02,-3.731367486829224589e-01,-1.739246152287252101e-02,-6.295992391560804652e-04,-3.232753887915854442e-04,-1.322494674480804988e-02,3.448567390441894531e-01
-3.711218365622136195e-02,-3.801387102614544045e-01,-4.753026773064583654e-02,-3.088548865713954938e-03,9.833659221319516770e-04,1.013659784909528953e-03,3.379891216754913330e-01
-2.562560066969814254e-02,-2.775435418847720381e-01,-6.491110254984300276e-02,2.989040836801610743e-02,-5.732845857871147685e-03,-7.989657677679911155e-03,2.409972697496414185e-01
-3.770161284519450706e-02,-3.704754654411291370e-01,-4.313466608146621084e-02,6.204086443432639715e-03,4.922890665251806845e-04,-2.506918776569039883e-03,3.302953541278839111e-01
-3.993733366846932697e-02,-3.689295760058265428e-01,-3.087474306517230815e-02,-1.167288810696306143e-03,-1.440598861919306509e-03,3.184152430322034072e-03,3.336769044399261475e-01
-4.136290191265844240e-02,-3.674332946548356515e-01,-4.388855261412574760e-02,3.194143081812469216e-04,-3.536966577477433931e-04,-1.731773597340987691e-03,3.248298168182373047e-01
-4.134598612006644414e-02,-3.671847343943013264e-01,-2.045237877505538815e-02,-6.224790676870857117e-03,-6.490726334556537469e-03,1.150199829120771705e-02,3.377201557159423828e-01
-3.352933369423861942e-02,-3.673546456639682489e-01,-3.274244121692986009e-02,1.988768648409243572e-05,-6.459097384378233251e-04,8.686544651509294467e-04,3.342247009277343750e-01
-1.849645163153504357e-02,-3.188136716291875561e-01,-4.997452695855865434e-02,1.004089272394979686e-02,-7.328618259309704203e-03,-1.243195433396429041e-04,2.866906523704528809e-01
-2.574189402045828912e-02,-3.631390210623601789e-01,-3.195816962953054730e-02,6.323358233657518090e-04,1.362059832506996599e-03,1.036129893016166439e-03,3.343472778797149658e-01
-1.781172505546434193e-02,-3.361551656757290063e-01,-4.813644548898975140e-02,1.872709228179441146e-02,-3.782185113517539093e-03,-9.728394842149278715e-03,3.065736591815948486e-01
-1.835976905074308829e-02,-3.115815611789062300e-01,-5.437955015389800417e-02,1.077000637356942403e-02,-6.184906608499105701e-03,-3.205549559939376795e-03,2.778636813163757324e-01
-1.112188295588736886e-02,-3.550865805479386794e-01,-4.883347664065657012e-02,1.730565156209926819e-03,-1.660998319568821610e-03,-2.671696610963271174e-03,3.268043696880340576e-01
-3.891426133786414499e-02,-3.846173706528049907e-01,-3.410988091486755192e-02,-1.454432512497844695e-04,2.817963371752970248e-04,-2.953999701033416594e-02,3.518703579902648926e-01
-4.648758218744719617e-02,-3.658171701004411247e-01,-4.775988044836990132e-02,2.040223014882609439e-04,-1.334371126279706304e-03,-1.167037249067319395e-03,3.187103271484375000e-01
-4.900037104145414657e-02,-3.633259509689852340e-01,-2.622347382298922946e-02,-7.154641869751502369e-03,1.009117560235885461e-02,-8.491695981923331332e-03,3.273440301418304443e-01
-3.182307367443446000e-02,-3.674464809939039234e-01,-3.271255389363908472e-02,-5.912019296041738778e-04,6.050321481373166803e-04,-2.760549414242094456e-04,3.351830840110778809e-01
-4.734215526190439782e-02,-3.456534963156897566e-01,-1.550939880610577304e-02,-3.442044237368332377e-06,-1.192158777102711627e-03,1.657191947487172403e-03,3.154545128345489502e-01
-3.986659073653575636e-02,-3.700254444752849592e-01,-3.326696672898621365e-02,-4.051833253503266466e-03,1.151042639637971836e-03,-1.452043914467852871e-03,3.335969150066375732e-01
-4.523918731061547793e-02,-3.546450126753950549e-01,-1.362110037452277100e-02,-1.048106163679569068e-03,3.705638656612007201e-03,-8.237965386229721687e-03,3.267454206943511963e-01
-4.549562231155014624e-02,-3.547425454709071113e-01,-1.889136753805030489e-02,-3.932442380097452179e-03,5.881300659785718143e-03,-4.918174689067290190e-03,3.237150907516479492e-01
-4.164703416742092379e-02,-3.736629339043638920e-01,-2.477340842087855100e-02,1.450814288514817212e-03,5.062144168336443935e-03,-5.239953872494586447e-03,3.410090208053588867e-01
-4.435702789479703534e-02,-3.660043571019256370e-01,-2.470938554445178958e-02,-1.842548939402126676e-05,2.825803029266418711e-03,-2.014787930272368775e-03,3.319620192050933838e-01
-4.091214483314170591e-02,-3.635094942748757774e-01,-3.754644109447749512e-02,-1.800579987784810829e-03,8.792490167176161397e-04,4.516559652680415642e-03,3.244062066078186035e-01
-1.817595457947790427e-02,-3.575473774846956720e-01,-3.701269947635414670e-02,1.094810080106394922e-03,1.891803178275136034e-03,1.551461685868188922e-03,3.303886950016021729e-01
-4.524881658184191913e-02,-3.375291500238452591e-01,-2.507148612529029597e-02,1.843914749754006213e-04,8.753166851290154413e-03,-9.340157243782480287e-03,3.036840856075286865e-01
-5.266756818804936569e-02,-2.988335653946743720e-01,-2.281192076451216133e-02,1.117078971973987488e-03,4.592932644794096679e-03,1.526541054815094920e-03,2.625119388103485107e-01
-4.109319605786868057e-02,-3.676176992157204060e-01,-2.134789332577366472e-02,-4.087240049643879218e-05,4.398392201251161669e-03,-1.805001470749334784e-03,3.369321525096893311e-01
-3.895020687504387180e-02,-3.662091527733699614e-01,-3.779815390543783682e-02,6.007913906803958454e-04,2.378830746726447350e-04,3.564247145702772318e-04,3.278389871120452881e-01
-5.069598249160420234e-02,-3.349473601271973910e-01,-1.204879717330865907e-02,-3.014703030237253761e-03,3.830886706622787553e-03,1.546363786330441810e-02,3.067028522491455078e-01
-4.355626007328658456e-02,-3.775569729931201879e-01,-4.060260798021807227e-02,-5.428057360609491941e-03,-6.728958738792136136e-03,3.075467996047647704e-03,3.358635604381561279e-01
-4.687565246897067162e-02,-3.665338372755747032e-01,-4.358178010074746644e-02,-1.858133968682203338e-03,-2.839816766704774537e-04,-1.026467126965363011e-03,3.213391900062561035e-01
-4.741571873150872418e-02,-3.677660033015072161e-01,-4.639401742481828739e-02,1.718133856758786201e-04,-1.795914758339152992e-03,-2.018212885596451338e-03,3.208966255187988281e-01
-4.043387894257394199e-02,-3.723118614940433835e-01,-2.586486300409264472e-02,2.114514863425521126e-05,6.527688565755162577e-03,-6.042913772921485512e-04,3.395869731903076172e-01
-3.773739391839943391e-02,-3.389485810464322180e-01,-2.509078679403842216e-02,-1.309228199021524259e-03,8.610354892098045360e-03,-9.824954377211238266e-03,3.085685670375823975e-01
-1.823131703941519022e-02,-3.698937900916444699e-01,-4.607641193812798963e-02,-3.548249075494914421e-03,1.002177157473491641e-03,-3.582978855202449339e-03,3.387168049812316895e-01
-1.535879190523409266e-02,-3.676667885418897219e-01,-4.585211004065883889e-02,-6.040907660124778932e-04,1.247849194609832683e-03,-3.006575299098133026e-03,3.381428718566894531e-01
-1.677914486624942914e-02,-3.409433825941711182e-01,-4.787097574380140552e-02,-1.498790449842760282e-02,4.000029047932309595e-03,-3.943453699276947520e-03,3.110287189483642578e-01
-3.272957717004930378e-02,-3.684910592158149312e-01,-4.327706424448647671e-02,8.523421860423799259e-04,5.402765067173289195e-04,1.156227924657403285e-03,3.306246399879455566e-01
-2.845178485655029677e-02,-3.682753620152974250e-01,-4.570037765616591363e-02,5.643046177136416949e-04,-1.167158922122038674e-04,-1.575414307577608156e-03,3.315486907958984375e-01
-4.274269559742964464e-02,-3.583012736661612130e-01,-1.857176895799970973e-02,1.038702139977410377e-03,1.076167019856360749e-03,4.323348683182111547e-04,3.283230960369110107e-01
-4.514285315169941359e-02,-3.593189812423938645e-01,-1.682262733676448407e-02,1.312513238556335671e-03,6.398212504323274458e-03,1.310191083792512645e-02,3.302259445190429688e-01
-4.457627836773082886e-02,-3.620652304305356228e-01,-1.502610386720773517e-02,-7.372110586977779611e-04,2.106755422365393614e-03,2.695366823848578154e-03,3.333032429218292236e-01
-4.995378954127142890e-02,-3.589465701257242292e-01,-1.101499639211125925e-02,-1.218183307268626845e-03,1.356313656564949160e-03,4.397535678229765044e-03,3.302916288375854492e-01
-5.009189839085137486e-02,-3.534624665724317438e-01,-9.043509350559253424e-03,-6.614334700507871470e-04,1.050267215189703424e-03,2.317832086720927887e-03,3.258715867996215820e-01
-3.872834081540822704e-02,-3.524807825004556694e-01,-2.090434757493279949e-02,-2.680514616478351926e-04,-1.038353556794609743e-02,1.997982843842789191e-03,3.235525488853454590e-01
-2.837581259554876334e-02,-3.658180185193365963e-01,-3.920154753860162489e-02,2.452995602361580235e-03,9.368903138283606611e-04,-1.925562141186044430e-04,3.321929872035980225e-01
-3.738379055591609101e-02,-3.755524430732581909e-01,-6.156873516997087015e-02,-2.462660280446658714e-03,-2.617095701623811839e-03,4.449321392958266626e-03,3.268982768058776855e-01
-4.094404538514519187e-02,-3.608050002388565325e-01,-1.839192303715371513e-02,8.484129348310115318e-04,3.245768313654048484e-03,2.102780297367630793e-03,3.317833542823791504e-01
-2.832789196310285529e-02,-3.668197660444068031e-01,-2.695565544008894643e-02,-3.740916004654547635e-04,7.446829683021598994e-04,-3.436353038679461716e-04,3.391836583614349365e-01
-3.711495899052530412e-02,-3.741842428332435855e-01,-3.426791672368582897e-02,-3.370777566953071336e-04,1.475288266511168549e-03,8.436559117758949886e-03,3.388271629810333252e-01
-3.451098369684157952e-02,-3.605325967130201259e-01,-2.281370707270195808e-02,1.027543002537056622e-03,4.689345257783031178e-03,2.253204951611597652e-03,3.321518599987030029e-01
-3.540609661352160653e-02,-3.635510490906820324e-01,-3.170826763592722586e-02,7.090139563904776466e-04,4.033003584277125228e-03,1.188662638562074580e-03,3.300920426845550537e-01
-3.561228745349867553e-02,-3.667470897106498984e-01,-2.812070627341532736e-02,1.602812273786483619e-03,4.663255903775642697e-03,2.389220165747639197e-03,3.350778520107269287e-01
-3.319359258649533240e-02,-3.562107316993503581e-01,-2.140552030127990113e-02,4.969984322093448474e-03,8.032403134530383820e-03,5.234269276189740076e-03,3.296007215976715088e-01
-1.840129376828622543e-02,-3.550978600842645827e-01,-4.943118089265600978e-02,2.853722077549094086e-02,6.674015849296142250e-03,1.338591029822083431e-02,3.270994722843170166e-01
-4.094823538552702646e-02,-3.670067978380811557e-01,-3.430252272901070099e-02,-2.472427836942793413e-04,-6.100582207340928243e-06,-6.780689894279552166e-05,3.294320106506347656e-01
-1.590261381983609779e-02,-3.509779380086971989e-01,-4.514430559680576716e-02,1.445522599960567204e-03,1.484143813422425604e-03,-1.519258343282661630e-04,3.214736878871917725e-01
-4.359612769825373102e-02,-3.693484326285946251e-01,-4.371365500041385355e-02,-2.278831723678760961e-05,7.732582069587219447e-04,-1.265266527863563757e-03,3.257036805152893066e-01
-4.563898947132372097e-02,-3.702641202565957190e-01,-4.451236994365653787e-02,-2.767706496882312191e-03,2.703961241741528656e-03,-1.093174826976043993e-03,3.252644538879394531e-01
-3.358118809348573097e-02,-3.617610159105354439e-01,-2.548510942111267830e-02,2.156413642587013042e-04,4.654111958939138871e-03,9.085991552373447406e-04,3.324035406112670898e-01
-4.395990506974026268e-02,-3.524395537320795802e-01,-1.110402112762673421e-02,-3.425705391306708199e-04,1.470252065838444089e-03,-7.437512792976556019e-04,3.261641860008239746e-01
-4.961640073837905729e-02,-3.697619449774097178e-01,-4.489181655546162220e-02,1.955312887683670776e-03,3.508625636017418444e-04,-2.644245466934351790e-03,3.225846588611602783e-01
-1.279434264841462776e-02,-3.527782193898176266e-01,-4.520780902717849714e-02,1.019733184756631749e-03,2.095516104111242155e-03,-7.046112959417523934e-04,3.250190615653991699e-01
-4.107814014991147122e-02,-3.688855089079345340e-01,-3.549139017188249201e-02,-2.713762452352216654e-03,-4.532716484034295177e-04,-8.395391980018609328e-04,3.306736946105957031e-01
-4.648343612454404472e-02,-3.711497201586964612e-01,-4.099426782569377814e-02,-4.978571552135393173e-03,4.085050289793308066e-03,-4.050590839830493090e-03,3.277104198932647705e-01
-3.658142650743979873e-02,-3.691771218413390510e-01,-4.187950392493043628e-02,1.028270428608055046e-03,-2.936743784495440086e-04,-1.473259552148582915e-03,3.299936354160308838e-01
-4.582258205423507536e-02,-3.684417634664345909e-01,-4.458216840308508455e-02,-6.710334479576069051e-03,2.656960352720669823e-03,-1.183395480036431892e-03,3.234892785549163818e-01
-4.059250019623462935e-02,-3.561708310144214851e-01,-1.661353237949993178e-02,7.746892149107438867e-05,3.642074010260860657e-03,2.546368394049508543e-04,3.282863497734069824e-01
-4.510055049628698687e-02,-3.685698572011762986e-01,-4.650010609319758792e-02,-4.394173020192934480e-03,2.746742116753373396e-03,2.764273290036586145e-03,3.229320645332336426e-01
-5.439223853357048888e-02,-3.815645078336236673e-01,-4.270137235892808303e-02,4.782561831861465405e-03,-4.462684210407648518e-03,3.887797344833699917e-03,3.334321677684783936e-01
-3.967958668356211249e-02,-3.651307215339233414e-01,-3.880450806972522704e-02,1.255689530618665263e-03,6.359444163842503705e-04,1.523866603564765681e-03,3.259093761444091797e-01
-3.304606801569451302e-02,-3.658043699374834423e-01,-2.379378641546636697e-02,1.321987382002912700e-04,3.249993612402598316e-03,1.701254778384274921e-03,3.375394642353057861e-01
-4.832309383379211620e-02,-3.667939217199538415e-01,-4.915811026572146358e-02,1.454094224798632793e-03,-6.032701729290739900e-04,7.985824422884250061e-04,3.180688321590423584e-01
-4.241276068308290348e-02,-3.734305292904931406e-01,-5.366589299854736261e-02,4.473172933876242915e-03,-4.446684994242285083e-03,2.697797304487196783e-03,3.257538676261901855e-01
-2.930919924794898879e-02,-3.668256124905555637e-01,-2.770712441758134414e-02,-1.322791220182087542e-05,5.882112593717794217e-04,8.958080635545361990e-05,3.383218646049499512e-01
-3.973993985351553793e-02,-3.723347313258007496e-01,-5.568128163698210509e-02,2.411573123113450179e-03,-1.633923131772899466e-03,-1.587861038845391837e-03,3.249683678150177002e-01
-4.819502989539110882e-02,-3.674670941663699675e-01,-5.156141120841196968e-02,2.138682047559307010e-03,-5.182633063940600068e-03,2.067015503152334205e-03,3.177708387374877930e-01
-5.050556221437718651e-02,-3.669095637487472805e-01,-4.734879735757203945e-02,9.089841922637172588e-04,-1.028106903864341648e-03,1.093164760880080064e-03,3.180086612701416016e-01
-4.369667709412056178e-02,-3.711014201498050724e-01,-5.384830589463286687e-02,2.011218978884916648e-03,-5.048169273180738367e-03,1.289195795784211888e-03,3.225938677787780762e-01
-4.177755668923383015e-02,-3.729942639660246417e-01,-6.395606370361538173e-02,1.284575732411181222e-03,-5.398523468043088351e-03,-2.174317096654609710e-04,3.208473622798919678e-01
-5.552760736477466152e-02,-3.827961821657722696e-01,-3.099243654598918263e-02,-8.740462473001944094e-03,3.704268084776629003e-03,-4.498176450616946966e-03,3.406865596771240234e-01
-7.045864655474909366e-02,-3.827967272413991262e-01,-3.790286733846315315e-02,-5.896924149279834156e-04,-1.596711311785124635e-03,2.933406053715778301e-03,3.298755288124084473e-01
-3.600089388687122138e-02,-3.555785061019048343e-01,-1.976337895185822924e-02,3.255434406286422666e-04,5.823037584764328631e-03,3.767886639151949921e-03,3.282183408737182617e-01
-2.922099038455049091e-02,-3.654250521742297142e-01,-2.867616939338982207e-02,4.214783621786245263e-04,2.115937528145802726e-03,5.121404851176783544e-04,3.364987373352050781e-01
-7.271981462255698581e-02,-3.736964105216219467e-01,-3.224316590746206801e-02,1.962687897137400245e-03,-4.086321588154096136e-03,1.764991656062604025e-03,3.232317864894866943e-01
-6.404108711478127824e-02,-3.764888504185691098e-01,-3.463557818008283773e-02,1.437908363639590383e-02,-7.524118600069121775e-03,2.749831345675708108e-04,3.293422460556030273e-01
-4.879653262016551973e-02,-3.906926394710270034e-01,-3.514201251610357679e-02,3.284234705978058416e-02,-6.805654731623045524e-03,6.819695963326579714e-03,3.539239466190338135e-01
-7.405508649649422681e-02,-3.798797290875048360e-01,-3.335234440635970188e-02,-3.950324866314744508e-04,-3.537223242748466223e-03,-1.126201080906903722e-04,3.281331658363342285e-01
-3.288071948833753977e-02,-3.679295784009418147e-01,-2.945675129130112535e-02,-9.423180275101063208e-04,-3.173485672752080476e-04,1.715655051968359858e-04,3.367784321308135986e-01
-7.676653635664711095e-02,-3.859207436585535556e-01,-3.478919433078359047e-02,3.739880599930296094e-03,-1.053440532825462329e-02,2.425448892803105071e-03,3.327287435531616211e-01
-3.608407470611627033e-02,-3.711346591458240529e-01,-3.564566052115777928e-02,-2.111317643799208042e-04,3.204223199974674807e-03,-1.769637350174626828e-03,3.353301584720611572e-01
-1.719170983265966290e-02,-3.594819935822705648e-01,-4.358823286217669568e-02,2.131425397032059299e-03,2.195962297462706898e-03,3.534209045300082223e-03,3.299843966960906982e-01
-1.405002395188714726e-02,-3.548142210239167982e-01,-4.614334477941439694e-02,3.753952579985246965e-03,4.803981602225407266e-03,2.442416578082380347e-03,3.261033296585083008e-01
-1.466797385546335375e-02,-3.525829042125583346e-01,-4.208574132823002245e-02,4.034271549593080111e-03,6.493284746376354159e-03,2.080335952419174773e-03,3.253638744354248047e-01
-2.028926058616629946e-02,-3.595694896944748864e-01,-4.272840066964424255e-02,2.931049793315181457e-06,1.037391807425344604e-03,1.222628701634273594e-03,3.286474347114562988e-01
-1.211681248414453460e-02,-3.579628471410549739e-01,-4.635839376163684855e-02,3.006981977991829598e-03,1.833713126303983167e-03,2.628546831609263924e-03,3.301478326320648193e-01
-1.696222624681439917e-02,-3.555908290033071850e-01,-4.628997858137272325e-02,2.094736340705517438e-03,2.193284707675685619e-03,2.959159586937287669e-03,3.250416815280914307e-01
-1.101099117184840825e-02,-3.326752497713383327e-01,-5.235652587242946299e-02,1.228831262448540698e-02,1.538081134832206334e-03,2.017426138912745137e-03,3.038918972015380859e-01
-2.070111089615604694e-02,-3.400594096590987547e-01,-4.922305083790237679e-02,9.248705807829112058e-03,1.059791133301611968e-02,6.007110244023046094e-03,3.072398602962493896e-01
-1.488047714871547356e-02,-3.556379449701798645e-01,-4.239843012870363193e-02,4.704954734258500262e-03,6.501513710276836909e-03,1.098393462876491719e-03,3.281657695770263672e-01
-1.767675692463004100e-02,-3.590679704996252442e-01,-4.617162563620826055e-02,-9.447551574219513731e-04,-2.084335025920182761e-03,-7.146637123767977809e-04,3.280994594097137451e-01
-4.981796396386440479e-02,-1.946415825610822714e-01,-5.266157169474883909e-02,3.880358126739046065e-02,8.273403664825637605e-03,2.873736502104273435e-02,1.666437983512878418e-01
-6.491310100461138155e-02,-2.498466007816821377e-01,-4.121750831997079978e-02,-7.042239728562145126e-03,2.431213803927780026e-03,2.561371084097508691e-03,1.983183920383453369e-01
-6.657679561356399933e-02,-2.070480586725501615e-01,-5.643019379793560997e-02,9.737321524312909232e-03,1.359867137703213045e-03,1.625306417297523245e-02,1.494754701852798462e-01
-4.910949365485817175e-02,-2.759182365544749493e-01,-3.472898219666371855e-02,1.345236536160174419e-02,9.853527657446523383e-03,1.821646180003360163e-02,2.382022738456726074e-01
-3.801038837181217045e-02,-3.788703938907786450e-01,-4.395028299174938424e-02,-1.101688737681411068e-02,6.368040512526843173e-03,-2.006713403185151311e-03,3.386650383472442627e-01
-3.935106396624948877e-02,-3.686411804359549516e-01,-4.279828831985273141e-02,1.140424695583273180e-03,-1.111362428933865032e-04,-2.893699876149305895e-03,3.276244699954986572e-01
-4.193467706737655232e-02,-3.691620317252339301e-01,-4.388185000024312499e-02,5.365384122136601566e-04,4.233891514770353333e-06,-2.229733194737410461e-03,3.262822926044464111e-01
-3.881211268708024964e-02,-3.697329252721437420e-01,-3.634954763253091248e-02,-7.006153478822425710e-04,-1.119617073442714418e-03,6.314143398412618577e-04,3.321686089038848877e-01
-4.667442234805940782e-02,-4.063141272758327149e-01,-5.949763829200740983e-02,-1.455420768998723531e-02,7.444514106700531389e-03,-3.517654252150226746e-03,3.545874655246734619e-01
-4.453956433619198074e-02,-3.609778298824199982e-01,-1.397157832924803000e-02,-1.944794726307213064e-03,-2.072987496373007135e-04,3.238693718743477883e-03,3.328413963317871094e-01
-5.797069438650404027e-02,-3.695082070208753899e-01,-4.608193603677972205e-02,-1.339244132582585603e-03,3.758245968895503226e-03,3.739515647758017802e-04,3.177246153354644775e-01
-3.782362783764467440e-02,-4.157729625562024411e-01,-3.629343747426413969e-02,2.972198955374790136e-04,3.475960707321262486e-03,3.416362008116628768e-02,3.833592832088470459e-01
-4.213762392089066833e-02,-3.692716516758571266e-01,-4.967578305131424565e-02,1.371294970527044913e-03,1.586394454541746341e-03,-1.946774281398896012e-03,3.234688043594360352e-01
-3.921027224065343209e-02,-3.016625224840718822e-01,-2.203607739902239959e-02,1.759118220600933147e-02,1.226228897858750930e-02,2.165725518096076746e-02,2.765322625637054443e-01
-2.310394401151265320e-02,-3.655826760262941288e-01,-4.276233328594000738e-02,-2.418175564867755707e-03,-7.210192505196828631e-03,1.797925577428377162e-03,3.333598077297210693e-01
-6.858921889200844668e-02,-3.728913997197681462e-01,-3.390923721008420877e-02,-2.863041216856302210e-03,3.016639813699316039e-03,-4.146899096168518359e-03,3.232014775276184082e-01
-4.796657529510704732e-02,-3.514590699303344890e-01,-1.132366131658399389e-02,-3.758443300247681627e-04,6.567700098952521407e-04,7.949854521972167867e-03,3.236704468727111816e-01
-4.093014719118981404e-02,-3.652347519509656637e-01,-2.713990142896097191e-02,5.455923795475340439e-04,2.177755014236413232e-03,3.236477687545283918e-03,3.314851820468902588e-01
-3.764327019266869301e-02,-3.663016487752822625e-01,-2.251571815789382702e-02,-2.611715185707974519e-04,2.018564932351803003e-03,1.836307893305431926e-03,3.365108072757720947e-01
-1.747043947898815897e-02,-3.615928676152873056e-01,-4.830917676571820640e-02,-5.009089833636553440e-03,-6.134946251858595240e-03,3.269469952379408842e-04,3.300719261169433594e-01
-1.643625933193892941e-02,-3.492052507030191655e-01,-4.733055298427710222e-02,-6.949953160866070498e-03,-6.082845515960193759e-03,1.343875156940742754e-03,3.188578486442565918e-01
-1.740656090211580020e-02,-3.539831038803332719e-01,-4.212834497700043701e-02,-6.520992392890882783e-03,-5.766952087930563541e-03,4.178043747631562444e-04,3.252722322940826416e-01
-2.374952763162986591e-02,-3.288422429307243933e-01,-3.975370083416636391e-02,-8.946922949616541165e-03,-1.051524012862404926e-02,2.873841433951340816e-03,2.984150946140289307e-01
-3.790441692412251096e-02,-3.673681887202219776e-01,-4.341753270910334028e-02,-1.943438935910432250e-02,-1.575129828334817603e-03,-2.125680885811039988e-03,3.285034000873565674e-01
-4.186086376425969535e-02,-3.582602171447468731e-01,-1.469035814169608600e-02,1.826600447761445815e-03,2.571673273070898373e-03,3.290536294894608887e-03,3.309166729450225830e-01
-3.525239549161640618e-02,-3.375866713523033580e-01,-3.677794097416385577e-02,1.836204020855369378e-04,-1.235623755292866201e-02,-2.497432954178548014e-05,3.023329973220825195e-01
-1.925550574462778219e-02,-3.607826076182382158e-01,-4.285053143746071769e-02,3.512915355975311103e-04,-1.878791038845921153e-03,5.015150398949793677e-04,3.303798735141754150e-01
-2.729195189217033246e-02,-3.589264340731103675e-01,-4.825842238716855637e-02,-2.545689404625335692e-03,-2.566839223650534737e-03,-9.631157658753309930e-04,3.217293918132781982e-01
-1.555565828591043420e-02,-3.609009649944668330e-01,-4.799808417325114596e-02,-1.329939779167135414e-04,-1.223656971511546390e-03,-1.633336995217190115e-03,3.303401172161102295e-01
-3.492683351235514877e-02,-3.743284036538979676e-01,-7.275884219776720951e-02,-2.864350572732679307e-03,2.245256274846572746e-03,4.263074819888079789e-04,3.222184479236602783e-01
-5.873192409666222469e-02,-1.937125375682767769e-01,-4.924300026141065212e-02,1.026553552985951835e-02,2.083355945381087492e-03,2.571204160457650836e-02,1.479970216751098633e-01
-3.933983094553926418e-02,-3.607510296037882425e-01,-1.977916451887978821e-02,1.297791033270627318e-03,5.870492957943126457e-03,1.951999850176519731e-03,3.318051695823669434e-01
-4.281234432266615986e-02,-3.662561449198406538e-01,-2.725329607024401524e-02,-5.943267714397720359e-04,1.393848774173350909e-03,2.949493624793720747e-03,3.315470516681671143e-01
-6.491351682239708543e-02,-1.334793646810976397e-01,-6.175392029040942254e-02,-5.962777559482117587e-03,-2.426900002239544551e-03,1.847061787937474484e-03,7.115101814270019531e-02
-5.442624733963029315e-02,-2.029485783287725553e-01,-5.052622961122400780e-02,2.829326480805966632e-02,3.299982355172435215e-03,4.987446591006912400e-02,1.804159581661224365e-01
-2.647272925045641989e-02,-3.247424697240894886e-01,-4.664690432798143660e-02,1.286569390031206328e-03,1.164903305120482298e-02,7.099570769366724118e-04,2.894271314144134521e-01
-6.224012489312817642e-02,-1.938581889316274565e-01,-6.971601927113660335e-02,1.890195228288635287e-03,-1.318138063945073143e-03,4.459877246491559914e-03,1.283387839794158936e-01
-3.320456686501646604e-02,-3.513397834713483103e-01,-2.732184801281922759e-02,8.141864668729438970e-04,9.265666137880785441e-03,3.849269615834060611e-03,3.215899765491485596e-01
-4.988183548611252460e-02,-2.400858828456824690e-01,-5.201216434273006617e-02,2.120544267675541356e-02,8.088212551247832977e-03,1.944682668031554387e-02,1.961038708686828613e-01
-3.805193894003236488e-02,-3.658275420653811505e-01,-2.712417935639921396e-02,4.622025399559113535e-04,1.340575159114379758e-03,3.066095506579382193e-03,3.334251642227172852e-01
-2.840958805975070389e-02,-3.676459113849405158e-01,-2.775162715354471954e-02,4.659559397230089643e-08,3.556289892633438541e-04,2.976430716182758675e-04,3.395667374134063721e-01
-3.002242167248184157e-02,-3.665943375474490229e-01,-2.750781979494318352e-02,5.826358048051862200e-04,8.545390989609557208e-04,2.414424574241682826e-04,3.378412425518035889e-01
-4.671205127955167791e-02,-3.509258312089391096e-01,-1.096615900088285245e-02,2.760398411634599949e-03,1.630713383199666223e-03,5.512350663356167585e-04,3.236200511455535889e-01
-3.790254324073624725e-02,-3.673137218733478759e-01,-3.395239093780419437e-02,-1.251859594767601620e-03,-4.852136001688889429e-04,3.971901176292991068e-04,3.314127922058105469e-01
-1.532557630422197448e-02,-3.395010084749765511e-01,-5.153366276316681538e-02,6.919752752031453754e-04,6.659631586227207460e-03,9.787736485277478363e-04,3.078966140747070312e-01
-3.463590080590697728e-02,-3.665773834385788188e-01,-2.743324204169418634e-02,-7.156225466533515595e-04,6.313036612538192212e-04,9.674649897152235323e-04,3.356090486049652100e-01
-3.479429211436677050e-02,-3.668259533324650379e-01,-3.373812488789833253e-02,-1.995351907622269034e-04,3.429352568876997470e-04,1.895035221477594069e-03,3.325779139995574951e-01
-2.664568566888736445e-02,-3.583600781921006950e-01,-3.203443114848071593e-02,2.056801444897820436e-03,5.878988515500126882e-03,2.054097980948455231e-03,3.292491436004638672e-01
-2.769626328475251198e-02,-3.676527466505343789e-01,-2.851083967114165230e-02,2.991782468857952151e-04,3.808785130688707222e-04,5.015921076140665806e-08,3.395509719848632812e-01
-3.634434902328652350e-02,-3.657792710776976430e-01,-2.374012352129988013e-02,-1.420946994287413659e-03,-5.857976871845632129e-03,2.414687437002360076e-03,3.361026644706726074e-01
-2.225309615329675028e-02,-3.629608412638388182e-01,-3.420789459598040649e-02,5.032001496493521348e-04,2.319119543133440261e-03,8.857585186783413240e-04,3.349191546440124512e-01
-2.215702189920713827e-02,-3.646870095547776747e-01,-3.092075146936595909e-02,-1.678057198228594723e-03,1.480532018838601584e-03,-4.837748881305894370e-04,3.382565379142761230e-01
-1.562921915256701433e-02,-3.614819147272625433e-01,-4.681820283306355190e-02,-2.935228313751294272e-03,-2.052054427097456564e-03,9.559101797134432650e-04,3.314231038093566895e-01
-3.904301756449650440e-02,-3.705042829119024050e-01,-4.527568375430471304e-02,1.120553292410208721e-03,2.266291168066272789e-04,3.446921965324232693e-04,3.283958137035369873e-01
-1.674755088633717026e-02,-3.603052983651746644e-01,-4.453737369402675783e-02,-2.014229827511975802e-03,-1.725763132569539064e-03,-1.121550525035156431e-03,3.305777907371520996e-01
-6.916542398055806895e-02,-3.799012751364094775e-01,-3.564352392393602131e-02,-3.007729747345249272e-03,3.053572007351646259e-03,-5.610857182544747891e-04,3.288662433624267578e-01
-3.223164800782521433e-02,-3.662604675851592884e-01,-2.945842462014376661e-02,-6.589081592841941658e-04,1.800918090937285356e-03,-5.715158356416655570e-05,3.354404866695404053e-01
-1.796408789940469319e-02,-3.643620718957095717e-01,-4.242827491595102529e-02,-9.194657377096554680e-04,-2.196146536087355879e-03,5.151426319809721205e-04,3.348634243011474609e-01
-1.727996723079419650e-02,-3.526241462337498245e-01,-4.999877857111073576e-02,-6.682112190180362378e-03,-5.329171822278271249e-03,-7.919450941536291828e-04,3.205857276916503906e-01
-1.709205824574794308e-02,-3.524337668782137056e-01,-4.686424719341723832e-02,-6.789024074055751388e-03,-5.916568599816824335e-03,2.734055738567898889e-04,3.218697011470794678e-01
-3.722655382407664970e-02,-3.819332002121108571e-01,-3.363966020651382172e-02,2.546616098671888526e-02,1.430581698171351154e-02,-7.143346620296797678e-02,3.714023828506469727e-01
-3.892823181247936914e-02,-3.712894827133286224e-01,-3.428509681847524693e-02,-1.205304626763552441e-03,-6.636261676861067264e-03,-4.731507119682812519e-03,3.350110352039337158e-01
-5.537231439416345075e-02,-2.165538881762120171e-01,-4.850092231144745997e-02,9.517063371374215319e-02,-2.053583661250638764e-03,-4.714177904972522408e-05,2.330649346113204956e-01
-3.268216056660065705e-02,-3.565724759677846301e-01,-3.801869645604480374e-02,8.536739014286986310e-03,-3.830420816422239888e-03,-5.186914473297845295e-03,3.217892348766326904e-01
-5.753660939380181305e-02,-3.729902685577771715e-01,-3.697359793178064957e-02,-1.769537874299024083e-03,-1.568261528166868578e-03,2.648107679731979275e-03,3.262795209884643555e-01
-4.156177391687446154e-02,-3.492759163748247464e-01,-2.878061120897547343e-02,4.689794902419958805e-03,-1.332592887141786052e-02,-7.716758555634382899e-03,3.155339360237121582e-01
-3.789550754712914249e-02,-3.703370150199147837e-01,-3.882703074694567047e-02,-2.371768622697920798e-03,-2.192446318440704599e-03,-2.562279603091724986e-04,3.320241570472717285e-01
-3.870756539120290274e-02,-3.702043047010227239e-01,-4.357127710302029222e-02,1.002228532028629919e-04,4.949428750913413555e-04,2.864492250571015058e-03,3.291304111480712891e-01
-4.233091001035792222e-02,-3.706229498163563507e-01,-4.069136444776347283e-02,-1.922345232679614942e-03,3.603677599184135151e-04,1.019395282120237308e-03,3.291370570659637451e-01
-5.146971951118814448e-02,-3.656213918726000101e-01,-4.775035683401677999e-02,9.514311480996141476e-04,2.289393912343266717e-03,-8.775372561683360663e-04,3.160606026649475098e-01
-3.313089914308725570e-02,-3.755325415237474318e-01,-4.263749013173263880e-02,-8.117466751957333471e-03,1.463547295227620717e-03,-4.951488732300304146e-03,3.381595015525817871e-01
-5.512317655509726966e-02,-5.982812694471864035e-01,-2.450920168520256959e-02,-7.120099222884938850e-02,-1.688911326564775627e-03,-2.560866369867201287e-02,5.742567777633666992e-01
-4.103034231187699388e-02,-3.698734777183853017e-01,-3.982063186268194888e-02,-3.337029234399558611e-04,-9.951690939355153573e-04,8.286627492980804801e-05,3.294546902179718018e-01
-3.870005340247972825e-02,-3.674178439621689218e-01,-3.801771919440065373e-02,-9.152877321382982094e-04,7.826706416656833282e-04,-1.410264078220180165e-03,3.290751576423645020e-01
-4.206743262045586906e-02,-3.707626090082072334e-01,-3.956967925827573063e-02,-1.118175568242455592e-03,-7.600168761897941900e-04,2.546565105060741231e-04,3.299597501754760742e-01
-4.963843752288873978e-02,-3.690174831182423398e-01,-4.280046674330477419e-02,-1.429718789257452757e-03,1.178140858134994317e-03,1.114360012028378514e-03,3.228740692138671875e-01
-4.000571774160686933e-02,-3.620530877147196680e-01,-2.316220232358527642e-02,5.468008092054306999e-04,2.851171264595216397e-03,-6.552384800495836790e-04,3.308310806751251221e-01
-4.028550774848656257e-02,-3.736662753502746903e-01,-6.290528194466542267e-02,-3.361227724914353857e-03,3.268426026707666951e-03,-9.858403117842843514e-04,3.227727413177490234e-01
-3.631502236853111076e-02,-3.661893774197555462e-01,-2.319142577770264002e-02,2.830106938957823587e-03,7.523399849123647322e-03,4.654698710682810860e-03,3.370122909545898438e-01
-4.957066888547252692e-02,-3.444802281232876573e-01,-2.057231820366364761e-02,4.379789110804995368e-05,3.770831405074412911e-03,-1.550937630670533220e-03,3.105065524578094482e-01
-3.913330486514973727e-02,-3.663781896925722981e-01,-3.788174445117385714e-02,-8.491447212006069116e-05,7.525677277444248279e-04,2.832128871372390638e-03,3.279117643833160400e-01
-3.552494322504205770e-02,-3.746862057320313744e-01,-3.562522158826254837e-02,3.998811698053079326e-04,2.278884162023480688e-03,8.729414683221527541e-03,3.394716978073120117e-01
-3.716242492270270537e-02,-3.608278285636506433e-01,-2.075506878462288207e-02,7.173199638560017475e-04,1.493438583124095161e-03,-5.264660924724483835e-04,3.321867883205413818e-01
-3.204899803570385175e-02,-3.675096922265422839e-01,-2.745044456658173038e-02,-9.638021791829011139e-05,1.051751722663657939e-03,7.779396839481262770e-04,3.377910852432250977e-01
-3.982398712626195048e-02,-3.617147249605921489e-01,-1.752591661155766811e-02,6.265242119348396260e-04,3.176637740186301958e-03,1.947371730413762067e-03,3.336633443832397461e-01
-3.555861289439818385e-02,-3.669475912339423829e-01,-3.380987956313119547e-02,1.095505420176279033e-04,6.240602551695541723e-04,1.688340950323068482e-03,3.322814702987670898e-01
-3.368785606703963986e-02,-3.606217490229844946e-01,-2.062202929869649815e-02,1.396279581764418160e-03,6.395634298328177134e-03,2.658924015157868026e-03,3.338830769062042236e-01
-2.962771744326453405e-02,-3.692850036790896739e-01,-4.228842977489709332e-02,-5.761420320357592186e-05,6.112854100553577648e-04,-1.786112284747910220e-03,3.335232734680175781e-01
-3.861284944783323347e-02,-3.663632926048445704e-01,-4.218590533869392978e-02,-3.035455814131566145e-04,-7.206468871033647498e-04,6.086534449492199536e-04,3.259831070899963379e-01
-1.546960523445226054e-02,-3.390143369787430583e-01,-5.483777918475916946e-02,1.538860944917540448e-02,-3.422982737240831620e-04,4.183683180180215039e-03,3.070129752159118652e-01
-2.070826472476473834e-02,-3.506245757066299151e-01,-3.637551114622311621e-02,2.244914587098337103e-04,7.024729829439055155e-03,1.655917768950380890e-05,3.225981295108795166e-01
-1.242071030219402128e-02,-3.571412092043786402e-01,-4.711457574903164802e-02,1.607096500675244538e-02,-1.306396579346612383e-03,-6.532298812886269982e-04,3.299354910850524902e-01
-1.459150302027799329e-02,-3.446268621029104917e-01,-4.813161978094349092e-02,1.098718766361457468e-04,4.937016813145901975e-03,-1.202036219240406505e-03,3.147321939468383789e-01
-5.057070286601818287e-02,-3.674178287225556283e-01,-4.854612535847126209e-02,1.105422965860853105e-03,-1.244833463529913765e-03,1.763650186414617103e-03,3.178920149803161621e-01
-1.508763715488675716e-02,-3.561221493085513501e-01,-5.039641734207496448e-02,1.889127014434446470e-03,1.257446022844913849e-03,4.003864183577961850e-04,3.248471319675445557e-01
-1.442556217876236890e-02,-3.543407427336079385e-01,-4.705071227847694437e-02,2.844264331512714843e-03,7.187856793816689745e-04,-4.983426843100405247e-04,3.248746097087860107e-01
-1.851869359887660382e-02,-2.761619887119292627e-01,-5.731575759109102525e-02,3.351998028091954240e-02,-3.626956015096717469e-03,5.433230453296448656e-05,2.475878000259399414e-01
-1.616169392973729191e-02,-3.288396129431510051e-01,-5.891749087456728262e-02,1.729290356982265617e-02,4.655318365177863078e-03,4.230412070701534272e-03,2.953685522079467773e-01
-2.007082050656068539e-02,-3.192494415526886953e-01,-5.565181785221795518e-02,1.170543644086131235e-02,-7.893580311427396759e-03,5.135460876295590456e-03,2.842637598514556885e-01
-2.306789428863945113e-02,-6.087776710539771763e-01,-4.947355681255433124e-02,-2.646480813216694691e-02,6.170739323688896605e-03,-2.484649469893293952e-02,5.765020251274108887e-01
-1.202778714544452954e-02,-3.360989326163475455e-01,-4.876624342040168647e-02,9.405630912005099806e-03,2.757748450104735138e-03,1.139245185534851337e-04,3.078216910362243652e-01
-1.136810590880460436e-02,-3.545794387274968651e-01,-4.604869044314546800e-02,1.833716915096403376e-03,1.987127225635862415e-03,2.337566921652215173e-03,3.273107409477233887e-01
-4.175657804239089887e-02,-3.684679347452856080e-01,-3.614179049067363370e-02,-2.002729475162144841e-03,1.275345605677443307e-03,-8.873925157396098497e-04,3.295838534832000732e-01
-4.058742631083941954e-02,-3.649699311647618405e-01,-3.151624355879653616e-02,1.197233607167407708e-04,1.320101376836877848e-03,3.375747377308842279e-03,3.290718495845794678e-01
-3.846875024273670174e-02,-3.668708640938820320e-01,-3.381946728602547303e-02,-1.639576255470820507e-03,7.358077934832598895e-04,1.848147557421429398e-03,3.307814002037048340e-01
-3.989284299547124490e-02,-3.726096464867187930e-01,-3.102247549603838472e-02,-1.825881429357912623e-03,-1.877581129365922833e-03,-6.486530498269881852e-03,3.374570608139038086e-01
-1.260993587828333762e-02,-3.332299608003463920e-01,-5.400642108678056774e-02,3.317103921323414327e-03,-2.360346021170108780e-03,-7.867555309684824911e-04,3.021422028541564941e-01
-1.618576738638732859e-02,-3.553624446500892597e-01,-4.950737722748271841e-02,2.293511610636157338e-03,-1.259208414665279703e-03,-1.835841989302381284e-03,3.238516449928283691e-01
-4.508275731368015238e-02,-3.654969132334634496e-01,-1.670372051724178242e-02,1.205145279962273547e-03,2.950786483686242048e-03,4.198395468182351993e-03,3.356292545795440674e-01
-1.540698721947147964e-02,-3.555933556970325427e-01,-4.666536054352790619e-02,3.442913127590522485e-03,6.800374665430671808e-04,4.388866503264741081e-05,3.257409036159515381e-01
-5.995848911080392529e-02,-1.475953910800435753e-01,-6.254098834261680173e-02,1.391803323582196592e-02,-3.513814089625810766e-03,-2.083541195653767445e-03,8.995427936315536499e-02
-3.556129183480870315e-02,-3.662160206268643692e-01,-3.484019705504459719e-02,1.394232194628324927e-04,1.407931029512156243e-03,-1.815426050495806730e-03,3.310398757457733154e-01
-3.574408368579752582e-02,-3.675951537042826400e-01,-3.884485831425638080e-02,3.624276227660023597e-04,1.162011120925514947e-03,1.674829702227142558e-04,3.303184509277343750e-01
-3.289242974739552128e-02,-3.674539037754094850e-01,-3.168803876262210606e-02,-1.496403557050516328e-04,4.537229280409275705e-04,-6.499968609673411647e-04,3.351682126522064209e-01
-4.596434290926774968e-02,-3.673032497174202327e-01,-4.457522089693784217e-02,-4.244604396407646420e-04,-1.475866845183300673e-03,2.502868462415011987e-04,3.220469951629638672e-01
-3.231273458054637060e-02,-3.670197161456578705e-01,-3.448727320606022329e-02,7.926814911472667867e-04,1.714217087607883706e-03,-4.484815235734352897e-04,3.336419761180877686e-01
-3.551304084177432652e-02,-3.665289314543890842e-01,-3.313238621102153336e-02,1.299804536937670973e-04,6.102998883914487497e-04,1.233817303054745261e-03,3.322212398052215576e-01
-3.875737579959256940e-02,-4.124186139317206901e-01,-5.520684954926337318e-02,5.680855664679526976e-03,-3.940002091648201030e-04,1.349470704885183912e-02,3.665929436683654785e-01
-5.371813898297203571e-02,-3.682466264172106762e-01,-4.520282435613999505e-02,-1.367471089401675563e-05,8.806173365023572171e-04,-3.857009139505268558e-04,3.188757896423339844e-01
-4.760070702919771968e-02,-3.640826731151032281e-01,-2.836801099930183478e-02,4.266733439099764237e-04,-5.343524687476464206e-05,1.974699929277841208e-03,3.265421688556671143e-01
-4.833345907960465149e-02,-3.648382681899985935e-01,-4.803145269838278442e-02,-2.677400200035650289e-05,-2.829253518894111162e-04,3.427950771095817544e-04,3.166568577289581299e-01
-4.361456758659913724e-02,-3.653379480401124368e-01,-4.356981851648801529e-02,-1.041380916143095801e-03,-3.329936649022721852e-05,-4.219422543186004872e-04,3.217516541481018066e-01
-4.086224004610818084e-02,-3.791554559482491760e-01,-4.954942527468661484e-02,-4.010291145212796244e-04,-2.255351722004360869e-03,-4.681995890607468409e-03,3.341563344001770020e-01
-4.170161093652546835e-02,-3.714317935636395895e-01,-4.426726061432680048e-02,-3.357260225197556281e-03,-1.588198564724155977e-03,-8.813532898488379407e-04,3.285214006900787354e-01
-4.311264653943878977e-02,-3.744599744613675840e-01,-4.016846089509451545e-02,4.697074294844516724e-03,-3.750417875840325534e-04,3.857250645581131523e-03,3.329962790012359619e-01
-3.399545418081537096e-02,-3.986105956139220918e-01,-5.613921450700984361e-02,-2.837102066123168079e-02,-7.752038647006178826e-03,-5.338249742808698350e-02,3.694654107093811035e-01
-3.891404524505966134e-02,-3.705722902824107878e-01,-3.404245862509830411e-02,5.646831384255259281e-03,2.770996435512951619e-03,9.532207905938255843e-03,3.347057104110717773e-01
-3.425485231382341400e-02,-3.749165195238047255e-01,-6.262735467538352307e-02,-5.666267350188183578e-04,1.762387758280610853e-03,5.310641744692166932e-03,3.275436460971832275e-01
-4.740619285296938934e-02,-3.835716020675296045e-01,-3.762982253144500633e-02,-2.239800398048405559e-03,1.292647227971853593e-04,2.884570031907296287e-04,3.411811590194702148e-01
-4.223186379126256385e-02,-5.312291331228803370e-01,-5.924829486468111139e-02,2.700085717041433853e-02,-1.438282024188029459e-02,-7.370399929609086631e-02,5.001914501190185547e-01
-3.679076760682359337e-02,-3.796919946623882880e-01,-4.972662965708316007e-02,1.108650604643107371e-02,-1.851470123904808487e-02,-1.936322012182842972e-02,3.403450846672058105e-01
-4.239656824442403216e-02,-5.999147971034470839e-01,-6.066468222443582858e-02,-6.748132852580505936e-02,-1.967199650422271281e-02,-5.472900119033217992e-02,5.698977112770080566e-01
-3.838666051387379374e-02,-3.642382308363237842e-01,-3.779613268207249188e-02,-2.375996978447418150e-03,3.074157886398170246e-03,-2.279242951352929061e-03,3.262405395507812500e-01
-2.613596820839729495e-02,-3.735012135464932381e-01,-4.150012649128305420e-02,-1.351107037206958480e-03,1.514206442243038343e-03,1.958538520351168523e-03,3.399787545204162598e-01
-4.157472057671787735e-02,-3.743182738259143716e-01,-5.967386894667019159e-02,4.029291590916246439e-03,-4.758226090032491827e-03,3.921932129335780302e-03,3.243243098258972168e-01
-4.148649961280941045e-02,-3.697690487406689597e-01,-3.818495925861954687e-02,-2.376670584948268640e-03,2.799566461547700310e-04,2.216977452755332974e-03,3.299940824508666992e-01
-4.153338295153247151e-02,-3.668580479169618602e-01,-5.052468317500292960e-02,-5.921209592760918046e-05,-1.266194650429483277e-03,1.851134690586671554e-03,3.209470212459564209e-01
-5.595961003384739008e-02,-3.066466690043848087e-01,-1.371559839291185134e-02,4.160950105830763597e-04,-2.071549161976297612e-03,1.335296885680576501e-02,2.752578556537628174e-01
-3.559851244885439692e-02,-3.676411122066017279e-01,-4.156467640936230279e-02,1.516493030593685232e-02,-1.488926435906494719e-03,4.149774547885668428e-03,3.302349150180816650e-01
-4.811625793111207194e-02,-3.963727987692726717e-01,-3.297617380112691232e-02,1.620954759735902112e-02,-1.481948410316297291e-03,-1.905985906030880110e-03,3.571977019309997559e-01
-4.155413190930089262e-02,-3.351132278455557501e-01,-2.654115698766007503e-02,-2.918799457820481745e-03,-9.412696250525981814e-03,2.383438718212135907e-03,3.018574714660644531e-01
-3.913717146414391612e-02,-3.644657593464556422e-01,-2.826148443931664200e-02,-2.010307943622466429e-03,-7.926494464447342422e-04,-1.102642801696634024e-03,3.309271931648254395e-01
-5.502553052539942147e-02,-3.675286187355630285e-01,-4.666195355858494820e-02,3.258837668873989721e-04,-2.369058247341864713e-03,-4.492011899377117922e-07,3.167947828769683838e-01
-3.841038607282046269e-02,-3.716919510634942303e-01,-2.234884935051956178e-02,1.064208507748776482e-03,4.214528372946977491e-03,2.336532345801619161e-04,3.416788578033447266e-01
-4.099156837030233647e-02,-3.738318469251675769e-01,-3.959275595628632127e-02,-3.253503518899539693e-03,4.552917288986358139e-04,1.035499722386828579e-03,3.335952460765838623e-01
-7.071195234982809164e-02,-3.786726115970553974e-01,-3.291857456076996424e-02,-5.277341329169332913e-04,-1.550156626509278284e-03,-3.530668781204726169e-03,3.285611271858215332e-01
-4.742531608283072353e-02,-3.885334214556374066e-01,-3.868874801162969224e-02,1.489195569383802015e-02,-1.697834083297902925e-03,3.007607564801230773e-03,3.465721905231475830e-01
-4.373577396041428145e-02,-3.669713213542613039e-01,-4.130023717679325024e-02,-1.542466388635422170e-03,-3.425155345116049493e-04,2.484429985116637916e-04,3.244720101356506348e-01
-7.043366485878521654e-02,-3.726862440914128216e-01,-3.813236587950760703e-02,-1.537018917458064619e-03,-3.925938430604739710e-03,1.059304485556345193e-03,3.197183609008789062e-01
-3.464495676515713662e-02,-3.853876715738876468e-01,-3.952947954664536023e-02,-1.224244224721195151e-02,4.670676850588382188e-03,-2.016637383244694604e-02,3.508079648017883301e-01
-3.629395455828370032e-02,-3.747246758793617571e-01,-3.716858968883346437e-02,1.503389411750108071e-04,1.074888684308930673e-03,1.534163092005930932e-03,3.380099236965179443e-01
-4.310589159211469790e-02,-3.661352744044163998e-01,-4.457564206853545374e-02,-1.445886509256863201e-03,-9.087887784967564803e-05,-1.217178910699692057e-03,3.223136961460113525e-01
-4.316518795796651931e-02,-3.676128310194711757e-01,-4.237788943153007748e-02,-2.585687787526139928e-03,-6.799050489189863372e-04,6.146614747880810997e-04,3.248767554759979248e-01
-4.313857538495023680e-02,-3.650201437885127742e-01,-4.988546867337395607e-02,5.394217651742874546e-05,-1.884641757819346388e-03,6.620236413382457488e-05,3.185784816741943359e-01
-4.274688431695643220e-02,-3.724681879638299664e-01,-4.012652935354160677e-02,-7.945899251874900468e-04,-3.761085559227706789e-05,2.242489245336503571e-03,3.310649096965789795e-01
-4.219739666318685078e-02,-3.449498925202852950e-01,-2.076389748602118501e-02,-2.144615580164459766e-03,-8.596875429021601581e-03,6.297929868886747344e-04,3.143950104713439941e-01
-4.910227663387287111e-02,-3.703331557723497092e-01,-4.600428387191342339e-02,2.859762836976845538e-03,-3.864151087168639625e-03,3.299142709512239893e-03,3.229489624500274658e-01
-3.819325174223614505e-02,-3.754252878966440887e-01,-3.764363033019543781e-02,2.612360161869623811e-03,4.078802588712467959e-03,2.212413858208605189e-03,3.376331925392150879e-01
-4.248828609539553880e-02,-3.674159546368356288e-01,-4.406257954093208140e-02,5.232556922719559366e-04,1.517191992242002520e-03,-3.635217737099949485e-04,3.241559267044067383e-01
-1.903399289642725145e-02,-3.645271806874036402e-01,-4.263446424041276994e-02,8.131770916431585103e-03,-1.766760049403540752e-03,-2.414805957525964237e-03,3.346549868583679199e-01
-4.543332676122836811e-02,-3.688048242115903874e-01,-4.524833126388157212e-02,7.608665255180767709e-04,-9.708666366736077127e-05,1.702654243232558937e-03,3.234802186489105225e-01
-4.527720852440539345e-02,-3.704095877223687605e-01,-4.280136374390514087e-02,7.885749393864502485e-05,1.121903907415091684e-03,4.448460144013241437e-04,3.263840675354003906e-01
-3.966508594687334632e-02,-3.698553167886222681e-01,-4.264711945684215855e-02,2.480360593755004395e-03,1.967418004230163386e-04,4.845988230588583025e-04,3.287386894226074219e-01
-3.815831316981699306e-02,-4.130685292346473192e-01,-5.704865918552208537e-02,4.798018506344569820e-03,-4.119021415868993376e-03,3.702858435009466660e-03,3.660511374473571777e-01
-3.998604906691877181e-02,-3.774147587436107454e-01,-5.355237129370131466e-02,-2.884421664337479419e-03,3.659203255198884789e-03,4.336688512534047323e-03,3.310378491878509521e-01
-3.370859375563790838e-02,-3.810652419425808457e-01,-5.090604923384567382e-02,-1.190462149144871744e-02,1.227595937771095748e-03,-3.698844910587859025e-02,3.457063138484954834e-01
-4.597249278586314214e-02,-3.094339369524655159e-01,-4.664103988981212201e-02,-7.342285085778030296e-02,-6.177262903072276018e-03,-5.915631372796866655e-02,3.098739683628082275e-01
-3.537718221514049577e-02,-3.681092337696503236e-01,-4.615399474561621140e-02,-1.713680986978759549e-02,-2.323880125678096792e-03,-6.105853408150985207e-02,3.454310595989227295e-01
-3.429647469827508399e-02,-3.702263005256675177e-01,-2.706823522312439001e-02,-5.046653095533481853e-04,-1.605661652395844359e-03,-6.754927944679815039e-04,3.396161794662475586e-01
-3.743277259522377609e-02,-3.745004279301814010e-01,-6.266311955694457703e-02,-1.637396722571303519e-03,1.307520209553930148e-03,5.427047123169513598e-03,3.253434598445892334e-01
-3.936158914651807783e-02,-3.714885789632310642e-01,-3.106464717156584565e-02,-1.413863624578394875e-03,-3.485892821105183829e-03,1.600066274699573493e-02,3.375549316406250000e-01
-3.719988776678509468e-02,-3.568223578358780124e-01,-3.041939876320443048e-02,-1.734760709801637379e-02,-1.130439963398023433e-02,1.958019226356051690e-02,3.268149793148040771e-01
-3.647264417396017810e-02,-3.861698813140083120e-01,-5.061144230705094671e-02,-3.794612623448697514e-02,6.284359303728738987e-03,2.480796019842133968e-03,3.492856025695800781e-01
-4.495179559323671248e-02,-3.741757848330394820e-01,-4.401367503618176802e-02,8.909600528601587357e-04,3.837113089596756298e-03,-3.085530647680166834e-03,3.298079371452331543e-01
-5.968219471825922384e-02,-3.422741884926103761e-01,-1.830704517652977092e-02,2.469543015484510200e-03,-5.754801720786606976e-03,-1.274536634940927901e-03,3.055894970893859863e-01
-3.993932260784535671e-02,-3.705489973549137561e-01,-5.576713121416650154e-02,-2.432713164138824972e-05,2.206679001311908500e-03,2.376096835381396287e-03,3.230355978012084961e-01
-3.094110615412616616e-02,-3.724610868511309403e-01,-3.718493134906282471e-02,-1.598522784855783020e-03,6.935180519416688470e-03,9.298319849632369436e-04,3.386695086956024170e-01
-2.210391186283842957e-02,-3.694073073295314202e-01,-4.116177077878201140e-02,6.255372995894992703e-04,3.380369076150839796e-03,-2.817980911648766947e-05,3.382298648357391357e-01
-2.420562647446113103e-02,-3.603568163102667254e-01,-4.250799061037556503e-02,-4.198046612640008585e-03,4.166772838355886459e-03,-1.041987554968495499e-03,3.275491595268249512e-01
-2.054399980734014641e-02,-3.634396028163102144e-01,-4.395027880252663777e-02,-3.091328255503269107e-03,4.945805311405120606e-03,8.839852063370536722e-05,3.319659829139709473e-01
-2.645658522784635758e-02,-3.399610844249895125e-01,-4.473388495776357832e-02,-8.203262974476181399e-03,9.116998259996697204e-03,3.189994428062652198e-04,3.055170476436614990e-01
-3.106339413901082480e-02,-3.754578495680688799e-01,-7.544241559757365601e-02,1.529100187650220700e-03,5.192869918346180048e-04,4.317299828092862647e-03,3.245872557163238525e-01
-3.238346595475147249e-02,-3.776116882466024061e-01,-4.474069848997155874e-02,-9.621467251059799553e-03,1.595335112252922738e-02,-9.137489329167325716e-03,3.411171138286590576e-01
-3.693213064663461442e-02,-3.706938232404431988e-01,-9.016555205882567647e-02,-5.495552739133867381e-02,-9.395774301846298790e-03,-1.614032996370673712e-01,4.288841784000396729e-01
-4.376926501750866283e-02,-3.753780319050674108e-01,-3.583128523885704964e-02,-3.069711634779465678e-03,6.277676769900546140e-04,8.853072846437545079e-03,3.360420763492584229e-01
-2.506731146980659131e-02,-3.654773321251911788e-01,-3.700435526889009341e-02,-1.512092775027576387e-04,-2.033129706512346296e-03,-1.312696735679673129e-03,3.346275985240936279e-01
-2.324671617329555906e-02,-3.630189148867992155e-01,-3.683056762673393714e-02,-2.682886771166558665e-04,-3.345110682965398742e-03,-3.176826268630596282e-04,3.332391679286956787e-01
-2.006019321949931156e-02,-3.510808685731477419e-01,-4.373370039138409215e-02,2.994620698518234495e-03,-6.539530048652998293e-03,-2.321984372846932175e-03,3.201094865798950195e-01
-1.613809184372183569e-02,-3.552070844626387669e-01,-4.411017552507510986e-02,-2.031435294674746139e-04,-3.785394210858172154e-03,-1.021726011075099532e-03,3.260551989078521729e-01
-2.296790186074665341e-02,-3.584204366028390654e-01,-3.998096836128578468e-02,1.697927588495607614e-03,-1.217221067939244826e-03,3.331367115108826993e-04,3.272983431816101074e-01
-4.651390447934147798e-02,-2.783268854864093811e-01,-3.215254665889713537e-02,9.421239214245685084e-03,8.786414516927944229e-03,1.825182262163592417e-02,2.424250990152359009e-01
-3.667787870396858885e-02,-3.746871208611314286e-01,-4.037808124169564583e-02,1.507507926190464328e-03,-1.636480625211415895e-03,-6.381223964590236782e-03,3.363781273365020752e-01
-3.285557405195788094e-02,-3.766962573545662440e-01,-7.121463647832762534e-02,1.086611445123510881e-03,-1.529842290938719087e-04,-2.174575683587169714e-03,3.263835608959197998e-01
-4.378926090261460458e-02,-3.688155465473383909e-01,-5.072080848178688040e-02,-1.743655963240684469e-03,-1.681329724900886349e-03,1.565574937071643937e-03,3.216553330421447754e-01
-4.509241538186709031e-02,-3.493072618367829008e-01,-2.082310740868346943e-02,-3.716623959941544285e-03,6.317989140384266261e-03,-3.745141647444740840e-04,3.173016905784606934e-01
-4.694494742515616104e-02,-3.654125345977745631e-01,-4.888039652492078002e-02,-3.583764995110838483e-04,-2.107954876333189165e-03,2.650268309652098562e-04,3.175262212753295898e-01
-6.290104371392407634e-02,-2.209643127099090720e-01,-5.114209690162805494e-02,1.057624981728865583e-03,5.512376637011452522e-03,1.968405053658961804e-02,1.680411547422409058e-01
-4.565533472513606805e-02,-2.768486924615574662e-01,-3.234814989860594625e-02,6.039369508060109769e-03,8.731382103163385158e-03,1.608761761730062578e-02,2.404548823833465576e-01
-3.825186410285941196e-02,-3.395703520206124204e-01,-2.980748275660242974e-02,-8.725460233264916918e-03,1.105882931187654981e-02,-2.491128759830804618e-03,3.066308796405792236e-01
-4.560138095516336199e-02,-2.452101075042200651e-01,-4.449223446739379584e-02,1.943324882393102429e-02,1.238562613928687571e-02,1.463316357424201790e-02,2.056740671396255493e-01
-2.869664704682796386e-02,-3.248332874715396112e-01,-4.511771186177401805e-02,8.085610265418199157e-04,1.133504589339651841e-02,1.049065350172225918e-03,2.889539599418640137e-01
-2.810187734370579726e-02,-3.692225692085612798e-01,-4.267958621818709886e-02,-2.840467103036114962e-03,2.422587481248591242e-03,-8.820613150394322147e-04,3.341365456581115723e-01
-3.184872738582034124e-02,-3.699374984605999783e-01,-3.621835908100398682e-02,-3.808011817768537383e-03,-7.194020478638532209e-03,4.623339180672559126e-03,3.363163471221923828e-01
-3.216560881256333437e-02,-3.696393052791395739e-01,-3.399998116473945675e-02,-7.582689517492613961e-03,-6.955721168423040918e-03,-2.227392862155726065e-03,3.370538949966430664e-01
-4.808389371126318979e-02,-3.652950139545757535e-01,-4.689927275552040198e-02,-9.603636992840441835e-04,-1.489563679522900577e-03,-2.574412331961401499e-04,3.178202211856842041e-01
-4.010970188488159616e-02,-3.698652616641442403e-01,-4.382685220968178530e-02,1.990277628243311038e-03,9.551699391092988590e-04,-3.029933316413624747e-03,3.279770612716674805e-01
-3.242187444768854232e-02,-3.827551631533629983e-01,-6.237185748587679990e-02,6.230829605346707017e-03,-2.784266459821421909e-03,4.716912596680600256e-02,3.463415205478668213e-01
-4.082100140968675239e-02,-3.698725997474574534e-01,-4.170310530849130615e-02,1.280429436641301487e-03,4.589529305571200140e-04,-4.617900265917332728e-03,3.287172019481658936e-01
-4.629793520652507322e-02,-3.706297812719027140e-01,-4.151047309125320550e-02,-5.598021977984894790e-04,3.324252291587058514e-03,-2.537395936900381076e-03,3.268336057662963867e-01
-4.824952776692259526e-02,-3.656041559029871713e-01,-4.981084427303497653e-02,3.914513805556658812e-04,-1.165612790785076425e-03,3.921437048982342002e-04,3.165847361087799072e-01
-2.415293494159309606e-02,-3.634698583793039561e-01,-4.123686962277421653e-02,-1.307944643654998518e-02,-1.012856447379727187e-02,2.083919572995208188e-03,3.323627114295959473e-01
-3.143630997076760081e-02,-3.634114567168067467e-01,-3.076440907910964195e-02,-6.341691552021340092e-03,9.229100460974012932e-03,-4.814887974635308557e-03,3.329815864562988281e-01
-2.389308627776273730e-02,-3.683860259236846901e-01,-4.606463837372734571e-02,-6.349858988268496443e-03,-1.810730560688049800e-05,-7.181188410428728137e-03,3.343720734119415283e-01
-4.611205234019290222e-02,-3.674508615631603692e-01,-5.013247573614776353e-02,-2.104226261261265499e-03,-1.750170425369986524e-03,1.555264028756492517e-04,3.193828761577606201e-01
-4.206334763074980054e-02,-3.651720381817137318e-01,-4.350319336705282813e-02,3.485400760895126680e-04,2.825357351522214786e-04,-4.426773481655765460e-04,3.223930299282073975e-01
-3.348268609246442262e-02,-3.654428396461691930e-01,-3.038946840019313145e-02,1.782055097397859363e-04,3.192876457678796211e-03,6.623982081903782631e-04,3.335654735565185547e-01
-4.743639717349125429e-02,-3.733082041910750215e-01,-2.897955088909424937e-02,-4.350521968658223500e-03,-1.185445289389660053e-02,-2.422971373136019110e-02,3.388026952743530273e-01
-2.735403580698123061e-02,-3.434744207655985870e-01,-4.343839057719610375e-02,-1.114276505804827344e-02,-4.458492029416298921e-03,3.488159154073083162e-02,3.149420619010925293e-01
-3.407376390133740052e-02,-3.682232988587081368e-01,-2.402298967849601785e-02,-4.685973211423918264e-04,-1.565713286981572448e-03,1.313637648901814755e-03,3.393060266971588135e-01
-2.488922591806319584e-02,-3.568487675581975549e-01,-4.070295271906659851e-02,-1.961989559129296169e-03,-6.761802132643318121e-03,2.864384289391930759e-03,3.246090412139892578e-01
-1.873984625025196249e-02,-3.641161073820605165e-01,-4.306434477324493082e-02,-1.211175442981999271e-03,-2.818520016458969744e-03,5.684365720792737813e-04,3.339229524135589600e-01
-3.143969270867263965e-02,-3.680041884476422664e-01,-3.982225289167229398e-02,1.478049349810139131e-03,-1.099425791530925017e-03,-8.120050629317637249e-04,3.324707746505737305e-01
-2.301408500360259402e-02,-3.609349037508936542e-01,-3.885635864528080852e-02,-2.314410990037581682e-03,-6.734886971230668630e-03,2.906434287365450612e-04,3.305153846740722656e-01
-4.665794539986624356e-02,-3.669610800337621548e-01,-4.920999902962916450e-02,1.750209985893739877e-03,-1.985529103646919372e-03,4.599181690730346221e-04,3.190687000751495361e-01
-2.061001886009171391e-02,-3.413112110095603002e-01,-5.197662389955856610e-02,9.624711125677939884e-05,-8.500502325464207726e-03,-1.145812021154730704e-03,3.065853118896484375e-01
-5.951666828261307357e-02,-2.559090961893067950e-01,-1.632485689466939283e-02,1.061900863447881177e-01,1.064250908400414010e-02,-2.421080746312563245e-02,2.912822365760803223e-01
-4.689106007439912405e-02,-3.695664060135044338e-01,-4.312806756853475310e-02,2.116902750129280239e-03,-2.149765051259127681e-03,2.657048146418237305e-03,3.246479034423828125e-01
-2.708739743293953062e-02,-3.504359086722753647e-01,-3.879665770603302200e-02,-6.089955778763563379e-04,-9.691466090272393002e-03,7.549833293618558004e-05,3.181007802486419678e-01
-8.634318640316857030e-03,-3.497041842186723870e-01,-4.897535924076319713e-02,2.504555717206916575e-03,1.184416034733065583e-03,2.414150904946973800e-04,3.228314518928527832e-01
-1.570802887077391019e-02,-3.398903412456109052e-01,-4.705609506946475951e-02,1.152024229890544075e-03,-3.961396944480518809e-03,-9.891021585342981608e-05,3.097829520702362061e-01
-5.272099897588321260e-02,-3.704649978686871403e-01,-4.371798547039280891e-02,8.172561155698122208e-04,-4.798112207763823717e-03,2.121347717737429809e-03,3.224709630012512207e-01
-3.760154361822974634e-02,-3.750545976013766047e-01,-5.792110247941149870e-02,-2.245483356986361419e-03,-1.328451431904417853e-03,6.364770594932284489e-03,3.279824852943420410e-01
-5.288439462028735050e-02,-3.692669937056467511e-01,-4.526343965028412075e-02,-2.357008114576102087e-04,-2.471125136720753873e-03,2.484717175808877007e-03,3.203188478946685791e-01
-4.143516129067256748e-02,-3.728970358260758067e-01,-5.401311541781751713e-02,-4.750258540673926895e-03,2.198923846331620434e-03,8.355994630813681941e-04,3.254848122596740723e-01
-4.966764847922860993e-02,-3.691459453752368169e-01,-4.562419875349622844e-02,2.965221031085393897e-03,-3.998979457307928233e-03,2.942323624435954927e-03,3.216750621795654297e-01
-3.278578195668871431e-02,-3.742715211218830551e-01,-7.818569718599090168e-02,-7.815608374909232279e-04,-1.366760322486576789e-03,-2.641946939376858469e-03,3.212454020977020264e-01
-2.554840891342463616e-02,-4.330314079774005842e-01,-5.609194994600019690e-02,-2.296896003016383331e-02,2.222896832333602461e-03,-5.905863932950685541e-02,4.081551730632781982e-01
-2.737559201197413417e-02,-3.653816293627530909e-01,-3.269779239213185806e-02,1.103306272154847131e-03,-5.869799456361704700e-03,-2.157424770097088763e-03,3.355569243431091309e-01
-4.513839691458772230e-02,-3.732863267400958751e-01,-3.036961515441331805e-02,-2.615515311288529789e-03,-1.388299118498189299e-03,-6.105593194742527964e-03,3.359816372394561768e-01
-4.127452450392446459e-02,-3.682696820243568370e-01,-6.251493171403356419e-02,-1.514574412075346587e-03,3.034231433202401983e-03,-1.445804934544966123e-04,3.169637918472290039e-01
-2.333154225834757622e-02,-3.652877778217615834e-01,-3.695081022691264205e-02,2.195544689579028656e-03,-5.874671286246501908e-03,-1.268471628207116716e-03,3.355371654033660889e-01
-2.997665412619275604e-02,-3.651680158155592992e-01,-3.091989200927761083e-02,2.879878220904270023e-04,-1.171542988850967281e-03,-2.339371298835861250e-04,3.347274959087371826e-01
-3.104555280953275043e-02,-3.653264793497234542e-01,-3.095550699754423540e-02,8.097893634045949583e-05,-3.645964426724696179e-03,-2.041721384293688211e-04,3.343858122825622559e-01
-3.459506205995727113e-02,-3.776094413330590704e-01,-7.300772418519986540e-02,-4.102878425221502014e-03,2.337013930850171881e-03,-6.281826787761729883e-05,3.256151080131530762e-01
-2.744531317194971731e-02,-3.652431932245331359e-01,-3.343021242184018860e-02,-1.716519205477184701e-04,-9.379833985104409902e-04,-8.844768714744246675e-04,3.348531126976013184e-01
-2.592818316892607500e-02,-3.669586570607807907e-01,-3.570233840446365714e-02,9.233627571100895201e-04,-3.785067567374021495e-03,-1.166635858447269067e-03,3.363237380981445312e-01
-4.514615697285656593e-02,-3.695407369591215963e-01,-4.338916672070321223e-02,-2.169546210974518732e-03,2.978055039912114697e-03,-2.048778377026934643e-03,3.253585696220397949e-01
-3.949576397209518530e-02,-3.732410408885827868e-01,-3.797108779800911771e-02,-1.344669875325865509e-02,-7.910980609724551846e-03,7.498620884153529148e-03,3.358511030673980713e-01
-5.218666861109338972e-02,-4.034721178434111932e-01,-4.058154212037806685e-02,-2.186672644567809031e-03,1.132719424740720633e-02,-4.611649016360535105e-03,3.578769564628601074e-01
-3.888103654651689500e-02,-3.728131245424696205e-01,-2.996337169028991110e-02,2.323840689761654671e-03,1.297939376725147295e-03,-5.987785549344998336e-04,3.385120332241058350e-01
-4.175338648287069132e-02,-4.098345231633959695e-01,-5.236699421649868014e-02,-1.292337682398478696e-02,9.311703146912292395e-03,-4.195492699202587640e-03,3.640105426311492920e-01
-4.389101809127901599e-02,-3.678101928157421208e-01,-5.911642735316940955e-02,2.133037880899708600e-03,-2.507575586312065039e-03,1.276234189036152189e-03,3.166402280330657959e-01
-3.580904077868633795e-02,-2.800136092089258733e-01,-5.102569425041540707e-02,-4.940715941645965059e-02,-1.105532748208432406e-02,-9.333567755073182703e-02,2.999599277973175049e-01
-6.240746824443256513e-02,-3.706616995199980558e-01,-4.427928685809193188e-02,1.112597437582097618e-03,-4.925095831343401231e-03,1.196799430066271784e-03,3.178335726261138916e-01
-3.787647742473787549e-02,-3.066331730389095789e-01,-3.210634991389342552e-02,-6.323023639829493392e-02,1.155640677617884166e-02,5.367276068000389339e-02,3.079794645309448242e-01
-3.644222484502912529e-02,-4.315208243122654608e-01,-5.173367477440056483e-02,-2.198797805516969003e-02,1.310246994751971053e-02,1.071280518905942530e-01,4.320582151412963867e-01
-3.096385980533161719e-02,-3.851226551057794212e-01,-5.854590012254409781e-02,-2.804283797594138081e-02,7.282588472600780120e-03,4.159094809999164949e-02,3.523187935352325439e-01
-3.981285448829111062e-02,-3.385081960782189148e-01,-3.602204055631315349e-02,-7.245758447252138856e-02,1.261701080148456763e-02,2.769337624790526101e-02,3.299912512302398682e-01
-4.806970817990575962e-02,-3.642483281169220932e-01,-4.970682710570602236e-02,1.017377048929127975e-03,-1.187717078783352264e-03,4.210472914479762899e-05,3.153748810291290283e-01
-6.169254132953502778e-02,-3.777468156499820262e-01,-3.838965473093598757e-02,-3.189445803984236778e-03,-2.118175286655882544e-03,-2.326834092253510667e-03,3.284182250499725342e-01
-5.285910390710515938e-02,-4.753752469524922253e-01,-4.662128896056297322e-02,-4.998075674184172118e-02,1.149808140142060363e-02,5.037735223616417179e-02,4.435074627399444580e-01
-4.329273667788044455e-02,-3.591576041339742398e-01,-1.761735522759026729e-02,-1.513142027663401173e-03,-2.540314968403119527e-03,4.115273838818164770e-05,3.294935822486877441e-01
-4.457907349035006295e-02,-3.554253384936355564e-01,-2.304809889903711162e-02,-2.134294730267845882e-03,-2.834880792863442561e-03,3.480142718784307986e-03,3.222668468952178955e-01
-4.635397550159911506e-02,-3.550089192322378739e-01,-1.356822426942350113e-02,1.443533815748981267e-03,4.965923456576107342e-03,3.780445340564321001e-03,3.264741599559783936e-01
-4.175582720530293668e-02,-3.547272365569878461e-01,-1.483657685907227575e-02,1.525523351531113013e-03,6.696041214798395015e-03,4.416842390290026676e-03,3.275679051876068115e-01
-4.399539778104560872e-02,-3.555241814103267117e-01,-1.367727890408804159e-02,4.691675329754431195e-04,1.389622204308608088e-03,4.575649305433208774e-04,3.277520835399627686e-01
-4.674146411809260160e-02,-3.669443142161602500e-01,-5.010730579510777605e-02,1.310018481999314897e-04,-8.651411941228802490e-04,-4.224975078171483347e-04,3.185377120971679688e-01
-4.797954786416960826e-02,-3.509271075909131676e-01,-1.108376800488344860e-02,-2.544430411718240099e-04,2.773372681957152284e-03,8.656064483433795588e-05,3.230159580707550049e-01
-4.510250330895387849e-02,-3.739943492322054808e-01,-4.881824718317455403e-02,-1.737948774668860970e-03,1.784376581628053507e-03,3.288043027297673278e-03,3.271278440952301025e-01
-5.583221672594423923e-02,-3.686311924607290624e-01,-4.846981875277600604e-02,3.506790168722247625e-04,-4.508326768217565082e-03,1.112109567459734164e-03,3.166471421718597412e-01
-3.365018763015581449e-02,-3.767158627655796677e-01,-3.269709974888458659e-02,6.424153442997411912e-04,4.245505544552728109e-04,1.008973155453990478e-04,3.435458540916442871e-01
-6.486477912102504850e-02,-1.719804523777436200e-01,-6.800233460524107709e-02,1.185452534924896426e-02,-2.330098716328552096e-03,4.469160584596756219e-03,1.079135239124298096e-01
-3.585470721977129793e-02,-3.624362933033983269e-01,-2.268131306573460682e-02,9.051436178955828615e-04,-4.687270343074514435e-03,-2.664825476128302589e-03,3.334980309009552002e-01
-5.545005776880042314e-02,-1.453636602349831497e-01,-6.477298810242022864e-02,5.569028823761233704e-02,2.283783217519306553e-03,7.644195132009525169e-03,1.297238916158676147e-01
-4.632873063180052708e-02,-2.168387624964265570e-01,-5.462312477958313622e-02,2.695624842745971902e-02,1.113858806282354806e-02,2.922830745507399089e-02,1.812269091606140137e-01
-6.696386032373488617e-02,-1.505814281677859134e-01,-6.513642581152273570e-02,3.073139654552396998e-03,-4.885839108713064052e-03,-4.981861362201241844e-03,8.557129651308059692e-02
-6.342428494371285530e-02,-2.026049901272638509e-01,-6.359114478618033139e-02,1.046971285237461961e-03,-7.672620467127372161e-03,-1.289765101479006630e-02,1.415168493986129761e-01
-4.897708335407389979e-02,-2.080155311674359575e-01,-7.036609030420702682e-02,1.611680276883497784e-02,6.917446121713251295e-04,2.876296605294201020e-03,1.521662026643753052e-01
-3.494465228021355341e-02,-3.667966984873474168e-01,-3.603995232599155329e-02,-1.364478988521515210e-03,2.363436261341563850e-03,-9.718687880404822338e-05,3.313395082950592041e-01
-3.870607505849242569e-02,-2.213653508922496793e-01,-6.664650420648346452e-02,3.736847266367129133e-02,-2.635126799628048459e-03,4.189643899303962735e-03,1.824943870306015015e-01
-5.218195596327161734e-02,-2.205706890849511159e-01,-6.451807941003190328e-02,1.803489989191574272e-02,-6.690441387752028499e-03,-1.288919908356268851e-02,1.674459129571914673e-01
-5.120624429314921122e-02,-2.885557215556063815e-01,-1.051216538290858371e-02,6.051372109245084507e-02,-2.802428471075210127e-03,-3.114265486436071720e-02,2.856017947196960449e-01
-3.570620978311030147e-02,-3.877331266424748901e-01,-3.740937653840992194e-02,6.215677131172547831e-02,6.353099629771523198e-03,1.293303414099620553e-02,3.681569695472717285e-01
-4.222660934546840217e-02,-4.281260435851867996e-01,-3.117174195763203204e-02,3.375377326596415428e-02,-1.442198332538895079e-03,-1.092920784428336178e-02,3.963447809219360352e-01
-4.238704159336641186e-02,-4.064644757277215414e-01,-4.101495665560318804e-02,3.591923897131854559e-02,-5.946876242237751804e-03,-1.079049647395919492e-02,3.706477880477905273e-01
-4.135960468831857695e-02,-3.732966310649559194e-01,-4.813984337320817430e-02,-3.649918502822467083e-03,1.252173116098544061e-03,-2.020931319652392345e-03,3.286859691143035889e-01
-4.587691976559761520e-02,-3.694501668668505046e-01,-4.251023072804670233e-02,-9.551883101702765512e-04,1.390046670515668412e-03,-2.042213522442163937e-03,3.253020048141479492e-01
-2.307532441229111220e-02,-3.654261975170911558e-01,-4.804617126644726566e-02,2.080051266445235095e-02,-1.321626441493553746e-02,-2.271954519430413946e-02,3.356328308582305908e-01
-4.481978531223061724e-02,-3.701792328648110808e-01,-4.638187521696317261e-02,-2.983236280922497725e-03,1.159895689905373695e-03,-5.066960694698701253e-04,3.246297538280487061e-01
-3.088776133033847848e-02,-3.496969530623501576e-01,-3.750451727750638009e-02,3.380910197028092617e-02,-5.331735691447344466e-03,-1.468640510167084669e-02,3.220793604850769043e-01
-4.101435262594843589e-02,-3.698493773905674464e-01,-4.787368183359030915e-02,-2.103508851075725113e-03,1.234460802776513174e-03,-2.574741718524307509e-03,3.255175352096557617e-01
-5.605952822096102461e-02,-3.768197480811742439e-01,-4.968889505691240216e-02,-1.725257710468776047e-03,1.389532337678606871e-02,-3.960430352146490163e-04,3.248996734619140625e-01
-6.051073510013399437e-02,-3.738316380090299651e-01,-3.882511292334835107e-02,1.526992660618241933e-04,1.092820475320029072e-02,-8.444240984474796381e-04,3.252618908882141113e-01
-4.689855576882846766e-02,-3.675692558555819778e-01,-5.168660201401424625e-02,-1.049500001878225092e-03,1.435253336289865362e-03,8.534181757845749321e-04,3.183220028877258301e-01
-3.984518103313651471e-02,-3.709465080957939365e-01,-5.122416299484379432e-02,2.410608457777712287e-03,-4.778736116256595396e-04,3.992437548981037435e-03,3.256622552871704102e-01
-6.190428722747678969e-02,-2.876244536650087169e-01,-3.326210870339323111e-02,1.249035469626649537e-03,-9.567144415434797322e-03,-9.453748526920327782e-04,2.419029474258422852e-01
-4.509155098287287444e-02,-3.693831791708517276e-01,-4.736369339986375160e-02,-2.682081817206427750e-03,2.623299476173808660e-03,1.569949818633391064e-03,3.232383131980895996e-01
-4.633085763861689854e-02,-3.697233065180925982e-01,-4.195129118268725588e-02,-2.971644548165095845e-04,2.814733946215115627e-03,-3.200000432374153019e-04,3.256416916847229004e-01
-4.631798674613663014e-02,-3.055075790046397621e-01,-2.843762040398474522e-02,-2.265284213357414769e-02,8.056425164577772288e-03,-5.665057306316982622e-02,2.889556884765625000e-01
-5.157349969037874904e-02,-3.663229680408817690e-01,-4.803689492391942373e-02,2.344777657415504952e-05,2.329407918944278229e-03,-8.374274740729398302e-04,3.165616393089294434e-01
-5.264371464669491407e-02,-3.503237938151079200e-01,-1.599135316966258935e-02,-1.670618169375457686e-03,-9.564544719559028808e-04,-1.780887974175057037e-02,3.191082775592803955e-01
-4.999187390635638495e-02,-2.864845291895783963e-01,-3.966671678000119328e-02,1.197319281027967898e-03,-1.484194496780246765e-02,-1.120555524407587655e-02,2.439652681350708008e-01
-4.919150661301528726e-02,-3.632443144937681501e-01,-1.651116570155336527e-02,-9.051867367637733523e-04,8.808591943171403989e-04,-3.592747191383916070e-04,3.316107690334320068e-01
-4.885128529938857767e-02,-3.074765527314128333e-01,-1.578293925775432760e-02,-8.448395260708242791e-04,-8.970897543201894302e-04,-1.635260548339422318e-02,2.781000435352325439e-01
-6.950434164678288840e-02,-3.879244131953769603e-01,-3.568979395154084355e-02,-2.541816188851431907e-04,-8.935274872902847221e-03,-5.689582692527746406e-04,3.369609415531158447e-01
-4.938261126642227994e-02,-3.592374926050863060e-01,-1.267718374178430918e-02,-1.169733848439063638e-03,-6.389529744506290107e-06,4.693192792034411257e-04,3.297505974769592285e-01
-4.444640728541321417e-02,-3.723136013487987062e-01,-3.108759710752402594e-02,-3.468118018470286133e-03,-1.700083551546054724e-03,-6.529848171043400352e-03,3.350043892860412598e-01
-5.362476023552206761e-02,-3.067273900550755439e-01,-2.019384368268797858e-02,3.820350936383552862e-04,-5.629486700766473013e-03,-1.640688916419719146e-02,2.730258107185363770e-01
-4.613542990054073090e-02,-3.625876380434798207e-01,-1.494992127880603872e-02,-6.178152777078296798e-04,1.471137542684591458e-04,-2.807868216116517516e-04,3.331436812877655029e-01
-3.996130449780010974e-02,-3.762938064379932612e-01,-5.496160425764937130e-02,1.150631076566983055e-03,7.514501718920425614e-04,-4.685747534436889364e-03,3.291975259780883789e-01
-3.180249984967381538e-02,-3.840153711486986587e-01,-5.442928370997164589e-02,3.076833126759807684e-03,1.179729919149010477e-04,4.286020371761949110e-02,3.494794368743896484e-01
-3.805362206655237001e-02,-3.734714579020359526e-01,-4.205425150622670027e-02,6.700068406104580949e-04,1.107510232847642344e-03,1.455828595488849577e-03,3.334525823593139648e-01
-4.118848919918653706e-02,-3.748439061826086549e-01,-3.688266869352804789e-02,1.001968952931548340e-03,9.861450537505407599e-05,-2.505413691772305409e-03,3.358615934848785400e-01
-4.913113911001613932e-02,-3.643366755868980844e-01,-1.413403522956602210e-02,-6.098326185335260861e-04,4.156173124185026505e-04,-2.015633515324377536e-03,3.341024219989776611e-01
-5.064212725950643923e-02,-3.376536137722213060e-01,-2.613915126780820553e-02,1.888721687713256631e-02,-1.569276591083653034e-03,5.350099105778621106e-02,3.157107234001159668e-01
-3.533414505441606623e-02,-3.735018825189966307e-01,-3.608433256745544049e-02,7.061746894489494882e-04,3.182619688173146319e-03,-7.116233873641952855e-04,3.378427028656005859e-01
-2.518440137624185227e-02,-3.080713675550976749e-01,-4.701186661297380998e-02,7.583817402856518185e-04,1.082711613575081805e-02,9.620601916544766624e-03,2.737843096256256104e-01
-3.206920719329736658e-02,-3.646305722111787273e-01,-2.567589172882346615e-02,3.545231523110938931e-04,7.644380776861840797e-04,-5.597580941293943185e-04,3.358082473278045654e-01
-3.450891209443346375e-02,-4.160099578502075568e-01,-3.730864613427298249e-02,-1.599988331975723708e-03,2.726690672053715451e-04,3.876031319977332745e-02,3.860023021697998047e-01
-5.074225054807231239e-02,-3.308995738570028600e-01,-3.257532606540804176e-02,2.378296042724604466e-03,8.648485876218770310e-03,-8.414020378385498851e-04,2.900883257389068604e-01
-4.512582186837753306e-02,-3.670271080687292908e-01,-4.760861638486110770e-02,1.522439572339231127e-03,-9.486598556774117170e-06,2.794406230045629719e-04,3.206782937049865723e-01
-3.207018443281567377e-02,-3.717528150105371409e-01,-4.798529990018997327e-02,-1.469241661468588273e-03,-3.364500229612574916e-03,2.447751492320001526e-02,3.347676396369934082e-01
-4.051678017231577500e-02,-3.765530795084638949e-01,-3.290922648102380388e-02,4.615213970241257083e-03,5.378124690772313017e-04,-1.563790830226051420e-02,3.410763740539550781e-01
-4.084029557415139178e-02,-4.084679511480483471e-01,-5.769558423554663196e-02,-4.889507234975687747e-03,-1.663849608942183367e-02,-8.952490793135601047e-03,3.610822558403015137e-01
-4.379792597475017091e-02,-3.678448578677591119e-01,-4.725692717717178137e-02,2.774534389512189371e-03,-1.154596518611728136e-03,5.969682663662210934e-04,3.223750293254852295e-01
-4.022462141861243845e-02,-3.725741404145927471e-01,-4.753714347004824037e-02,3.430858872816407428e-03,4.261628352969407769e-04,-2.107962025251028815e-04,3.288089931011199951e-01
-1.974606471317290335e-02,-3.306889720253581300e-01,-3.764451020946860127e-02,8.222604255118587391e-03,1.052081357846424564e-02,2.527837606150211847e-03,3.033059835433959961e-01
-4.163903758849625547e-02,-3.741601501008126052e-01,-5.756062002486206364e-02,4.842708962805407705e-03,-8.367978353706890041e-03,3.915268080333917863e-03,3.253550827503204346e-01
-3.677179650560695456e-02,-3.706536594729353262e-01,-3.166111715266761717e-02,-1.186721052176413537e-03,-4.090925698240261321e-04,-3.095012639435249717e-04,3.364737629890441895e-01
-4.700791445571925187e-02,-4.896414706352535950e-01,-4.968642396021555330e-02,5.541729470513764855e-02,2.086249298796912302e-02,-2.825275459850585397e-02,4.556968808174133301e-01
-5.716164302150497645e-02,-2.222964799262833191e-01,-2.469024674804329300e-02,9.830334692980809141e-02,9.210191349239336620e-03,-6.183054543927379854e-02,2.727640867233276367e-01
-4.697071127557606030e-02,-3.697563754555062698e-01,-4.737142161811096208e-02,-3.738590553920721326e-03,6.013323392431922133e-03,2.361560950589683752e-03,3.228444457054138184e-01
-4.825761710013891370e-02,-4.021295323915487496e-01,-5.851067676273041807e-02,4.128656813896452267e-04,1.599768535626379384e-02,-1.824882129342955727e-03,3.499720990657806396e-01
-3.678284067153718417e-02,-3.694439404686303274e-01,-3.662017884566645676e-02,6.121991387863789935e-04,1.468255646219481046e-03,-3.373621157275561323e-04,3.327543735504150391e-01
-4.876849972243374465e-02,-4.010674635916524067e-01,-5.058633932803580091e-02,-3.902493591750481666e-04,1.410884473522006598e-02,-2.620748088069693466e-03,3.522721827030181885e-01
-1.814405554527848130e-02,-3.411788541230543204e-01,-4.282941492939189299e-02,1.078084891211388181e-02,-7.383734689112394188e-03,-6.734049334317385171e-03,3.124658465385437012e-01
-3.700231460490331636e-02,-3.767799635080690823e-01,-3.820613824364083033e-02,5.402539049907632319e-03,-4.414361793316602840e-03,-1.549670239837758895e-02,3.404522538185119629e-01
-5.570050597705138856e-02,-2.182749750666520550e-01,-4.918973465366531517e-02,9.825451728656402206e-02,5.564669014741747272e-03,-1.746301096727094016e-03,2.378975152969360352e-01
-6.259490164216677255e-02,-2.231813473170336792e-01,-4.304511333349096691e-02,1.124198391868904134e-01,3.662691258823503465e-04,5.082963530954914821e-02,2.738168239593505859e-01
-2.516248119275167616e-02,-3.364473196152912848e-01,-4.576663031571169549e-02,3.098309613108421456e-02,7.272037767226586374e-03,4.836365615358849401e-03,3.066230416297912598e-01
-4.208472332623452994e-02,-4.543102965664294057e-01,-5.459066588805427944e-02,3.710134047961417825e-02,2.346855248438389774e-02,-1.080812253542586254e-01,4.536050558090209961e-01
-3.761730138209393171e-02,-3.694331586035689563e-01,-3.433909954759907512e-02,-6.807570691883923619e-04,-5.716122512422214599e-04,-1.053182222627180743e-03,3.334755897521972656e-01
-3.929622823765857587e-02,-3.724734856062678068e-01,-4.296116356719197060e-02,-2.160266458212977640e-03,-8.659329866744506143e-04,2.384208521519432314e-03,3.314102292060852051e-01
-2.020924008786322001e-02,-3.586669977676750221e-01,-3.793206724952168096e-02,1.699834328525687667e-03,1.647262216056859718e-03,1.028370581554659052e-03,3.299838006496429443e-01
-4.177792326579203575e-02,-3.711467383452613511e-01,-3.455090186129100571e-02,-2.989106732203860532e-03,3.848362997263895407e-04,-8.220910987191249429e-04,3.330850899219512939e-01
-2.435737956701196361e-02,-3.532530437115518618e-01,-5.793810516995957782e-02,5.310037255789416821e-02,-1.496344549418154564e-03,-4.589331734133248429e-03,3.267787098884582520e-01
-3.508431334230760479e-02,-3.335251549858212483e-01,-4.507775781207373766e-02,3.536882158325864445e-02,3.996952964142630113e-03,9.212278265320127807e-03,3.003993034362792969e-01
-2.524868417746620186e-02,-3.705893800066192290e-01,-4.004754442785100899e-02,2.785330707301255163e-02,9.295783459950016613e-04,-2.274373044863290706e-03,3.416344225406646729e-01
-1.975538551983933855e-02,-3.181469678789092814e-01,-5.790592107499306640e-02,3.482580495013157251e-02,1.095882881687005976e-02,1.395350441286211107e-02,2.892958819866180420e-01
-5.091645961103631601e-02,-3.880094346819338291e-01,-3.719543789809814927e-02,1.026780547172373957e-02,-2.126457449096169541e-03,1.738464053829918391e-04,3.446376919746398926e-01
-2.951626967673121049e-02,-2.859438683245419943e-01,-4.615947947385998229e-02,1.595061269969126616e-02,1.242343718437892083e-02,6.747321815912092798e-03,2.512512803077697754e-01
-3.780310500590956801e-02,-3.538203442550756361e-01,-3.264465965276580617e-02,-1.545540204907207976e-02,-7.130004736974221782e-03,-9.656807525371380839e-04,3.199930787086486816e-01
-4.351965344969034588e-02,-3.729430150990544757e-01,-2.964459253612296286e-02,-3.588672164599572036e-03,-2.781193982280410495e-04,-6.512629980940979300e-03,3.368221223354339600e-01
-1.995040199413725124e-02,-3.276624961009199644e-01,-4.523103901929448334e-02,1.316004418939461032e-02,4.779517371438282529e-03,1.755163530758066526e-03,2.968905866146087646e-01
-4.130029346562588688e-02,-2.664806239972607460e-01,-3.512833804750567501e-02,-6.882145173489701007e-02,-4.495920478995304830e-03,-4.277285272953975509e-02,2.681276500225067139e-01
-4.683670140871153131e-02,-3.690311910624948788e-01,-1.933109305809896372e-02,-1.599419631687803338e-03,2.008796279682193342e-04,-3.559749064139857127e-03,3.368587493896484375e-01
-2.965313596626562020e-02,-3.641542259364303202e-01,-3.285240736096027570e-02,-2.579256012357435644e-03,-5.764747318807551292e-03,2.597686742278967225e-04,3.330929577350616455e-01
-3.490996525267045514e-02,-3.716184173252094491e-01,-3.075921062414395390e-02,2.158708485253977774e-05,6.231425886178256282e-03,4.056134626382384089e-04,3.389754891395568848e-01
-2.818974028454060421e-02,-3.686233433371362000e-01,-3.317469028639979944e-02,-1.067609382642573839e-03,-5.363325513159519602e-03,-1.098038920956512894e-04,3.381014466285705566e-01
-3.030025094306665334e-02,-3.667143361799867218e-01,-3.021254265894335322e-02,-7.560476211626146513e-04,-2.922288075405685484e-03,1.374269048182010910e-03,3.365069925785064697e-01
-2.868410651292006841e-02,-3.667167113805614442e-01,-3.223714207163365375e-02,-1.837789794122264954e-03,-3.087937732736759523e-03,3.165503783063152799e-04,3.363282084465026855e-01
-2.772810874818128213e-02,-3.619593856320403313e-01,-3.257582108101572671e-02,-2.409039845167954691e-03,-5.344035168643356676e-03,1.580884602964466833e-03,3.320005536079406738e-01
-2.891039466733151542e-02,-3.698201390126230614e-01,-3.252941032217085415e-02,-1.430081823542416483e-03,-3.087091250464827404e-03,-3.438871479478727258e-04,3.391664326190948486e-01
-3.724268822991752548e-02,-3.712951887604490908e-01,-7.024656872455441181e-02,6.141263902321225437e-04,-3.043801256073709171e-03,-1.826951288999240173e-04,3.188798129558563232e-01
-4.125667322747919585e-02,-3.701907793926605406e-01,-2.229216206315397242e-02,5.827086869743740527e-05,3.450209348944288049e-03,5.899462469387859809e-04,3.388689160346984863e-01
-4.124265891957583363e-02,-3.683825981368972768e-01,-2.520891373241293532e-02,1.183228461228685265e-05,1.866476885523203101e-03,2.037994993942051931e-03,3.354784846305847168e-01
-3.929124659474909909e-02,-3.747501055934928105e-01,-4.291635892371938044e-02,3.420485285274083020e-03,-6.862288575973093734e-05,-1.305662675859019760e-03,3.337213397026062012e-01
-2.882260363966046568e-02,-3.686459736485561134e-01,-3.472176576051780317e-02,-1.660589007722156974e-03,-3.145269870344398998e-03,-2.790135027776721906e-04,3.369691967964172363e-01
-3.860540476549487177e-02,-3.732011172321562098e-01,-3.959568581052939906e-02,1.027951619941651221e-03,7.879540720807771091e-04,9.146040557275618476e-04,3.341129720211029053e-01
-2.830795885947393065e-02,-3.659382790555603115e-01,-3.262341544005994964e-02,-1.178702553209716323e-03,-4.160963005719772040e-03,-1.949654853267566621e-04,3.355771899223327637e-01
-4.983571401184769267e-02,-2.780765577446858705e-01,-5.205103435869147532e-02,-3.114556522166500932e-02,2.855149617736199401e-03,-2.138621675502059422e-02,2.364315241575241089e-01
-3.411198992262509666e-02,-3.593870042384994523e-01,-4.721927908895896808e-02,-2.075923751480235335e-02,7.654257708534759758e-03,-1.384226145452506496e-03,3.212265670299530029e-01
-3.313442237401266477e-02,-3.669731858044903428e-01,-4.059838527253635532e-02,-4.123854361358712090e-04,9.744832815931916362e-04,-1.743942334209675296e-04,3.301752805709838867e-01
-4.031344280045279227e-02,-3.776686372103021938e-01,-5.387444803964330786e-02,3.363613342535923343e-03,-8.315557482278906594e-04,5.825538771646450627e-03,3.309915065765380859e-01
-3.969347410490466077e-02,-3.720002002904827521e-01,-4.084653477979834080e-02,1.813950522356822664e-03,6.285447938063704401e-04,-5.810909128631866613e-04,3.317498862743377686e-01
-2.608587541495795137e-02,-3.528470964945997768e-01,-4.628752741766636869e-02,-1.161180116812275329e-02,5.796865669851613417e-03,-5.537377526329544629e-03,3.180836141109466553e-01
-3.951247812256215852e-02,-3.634121377230766781e-01,-3.798056703860061556e-02,-1.915854089745672173e-02,8.008708087340975614e-04,-1.459973353064119607e-02,3.273408710956573486e-01
-4.644078249030204886e-02,-3.800559498335362996e-01,-4.229713673717291900e-02,-5.463157204792633975e-03,-5.672197593451995361e-03,6.078618342588509686e-03,3.361480832099914551e-01
-4.015173451919061554e-02,-3.750586751387788853e-01,-3.394224769829662369e-02,1.354843073401693901e-03,2.088677276926468023e-03,1.283497093504498395e-04,3.380820453166961670e-01
-4.108159622357836216e-02,-3.736484915979403354e-01,-3.725060734862029044e-02,2.034873773761767309e-03,-4.882482149140871691e-04,3.146767096108340437e-03,3.345628678798675537e-01
-3.155853513053812065e-02,-3.701421643615956381e-01,-2.772201973677909659e-02,-5.923185379997016357e-04,-1.027794096561523594e-03,4.707197990112728121e-04,3.405252695083618164e-01
-4.872989015953915759e-02,-3.224674444864502609e-01,-5.687712683947028502e-02,-5.077475401178097036e-02,3.498955529571955072e-03,-3.519354675477096017e-02,2.902673482894897461e-01
-2.940265981407369500e-02,-2.568965504791860810e-01,-4.197954831846992252e-02,-1.814866862306635173e-02,-1.121488256946481105e-02,-8.190436375035567429e-02,2.655953764915466309e-01
-5.365088308590426625e-02,-2.948571931533786605e-01,-4.460752877519642834e-02,-8.195834229563274398e-02,-1.146027534686512063e-02,-6.334339641007882826e-02,3.050020635128021240e-01
-3.986400301855416717e-02,-3.670166781847452597e-01,-2.065260118489252450e-02,-9.316345513430429213e-04,-2.268186764413130177e-03,-1.324242851302279101e-03,3.372036516666412354e-01
-1.702695940563532517e-02,-3.566628186364591002e-01,-4.373564541982966070e-02,7.129968963670759710e-04,-1.927946530491089468e-03,-1.396784280081199208e-03,3.271286785602569580e-01
-3.074619896315046452e-02,-3.698573390425521912e-01,-3.040279002263444885e-02,7.022378818589717805e-06,-5.435607007352378540e-04,2.350576262371728524e-05,3.392842710018157959e-01
-3.269090819903006095e-02,-3.698031809783780544e-01,-2.966994409733053617e-02,-5.705530292431813463e-04,-4.300641394042718931e-04,6.252747376709975186e-04,3.386368453502655029e-01
-4.038761190440944004e-02,-3.716645378827573287e-01,-5.118602348966366788e-02,3.470235568266342736e-03,-4.910431880409280025e-03,1.135353473776824383e-03,3.261841237545013428e-01
-4.178099750288775949e-02,-3.725409901855740169e-01,-4.359877768794293007e-02,2.729311368420024413e-03,5.109132103839117813e-04,-8.681094077174653046e-04,3.298933506011962891e-01
-4.081541905455575436e-02,-3.734099783290635299e-01,-4.237552675667026481e-02,1.884528274312102444e-03,-5.517759375209794776e-04,9.477143446747382950e-04,3.318387567996978760e-01
-4.595211501783179331e-02,-3.717650161242989637e-01,-5.120357462576630159e-02,1.824037483348566174e-03,-4.316014920371220170e-03,1.054233107897179812e-03,3.233262002468109131e-01
-4.131229250838475142e-02,-3.735839515468126204e-01,-4.023610735654978288e-02,1.715104997702819080e-03,-1.391379533581721980e-04,3.281742895517976866e-03,3.328729271888732910e-01
-3.500301085277643387e-02,-3.672005896113120782e-01,-2.685338985302540560e-02,4.475225215525990168e-04,-1.654353390057072912e-03,-5.263542590027020258e-04,3.363607823848724365e-01
-3.890428440785413666e-02,-3.639156419594262726e-01,-2.379755529304899975e-02,-5.741262537373326841e-04,-3.814474021233240416e-03,4.933005513661030666e-04,3.328900933265686035e-01
-4.340701783537861957e-02,-3.690792701894297645e-01,-4.544455742244421503e-02,9.987661776663134088e-04,-2.325626101070177310e-03,2.227872009100682112e-03,3.247108161449432373e-01
-4.366049975125459170e-02,-3.749692854985164359e-01,-5.148760846278069292e-02,3.864209911116568436e-03,-4.166221280611441535e-03,1.848488680873349582e-03,3.276289105415344238e-01
-3.953075617038502576e-02,-3.633327136645084776e-01,-1.917351437558652283e-02,-5.960674752235815528e-04,-1.949476226295823343e-03,6.259929514600803390e-04,3.344659805297851562e-01
-4.661673641901835363e-02,-3.687570138401211062e-01,-4.568921393600994252e-02,2.897837933065604710e-03,-1.211713136541717282e-03,2.185810521248837766e-03,3.226731121540069580e-01
-2.387369219430982015e-02,-3.638302151000696316e-01,-3.475393919217142913e-02,1.604489435983270712e-03,2.310127301216483540e-03,1.095062117632727072e-03,3.346899151802062988e-01
-3.878842195178634766e-02,-4.040034439847066672e-01,-3.581389592144759715e-02,1.326890757077811393e-02,-6.496763532613519278e-03,-2.277289366328318423e-02,3.697131872177124023e-01
-4.329329849088965620e-02,-3.719877449635240474e-01,-3.881716693700221210e-02,-1.943016616323830722e-04,1.204575022430301370e-03,-2.760646999465286421e-03,3.309965133666992188e-01
-4.365418416195078477e-02,-3.665223915953484957e-01,-1.635259560372781529e-02,-1.241931946960416269e-03,-1.662558814642725201e-03,-1.641616809388454301e-03,3.373797237873077393e-01
-4.471904967455948843e-02,-3.499859871055269744e-01,-1.850929884428792471e-02,-4.358496016885058028e-04,-6.861378815839753835e-03,-1.223863321038545088e-03,3.194090127944946289e-01
-4.756392104277844257e-02,-2.276941317043867652e-01,-5.501769438364231130e-02,6.551768281712230801e-02,1.171491665411917259e-02,-8.003512280631565334e-02,2.523213922977447510e-01
-5.202212852212968752e-02,-3.422379464948503425e-01,-1.805906589571197596e-02,-9.632168244052728093e-04,5.244834568583258685e-04,-4.614413039977208653e-04,3.086090981960296631e-01
-3.412735182661372213e-02,-3.340010643114782463e-01,-4.867623850188723678e-02,2.215435903087903044e-02,-5.682841815128619875e-04,-1.205876750361357247e-02,2.961127161979675293e-01
-3.688902133037698372e-02,-3.635992048131513887e-01,-4.911309406755967610e-02,3.184678514212129635e-02,9.685002274492166691e-03,-4.331769677550248443e-02,3.344376683235168457e-01
-4.985758879404160460e-02,-3.638047549128196057e-01,-1.625873542384473347e-02,-4.499249424212083842e-04,2.475153081096674904e-05,1.600108239305429410e-04,3.320250809192657471e-01
-5.263525599943458255e-02,-3.571927856761459852e-01,-4.384844988046547598e-02,5.418658425233524589e-02,8.298401246373257253e-03,-6.208557809828774837e-02,3.407163023948669434e-01
-4.285056545707598141e-02,-3.680977127012131089e-01,-1.700647498863655516e-02,-1.077560200804062373e-03,-2.073590677446628464e-03,-4.068338053071717496e-03,3.390064537525177002e-01
-4.984998050264062563e-02,-3.643579511405140581e-01,-1.392040031441058034e-02,-5.248961252428619361e-04,-1.309729192935906979e-03,-6.030080526786944090e-03,3.340978920459747314e-01
-4.656998821104188502e-02,-3.671686525421882230e-01,-1.461318919712531472e-02,-6.823536644620073520e-04,6.915391115824991207e-04,-1.713436689531864805e-03,3.377301990985870361e-01
-4.469706355448439805e-02,-3.655620093931698511e-01,-3.791985352376503471e-02,1.558659338502441137e-03,-1.613308947294288731e-03,1.767014577188778107e-02,3.257707953453063965e-01
-3.048589380255263548e-02,-3.645066785118394326e-01,-2.540885169447414105e-02,1.998838535321250613e-03,7.463565070792761540e-03,4.488151028367883683e-03,3.369436562061309814e-01
-3.478761079632310127e-02,-3.656523513850012397e-01,-3.160012848770478444e-02,-4.526284794370349441e-04,1.883901940947910409e-03,-3.418725838664176796e-04,3.324874043464660645e-01
-4.139246195683210505e-02,-3.698328197710900600e-01,-1.928777078987441163e-02,1.591848631141559245e-04,-1.054923419529600441e-03,-3.216584689715118548e-03,3.400826454162597656e-01
-4.075019938264912156e-02,-3.723375274655297829e-01,-2.483700142241752895e-02,1.040122673605077845e-03,2.207766889019088818e-04,-1.631937317603822553e-03,3.398402333259582520e-01
-2.509739424583741496e-02,-3.647174420788928395e-01,-3.568169595932596527e-02,1.021172821365139193e-03,5.268894250755030984e-03,4.064338673855555822e-05,3.345826864242553711e-01
-3.593809519327634261e-02,-3.967737154954350531e-01,-5.548086244341317308e-02,-1.713378558433102921e-03,-1.799023990642985684e-03,1.146127026126824919e-03,3.515039086341857910e-01
-3.898239325375511821e-02,-3.738962859324794774e-01,-3.004518196890762494e-02,1.844642723790514572e-03,1.302474144477168156e-03,-3.625741471155993810e-04,3.394938409328460693e-01
-3.497324044932112463e-02,-3.668540063958428687e-01,-3.997502457166547674e-02,-8.282421556662055958e-04,7.283455261378499017e-04,-3.698723766436989076e-04,3.294145166873931885e-01
-4.317456522398965824e-02,-3.709002988481532315e-01,-2.477699499995755783e-02,6.951226697142111203e-04,8.423111204909673484e-04,-2.032703746182711393e-03,3.373247087001800537e-01
-3.631383277258178055e-02,-3.564778692139052851e-01,-3.030124021651960098e-02,4.470590735226788611e-04,9.261374861501596792e-03,-4.175584603998223378e-03,3.236918449401855469e-01
-3.401976611320374488e-02,-3.748181811363466842e-01,-3.294152268359738789e-02,2.273499447851990308e-03,4.414175253898431142e-03,1.899535287693468379e-03,3.414629995822906494e-01
-3.657125321904168558e-02,-3.669580924666724364e-01,-3.780196872812133235e-02,-1.254906764131434637e-03,6.466099226392508365e-04,-3.605483340080285152e-04,3.297828733921051025e-01
-3.697124126606947392e-02,-3.463359786888929870e-01,-4.328232000437860771e-02,-2.029211283197357440e-02,9.207567125947855929e-04,-3.166711766710500649e-03,3.083210587501525879e-01
-3.898536657924471516e-02,-3.750424483697700206e-01,-2.634355130321232308e-02,1.095645729565701516e-04,1.576219522771224110e-03,1.186797084619826081e-04,3.425639867782592773e-01
-2.590876816811253647e-02,-3.631653932004458851e-01,-5.936735543636929846e-02,-3.534566530220994984e-02,1.758133872453167918e-03,-1.173985623661369902e-02,3.282500207424163818e-01
-3.811880538181272593e-02,-3.741483002783235201e-01,-3.263959357211226875e-02,1.957389196284069210e-03,2.115632673639014898e-03,-4.756917280620866217e-04,3.388400971889495850e-01
-3.376470056959463006e-02,-3.675578991288683817e-01,-3.959914601941530443e-02,-1.449075261649099711e-03,9.773244737586029955e-04,-1.320197800349265328e-03,3.309363126754760742e-01
-3.498501802988129850e-02,-3.753725727940605550e-01,-3.262169329269427875e-02,1.497499116084499444e-03,1.575046365028418601e-03,8.221945266032831649e-04,3.415990471839904785e-01
-5.903610805350223423e-02,-3.781489445938502891e-01,-3.804688873281493466e-02,-6.237182760722207418e-03,4.309287905522309558e-04,-3.664138197337924591e-03,3.303468227386474609e-01
-6.190187887275294676e-02,-2.395062588990611585e-01,-4.820091357928352194e-02,-3.693670660487444884e-02,-1.697320278252379550e-02,3.281698336713256836e-02,2.057971805334091187e-01
-3.479864276167093928e-02,-3.758474482349176138e-01,-3.528242389177205229e-02,9.478555485194880203e-04,1.884950293028776736e-04,1.109944422252155411e-03,3.408167064189910889e-01
-2.019372633361531111e-02,-3.126990622949332166e-01,-5.574672981041176034e-02,-1.339202812737257629e-02,2.650366226638669557e-03,-8.609830061006475002e-04,2.774622142314910889e-01
-3.459943587799245435e-02,-3.685738049795186377e-01,-3.125160233234895724e-02,-5.994509592476111003e-04,8.700819689066011109e-03,-1.971426376059683041e-03,3.360179066658020020e-01
-3.373455880594165845e-02,-3.770126262327660460e-01,-3.350360000032133467e-02,7.441272998826184383e-04,9.221059731302280868e-04,3.958135079633972697e-04,3.434004187583923340e-01
-2.212622467330492559e-02,-3.333392462945503620e-01,-4.458627893799230191e-02,-2.188825775908218030e-03,6.043709786982249740e-03,-5.774614431069098781e-03,3.009852766990661621e-01
-1.964820032533638738e-02,-3.171675674622083663e-01,-5.300841450257598453e-02,-1.204254899480983708e-02,-5.803672365780381849e-03,-8.527341489249949062e-04,2.832731306552886963e-01
-3.336407876613992074e-02,-1.977279836568232030e-01,-5.798162889436998119e-02,-6.746871625083521173e-02,4.275645295737628623e-03,-1.609911888119218426e-02,1.950993388891220093e-01
-5.450599294840424713e-02,-3.330094154861598099e-01,-3.229397430320923856e-02,9.811430812867076925e-03,2.048075046428099542e-03,-5.132860320257785769e-02,3.040541112422943115e-01
-4.757657707137075143e-02,-3.634052140093734229e-01,-1.357386943978194926e-02,-4.433841898856444893e-04,-8.382184051600999721e-04,-2.348414849214734181e-03,3.341589272022247314e-01
-4.871931125524957273e-02,-3.627862090246178339e-01,-1.503315451781742085e-02,-4.199068937620322665e-04,-1.893266757054112110e-03,-1.990048195760393910e-03,3.322283029556274414e-01
-4.927009489938040387e-02,-3.626551919367064780e-01,-1.355300563135466985e-02,-7.890213831539904079e-04,-1.037279898066071921e-03,-2.245244279059121703e-03,3.327151238918304443e-01
-4.740265371424673413e-02,-3.609364738690359342e-01,-1.485833615731865787e-02,-1.244680643369153270e-03,-4.430526932482564749e-04,-1.415730381897058925e-03,3.310250341892242432e-01
-5.094169345380956948e-02,-3.494434740882307877e-01,-1.346652369188297560e-02,-3.607836518087334976e-04,-2.874515323510548007e-03,-8.344516065237846114e-03,3.192619383335113525e-01
-3.998344534870011679e-02,-3.696224985259425333e-01,-3.154116726742874077e-02,-6.593968471855479567e-03,1.173650121398532066e-02,-1.849945933802780301e-03,3.347686231136322021e-01
-3.718557029204114239e-02,-3.753569748227676417e-01,-3.720057955509180336e-02,-4.466398762822758849e-03,1.550085908228721271e-03,-8.728932933649879208e-04,3.382664024829864502e-01
-2.576190361273837659e-02,-3.687211397052888584e-01,-4.101673111102233094e-02,9.155944689562831376e-04,2.306749246682164578e-03,1.015484597734589997e-03,3.356240987777709961e-01
-3.849027533589079175e-02,-3.734834295039894947e-01,-2.884793066592401811e-02,1.037985163931589390e-03,3.445255417917020800e-03,5.061151691907054065e-04,3.399751782417297363e-01
-3.381985911921149557e-02,-3.738654644499304069e-01,-3.781626861506870441e-02,7.218843253570814480e-04,3.017295082261175869e-03,3.441566976215996564e-03,3.381603658199310303e-01
-3.711682915913021297e-02,-3.765473997038053522e-01,-3.303973040989427457e-02,6.751078769175082117e-04,3.670851571439214239e-03,1.335389286998632736e-03,3.415564000606536865e-01
-3.323542170503240856e-02,-3.604031592216286328e-01,-3.205028482811883572e-02,-7.497832324967131394e-04,6.946749345513788913e-03,-4.038884408518532768e-03,3.280598521232604980e-01
-2.891709686019026948e-02,-3.728798501889889483e-01,-3.821912270898640551e-02,6.583233474781657532e-04,3.932085555082734211e-03,9.428011582897794516e-04,3.394815325736999512e-01
-3.408354244748579287e-02,-3.718784530347249984e-01,-3.031020243292482930e-02,-4.766289354644487331e-04,6.678446873678910677e-03,-6.134995266502459715e-05,3.398952186107635498e-01
-3.382197034812685354e-02,-3.753344707534108649e-01,-3.409870232769129927e-02,4.293780484711245287e-04,6.771786950929910461e-04,1.556538398875744822e-03,3.413876891136169434e-01
-3.850021459338155705e-02,-3.747162853576615493e-01,-3.270391922973189813e-02,1.649762766729810431e-03,1.766281067999140360e-03,-4.476507230038671284e-04,3.391780853271484375e-01
-4.548627364925351968e-02,-3.892844140732044655e-01,-4.084303438740818915e-02,-1.252192666101182260e-02,-1.874352749646903933e-03,6.897330604548781822e-04,3.468391895294189453e-01
-4.089520894659408323e-02,-3.735888643577840451e-01,-4.214505602761113578e-02,1.158893924457538764e-03,-9.002148095048948494e-04,2.198040389352783151e-03,3.321020603179931641e-01
-4.155288966010307894e-02,-3.746702020989035042e-01,-3.630924392851536675e-02,2.529054644209468086e-03,4.411090443179185513e-04,2.764671444564963197e-03,3.358334302902221680e-01
-3.397770972980591886e-02,-3.768827186757063297e-01,-3.626292602377995111e-02,6.799164073118662286e-04,9.490008655787509012e-04,9.319425184598505477e-05,3.417741358280181885e-01
-3.671587558352262803e-02,-3.771177316697059689e-01,-3.122947346568161198e-02,6.626004966214861275e-05,1.363972536288951803e-03,5.340398666924955906e-04,3.431873619556427002e-01
-3.488186761329389873e-02,-4.247547456213927042e-01,-5.765011825766888642e-02,-5.115710981183186658e-03,1.723008767969308117e-02,-6.593248841549863293e-02,3.970553576946258545e-01
-3.695276304594166672e-02,-3.740001226010276070e-01,-3.632298317099277862e-02,2.403483636253943723e-03,1.814128101522167113e-03,2.704140642036022280e-03,3.374355137348175049e-01
-3.666167917826680667e-02,-3.759777687930630496e-01,-3.297162787227458924e-02,1.181502312878847903e-03,1.544926820593201260e-04,7.421108927307506868e-04,3.411847352981567383e-01
-3.999938660152956016e-02,-3.633129506884169579e-01,-3.442839041758773144e-02,9.790711417169382924e-04,-7.908524022696914986e-04,2.797187940468483063e-03,3.261780142784118652e-01
-3.784516093667913972e-02,-3.678065039313811457e-01,-3.193482388914083148e-02,1.965407531000950853e-03,3.002528751936194701e-03,-4.444669295335043906e-04,3.330147564411163330e-01
-3.991366790704081735e-02,-3.734896084227407598e-01,-3.900176750437325812e-02,3.038934824360536077e-03,2.319394051193590287e-04,1.918231299065860027e-03,3.340910673141479492e-01
-3.393700445029129709e-02,-3.759262562575775846e-01,-3.061307528020006108e-02,1.110040214125767102e-03,5.518471075803951277e-03,1.018984586285082237e-03,3.438060879707336426e-01
-3.533605172528904437e-02,-3.762618766182820873e-01,-2.899720061982949404e-02,1.122470321498860281e-03,1.151224336390565530e-03,9.696153709000490152e-04,3.441544175148010254e-01
-3.322801811445966202e-02,-3.639757245372198247e-01,-3.295631820817368496e-02,-1.525829017999777914e-03,-7.308671336288027898e-03,-4.045809501297333732e-05,3.311362564563751221e-01
-2.604059118624943436e-02,-3.696822930323979683e-01,-3.875284996115638259e-02,-6.533478244244442928e-03,-6.059474440087531978e-03,-1.486550010133297958e-03,3.378277719020843506e-01
-3.650674843979369311e-02,-3.688425238390233840e-01,-3.727452829537446222e-02,-1.951423172836624876e-03,-3.364687791581492081e-03,-7.387422161390692302e-04,3.320233821868896484e-01
-3.297466955734337790e-02,-3.683533693096939787e-01,-3.169465708304372575e-02,-3.289737788513219063e-04,-2.869392441397283430e-03,1.770388116287094013e-03,3.360717594623565674e-01
-2.367077804781740624e-02,-3.257353876802941972e-01,-4.524891306742841179e-02,-8.818286179890595308e-03,-1.045559333638260320e-02,3.792960553616085218e-04,2.928349971771240234e-01
-1.814162698587880318e-02,-3.631586391811282288e-01,-4.288753125326792703e-02,-5.894520190553463081e-03,-5.764618970912529193e-03,-2.630575203072167169e-04,3.336397409439086914e-01
-3.513751531561130903e-02,-3.070228859937551569e-01,-3.474940351214626799e-02,-7.427773866867408079e-03,1.186799066525221977e-02,-1.775178958400208673e-02,2.748831808567047119e-01
-2.925742767724476279e-02,-3.296368522258459333e-01,-3.841499919092956905e-02,-4.971452824975284603e-03,-1.233873813757392982e-02,6.691177304037816166e-03,2.970288097858428955e-01
-2.386818366064870356e-02,-3.673737951380051103e-01,-3.599673151240542768e-02,-7.217929857057875723e-04,-2.355041508078570527e-03,3.038056480254912686e-04,3.376321494579315186e-01
-3.808043795798442266e-02,-3.731602226544070144e-01,-3.656209121432206499e-02,1.933859306347732567e-03,2.405361269870990529e-03,2.542163249213203087e-03,3.359129428863525391e-01
-3.872746238421689857e-02,-3.724441858098042069e-01,-2.741412480001902130e-02,1.613230631014708370e-03,1.916249806558216343e-03,4.152289471981507676e-04,3.395432829856872559e-01
-2.944979824124667467e-02,-3.423675170914242116e-01,-3.523394997630706349e-02,-5.544377346785626763e-03,-1.035784038790486111e-02,6.135998273877001736e-04,3.107349276542663574e-01
-1.997626496411825103e-02,-3.694688369207882461e-01,-4.397428743160497477e-02,-1.080321159561391069e-02,-6.663435545220841236e-03,-1.364363119517795998e-03,3.388550579547882080e-01
-1.426302479635173370e-02,-3.515905197921022074e-01,-5.008665883074131520e-02,-6.266968864055080454e-03,-1.994037789482149513e-03,-3.792858290165573588e-05,3.211208879947662354e-01
-2.647422944785707277e-02,-3.661569509618305407e-01,-4.267463993157068203e-02,-9.206900273091137878e-04,-1.097471391971919152e-03,-1.160304190609345604e-03,3.318945765495300293e-01
-2.985999850161025204e-02,-3.662691706841284534e-01,-4.012123356961430631e-02,-7.870839625550289003e-05,-1.168639012611508588e-03,-1.229434286473752875e-03,3.314107656478881836e-01
-2.178336130665933790e-02,-3.677178951809030316e-01,-4.035882367462928499e-02,-4.929633262915579170e-04,-2.208347604365355332e-03,6.410375421847734319e-04,3.370555639266967773e-01
-4.400671017711939303e-02,-3.646455142211844080e-01,-2.362830995511125409e-02,9.320485913402854318e-04,4.003046545498602574e-03,-5.214228534422859270e-04,3.313761055469512939e-01
-4.371209788859099776e-02,-3.671889585828137514e-01,-2.096427582555576707e-02,7.311107968031856997e-04,1.096185232771230847e-03,-8.837567223179009944e-04,3.354410231113433838e-01
-3.671349475737072099e-02,-3.689578858921521709e-01,-3.900276826382426121e-02,-1.613463807889953597e-03,-2.336616857873681074e-03,-3.865521797994819655e-04,3.311429023742675781e-01
-3.078054484714166927e-02,-3.565779780851860425e-01,-4.159858106292781132e-02,-6.644205093122444901e-03,-1.293303012547966646e-02,2.179617845269273425e-03,3.215353488922119141e-01
-2.150368078364936486e-02,-3.640570368605778317e-01,-3.996137428398130464e-02,-1.893741742437590173e-07,-2.220012395470650959e-03,-9.898095397984504277e-04,3.337341248989105225e-01
-4.944001649464666026e-02,-3.632698824490164236e-01,-1.674035041653076927e-02,-7.011020496370005614e-04,2.100687257723253716e-03,-2.593587707755314054e-03,3.314445316791534424e-01
-2.214498212564838808e-02,-3.537813618071287136e-01,-4.178316381875975261e-02,-3.870020543423170235e-03,-7.197682100289255584e-03,2.617794648636125390e-03,3.226089179515838623e-01
-5.949730313792227221e-02,-4.003966801581674284e-01,-3.776357086876777625e-02,-7.145357696700438193e-04,5.541815919112581465e-03,2.592499729625043171e-04,3.524026572704315186e-01
-5.740222548701481853e-02,-4.294992729725776726e-01,-2.654277173976862803e-02,1.451792267775283904e-02,-1.484186053353805500e-04,-1.170613374953854112e-02,3.897880315780639648e-01
-6.134794908656901469e-02,-3.828559970924305667e-01,-2.980037146871056253e-02,7.821826032889142577e-02,1.284888282750106317e-02,-2.171902124436172685e-02,3.671106100082397461e-01
-6.503271740034395620e-02,-2.900266887101028979e-01,-2.909017246199201157e-02,1.608355716655769511e-04,4.773752435358475862e-03,-1.175683134404555477e-03,2.450991570949554443e-01
-2.304943899933863116e-02,-3.597362114114916465e-01,-3.648835695399463286e-02,2.665915993354901412e-03,-5.869050321479247524e-03,-1.496285017427853624e-03,3.303713798522949219e-01
-1.920472144049659158e-02,-3.582461659034564816e-01,-3.987004166001344163e-02,1.738637132516542298e-04,-1.599297446862186318e-03,6.852261159082748826e-04,3.292095661163330078e-01
-7.034767227078443652e-02,-3.869587406605963231e-01,-2.795600092363151323e-02,3.835080385835302336e-02,1.152598068732357990e-02,-4.624163806230299767e-02,3.559312522411346436e-01
-7.222984853392967752e-02,-3.834497916449901012e-01,-2.789124499630821208e-02,4.815218230366065215e-03,1.191185011515712502e-02,-1.613033338267690076e-02,3.374887108802795410e-01
-7.385388485127655778e-02,-3.859378038005930045e-01,-3.349308448214155520e-02,9.739494550727475358e-03,9.178707912674189187e-03,-3.507227293213616495e-03,3.349560201168060303e-01
-6.436927243116943864e-02,-3.836936204862794741e-01,-3.758040565108189401e-02,4.933975546398848208e-03,1.289236492306908375e-03,-4.554452912538809774e-03,3.337368369102478027e-01
-4.744903985889226128e-02,-4.441470718318958899e-01,-3.022356353667629558e-02,1.621573107955304530e-02,5.210119150765740205e-03,-1.632087722085639667e-02,4.076380133628845215e-01
-3.850271775980600164e-02,-3.739029644170156486e-01,-3.284052321838706878e-02,2.034848644294113412e-03,4.323856433421926007e-03,-1.072053421242527083e-03,3.383732438087463379e-01
-4.022468469456058626e-02,-3.755425490530249766e-01,-5.737013243473433610e-02,-3.957007802460414322e-03,2.888692887569397206e-04,-4.486483680428414444e-03,3.272468149662017822e-01
-1.231962534673472498e-02,-3.528933797067123068e-01,-4.754073053331085708e-02,1.087821563050580002e-03,-1.443366189603777303e-03,2.031244031189883062e-04,3.244157135486602783e-01
-4.222489050255390231e-02,-3.739209180616765993e-01,-5.517346174787890467e-02,-4.951906827148851858e-03,7.992589646959394074e-04,2.390293307300143163e-03,3.255572915077209473e-01
-4.083321435065302707e-02,-3.799944233471440058e-01,-4.066273830960391578e-02,-3.843841245895099172e-04,6.671439205702502703e-04,9.485212802926908798e-04,3.392530679702758789e-01
-3.373762711325838104e-02,-3.696734436057748652e-01,-2.986006859103328137e-02,-3.106842197777923148e-05,-1.279836626555677908e-03,1.071896478741181597e-03,3.379036486148834229e-01
-4.203317534410541678e-02,-3.713915671555847453e-01,-2.989265102405498642e-02,-3.084242850154239168e-03,1.151736756971137414e-02,-2.757579874143644208e-03,3.362621366977691650e-01
-3.799805605950121179e-02,-3.724789587148334968e-01,-3.066138620021130468e-02,1.163031345318865650e-03,1.746482004691041114e-03,1.575624764956538946e-03,3.382394611835479736e-01
-5.819524161684308527e-02,-4.589242064229036577e-01,-2.541651594189237029e-02,2.047273498529995905e-02,6.605722884759600289e-03,-4.576327569315117444e-03,4.198150336742401123e-01
-3.720699572223543083e-02,-3.746768959839976154e-01,-3.103842564235348433e-02,1.131077303062797378e-03,2.055485470882500217e-03,7.881780651658142067e-04,3.406230509281158447e-01
-4.743397989614164811e-02,-3.470820901675971126e-01,-1.166344411119568658e-02,-4.409675798578894688e-04,-3.855279449573055951e-03,-7.809929954838863535e-03,3.193982541561126709e-01
-4.930132212116969392e-02,-3.633147056822967347e-01,-1.332134191021061564e-02,-9.294455305078978000e-04,-1.257194047104411407e-03,-1.950339766428649214e-03,3.334904909133911133e-01
-4.141926362897867253e-02,-3.722802466307663094e-01,-2.568991797380590358e-02,1.181114359284510164e-03,2.393902661550344289e-03,1.150700805718960027e-03,3.390368521213531494e-01
-4.329091893604992275e-02,-1.730170648701053748e-01,-4.289074802856996521e-02,7.972004871233359657e-02,-8.892418612198096928e-04,2.648520914172268134e-02,1.950732618570327759e-01
-4.590585029899364733e-02,-3.615510826591603055e-01,-1.157897396197726803e-02,-5.117878897055894594e-04,-3.965910452117828860e-03,-7.047266751161411881e-04,3.342077434062957764e-01
-3.955492059653298309e-02,-3.610590946423560821e-01,-2.605561989037025183e-02,1.970677979891609041e-04,8.873118591730556198e-03,-8.042025493867918304e-03,3.291163742542266846e-01
-3.995360704627222426e-02,-3.706456503503010591e-01,-4.310534019928263794e-02,2.278344526324062747e-03,5.804201995617694560e-04,2.654853311928384368e-04,3.291530013084411621e-01
-4.094785264932683522e-02,-3.723148587404986332e-01,-3.444166288999481185e-02,1.128073338842567989e-03,1.387909767558837123e-04,2.082814061720508585e-03,3.346927762031555176e-01
-2.930353301484572848e-02,-3.671539860665624655e-01,-3.831316887951127792e-02,3.541671769794473967e-03,-7.793890896340286215e-04,-1.511985986691037013e-03,3.335063755512237549e-01
-4.285532061468141918e-02,-3.676470147121674859e-01,-2.215818625245255524e-02,8.904605071313331658e-04,9.500260901702536160e-04,7.508759548137007838e-04,3.356293439865112305e-01
-9.670416264829007069e-03,-3.564151405644823134e-01,-5.014365450509154776e-02,3.756745423725944659e-03,5.403366238184082642e-04,-3.226956043988234830e-04,3.284503519535064697e-01
-4.038766668034732277e-02,-3.732429985955975082e-01,-3.779857848818081456e-02,8.881012304948324165e-03,5.512577106613978772e-04,1.930728336250000718e-02,3.361800312995910645e-01
-3.720137363484185555e-02,-4.113641062716389962e-01,-4.320951158418241678e-02,8.441053262789420877e-03,-4.642368066963337668e-03,3.477710513640155932e-02,3.764207363128662109e-01
-9.161108425403602373e-03,-3.503254123478022342e-01,-5.130484434836368735e-02,6.888303566439526494e-03,1.250056092712218585e-03,2.770227932337029843e-04,3.223949372768402100e-01
-3.570702967853323084e-02,-4.221828413272770697e-01,-5.678738072863563635e-02,-7.006823310933218973e-03,-2.805953085467092958e-03,7.464940290509789605e-03,3.768275082111358643e-01
-3.637441007135305826e-02,-3.728913692763604626e-01,-4.400810402943727828e-02,8.661237943984769275e-03,7.737932974135998203e-05,-3.483453222714529614e-03,3.331584334373474121e-01
-3.771680321527179358e-02,-3.674702352338375944e-01,-5.181870400357689588e-02,6.946044201958417180e-03,-1.023636079813939606e-03,1.698232538382363904e-02,3.244982659816741943e-01
-3.284178086683894882e-02,-4.171931644587769661e-01,-3.637222359593444976e-02,7.998193682635901594e-03,5.473012427553365297e-03,3.368565372075160019e-02,3.873854279518127441e-01
-4.865305731027519398e-02,-3.764926624374855813e-01,-3.684252135781938831e-02,-5.262629620503000115e-03,5.666529303160153404e-05,-3.116064709269181134e-03,3.340695798397064209e-01
-7.803381253989660760e-03,-3.464147890762226956e-01,-5.026678212285878855e-02,-4.218972429655198984e-04,3.521340436752374583e-04,1.224076766248779753e-04,3.195045888423919678e-01
-3.413747616797460638e-02,-3.690462707754296190e-01,-3.599731605237524446e-02,-1.434508652290645246e-03,-8.472814135602069890e-04,1.223973522319755751e-04,3.339952826499938965e-01
-5.423112074531254156e-02,-2.627232360570024294e-01,-4.878461986198974476e-02,1.498820861140970871e-02,-1.247438526744625020e-02,-1.271460406181237901e-02,2.150812298059463501e-01
-3.960886616128880822e-02,-3.502076819251116468e-01,-2.759390553897593523e-02,2.232874488764222164e-04,-7.651153074820400690e-03,-1.005080354527711434e-03,3.170593380928039551e-01
-4.835371264417918230e-02,-2.390489909603893126e-01,-4.158823045941091590e-02,2.414789948993194876e-03,-9.895900209012247623e-03,-2.860292666393475167e-02,2.011622935533523560e-01
-4.086698116261133773e-02,-3.647686073128691975e-01,-2.782033426238456064e-02,7.496956138209234788e-03,-1.019016513681658340e-02,-1.951095751588005980e-02,3.330622613430023193e-01
-2.770945451799400328e-02,-3.490108689699693012e-01,-4.264834111607797296e-02,5.186836029120063529e-02,1.326642157828228363e-02,4.204693015223746194e-02,3.355006575584411621e-01
-4.296497713716447564e-02,-3.551656875093786025e-01,-2.272506364516485577e-02,1.423366116143960516e-04,-9.495108155510864970e-03,-7.556507048028531957e-04,3.232183456420898438e-01
-4.404388499153749637e-02,-3.245004555984600803e-01,-3.380981876344164860e-02,1.481706219639055376e-02,-1.883994924243808516e-02,-4.748240530525409814e-02,3.001966774463653564e-01
-3.951435606822667479e-02,-3.593761037554599747e-01,-3.155232507453153978e-02,2.988109544066309010e-03,-9.469364335129418220e-03,-1.661532614466929708e-02,3.256465494632720947e-01
-3.997231174136843534e-02,-3.681884492353245664e-01,-2.082517095292726883e-02,-9.439750978155118759e-04,-2.059323038194908230e-03,-1.939724726383034760e-03,3.382359147071838379e-01
-3.414586268184879869e-02,-3.658736369479629325e-01,-2.742017394323457979e-02,2.799297931949644587e-04,-1.369090820651537284e-03,-9.704141347829116750e-04,3.351542055606842041e-01
-2.904691623863010774e-02,-3.693497130842622878e-01,-2.758104356770491039e-02,-1.362521036443000745e-04,-1.880827631327824500e-03,1.116160927971072210e-04,3.410537838935852051e-01
-3.454523529579214824e-02,-3.375503726773152469e-01,-3.697613222854655157e-02,5.286033679235351652e-04,-1.085724025630002698e-02,-2.963648404313937732e-04,3.023841679096221924e-01
-4.783596102821865981e-02,-3.027264166617902874e-01,-2.702140671835670527e-02,-1.090949293100082311e-02,-7.777624801521627190e-03,-4.064080790205829713e-02,2.760459482669830322e-01
-4.920404710816666388e-02,-2.275332374781787181e-01,-4.541552861400673102e-02,2.178977653844505619e-02,-1.342470958550033740e-02,-1.665739890445214200e-02,1.878529042005538940e-01
-5.239087265515944558e-02,-4.067306875462071147e-01,-5.213754973836504103e-02,-7.305389544170283293e-03,1.014058756784769373e-02,1.676748439005998695e-03,3.551388084888458252e-01
-4.745365804822340716e-02,-3.692506857381076535e-01,-4.725249091202383955e-02,1.881927171241037661e-03,2.689124469959862027e-03,-1.414188565253952836e-03,3.219571709632873535e-01
-2.328665404139930450e-02,-3.651186425878538144e-01,-3.121275993512978575e-02,3.417561543986313843e-05,-3.910031417086921000e-03,4.020623104301241117e-04,3.380072414875030518e-01
-2.841303374251850922e-02,-3.666273770232786333e-01,-3.355570117986482470e-02,9.093742394611719314e-04,-1.871382180332413709e-03,9.412844714089229877e-04,3.356958627700805664e-01
-2.175571756654774702e-02,-3.425304521269939562e-01,-5.239532842896579834e-02,1.266999061523370503e-02,-7.130818016401998388e-03,-5.703514436719231764e-03,3.077962398529052734e-01
-4.604312912473547403e-02,-3.734274450518553778e-01,-5.418056579074925772e-02,-8.609532441434100463e-04,5.743233078531648564e-03,3.728151766070277495e-04,3.235494196414947510e-01
-6.933371237600406689e-02,-3.736394434647136720e-01,-3.699100714065578499e-02,-2.038817583045408454e-03,2.468278146083896247e-03,-1.018266775098628386e-03,3.217513859272003174e-01
-4.470990215450063032e-02,-3.679553099208391354e-01,-4.884647286741052030e-02,-1.831421430668742599e-03,5.041290145633442075e-04,1.174388086537596701e-03,3.212203979492187500e-01
-1.122293685122574547e-02,-3.472450356566454399e-01,-5.256400326933735601e-02,-7.549706758005994176e-05,2.995334234047345411e-03,-9.788444475856175305e-05,3.174198865890502930e-01
-3.844426600794129123e-02,-3.754196158849415488e-01,-3.173779481076149933e-02,3.188488250845662123e-03,3.393385029489803459e-03,-2.972739505573151228e-04,3.404740691184997559e-01
-4.888779974385856764e-02,-3.678658822774329429e-01,-4.712941332151161788e-02,-1.825000287583805690e-04,3.684273838713067375e-03,-9.090988501900735099e-04,3.199285864830017090e-01
-4.343665356430448377e-02,-3.754370352653229048e-01,-5.708605418879654503e-02,-2.403343097786277832e-03,9.333730639496518391e-03,2.657583660265912077e-03,3.258509337902069092e-01
-3.208041100925181077e-02,-3.756154494946509770e-01,-3.643264420831777983e-02,-1.302744028173147891e-04,9.454338228496967722e-04,6.225516951143948057e-04,3.413854241371154785e-01
-3.135227887583649786e-02,-3.656141161639778758e-01,-3.843305114257959676e-02,-3.946838811772859800e-04,-2.185593778434494813e-03,-2.813529926813183434e-04,3.308010101318359375e-01
-2.614911370476429020e-02,-3.689396715320203413e-01,-3.856673948956206022e-02,-1.362309329341079497e-03,-2.460463406108274152e-03,-3.220091873763647494e-04,3.367891907691955566e-01
-3.035856524932867284e-02,-3.693589562536478965e-01,-2.969768900554208002e-02,-6.519776302571787851e-04,-1.419437033306197166e-03,3.757046145300672749e-04,3.393427133560180664e-01
-2.379536036194217219e-02,-3.747684823873846938e-01,-4.142363070714172313e-02,-6.587760822470404946e-03,-8.393588047036909527e-03,2.696353529603419570e-03,3.430294394493103027e-01
-2.759028852133452170e-02,-3.691805063882823146e-01,-3.231002079271068361e-02,1.078769742427219594e-04,-1.703433386315559477e-03,-2.613171936350110257e-04,3.392681479454040527e-01
-2.667721506217468619e-02,-3.675333790710390014e-01,-3.428914569519493638e-02,3.669141005427776939e-04,-1.515740045025289065e-03,-9.468582110836765457e-04,3.371294736862182617e-01
-3.021752786201001295e-02,-3.758890891827207370e-01,-3.408132126746478419e-02,1.109944249406396221e-03,5.400068942521367432e-03,1.018896493467703369e-03,3.438930809497833252e-01
-4.908761572136259577e-02,-2.956975091566128588e-01,-3.596151609452449827e-02,-6.442656307160224416e-02,1.000588220541218055e-03,2.113141373706010559e-02,2.793218791484832764e-01
-3.808718308563005528e-02,-3.695905174546013638e-01,-2.435672837555213910e-02,7.980606982581067840e-04,6.922874780148723269e-03,9.273555090460526389e-04,3.387963175773620605e-01
-2.340678682253949372e-02,-3.656661867452684067e-01,-3.587707558915168016e-02,1.496131270991714573e-04,-3.240434029774000042e-03,-5.105316108071970794e-04,3.362458646297454834e-01
-4.357947456466686187e-02,-3.613930874777835367e-01,-2.159613528644049874e-02,-2.755431441547484799e-03,-6.833230061472935282e-03,1.981738847261958324e-03,3.296209871768951416e-01
-3.699425193676977863e-02,-3.760848250316878860e-01,-5.734471324074372212e-02,-2.793700167466061073e-03,1.202060858235762643e-03,-4.441945497395007221e-03,3.295191228389739990e-01
-4.071863157824665014e-02,-3.727408576825528286e-01,-2.406457925340595161e-02,-1.101585049221782443e-03,8.756278363539211906e-03,-8.133271119978122132e-03,3.412883579730987549e-01
-3.719262814412714613e-02,-3.736190054391856918e-01,-3.313635664778431800e-02,2.770852868499650533e-03,-3.497275411523431861e-04,-1.393058420546954002e-03,3.385159075260162354e-01
-2.400322945859319212e-02,-3.583660689612664929e-01,-4.609412194917143768e-02,8.075489175721433212e-04,9.645287884210314994e-03,3.635614658512590280e-04,3.243171274662017822e-01
-5.218614500028542769e-02,-3.316755852712612862e-01,-3.086056820463264905e-02,2.956147990656804100e-04,1.147450536371892593e-02,4.291550283243937406e-04,2.914192974567413330e-01
-4.437327499436553857e-02,-3.554498600797720842e-01,-1.524389496140209077e-02,-2.339648151028174503e-03,-4.208541243223856525e-03,4.288865881626140360e-03,3.268078565597534180e-01
-3.559386151475518734e-02,-3.580346854507410193e-01,-2.339954205076516525e-02,-8.197283428100560947e-04,-4.119832086946761777e-03,3.188344115795858653e-03,3.288345634937286377e-01
-4.462976600717194486e-02,-3.306884067487667611e-01,-3.154115887940477092e-02,6.082366432724490429e-04,8.301605864914402347e-03,4.697694148707985576e-04,2.931782603263854980e-01
-3.347847874915317601e-02,-3.670651907528699742e-01,-2.452800818766666391e-02,-2.231017752969471999e-03,-3.573124768493428621e-03,6.354631098570561343e-04,3.382312953472137451e-01
-4.883464397895068143e-02,-3.506362454837843590e-01,-1.790339741858286426e-02,-1.186120782149148760e-03,6.170273596294448487e-04,-6.339105642662698926e-04,3.184063732624053955e-01
-3.972045697189541258e-02,-3.561265055643984545e-01,-2.205915230448779463e-02,-5.594950553461939050e-04,-5.299537278569128700e-03,1.505705363005132441e-03,3.257373869419097900e-01
-4.242965189331268649e-02,-3.474448144965122665e-01,-2.146484040300716822e-02,-3.011811093254512274e-03,-6.741445575579442170e-03,2.863270596310474314e-03,3.163171112537384033e-01
-4.327167712089877161e-02,-3.424294177144403539e-01,-2.162687055436694761e-02,-9.697293742013222625e-03,-1.207647930015799675e-02,1.180892348335130931e-02,3.123732507228851318e-01
-4.170598980139914036e-02,-3.365840936073793976e-01,-2.751375749741755139e-02,-1.649317230783090308e-03,-9.654786251928089771e-03,4.707144729714218649e-03,3.028098046779632568e-01
-4.179925475871995588e-02,-3.697648777411120524e-01,-4.053068230369882841e-02,-2.224225254941537746e-03,-4.382923073037948893e-04,1.006084517669694842e-03,3.286298215389251709e-01
-4.669236124801347254e-02,-3.158101176892119666e-01,-2.093835306537417118e-02,7.737527273101081366e-04,-8.121686122555720269e-03,-1.283932000871225183e-03,2.832368612289428711e-01
-3.528085556274904167e-02,-3.702150985306455477e-01,-2.882336256505385608e-02,-8.446168466544110411e-04,-1.399495150117213964e-03,-8.980179442495250103e-04,3.382246494293212891e-01
-5.018506672711461891e-02,-3.974796538305467308e-01,-5.484617840277769552e-02,2.373770304428020859e-03,1.137318641978277492e-02,-5.055823373808424406e-03,3.456850051879882812e-01
-9.345381398019381169e-03,-3.529150064235986317e-01,-5.053392067920248198e-02,6.038961196704417753e-04,-6.170557441821287147e-04,-7.698980744089574911e-04,3.249453306198120117e-01
-4.480574766693183608e-02,-3.721046911572453153e-01,-4.582504577042519067e-02,-3.554921550442960258e-03,4.115509509475949977e-03,2.909087680720097348e-03,3.269650340080261230e-01
-4.281550461630548310e-02,-2.885275482180030271e-01,-4.942137904500212842e-02,3.352029538654876378e-02,-1.414855386829516094e-02,-2.441556351720322246e-02,2.540760338306427002e-01
-4.948663980936196527e-02,-3.669961547759210685e-01,-4.833181962276940358e-02,6.504615839419116894e-05,2.715161702295344932e-03,-5.379367872965702978e-05,3.181232810020446777e-01
-4.375101770565760495e-02,-3.703912690513939676e-01,-4.284872338238074341e-02,-1.623680713776063170e-03,2.557867829915953795e-03,-1.114146821876480170e-03,3.271401226520538330e-01
-4.376116928278099560e-02,-3.701765922337824644e-01,-4.745644636533782879e-02,-1.238832984023018925e-03,1.201346367671180231e-03,-2.195891256590708478e-03,3.246195912361145020e-01
-4.281877946079055974e-02,-3.761521769037181606e-01,-4.751872366422822680e-02,6.302881684025142713e-04,4.891312353839162921e-03,-1.592322733235998575e-03,3.311301469802856445e-01
-4.923397806118127995e-02,-3.653147732307154838e-01,-4.985075718125703270e-02,-1.101112603874254432e-03,3.926211192917650368e-03,-6.028454593693188075e-04,3.158535659313201904e-01
-4.599994794535158804e-02,-3.708955872182447822e-01,-4.382294290287477856e-02,-1.751209766079024534e-03,1.712713458583116832e-03,-4.054597058429760766e-04,3.260179460048675537e-01
-5.109531718442658632e-02,-3.686407551146804740e-01,-3.998523208399738793e-02,-1.713283121074189426e-03,4.080541379121737939e-04,1.559708541609216930e-04,3.232582211494445801e-01
-1.057107834130036061e-02,-3.582910705413694386e-01,-4.999855723133808660e-02,4.871210973023744860e-03,1.117466386542060632e-03,-1.067106722928007345e-03,3.298974633216857910e-01
-4.222492221398425893e-02,-3.668373629960799409e-01,-4.391258385818913590e-02,4.382118131966086121e-04,1.669037496643671235e-03,-7.257728065883568315e-05,3.237857222557067871e-01
-3.290898500354215439e-02,-3.662955952893951483e-01,-3.151667626182962090e-02,-2.595924255770540702e-04,-4.656842910900865599e-03,-6.972726793802653438e-05,3.341826200485229492e-01
-4.664176279991363860e-02,-4.375717545127578156e-01,-3.948551660720467371e-02,3.078092549780840799e-03,-1.476333806174274371e-02,-1.587429102402904959e-03,3.954300284385681152e-01
-1.421086740554762529e-02,-3.113205066580815861e-01,-5.340156124279489547e-02,1.190398715256704709e-02,6.195766204906860697e-03,4.055316657605507373e-04,2.805474698543548584e-01
-9.352383365871463905e-03,-3.576085879042110172e-01,-4.816647521024020051e-02,3.982580579442651300e-03,8.798575695639888027e-04,-8.196091001942222825e-04,3.306411802768707275e-01
-4.662149370852135266e-02,-3.850104662482263240e-01,-4.772794977392955107e-02,-1.109374344757021102e-03,-7.789345942439862731e-03,2.321013701502023380e-03,3.381357491016387939e-01
-5.852759042351314556e-02,-4.107438303777256605e-01,-3.101827985623609174e-02,-4.495155737867816831e-02,-7.257070134642040586e-03,-2.011417597235455254e-02,3.767438530921936035e-01
-2.654131814594298810e-02,-2.915501484847411451e-01,-5.524809324968707469e-02,2.633619253590904156e-03,-8.489443416423981398e-03,-6.009224717109882809e-05,2.523553967475891113e-01
-5.696604605893662576e-02,-4.668129342639903423e-01,-3.582556220342808517e-02,-1.319339537263395680e-02,-9.090323823275629073e-03,-2.402414699569031462e-03,4.217501282691955566e-01
-2.887354949411138905e-02,-2.009513179212020217e-01,-3.824953715441599400e-02,-1.524723159770675733e-02,1.745264382563874866e-02,7.916010947185869728e-02,2.202168405055999756e-01
-6.081302334704927204e-02,-3.669178073935938089e-01,-4.286206744493885334e-02,7.258566175832459203e-04,-2.708215032137813606e-03,3.934284628204657371e-04,3.155016601085662842e-01
-1.924147858654362553e-02,-3.518860481748864455e-01,-4.958050352297979635e-02,-3.147007961686764570e-04,6.466869618948910443e-03,-4.080919757689026664e-03,3.188361227512359619e-01
-7.377048802015781503e-02,-4.598864991152046833e-01,-2.817256839496867782e-02,-9.634617151104182819e-02,-1.554291428027772433e-02,-1.770314180693770539e-03,4.442439973354339600e-01
-5.086778291650329020e-02,-5.625109688152635234e-01,-3.166518416633054556e-02,-4.047477282567712303e-02,-6.116145227424257293e-03,1.080684747248198373e-02,5.266398787498474121e-01
-4.056893407690839726e-02,-2.691838577359244589e-01,-4.981854997586963874e-02,-2.838401655325092574e-02,7.902172230249675938e-03,-1.729678801010730779e-02,2.318136394023895264e-01
-3.986024177640874744e-02,-3.757231728604032428e-01,-5.199423892630063160e-02,2.868398399551729677e-03,-4.209510232398373623e-03,2.667493329045865155e-03,3.301135599613189697e-01
-2.296444318106796723e-02,-3.679314385911821583e-01,-4.387495681891091792e-02,7.296775385699256090e-04,4.641322784966237652e-03,9.822090910907444860e-04,3.351047039031982422e-01
-2.316504763651067167e-02,-3.720560213581713960e-01,-3.835585408181263478e-02,1.218213800777446197e-03,1.295026640192479227e-03,9.727480232088271716e-04,3.415670692920684814e-01
-7.682249906346774737e-02,-3.953189151432924264e-01,-4.524072715369967246e-02,8.038037973444963138e-03,-1.511420521146555028e-02,1.055378191222672984e-02,3.372081816196441650e-01
-4.140225519225250450e-02,-4.242720010584151158e-01,-2.509450330536891483e-02,-5.667999236441211182e-03,-5.200360409539530986e-03,-9.146101581151165616e-03,3.918257057666778564e-01
-2.849377230771496516e-02,-3.638466052582076671e-01,-3.939202190565201100e-02,9.121465309949504038e-03,4.401127289515851734e-03,8.004110978901493329e-04,3.305074572563171387e-01
-6.251492390667411081e-02,-3.750965249384444755e-01,-3.762715262994165144e-02,-4.646130884262834014e-03,-8.119385837788551221e-04,1.094554124725547785e-03,3.258472681045532227e-01
-2.344066776521304407e-02,-2.987497399059879655e-01,-4.898802650703544537e-02,5.133482169422368124e-02,1.166376601816765217e-02,1.362465280444276165e-02,2.797948420047760010e-01
-3.099582480552424968e-02,-3.748735739278656887e-01,-3.900468008990506941e-02,-5.477846061937841331e-04,1.191315884383652981e-03,2.407382125976314461e-03,3.399772346019744873e-01
-1.858158117364278050e-02,-3.403908548082417163e-01,-5.707764509050694546e-02,-1.147323285485526067e-03,5.407285738982502317e-03,-9.164737415880675440e-04,3.045471310615539551e-01
-1.709778248266036194e-02,-3.665909538964698955e-01,-4.404427531008124619e-02,-5.312723448343742438e-03,1.319392025069782799e-03,-3.601455073485670174e-03,3.370204567909240723e-01
-4.164682188462619228e-02,-3.689813464508159280e-01,-3.993425519932967960e-02,-2.120559410240939469e-03,-1.024888245110848993e-03,-8.368806719962323384e-04,3.282227218151092529e-01
-3.737638449024827114e-02,-3.674430691892587308e-01,-3.879285581975865094e-02,-3.857593433287439112e-04,2.986775802689441281e-04,3.623202514685847390e-04,3.293624222278594971e-01
-3.725566564790355750e-02,-3.663935140662110124e-01,-3.438291622081039722e-02,-7.415013248244250489e-04,6.166936005857899484e-04,-1.595708872155956332e-03,3.305993676185607910e-01
-3.796821939110883726e-02,-3.458283712222898210e-01,-1.934980298619538852e-02,2.574926578845699622e-03,6.591158941766928070e-03,8.287047622274029690e-03,3.181393444538116455e-01
-3.192785122614850979e-02,-3.540142669002749320e-01,-3.563433409373233107e-02,1.780151881251327119e-03,1.220235803586186552e-02,1.688797664777039751e-03,3.209740519523620605e-01
-3.393198329043610462e-02,-3.590129175330978306e-01,-2.708036230881780138e-02,4.333646267543569790e-03,1.813672763105706994e-03,2.695092932021984390e-04,3.286614120006561279e-01
-4.980046776149128773e-02,-3.621270836966509199e-01,-1.808229506212949422e-02,1.214854480958168061e-04,3.327654546857123155e-03,2.430838060858089996e-04,3.293839991092681885e-01
-3.570014419084870105e-02,-3.659459833123190897e-01,-3.035692047878926769e-02,1.788725847839025673e-03,4.007888023929811507e-03,4.180274344393187028e-03,3.331150710582733154e-01
-4.767824583559253371e-02,-3.175136584793867289e-01,-3.212456484237698195e-02,-3.548215731364254413e-05,-1.201074175484769663e-02,-3.578163435003163355e-03,2.787851989269256592e-01
-3.409882804248907939e-02,-3.630261776993258804e-01,-3.533045236993158367e-02,-1.974552404892589044e-04,1.315116511148494913e-03,3.757228081731188050e-04,3.283219933509826660e-01
-5.920107618214616452e-02,-2.761594067778363470e-01,-3.997309375946182797e-02,-1.681066121861826690e-02,2.733521732801679621e-03,-2.451068173249299972e-02,2.329910695552825928e-01
-2.928081843189463129e-02,-3.491053236964863915e-01,-3.164847033405217280e-02,1.040086971952513747e-02,1.240440466816686814e-02,7.741702107065674514e-03,3.201593756675720215e-01
-1.288488788555751385e-02,-3.519731899579041090e-01,-4.357453149550061244e-02,1.485311844724499777e-03,1.895220946405485858e-03,1.940390878037978866e-03,3.248767852783203125e-01
-2.921254437320508490e-02,-3.659249181458938960e-01,-2.690498536003901875e-02,3.493824543313884525e-04,1.896330853872417108e-03,1.739381002152173914e-04,3.378887176513671875e-01
-4.736765192564336424e-02,-3.178182729678017404e-01,-3.468990016082727779e-02,7.389570795785699363e-05,-1.098926192206045940e-02,-2.920703605749561376e-03,2.777064442634582520e-01
-3.556485574726345189e-02,-3.755608218517424435e-01,-7.486206194985668694e-02,1.252968114966483085e-03,-6.894845074574560209e-03,2.403357111357728657e-03,3.224054872989654541e-01
-3.121651906968503365e-02,-3.673269010643973598e-01,-3.356275218438495300e-02,2.293171136890131327e-04,5.835100229912334579e-04,6.139130195318032602e-04,3.349468708038330078e-01
-1.242078932993626039e-02,-3.578580664784019039e-01,-4.689823031996262492e-02,4.230021283465739204e-03,-2.898325901981868308e-04,-1.610295700040889275e-03,3.296475708484649658e-01
-2.051215260142874586e-02,-3.643635920982938869e-01,-4.560126567488248517e-02,-1.927934618286379197e-03,3.987833725913964879e-03,-9.035454586468807383e-04,3.321109116077423096e-01
-3.227150385945055933e-02,-3.370571940195464244e-01,-3.575290150202889428e-02,7.817927987279388357e-04,-1.245733855176098075e-02,-4.251565634874107506e-04,3.038310110569000244e-01
-4.545978370534481394e-02,-3.678968501627820076e-01,-3.922754361508268284e-02,-3.411225665732136019e-04,-2.433671109371164296e-04,1.428701622829708050e-03,3.256081342697143555e-01
-1.642128061705591668e-02,-3.597122553061247174e-01,-4.767249861972733260e-02,-5.157046024368890785e-03,3.411953671876799109e-03,-2.748758692560992079e-03,3.289900422096252441e-01
-1.955786492777941699e-02,-3.708861533459905102e-01,-4.852064981239520569e-02,-1.409947567717808811e-02,1.825079288584948540e-03,-2.997690299076397231e-03,3.387156724929809570e-01
-4.558281403741321069e-02,-3.684560247602344796e-01,-4.306608142895669566e-02,1.404787191688198795e-04,4.471982043148323019e-04,1.330878741000467874e-04,3.241400122642517090e-01
-1.482928725313387153e-02,-3.616797696108175475e-01,-4.740255246901231567e-02,-6.420196522857540659e-03,2.197236350920407730e-03,-1.813711072956561551e-03,3.319883048534393311e-01
-2.892380101511918267e-02,-3.656919200586090102e-01,-3.883604744363709782e-02,-5.595882711690189576e-04,3.785978886130112603e-03,-9.339765582426982600e-04,3.319931328296661377e-01
-1.619294547398447692e-02,-3.573537842247020424e-01,-3.941349486167237959e-02,1.837391916364000373e-04,-4.625123988970978109e-03,4.015832811167419796e-04,3.302616178989410400e-01
-3.336470121505273612e-02,-3.662309749106834045e-01,-4.010479892119293843e-02,-5.440575085227535544e-04,6.108548027000688246e-04,-3.783570071117248472e-04,3.295516073703765869e-01
-1.685717503303998943e-02,-3.644396982479943814e-01,-4.911117447274308823e-02,-5.281263814249954479e-05,4.441255887478499318e-05,-2.049196271718979601e-04,3.326306343078613281e-01
-4.906416059096429388e-02,-2.286368809297442684e-01,-5.135169365712904249e-02,4.700530147628304185e-03,7.368525394047114284e-03,-1.016848538162146848e-01,2.511760592460632324e-01
-4.556235524636632894e-02,-3.675209884900422219e-01,-4.540145529540820513e-02,-2.678166928867312113e-04,-6.394248413327145242e-04,-8.130566075274353035e-04,3.220444321632385254e-01
-3.702514526949626794e-02,-3.668394781016292572e-01,-4.916737241111353296e-02,-9.363762034818742808e-03,3.509611791389946351e-03,1.154798614377597311e-04,3.243767619132995605e-01
-2.862889377143909564e-02,-3.732140552556716395e-01,-4.243476085360275984e-02,-1.092156413062232191e-02,-3.014101890583648427e-03,-7.557601325433133295e-03,3.387162387371063232e-01
-2.246396402995855246e-02,-3.560482461215803696e-01,-3.782965212583379311e-02,3.442582508901759295e-03,-5.896376303317095446e-03,-2.704287355710372712e-03,3.264209330081939697e-01
-1.097334920197637342e-02,-3.531127646642285289e-01,-5.029858056834032864e-02,1.226349076571709969e-03,-1.497604516634807020e-03,7.805260925013507707e-06,3.242875039577484131e-01
-5.218592585089609770e-02,-3.506107981869303059e-01,-1.094926820348426921e-02,1.663271977796851537e-03,3.881126954218874422e-03,5.473105761474724232e-03,3.212588727474212646e-01
-4.635101198211680207e-02,-3.559568382916491469e-01,-1.811419372497460878e-02,1.357876769059230410e-03,1.599571698366345374e-03,1.591867710996477036e-03,3.246785700321197510e-01
-4.512447681079626016e-02,-2.888738324493759224e-01,-2.251785352516147420e-02,1.138825909356185918e-02,7.454074239293301089e-03,4.597001640548544626e-02,2.689435780048370361e-01
-4.506251483795165047e-02,-5.621208274879527789e-01,-3.268718841569939748e-02,4.286788750815519883e-02,-2.261453179216477670e-03,-9.556218092916015164e-03,5.288699865341186523e-01
-4.857718216392775679e-02,-3.866521066665917772e-01,-5.835194941227306309e-02,3.702208524288528625e-03,-9.450957134940369056e-03,3.900631195902369303e-03,3.338267803192138672e-01
-5.114833201604260249e-02,-4.244165084933634313e-01,-4.438195752928500437e-02,-6.923750767930563269e-05,-1.597457169400768456e-02,6.699821986349361463e-04,3.777135312557220459e-01
-1.598911841052436111e-02,-3.640841121355981036e-01,-5.051331570143308136e-02,5.407890591455028016e-04,2.926173380622038890e-03,1.188568635863533222e-04,3.322212398052215576e-01
-4.715674116014499651e-02,-3.664676188133190182e-01,-5.061243864232115031e-02,4.707659873089720961e-04,2.501678941574014738e-03,1.303007960276807251e-04,3.176278173923492432e-01
-5.797424009011017954e-02,-3.811519801416143327e-01,-4.604187590441224942e-02,-3.834336107196555923e-04,2.025383455233338223e-02,-1.112475769260854808e-03,3.311756551265716553e-01
-2.021856361702929761e-02,-3.677554139543036671e-01,-4.251492216476465691e-02,-3.007018652628497875e-03,6.231917375170773800e-03,-1.757944864470708558e-03,3.371692299842834473e-01
-5.865694103726457054e-02,-4.218923001420411545e-01,-3.976571732062916809e-02,-6.426629875772377036e-03,4.298438549539948181e-03,-7.759786347111601902e-03,3.735220730304718018e-01
-3.553018894675166739e-02,-3.693962653135821617e-01,-2.883606178326354741e-02,-1.907627064054763510e-03,-1.769302318672106222e-03,-2.439339374411909683e-04,3.372933268547058105e-01
-1.431945401912707028e-02,-3.642318047940472092e-01,-4.576436143384363109e-02,-2.044608500568481906e-03,5.918826474813300084e-04,-1.835279448694860120e-03,3.353329300880432129e-01
-4.591240891474809849e-02,-3.674700217394411550e-01,-5.326624832725666836e-02,6.410808984030104407e-04,8.472112514738450607e-04,-3.888462602947048816e-04,3.179505169391632080e-01
-3.568790237260208165e-02,-3.695276720232144041e-01,-3.627017834775689287e-02,5.845119727213860927e-04,-1.118473863375144418e-03,6.307691704354385399e-04,3.335579633712768555e-01
-3.926574831892457040e-02,-3.746819441339664936e-01,-5.606567955112115587e-02,-1.471402995048585105e-03,2.436859852513476466e-03,1.478385794974834688e-03,3.273868560791015625e-01
-4.494189601976576742e-02,-3.767862687045625547e-01,-5.539698005690121829e-02,-3.387856532777469998e-03,8.477746043882372975e-03,6.388441722643767653e-03,3.273118138313293457e-01
-3.094795497812506679e-02,-3.741324910402747950e-01,-3.938633344095282540e-02,-7.242067506938651682e-04,1.083190243100741945e-03,2.254477316404030103e-03,3.390741050243377686e-01
-5.669241144642742092e-02,-3.670760372187404363e-01,-4.819438392090742707e-02,1.186837151573976292e-03,-4.506822018495980527e-03,1.604902315426358491e-03,3.148344755172729492e-01
-3.307212471857500641e-02,-9.422583117683441811e-02,-2.656131113062938989e-02,4.197478441920804437e-02,1.891878691773192815e-03,-3.635797997137849014e-02,1.159414499998092651e-01
-3.727986858447494833e-02,-2.266387264974459581e-01,-5.982215001132270421e-02,4.556616506009350531e-02,-4.479451144428871386e-03,-3.874047692872510055e-03,1.960367262363433838e-01
-4.094414807586073402e-02,-3.768909565464400591e-01,-5.111145562162737466e-02,3.964038563994835666e-03,-3.455464863112246710e-03,1.222473462501635043e-03,3.311123847961425781e-01
-6.939107544252468007e-02,-4.220559145415297975e-01,-3.366884313750892477e-02,-2.437679865235476036e-03,-1.021330665093679764e-02,-1.586028939182856229e-03,3.722698688507080078e-01
-4.356766007205571667e-02,-3.695308229840046366e-01,-4.965228643307360856e-02,-9.921918374308843092e-04,-3.351105868575711411e-03,-1.119843646982069622e-03,3.230263888835906982e-01
-5.619632234827759421e-02,-3.713984190419302722e-01,-4.272536785614440558e-02,-1.493591912751148377e-03,-1.825815170424585198e-03,-2.774124828372290241e-03,3.222106099128723145e-01
-5.764400123713252222e-02,-3.743461871978848721e-01,-3.713922717673662222e-02,-1.407244829068869749e-03,-1.590046061447805302e-03,3.271485529101771702e-03,3.275061249732971191e-01
-4.277988543681492117e-02,-3.670167106960025016e-01,-3.958103153017426823e-02,3.525875401058177266e-04,-4.942668658444740676e-04,8.966874212979024502e-04,3.258534371852874756e-01
-5.476663704269232880e-02,-3.856127761728361802e-01,-4.793091348025074749e-02,-1.336560433113294453e-03,-7.289213006766956902e-03,2.335601079582575856e-03,3.345871865749359131e-01
-4.471092042227156615e-02,-4.364471954907038209e-01,-3.848605490520526362e-02,1.069169069600185663e-03,-1.335820164119665837e-02,-3.543716911467848819e-03,3.956147134304046631e-01
-5.267350080002496104e-02,-3.511160217024140717e-01,-1.418608410255253749e-02,-4.961367411987708653e-04,1.547031349960453772e-03,-7.834844869861582600e-03,3.197304606437683105e-01
-3.726094910199978516e-02,-4.141107580163769786e-01,-6.501010415377660168e-02,8.174781754851827634e-03,-7.905000306601515578e-03,3.732181289727126618e-03,3.643600642681121826e-01
-3.751449989820239417e-02,-3.333276864205213519e-01,-4.168243161625054261e-02,3.042986502235857718e-02,-3.767137846333036902e-03,-2.764294692658670043e-03,2.985520362854003906e-01
-3.280754125444734770e-02,-4.040841234828256301e-01,-3.518744439657751910e-02,3.278844343281046847e-02,1.501607320255537222e-03,-1.241870594535193079e-02,3.750507235527038574e-01
-2.497753477977934788e-02,-3.640274474921090242e-01,-4.325772809524060236e-02,2.788022320576614976e-02,-1.242509993477833839e-04,-6.810466110949786080e-03,3.340093195438385010e-01
-3.006555389460502381e-02,-3.631069561362153530e-01,-4.733936775437205813e-02,1.508317140190978305e-03,6.317780328594815691e-04,5.168565472858279840e-04,3.247628211975097656e-01
-4.513956753958349444e-02,-2.762079353250264102e-01,-5.475479606601382776e-02,3.898073445483086780e-03,-1.134446610647876080e-02,-1.745635612754872605e-03,2.273853272199630737e-01
-6.847718830526888789e-02,-2.359835232274482553e-01,-5.361469377857414065e-02,-2.994802244025579659e-03,5.324133772733456342e-05,-2.153579433992645290e-03,1.755267977714538574e-01
-3.320422500185234160e-02,-2.980387698691740472e-01,-5.050262437156899376e-02,1.688172195302061612e-02,-9.947546960701931021e-03,-7.726952205219523272e-03,2.592032253742218018e-01
-3.972310256668751260e-02,-3.735563542193821029e-01,-4.310341897464534111e-02,1.153071881622674648e-02,3.133373507108820708e-03,-4.643535042355767181e-03,3.328973054885864258e-01
-5.048439454015474226e-02,-3.788793638806042807e-01,-4.047494226161901798e-02,-6.551824818893612354e-04,2.184419697217366847e-04,-1.510965113405679777e-03,3.335247933864593506e-01
-5.265005855053661588e-02,-3.850596795971391595e-01,-3.390537686022589148e-02,2.393358069550985401e-02,-5.424446913521965190e-04,-3.297570825055060289e-05,3.446705043315887451e-01
-3.049730007289552791e-02,-3.181350629068951941e-01,-4.074968818822694017e-02,1.354136705482215973e-03,-1.299281916392126465e-02,-9.011748142011740889e-03,2.839845120906829834e-01
-3.873051323684464919e-02,-2.427926849071414817e-01,-6.459783299185500871e-02,4.276539213147296375e-02,-9.232727599588656103e-03,-2.971591559583306244e-02,2.131277024745941162e-01
-5.118467840058259222e-02,-3.856345234965607993e-01,-3.435323324955873170e-02,-2.365374715528281539e-03,-1.586328336838168816e-03,2.063223607201079661e-03,3.432293236255645752e-01
-4.466999527667978032e-02,-3.807355049477463838e-01,-4.651080107386409979e-02,2.672414213862914917e-03,8.025871798524097933e-03,-1.687384167800058329e-02,3.367397189140319824e-01
-1.455799744178433441e-02,-3.411654394841647786e-01,-5.277860174172654961e-02,1.988741894021315345e-03,-7.206538789577361138e-03,-7.410127222598729077e-05,3.095444738864898682e-01
-4.096082742876851202e-02,-3.673911206944329155e-01,-3.916949285979577644e-02,-4.940323128071680151e-04,-7.867047599512475963e-04,-9.670767291142378253e-04,3.273378908634185791e-01
-4.042101526961849878e-02,-3.697237799423978011e-01,-3.899935899470152734e-02,1.195533194042489684e-03,2.618003691089777242e-04,-2.279449778171092466e-03,3.300463259220123291e-01
-4.913122844720579918e-02,-3.696841847945362414e-01,-4.488054195115732947e-02,2.185750851991797184e-03,8.157081201246797926e-04,-2.191679163260564986e-03,3.227469325065612793e-01
-5.297717135684502920e-02,-3.745108047320592215e-01,-4.639302995298340282e-02,2.514016753814339502e-03,3.162505176991457431e-03,-2.618750925333921016e-03,3.249827623367309570e-01
-4.904229950078739519e-02,-3.674346090615299154e-01,-4.851341908093707855e-02,6.955979920842455394e-04,2.428326528874805244e-03,-1.701726076122721167e-03,3.187007308006286621e-01
-5.065835799438746234e-02,-2.991700452002423738e-01,-3.375666161386124686e-02,1.133849437211772136e-02,-7.871341584824505244e-03,-1.697638153270517383e-03,2.585037648677825928e-01
-1.094912423454000305e-02,-3.526835449631284813e-01,-4.950582563089130084e-02,2.240837849848604547e-03,-1.340749656082844540e-03,-6.087697279513361445e-04,3.242135941982269287e-01
-2.036739242765252256e-02,-3.413351771968163306e-01,-4.836096462841489585e-02,1.832996010114650801e-03,-6.581053806725366100e-03,-1.955524698843737750e-04,3.081542551517486572e-01
-6.614894341273069855e-02,-1.262137693442890174e-01,-6.516197619946262343e-02,-1.372982474905846875e-03,-7.654878056261556554e-03,-7.080901757733066085e-03,6.324478983879089355e-02
-5.120714090845163158e-02,-1.048752835408334472e-01,-5.094090972291632352e-02,5.934247408036428563e-03,-3.382422767703491869e-03,-5.060354038446909786e-02,1.035217419266700745e-01
-4.190343060803607134e-02,-3.688483023618582268e-01,-3.877914326976669712e-02,-2.697707583021739103e-03,-5.491341098596457448e-04,-2.269626272747896165e-03,3.285762667655944824e-01
-8.168981500081579084e-03,-3.506865217164979454e-01,-5.275384602754305818e-02,7.809361740252099109e-04,-8.670024503209215749e-04,2.754588422663234904e-04,3.225512206554412842e-01
-3.480425129840689080e-02,-3.645994210726934970e-01,-3.767771752208652625e-02,1.165216920650560990e-02,-3.522609616601374890e-03,-6.097224728493561528e-03,3.292135000228881836e-01
-2.407181993857106239e-02,-2.847334769972236224e-01,-6.441397256161170148e-02,3.419895223283983370e-03,-5.618971126065233938e-04,1.472020277755947356e-04,2.430893629789352417e-01
-6.361538725413842799e-02,-2.501386622188272457e-01,-4.360491703156835208e-02,-7.586005181872749982e-04,-6.166481948421289119e-03,-2.784493288997142227e-02,2.033853381872177124e-01
-5.303698608827814298e-02,-2.435136344663073049e-01,-6.298385966515826495e-02,-2.161240437916689752e-02,-1.782188830965216950e-02,-9.275856238521856811e-02,2.503043115139007568e-01
-1.176635454734678565e-02,-3.629989774064386054e-01,-4.733496185118284127e-02,1.111468005404211371e-03,-5.309923082351342355e-04,-2.954997795851004245e-04,3.348752558231353760e-01
-5.161665956836485741e-02,-9.806875667620268411e-02,-2.667730376322685615e-02,5.009005427807642144e-03,8.740659145916113842e-03,-2.940596316550817685e-02,8.268526941537857056e-02
-6.933452546920632065e-02,-1.704796894378338146e-01,-6.305755435885115889e-02,7.458777522210245517e-04,-1.120670657678473660e-02,-2.336148668650745233e-02,1.136677041649818420e-01
-1.164682568511041239e-02,-3.608383324589127250e-01,-4.914565960834066383e-02,8.074018502061188493e-04,-1.062169645694631891e-04,-9.908570796347934868e-04,3.320414721965789795e-01
-3.381975896110057944e-02,-3.696391570060511556e-01,-2.813195977354968069e-02,-1.641700941306201231e-03,-1.276172803807061173e-03,-2.692294389810581624e-04,3.387185931205749512e-01
-4.696943945310740748e-02,-8.896974715671496226e-02,-3.864712696097687139e-02,3.616153413790412774e-02,-1.476558018552846449e-02,-3.361365415252295930e-02,1.007447093725204468e-01
-4.333471355229000233e-02,-1.744300265217887669e-01,-4.854100338592547831e-02,-1.914443889596232663e-03,3.628434505952988966e-03,-4.097621725029547413e-02,1.470313221216201782e-01
-2.405852925434280587e-02,-3.675946942036892873e-01,-3.535387437377887632e-02,-1.106626272924736805e-04,-2.971834930308095337e-03,-1.547921112198905177e-03,3.380799293518066406e-01
-2.378236458893114025e-02,-3.663556569702061672e-01,-4.176518547360645595e-02,3.181304186033424917e-04,-2.568037001041399182e-03,-3.935801999879375533e-03,3.340448737144470215e-01
-1.957229837905344327e-02,-3.608574380871408249e-01,-4.230704682789189486e-02,1.211060204193892959e-02,-5.108406720788016310e-03,-1.411607220506217071e-03,3.312969207763671875e-01
-6.038990631124467601e-02,-2.345307317265710179e-01,-6.006227703276287994e-02,-1.970349637789658038e-03,-9.881307403023858137e-05,-1.293527852313503023e-03,1.743527501821517944e-01
-1.996488840117145724e-02,-3.626284369611977865e-01,-4.244139344943982650e-02,2.939903507064167785e-03,-5.035329656763174073e-03,-2.261503575655104958e-03,3.321730792522430420e-01
-3.988183352966759299e-02,-3.573522300535733054e-01,-1.910088453976377387e-02,8.886614645073514281e-04,-1.807390809519535254e-03,-2.748066272461479232e-04,3.283733129501342773e-01
-1.823169953907731455e-02,-3.628154654585485916e-01,-4.241330408873864033e-02,1.748853813987412929e-03,-2.317571112396370897e-03,-1.953585163613896607e-03,3.332069516181945801e-01
-3.067074244360495916e-02,-3.660456486675480736e-01,-3.622043326419462084e-02,-1.118279680987806311e-03,-2.214000023688952965e-03,-8.281119393703231454e-04,3.326656222343444824e-01
-3.617155566099236608e-02,-3.682395942773152298e-01,-3.388294534147424930e-02,5.997074226798337297e-04,-3.511426252913360611e-03,-4.598473146450920458e-03,3.333705067634582520e-01
-3.602505224818362828e-02,-3.676164287376348372e-01,-2.897642547434521598e-02,5.543996208973543801e-04,-2.921132798645956555e-03,-4.144689995296247883e-04,3.352116048336029053e-01
-3.604105022632966837e-02,-3.791174394101644030e-01,-4.770043488683911592e-02,7.060097052579185350e-04,-3.127285938939435798e-03,-1.171490285333402770e-02,3.380530178546905518e-01
-3.964658935405299123e-02,-3.690666036467555311e-01,-3.838552727724883762e-02,6.996698797845082515e-04,-5.113815153722056070e-05,-2.102215515089270062e-04,3.300547897815704346e-01
-3.976214033902139566e-02,-3.733250110812924016e-01,-3.361993569860821651e-02,-3.540523725803471859e-03,-3.253644334766825352e-03,-2.606627580877435594e-04,3.367792963981628418e-01
-4.017393541747668606e-02,-3.699436632818945414e-01,-4.329486164075650734e-02,-1.596420928140190659e-03,1.722890656183042506e-03,-1.117979903764196141e-03,3.282513022422790527e-01
-3.920796415591182305e-02,-3.705638225797351359e-01,-3.316814624077973894e-02,-1.013367973319856180e-03,-1.453460963196868136e-03,-2.737589921327361533e-03,3.344643712043762207e-01
-4.034958311550390642e-02,-3.694972266089824875e-01,-4.023075855590813044e-02,-1.405107036939816497e-03,1.533478200550414991e-04,1.404869979696155144e-03,3.292251527309417725e-01
-1.715155571533463763e-02,-3.621776295324271588e-01,-4.749531253716300638e-02,-1.804316889783246988e-02,-5.568795406295685112e-03,4.725436972210616225e-03,3.326124548912048340e-01
-3.913575119621680309e-02,-3.406038921989263946e-01,-4.368735014430784325e-02,-5.285789994380130086e-02,-2.482147392055989756e-03,6.555933930800589282e-03,3.131467700004577637e-01
-6.230861824231977847e-02,-1.879861827659347895e-01,-6.710511254378781487e-02,2.610185284207722570e-03,-3.845397553812282022e-03,1.698592448691151578e-03,1.236466765403747559e-01
-3.239090151329618306e-02,-2.727078275385870221e-01,-4.944515815182380647e-02,-3.379395586450884004e-02,-1.384208547986434711e-03,-1.314514221472941574e-04,2.395340055227279663e-01
-3.221025919657280467e-02,-2.693736766360314006e-01,-5.644617003278847023e-02,-3.280896994472641548e-02,-7.987112701911184111e-04,-7.507787276566297349e-04,2.330641150474548340e-01
-2.454732158922449947e-02,-3.689116083429956339e-01,-4.002055098965812130e-02,-8.764603752457513983e-03,-5.238902103549324639e-03,1.007671225908920174e-03,3.373627066612243652e-01
-1.652078407911265756e-02,-3.563193060553475622e-01,-5.066863267112423075e-02,1.449404487491711552e-02,-5.899670460990833268e-03,2.008843971246355813e-04,3.252083957195281982e-01
-2.296390567136680216e-02,-3.234545224186224921e-01,-3.788396222127829449e-02,-1.217947944947766689e-02,-9.726893764242119586e-03,3.002282405875425931e-03,2.946010529994964600e-01
-2.694526319566992179e-02,-3.279372471128381150e-01,-4.539067409835489952e-02,-2.514144055821255705e-02,-1.022060963029818893e-02,6.015793819869164928e-03,2.961464524269104004e-01
-4.364033094721571360e-02,-1.183083378029657490e-01,-4.602610972681304979e-02,6.016521710399004574e-02,-9.131364330180893147e-04,2.553906919280308704e-02,1.349876075983047485e-01
-2.451751185610454020e-02,-3.499187434532948227e-01,-4.012341397000819543e-02,-9.123870479940723302e-04,-9.250331678042551450e-03,2.483396705598662092e-03,3.183222115039825439e-01
-2.194249596334835184e-02,-3.551997108872443354e-01,-4.049767018995642509e-02,-5.260031878888243514e-03,-7.047723194094820606e-03,3.519126564426243182e-03,3.247925341129302979e-01
-2.603177385217327056e-02,-3.364942614274381572e-01,-3.873959169991587903e-02,5.562866828052794727e-02,1.193181684404358463e-02,2.762480769861877516e-02,3.234243094921112061e-01
-8.221271497063448175e-03,-3.390494591132696689e-01,-5.024873334047885720e-02,5.837190475227426768e-03,1.184708470285376425e-03,8.426110846104270091e-04,3.121190369129180908e-01
-3.480581056266350559e-02,-3.672648751136762257e-01,-3.283026314701051329e-02,-5.212439573671402183e-04,1.550005197260126769e-03,8.027445881013802950e-04,3.334661424160003662e-01
-3.211944994418414190e-02,-3.698089544257159300e-01,-3.242305462228251001e-02,8.054023310213484456e-04,-2.513094616171828409e-03,-7.604554511643795605e-04,3.375713229179382324e-01
-2.465158384874115149e-02,-3.590781395550651234e-01,-3.816063658644382184e-02,-3.885665345049729626e-04,-2.300932503660727598e-03,-1.941884690206890397e-03,3.279229700565338135e-01
-2.975925016169199411e-02,-8.021001081136525102e-02,-2.688622059290891528e-02,1.784341270811285992e-03,1.897760729804446461e-02,-1.540961864328118519e-02,6.708837300539016724e-02
-8.729659843855847035e-03,-3.490404318815250040e-01,-4.947148528525169286e-02,1.780374683885767393e-03,7.903886098306711454e-04,-7.952092798148128767e-04,3.219001591205596924e-01
-2.699611181138152072e-02,-3.594739351747567868e-01,-3.225520862180727977e-02,2.026893781886077682e-03,-5.805418495097075006e-03,-2.568329325598420459e-03,3.300815820693969727e-01
-1.140604060660371788e-02,-3.441814124360201288e-01,-5.228791380083287754e-02,2.942229721106996796e-03,-1.994398617242496789e-03,-6.184138933596520452e-04,3.143967986106872559e-01
-2.785212235878134490e-02,-3.569344134791302414e-01,-3.188199588938599172e-02,1.973047263114343156e-04,-7.447847569434590254e-03,-1.586906254036521543e-03,3.273519873619079590e-01
-1.297316782137118707e-02,-3.303344551373100790e-01,-5.974233803468112503e-02,1.099094939345088154e-03,7.451174784611120944e-04,-3.924306616905579590e-04,2.967634797096252441e-01
-3.115498262358214199e-02,-3.678425630850054029e-01,-2.750868946238249624e-02,1.093488445416616233e-03,-2.653364187316441507e-03,-2.264445059257661679e-04,3.385621607303619385e-01
-2.911261319749018639e-02,-3.509558983355902106e-01,-3.150278454023908159e-02,2.982690659622742792e-03,-1.240915181352731864e-02,-5.363253678869679339e-03,3.215501606464385986e-01
-3.297167758770577772e-02,-3.659859695337531749e-01,-4.031601694505741740e-02,2.430230761864916531e-02,8.718217608222760678e-03,7.890920217610052426e-03,3.327060639858245850e-01
-1.470825005792374129e-02,-3.298997317680076868e-01,-5.505674430362907101e-02,4.202882086808355224e-04,6.842014042975250523e-03,7.772469080918759923e-04,2.973196208477020264e-01
-3.443479254997466182e-02,-1.692273134836602688e-01,-2.399626772244260048e-02,6.173230485839138054e-02,-1.170073042090842216e-02,3.109343079317351127e-02,1.855499446392059326e-01
-3.436239793889432625e-02,-3.678416928804031372e-01,-3.799268702977413870e-02,3.092655521080584641e-03,-2.797858443576623638e-03,-1.936966398388545929e-03,3.317746520042419434e-01
-1.380353846166659793e-02,-3.474400405295048344e-01,-4.393522703010871444e-02,5.564205779672614684e-03,5.598850051713611525e-03,3.488128457700836278e-04,3.199304342269897461e-01
-3.017416177585428849e-02,-3.650814090211535468e-01,-3.274294998406632184e-02,-2.704112100788131474e-04,-4.922001003863771783e-03,-1.048265928056525123e-03,3.337444365024566650e-01
-3.468930465928909967e-02,-3.680067266087729827e-01,-3.272182906416574999e-02,-8.297068137205173329e-04,-2.580814118927287574e-03,-2.531678641219276774e-03,3.343672156333923340e-01
-1.300612424797503719e-02,-3.646075890480517945e-01,-4.952713293987257015e-02,-2.634826358723101405e-03,-8.224595209526032067e-04,1.171021044895596824e-04,3.348722755908966064e-01
-4.103859075791817246e-02,-3.694844724740689035e-01,-3.236024922973618212e-02,-2.825353065987163716e-03,-1.125929535052167842e-03,-1.682674565154489935e-03,3.329243361949920654e-01
-3.855052556914261019e-02,-3.645949040615085734e-01,-2.492973760557924690e-02,-6.622700349898344484e-04,-2.458473508449534727e-03,-7.711173317727503147e-04,3.330956101417541504e-01
-3.575360052580764392e-02,-3.645694096633268488e-01,-2.214406857810188867e-02,2.652550995126433451e-04,-6.179237981889846958e-03,-3.629511323334242822e-03,3.360570967197418213e-01
-3.588427977775088262e-02,-3.575208367159473655e-01,-2.609593638815541072e-02,-2.218229704728760159e-04,-7.791545727281106413e-03,-5.932348403855647323e-03,3.270810842514038086e-01
-2.352789810883063049e-02,-3.780957324739975811e-01,-4.601479227584269471e-02,1.878880645577366698e-02,-3.990440921508476776e-03,-1.881401595335743153e-03,3.454972207546234131e-01
-4.761489329765659917e-02,-3.225376189418734940e-01,-3.962648820981924669e-02,4.848019288599746818e-02,4.138481219808728788e-03,-2.004125351619502962e-02,2.935129404067993164e-01
-4.665251479979218296e-02,-3.479177408880341771e-01,-2.410200626084497977e-02,4.846311635611968288e-02,1.074264099901431867e-02,-2.279347711276078978e-02,3.271296620368957520e-01
-5.722082142905378366e-02,-3.524034123349357728e-01,-3.731759848287981296e-02,6.534252251129876732e-02,2.258425696087543177e-03,-1.637240163862054010e-02,3.271580636501312256e-01
-6.237110724536827633e-02,-2.251992758361132108e-01,-4.260398786857337583e-02,2.709438175089524253e-03,-4.899993582294447959e-03,4.581199017084459056e-03,1.740097999572753906e-01
-2.362830441651396496e-02,-3.755241891791474274e-01,-4.099888863386462468e-02,1.872289026113598334e-02,-4.579877111680211513e-03,-4.857132917869913871e-03,3.452610075473785400e-01
-1.288732039092439774e-02,-3.510229593393052738e-01,-4.836156366659315198e-02,-8.381167642317027822e-03,2.566463338023240747e-04,-1.082889742164980370e-03,3.222009837627410889e-01
-2.967578349573683771e-02,-3.470515746575404403e-01,-2.765311004267514972e-02,-6.085145237170342530e-03,-1.017178199960893162e-02,4.913551082255048635e-03,3.191666305065155029e-01
-3.998601573713540802e-02,-3.696287951365397895e-01,-3.859685575621882303e-02,-1.011214133905276487e-03,-1.925657425011516538e-03,-1.668142390781389583e-05,3.303610384464263916e-01
-5.834150906891852340e-02,-2.531901149719714139e-01,-1.528244797119052145e-02,1.016156798710900616e-01,3.721715081721974246e-03,-2.251880972377704945e-02,2.841657102108001709e-01
-2.931073750947614520e-02,-2.794519912428148345e-01,-5.310653859468865423e-02,-2.623206502555717849e-03,-8.363813824169969574e-03,-1.633534093899759133e-03,2.396311461925506592e-01
-1.780206455301615309e-02,-1.885443909027261777e-01,-3.934103919520871157e-02,-4.374039974134297237e-02,1.992697152779074332e-02,8.616809485742127350e-02,2.348297238349914551e-01
-5.217551074493521901e-02,-4.035541278503509965e-01,-5.266454854845879774e-02,-1.427255316689107940e-02,1.894293653871514244e-02,4.320182460841069834e-03,3.536084592342376709e-01
-3.802585605525328483e-02,-3.875473258901960261e-01,-4.136493852994573006e-02,2.781335134803181522e-02,5.913702525341703580e-04,-5.091821551659415912e-03,3.512960374355316162e-01
-3.791110885226768590e-02,-3.693449331088268783e-01,-3.618638142773925037e-02,-1.536447837033752019e-03,-5.348865313530059076e-04,-8.406426287311969401e-04,3.323146700859069824e-01
-3.976510223620843831e-02,-3.688396301878872352e-01,-4.377484620357705025e-02,1.462533947230018616e-03,-7.169192547785710684e-04,-2.252337530835833712e-03,3.271235227584838867e-01
-3.382912534192870913e-02,-3.709460633642102101e-01,-3.934836301574527739e-02,-3.505683892635074253e-03,-2.739432806784096106e-03,-8.419870313154413297e-04,3.344834446907043457e-01
-1.692193590208873610e-02,-3.394479478991162535e-01,-5.127909431427180031e-02,-1.340045507766666111e-04,-1.238062054742840529e-03,6.863242223268273962e-04,3.068035840988159180e-01
-3.125442603534588082e-02,-3.677738351477510825e-01,-3.775008190444552325e-02,-9.362413751440848333e-04,-1.023745833783199118e-03,9.521318572225083042e-04,3.333317935466766357e-01
-3.358730172967953898e-02,-3.700064798150107248e-01,-3.650020555755970064e-02,9.338941001342425862e-04,-2.678276919624344500e-04,-1.130357936517188905e-03,3.349821865558624268e-01
-7.090801719512579426e-02,-1.893834135645165451e-01,-6.447219204955770278e-02,1.208280011426023266e-03,-2.576444134764038687e-03,3.493827005080031578e-03,1.220706403255462646e-01
-3.998439994415098342e-02,-3.684364445539811683e-01,-3.022474476848278913e-02,2.071860166960166633e-03,-1.214812180318017309e-04,1.454773494879451137e-03,3.334679007530212402e-01
-5.294314573315749006e-02,-2.735345216415344671e-01,-4.689896928096297379e-02,-5.539562137293888760e-04,-1.285756434968894288e-02,1.872414917852339685e-03,2.248060703277587891e-01
-2.937134056526152781e-02,-3.764963916631434149e-01,-3.409463344726454403e-02,-2.075668787863824659e-03,-7.299091193529629561e-03,3.026083021912093392e-03,3.450779020786285400e-01
-5.497538066519919858e-02,-2.464746123124653687e-01,-4.465355981980502487e-02,2.945549596600825597e-03,4.824723569787229063e-03,4.407831463803816609e-03,1.972543150186538696e-01
-3.619697351394886298e-02,-3.879749852706525504e-01,-4.444086167033302337e-02,-3.412457269114407832e-02,8.073248524927788619e-03,9.805589938553353063e-03,3.534022569656372070e-01
-3.718899268718162121e-02,-3.635493360743567437e-01,-1.972453019165139321e-02,-7.174738577533623088e-04,1.956356667747967404e-03,1.840510343115898820e-03,3.354682922363281250e-01
-3.432683871908702444e-02,-3.712113869475058836e-01,-3.879189688631407007e-02,-9.343993534418830460e-03,-4.241718678729255315e-03,7.595629261428877253e-03,3.354040980339050293e-01
-3.915014536494920705e-02,-3.727967520679587032e-01,-4.068769276936935742e-02,-1.808575903142516431e-04,-1.156871362094338525e-03,-3.866154310819966237e-03,3.329540193080902100e-01
-4.330605229836140269e-02,-2.430541193896695873e-01,-5.633799890866657972e-02,4.208805515773753926e-03,3.997626711766416423e-03,3.105279305835194695e-03,1.938969492912292480e-01
-1.033194206259915870e-02,-3.559665300854618630e-01,-4.656059762212820530e-02,5.258963774313769532e-03,1.904259914524985197e-03,1.176427038903299490e-03,3.291684985160827637e-01
-2.484578164019081437e-02,-3.188711746293168003e-01,-4.640273537859204711e-02,-8.993874074685676706e-03,9.654888055967272842e-03,-8.591445238476791771e-03,2.851685583591461182e-01
-3.278338136426950378e-02,-2.543877417478910830e-01,-4.842869949048583811e-02,-2.226527536562849033e-02,-1.460368113360209323e-02,9.374819205245939549e-03,2.197200208902359009e-01
-2.289942371199327198e-02,-3.202277993534835554e-01,-4.659213535055527211e-02,-1.163499700823739103e-02,-1.020871896006373021e-02,2.765134325214284360e-04,2.874717414379119873e-01
-1.345971586180585988e-02,-3.480050213942185167e-01,-4.821331952655914799e-02,4.668454352760119559e-03,4.808595961312985521e-03,1.372606391309603817e-03,3.188136219978332520e-01
-2.165977343273657596e-02,-3.199404502971993081e-01,-4.733157721830576203e-02,-9.843036057921602730e-03,-7.824256119855399830e-03,1.166534551281398429e-04,2.871364653110504150e-01
-4.263855486827314301e-02,-3.648002717580255960e-01,-2.253380962628762085e-02,2.666649616485893253e-03,2.447509336540198109e-03,6.311223884468151850e-03,3.329086303710937500e-01
-2.426220852984738163e-02,-3.531695265174684684e-01,-4.152070546938500806e-02,1.016172226249053775e-02,7.518189248163100087e-03,1.052169199893276952e-02,3.218895792961120605e-01
-1.511721699110631090e-02,-3.522310433118883699e-01,-5.187980897142030479e-02,-5.715966033389586511e-03,-8.524279769614045727e-04,-7.630524436472314312e-04,3.204777538776397705e-01
-4.003845141766609883e-02,-3.685274654641934045e-01,-3.410061106411627074e-02,-4.898886018779625724e-04,-2.134006374546664007e-03,1.123785983652927315e-03,3.315252363681793213e-01
-3.046247887843542279e-02,-2.467577185801821948e-01,-4.494372127261214017e-02,4.033354348863840699e-02,1.299932088129511672e-02,2.043828085099479164e-02,2.247256487607955933e-01
-2.878505448902302088e-02,-3.433167730938470052e-01,-3.488944786788597541e-02,-6.370548754191049205e-03,-9.941355680930030053e-03,5.327653893740344655e-04,3.121963143348693848e-01
-3.435735536018384717e-02,-3.721102824724672464e-01,-4.108155174556395173e-02,-1.502579350965571950e-02,-1.325283494380476677e-02,1.052756066942776327e-02,3.367311358451843262e-01
-1.528640716744206207e-02,-3.417651951040661107e-01,-4.348753453068442132e-02,7.731563681630996112e-04,6.837812707860060901e-03,-2.356905489227502327e-04,3.135583698749542236e-01
-2.156345983722038340e-02,-3.600306666527435251e-01,-4.268625920219402958e-02,-4.925945651982578319e-03,-5.890314874113690077e-03,-1.155658124543579605e-03,3.286909461021423340e-01
-7.868356680994202657e-02,-3.807069910976751959e-01,-3.158913795470016939e-02,2.996601548497189720e-04,4.994946591156168613e-04,-8.207654624368047706e-04,3.281199336051940918e-01
-3.577348594810897398e-02,-3.698675264879606184e-01,-3.142729430637672405e-02,2.178908240292146657e-03,-2.988169412224896300e-03,-2.305759723781026539e-03,3.363729119300842285e-01
-3.805609246018197556e-02,-3.705595864552490015e-01,-2.671507367228954932e-02,8.107980344199861467e-05,-2.349754979650649136e-03,-2.731049375800308990e-03,3.383741676807403564e-01
-3.632590150689900266e-02,-3.629249668739011336e-01,-3.489763434577124179e-02,-7.551672462199337556e-03,-4.089569641301300622e-03,2.900972197930504811e-03,3.276918828487396240e-01
-1.998241956875240755e-02,-3.620191714052242160e-01,-3.901808251443773801e-02,8.619211352303828358e-03,6.555624634912103274e-03,1.216537953112730840e-03,3.334619104862213135e-01
-6.211986657873666551e-02,-3.734209523821663268e-01,-3.758958897638733920e-02,4.377763136075010428e-03,1.039962231142756372e-03,-1.756265787136062403e-03,3.243707716464996338e-01
-3.961395724886992986e-02,-3.643352916177980960e-01,-2.207312722580426212e-02,-6.663176747638466148e-04,-1.256350471009836864e-03,-8.024453980791817521e-04,3.338495194911956787e-01
-4.146915208897523908e-02,-3.546773474977527041e-01,-2.520289031616056163e-02,2.475149284238003199e-03,-8.822244438174774162e-03,-7.481558529417808336e-03,3.223018646240234375e-01
-3.889815902316941243e-02,-3.503870709639876346e-01,-2.117114190856679568e-02,2.824357970507494677e-03,7.305712545211741002e-03,5.191743412754776937e-03,3.211328089237213135e-01
-3.972713776755316950e-02,-3.668827597563982801e-01,-2.920001175562700335e-02,-1.725218289890141123e-03,-9.976367813760388375e-04,-4.157356323560319343e-04,3.325628638267517090e-01
-4.231885156481583754e-02,-3.652564273726691124e-01,-2.183260856210493539e-02,-1.390643992525866183e-03,-6.266023300293088912e-03,-4.214449660634589021e-03,3.339176774024963379e-01
-2.903830082638739207e-02,-3.502432180238613246e-01,-3.144986653797429699e-02,3.288976386808624072e-03,-1.241407542631099530e-02,-5.289789788318949651e-03,3.209089040756225586e-01
-7.450048276106895073e-02,-3.889469618336403034e-01,-3.100325003107676225e-02,-1.089737778944813726e-03,7.649940689631361604e-04,-2.085409450763236073e-03,3.383260369300842285e-01
-4.183874153395515660e-02,-3.745834612801230978e-01,-4.217547740315343019e-02,1.871391813003940455e-03,-7.164965931544821885e-04,-3.516964132708302274e-03,3.326503634452819824e-01
-4.122566475571770583e-02,-3.598190443352862200e-01,-2.946846006179885957e-02,-1.099534822049874237e-03,-8.309782083119542865e-04,-1.222390901392388270e-02,3.253301680088043213e-01
-5.207675111666110190e-02,-3.556795225051075926e-01,-1.178145614273165553e-02,-3.858533540977278093e-03,1.553697508564272009e-03,8.567663605852428657e-03,3.260433077812194824e-01
-5.831429817507272073e-02,-2.751569823888905253e-01,-2.765559277122392468e-02,-4.044639473807342366e-03,-2.597658235302650713e-03,3.223598253834662059e-02,2.404071986675262451e-01
-3.284313864090521173e-02,-3.669658908732629232e-01,-2.930554227912765541e-02,1.150332463602133385e-04,-5.968057108006297835e-04,6.672977957673920492e-04,3.359091579914093018e-01
-2.651367577925003993e-02,-3.546185387634424035e-01,-3.908318389385465053e-02,-4.760743078110659873e-03,-9.877940542853257122e-03,3.703921617051704647e-03,3.226275742053985596e-01
-3.548913461778946399e-02,-3.189059870713146783e-01,-4.507205435102860924e-02,-2.189880065018775471e-03,-1.163350707561760546e-02,-1.142080096500000525e-04,2.795020937919616699e-01
-3.037232034243039780e-02,-3.684841043346935852e-01,-2.937030776589823200e-02,-3.011531422794880178e-04,-1.833282786572334707e-03,-1.153112480143421442e-04,3.386292457580566406e-01
-5.009518371409459048e-02,-3.117287819561214146e-01,-3.068687693772223501e-02,6.197203909001770643e-04,-1.077384003983351303e-02,1.393796035547821078e-03,2.725103497505187988e-01
-4.468577151354896637e-02,-2.397994813161280769e-01,-4.742055818869464479e-02,-6.264524233504902007e-02,1.340121847168186946e-04,1.495176499077036092e-02,2.235782742500305176e-01
-4.337307513295201450e-02,-2.199054311812218554e-01,-5.066531364714261382e-02,-3.406809354344077743e-04,3.889427759410896569e-03,-3.307546860065951368e-03,1.732284128665924072e-01
-3.549966777135739326e-02,-3.702622561975673632e-01,-3.965108686270069072e-02,-1.183627114947084433e-03,-1.371958664720933840e-03,-5.091310923715852222e-04,3.327222764492034912e-01
-4.241610562392056361e-02,-3.762963539328468832e-01,-4.697074584698519850e-02,-3.304987176715605372e-03,9.706513204000499166e-04,2.185462698074200870e-03,3.317016363143920898e-01
-3.271799588306981144e-02,-3.694638725564397541e-01,-3.210233572285085824e-02,-9.161105834666331176e-04,-1.981396718418100902e-03,7.525450517699738048e-04,3.370778560638427734e-01
-3.575560298519597779e-02,-3.586351409100895227e-01,-2.314937935678679226e-02,-1.285428527950137085e-03,-5.818171226264016657e-03,3.138630427370411088e-03,3.295701146125793457e-01
-4.376194626346112393e-02,-3.530472486463092086e-01,-1.276176814562633710e-02,1.505054183624627683e-03,1.908440338625259957e-03,1.646970092759029612e-03,3.259327709674835205e-01
-3.692937180711082512e-02,-3.587999114663394384e-01,-2.307766624005619382e-02,-2.666788293949288752e-03,-5.692720842865622854e-03,3.664890222495771448e-03,3.292564749717712402e-01
-4.174531340777201671e-02,-3.732169680735013539e-01,-2.821238277910553816e-02,2.647141769362087050e-03,5.555003885394858322e-03,2.282712418068196317e-02,3.409093916416168213e-01
-3.639498588500991727e-02,-3.702560638016939576e-01,-4.221597670135575353e-02,5.160458456383557393e-03,9.128020356527018122e-04,-6.487098111732147792e-04,3.311153054237365723e-01
-5.167925635563808823e-02,-1.189998883481854508e-01,-2.723869991539180219e-02,4.363063719349028619e-02,-6.108752909866696154e-03,-9.621641792091436066e-03,1.134695485234260559e-01
-3.474540333808025239e-02,-3.608254562030270285e-01,-3.702186498836233797e-02,-5.683798340950686409e-03,-3.533392743770508940e-03,5.945482483771516100e-03,3.253175318241119385e-01
-4.143028116922276016e-02,-3.493769880568978192e-01,-1.932993657313740454e-02,1.202923611794265478e-03,8.755000871550868563e-03,4.986655807833234762e-04,3.199380636215209961e-01
-3.508521482188584062e-02,-3.725475527620886185e-01,-4.543274068848680847e-02,-2.622187814451133400e-02,-7.090246054081905322e-04,8.576197218348319273e-03,3.358287215232849121e-01
-2.761113505487440556e-02,-3.648380592224464980e-01,-3.404205406170038306e-02,1.117098031649326568e-03,1.576668955708717497e-03,3.614644298309415988e-04,3.340752422809600830e-01
-3.764275064346526978e-02,-3.384681369754023450e-01,-3.105109860416944978e-02,-1.119314101508364807e-02,-1.483402730589353929e-02,2.101349343403428882e-02,3.080308437347412109e-01
-1.630400012741459181e-02,-3.579362036223698307e-01,-4.142774758503868504e-02,8.535769170054184184e-04,2.704051061748482480e-03,1.073555290344540853e-03,3.298306465148925781e-01
-2.737769969210845922e-02,-3.667984517225361119e-01,-2.863649165727111257e-02,-6.778835582476731055e-05,1.486719073496168414e-03,3.409050374204812268e-04,3.388034403324127197e-01
-7.136159212553914999e-02,-3.542756774904619044e-01,-4.676953709751824340e-02,-1.204082352978540493e-01,1.308007968978920285e-02,6.196028006005614708e-02,3.783219754695892334e-01
-3.106474187878213722e-02,-3.668183279596278767e-01,-2.826689252718743439e-02,6.373623029128357522e-05,1.552514423827695226e-03,6.759347180869791985e-04,3.371739983558654785e-01
-2.029322349408294035e-02,-3.426101113296537992e-01,-4.431724250679158761e-02,-3.407154523165772117e-04,9.534050417718646642e-03,-1.011451681841141317e-04,3.114402890205383301e-01
-2.200287285485993949e-02,-3.617520972437480165e-01,-3.418315636596257201e-02,-7.290501040645048917e-05,3.439079586434258193e-03,-1.760190399086025692e-04,3.338790833950042725e-01
-3.082845248533895577e-02,-3.797776432084832843e-01,-4.265319499197631203e-02,-1.131104603940730723e-02,-4.094072058721265513e-03,3.571688802291050381e-03,3.438771665096282959e-01
-1.417407050707242266e-02,-3.561358545146842136e-01,-4.396050520482916446e-02,-2.772375165901708161e-04,1.311509042397549863e-03,7.743791978501323890e-04,3.280951976776123047e-01
-1.415777660113398673e-02,-3.632033192923584952e-01,-4.915497624649292630e-02,-2.135481230396163357e-03,-9.370665468218028612e-04,-9.164184851034278120e-04,3.329576849937438965e-01
-3.889463208853587151e-02,-3.631470502819453272e-01,-4.133867071467148269e-02,-5.204709560864782120e-02,-5.601281474918846058e-03,4.911190922601279402e-03,3.356282114982604980e-01
-4.174502702455540337e-02,-3.533726091666904434e-01,-4.209126189174769439e-02,-3.540034310068290030e-02,6.025308984735758266e-03,2.505640091923798385e-02,3.205556273460388184e-01
-5.426166558590394401e-02,-2.036876029194086279e-01,-5.285586198816542153e-02,-9.056574886711291072e-02,9.892928565616753572e-03,7.125794746541637414e-02,2.503463923931121826e-01
-4.627406290977531533e-02,-3.667805399597053317e-01,-1.468696727792875856e-02,4.050707873062247134e-04,3.664731073450394703e-03,-6.033382888538304026e-03,3.376329541206359863e-01
-3.644501537322945850e-02,-3.359049976896086864e-01,-3.216009790306956218e-02,-5.998918871898956248e-04,-1.329699911611889780e-02,4.321772738731688868e-04,3.025059998035430908e-01
-3.290209682663330915e-02,-3.710523240545554602e-01,-4.096166786434660145e-02,-4.319357477090396934e-03,-1.700928467437741714e-03,-3.108737438652653569e-03,3.343334197998046875e-01
-4.415531397445493500e-02,-3.645750690511491143e-01,-1.975113543109546788e-02,-1.779038268491374680e-03,1.513401020896513625e-03,1.169474610214261924e-03,3.333233296871185303e-01
-3.041590526508113068e-02,-3.696249061439284000e-01,-3.072679968890969227e-02,-4.219977994488437862e-04,-1.268396936576906718e-03,-5.868181685352159664e-04,3.390630781650543213e-01
-3.782717480376134034e-02,-3.364985300851032202e-01,-3.499915494928744486e-02,-4.789446956813737553e-04,-1.136737667305635739e-02,1.652545979359417404e-04,3.007418215274810791e-01
-4.606889541745272376e-02,-3.640312264487406968e-01,-1.574424820140365999e-02,-6.432393726167457120e-04,2.773510831723167633e-03,6.801963186615691279e-04,3.341966867446899414e-01
-4.209111176974066060e-02,-3.608324797921096394e-01,-2.676957063548572602e-02,-3.599883258196609395e-03,4.074267561680033553e-03,-1.412391725012431855e-02,3.277217447757720947e-01
-4.370905453673640251e-02,-3.675264721208458818e-01,-2.001471990119739475e-02,9.940348493432758087e-04,1.510256967139934079e-03,-1.009918532125676912e-04,3.363058269023895264e-01
-3.059772376450990705e-02,-3.698214529425995489e-01,-3.040238319777417708e-02,-2.456885742238887988e-04,-2.907312709719430364e-03,8.143847816612943130e-04,3.393619954586029053e-01
-3.657330798155035423e-02,-3.699605077000172604e-01,-3.751403494040417286e-02,-1.521249059782021039e-03,-3.355243585720897939e-03,6.799451401465548932e-04,3.329810500144958496e-01
-4.044914214301592592e-02,-3.780225919034944093e-01,-4.698359974957309892e-02,2.439558002403826361e-03,-1.577390637014771790e-03,-2.005409630103381462e-03,3.344100117683410645e-01
-4.313920454422158490e-02,-3.716709985695557106e-01,-2.030560320622669390e-02,-4.620265512262962003e-04,1.615210000921029048e-03,-5.351212934427805471e-04,3.405369222164154053e-01
-3.931709707492450634e-02,-3.544149645778745805e-01,-2.188727002878079753e-02,2.191928876593437321e-04,4.343830006277071658e-03,-4.872783364655758928e-04,3.242530226707458496e-01
-5.537129645352566187e-02,-3.118652522969437291e-01,-2.625575218110813569e-02,1.715976906873469899e-03,-1.037610575366345114e-02,2.329889525119131256e-03,2.728606462478637695e-01
-1.045990229681830266e-02,-4.231755781819335205e-02,-4.098802778319027285e-02,-2.472992195428594733e-02,-1.553240111509022851e-02,1.819893130764106345e-02,6.727851927280426025e-02
-3.946928284678878629e-02,-3.656929611017993853e-01,-2.121970939029486913e-02,-2.645241112683615042e-03,-1.342673381047811317e-03,8.462555512821018583e-04,3.357631862163543701e-01
-6.652228419915344471e-02,-1.617603650949313021e-01,-6.808075785785672185e-02,1.617283674258454193e-02,-7.963951877555991345e-04,2.920118673335371593e-03,9.867350757122039795e-02
-3.488546404575049165e-02,-3.805929042229846959e-01,-7.248049254768167138e-02,-2.684470007789551988e-03,-8.604930615921628370e-04,1.371513709376091621e-02,3.294211626052856445e-01
-3.144026168298832968e-02,-3.881254014919309769e-01,-5.549159490146941820e-02,-3.479569118219465098e-03,7.001588267929362936e-04,1.047067503226919603e-03,3.453477621078491211e-01
-3.285609969294442378e-02,-3.778591250667717727e-01,-6.766789098342261555e-02,-4.581363628984213426e-03,-5.031053080086424212e-03,4.770541113463580216e-03,3.292961418628692627e-01
-3.558457631580463909e-02,-3.760751739377393710e-01,-6.977845835602004831e-02,-5.389171373469240668e-03,1.706819643958798873e-03,7.904616583052543471e-03,3.251825571060180664e-01
-3.573294063504842133e-02,-3.777626061559782311e-01,-5.476640126321000168e-02,-6.314201108669229186e-03,2.082098805214890804e-04,1.632717290125063406e-03,3.331130445003509521e-01
-5.047176667258665428e-02,-3.546884123248488230e-01,-1.195301244147900510e-02,-2.663827362523288095e-04,-2.162849401838542150e-03,2.531741062742286739e-03,3.252429664134979248e-01
-5.051080905912533336e-02,-3.302158105088505713e-01,-1.314122966900722889e-02,2.930160889128014499e-03,5.262991832748965988e-03,1.282842008496260303e-02,3.011417984962463379e-01
-4.174022864889596895e-02,-3.728482165696148098e-01,-5.130392252591475799e-02,-4.073051660402269604e-03,1.065999918663859333e-02,8.639051427470246722e-03,3.273712396621704102e-01
-3.851145694314841994e-02,-3.718570820384772824e-01,-3.458073828447666420e-02,3.097537590520080784e-03,-2.806818652868010508e-03,2.159089805427668349e-04,3.354066312313079834e-01
-3.629429846897250234e-02,-3.811953964217301705e-01,-4.814480345613236789e-02,-6.289347317782088657e-03,-6.926880576054940571e-04,2.394599102946703625e-02,3.418337106704711914e-01
-4.639873843091633920e-02,-3.558974290027129839e-01,-1.518510772650981389e-02,1.726369983118464626e-03,1.391589304129841904e-03,3.124306098591541053e-03,3.262948691844940186e-01
-5.266105783078547931e-02,-3.332104943192767399e-01,-1.333072237475715904e-02,8.458848100453308146e-04,-2.624978500103716719e-03,1.221003761762532195e-03,3.021858036518096924e-01
-4.645456758575566836e-02,-3.564095811631268762e-01,-1.734836344860957169e-02,2.667222100307904470e-04,3.303338012971730742e-04,1.655496851873020482e-03,3.254990875720977783e-01
-5.627563620550382617e-02,-2.936598334561580925e-01,-2.487816204517032115e-02,1.833165920313545739e-03,-3.788862028729449421e-03,2.255088483585724560e-03,2.546737790107727051e-01
-4.838917049632923684e-02,-3.535000387028716662e-01,-1.108341534308329712e-02,8.051433261601199888e-04,1.697127081497434116e-03,1.175418663682266385e-03,3.253943622112274170e-01
-5.057343387687752989e-02,-3.443150196421348452e-01,-9.419174772383603900e-03,-1.153422414322543372e-03,7.258911944018326236e-04,4.335378887229018527e-03,3.164308369159698486e-01
-3.030632388603948790e-02,-3.386534664792782423e-01,-3.401230477484235015e-02,-2.394499562851389973e-04,1.098508772559397828e-02,7.814433648911244153e-05,3.071012496948242188e-01
-4.048026178586514034e-02,-3.697714976124401032e-01,-4.006869228106113567e-02,-8.801345752345005220e-04,1.629966701391663336e-03,3.861847095187708259e-03,3.295807242393493652e-01
-4.574149387303959313e-02,-3.428576840176909002e-01,-1.894295835478040924e-02,5.049068386369764396e-04,9.891869999523090345e-03,-6.317557263070002318e-04,3.118557035923004150e-01
-4.314104098316047520e-02,-3.089466457332943339e-01,-2.769921404599924586e-02,1.015513154689939466e-03,1.060810859382937434e-02,1.588714997956856660e-03,2.744883596897125244e-01
-1.326517767791147995e-02,-3.453550765607604767e-01,-4.797936016434754813e-02,4.519515683243873795e-03,4.799353443691528089e-03,1.149022541496240836e-03,3.163777589797973633e-01
-2.736172171517095575e-02,-3.648568422826704016e-01,-2.898672414526425045e-02,2.698644407442633278e-04,8.969401141822979902e-04,-4.430717775455938427e-05,3.366894721984863281e-01
-2.706267270139506298e-02,-3.646316278916503784e-01,-2.576354301063576990e-02,4.835307421705169108e-04,4.461010154809407977e-03,8.998708209435657196e-04,3.383132517337799072e-01
-4.456580440024869583e-02,-3.533096524216888801e-01,-1.648894362574808425e-02,-3.827958122489708384e-04,4.247222989518004144e-03,-1.885330228006836559e-04,3.237812519073486328e-01
-4.972021017151601052e-02,-3.565815350934651295e-01,-1.521705047785962273e-02,3.069594065899597986e-03,1.706314086958776125e-03,2.771955014824666226e-03,3.255796134471893311e-01
-4.805216965782123373e-02,-3.495595226243067843e-01,-1.123498295575642292e-02,9.221313040968398024e-04,1.733758589864973013e-03,1.576971944684334376e-03,3.215305209159851074e-01
-2.832891959222436085e-02,-3.669949794245153107e-01,-2.945823105553858900e-02,7.906815281781684121e-04,1.724240861905130748e-03,-2.960110032890841156e-04,3.381191790103912354e-01
-2.555042571200168144e-02,-3.511145872528460554e-01,-3.489453308853324165e-02,-5.541645819046431796e-04,8.583898051448038066e-03,-2.492750098422534511e-04,3.213399946689605713e-01
-2.708771521478836597e-02,-3.638416017648389289e-01,-2.944541954068005674e-02,7.633284025060605663e-04,4.449663739542148409e-03,3.953341790679178354e-04,3.356730341911315918e-01
-4.522584439240519283e-02,-3.358318053281647009e-01,-1.557111843583812438e-02,4.224587222895844927e-04,3.310445645044901575e-03,2.332196604711574139e-02,3.092154860496520996e-01
-4.964906770082168352e-02,-3.486310958434721829e-01,-8.253637901883048578e-03,-1.522603055725787243e-04,4.348982783852930307e-04,-1.746843748750359713e-04,3.216847181320190430e-01
-2.965247226498510247e-02,-3.677187008648621358e-01,-3.500056452324473710e-02,5.983108493098956635e-03,5.518669976167693905e-03,5.496178342898358146e-03,3.358552455902099609e-01
-5.129967183828569588e-02,-3.522098784145130113e-01,-8.681985015416282536e-03,5.630411962436338838e-04,3.331002226419074253e-04,2.402607359760429526e-03,3.243546187877655029e-01
-1.264127592551306245e-02,-3.330884600915273164e-01,-5.336814806808098943e-02,1.253742752622049976e-02,-2.420494492513951094e-03,-2.674104927764781297e-03,3.029931485652923584e-01
-3.351092245774679734e-02,-3.672352321485655713e-01,-3.181760167463194844e-02,7.343578828143062663e-05,-3.700090804324549952e-04,8.824783800848105386e-04,3.345783054828643799e-01
-4.243515149867864433e-02,-2.661134324184026290e-01,-5.114531009581312071e-02,3.475599910167120887e-02,-1.295070140298316096e-02,-4.981758394670067654e-03,2.288255244493484497e-01
-3.543220411377576151e-02,-2.444546052911766576e-01,-6.041831091683862870e-02,3.894027142224402299e-02,-6.617492218948332547e-03,-3.037267345267966046e-02,2.157311290502548218e-01
-3.954619032284915903e-02,-2.690691271019380881e-01,-4.005920905506303586e-02,-4.114862057647342836e-02,3.390545936024440699e-03,1.180753710256437182e-02,2.410304099321365356e-01
-2.758037610908145587e-02,-3.684957576604740992e-01,-3.438491084150809007e-02,-3.720431351080145271e-04,-8.760140997871446308e-04,-3.609532030992961818e-04,3.375691473484039307e-01
-3.166766289579746319e-02,-3.641396268574144113e-01,-3.255691955976952601e-02,2.301391443942859703e-04,-4.715810584382802532e-03,-4.397369213423928200e-04,3.321298062801361084e-01
-3.805955060945542812e-02,-2.560051772697236050e-01,-4.566562952675744247e-02,-1.436839676990637506e-02,-1.310154758772578629e-02,1.522708081856516404e-02,2.184727340936660767e-01
-5.773960803638233941e-02,-3.692209639046125647e-01,-4.328147684766356362e-02,-1.931204875674136885e-03,-2.128200269854200414e-03,7.174800405946139012e-05,3.189951479434967041e-01
-5.611295920423245431e-02,-3.882245023342063561e-01,-4.519746368377673684e-02,-6.372881958224629363e-03,-1.612087239955358950e-02,4.280531472259114373e-03,3.391147851943969727e-01
-2.755798393177170957e-02,-3.695361628420872901e-01,-2.939317586307794994e-02,2.153336238490471889e-04,-1.471452066420248254e-03,-2.946488966070713047e-04,3.410744071006774902e-01
-5.160936114583632162e-02,-3.649536929960157106e-01,-4.889417419012928590e-02,6.679357317024193922e-04,-2.276538504717726206e-03,4.060124926776282695e-04,3.147383332252502441e-01
-3.456792089274747515e-02,-3.702836013638660662e-01,-3.873745426210530030e-02,5.585251529720252316e-03,3.124759201980585425e-03,3.773642285271131599e-03,3.338985145092010498e-01
-3.160864418215245109e-02,-3.659378644541731451e-01,-2.356515875604028865e-02,2.115389583005421843e-04,-3.854192684226688537e-03,1.349308197276873783e-04,3.384887874126434326e-01
-4.340293847167625563e-02,-3.198379059241425182e-01,-3.111291446485876799e-02,-1.026146000188290879e-02,-1.344831831821463250e-02,5.979850022338641232e-04,2.842960953712463379e-01
-6.259128874481738325e-02,-4.203013867575333684e-01,-4.404009313902126910e-02,4.241889147952640146e-03,-8.935040921709542019e-03,1.668200789570495682e-02,3.688698410987854004e-01
-2.877470904137389984e-02,-3.631334623869040268e-01,-2.857417761764487196e-02,-3.812852510347450536e-04,-7.917549447740087482e-03,4.207909589400577735e-04,3.347415328025817871e-01
-3.962070399280992472e-02,-3.536391643313110400e-01,-2.809458955805163582e-02,-1.296864360659054491e-04,-6.651311499363222676e-03,4.012752632138678931e-04,3.201454579830169678e-01
-4.490495744086346608e-02,-3.228624676139363325e-01,-2.099925234442748256e-02,4.284862518743656062e-04,-1.014469688799164195e-02,-1.229598699316704347e-02,2.919580340385437012e-01
-4.703551805396337382e-02,-3.052489569383923240e-01,-1.959511050032915203e-02,1.360275123158409668e-03,-6.317736378105821837e-03,-1.751135626534196937e-02,2.748779356479644775e-01
-3.962426661148053808e-02,-3.574673408055343837e-01,-1.621188912051899078e-02,3.172528744145774386e-04,-4.550732383872714039e-03,3.711750462248121279e-04,3.302675783634185791e-01
-4.789586652797851729e-02,-3.450012451665989133e-01,-1.035375620558524890e-02,-2.742501088011275838e-04,-3.308773456858640424e-03,-1.701997486325357387e-04,3.175974488258361816e-01
-4.698423675903994068e-02,-3.576782714948912312e-01,-1.406705936288737968e-02,-1.795733460282267040e-03,-1.524874533438281459e-03,2.316583982521145703e-03,3.284421563148498535e-01
-6.131292852149856920e-02,-3.776971409611281638e-01,-4.113392186101620662e-02,-3.619231543134522697e-03,-3.340083275609995531e-03,-1.958287053447698919e-03,3.270699381828308105e-01
-5.054903524241813328e-02,-3.328597344429826133e-01,-1.303738616929443761e-02,-4.700594361425321850e-04,3.093547957645385611e-03,1.450275623260620849e-03,3.028730452060699463e-01
-5.123674501494103473e-02,-3.519660275084683931e-01,-1.182476500667431485e-02,-1.188822157306435858e-03,-2.421890698046542771e-03,2.531450499035153671e-03,3.223116695880889893e-01
-3.845548717834756935e-02,-3.324569708514547584e-01,-3.365672482698109369e-02,5.254637910336516088e-02,1.081939149033874122e-02,-6.196517589925994163e-02,3.286705613136291504e-01
-2.976874328917925028e-02,-4.429327607323348404e-01,-7.063911877600946576e-02,-1.427228688144164398e-02,9.254622648391188505e-03,7.862650583648180674e-03,3.956541717052459717e-01
-1.804384393401775588e-02,-4.177800004399291334e-01,-4.676875939442669272e-02,-3.102885399675612416e-02,1.264445962659547021e-02,-4.382799819163349722e-03,3.905859291553497314e-01
-6.148709178446862267e-02,-3.174531427699630592e-01,-1.943866684641971931e-02,-1.929664264505805268e-03,-6.381931213813602649e-03,2.111709571952341546e-02,2.819943428039550781e-01
-3.203842145328175683e-02,-3.927820538838368014e-01,-6.834175047725761509e-02,-3.946357728959758171e-03,5.129637021880627777e-03,1.499459096280226361e-02,3.451925218105316162e-01
-3.620032398466077606e-02,-3.842402976213945553e-01,-6.924535510956823792e-02,-1.704321953628424452e-03,1.132811096892600775e-02,-7.314527175790033059e-03,3.335820734500885010e-01
-5.087452513866594361e-02,-3.468266647333689834e-01,-8.150455213056628789e-03,5.634954166431963007e-04,6.033260801302210924e-04,-5.797818435446668950e-05,3.194672763347625732e-01
-5.192553604796269762e-02,-3.493725577901546364e-01,-1.106013580011819264e-02,-3.489119710425873022e-04,2.788557861970262196e-03,7.659532299804063448e-05,3.198807835578918457e-01
-5.943816347956183688e-02,-3.342070216005710304e-01,-1.337656569933398654e-02,-9.399833598959228802e-04,5.163573812559626216e-04,1.167454424165987117e-03,3.004720211029052734e-01
-4.097145907567999179e-02,-3.264730054510824875e-01,-3.606694385650685564e-02,5.786232062099034776e-03,-1.406400942830701890e-02,-1.163645697807865354e-03,2.891942858695983887e-01
-5.105833682606264468e-02,-3.401002511656225913e-01,-8.895139571929666644e-03,-3.333333366490604096e-04,2.799173852145901004e-03,7.776817589441504391e-03,3.125942647457122803e-01
-4.655464857175928284e-02,-4.006063219390079144e-01,-4.464800265048883554e-02,4.298945334346668278e-04,2.166271535496875830e-02,-3.967428231425975879e-03,3.570530414581298828e-01
-3.266177310549253643e-02,-4.043155635333733899e-01,-6.991061204955997810e-02,-1.035303794449887564e-02,1.550827420260513997e-02,1.440458172376266185e-03,3.559770286083221436e-01
-4.352241845217300065e-02,-3.418451355825271043e-01,-1.420999748407607288e-02,1.653013905921657769e-05,6.677846237068347027e-03,5.065713960947242252e-04,3.142209053039550781e-01
-3.765244424452565686e-02,-3.673948261325037379e-01,-4.011019220362409266e-02,1.784949487513980875e-03,1.058863415043496048e-03,-5.694111395702472055e-04,3.285415470600128174e-01
-6.579911514313334375e-02,-1.651068051619563049e-01,-6.486298139844445809e-02,5.288525156321848561e-04,2.220650400445823918e-04,2.516050718829457473e-03,9.987911581993103027e-02
-6.388516837962895933e-02,-1.339823006052967280e-01,-6.108638586083493804e-02,1.908367831711068816e-02,-9.179092116093140116e-04,3.066491756609296404e-02,9.504592418670654297e-02
-3.641438836751248465e-02,-3.598025232809645146e-01,-2.255458311409655470e-02,-3.738016868940121501e-04,4.208803486347831475e-03,-3.647007125689005064e-04,3.306176662445068359e-01
-3.763957690140141976e-02,-3.620656102099689688e-01,-2.219805899735727284e-02,1.443263105459024727e-03,1.934430575300335152e-03,2.738408598248239043e-03,3.324759900569915771e-01
-6.944510525030947456e-02,-2.106471439948729985e-01,-7.450199910143065485e-02,-7.425321583738497995e-03,-2.755119647836680018e-03,-7.898852298456989635e-03,1.400888860225677490e-01
-5.234288121486742329e-02,-1.892322264867699610e-01,-6.017494944499113957e-02,1.714788183517789583e-02,-1.068134975591140609e-02,-3.562854582013184890e-02,1.508658677339553833e-01
-3.944524521857815935e-02,-3.575537632437072455e-01,-1.629651278738569742e-02,8.925178839842251273e-04,1.729406441332002366e-03,8.034997294475707593e-04,3.303119838237762451e-01
-4.052172444564340614e-02,-3.702508331992262480e-01,-4.392758315176185924e-02,2.768850239646615161e-04,2.193111986986386042e-03,5.912684867677437794e-04,3.280633687973022461e-01
-3.347561222268942427e-02,-3.520220975918297857e-01,-2.490101555292405233e-02,-1.084093425746611092e-03,9.440186977797910065e-03,-9.883865531449698844e-04,3.233428597450256348e-01
-3.565012082281972250e-02,-3.515293792851962862e-01,-1.935419774449353980e-02,-6.077282269435972488e-04,7.874313558329792961e-03,1.314315244516765812e-04,3.246228396892547607e-01
-2.673267307594288933e-02,-3.651601501227154101e-01,-2.954153426266117877e-02,-6.732219661579283984e-04,2.973211089237510953e-03,-1.496326132508308062e-04,3.370732963085174561e-01
-2.949673740751415640e-02,-3.604690140431147105e-01,-2.547038556478171956e-02,-3.230852464217240914e-04,5.889298907812388906e-03,-1.943541318128842461e-04,3.331605494022369385e-01
-3.284097999306460902e-02,-3.448084184132524377e-01,-2.667226276861636713e-02,2.270538170200174326e-04,9.579501107187585879e-03,4.954176444983179883e-03,3.156505227088928223e-01
-2.905585969651017231e-02,-3.644825041398951360e-01,-2.595794259876960108e-02,6.730714184306211189e-04,4.553943049422242741e-03,1.253832106655431962e-03,3.370876014232635498e-01
-3.129957681403620906e-02,-3.666932060083329392e-01,-2.481390110876809107e-02,-4.348216981297684078e-04,1.370529503192758399e-03,1.058750836744659467e-03,3.386971652507781982e-01
-2.214360072609213026e-02,-3.639998142740638043e-01,-3.439826019465787310e-02,-1.199304348776568168e-03,3.465434089801741439e-03,1.634078578328319875e-03,3.359685540199279785e-01
-1.426583033156003655e-02,-3.586083731155844112e-01,-5.067478209629977526e-02,1.730405926014201210e-04,-1.528790035092017757e-03,-2.473731190627404116e-04,3.276698589324951172e-01
-3.922048984855770748e-02,-3.559533406331812921e-01,-1.570860390347983415e-02,2.016153028122988876e-03,6.499871188858712470e-03,5.255301663441080268e-03,3.294560611248016357e-01
-3.840625019691480679e-02,-3.474922756514225997e-01,-2.041603553101518920e-02,4.130135446548423837e-04,9.030898549386197002e-03,3.097006944596763893e-04,3.188476264476776123e-01
-5.135061770471631426e-02,-3.692119428444824436e-01,-5.105809222439937345e-02,3.291288280450482568e-04,6.884120310695250426e-03,-1.614801020360456286e-03,3.182439506053924561e-01
-5.561069920892418306e-02,-3.791605942885376557e-01,-4.055217486378991099e-02,-4.614160754523176540e-03,-2.212332053522286877e-03,-4.760861081728264693e-03,3.315569758415222168e-01
-3.594154153613479674e-02,-3.178823010657861881e-01,-4.958368236897117698e-02,-1.110739947527993477e-03,-1.366302361786080749e-02,3.387172348398730147e-04,2.763955593109130859e-01
-4.020577198153305054e-02,-3.583684717675370557e-01,-1.943614450297367902e-02,7.510421922190774029e-04,-2.021927351481453503e-03,-9.817278560517012607e-04,3.290651142597198486e-01
-4.387323170732289335e-02,-3.686876378286710332e-01,-4.752385639371305148e-02,-4.811726381384594806e-04,7.582376094236842985e-04,-2.317842536903996168e-03,3.230332732200622559e-01
-4.196653535580757710e-02,-4.449098259474957295e-01,-3.839041163087220099e-02,2.741276784710935249e-02,1.154029693886493829e-03,-2.184601730156694732e-02,4.092763960361480713e-01
-5.181512308508043341e-02,-3.660536058982076790e-01,-4.033245720320276229e-02,2.212637923640987589e-02,-2.138327329403966106e-03,-4.188755152826002456e-03,3.225229680538177490e-01
-3.365020396029289040e-02,-3.701618569023057970e-01,-3.601334628379777858e-02,2.003945345892621055e-04,-2.418349947084196254e-04,-1.200570528215218072e-03,3.353432118892669678e-01
-2.829161565175419835e-02,-4.112657058768603435e-01,-7.177536314114796312e-02,-5.856189686448171755e-02,1.648438802596339375e-02,1.444143243319368219e-01,4.534060359001159668e-01
-1.610099486047746054e-02,-3.446126393052529324e-01,-4.953916314845095703e-02,-2.459018263323654104e-04,-2.153831763353769666e-03,-1.171245778264761594e-04,3.131570219993591309e-01
-2.694739549226900233e-02,-3.747576075570334675e-01,-3.857622240661379154e-02,5.136062756052401507e-02,-1.655335841806009848e-03,-1.355219316174700525e-02,3.543098866939544678e-01
-6.498949014871541197e-02,-1.874360873822847884e-01,-5.651584606755991752e-02,6.692915388359534437e-03,-9.860288505363471595e-03,-1.811666956161142247e-02,1.323376148939132690e-01
-2.562752743230400920e-02,-3.858904313582183776e-01,-7.201858987241195609e-02,-7.839537285570321451e-03,1.781926028540603774e-03,1.294932059915038063e-02,3.404783010482788086e-01
-3.950208594595604195e-02,-3.683521705497036502e-01,-3.111378404297802935e-02,-1.270562996126394515e-03,-1.097682685078715326e-03,2.506406509387198306e-03,3.331644237041473389e-01
-3.591262809503370512e-02,-3.672960862622393075e-01,-4.037310877915448182e-02,1.232387033472058524e-02,-1.722574289855943654e-03,-8.498827208378573325e-04,3.298840224742889404e-01
-5.342546683874599411e-02,-2.439123237782599984e-01,-3.233807196409378693e-02,-7.323167472081028133e-03,1.927935526742522517e-04,-3.183401052062665576e-02,2.096377909183502197e-01
-4.190191346554268670e-02,-3.713743383265379894e-01,-3.796658012823002359e-02,-2.897325580378007012e-03,4.936567644401210989e-04,6.647533464877230201e-03,3.316965997219085693e-01
-3.396526962265068728e-02,-3.584923382044122864e-01,-2.852685366545515411e-02,-3.016891216760252386e-03,-5.686227972882570807e-03,9.806405201846541027e-04,3.274744153022766113e-01
-3.598552568619658998e-02,-3.700513834251775713e-01,-3.633733594318135085e-02,-1.311611895878162957e-03,-1.577415253848371991e-03,-2.006278333039807657e-04,3.339091837406158447e-01
-4.964214903772726228e-02,-3.657581474909458730e-01,-4.895026872375506100e-02,-2.289797702457536303e-04,9.635635031036150462e-04,-1.154994254688092997e-03,3.164734840393066406e-01
-5.406177611303834840e-02,-2.681691617464687649e-01,-3.366868973654789376e-02,-5.446602572777515562e-03,1.519442477961889222e-03,-2.719336271821048284e-02,2.300837188959121704e-01
-5.297869570563933095e-02,-3.693090815092248680e-01,-4.582207419289351102e-02,7.111930822090469081e-04,1.818746188364055464e-03,-2.326682482008925884e-03,3.200119733810424805e-01
-6.557622315477631969e-02,-2.354458162673037369e-01,-5.536232332674220769e-02,-1.258766199148974143e-03,-4.671800224554966026e-03,-1.023857756405763091e-03,1.754092574119567871e-01
-4.632279598234091689e-02,-3.662524839994891757e-01,-4.950004895115511783e-02,-4.743393841735767938e-04,3.702317986880615964e-04,-5.511598697330919285e-04,3.183560967445373535e-01
-6.364072194525316473e-02,-2.055648996149409546e-01,-6.382823699919315530e-02,-3.764940311359660967e-04,-6.811289515137086518e-03,-1.218106428342306639e-02,1.438771486282348633e-01
-5.527119226593943391e-02,-3.157340891485864720e-01,-2.801256074801944385e-02,3.432724523389006025e-03,-1.099202501335348053e-02,-5.378188275533819784e-02,2.911341786384582520e-01
-4.871771994557733826e-02,-1.939562335983680275e-01,-5.582104328533223775e-02,1.883461792207705848e-02,-8.238065216265516924e-03,-4.867862064959703125e-03,1.464647352695465088e-01
-3.328580198708291915e-02,-4.295903910310443496e-01,-6.644378792828870006e-02,-8.358554801644353660e-02,8.258516742827059012e-03,9.867853491067156424e-02,4.420324862003326416e-01
-5.847718024044842866e-02,-1.782830588443202469e-01,-6.122364013883132422e-02,4.135795182757043970e-02,-6.634781289510859048e-03,-1.205713986589021167e-02,1.404691189527511597e-01
-6.089829840067848693e-02,-2.100030343331490135e-01,-5.979414644113149879e-02,4.394957139870284135e-02,-9.444655597084308796e-03,-3.772198017430558603e-02,1.809121817350387573e-01
-5.404797193730229155e-02,-3.467671651826278456e-01,-1.039512066918280020e-02,1.526684573479168716e-05,-1.294124507763682024e-03,6.793127261377121919e-04,3.168193995952606201e-01
-2.372675631357312742e-02,-9.195804863417596231e-02,-4.973578878423058625e-02,3.737718262593386215e-02,5.131857758812780057e-03,3.430663752787114357e-03,8.867257833480834961e-02
-2.121565250690786442e-02,-3.568173805597442683e-01,-3.969555285601497618e-02,8.154712240936164841e-03,1.101340566951472880e-02,1.047146564172337421e-03,3.276199102401733398e-01
-3.190737512605926196e-02,-4.911885702432223777e-01,-5.865726556656639112e-02,5.494470013355724769e-02,-1.993133206085739156e-02,8.552583661466746368e-02,4.812084734439849854e-01
-1.920103142930448814e-02,-3.374462088551569705e-01,-4.808671073291938269e-02,9.795947692345088539e-03,1.064145633389534766e-02,9.567510432280011690e-03,3.063068091869354248e-01
-4.949008225189632793e-02,-3.653803421458812761e-01,-4.532516552581307423e-02,-3.756058277870296704e-04,4.953328435540924838e-04,8.176023875849921596e-04,3.179981410503387451e-01
-4.654012200356562323e-02,-3.670587323122045387e-01,-4.746045842565244088e-02,7.687600620008374665e-04,7.753878630244237567e-05,-1.395673214200297526e-03,3.200713694095611572e-01
-4.391708537477216623e-02,-3.674601765103563955e-01,-5.378419360925425219e-02,1.154714954858485293e-03,1.368780601615107121e-03,1.509794521351942804e-04,3.187392950057983398e-01
-4.686588673190845988e-02,-3.672428581569037731e-01,-4.969697440074985484e-02,-1.075845376225079706e-03,2.795731404719949045e-03,1.164974686936341892e-04,3.190131187438964844e-01
-1.209539257379324551e-02,-3.311899091972178022e-01,-4.774216738611876398e-02,5.379786372207557427e-03,5.008377671963274574e-03,1.794288039799705201e-03,3.031320571899414062e-01
-4.519471234791039294e-02,-3.720767305175981532e-01,-5.014585414250871676e-02,-3.644335153882482994e-03,8.667019440044178161e-04,-8.229883119330378598e-04,3.245027959346771240e-01
-4.324431067300460452e-02,-3.693198835919396239e-01,-4.071114001788894710e-02,2.318306192654871669e-03,2.915702438569871876e-03,-8.898049593346820134e-04,3.274167180061340332e-01
-2.109845861592851007e-02,-1.318515455972918970e-01,-4.659153820844445792e-02,-3.971276115168996534e-02,-1.021810278024077451e-02,-5.282744225435561519e-02,1.533279567956924438e-01
-4.954759812404933850e-02,-3.651091604390579448e-01,-4.890094547828270632e-02,-3.212640802424309512e-04,2.203197790431580974e-04,-4.642420337226410717e-04,3.158871233463287354e-01
-3.717990357818093394e-02,-3.698800131758873677e-01,-3.519785659542551404e-02,2.911477310987682656e-05,7.775424076174381654e-04,-4.437544436289105510e-04,3.336991667747497559e-01
-1.549067888337851695e-02,-3.137526400987903363e-01,-4.786474397518997170e-02,1.602607403948304310e-02,7.560220744783552847e-03,-3.593582412042147910e-03,2.851894795894622803e-01
-1.311209464348814246e-02,-3.503683592942986591e-01,-4.872969049379624606e-02,3.107462804206789341e-03,5.602918644766412271e-03,2.765938286635089048e-04,3.211253881454467773e-01
-2.747280959879140616e-02,-3.621735144891181646e-01,-3.470277049575561101e-02,7.006529637045596885e-04,2.045441484679625267e-03,8.189394946115562211e-04,3.311691284179687500e-01
-4.521123717565220246e-02,-3.697272712937573758e-01,-3.896902114833707131e-02,2.027142068822269938e-02,-2.683599452223192974e-03,1.480106138352984581e-02,3.305857479572296143e-01
-3.803627630818340322e-02,-3.698898788022767503e-01,-3.416584104838568670e-02,-1.379944360441032842e-04,2.838860676234723724e-04,-4.711620390443204700e-04,3.338070809841156006e-01
-4.189475715371228370e-02,-3.672326957377642365e-01,-4.393494893124084977e-02,-7.885569924621825761e-04,-4.461264062605957794e-04,-5.763773994904500394e-04,3.243279755115509033e-01
-4.042036282422085958e-02,-3.632987380818899492e-01,-1.755171919918178947e-02,-8.277412253691413197e-04,-4.427768881828299079e-03,-7.408275531823433572e-04,3.349921405315399170e-01
-2.841724150115715331e-02,-3.651943135234082538e-01,-2.849158744709621993e-02,1.014286012919218090e-03,-8.161611958798080033e-03,-9.045579744346864300e-04,3.370447158813476562e-01
-4.852767096965668325e-02,-3.827292641707733534e-01,-3.088621509285349731e-02,-3.236149027658686422e-02,1.459446154617255985e-02,-4.005229799706079563e-02,3.556558489799499512e-01
-3.879233898962995697e-02,-3.682139397920188850e-01,-3.602755498236985543e-02,4.443067448552339674e-04,-1.498563874691671372e-03,8.241032708588939826e-04,3.308268189430236816e-01
-2.933301633828742927e-02,-3.670282212431810187e-01,-4.018434072068430285e-02,3.649265298856665604e-03,-1.314453970760428789e-03,-2.178123200051827659e-03,3.324916958808898926e-01
-4.136920861285882378e-02,-3.698203434168862436e-01,-3.600725331661359940e-02,-1.325819141048900640e-03,-9.524444554543897963e-04,-8.823810320549542929e-04,3.311802744865417480e-01
-3.424276010934637626e-02,-3.703795173449630496e-01,-3.173295137776427355e-02,5.140426092251749692e-05,-2.389704253502135389e-03,-1.716014999681630309e-03,3.374371528625488281e-01
-3.326137438089005194e-02,-3.702831054483128881e-01,-2.852033935563609568e-02,-1.352107998614254130e-04,-8.927690277519711483e-04,-3.114533485210343533e-04,3.394211232662200928e-01
-3.263020848299455490e-02,-3.650497012430684585e-01,-2.333942255432110147e-02,-1.819282499304028544e-04,-3.981447652869718294e-03,3.866508268487775903e-04,3.372322320938110352e-01
-2.532515985430311423e-02,-3.619798783265590902e-01,-3.812640617939530574e-02,-1.631303457408059851e-04,1.339216796772282761e-03,7.866175607987853195e-04,3.304511904716491699e-01
-3.507182173083563115e-02,-3.682490408049253761e-01,-2.621647215786716834e-02,-6.994662293304994836e-05,-2.049767914628042222e-03,-1.151087700979137873e-03,3.377165496349334717e-01
-3.323708734042415958e-02,-3.697409106326933204e-01,-2.937701277317307513e-02,-4.852945432583826075e-04,-7.255260774900050731e-04,4.780396719212109805e-04,3.384547531604766846e-01
-4.018237620218345629e-02,-3.712444815908716444e-01,-3.884620681019596011e-02,-3.009767027347131502e-03,4.613204626700439137e-04,-1.552632587849668924e-04,3.317742347717285156e-01
-1.865597829285055298e-02,-3.587107131739750709e-01,-4.270785648370896415e-02,8.605446558794591213e-04,1.636433060271092659e-03,3.517819960305409890e-04,3.287056386470794678e-01
-3.476781360437039559e-02,-3.663928023736083284e-01,-3.714274434749927079e-02,-1.250161909057940536e-03,9.089033163084030489e-04,-6.011894332586243100e-04,3.304564058780670166e-01
-3.292011276640892381e-02,-3.667425416821218365e-01,-3.681320029347744105e-02,1.232650540441638772e-03,4.361070639826037515e-03,-6.207484744572713906e-04,3.319875597953796387e-01
-3.365361758607003650e-02,-3.670624919372473816e-01,-3.530197928578375499e-02,1.052112389100498362e-03,7.199092151746130670e-04,-4.728987699132400661e-04,3.325960934162139893e-01
-3.664751223284150317e-02,-3.631190760110171167e-01,-3.686735662423379356e-02,3.311623474775769998e-03,4.341699443657343581e-03,7.640849749429420336e-03,3.267668187618255615e-01
-3.444751367797435626e-02,-3.584551857523666230e-01,-2.720543297887464962e-02,8.811442313201977433e-04,4.578426973788169915e-03,1.234543590799288670e-03,3.277952075004577637e-01
-3.386500719396823289e-02,-5.518231365278057909e-01,-6.445178934829853823e-02,-4.494585345518448821e-02,1.629999257252017289e-02,1.483978151311863940e-02,5.107755064964294434e-01
-3.250430436016436830e-02,-3.563020592512188278e-01,-2.812861150099617291e-02,-1.781549531151465802e-03,-7.466750541365892516e-03,2.752030692875851578e-05,3.262786567211151123e-01
-3.906571244099638074e-02,-3.654552721832978746e-01,-2.167167282949285234e-02,-2.757511098946391695e-03,-1.600479433161098924e-03,1.043912866039754805e-03,3.354753255844116211e-01
-5.444755908720401438e-02,-3.803185622172642333e-01,-3.300865839481795239e-02,4.446757766514441296e-02,6.430775298787464941e-03,-2.627639622625332558e-02,3.489489257335662842e-01
-3.666814255008934986e-02,-3.668199586721280214e-01,-3.151052133757913098e-02,-2.478361338449218843e-03,-3.367167133276803993e-03,2.268905458226913325e-03,3.328625857830047607e-01
-2.857935644702941369e-02,-3.594802435470884627e-01,-3.248625776384761465e-02,-2.768806227757503137e-04,-7.794597495273621057e-03,5.115965433386436209e-04,3.292433023452758789e-01
-4.269016940120309855e-02,-3.698879120478372196e-01,-4.475812026421353840e-02,-5.839367114240363952e-04,1.287024507767235921e-03,-3.474991357660821290e-03,3.262333869934082031e-01
-3.793399541977933442e-02,-3.405949948659022231e-01,-2.730952057698751712e-02,-6.985130120890283446e-04,-1.081045892280181782e-02,4.339082377608148924e-03,3.087729215621948242e-01
-4.048866153303515292e-02,-3.536748603539586755e-01,-1.750091162901810937e-02,2.001501900628433958e-03,2.500254755479088941e-03,1.700108802444617190e-04,3.253372609615325928e-01
-4.459737232875092550e-02,-3.691080600149991842e-01,-5.543635179454774187e-02,1.578388118997956684e-03,4.115148578689544964e-03,-1.183917699158114475e-03,3.193270862102508545e-01
-3.147819705131202350e-02,-3.655716802159186818e-01,-2.812039550668479770e-02,4.837634622658778215e-04,-5.986350063881842182e-03,-9.930979664030210527e-04,3.359504640102386475e-01
-4.336303348119707746e-02,-3.681424338881952307e-01,-4.623755809955551466e-02,6.878622609366762597e-04,9.863608634964071177e-04,4.713688577792930746e-04,3.233594596385955811e-01
-4.679642538583672629e-02,-3.600896608193252524e-01,-2.170508290206922541e-02,1.596959423630561845e-03,-7.304441427662074215e-03,8.606497644162271546e-03,3.271591365337371826e-01
-6.031491028032134882e-02,-3.728646955381763606e-01,-4.064254934121691587e-02,-2.782674695507376988e-05,1.755253945295032593e-03,-2.988824723187932884e-03,3.228916227817535400e-01
-4.063110478884332522e-02,-3.578511482805947219e-01,-2.835575465623434155e-02,-4.519321165220253900e-03,-1.072550232915368829e-02,5.302712077257173105e-03,3.242899477481842041e-01
-4.386890736631528231e-02,-3.681051032231733577e-01,-4.912690415838502633e-02,1.719136088373532031e-03,7.565891397625512530e-04,-1.406995548458114071e-03,3.216651082038879395e-01
-2.009980922554320537e-02,-3.578498963514220033e-01,-3.694074630851285068e-02,-5.820551519296039309e-04,2.121339465458040897e-03,-1.306151953693940630e-03,3.296822011470794678e-01
-4.707593948613367218e-02,-3.585384504610774070e-01,-1.450701635494125452e-02,-1.541112138407277690e-03,-1.074902009025911504e-03,3.547581304765327296e-03,3.290318846702575684e-01
-3.696655317524766282e-02,-3.587394471960446141e-01,-2.480895480614046800e-02,-2.763858620994986883e-03,-2.303771247262117929e-03,-7.144952407145598256e-04,3.280822336673736572e-01
-2.719437157474646760e-02,-3.682684540656918082e-01,-3.525712542184269993e-02,-1.454372377277975679e-04,-7.732835087719476834e-04,-4.350994405930231007e-04,3.371186256408691406e-01
-4.202908590017005730e-02,-3.690885344107956989e-01,-6.272523099996477058e-02,-2.066107544477090337e-03,2.953697552902932559e-03,-1.003745465859516009e-03,3.172843158245086670e-01
-3.758653486986257564e-02,-3.661374954614421418e-01,-2.615624553287181076e-02,-1.926618312512500420e-03,-2.769184186270430992e-03,1.576106607202085782e-03,3.344748318195343018e-01
-4.658856018081487804e-02,-3.659352039228117581e-01,-5.372871649009131056e-02,7.407409424313578196e-04,1.986085185470413180e-03,-2.327788464093912240e-04,3.158586919307708740e-01
-3.943840709245084730e-02,-3.634043491010866544e-01,-2.777605815584377469e-02,-2.288186957306916677e-03,-9.578464997543928612e-04,-7.590490662078093389e-04,3.299823105335235596e-01
-4.488319030948362265e-02,-3.566015732762216062e-01,-2.326372165584804363e-02,-2.623510970271668904e-03,-3.010337799853708956e-03,2.751529827730637024e-03,3.231802582740783691e-01
-4.899049836943217273e-02,-3.666158925585686346e-01,-4.942998400681190840e-02,-1.254290418085674506e-03,8.303415649389439979e-04,-1.797022414406661880e-04,3.174167275428771973e-01
-4.071294868121173860e-02,-3.740787039577108120e-01,-6.277354939057859518e-02,-1.015204546715331013e-03,1.839353709653201389e-03,-1.606753071223780823e-03,3.229336440563201904e-01
-6.403696061508751258e-02,-3.018351185938463188e-01,-3.140233597551551903e-02,-7.118581289077948121e-04,-4.253265995265076947e-03,-1.989536346210032513e-03,2.558145821094512939e-01
-5.635714731006635780e-02,-3.394944751533478522e-01,-1.726996006446020193e-02,-1.553861099247488614e-03,-3.483749862283181016e-03,-3.116836955208863395e-03,3.046873807907104492e-01
-4.473345905133503664e-02,-3.570890290599262329e-01,-1.692204315938776460e-02,-2.301904164447512915e-03,-2.974355362177598817e-03,3.872946231479544566e-04,3.272146284580230713e-01
-3.588848711136954917e-02,-3.758068723757785889e-01,-3.076861762924985866e-02,9.313188076095072539e-04,1.988138300929416773e-03,9.918800300097452283e-04,3.425324261188507080e-01
-3.787445562123407938e-02,-3.708621313898994298e-01,-2.892347855133800549e-02,-2.106492567233182473e-03,-1.183645356922456314e-03,-8.795450382895660937e-04,3.375815749168395996e-01
-7.598067120273914454e-02,-3.891367648934762613e-01,-3.171785126486478812e-02,2.899748176951690883e-03,-3.528797006728961756e-03,-2.294528324317723824e-03,3.375877439975738525e-01
-7.710460234484223241e-02,-3.771184860555274465e-01,-3.064252989207519318e-02,-1.533538823831313369e-03,-3.716984177932606583e-03,-8.802490571000244916e-05,3.258141279220581055e-01
-5.439251680408301037e-02,-2.678473635014625986e-01,-4.087358322989195769e-02,1.485443549189182158e-02,-1.108651769377833225e-02,-2.200986699086268303e-02,2.260871827602386475e-01
-7.208257217860630783e-02,-3.802822995279375173e-01,-3.804269167051602119e-02,3.118411790103098151e-03,-6.371891340526208980e-03,2.448112798611061947e-03,3.268116116523742676e-01
-3.789934476334569369e-02,-3.701887441608772145e-01,-3.260695401535841642e-02,-2.226737946814921505e-03,-1.090749155920140096e-03,9.483126995898182423e-04,3.349985182285308838e-01
-4.391199951411021984e-02,-3.665096563370068283e-01,-2.902833504087889982e-02,-8.247523071870609384e-04,-1.727998720977519343e-03,3.359834123296982018e-04,3.303082585334777832e-01
-1.458312676612030789e-02,-3.633308320829663485e-01,-4.960307913308513450e-02,-1.905796705159161452e-07,-1.345801188075371234e-03,1.217309832880481566e-03,3.326381146907806396e-01
-6.993061344572822080e-02,-3.897959385709342528e-01,-3.555412363948709520e-02,4.592073542209204086e-03,-4.108120147126704744e-03,5.645493432302723692e-03,3.386752605438232422e-01
-3.963025606605462270e-02,-3.649578014777037360e-01,-2.057844362559281548e-02,4.886607736895872507e-04,-2.049845192971129319e-03,-1.666372253686385649e-03,3.352919816970825195e-01
-1.340630614265678200e-02,-3.581922879720687569e-01,-4.871429444443962919e-02,1.754884420522065912e-04,-2.138227724135465489e-04,-2.408777469784267498e-04,3.285585641860961914e-01
-3.511579638232921463e-02,-3.490868487360967443e-01,-2.431152546520855273e-02,-4.227378928758061295e-04,-1.123769862266673844e-02,-5.389827172398537966e-04,3.201047480106353760e-01
-4.093325164646756387e-02,-3.729012999566033160e-01,-4.342908383475456435e-02,-3.356431438319634926e-03,-2.686425454161386656e-04,-3.088587273165403334e-03,3.308218717575073242e-01
-7.474331029464928444e-02,-3.841239321651262473e-01,-2.870837443135623723e-02,4.938331400828869892e-03,-1.080379616460190367e-04,1.220501033786175818e-03,3.348963558673858643e-01
-5.009421756221668631e-02,-4.063209279036494315e-01,-3.311453103084832650e-02,9.588156358706549729e-04,6.800155057834817232e-03,-3.621697827337495932e-03,3.652605116367340088e-01
-5.434371945261344539e-02,-3.802153943669905889e-01,-3.965436798116939165e-02,-1.151337935993761684e-02,6.138021665727117111e-03,-2.228813571913538724e-03,3.342462778091430664e-01
-2.590920716324349171e-02,-5.928587130044754572e-01,-6.124740234904654801e-02,-3.027786698773316659e-02,-4.451081996945772208e-04,8.276249267509662444e-02,5.709161758422851562e-01
-3.368053969662580804e-02,-3.708965514358647519e-01,-3.472655963155014958e-02,-1.147560276291504375e-03,-9.841805365837091868e-04,-2.146084873616130101e-04,3.367046117782592773e-01
-6.585026119845596715e-02,-4.060773008337554835e-01,-3.815562324820909179e-02,7.554861202916076041e-04,1.799935483459497512e-02,-7.595203314301414779e-03,3.564976751804351807e-01
-5.145741544906597825e-02,-2.224539083085570468e-01,-3.074504968354654921e-02,8.934731157968707135e-03,7.425515834609128923e-03,6.836581383147682933e-02,2.182592451572418213e-01
-2.310086530805434413e-02,-3.495638714036366501e-01,-4.653300075088197263e-02,3.279205595710652128e-03,-8.090891282054157169e-03,8.348409280144176992e-02,3.472965061664581299e-01
-6.678432492435398826e-02,-3.746837138956457536e-01,-4.095015755040069816e-02,2.667889218872799336e-03,1.218531333044023737e-02,-9.101428990301464045e-04,3.223244547843933105e-01
-6.268404825390123947e-02,-3.825011137252090077e-01,-3.369008674009341120e-02,-1.928299512335193439e-03,5.445045415067703218e-03,-4.021999715390184651e-03,3.354772627353668213e-01
-4.028522033572855265e-02,-3.681102227106171076e-01,-6.198019659741778320e-02,1.709489098678629684e-04,2.466414410186638668e-03,-1.365010834176149750e-05,3.175627291202545166e-01
-7.297919872760820492e-02,-3.796189052726312019e-01,-2.973940346259282275e-02,2.822258283962498279e-03,2.889719287219788546e-03,-7.544785765210965806e-03,3.307209610939025879e-01
-2.110995131173500072e-02,-2.379652851763381094e-01,-5.181337587470426220e-02,1.569921396209431053e-02,-1.117609566505915059e-02,1.025555142139468329e-01,2.719885110855102539e-01
-3.089356833052307738e-02,-3.653738595517108667e-01,-4.468393552171592842e-02,1.869356215295819509e-02,5.540499283458732126e-03,1.893417101303514224e-05,3.295376598834991455e-01
-2.477070179283163975e-02,-2.635356903933184225e-01,-5.208216962185908960e-02,-5.893728246320887459e-02,2.053162568191439427e-02,9.683004665765373997e-02,3.017403483390808105e-01
-5.579819178813191782e-02,-2.934650880420475172e-01,-1.817952632357985876e-02,8.003209763862118367e-03,6.760012926762836750e-03,2.883205410385511133e-02,2.639403939247131348e-01
-4.611094550438803175e-02,-3.560739583695704535e-01,-1.302194362822192697e-02,1.123407167639206431e-03,9.513465256809503163e-04,6.062289543770844544e-03,3.279406428337097168e-01
-4.564208016482958208e-02,-2.780783153968647836e-01,-3.485783185159473108e-02,8.352996638710270816e-02,1.269520042995658142e-03,2.646850612296179107e-03,2.785806357860565186e-01
-4.746753650639308486e-02,-2.308189891647874359e-01,-2.579104096959962400e-02,9.755846851124685970e-02,-1.410915744966397510e-02,3.058996459464103160e-02,2.646118998527526855e-01
-6.438405299358138101e-02,-4.136350065017963540e-01,-3.619771983169287055e-02,-1.647732185957633336e-02,1.588068090309096431e-02,-5.718047058569890664e-03,3.664478063583374023e-01
-3.584774362922689417e-02,-3.731809112577884613e-01,-3.904530137855438676e-02,-1.552287270103114855e-03,7.699678707623271341e-04,7.855163949113860497e-03,3.360347747802734375e-01
-4.971762786359790187e-02,-3.969594694636076615e-01,-4.198410477471388458e-02,7.703590254408877389e-03,-4.301776577243892653e-03,-6.973588246415903490e-03,3.517123162746429443e-01
-3.169447094998753545e-02,-3.762651821049072254e-01,-6.149615260062769873e-02,6.689015506114195887e-04,-1.727997188838007944e-03,-4.226852002344916488e-03,3.307752013206481934e-01
-3.577002813215246491e-02,-4.094099419045720278e-01,-3.772224692737630170e-02,2.215766173494150906e-02,-1.990792106653140221e-03,-2.648514759009094974e-03,3.746825158596038818e-01
-5.710902036565389250e-02,-3.905101117120133858e-01,-3.517390707325684929e-02,6.369751136189946705e-02,-6.420286274758552373e-04,2.789425312084683334e-02,3.653193712234497070e-01
-5.573907510113265684e-02,-6.044177380046342751e-01,-2.486121260510312792e-02,3.580412868325361792e-02,-2.635803478870693030e-03,-2.604349487465916491e-02,5.699518918991088867e-01
-4.047786997452317015e-02,-3.692409037976843722e-01,-3.009583669284857099e-02,-9.602524911913366357e-05,2.418107549828995770e-03,9.990744281448433323e-04,3.341058492660522461e-01
-6.026330958921154168e-02,-4.280090797912588507e-01,-3.236457676711754217e-02,2.592988904670334716e-02,-3.521207855061608480e-03,6.586024787133759432e-03,3.853042125701904297e-01
-3.600503319228941235e-02,-3.751425487113670409e-01,-3.948469384629808843e-02,1.747697085187376737e-02,6.856698121719382883e-04,-1.067956423413639550e-03,3.387734293937683105e-01
-3.367024060998138890e-02,-4.110135561173223762e-01,-6.460984741404203480e-02,-2.501889726073312781e-03,-9.357450532013297795e-03,3.190556334333061444e-03,3.632937967777252197e-01
-3.167759838213046741e-02,-4.081032584420756226e-01,-7.621547521824269256e-02,-2.588687574689449086e-02,-1.082500648489107334e-02,-3.619003526673228444e-02,3.649736940860748291e-01
-7.401147909448384243e-02,-3.820172089147572114e-01,-3.053530014162586514e-02,1.136925051022819565e-02,5.874022457815284418e-05,-1.431968886117656291e-03,3.324794173240661621e-01
-5.008097039532047323e-02,-3.799845419231319688e-01,-3.644814860507246401e-02,-2.918205733143435388e-03,-1.401758399610187082e-03,-2.926750693859356354e-03,3.370116949081420898e-01
-6.472425633681025414e-02,-3.803055038563322166e-01,-3.138786451253744447e-02,1.179874658264547065e-02,-7.730937775393253303e-03,-4.636426772329417349e-03,3.344915509223937988e-01
-5.138405508739649075e-02,-3.662918394000076461e-01,-3.964621121689536343e-02,2.273000950689237770e-02,-1.346601828436784672e-03,-2.083127625608353472e-03,3.233720064163208008e-01
-7.375213241434354361e-02,-3.895753241499624320e-01,-3.505435982515073268e-02,4.966218451379992085e-03,6.358915528758427374e-04,-1.373447744353245787e-03,3.369633853435516357e-01
-3.606896398455733399e-02,-3.851613074948780913e-01,-6.450331044621880616e-02,-1.470745423501894659e-03,-8.313407553660332946e-03,6.117922756722318951e-03,3.362646102905273438e-01
-4.204508396094780442e-02,-2.475578768210847103e-01,-6.321555767362861677e-02,1.794682010735864589e-03,2.323249098432056230e-03,5.848658985639780365e-03,1.961157023906707764e-01
-7.254227258593601291e-02,-3.897405528172086520e-01,-3.208112989843203700e-02,-2.844722044208206589e-03,6.310161534699736856e-04,-4.056575088697262190e-04,3.392816185951232910e-01
-4.456609065412203696e-02,-3.713493463213407009e-01,-6.229753389984565848e-02,3.092979016265315524e-03,-1.130303066273020095e-02,3.795214730022889349e-04,3.189353644847869873e-01
-5.439821156080212883e-02,-3.810298720873578349e-01,-3.749974242831261018e-02,-3.585404236826235640e-03,7.514293688778858832e-04,3.384500484142984088e-04,3.354608416557312012e-01
-4.999140424146542028e-02,-3.393472801251372073e-01,-2.284571908284120656e-02,-3.104653151846941566e-05,-3.856689861353531854e-03,-1.763733425327917818e-03,3.039283454418182373e-01
-5.140239764132521760e-02,-3.592422575160072462e-01,-1.337190364021162425e-02,-2.199046869258882288e-04,1.037326405609377989e-03,3.072714360001032826e-04,3.285158276557922363e-01
-2.983684343353873447e-02,-3.602672510061038502e-01,-4.291734457881131448e-02,1.500962204693017527e-03,1.606127325404994779e-04,-3.077382888299154320e-03,3.241425752639770508e-01
-3.459787755689792965e-02,-3.703161295663391916e-01,-3.019599135304958104e-02,-7.024486515752476892e-04,-2.355166714259396103e-03,-8.155562278159630843e-04,3.379704654216766357e-01
-3.209395623508351503e-02,-3.661983949903570013e-01,-3.188358501670009171e-02,9.697276013253514721e-04,-2.920603814909560753e-03,-2.008703730740069721e-03,3.342702686786651611e-01
-5.159138107892158320e-02,-3.522283579550063992e-01,-8.507866704364069887e-03,-3.641022497707038395e-04,2.301983011135485722e-04,2.876279143138269281e-03,3.243711590766906738e-01
-5.527013465557353844e-02,-3.798382827874873247e-01,-4.130984341317600617e-02,-4.334909908661759188e-03,-2.322432920267152989e-03,-6.259460649827493575e-03,3.320550322532653809e-01
-5.119291051532544323e-02,-3.857436897242295659e-01,-3.420896002027538907e-02,-2.394513630586892622e-03,-1.641702883677666940e-03,-4.020126658038779451e-03,3.434653580188751221e-01
-3.057336044816602594e-02,-3.619839151586311532e-01,-3.658568627495188685e-02,-2.407152253506968966e-03,-6.554230438968903193e-03,-4.164128038544370400e-03,3.287473618984222412e-01
-2.984077937943026282e-02,-3.020153335220711055e-01,-4.827963315585127868e-02,-4.016646306781017925e-04,8.954058859290427858e-03,-1.516592032086119292e-02,2.652007043361663818e-01
-3.716885300723675456e-02,-3.034820141794741799e-01,-4.998161633536842008e-02,-1.392262529330815998e-02,9.574965543440729435e-03,1.633601239649436730e-03,2.617999613285064697e-01
-3.970800634912423355e-02,-3.679292955064115134e-01,-2.435597378693268866e-02,-2.269650889170211861e-04,-1.943540706554417515e-03,-3.749535109147212990e-03,3.362401425838470459e-01
-3.144682760872506699e-02,-2.872029554716823974e-01,-6.560863825182677855e-02,5.141756555632354814e-02,-1.794599015559654107e-02,-5.212957659864776716e-02,2.736623585224151611e-01
-2.529583972888123367e-02,-2.890195920009912545e-01,-4.843936127397097113e-02,-4.452718338596844266e-02,1.025167142679769827e-02,-2.561224602020051311e-02,2.687259018421173096e-01
-5.238290272486310906e-02,-2.562466342619760806e-01,-5.161097003900950997e-02,-5.176866148825378516e-02,-4.677664201341460645e-03,-9.605058172991101650e-02,2.783902883529663086e-01
-4.661876572683637532e-02,-3.495212527574932393e-01,-1.973596418925799290e-02,2.591389858109252424e-03,-3.746841710400866925e-03,-6.337433532294496630e-03,3.174873590469360352e-01
-3.819974228195205379e-02,-3.753588294857558294e-01,-4.112485226457239518e-02,-3.384444495544305584e-03,-6.963770570207543061e-04,2.909339731465512661e-03,3.357972502708435059e-01
-2.307441718076017056e-02,-3.198339534552419039e-01,-4.949100980461659804e-02,-1.109441974463923342e-02,7.215473401517216202e-03,-9.710694915143999392e-03,2.858898937702178955e-01
-2.712023305601703183e-02,-3.447243805264560423e-01,-4.752922158518571583e-02,-9.635043089197667734e-03,9.846640665206858600e-03,-4.189392440990698935e-03,3.089157938957214355e-01
-2.797421380910451727e-02,-3.649910992378262442e-01,-4.225243439404370582e-02,-2.236497274701598325e-03,6.255338771888267757e-03,3.601982496937266285e-04,3.303104937076568604e-01
-3.672560422562116955e-02,-3.652376649282899068e-01,-2.375138311897583010e-02,4.775524248629907202e-03,9.330844583733599248e-03,5.154820498945179158e-02,3.473499119281768799e-01
-4.407346700138861650e-02,-3.577554229750599113e-01,-1.290953862186483558e-02,-7.252554150758727149e-04,2.083538926767900933e-03,2.341528729545151125e-03,3.304151594638824463e-01
-2.808706709683360392e-02,-3.684426906792588330e-01,-3.999552709508810699e-02,-2.754067229770093810e-03,1.196577966703595876e-02,-6.228411518481040757e-03,3.354091942310333252e-01
-3.353699983254546102e-02,-3.712713301440104807e-01,-6.735489294432822627e-02,-3.541472145233635059e-04,1.761700605436399740e-03,2.540406872180777081e-03,3.222044706344604492e-01
-2.661743396199209299e-02,-3.807535906273498139e-01,-7.793844735221008846e-02,-7.688103304763655452e-04,-3.619493884313790212e-05,3.124965392605696165e-03,3.315157890319824219e-01
-4.140055173028212021e-02,-3.675666451584537198e-01,-2.386006039739858864e-02,-8.317419331003896976e-04,-6.794456177838569325e-04,7.027846480759183251e-03,3.355066776275634766e-01
-3.712248909279865228e-02,-3.605415145662946852e-01,-2.051925558489219037e-02,1.432776410359006729e-03,1.777768121551591375e-03,2.368035069349242166e-03,3.320810198783874512e-01
-4.877215835184296744e-02,-3.581849187075241692e-01,-1.029251499058367325e-02,-1.219256477802913062e-03,9.242534531184507353e-04,4.259665037178355165e-03,3.304307758808135986e-01
-5.304623655870902010e-02,-3.390754340343294371e-01,-9.213897030544718203e-03,3.094555721333606913e-05,-7.724883073117550306e-04,6.286177233619162641e-03,3.104700446128845215e-01
-4.120829447199196582e-02,-3.485131260724615432e-01,-2.412753175732812450e-02,-6.533471408427141830e-03,-7.091429912700479218e-03,1.337329769689701679e-02,3.174782991409301758e-01
-3.649240997466693393e-02,-3.577984542766263765e-01,-2.100546416067861077e-02,1.666116352407962225e-03,1.847174055114390303e-03,1.790802781137223239e-03,3.293655216693878174e-01
-3.950764569381570723e-02,-3.720830818626099656e-01,-3.254214936485294585e-02,-2.610332943023654755e-03,-2.339488533535171583e-03,-4.884463977397183500e-03,3.362735807895660400e-01
-4.146514163702887112e-02,-3.714449066527233390e-01,-5.231038697270651294e-02,-1.877952998614040858e-03,7.095776520500075152e-03,-1.215723326057195804e-02,3.256233632564544678e-01
-4.026099129243647379e-02,-3.727219578636822850e-01,-6.369376894829231750e-02,1.768021322025980797e-03,-7.065609735178065599e-03,7.107629625862535265e-03,3.218689262866973877e-01
-5.360147128625196433e-02,-3.458437538830099189e-01,-8.142042035550217660e-03,4.662766951496060156e-05,-7.379367975762281696e-04,5.971375450391754394e-04,3.174271285533905029e-01
-4.497856799131631778e-02,-3.615184048234242331e-01,-1.922514476979382547e-02,-2.032819340311752248e-03,-2.721876099103713326e-03,2.485384249711186395e-03,3.302511870861053467e-01
-3.764110311646945428e-02,-3.782769057693250447e-01,-6.536196501567625994e-02,2.149009020177421268e-03,-1.477997053018830203e-03,1.631467233474980611e-03,3.276993632316589355e-01
-3.436206076443820701e-02,-3.792017454327408221e-01,-7.100295653373987770e-02,8.308394340633559749e-03,-1.069113732765336481e-03,1.330524590101744564e-01,4.011746644973754883e-01
-3.447351832098322078e-02,-4.550003982748821452e-01,-7.807120551387337903e-02,-5.192166125963122020e-02,-9.420272917256481207e-03,-1.095513020873363635e-01,4.525128602981567383e-01
-5.345142588586841714e-02,-3.003315965606828675e-01,-3.097106873986336939e-02,-4.100738883606833574e-04,-9.210835730546804156e-03,-1.980116328940835155e-03,2.593683302402496338e-01
-4.145431679617959941e-02,-3.698813562301523916e-01,-2.936121348100129147e-02,-6.097699828931337678e-04,-4.627891123963895218e-04,5.656315145507529504e-05,3.346401453018188477e-01
-4.221218622053202196e-02,-3.759564908864541088e-01,-4.872941986179915586e-02,3.877306412915727286e-03,-1.531403555412936537e-03,2.388099333871395585e-02,3.331901729106903076e-01
-3.790414228868788094e-02,-3.737795429265481917e-01,-5.604762601284463130e-02,-2.462694709219824009e-03,1.781654811641120932e-04,8.641515150276722276e-03,3.275512754917144775e-01
-4.194372836357310175e-02,-3.750197994664276058e-01,-3.515111174208843114e-02,-1.187261506297338691e-03,-4.393479955655341801e-04,8.001421563066907217e-03,3.368161916732788086e-01
-3.428580085414775769e-02,-3.813781302782285332e-01,-7.276610873212771557e-02,-3.569224968135339873e-03,2.293665202934705351e-03,-1.862535524493707378e-03,3.296391963958740234e-01
-1.316267857554953569e-02,-3.513555421181168148e-01,-5.241590708767908391e-02,-7.546488908855907701e-03,-2.290482747377075093e-03,-7.822184865005831975e-04,3.206688165664672852e-01
-3.385950112610780494e-02,-3.646727282742462384e-01,-2.415370987995678342e-02,2.857027448352019621e-04,7.801379734144556774e-04,-6.210302260717569722e-04,3.357761502265930176e-01
-3.761707021294696807e-02,-4.022174257013124699e-01,-5.033401507951108800e-02,3.674201518991551760e-03,-8.960437130949184138e-04,1.331080032714726004e-02,3.592115938663482666e-01
-3.404238270475501427e-02,-3.747311568067214216e-01,-5.915088788724756630e-02,8.963869411973274519e-05,4.443977781236686016e-04,5.693069159023948778e-03,3.290029466152191162e-01
-4.409541857796106523e-02,-3.327473694068374677e-01,-2.259037108456413145e-02,-1.228701732338952730e-03,7.633436352552249934e-03,-6.344277092471346281e-03,3.004828989505767822e-01
-5.222338547130792041e-02,-3.450456896782932992e-01,-1.757528199778859990e-02,-2.130204072585155459e-03,-1.331511459018951929e-04,6.092693381079342661e-05,3.116164505481719971e-01
-3.508620463216115259e-02,-3.524390022673308254e-01,-3.169341758101006101e-02,5.410232320436467353e-04,-7.772479711543899862e-03,-1.935023005633626069e-03,3.193655610084533691e-01
-4.784496641878405176e-02,-3.603010777433774958e-01,-1.152888699353879498e-02,-3.969413723702219440e-04,-1.511597184346294247e-03,1.115328594731320030e-03,3.321233391761779785e-01
-4.258010118944254019e-02,-3.789436464595340448e-01,-2.809998477741894318e-02,-1.839038968941404326e-02,2.628801496159934373e-03,-4.305700140881052462e-02,3.532955646514892578e-01
-5.407145472618928028e-02,-2.759448586650980473e-01,-2.515845632999350046e-02,-1.147855897162518291e-02,4.100759013084110879e-03,-3.852614866393143378e-02,2.477444410324096680e-01
-5.347658560437038022e-02,-2.885529176618221725e-01,-2.994384909974862063e-02,-2.044372637210322731e-03,-3.051023939978839201e-05,-1.450653017748966241e-03,2.477206438779830933e-01
-3.645612057964937869e-02,-3.735246927830945807e-01,-3.740184922133894807e-02,1.736398409409814508e-05,-1.091464631777254966e-03,-7.411398507541046114e-03,3.368467092514038086e-01
-4.662294859102100730e-02,-3.668569703094136658e-01,-1.568201578332023560e-02,-4.588439932192734392e-04,5.769425489559686744e-04,-1.751964172426532639e-03,3.367882966995239258e-01
-4.506894246718716468e-02,-3.629419892989024787e-01,-1.513102874292401867e-02,-2.265354806853954169e-05,-1.988474252941745297e-03,-1.275595663821701411e-03,3.338753581047058105e-01
-4.262664030666567239e-02,-3.684220929430656044e-01,-1.730398904342209110e-02,-9.975051372347889470e-04,-1.658500659941981523e-03,-3.999307388110617117e-03,3.392537832260131836e-01
-5.051478282058935454e-02,-3.486461259146372837e-01,-1.349496631397373303e-02,1.000389066987180525e-03,-1.642518543366475008e-03,-9.054422750020982291e-03,3.186637461185455322e-01
-4.837464667215385372e-02,-3.133940785402500873e-01,-1.872014715889738778e-02,7.485246885152992656e-03,1.162569845197475998e-02,9.739346280959385385e-03,2.825452685356140137e-01
-5.568291357837842903e-02,-2.946998353093899237e-01,-2.260019062770975140e-02,1.801835224623954531e-03,4.147830572817012493e-03,1.134231649728056814e-03,2.572860121726989746e-01
-4.770529206599759264e-02,-3.600336833641789580e-01,-1.521387585822114863e-02,-9.335349292228004546e-04,-9.262176020873625097e-04,-1.262629758193591816e-03,3.297918736934661865e-01
-3.298336520952441231e-02,-2.422643142486183288e-01,-5.133884774229263009e-02,4.789403140056270464e-02,-1.786676044769747174e-02,9.608668777831656793e-02,2.753745019435882568e-01
-5.563751928182588541e-02,-2.257407867506950883e-01,-3.460162534466837414e-02,1.158858963783410828e-02,6.722860369210188237e-03,5.049775537177464413e-02,2.028409540653228760e-01
-4.997539453730930059e-02,-2.372082664020077614e-01,-5.710355618996283689e-02,2.171019988524793692e-02,7.322325554732494503e-03,2.288030429098093788e-02,1.921398043632507324e-01
-4.397316039294592305e-02,-2.567528205186322965e-01,-5.521938272948631599e-02,2.271899568195482819e-03,-1.182452256944680445e-02,-1.445331739863470622e-03,2.084463983774185181e-01
-4.060233391763937161e-02,-3.546649090726708975e-01,-3.144184088112708664e-02,7.414845964561585972e-04,-9.819364313278784555e-04,2.108340653617383348e-02,3.208336830139160156e-01
-5.113855720235421787e-02,-3.564294571704258452e-01,-1.021581205162169770e-02,-1.418020578302874859e-03,3.099744417261284641e-04,4.731015832310341181e-03,3.277865350246429443e-01
-4.980117142033683997e-02,-3.484687043160854536e-01,-1.042008520806611549e-02,-1.040494865442897132e-03,-2.328434271307061338e-03,1.933920455434633904e-04,3.202103078365325928e-01
-4.245421014790949632e-02,-3.519682884774603115e-01,-3.394830801592445269e-02,3.115266305016779064e-02,1.112554312289962960e-02,5.414880928024291828e-02,3.325403630733489990e-01
-4.664428639650086694e-02,-3.378795296118728420e-01,-1.536894832142318701e-02,-2.190861563352272060e-03,5.739425158450313889e-03,1.197836355497085975e-02,3.089470267295837402e-01
-6.056814745098917235e-02,-2.331611950019398527e-01,-4.382375273262947846e-02,7.105129712361353024e-03,2.814545401843801618e-03,2.703339312830313652e-03,1.820874512195587158e-01
-2.986455286938363707e-02,-3.778758049656273377e-01,-7.636871241996694148e-02,1.160728297168944160e-03,1.003415897943865816e-04,2.682312333525124250e-03,3.272860348224639893e-01
-4.744851586343951100e-02,-1.972713311634508582e-01,-4.977894295009958892e-02,6.705554288700184273e-02,3.899141798721946720e-03,4.054772295705745544e-02,2.014210969209671021e-01
-5.587958566723848219e-02,-3.341092082060259649e-01,-1.340836331229053324e-02,3.377640492230388290e-03,-2.561685471278594018e-03,3.494345047687506117e-02,3.078137934207916260e-01
-4.966022575568099229e-02,-3.667417054622822969e-01,-1.593090944866465408e-02,-3.880773570035030585e-03,7.254280402960170326e-04,1.258941373196982745e-02,3.359992802143096924e-01
-4.445882995897876278e-02,-3.608206480332758481e-01,-1.487101012596742100e-02,-3.748071429666275821e-04,2.229053056871811017e-03,3.025445046579187860e-03,3.322100043296813965e-01
-6.292788867342360981e-02,-2.664155790736948970e-01,-3.021130643219002709e-02,9.985706727966833091e-03,4.000350214634108836e-03,2.410406043478452789e-02,2.263298630714416504e-01
-5.442658629017195493e-02,-2.709525769626300318e-01,-3.199477816369537819e-02,1.675067371066491688e-03,6.870231497238662652e-03,1.530135896830007482e-02,2.304260730743408203e-01
-4.569683702080710314e-02,-1.947644501662509908e-01,-3.597434817587610162e-02,4.186862461981214617e-02,1.330137417711186633e-02,7.393395084809145645e-02,2.143674492835998535e-01
-1.166659028801184453e-02,-7.701489008337458753e-02,-2.100964867957317433e-03,-1.295580045157982991e-03,-4.878082782326258193e-03,7.692047386014451774e-03,7.239422947168350220e-02
-2.657767547774850247e-02,-2.317035503593196100e-01,-5.876121289131067127e-02,5.472959962934061812e-02,-8.126607185496835875e-03,-9.576613792910903047e-03,2.144061028957366943e-01
-3.116659418003668580e-02,-2.769066321417035237e-01,-5.773681365816482614e-02,2.513921871261173488e-02,-6.048636743095837064e-03,4.769974533518582787e-04,2.378469258546829224e-01
-3.787971214595572955e-02,-3.733769821237882258e-01,-5.601541119794094248e-02,-3.631260217528880846e-04,-8.450972510548789831e-04,8.560779253506277733e-03,3.271471261978149414e-01
-3.234629453063192495e-02,-2.629822447554748255e-01,-6.209422988113721953e-02,1.666526541617786156e-02,-8.524637245420732187e-03,-1.278729298912198789e-02,2.208136916160583496e-01
-3.340002110315244688e-02,-2.631399345394164202e-01,-6.302393137234431342e-02,2.740832311610991515e-02,-1.566530203819398647e-03,-2.066802834143582727e-04,2.216153144836425781e-01
-5.937931702611869839e-02,-1.752032752920895109e-01,-6.794041881274376360e-02,4.230273358311668896e-02,-4.634185931828982766e-03,-1.473334128489169580e-02,1.363125294446945190e-01
-4.875555802381433684e-02,-2.050821339162185730e-01,-6.591137138897718017e-02,2.534952499117690272e-02,-4.696609171751534029e-03,7.440255659008537846e-05,1.550625562667846680e-01
-3.592409809354626948e-02,-3.795549388243973921e-01,-7.663081282574366049e-02,-1.930731588151751027e-03,2.167502222939841038e-03,2.949593760997430356e-03,3.252729475498199463e-01
-2.384256073053435399e-02,-3.634564079730525088e-01,-3.624171572735929159e-02,3.190705185738911508e-04,-2.401312792167657924e-03,-5.251994929025721216e-04,3.336147665977478027e-01
-2.245773266089412523e-02,-3.778543546138440901e-01,-7.030770228579456826e-02,9.194417287109544340e-03,-5.233318524089536350e-03,1.328101897162218270e-01,4.060074687004089355e-01
-3.787856298933542365e-02,-4.296541797509713101e-01,-7.093001113121365220e-02,1.490877391782951221e-02,4.502171240959302982e-03,-1.167874642009672087e-01,4.281090199947357178e-01
-2.941380411100684433e-02,-3.687611015067997489e-01,-3.056005804042616347e-02,1.802920565139499336e-04,-2.420750362244478496e-03,-5.472291964418557171e-04,3.388030529022216797e-01
-2.772202958229304237e-02,-3.681361058580716050e-01,-3.532277161401232990e-02,1.141773482246717826e-03,-5.280092259087595247e-03,-1.586907042381844593e-03,3.368192613124847412e-01
-2.730199995228878296e-02,-3.632517372211588880e-01,-3.159255078374498260e-02,2.494145527042435431e-03,-4.980475943343848182e-03,-4.814326700125599271e-04,3.339655697345733643e-01
-5.321635098656950225e-02,-3.180457112616408288e-01,-1.453198802854102634e-02,-4.504595537607447402e-03,-1.268351969957504425e-04,1.778698601322667092e-02,2.878990769386291504e-01
-4.901175086241327250e-02,-3.450188750376740887e-01,-1.792148338537956354e-02,-2.152336075188221454e-03,4.538443137928246376e-04,2.219017549899175018e-02,3.150896430015563965e-01
-3.827093861921251894e-02,-4.118141450874754916e-01,-6.785283547860242181e-02,-4.806082249209790540e-03,9.073213368822472674e-03,1.450551702945746977e-03,3.601139783859252930e-01
-5.736849104845814784e-02,-2.621169008942990652e-01,-2.737310844517845676e-02,-1.441901434134970367e-03,-2.079195685184752080e-03,2.784911619494466126e-02,2.265150547027587891e-01
-4.089715596620954741e-02,-3.593345196279860154e-01,-2.139313529038611161e-02,1.760969277034241879e-04,6.565523171929429219e-03,6.089903192426220600e-03,3.289897441864013672e-01
-3.502945290592247851e-02,-1.927402506004972649e-01,-6.407731369942515354e-02,-4.068723288019235329e-02,-1.808579617763967848e-03,9.834862870069172036e-02,2.347953021526336670e-01
-4.717972759447017217e-02,-3.639271089719975372e-01,-1.332423292427095673e-02,-3.652634357355550080e-04,-7.635425696758855411e-04,-2.142951590660879726e-03,3.349845707416534424e-01
-3.062237066316012002e-02,-3.941237845780798388e-01,-5.024267543701545213e-02,-1.508301156050866412e-02,5.555885987099814204e-03,-7.488298085279186493e-03,3.554286658763885498e-01
-4.116194519569441046e-02,-3.776235131690574010e-01,-5.204922709515323598e-02,3.650675944994620243e-03,-2.754841191979208632e-03,2.015582149281120589e-03,3.312653005123138428e-01
-6.065800686919066431e-02,-2.071346358779715402e-01,-3.445032709138405591e-02,-1.861415077775678897e-02,-3.961767508149359983e-03,5.173277594233658544e-02,1.873404532670974731e-01
-3.641866261661508286e-02,-3.743470073481813820e-01,-4.294364045870278923e-02,1.659004571600832586e-03,1.925030898884142676e-04,-6.039366805753104868e-03,3.348894715309143066e-01
-4.713227269087137683e-02,-3.665144735201705806e-01,-1.938066284115881610e-02,-2.256508519367978263e-03,-3.184004071011160971e-04,2.111159912105957728e-02,3.361416161060333252e-01
-6.004715240107176555e-02,-3.694230034299527121e-01,-4.039390535998137188e-02,1.039854216340073049e-04,2.067370331293818999e-03,3.551827597775147763e-04,3.196766078472137451e-01
-3.261170199595031516e-02,-2.832026915313847759e-01,-5.479263765115661988e-02,9.739533364383151995e-03,-1.178877918406510787e-02,-1.565164774848073689e-03,2.417402416467666626e-01
-6.301367598682229565e-02,-2.459325276525300696e-01,-2.494502363349183904e-02,-1.906964178314067213e-02,-7.929635184018236829e-04,4.836837445541208175e-02,2.235695421695709229e-01
-4.355029546749715486e-02,-3.686523169681638068e-01,-1.806052791124140855e-02,3.019136899702210881e-05,-1.144443214720035568e-03,-3.813806660569718163e-03,3.386375606060028076e-01
-4.869414962146915993e-02,-3.547665765728009735e-01,-1.628407281610536050e-02,-2.919799745684062723e-04,2.059139748395070069e-03,-3.266622651266125939e-03,3.235669434070587158e-01
-2.342874549424589503e-02,-4.424353671122007170e-01,-4.610036704670389396e-02,3.066575366564223623e-03,-3.016404426879278761e-03,9.001018895690344329e-03,4.085089266300201416e-01
-5.857745800196595409e-02,-3.521514345743006480e-01,-1.847217341760218345e-02,-1.190325828966426643e-03,5.415839264481931564e-03,-6.361550043160737675e-04,3.156920075416564941e-01
-4.523998538094814448e-02,-3.552203548006288014e-01,-1.839994175556716738e-02,-2.628470553949940544e-03,5.808874741915367144e-03,-4.515163206028373604e-04,3.244236111640930176e-01
-2.875557380836227250e-02,-3.874452060668581166e-01,-7.203827507252330564e-02,-3.076018571841168409e-03,2.141475608932753936e-03,-3.225277557853352406e-03,3.392343521118164062e-01
-3.652927823289679743e-02,-2.708766324273049197e-01,-3.855852216975741431e-02,4.511594016227766374e-02,1.487532067756974427e-02,3.482099603715774899e-02,2.546662986278533936e-01
-3.113292004774351196e-02,-3.775186964491226149e-01,-7.124139781518749881e-02,2.766206943193124301e-04,-4.973064453242729936e-04,-1.883385511728814712e-03,3.281926214694976807e-01
-3.702906498980902683e-02,-3.776061988018025173e-01,-6.976717185612921202e-02,-5.531855631054317761e-03,8.723951614161985779e-03,4.508845684171202371e-03,3.260304033756256104e-01
-5.337402278860660376e-02,-3.392435654908724230e-01,-9.632340935706043550e-03,1.440391953507740984e-04,-9.870828704892553509e-04,7.775659898076637232e-03,3.103602826595306396e-01
-1.987598677369591116e-02,-1.320421563836262635e-01,-3.804053627204112553e-02,-3.978983451618262057e-02,-6.964016345301665689e-03,-4.912710281489331143e-02,1.516883522272109985e-01
-2.695389435970615977e-02,-4.041996152469611303e-01,-5.608668324284664386e-02,-5.267830773005998009e-03,-2.325091628741904077e-03,2.645755935292506272e-03,3.637214601039886475e-01
-3.015799029203272696e-02,-3.564866807052737840e-01,-2.934777509538441520e-02,5.605123560685860637e-04,4.366780351424402393e-03,8.904712291240775594e-04,3.268271684646606445e-01
-3.096278779070915643e-02,-4.493085356596138724e-01,-7.705481885241924345e-02,2.045736702406533367e-03,-8.108971377572393030e-03,2.620324090460507405e-03,3.975998759269714355e-01
-5.229178178738541627e-02,-3.488798044216491756e-01,-1.074285348940337559e-02,-1.034293690770018590e-03,-2.058573774734137260e-03,-1.440506600174819877e-05,3.194207251071929932e-01
-4.668173146264882611e-02,-3.480531860896756702e-01,-1.124410567922581872e-02,2.160768334204317409e-03,2.407076366176951355e-03,7.162446429375992057e-04,3.206140995025634766e-01
-3.469306226895249590e-02,-3.876504016858642876e-01,-6.981047229694024858e-02,2.667350906208497754e-03,-4.053284143455288327e-03,4.657159265407529412e-03,3.369760513305664062e-01
-3.783958237337875508e-02,-3.734605796591914384e-01,-5.391383060972204655e-02,1.928279496882923235e-03,-2.042145326564853269e-03,6.603980038189218894e-03,3.281150460243225098e-01
-4.337980492376193598e-02,-3.655107157172049481e-01,-1.365599735049019547e-02,-7.025425050919173030e-04,2.087524599731472273e-03,5.830978582827998219e-03,3.381469249725341797e-01
-2.558953339032961349e-02,-3.654267077111706397e-01,-4.020024007152382672e-02,4.568441011383732840e-03,3.393139861267558018e-03,2.308450946330837996e-03,3.329424262046813965e-01
-3.033875476625522150e-02,-3.799894259531854113e-01,-7.186416546907753444e-02,-3.615201056272185440e-03,-1.184786188997681566e-02,-8.533922278227524345e-04,3.315464854240417480e-01
-2.750439882693508920e-02,-3.910587370473621593e-01,-7.081470921863849965e-02,-8.405845483796503190e-03,9.486485060899493144e-03,-5.740845653432233298e-03,3.447937369346618652e-01
-3.946631497579702885e-02,-4.391258547663612899e-01,-6.072489945291811853e-02,7.192138094447248463e-03,-1.089911987412751741e-02,5.979676446962026160e-03,3.902592658996582031e-01
-4.071591573430786981e-02,-2.753679030378903825e-01,-4.899208099224842961e-02,5.029885738689687108e-02,-3.321833446951589618e-03,9.056445684339246849e-02,2.922615706920623779e-01
-5.069697137129650089e-02,-3.500566059579136580e-01,-8.342657228449235074e-03,8.447020277995013256e-04,-1.066068669049567442e-04,2.569962957431526709e-03,3.226627409458160400e-01
-3.029311981287666211e-02,-3.595525070377004195e-01,-2.483751065228806398e-02,6.025862634998151819e-04,4.296906250331610985e-03,2.222732032599145872e-03,3.321281671524047852e-01
-3.917425205733368609e-02,-3.704084469931935852e-01,-2.701404028155428294e-02,-2.095896428289702185e-02,8.802743791535288728e-03,-1.449497282192609496e-02,3.406940698623657227e-01
-4.004915102370815161e-02,-3.713419653577163526e-01,-3.773870624805564233e-02,-1.285399580965536966e-03,3.347082307020119319e-04,3.323061468644903250e-03,3.325118422508239746e-01
-2.936806022404198080e-02,-3.389424075314932949e-01,-3.030183916222103924e-02,-6.188163967188644980e-05,1.343354072616860691e-02,5.649265471541659337e-04,3.099845647811889648e-01
-3.981849080618943271e-02,-3.936490874138269813e-01,-5.185131818788389635e-02,1.706285063543413463e-03,-2.630539399217387327e-03,3.836908450005313380e-03,3.480760753154754639e-01
-3.550688011597946669e-02,-3.862123018352880410e-01,-5.006625965502696507e-02,2.479690182341266324e-03,-8.720157464057550281e-03,-1.103603352964574631e-02,3.445463180541992188e-01
-7.076128666412745405e-02,-3.741317312973413411e-01,-3.750298032705860762e-02,1.798577479220751394e-03,-3.609711332120193149e-03,1.452593159199491333e-03,3.213789761066436768e-01
-4.516452008087075420e-02,-3.719740549790232498e-01,-4.888023739177391191e-02,-5.892281186684594947e-03,-6.973727568780084540e-03,-1.113051422353124667e-02,3.259227871894836426e-01
-4.856562614971586533e-02,-3.756727035251891111e-01,-2.438902824057989638e-02,4.699484928329283537e-03,8.522493776518683464e-03,-8.291736165924748839e-03,3.405617475509643555e-01
-4.639661547611062531e-02,-9.441228567149276274e-02,-4.607405726904731380e-02,3.524495717630338198e-02,-4.527913394103155764e-04,5.331403581779813744e-02,1.207289993762969971e-01
-3.826102462476736743e-02,-3.736259927982743534e-01,-3.530222952088316046e-02,-1.106576795817146644e-02,4.327447283189900674e-04,-3.813412164126280673e-02,3.438040614128112793e-01
-3.726116606893309369e-02,-3.692486019711598288e-01,-3.938066434841884511e-02,5.008965557218835081e-03,1.116384793067354934e-05,-2.231530854559119446e-03,3.310690522193908691e-01
-3.885612473442255632e-02,-3.720961898978230042e-01,-3.590071874416049524e-02,-2.849471584945995734e-04,7.289927431520044389e-03,-3.471985388552740678e-03,3.350199460983276367e-01
-4.029323040613312645e-02,-3.710166667600277024e-01,-5.118386031132697578e-02,-8.917633512304234955e-04,-4.693753637079451746e-04,5.231735988960777364e-03,3.255456387996673584e-01
-5.247152054108672470e-02,-3.787160878122088348e-01,-4.946090407592190763e-02,-6.228048159165945098e-04,-8.303298451365499419e-03,2.631272342966509397e-03,3.281090557575225830e-01
-4.169851620517819879e-02,-3.681810160192665604e-01,-2.891735327778448272e-02,2.139950938022430835e-03,4.636391108243653747e-03,-4.706814747358412272e-03,3.332742154598236084e-01
-4.147659371832147779e-02,-3.735624178306413690e-01,-4.444347368978117385e-02,-2.088166163286214651e-03,-1.679608721399981604e-03,2.664823091368261239e-03,3.306771516799926758e-01
-4.359577190141392111e-02,-3.705019722111303482e-01,-3.928069390704760910e-02,5.129353115840332676e-04,-4.429167532330485378e-04,1.723229551699448012e-03,3.291005790233612061e-01
-4.933720305498645597e-02,-3.706514176162214458e-01,-5.652501958381522806e-02,4.072274102956555467e-03,-4.496655079050685712e-03,2.865663972034300771e-03,3.179937005043029785e-01
-3.561309807750115408e-02,-3.789448235340846516e-01,-7.328274147871934041e-02,3.059529693812452870e-03,-5.069071638637620732e-03,1.889729458326731100e-03,3.263102471828460693e-01
-3.155619309929050265e-02,-5.883241831439299796e-01,-5.658581833214423873e-02,-4.495003713252124222e-02,6.515505898161134436e-03,-4.000467911863911374e-02,5.546813011169433594e-01
-3.258473288490090769e-02,-3.820993475188065314e-01,-6.956594034638251267e-02,-3.467231050838980033e-03,4.359824844002679368e-03,3.901486373578112038e-03,3.327782452106475830e-01
-4.174630377217487809e-02,-3.706246127145244040e-01,-2.056913792700637567e-02,7.921957098672339917e-04,1.379661605803023648e-04,-4.005778002130321730e-03,3.400355875492095947e-01
-4.758708334731702461e-02,-3.558064452887219065e-01,-3.963516586770006456e-02,-1.115199391025710994e-02,1.343860087082974879e-02,-2.491327475163074637e-02,3.166863620281219482e-01
-2.956109187958907980e-02,-3.806657370161690146e-01,-7.227780765194578849e-02,-4.880716897555565682e-04,9.655336658687613607e-04,-3.068490612028444524e-03,3.318627774715423584e-01
-2.861128924549291574e-02,-4.358646256530014917e-01,-4.738078916492782788e-02,3.797942556405523723e-02,-1.364696590842235345e-02,5.241808999127470919e-02,4.143581092357635498e-01
-4.216169975826983274e-02,-3.715431426685018579e-01,-2.347731795651759878e-02,9.146455636846341887e-04,8.727556018200838001e-04,1.772810030289584306e-03,3.391308784484863281e-01
-3.112803161553087672e-02,-3.877679534516489945e-01,-7.372286135196465251e-02,-1.924410761953780982e-03,2.338151622304430761e-03,-4.553818879409609211e-04,3.374069929122924805e-01
-2.435755872707587311e-02,-4.440437839931011266e-01,-7.340248795908500823e-02,-1.753171659229793783e-04,-1.852017466523521493e-03,-4.392650056002597725e-02,4.046695530414581299e-01
-2.064160590655050864e-02,-3.549007741995762188e-01,-3.397534302444785159e-02,1.500257445117790349e-03,1.011738342465321079e-02,5.930783706060735287e-04,3.282757103443145752e-01
-2.753838908073739933e-02,-3.671085622989870845e-01,-2.926484776416354849e-02,1.385014621177103574e-04,1.033427536485040594e-03,8.546573626363692701e-04,3.387182950973510742e-01
-2.920282494685483288e-02,-3.666222192998325191e-01,-2.742650355074542634e-02,2.058994594651921859e-04,9.165456762964275519e-04,-4.948799220140082632e-04,3.383160531520843506e-01
-2.936080398017507087e-02,-3.667131552600638722e-01,-2.779602484624074665e-02,2.284447951953454538e-04,1.030262065329878276e-04,2.100022832116196965e-04,3.381379246711730957e-01
-2.748294157561642637e-02,-3.591266994689832348e-01,-3.151163885186830660e-02,1.330978990189199971e-03,6.424072914883428853e-03,1.269290566095792813e-03,3.298510015010833740e-01
-3.895952019422445345e-02,-3.732672241677247316e-01,-5.132539680022832340e-02,-1.289662511294304868e-03,-1.550193822066375153e-04,4.771459537525006740e-03,3.284111917018890381e-01
-3.637182835267557812e-02,-2.380317173065712166e-01,-4.997509115832748927e-02,-3.742495992564638663e-02,-8.666771574376321008e-03,3.030496063557038336e-02,2.128166407346725464e-01
-4.344075313258088933e-02,-3.661005005240419719e-01,-2.119693581318318754e-02,-3.716877611969695455e-04,1.748252682233733969e-03,3.976965289630180790e-03,3.344223499298095703e-01
-2.924117256367471385e-02,-3.660714220538883734e-01,-2.660631192897229547e-02,-4.441555486733894426e-04,1.749597318502054246e-03,2.556769186761916881e-04,3.381701111793518066e-01
-3.138532399820831431e-02,-3.665442777505770189e-01,-2.462024222174749588e-02,-3.381632795827168355e-04,1.235555740504138203e-03,7.604621638583116284e-04,3.386020064353942871e-01
-3.190899976907496383e-02,-3.629874370342500711e-01,-2.435797279768091295e-02,8.963536060870420062e-04,1.271100555690240618e-03,6.112590720060070157e-04,3.349303007125854492e-01
-4.624278570765973095e-02,-3.778789907947235349e-01,-4.123329144111435862e-02,6.298425570068392305e-04,-3.757163280261726149e-03,-5.942971540462103908e-03,3.343927264213562012e-01
-3.893127156447324932e-02,-3.739325141821303600e-01,-5.246731879875080051e-02,-6.696816450423275901e-04,-3.594197389471697011e-03,2.130060306125730260e-03,3.285242319107055664e-01
-3.744545249968357636e-02,-3.747977094764913808e-01,-6.769407541033478637e-02,3.923466265347416368e-04,-3.119030532165460636e-03,1.746567079208373886e-03,3.233510255813598633e-01
-3.780272127912238933e-02,-3.669775058543747193e-01,-2.778959090533439369e-02,9.197351174921297430e-05,1.397942101917411901e-03,2.311747072251041802e-03,3.343266248703002930e-01
-3.121125081531350709e-02,-3.701702147018774980e-01,-4.100863544057799237e-02,-1.084743566236434685e-03,6.832559635707044715e-04,-1.423089462938157204e-03,3.341844677925109863e-01
-2.271031672780432498e-02,-3.000249873473437301e-01,-5.786915887899482525e-02,7.982497000432143761e-04,3.629808735225931345e-03,2.535993906287217856e-03,2.616299688816070557e-01
-2.693560673430407670e-02,-3.321441186075249075e-01,-3.548338695757889683e-02,2.742871984426129613e-03,1.230738522436259329e-02,7.215907638234748608e-03,3.020755648612976074e-01
-2.772838677990546730e-02,-3.655011158698097118e-01,-3.472870280891578176e-02,7.203725010441732130e-04,2.029754660803507766e-03,2.280843771306894502e-03,3.343716859817504883e-01
-2.886530096068636031e-02,-3.576971890798410492e-01,-2.736548281927408954e-02,1.773955544592835908e-03,3.577982012539548343e-03,1.378524050669607728e-03,3.296655714511871338e-01
-3.099828180831157298e-02,-3.664342727386767917e-01,-2.947730167767345644e-02,-7.862272395095082746e-04,2.059890040776178859e-03,-2.461432716370115948e-04,3.362210094928741455e-01
-3.813373208251208402e-02,-3.790896805824314209e-01,-6.409051621451082592e-02,8.971855644406796304e-04,-2.496629498720246733e-03,-2.177108154597877984e-03,3.288007378578186035e-01
-5.058373406963484475e-02,-3.628303971888545698e-01,-3.603208616468600578e-02,4.214944682793320130e-02,-1.040428742172215190e-02,5.116480481759764359e-02,3.402372896671295166e-01
-4.511688783146036719e-02,-3.941506118971759287e-01,-4.558539794895377639e-02,3.284453608519171536e-02,-7.074424393387188439e-03,2.908646895202039728e-02,3.571914434432983398e-01
-3.981180479274364081e-02,-4.147542088589321607e-01,-3.455657784318796888e-02,4.006380743123329896e-02,-1.445905866415608029e-03,1.390003826163563327e-02,3.846830725669860840e-01
-3.483364523667116519e-02,-3.624158220142778553e-01,-4.226260753346421095e-02,7.863947109224864868e-03,2.049019335320894763e-03,7.274700188528526387e-03,3.244819939136505127e-01
-4.682723290529768045e-02,-3.659873453684404643e-01,-4.599213288811065947e-02,7.313350304619910605e-04,1.388186917557450396e-03,-2.071276959712134783e-04,3.195902407169342041e-01
-3.324239479312990353e-02,-3.649789034397780130e-01,-3.854989171219634636e-02,2.026960746994254173e-02,6.560049809877057866e-03,4.795425608471829207e-03,3.312812149524688721e-01
-4.741726146706426448e-02,-5.564721707667101835e-01,-3.850623359841512383e-02,4.147981291010767457e-02,-9.066025721018684119e-03,1.651594760236007459e-02,5.195951461791992188e-01
-4.959409312117719904e-02,-2.621587977983885764e-01,-3.800008720448269650e-02,5.857461866498173998e-03,-7.783212789308627429e-03,-2.606118718792805114e-02,2.238411754369735718e-01
-3.502447131248578871e-02,-3.539513263651481445e-01,-3.210990983460124126e-02,1.870788233043146811e-03,1.200280058428406134e-02,1.791003091781093789e-03,3.210991919040679932e-01
-5.646121634687804869e-02,-1.460910328007611336e-01,-5.901437609941247164e-02,-5.942743713860922962e-03,-7.697132250183701639e-03,-2.228498067564243720e-02,9.790163487195968628e-02
-4.433403433010524308e-02,-3.485513760560798868e-01,-2.036982789305000208e-02,-3.470557694142303515e-03,-5.792429017915078256e-03,6.484305256066292406e-03,3.172943890094757080e-01
-4.734243215329185517e-02,-3.011854597681297152e-01,-2.756533681276333858e-02,1.310918217624425924e-02,-3.983154876087111745e-03,-3.604575726372578892e-02,2.725962698459625244e-01
-4.264911559208144076e-02,-3.693048388710444829e-01,-3.361200979685909085e-02,-2.306381159437371001e-03,7.847558559681281276e-04,2.527939436142553377e-03,3.313225507736206055e-01
-5.564282751148413864e-02,-3.162944342968943001e-01,-2.212840556227818611e-02,5.739309795485412948e-04,3.458233907797716999e-03,-1.376615091819625471e-02,2.800061702728271484e-01
-4.120095608738764958e-02,-3.729236965349115307e-01,-3.315986822834483816e-02,9.021309717591679362e-04,8.855112931272159267e-04,-1.587665551144361959e-03,3.358339071273803711e-01
-5.246190197743633155e-02,-3.095452862174080666e-01,-2.036946511430749729e-02,1.856633959865043029e-03,-5.434386718038659164e-03,-1.586160744180759377e-02,2.760904431343078613e-01
-5.264944347100364297e-02,-3.043201279246903201e-01,-3.125874958860914987e-02,1.606893228484351961e-03,-9.398713996171609991e-03,-1.856158287102775912e-03,2.635568082332611084e-01
-3.266412551299474609e-02,-3.585092009417369940e-01,-2.852320983101012952e-02,-2.634668491597338957e-03,-5.591747270650860441e-03,1.994065464128583383e-03,3.281280398368835449e-01
-3.429573876883430794e-02,-3.471198456600127491e-01,-3.439183625533226429e-02,-3.902857381341677534e-02,5.204998557387441500e-03,-1.512756837516485847e-02,3.211952149868011475e-01
-4.215850024674408503e-02,-3.720563262910407953e-01,-2.129057131835893069e-02,-6.420503865563650632e-04,1.368440046412700136e-03,-1.526162094382752443e-03,3.408315777778625488e-01
-2.434700668759162689e-02,-3.640814947121697731e-01,-4.227879226693399828e-02,-1.677543842833741582e-04,8.573902154948159771e-03,-6.484439263886721113e-04,3.314678072929382324e-01
-3.403414391867419508e-02,-3.766298508133093526e-01,-3.279965006951933437e-02,1.123435312222892607e-03,2.328642996444874221e-03,9.704471939484077226e-04,3.432479500770568848e-01
-4.976269630092752805e-02,-3.416642079811590405e-01,-1.026851462689323813e-02,-2.512518736625392237e-03,-3.082909398196106727e-03,7.801803510446572547e-03,3.138865232467651367e-01
-3.001077270538117514e-02,-3.502099593403271705e-01,-3.771180924018013858e-02,-4.102272491295913537e-02,9.427551847812101066e-03,-2.186291761136003806e-02,3.269099891185760498e-01
-3.815616398843187096e-02,-3.736585816506782232e-01,-4.079502867230337670e-02,3.157095644717986416e-03,9.444727211777139211e-04,2.354146279746124806e-03,3.342643976211547852e-01
-4.082325390002676524e-02,-3.737232118865526642e-01,-4.182438992145541545e-02,1.195036820769680968e-03,-8.629191242643211327e-04,1.257398256391460429e-03,3.324174582958221436e-01
-4.382896755127023425e-02,-3.723892717667835472e-01,-4.374651464380809041e-02,7.974211864596591082e-04,-1.551041313584988887e-03,4.234495653340528826e-03,3.286972641944885254e-01
-3.761515447462566997e-02,-3.756982630761521724e-01,-2.974793322446483979e-02,1.445795765053845515e-03,4.735158536622118865e-03,-3.195369340416579895e-03,3.422367870807647705e-01
-4.890750697905424382e-02,-3.707138525225697201e-01,-4.506931379605270960e-02,3.090377443421837931e-03,-4.595562506403385455e-03,3.565115639117379023e-03,3.239434361457824707e-01
-3.740678002823796811e-02,-4.273960416305805365e-01,-5.540796316252322162e-02,-1.248815053242311075e-02,1.342736045881705743e-03,4.824564278861088323e-02,3.909623920917510986e-01
-3.700661820168103799e-02,-3.642302218747568432e-01,-2.079494956447475174e-02,-3.749859468162578463e-06,1.772199887790787192e-03,2.431144345599787170e-03,3.356636762619018555e-01
-4.036556394062683351e-02,-3.758727365639286111e-01,-4.345856509320064620e-02,-4.849822727723647128e-03,2.450403019852268895e-04,2.321832219930320719e-03,3.341014981269836426e-01
-3.444509782714105794e-02,-3.674326164658927585e-01,-3.878638256053039413e-02,8.196223291800400993e-04,8.966435217419778825e-04,1.211317124525196527e-03,3.308515846729278564e-01
-4.422304659389839077e-02,-3.545314244865804820e-01,-1.575268322504960739e-02,-5.478808907264449274e-03,-3.669368025593143165e-03,4.933549783033041800e-03,3.257912099361419678e-01
-3.472268489577695627e-02,-3.991122321999297506e-01,-5.887077619033695419e-02,-1.143069522556590910e-02,1.035512469351497315e-02,9.533098062054625593e-03,3.543301820755004883e-01
-2.579283263814693972e-02,-4.179926111045532688e-01,-5.841257446999591207e-02,-1.131065146085471346e-02,-1.224362473465340174e-03,8.424121940958409840e-03,3.777465224266052246e-01
-4.530959729945550907e-02,-3.658457775387142785e-01,-4.650185441262469355e-02,9.997382618242242093e-04,2.326417943498226381e-04,-6.814665103222438108e-04,3.199488222599029541e-01
-2.985486071951723441e-02,-4.044164656171071459e-01,-6.742412892982677097e-02,-1.142089413464065367e-02,6.781605150402921466e-03,3.950304462865946928e-03,3.580669462680816650e-01
-4.062385562594113264e-02,-3.818329946098816818e-01,-5.235973830019416408e-02,-5.495440257986798247e-04,-7.415454526176571423e-04,-8.606541993098327202e-04,3.355022966861724854e-01
-4.850101357745896513e-02,-3.583061873743505488e-01,-9.802485028521684685e-03,-5.099565740952045293e-04,4.069653950995303672e-04,2.935584434813593747e-03,3.308972120285034180e-01
-4.272229494631213376e-02,-3.716104986745276673e-01,-3.942767469038731265e-02,-3.267796453455307270e-04,9.724977053035359964e-06,2.889904360973282078e-03,3.305861949920654297e-01
-3.425215531267730706e-02,-3.859073943498254611e-01,-5.483618449230583114e-02,-8.711957575086676188e-04,-7.293337563172199844e-04,-3.791084844007150314e-03,3.418971002101898193e-01
-3.965860286747630026e-02,-3.683607723039488135e-01,-3.781954750397867326e-02,-2.800943865556093995e-04,1.040985104243574488e-04,3.118583583480739711e-03,3.296701908111572266e-01
-3.469287782609740967e-02,-3.679912623694232554e-01,-3.729849823875483472e-02,4.105606181988329714e-04,1.273813394990265697e-03,1.103869792790712146e-03,3.320168256759643555e-01
-2.734047122653945894e-02,-4.378979471574095950e-01,-5.491296089799810320e-02,-1.784668215367487057e-02,1.127727926232225536e-02,9.852394161240991474e-03,3.995320200920104980e-01
-2.634682892094780682e-02,-4.218855846215350258e-01,-5.613193237420777137e-02,8.621352092772366707e-03,-5.591134133598398177e-03,9.096555304867004130e-03,3.822589516639709473e-01
-5.487060202580455737e-02,-4.329469761216984680e-01,-3.303135908840551527e-02,-4.545545720071297868e-02,-7.594379615908235064e-03,-1.671989482341509903e-02,3.986049294471740723e-01
-6.602296274758998051e-02,-3.777831173926234909e-01,-3.744838544374534672e-02,2.975159554355412059e-03,-9.824832831017185977e-03,3.037545819252182588e-03,3.275105059146881104e-01
-3.145723386102455832e-02,-3.816838543245920645e-01,-7.987288775192713519e-02,-2.238071345339068870e-03,-3.052619490798668539e-03,1.888061718944328456e-03,3.287856280803680420e-01
-5.160877761247559259e-02,-1.016875811108686189e-01,-5.833270802005756372e-02,2.806344920209428301e-02,-6.235634641680247447e-03,-2.103893664606424144e-02,7.761187106370925903e-02
-4.255277695233213031e-02,-3.689837937974069781e-01,-3.916001470213362201e-02,-2.936776051658765690e-03,-7.973529181745961196e-04,3.694504594885627126e-04,3.281835019588470459e-01
-6.260198598823904503e-02,-2.145898987027599625e-01,-6.589293374205644482e-02,-1.321697951483610453e-02,-7.647915686041894222e-03,8.991699202428375627e-04,1.526857316493988037e-01
-5.644402006405206673e-02,-3.745296858160579445e-01,-3.088514977517779758e-02,-3.250120620741681066e-02,-3.660085547708139680e-03,-2.370815410549936830e-02,3.389056921005249023e-01
-4.414920419792922601e-02,-3.702175044923614045e-01,-6.381264141135223333e-02,2.460701300117008970e-03,-6.525631039803395442e-03,2.389018635311436402e-03,3.169520497322082520e-01
-4.125650560421470492e-02,-3.736493533926721344e-01,-3.321445823033256084e-02,1.198963998202775584e-03,8.467976375590327391e-04,-1.549681218555934437e-03,3.365062773227691650e-01
-4.748656791720633208e-02,-3.773551495045150972e-01,-4.275408415593390243e-02,-2.994368600707528281e-03,-2.115259613921741111e-03,1.638482278249787710e-03,3.323328793048858643e-01
-6.420031290442529404e-02,-1.974216220628663421e-01,-5.764554802710811221e-02,1.471230015281897296e-03,-8.305320187018542730e-03,-1.645268718804826502e-02,1.403197050094604492e-01
-5.042559623343262354e-02,-3.551461969236877070e-01,-9.615598007812226067e-03,2.100982922159987129e-05,-1.910845292767260459e-04,3.788327294791726807e-03,3.271068930625915527e-01
-3.221787534899396566e-02,-3.341142901523151409e-01,-4.434901967928264743e-02,8.897267629920540036e-05,8.451549581688739751e-03,3.069840228649768936e-04,2.963795661926269531e-01
-5.009784961695844252e-02,-3.514389081859923825e-01,-9.340302538061923121e-03,5.901651758047737591e-04,-2.371002757876028682e-04,3.662029555513101903e-03,3.237143456935882568e-01
-3.618925707837582217e-02,-3.742319618010432336e-01,-2.886152434375072184e-02,6.276479628671614939e-04,2.257887226375887742e-03,-5.288386387441384540e-05,3.417896032333374023e-01
-3.625515217530296541e-02,-3.701825454698429163e-01,-3.022171187893774036e-02,7.991678506624807100e-04,8.816792448776051422e-03,9.286439511331570900e-04,3.373371362686157227e-01
-5.221587250806319913e-02,-2.157479634906352417e-01,-5.912020135615467936e-02,2.014753796362040231e-02,-7.396713090369471527e-03,-1.999564783371465468e-02,1.680556982755661011e-01
-3.570059390322302684e-02,-2.229937342666846734e-01,-6.002331624674087790e-02,4.761281205552349294e-02,-6.710897375799295718e-03,-9.211545495733646643e-03,1.957177668809890747e-01
-4.863894696210992880e-02,-1.729112858883198323e-01,-6.347797838454075081e-02,6.046321725915283080e-02,4.931773256635527472e-03,2.851559096405257947e-03,1.577481925487518311e-01
-3.410953746124747998e-02,-3.749924442166360783e-01,-3.642319043531562495e-02,-1.916690297618463796e-05,8.294630274250757839e-04,1.506609720432768680e-03,3.397450447082519531e-01
-4.647599019356533218e-02,-1.747153565741514369e-01,-6.741986963762634788e-02,3.148832018497191992e-02,1.904133223815426389e-04,4.344038843003557304e-03,1.312608718872070312e-01
-5.036663357508879696e-02,-1.864265579429049136e-01,-5.429590365360125598e-02,5.211418389901781301e-02,5.698589600772621319e-03,3.363943824210698097e-02,1.721425205469131470e-01
-3.151102784777093380e-02,-4.008291994586020701e-01,-6.163376046298213451e-02,-1.747914218184833807e-02,1.007458639404472216e-02,-4.672844779159992384e-03,3.570223748683929443e-01
-3.698083851385153276e-02,-3.751299008668889656e-01,-3.542982911960471104e-02,1.619289538875514408e-03,1.369846346745562469e-03,1.081299933213236670e-04,3.389471769332885742e-01
-3.892760904377892683e-02,-3.744514090234841719e-01,-3.046289538293114885e-02,1.407050650101209594e-03,9.136752791444218477e-04,-2.041972867468515882e-04,3.398478329181671143e-01
-2.870630955153166686e-02,-3.916762729454296710e-01,-7.329211016982679905e-02,-8.125204241253761563e-04,-3.351438671106125953e-03,6.925841567934011740e-04,3.429123759269714355e-01
-3.414401839946448747e-02,-3.722308348023007918e-01,-3.183073301798845789e-02,-1.453058185245218598e-03,4.564477727291413670e-03,-5.102100055099337457e-04,3.393519520759582520e-01
-4.907807512423097152e-02,-3.428539985960318281e-01,-1.782760222525557603e-02,-7.672297551068848120e-04,-7.451334555824413834e-04,-1.515496642450770044e-02,3.116953074932098389e-01
-3.722670022110655119e-02,-3.794889087537136052e-01,-5.187622738847204318e-02,-6.546756089796645093e-04,-2.646642631788390316e-04,3.064680051271826376e-03,3.352218866348266602e-01
-4.809953789962256865e-02,-3.693271140719938117e-01,-2.127893437618755268e-02,-3.345326685608971101e-03,-1.094582083390852577e-03,-2.140832968971934092e-02,3.375413119792938232e-01
-3.502301442913335894e-02,-3.759413349491246281e-01,-3.399088882811425461e-02,1.456951785175712808e-03,-4.002448313540154671e-05,3.971196704164461845e-04,3.414455652236938477e-01
-3.597043625222759444e-02,-3.793401454348750423e-01,-3.509346537413068901e-02,-1.138801963866266712e-02,9.453290381190056560e-03,-1.755420746629623649e-02,3.461015224456787109e-01
-4.355104563596283451e-02,-3.704380734331099712e-01,-4.320805382182817123e-02,-8.615067335998472658e-04,-1.900861964412100310e-03,-1.867852074259954880e-03,3.270946443080902100e-01
-5.019377887885337342e-02,-3.388160236684502613e-01,-7.322605295712450446e-03,8.005279805091222332e-04,1.443376245251027940e-03,6.704915764219008915e-03,3.125017583370208740e-01
-4.077059355699552690e-02,-3.638501914793829117e-01,-5.138389859651035230e-02,2.897901148090477677e-02,4.824512354888483602e-03,-6.728284047129710899e-02,3.423948585987091064e-01
-3.459079180266257103e-02,-2.930055314024514468e-01,-5.171278877396147389e-02,-9.311491587035144318e-03,2.606623677640533716e-03,-7.750252762957091091e-02,2.845121920108795166e-01
-4.520731607603582780e-02,-3.739547566454806682e-01,-4.152401934567234720e-02,-4.085195237084784763e-03,-3.692641397854804202e-03,5.121309806993079670e-04,3.307432234287261963e-01
-3.383444094524136470e-02,-3.592369172322815718e-01,-2.358761332621445161e-02,2.077534725229627458e-03,1.476456053795173083e-03,3.705438278429423965e-04,3.306750953197479248e-01
-3.081005144264555018e-02,-3.658029740971313060e-01,-3.425617449909473811e-02,-1.003772940448275676e-03,5.262224654775134311e-04,2.484743999595640505e-04,3.332892954349517822e-01
-3.001104184116874796e-02,-3.558658135204417206e-01,-3.921164582888297945e-02,4.390822672218314821e-03,5.005502842665500961e-03,8.202733064059937289e-04,3.215632736682891846e-01
-3.447769539838015096e-02,-3.665191374252549372e-01,-3.244661496241618703e-02,4.334143082340096266e-04,1.104024614424330966e-03,-1.363671120812916205e-03,3.330763280391693115e-01
-3.548269848415699923e-02,-2.719799331640757045e-01,-5.023883300684596487e-02,1.212484905002937478e-02,-3.503691581830509303e-03,1.116553354091077560e-01,3.008944988250732422e-01
-2.321968250796470346e-02,-3.627205252685348214e-01,-3.969124664782018586e-02,5.541319044237070016e-03,6.682028475510842953e-03,2.870679912616942633e-03,3.319500088691711426e-01
-2.028904670094784646e-02,-3.486729363127811787e-01,-3.907337842145972018e-02,2.255489657920101978e-04,8.728805616407840640e-03,1.123028951170633666e-03,3.197700381278991699e-01
-4.340593605392145671e-02,-2.711149764867051282e-01,-3.319676215425856891e-02,3.338488865369091535e-02,1.299969398129294587e-02,4.500986309596361618e-02,2.533942461013793945e-01
-2.991237271058595770e-02,-2.857433938139282148e-01,-4.599120493660746600e-02,1.402128758871254606e-02,1.290381258268013046e-02,6.433443281633787099e-03,2.506153583526611328e-01
-3.106756930652550264e-02,-3.053321757145465720e-01,-3.259798052673223978e-02,1.290899726151244903e-02,1.326840450563611558e-02,1.067605542637410122e-02,2.759958207607269287e-01
-1.914868768380914577e-02,-3.283693028620545129e-01,-4.510023158464865345e-02,6.732748837214232174e-03,9.858656320406639084e-03,1.474671124198143621e-03,2.978258132934570312e-01
-3.883589613336459190e-02,-3.670849229627930477e-01,-3.573954502240933584e-02,-7.609871799697757598e-05,1.294452693549286333e-03,1.386084762351070664e-04,3.298158347606658936e-01
-1.798851026899679628e-02,-3.137881269039705101e-01,-4.718955121734415281e-02,8.975581123293913111e-03,9.679005410206621349e-03,9.704379692977369021e-03,2.837564349174499512e-01
-2.411614573595535771e-02,-3.566664710897869961e-01,-3.976535470928839466e-02,-6.859607085817507818e-03,-7.992690588939433891e-03,4.815513385483130224e-03,3.256268501281738281e-01
-2.659793971939249102e-02,-3.669822539703478936e-01,-2.662057449554325328e-02,1.919851423572503765e-04,1.515580726108555756e-03,4.088596612310611670e-05,3.403832912445068359e-01
-7.670401054624545467e-02,-4.349186870714438768e-01,-2.189503078532659130e-02,3.871460980249411682e-02,-4.174841677493153040e-03,-1.940260413585167057e-02,3.957692384719848633e-01
-4.439707426730746254e-02,-3.682985652412464894e-01,-5.390508374198181574e-02,2.753048857992431570e-03,-2.049073432900239741e-03,2.644164272662596557e-04,3.193093538284301758e-01
-4.494274984447743648e-02,-3.803560298132855899e-01,-3.231819121458014143e-02,-5.996316938851121298e-02,1.134929163749831202e-02,-1.472220010393479475e-03,3.578764498233795166e-01
-2.962476404782314610e-02,-3.797327832797008362e-01,-3.304104968494454841e-02,-8.918313446350541575e-04,7.288365735696482675e-03,-1.657574675905639601e-03,3.486562967300415039e-01
-1.438760692717133693e-02,-3.695154120648134199e-01,-4.295873157764737438e-02,-1.483544407807353693e-02,5.558215796588573780e-03,-8.045428226783696291e-03,3.431221544742584229e-01
-2.938809103875100748e-02,-3.668274056241419556e-01,-2.864880801328298365e-02,2.287947324727867887e-04,1.033861504671088137e-04,-2.112194250314469528e-04,3.378100395202636719e-01
-7.183620176331599605e-02,-3.825074469820328726e-01,-3.253020756216021270e-02,1.244188496983890261e-03,-3.326689145355793235e-03,-5.429252943500175420e-04,3.321318328380584717e-01
-4.831703641936886673e-02,-3.658775694420257629e-01,-4.370881049727994017e-02,3.214543732317701316e-04,7.315664945239062087e-04,-9.131097718455603949e-04,3.198964595794677734e-01
-4.299266406737929647e-02,-3.762882674406261563e-01,-3.830566964758658210e-02,3.741413358188980069e-03,1.661521966455226616e-03,-3.907913230851042981e-03,3.358067572116851807e-01
-2.200879779845753281e-02,-3.151332324740416801e-01,-4.576257511476143625e-02,-5.287342396659516081e-02,-1.476854952829338534e-02,2.664652106691032737e-02,3.011554479598999023e-01
-2.032300887848996485e-02,-3.598837204957449631e-01,-3.803146072398715105e-02,1.961759951099484745e-03,2.190398209756887725e-03,-6.550513790747354418e-05,3.311010897159576416e-01
-6.101413582143992709e-02,-3.696183820874758830e-01,-4.269889673907648064e-02,9.700094228757404763e-04,-2.675379357298481465e-03,1.445347890454499453e-03,3.182055056095123291e-01
-3.750838095434422259e-02,-3.933435379193243597e-01,-3.492056805189820701e-02,-3.026580234955969506e-02,-6.720426939920933667e-05,-3.256593644468698534e-02,3.653435111045837402e-01
-5.530849070536598966e-02,-3.709219265513457042e-01,-4.380104917434558820e-02,-2.427452962053051888e-03,-3.012481460629697159e-03,-1.892493052444047614e-04,3.215916156768798828e-01
-6.291656198328395011e-02,-3.777908499230239192e-01,-4.010148955283092398e-02,2.864121147401075575e-03,-4.392201084562202817e-03,3.851505551370893680e-03,3.270736932754516602e-01
-7.190274196957166519e-02,-3.883011659476728328e-01,-3.365087408253547574e-02,3.897648267394015001e-03,-1.836842635265198941e-03,7.132610901698155977e-04,3.372406065464019775e-01
-3.446940735620976359e-02,-3.802227560978812537e-01,-4.118801857344908668e-02,-1.961210902371894344e-03,9.718869842828067743e-04,1.157016302598830402e-03,3.424703180789947510e-01
-1.825671847003461357e-02,-3.599739012967628771e-01,-4.073284086676128013e-02,3.355099409063893711e-03,3.862832973704834281e-03,2.955444299333697365e-03,3.312100172042846680e-01
-3.993743735924014382e-02,-3.724107666108246173e-01,-4.450711151335304261e-02,3.690019813014803595e-03,8.886621641519525799e-04,5.091133382806354804e-05,3.302776515483856201e-01
-2.199491639858884573e-02,-3.404401699260574121e-01,-5.419342457936263124e-02,-9.311279560721202539e-03,-5.862118086174456823e-03,-3.022204990693477464e-03,3.042716681957244873e-01
-3.139141093689679085e-02,-2.522795786164918619e-01,-5.278549274139417158e-02,4.423549899235933169e-02,8.862630760188486626e-03,9.323979988180713940e-03,2.255889475345611572e-01
-3.804415167766683759e-02,-3.733778393241135030e-01,-2.789568463927735720e-02,1.289588503490847254e-03,4.157758175398390370e-03,4.427821496348806210e-04,3.406056761741638184e-01
-3.960854354730650173e-02,-3.767297531730845472e-01,-3.706902581614487935e-02,1.991488093795270621e-03,3.071343405043325953e-03,7.927052872624764518e-03,3.387358784675598145e-01
-3.250860419127928058e-02,-3.751895569133567587e-01,-3.454360197675680755e-02,7.264595815683214325e-04,2.365638831706446538e-03,1.566785102173525726e-03,3.417056500911712646e-01
-3.543209536814140304e-02,-3.776899875019132935e-01,-3.358540369513511592e-02,-1.854527198580155486e-04,9.436142831048570032e-04,4.008931335754275052e-04,3.431897163391113281e-01
-3.787845455393021310e-02,-3.751061140575251973e-01,-3.720647864909959468e-02,3.333747962273586087e-03,1.165829545081403795e-03,6.230221299611616963e-03,3.377919793128967285e-01
-4.140118583243962425e-02,-3.684686924794242091e-01,-4.855919503701630613e-02,-3.879432683295537488e-04,-7.852368938017197314e-04,-1.295026892737037409e-03,3.235592246055603027e-01
-4.086099366165009406e-02,-3.648284884248969573e-01,-1.817793273806841969e-02,-9.941165529581557931e-04,2.932227253074247680e-03,1.933512816337048384e-02,3.375919759273529053e-01
-3.995617682958776951e-02,-3.753416985622619606e-01,-3.389760580559035563e-02,1.419266401454285587e-03,1.790563505395418881e-03,2.877945719101652382e-04,3.384789824485778809e-01
-3.509986535221998327e-02,-3.766311485296308659e-01,-3.567328046366979866e-02,7.992699501000272112e-04,1.978893766553397053e-04,7.260756431101243616e-04,3.412502408027648926e-01
-3.882628556043876689e-02,-3.669266237997229618e-01,-3.009980409709205051e-02,4.986970189801787426e-03,2.135762318917167231e-03,3.643438509001447473e-03,3.327420353889465332e-01
-4.690988246176627796e-02,-2.670871725282732423e-01,-3.538865808676081026e-02,7.560043874012650766e-02,3.408735149865350792e-05,3.876421242238398124e-02,2.698180079460144043e-01
-1.291725197790201396e-02,-3.516195428184559768e-01,-4.171048358089081420e-02,2.255493956344440179e-03,5.513144733134714599e-03,2.057786540666277190e-03,3.254460096359252930e-01
-3.523099915763100443e-02,-3.893377929667457549e-01,-3.894428664189183986e-02,1.207364830205475033e-02,6.431787211182795651e-03,2.267365660149259915e-02,3.552382588386535645e-01
-3.295929529996480256e-02,-3.638347185169025777e-01,-4.223787698926118050e-02,5.756393561416367488e-02,3.443533003163515380e-03,4.260405798402149696e-02,3.491651415824890137e-01
-4.506281907833270539e-02,-3.449146784410880295e-01,-2.129530002330536076e-02,-3.181427222187120852e-05,1.347957909335595859e-03,-1.108305850436128170e-02,3.130123317241668701e-01
-2.590570219675170094e-02,-2.881807569649870726e-01,-4.106309919022693711e-02,-2.365564375919432943e-02,9.719175632575276919e-03,-2.998512900057147268e-02,2.640114128589630127e-01
-3.817179656928675058e-02,-3.679264000120852085e-01,-3.398941920807159456e-02,-1.316275340542202290e-03,-2.634196386608839233e-04,3.282066874649801195e-04,3.318741917610168457e-01
-2.981252790298392907e-02,-3.682163478840773108e-01,-3.248008427318027636e-02,2.915617995295686051e-04,1.253928374822628087e-03,7.745948985951683040e-04,3.370879888534545898e-01
-2.194040315657949658e-02,-3.571902826061400527e-01,-4.729411621759850581e-02,5.210036856995507032e-02,4.413124265962058840e-03,-3.579941028309789088e-03,3.358209133148193359e-01
-3.282234898134588075e-02,-3.672429504031693992e-01,-2.937992782234490063e-02,-5.352641956130790423e-04,1.206347616956916248e-04,3.737026920292560103e-04,3.361569941043853760e-01
-4.043968317843711635e-02,-1.515071237621485878e-01,-4.901718165186690762e-02,-6.113491630473246591e-02,3.374912039010358623e-03,-4.039686553440284544e-02,1.661300510168075562e-01
-4.242230541820132816e-02,-3.647363253621504486e-01,-4.758098946250767514e-02,6.937900241424137455e-05,-1.156692348178638011e-03,5.735670477052807852e-04,3.197737336158752441e-01
-6.438755433880802292e-02,-2.361351413501321939e-01,-3.544001314508354872e-02,1.647759664239378721e-03,-5.622968162653286563e-03,-2.781985549456219425e-02,1.942464858293533325e-01
-4.196826132298107914e-02,-3.699453463001409204e-01,-3.337448926814269579e-02,8.325856202649655272e-04,1.150769843760587549e-04,1.874026698771029094e-03,3.323763608932495117e-01
-5.868543418626451236e-02,-3.504758305488542280e-01,-2.525847914080016354e-02,-2.507294903587381149e-02,7.249503333053494529e-03,-3.328665059531360493e-02,3.184027075767517090e-01
-4.858457572468612151e-02,-2.858615448583493590e-01,-3.384455246265516415e-02,-1.232142361759121056e-02,9.257116521569790091e-03,-1.798058559587310812e-02,2.483898848295211792e-01
-5.029661161382671664e-02,-3.263567380080913960e-01,-2.259893768433830774e-02,-9.379465526295980779e-03,4.718713649964211172e-03,-1.414173233117922528e-02,2.924948930740356445e-01
-4.414825572717517854e-02,-3.643173102331348501e-01,-4.849335426378099945e-02,6.263793544573566284e-04,-2.080082665826718004e-03,-3.253041909927222356e-04,3.180415332317352295e-01
-4.386770117609008202e-02,-3.703744672695524764e-01,-4.020557284999318193e-02,4.352350581057650076e-04,-1.516378137374794349e-03,-9.456165932682699944e-05,3.283645510673522949e-01
-3.791808393541210020e-02,-3.787046580390366346e-01,-5.249059408932399418e-02,2.568854850386217796e-03,-8.053176362797486712e-04,2.948862967809978003e-03,3.338106572628021240e-01
-3.265293895678483826e-02,-3.781798228487603941e-01,-6.309919903091311399e-02,-7.655107285049393782e-04,3.569845403770580648e-04,-3.665998628575766697e-03,3.314185440540313721e-01
-3.752288375142200094e-02,-3.739520903764118609e-01,-4.933355274178312377e-02,-1.716383986054420552e-04,6.639022562400578864e-04,-6.339580365813174065e-05,3.306842446327209473e-01
-3.289994843502133670e-02,-3.885654982366215648e-01,-7.263319864118455982e-02,1.622650091620919622e-04,-7.894845177585154208e-03,4.942128888128993151e-04,3.378354012966156006e-01
-4.014235902796618738e-02,-3.683525608047094613e-01,-3.728788435772044385e-02,1.521472287790929384e-04,-7.891846011549254658e-05,2.800808146275228592e-03,3.296825289726257324e-01
-5.125766237139212089e-02,-4.072611527522942421e-01,-3.279893519219534426e-02,-1.868241389355377799e-02,1.597447236757892040e-03,6.090832123948024387e-04,3.670237660408020020e-01
-4.257055803065408484e-02,-3.676074563460479672e-01,-4.478339381601460778e-02,-2.131400536764847288e-03,5.293409420679514096e-05,-1.383174572321499256e-03,3.239660561084747314e-01
-3.464063930009225745e-02,-3.859482359553372266e-01,-6.545476416227721805e-02,-7.509991533106358252e-03,1.312622943667531884e-02,-5.547978722672172389e-03,3.381120264530181885e-01
-6.066576582853176747e-02,-3.956372837355531802e-01,-3.657655879555057887e-02,-2.187365591078392971e-02,-8.703733183532586654e-03,3.757746227007197071e-03,3.500862717628479004e-01
-4.312508481835536367e-02,-3.712249132557298159e-01,-6.201921592814850503e-02,-1.057534191321366900e-03,-4.999364590180257160e-03,-3.895994267015990436e-04,3.191960453987121582e-01
-3.264297902944603147e-02,-3.778884940822756500e-01,-6.020217116456626216e-02,1.560601229751394235e-04,-5.700431774963453380e-03,-4.004166946382439404e-03,3.325431346893310547e-01
-1.509140822137057525e-02,-3.395266222342965268e-01,-4.553383517433667871e-02,-2.051427305267776446e-02,-5.872583590701501398e-03,6.611232547430988434e-03,3.127386271953582764e-01
-4.898892277390026750e-02,-3.666609835228162861e-01,-4.864546742023379000e-02,8.036217048434419899e-04,1.489828860504523146e-07,6.407220610029749517e-04,3.178489208221435547e-01
-2.910348082186152430e-02,-2.838644723500415301e-01,-5.745831971177847719e-02,-5.044582904567273011e-04,-1.432560998685177239e-04,-3.267785064648712646e-03,2.419014573097229004e-01
-1.630880034218154528e-02,-3.399709044352736687e-01,-5.153578041070928928e-02,-1.575977676994580814e-02,-1.301638563484343314e-03,-2.549055157504288849e-03,3.088141083717346191e-01
-4.830538924751406893e-02,-2.661549039660200400e-01,-5.476386543070334290e-02,-9.706128911254804925e-02,-2.751899938937736080e-03,-4.035910423867053454e-02,2.815406322479248047e-01
-3.095980910403331454e-02,-2.538647333527916938e-01,-5.238236698152552717e-02,-5.803063904150696645e-02,-4.945900326080275231e-03,-1.245058392641978928e-02,2.366673648357391357e-01
-4.349717962590485265e-02,-3.586729249101303640e-01,-1.707183734353194537e-02,-2.362868686016905348e-03,-3.263521120402928209e-03,8.178343244324565164e-04,3.292618691921234131e-01
-2.710864658163134044e-02,-3.231234184356346351e-01,-6.086832518724333285e-02,-1.917817750506227437e-02,-5.456747459899744445e-04,-1.181863808582041177e-03,2.826297879219055176e-01
-4.293531269107206394e-02,-3.394365033138489474e-01,-3.386654560880777987e-02,-2.472766963753869271e-02,-7.942529112310624598e-03,3.458369924025486014e-02,3.103156685829162598e-01
-3.721810479612237821e-02,-3.731310380040579466e-01,-3.759855330927822092e-02,-9.591199337090287880e-03,-3.611116761342285375e-03,5.527247297517897361e-03,3.363280892372131348e-01
-3.286993128399998132e-02,-3.778658389892448621e-01,-3.414186558783827152e-02,3.308702241466634510e-04,6.236758188541721530e-04,3.223063772891157619e-04,3.443643152713775635e-01
-4.205391658948147426e-02,-3.833042273625593688e-01,-5.000103527941192338e-02,-1.958469909551474077e-03,4.532799355024582331e-03,8.653598869823397150e-05,3.374553918838500977e-01
-6.507511695707041133e-02,-3.812314365971528618e-01,-3.567065658923322669e-02,1.404430702451385168e-03,1.542694383468401617e-03,-4.060452264092975772e-03,3.319312632083892822e-01
-4.048854262985975005e-02,-3.599154920344753705e-01,-2.071923276321759044e-02,1.675891982941961919e-04,-3.435392095601713831e-03,-2.921236729061515817e-03,3.298489749431610107e-01
-4.985079785808249619e-02,-4.079006899341285353e-01,-3.620130477684324610e-02,-1.466306990151549673e-02,2.841001298774935638e-02,-8.219391617086246188e-03,3.695163130760192871e-01
-2.233611416740709232e-02,-3.597160753234199815e-01,-3.441993191107389771e-02,1.220086225311566930e-03,4.949666405459117804e-03,1.293788002816117924e-03,3.316284120082855225e-01
-5.101994164572801194e-02,-3.730691448485503048e-01,-3.826202321715575783e-02,-3.642910248352859183e-03,2.685993050282386128e-03,-2.039973238441440684e-03,3.287264406681060791e-01
-4.005356303376587934e-02,-3.520957887031236355e-01,-2.694655603738886629e-02,-3.934149003455685890e-03,-5.505298750308832909e-03,1.035463093485501467e-02,3.195169866085052490e-01
-4.833793422093911329e-02,-3.465426851693161892e-01,-2.069945189050113876e-02,-3.088105441454799967e-05,-6.085126593210662613e-03,2.720634167043979980e-04,3.131185173988342285e-01
-6.114089316073743202e-02,-1.907371354311211686e-01,-5.571946653902933033e-02,-1.805090147493431177e-02,-7.048580031486146626e-03,8.868465119773818323e-03,1.374397128820419312e-01
-5.144961020581283184e-02,-3.345356069838373303e-01,-1.338916058979186530e-02,8.639733260866388955e-04,-7.083325266942692468e-03,7.668270009814402797e-04,3.041630983352661133e-01
-1.672629314530782452e-02,-3.126082723261531249e-01,-5.879169223458678706e-02,1.908835647598864510e-02,4.280471442316595779e-03,2.754262183339599521e-03,2.793565392494201660e-01
-1.968365826515738881e-02,-3.411542674082298499e-01,-4.912064649157707463e-02,-1.359034633546474247e-02,-5.731578964632636983e-03,-6.320965360201328620e-04,3.088698983192443848e-01
-3.692150859435754107e-02,-3.668236883918757352e-01,-3.560952038624683180e-02,-3.410677534566453474e-04,7.717215523304919505e-04,1.403847286580109258e-04,3.305634558200836182e-01
-3.521429150155386267e-02,-3.342862344200573377e-01,-5.047897178764068626e-02,-5.893984354946987803e-02,-1.297633223887625226e-02,6.363383429777073538e-03,3.100970089435577393e-01
-3.265911670675597511e-02,-2.104808943960527756e-01,-4.943683243844271269e-02,-5.221600983724654366e-02,-4.877878431247302179e-03,-7.676922241351013913e-03,1.932520568370819092e-01
-2.239513254260029618e-02,-3.401036559937880011e-01,-5.951933714399579300e-02,-5.138189022779601767e-02,1.318436637464730048e-02,1.215350584240425108e-01,3.785185813903808594e-01
-4.626446068829395686e-02,-3.657847928266847459e-01,-4.440609190186761701e-02,-3.951509489416802083e-04,-1.349505282984009898e-03,1.546375044996485765e-04,3.204629123210906982e-01
-3.744094835682122702e-02,-3.631077832052116983e-01,-2.527180031130424331e-02,7.381428076754329446e-04,1.082217464835114962e-03,-6.094445819375642190e-04,3.319281935691833496e-01
-2.054602685597305134e-02,-3.633608526675318195e-01,-3.832237411491778989e-02,4.980147651169706136e-04,1.918293682610517758e-03,1.445063493860580806e-03,3.343083262443542480e-01
-4.980871099635533761e-02,-3.567924113692509946e-01,-1.315339037659749022e-02,-5.752729729662766018e-04,1.964369203809964663e-03,6.107937499192063469e-03,3.270469009876251221e-01
-3.815071966392039049e-02,-2.967519221246442962e-01,-4.551757206053656801e-02,-1.713853073273743574e-02,-1.359623387216751453e-02,1.805935935578341367e-02,2.596881985664367676e-01
-4.831213261844559403e-02,-3.645561732738282767e-01,-4.801012662823568589e-02,-1.355205991855134041e-05,-3.072257021544441799e-04,1.312601620594201508e-04,3.163956701755523682e-01
-5.286028286134578091e-02,-2.971820506182337174e-01,-4.532327096642237152e-02,-1.128483784958269481e-02,-1.450761320282115824e-02,1.674421509059553087e-02,2.518847882747650146e-01
-1.369488059758910969e-02,-3.617316225148690667e-01,-5.043391515858169916e-02,-2.362031353645673893e-04,1.152675373169583049e-03,3.921236373607422812e-04,3.312059938907623291e-01
-4.659075560205301614e-02,-3.666714651459833663e-01,-5.263956040161975325e-02,1.864201276322581836e-05,-1.779248102863054647e-03,4.171180261150504297e-05,3.171145617961883545e-01
-3.374085423838109332e-02,-3.098450374791396067e-01,-5.436405200898279666e-02,-1.725230776408251615e-03,-1.208214403759075815e-02,2.591062447445466408e-03,2.672670781612396240e-01
-2.237278684624792457e-02,-3.417865896613639931e-01,-3.954471750097629523e-02,1.653192333590449217e-02,-4.323148982492979950e-03,-3.385403857713300060e-03,3.126427233219146729e-01
-2.911600411363284013e-02,-2.484101405291927467e-01,-5.567727959000431243e-02,-3.170389908452675432e-02,-4.077021503463050013e-03,-9.184788669297956620e-02,2.671031057834625244e-01
-1.942643097162259636e-02,-3.615304584589802417e-01,-4.788633246529505616e-02,9.738149434113529609e-03,7.983417271465275203e-03,4.318318861581136973e-03,3.296066224575042725e-01
-2.846615030734629681e-02,-2.647208323750829262e-01,-5.738500541378778463e-02,2.358601768938865112e-02,1.004850757826641905e-02,8.753555095131111425e-04,2.275840044021606445e-01
-4.405922673071362150e-02,-3.714743363739669846e-01,-4.563323675752836706e-02,3.805198923527965886e-04,-4.310045032580039231e-04,2.466271127614127947e-03,3.266603946685791016e-01
-2.391983382244405876e-02,-2.870062242851519896e-01,-5.584662117660005309e-02,2.501459419708207139e-03,5.111529686502767032e-03,8.593875313426145232e-03,2.493050098419189453e-01
-2.687257120710095926e-02,-3.675214575104518433e-01,-4.189623906515481389e-02,3.478779735361566764e-03,-2.722844834174057392e-03,-3.441710706421843933e-03,3.335320949554443359e-01
-2.530661876234034657e-02,-3.335285087672911208e-01,-3.537059186098079344e-02,4.693894182292872308e-03,1.137722004863207098e-02,6.230414258166205518e-03,3.042547404766082764e-01
-2.602250660125260406e-02,-2.751589886620561254e-01,-4.353093644734015721e-02,1.983712632056097366e-02,1.233276305838596973e-02,8.404987098207547178e-03,2.446677386760711670e-01
-4.794149261798136274e-02,-3.656670798126328559e-01,-4.867633278936901731e-02,-1.406150698673941076e-03,-4.308300403590867799e-04,-5.478287391557557347e-07,3.173690140247344971e-01
-2.972592222122039107e-02,-3.403526946948634002e-01,-3.111841483458013813e-02,9.133274875797634321e-03,1.022760075903547672e-02,1.776709371002157395e-02,3.123610913753509521e-01
-2.712498504389172782e-02,-3.651781453608980987e-01,-3.262261928173851300e-02,3.731959831487899798e-05,5.857572715237373794e-03,1.165388186697434913e-03,3.354976773262023926e-01
-1.505729088139329264e-02,-3.059437241853444345e-01,-5.720882731753190731e-02,1.562110554981531278e-02,3.976435960045767229e-03,5.051868283642953900e-03,2.738364636898040771e-01
-2.872236220939906881e-02,-2.754042744599305981e-01,-4.561018164171880274e-02,1.412255368782638736e-02,1.450697287629375103e-02,1.278689332336248839e-02,2.422631978988647461e-01
-3.419421873771849585e-02,-3.720333528516233113e-01,-3.528460463403332303e-02,7.090713726646179433e-04,4.962022581201727331e-03,4.677314996014668436e-04,3.374079465866088867e-01
-2.421721664383098827e-02,-3.649422104920342358e-01,-3.322349968282302390e-02,6.812146017418072345e-05,5.752733493639038825e-03,9.235478005714079256e-04,3.364636898040771484e-01
-3.367468588735146595e-02,-3.604183781033797329e-01,-2.057189445257956439e-02,2.157859004756866594e-03,6.353719189335980781e-03,2.350634058325366121e-03,3.337154984474182129e-01
-1.644604064305868474e-02,-3.617617813054450071e-01,-4.799070354348274059e-02,-4.473011089571584460e-04,1.015353360444354574e-03,5.805920283905282100e-04,3.306809067726135254e-01
-1.349032212854603396e-02,-3.593701693561579535e-01,-4.865448066603028643e-02,4.138430502664930638e-04,3.213687115432705831e-04,-1.294343808354931269e-03,3.297160267829895020e-01
-1.474216733618743946e-02,-2.883406293093636052e-01,-5.440055641722262025e-02,5.509726766635521938e-02,-1.206778777359841359e-03,2.136859787408804025e-03,2.733196318149566650e-01
-4.668523619691136717e-02,-3.676266391014189061e-01,-5.390313478582102469e-02,2.137618969501851179e-03,-8.070639379511623844e-04,-2.172592517186835233e-04,3.174189031124114990e-01
-5.080528834973002672e-02,-3.691731795998880461e-01,-4.668046046245769021e-02,8.199116916030426208e-04,-2.091402632542648486e-03,3.581451099150676637e-03,3.205338716506958008e-01
-6.139123278167335496e-02,-3.744270846193361035e-01,-4.339005876895087044e-02,-2.374547871273877174e-04,-1.631083755182552962e-03,3.838236600941037462e-03,3.224947154521942139e-01
-5.061840702321027119e-02,-3.647986238568375894e-01,-5.154429375882670084e-02,1.585471610776568671e-04,-2.303486852710818610e-03,1.706278925231202617e-04,3.137439191341400146e-01
-3.352690159337717857e-02,-3.608189089022567630e-01,-2.543726826298765842e-02,9.360246767362522501e-04,4.599339671960550602e-03,1.061934907361424983e-03,3.315156698226928711e-01
-2.965062176059912735e-02,-3.623462857800856529e-01,-2.556949591568428992e-02,3.545050176537681177e-04,4.316922205238711389e-03,1.565692951190741011e-03,3.348499238491058350e-01
-3.356422505104809939e-02,-3.772404424399095069e-01,-3.569057080910188751e-02,2.375630933017547927e-04,3.992754078557886810e-04,5.002956151479891807e-04,3.426200449466705322e-01
-3.127974299677863113e-02,-3.679693119859405170e-01,-2.992458514211104870e-02,-8.993576806781689286e-04,2.092853335034866591e-03,6.887322526389799353e-06,3.373922705650329590e-01
-3.479151766189615691e-02,-3.755155505482725697e-01,-3.249239405256455770e-02,2.075653006104415371e-03,2.528118623200099370e-03,8.668427981023613723e-04,3.419296443462371826e-01
-2.911588134634081337e-02,-3.763023282246317214e-01,-3.513987146609007239e-02,1.488886008318128984e-03,1.137644013193638828e-03,8.647969428353144113e-04,3.442325592041015625e-01
-3.278282992487738245e-02,-3.767026959619377835e-01,-3.419423880765976032e-02,6.250606485562846138e-04,2.418438104077691095e-03,6.180247275828898825e-04,3.432452678680419922e-01
-3.298764321005456801e-02,-3.633407038672211709e-01,-2.957951934838590202e-02,2.575953101537296875e-04,3.699266070020219323e-03,-3.589844354540293520e-05,3.321323394775390625e-01
-2.730089230501581143e-02,-3.675602185946237332e-01,-3.431876505470056460e-02,-1.852231014086481737e-04,1.862739593709500157e-03,1.569144797576915934e-03,3.368318080902099609e-01
-6.280097202928222599e-02,-2.078768411330091381e-01,-6.383301377190156445e-02,-8.603202700300597791e-03,-8.003219152255804103e-03,-2.501930049814527282e-02,1.522840857505798340e-01
-6.132240341612760215e-02,-1.719306804015644230e-01,-3.250563556270268800e-02,4.049941455653376619e-03,8.591976014808087566e-04,4.807676355452840389e-02,1.524385660886764526e-01
-6.323069765900907191e-02,-2.021918477296691663e-01,-4.938100650714268708e-02,4.373145535072379790e-03,-4.946517037007213367e-03,3.329219036428357481e-02,1.577417850494384766e-01
-4.182312358367215599e-02,-1.837030659496758367e-01,-2.867741035879252387e-02,-1.615447306376153677e-02,-3.025462874378257762e-03,5.054525896643397020e-02,1.750504821538925171e-01
-4.760209349731227280e-02,-2.402574092618850465e-01,-5.235827426612052471e-02,2.524049940237244397e-02,8.289255145251233498e-03,2.157636792642642076e-02,1.993398815393447876e-01
-2.015214711906095080e-02,-3.681536054571303840e-01,-4.235152487985066605e-02,-1.005714961056218765e-03,6.376080870989615616e-03,5.470120571185734887e-05,3.376350402832031250e-01
-4.306350398790902145e-02,-3.670387874614692292e-01,-5.875514626343178448e-02,1.529317608351421411e-03,-2.253087661571054421e-03,1.497510546594118782e-03,3.164671957492828369e-01
-2.683248783852697217e-02,-3.728433029667634901e-01,-3.580795472183645467e-02,-7.622570105900899114e-04,5.449074702097821653e-03,5.211140829728014116e-04,3.417456150054931641e-01
-2.869452431146130023e-02,-3.751424130734466456e-01,-3.658754872816161186e-02,-3.814972005842673050e-04,2.501590728038268277e-03,3.662965137244144124e-04,3.425981998443603516e-01
-4.530869027428773010e-02,-3.669337269795255319e-01,-4.266640732916134049e-02,5.866607508622218156e-04,-7.224790253715502849e-04,-6.295713306069420983e-04,3.229601383209228516e-01
-4.001231961619898525e-02,-3.745503657576042533e-01,-3.808257580630029782e-02,2.523838286157995339e-03,7.012362682327318627e-04,3.369273389410876261e-03,3.355885148048400879e-01
-3.592465396090112340e-02,-3.433476973678304400e-01,-2.350006149816623313e-02,1.277800354455221714e-02,7.330439908159301458e-03,9.120577456986668496e-03,3.152514696121215820e-01
-1.877581384465071279e-02,-3.689540235483518837e-01,-4.255677160575097040e-02,-1.142629337956936131e-03,4.352879282097708510e-03,1.830259271466273601e-03,3.390184938907623291e-01
-2.841616441828319350e-02,-3.742121005834464498e-01,-3.890441229924387900e-02,1.800325209696031561e-03,8.793682934820148955e-04,1.825117786469581749e-03,3.407052755355834961e-01
-4.362731608540425243e-02,-3.681890453204835212e-01,-5.388132486289252954e-02,3.665217076353697798e-03,-2.165112952887130165e-03,-2.002342567097896569e-05,3.196431994438171387e-01
-1.320205199342444624e-02,-3.344728795712156311e-01,-5.429273902206714630e-02,8.617145792713644609e-04,3.466094407642668178e-03,6.877760140994741884e-05,3.028868436813354492e-01
-4.671019232047757264e-02,-3.661361677093951661e-01,-2.331913391339499042e-02,-5.197757699307426792e-06,3.411669003786934728e-03,-2.163253139007023304e-03,3.318143486976623535e-01
-2.969049994812729409e-02,-3.653530410848820908e-01,-3.127436322446529304e-02,2.352312399455125727e-03,4.971639083422251665e-03,1.488664661669398962e-03,3.350188136100769043e-01
-4.114774169458317032e-02,-3.744433839347808823e-01,-3.421917525329146170e-02,2.132389604191764487e-03,-2.788960055772097494e-03,-6.973375464934842768e-03,3.370847105979919434e-01
-2.357017152091096801e-02,-3.651789090706551999e-01,-4.045705714185060531e-02,5.745141944004753323e-03,1.476311911990300452e-03,-8.533801027035399999e-05,3.336443603038787842e-01
-2.887104575818111307e-02,-3.926731331983212003e-01,-8.244495202053155058e-02,-4.940457676505684466e-03,2.732155023188615525e-03,-1.360992609463667355e-03,3.403424620628356934e-01
-4.024932541828213362e-02,-3.744689558544381791e-01,-3.547339540630535526e-02,-4.033011168154611303e-03,1.359208693877292850e-03,-6.068572974128251529e-03,3.368777334690093994e-01
-3.960688000807689735e-02,-3.380769376419758832e-01,-1.627389606138704425e-02,9.396360132400317575e-03,8.028778627364957163e-03,9.742679859631937431e-03,3.119872212409973145e-01
-4.534020209661419887e-02,-3.673424989288220366e-01,-4.269453053032558343e-02,6.123782240574252933e-04,-5.813923554773320519e-04,-1.543588576850479744e-03,3.233475983142852783e-01
-3.496474313455333327e-02,-3.819280495120100927e-01,-5.720808840505130222e-02,-9.431721476240924361e-05,-5.859417385462479004e-04,-1.176348439232731760e-02,3.370116949081420898e-01
-3.676969545617253532e-02,-3.822220349162825936e-01,-6.684480049194609086e-02,-2.970445979313778018e-03,-9.007191593809682961e-04,1.212979767870247952e-03,3.314900100231170654e-01
-1.304591908094368535e-02,-3.535769413465025268e-01,-4.960373999137267231e-02,4.567614978844220311e-03,-3.607931652329813416e-03,-3.859199549174524872e-04,3.239611983299255371e-01
-6.471939860313202786e-02,-4.189864995059633390e-01,-2.777328214599736333e-02,1.053598138487173430e-01,-7.981527066108537460e-03,5.265627735347574306e-02,4.263451993465423584e-01
-2.005020670175856889e-02,-3.540923345768811070e-01,-4.566900063421165668e-02,2.318794931382798467e-03,-5.325090758403010736e-03,-1.956917940176078775e-03,3.221729397773742676e-01
-5.119928912130047860e-02,-2.329245278452123924e-01,-8.015238425200119088e-02,4.203458915912201312e-03,-1.142726603292845700e-02,-7.430549843747745464e-02,2.135638296604156494e-01
-3.336198958813982318e-02,-1.752207699294426324e-01,-4.643475924693333395e-02,5.811681226338641371e-02,9.697385467252328181e-03,-2.739207961790297505e-02,1.763692498207092285e-01
-4.183509123683871317e-02,-1.725475801002189780e-01,-5.415583867276355101e-02,6.864155996038308338e-02,-2.906532173471870414e-03,-2.659145422392692262e-02,1.786301583051681519e-01
-3.406592498844632222e-02,-2.868322832928844601e-01,-6.399748451275859285e-02,1.464335314441917238e-02,-9.162503251784349240e-03,-1.405769312908693690e-02,2.422994673252105713e-01
-4.683259689838162321e-02,-3.696380316228303764e-01,-4.326656269503781349e-02,1.191050930897025184e-03,-9.043298683211335775e-04,2.740851181655918484e-03,3.246482014656066895e-01
-1.948522130483389125e-02,-3.572391360867092081e-01,-4.291989623420956745e-02,-1.356292570676957557e-04,6.052573600821455416e-03,9.975512255983194892e-04,3.268404603004455566e-01
-3.635964001406059853e-02,-3.775032502286739255e-01,-3.543517161360457135e-02,2.014686439422328987e-02,1.599753845167516900e-03,3.277043747054117235e-03,3.434425294399261475e-01
-5.199933867400099996e-02,-1.773967355729297868e-01,-4.366107580148257533e-02,7.511361302378989635e-02,4.453957792244490205e-03,-1.249311349882664679e-02,1.851851493120193481e-01
-5.539646936504444980e-02,-2.063121759392245180e-01,-4.840633926022267636e-02,9.666408840499550459e-02,4.115261917609613559e-03,-1.383667547484948319e-03,2.279642969369888306e-01
-3.560380681228911270e-02,-3.735019722951924970e-01,-3.574842409376494112e-02,1.029150593335920703e-03,2.933208563898642707e-03,7.005233418743973773e-04,3.378709554672241211e-01
-4.050813694824367817e-02,-3.749857967344286669e-01,-3.955071412608777981e-02,2.469964875048967154e-03,1.934015999591678502e-04,2.873147309740393431e-03,3.350218534469604492e-01
-4.444491688908383531e-02,-3.714889357683242022e-01,-4.452707622945348276e-02,2.323013638204972885e-03,-2.349592270386445286e-04,4.028021123369251999e-04,3.270286917686462402e-01
-4.984294987174203717e-02,-6.102510406003156529e-01,-3.180125152005550127e-02,4.156943423208934660e-03,-5.412956874567320491e-03,1.934591699264951543e-03,5.697757601737976074e-01
-2.375252021545538883e-02,-2.781972889042984010e-01,-5.357735360602189356e-02,3.504873081130063794e-02,-1.118156892589381238e-02,-2.705414310166327774e-02,2.535724639892578125e-01
-5.769335392513903760e-02,-4.242419922270707078e-01,-3.886058940768605252e-02,-2.111259137919104401e-03,5.631356084532990539e-03,8.432727738864968228e-04,3.764655888080596924e-01
-2.444410363284085785e-02,-3.666370145503619060e-01,-3.763011441459203354e-02,5.843463305393510089e-04,6.959481078018575108e-03,1.132012668680676751e-03,3.360176682472229004e-01
-3.552404627821953431e-02,-3.798007688186801900e-01,-4.139636110001930491e-02,-2.288008394208508253e-02,5.433527945082292435e-03,-3.380528149557054940e-02,3.487502038478851318e-01
-5.722115632799669449e-02,-2.967039030336666716e-01,-3.258372144170788853e-02,-8.082500362940700511e-02,-5.438013155790788261e-04,-1.137259463980045543e-02,2.895620167255401611e-01
-1.900516438792407281e-02,-3.174299565643519672e-01,-4.402662569557543037e-02,2.002102219395319321e-02,9.891568748872989550e-03,8.074946651825893121e-03,2.896689176559448242e-01
-4.154689070623912572e-02,-3.558180826827189724e-01,-2.102775999260013406e-02,1.057010901561013932e-03,-5.828185065579534474e-03,-3.313604039811571950e-03,3.252294361591339111e-01
-3.410364882513870766e-02,-3.697514910540132260e-01,-2.847263670456516571e-02,9.882027745307145577e-05,-1.428235040252817927e-03,2.018663626231099063e-04,3.385077416896820068e-01
-4.008659537159574293e-02,-3.749610264107658963e-01,-4.036394995501974003e-02,1.883913188052539116e-03,4.153088146493904149e-06,2.320828436710211003e-03,3.347758650779724121e-01
-3.089197814826750987e-02,-3.158731374401809733e-01,-4.519533128500625996e-02,1.115519750645170517e-03,-1.277954864546781977e-02,-9.052967200268675213e-03,2.794319391250610352e-01
-4.786655194305845795e-02,-3.691870379072823560e-01,-4.539258037752090524e-02,2.216199111600449662e-03,-2.581978705920591477e-03,2.656577466414411243e-03,3.226512372493743896e-01
-3.903377728828479054e-02,-3.251291052822131711e-01,-3.500064853950390908e-02,4.339681337773445245e-03,-1.370500233270054331e-02,-1.477839455694718394e-03,2.892182469367980957e-01
-3.862784960405923895e-02,-3.686828814133049637e-01,-3.430744156336459905e-02,-1.422341812707977014e-03,9.277356386069945222e-05,-1.560227506663384338e-04,3.322455883026123047e-01
-4.826198332117313805e-02,-3.266144233156825227e-01,-4.192628616413586473e-02,4.739149082259053181e-02,5.843819352611144373e-03,-5.247600325863731319e-02,3.072218894958496094e-01
-2.665790098831286037e-02,-3.723321906615878474e-01,-3.992623485114611681e-02,-5.138047132237084751e-04,1.343360986577182619e-03,-4.075024501801966306e-04,3.392446637153625488e-01
-5.592508070452247015e-02,-2.727699875714600930e-01,-3.815968218367961351e-02,-9.073826335346144023e-02,-7.516911899592034797e-03,-5.966579437164445249e-02,2.945156991481781006e-01
-3.419788656246885994e-02,-3.754071868457395378e-01,-3.946071882469485981e-02,-2.747700715310193417e-05,2.041802537370836852e-04,2.850830509214822162e-03,3.386447429656982422e-01
-3.701939712410304284e-02,-3.772264277866391735e-01,-3.279689230024655788e-02,-3.992070143785817957e-05,8.224997456578867546e-04,2.672240664264265218e-04,3.423410952091217041e-01
-4.031365091072600104e-02,-3.735466550871593405e-01,-4.011873278965101541e-02,1.600262245421019960e-03,-4.320731640775666866e-04,2.142953125221237418e-03,3.333635330200195312e-01
-4.745710537342340274e-02,-3.705001273565892150e-01,-4.355571249197813521e-02,1.433310989817935871e-03,-6.213959460018718449e-04,3.331891939920283551e-03,3.250737786293029785e-01
-3.679825804461965555e-02,-3.741275787471245451e-01,-3.381099675946132310e-02,3.023435344970936463e-03,1.147121104126084569e-03,1.791518030354115435e-05,3.388791084289550781e-01
-9.319742298299238392e-03,-3.560225573481664019e-01,-4.705387663960741707e-02,4.536623029544050410e-03,4.738123740832474477e-04,-7.484950831747018895e-04,3.295576870441436768e-01
-9.818978581323051236e-03,-3.568813194297990044e-01,-4.740222121449612358e-02,5.002035070060713469e-03,-7.624591440366108169e-04,-1.743898042297297628e-03,3.300105631351470947e-01
-3.108031321482236653e-02,-2.336307183711455182e-01,-3.645893716996602418e-02,4.758050864784310607e-02,-1.443774278207484926e-02,7.813472412153880942e-02,2.563168406486511230e-01
-4.941862469969268701e-02,-3.678711739489131105e-01,-4.234556664160447903e-02,2.821963242110025853e-03,-1.132283816242625127e-03,-2.041994887934898018e-03,3.221098184585571289e-01
-4.046065108438925972e-02,-3.733577155303423600e-01,-4.018890832134500157e-02,1.402996630693789399e-03,-1.534301725282015503e-04,1.656206525844502184e-03,3.330543339252471924e-01
-3.995910384190312636e-02,-3.751271010386784122e-01,-3.751733292734520109e-02,-4.122101022102164449e-05,1.226565072101778748e-03,2.504957447529597078e-04,3.364025354385375977e-01
-3.501404012039915914e-02,-3.748127392045979001e-01,-3.740046695488720430e-02,1.995959938145928838e-03,1.071393763403827261e-03,2.620402681677004532e-04,3.386348187923431396e-01
-4.972396187110506016e-02,-3.721540018687107820e-01,-4.163766823608563983e-02,2.560893088466340440e-03,-1.201590911855691642e-03,-5.539668284224293169e-04,3.265864551067352295e-01
-1.138495734037339724e-02,-3.495380186574353898e-01,-5.047860748320256996e-02,2.656105690616606405e-04,-1.894791611381863158e-03,-8.240598084156904339e-04,3.204203248023986816e-01
-4.954723502755509212e-02,-3.423823756412855968e-01,-1.089231851755761982e-02,-1.313099885928946658e-04,1.023243825368998260e-03,1.713990880353490065e-03,3.139715790748596191e-01
-4.782316806178817103e-02,-3.725104559739862431e-01,-4.453009022642773207e-02,-1.469370999482396160e-03,5.898828579765394604e-03,-1.138322749052175439e-02,3.271108269691467285e-01
-4.261236275652179051e-02,-3.811334165840865040e-01,-6.137616875782564430e-02,-4.101815044540840609e-03,6.873623669833576338e-03,3.160267767598954475e-03,3.298769593238830566e-01
-4.644155784793171926e-02,-3.563734933432881058e-01,-1.376812319274883789e-02,3.313087295369366702e-03,1.626775426444581046e-03,3.839288023455617385e-03,3.276232481002807617e-01
-3.692934025141955678e-02,-3.692609514569675788e-01,-3.980008186327720077e-02,2.898418306342876675e-03,7.945776036416185486e-04,-8.381966350913590963e-04,3.309496939182281494e-01
-4.773238162177492749e-02,-3.438253605033574911e-01,-1.272531444947588852e-02,3.931299156241963022e-03,-3.077330913998703411e-04,5.969931027251219879e-03,3.153021633625030518e-01
-4.671038754399796378e-02,-3.546248161739215532e-01,-1.124539381619910072e-02,1.821214864764078957e-03,1.638682584558192679e-03,7.523998697256487631e-04,3.271222114562988281e-01
-6.711331942151416152e-02,-3.694733856129697180e-01,-2.392120549069823299e-02,1.160596511791700952e-01,-8.300223273129009663e-03,4.117164051221273297e-02,3.899336755275726318e-01
-5.261380490827897993e-02,-3.505352822615155906e-01,-8.579251965037004712e-03,-9.416040343007088314e-04,5.428459179667500557e-04,2.522914417751647310e-03,3.222386240959167480e-01
-5.436287766941004518e-02,-3.164508972778186102e-01,-1.224153323927537618e-02,7.169524176396741867e-03,1.152803117317709137e-03,1.461958627913845926e-02,2.868853807449340820e-01
-4.718513005721312881e-02,-3.254459135649329093e-01,-1.373170556362784955e-02,2.333146886794681876e-03,4.408727338875938900e-03,6.315488940789469943e-03,2.967343330383300781e-01
-4.708762267661041612e-02,-3.648116729471049258e-01,-4.956312224397713129e-02,5.611923731016091408e-04,1.472212235791997125e-03,4.673905409599775601e-05,3.165053427219390869e-01
-5.401957468022504372e-02,-3.743883504165875231e-01,-3.919719840385599285e-02,-4.849353400386831152e-03,1.648835720481687736e-03,2.489123330292912148e-03,3.281794786453247070e-01
-4.827119230780768655e-02,-3.423926030483862015e-01,-1.481618112604178583e-02,-5.098876163846339724e-04,4.883642874658407004e-03,1.476537361571180428e-04,3.123121261596679688e-01
-4.894621653533048899e-02,-3.658995018408550681e-01,-4.968357169865694756e-02,-6.101210152761251271e-04,1.044806816662689200e-03,-1.327648011713274730e-04,3.165922760963439941e-01
-1.283335028794310717e-02,-3.573276017223022127e-01,-4.911385009323168682e-02,1.553448012921362226e-02,-1.742596554661909186e-03,-3.856658942468799839e-03,3.290468454360961914e-01
-5.209016856303175236e-02,-3.396200401466236141e-01,-9.637998477448117551e-03,-1.706446564492416866e-04,-6.475404881320852594e-04,7.452570653363652618e-03,3.112070858478546143e-01
-5.576828228418323485e-02,-6.356398657139378239e-01,-3.267865383718679406e-02,8.741905687184014020e-03,-1.278799493684171619e-03,-2.310395030593610788e-02,5.933032631874084473e-01
-2.897916627915778087e-02,-4.466589716787670028e-01,-4.883522546446797397e-02,1.128846334830495707e-01,-1.443127377562449486e-02,7.717165094964618943e-02,4.725221693515777588e-01
-2.959494987876234995e-02,-3.657563178411186167e-01,-3.972315086016092733e-02,2.630825750831420739e-03,1.591514072137593244e-03,2.924839314619695247e-04,3.312566280364990234e-01
-3.070054492753952757e-02,-3.690063107295679101e-01,-3.052447441197443656e-02,-9.069976513375434604e-04,-1.684612533208137411e-03,2.174802813759102134e-04,3.384102582931518555e-01
-2.771965039650531315e-02,-3.675868369698564453e-01,-2.975487525229213170e-02,1.372631356046248498e-03,-5.933810498247541615e-03,-1.613879686433394205e-03,3.390298485755920410e-01
-2.768046090294119799e-02,-3.684942674885411384e-01,-2.822478997624039421e-02,9.566730961958805866e-04,-5.500952867871462121e-03,-2.282361648515992755e-03,3.407022058963775635e-01
-3.167034272868288203e-02,-3.694960797888408033e-01,-2.859410205614537626e-02,-1.009910676898690242e-03,-1.032231301844083789e-03,2.514339835790067781e-04,3.393838107585906982e-01
-3.270558749418391031e-02,-3.702380431271737882e-01,-2.875119093196726316e-02,-1.325873858159334917e-04,-6.737335191081414909e-04,-8.241806184526788935e-05,3.395290374755859375e-01
-3.164114868717804452e-02,-3.709201663929644899e-01,-2.878182515292600219e-02,4.715195083614161389e-08,-4.115982482955008034e-04,-2.607473667640265681e-04,3.407187163829803467e-01
-2.909705854870260622e-02,-3.696470702489763061e-01,-3.063051587172151147e-02,4.017592811453431310e-04,-2.161550490821532652e-03,-8.026119625085190168e-04,3.398100733757019043e-01
-3.080098887451238054e-02,-3.708685213841947381e-01,-2.927512790667578801e-02,2.626258543086342520e-04,-2.539469069244204482e-04,-2.933093945242861993e-08,3.408336043357849121e-01
-4.282208922577193655e-02,-3.722635650564096732e-01,-4.191223471677464618e-02,-2.695599094006064129e-04,-5.370355677546745973e-04,4.125730371434496203e-03,3.299763798713684082e-01
-6.329328459161137621e-02,-4.131557029312084017e-01,-2.611277209385429177e-02,-1.591629624985620509e-02,-2.615871160058659984e-03,-5.081635819539432990e-03,3.710150122642517090e-01
-2.962040346590255613e-02,-2.924505260282924679e-01,-5.330892134078890621e-02,-1.294314433188177354e-03,6.991262665940099980e-04,-1.443423697431957774e-03,2.518481910228729248e-01
-3.584228206076151002e-02,-3.799966406626156812e-01,-5.141129141185513118e-02,-2.228542491854642975e-03,1.935642358260538211e-03,2.915154964936653680e-03,3.367166519165039062e-01
-2.306077540090883948e-02,-3.724760308917548501e-01,-4.131352851046726782e-02,-1.113571936396978018e-03,2.842885035407877008e-03,-2.130515649141145819e-04,3.406970798969268799e-01
-3.461774385789914699e-02,-3.871127296143528351e-01,-7.017494424869388792e-02,-2.017858920381867052e-03,1.118611171974393317e-03,-1.911805293681417221e-03,3.361699283123016357e-01
-2.907473118789408173e-02,-3.901441743202537227e-01,-7.626965477129961368e-02,-2.870436002194873704e-03,1.442981212388492075e-03,2.420885385501321627e-03,3.400094211101531982e-01
-3.561385312071412013e-02,-3.741178748078790028e-01,-3.962699568070160439e-02,2.366175699031094603e-03,-1.183904589925742100e-04,3.452344637802362125e-03,3.365935385227203369e-01
-2.844540622994548573e-02,-3.436091707958207619e-01,-3.799749585741128699e-02,-4.203106926080088339e-03,1.122670289164939654e-02,-8.731330826069175557e-03,3.115586340427398682e-01
-3.279248913380825026e-02,-3.735926446873189533e-01,-3.921395554992121446e-02,1.315146050441094554e-03,1.564331097252160937e-03,2.288054947006502166e-03,3.376770317554473877e-01
-7.118747614142822977e-02,-4.238554955121255907e-01,-2.303566418327973597e-02,-3.592914779002182209e-03,-7.775947790799702698e-03,-1.351354121714289439e-02,3.800564408302307129e-01
-3.725719060698054474e-02,-3.747899618171859348e-01,-4.326308440815561374e-02,-4.772693075800676227e-03,1.755740651615550355e-04,1.251657400477825151e-03,3.346795141696929932e-01
-2.928199542515112774e-02,-3.725395818379826363e-01,-3.939068601356097987e-02,-3.736767411672744718e-03,1.477115053609319873e-03,2.989071763714776469e-04,3.383885025978088379e-01
-2.517947190427118065e-02,-3.704686031886303965e-01,-4.945093628974910061e-02,-2.265262372489703496e-02,8.881940424442857224e-03,-3.373017261192722254e-03,3.365163207054138184e-01
-4.154204949102378863e-02,-2.279343378956729116e-01,-6.259431845351787205e-02,-6.666906710843928385e-02,-2.251493946235119583e-03,-2.810942028703082921e-02,2.167515158653259277e-01
-3.493471165628396491e-02,-3.371291106410271854e-01,-3.752310697754612789e-02,2.625535482973349183e-02,-5.444806369074433076e-04,1.297792091606124682e-03,3.043352365493774414e-01
-1.567956162087127958e-02,-3.558910640167856076e-01,-4.747602541921107366e-02,3.131027124950799476e-03,2.362778494382817185e-04,-8.224503049735837823e-04,3.255287408828735352e-01
-4.103590425443953693e-02,-2.266639865008845400e-01,-4.963580292498552538e-02,-6.585279929853411762e-02,-1.653904085901066303e-03,-2.674503041074712331e-02,2.193153649568557739e-01
-3.072145847435041321e-02,-2.962026934563648517e-01,-4.437668874298510147e-02,1.342313417426941463e-02,1.299378122353062395e-02,1.936867104429303849e-03,2.609594762325286865e-01
-3.698402682699201971e-02,-3.675031959501647849e-01,-3.832504697873773125e-02,9.133603486122757621e-04,2.120123890778838078e-03,8.828679808304704070e-04,3.298784792423248291e-01
-4.231616090229836646e-02,-1.201245513124489794e-01,-4.703598466683885093e-02,-5.590939676091077198e-02,2.597129453895865876e-03,1.031668790762936159e-03,1.229235157370567322e-01
-1.819345364472164939e-02,-3.637395254911341969e-01,-4.242569279735315668e-02,7.943884363189377892e-03,5.925171731334267361e-04,-2.605197778192546929e-03,3.344049453735351562e-01
-1.552458311449184114e-02,-3.328384643935147214e-01,-5.974812964405207261e-02,1.121085191397987917e-03,-3.691581019944388791e-03,-1.393319285232819203e-03,2.977609038352966309e-01
-4.209651268546657499e-02,-3.732405556856305817e-01,-3.315916104318013258e-02,-3.951981720737158567e-03,-4.574539131280169757e-03,-1.235572842097494746e-02,3.365463316440582275e-01
-5.164901049721361270e-02,-3.749886072632456768e-01,-4.008873791443903767e-02,5.794474237402834349e-03,-1.503915806995982174e-03,-3.166728738012727728e-05,3.294351994991302490e-01
-2.358964532714945272e-02,-3.646554908880511037e-01,-4.332118416086012946e-02,5.714225945585568039e-03,1.360869478940554111e-03,7.953112563580406330e-04,3.317994773387908936e-01
-4.597024264752175293e-02,-3.660911834102825724e-01,-4.911507550399643596e-02,9.271171423903767049e-04,7.206330893479559376e-04,-8.111522052264272037e-05,3.185666799545288086e-01
-1.841354860276020466e-02,-3.652481975267324321e-01,-4.807307242077679676e-02,7.988740566563711995e-03,3.354058528901068380e-04,1.585341289357578194e-04,3.332849740982055664e-01
-9.276027294424310510e-03,-3.497535981305917030e-01,-5.150687771267785375e-02,7.405774371948804606e-03,1.178590334863982656e-03,-3.618138569608493420e-04,3.217123746871948242e-01
-4.648982388430174251e-02,-3.679338848595887779e-01,-2.003917080350864355e-02,4.499722470908684713e-04,1.689809726041942078e-03,1.001861901513438494e-03,3.354705870151519775e-01
-1.148785694743262309e-02,-3.521954292644306483e-01,-4.642426627722945343e-02,-6.969205949159222591e-04,-3.878342070341526124e-04,-4.195554084109386848e-05,3.246552348136901855e-01
-6.417113065545473893e-02,-2.556740735865291603e-01,-4.532574443774493866e-02,-7.692728597419383300e-04,-6.087401125669852225e-03,-2.503336332281655072e-02,2.064713686704635620e-01
-3.822222424595560220e-02,-3.774687528241544299e-01,-2.310873521464786029e-02,-9.698627989844822023e-03,5.933575621485429920e-03,-1.057580942432702169e-02,3.480907678604125977e-01
-2.597239830515207792e-02,-3.693633594875286308e-01,-4.028702870630514188e-02,-6.766750038755940493e-03,-6.099921920497357493e-03,-7.024906964921028745e-04,3.368341028690338135e-01
-5.811897762522660882e-02,-3.475466155753024200e-01,-2.809693624569954695e-02,-7.978953759646001051e-03,7.466486802120810354e-03,-6.012107319713957260e-02,3.233585655689239502e-01
-4.131318898865350697e-02,-3.802578987380004216e-01,-5.377013108006201136e-02,3.197885929516280056e-03,-1.391578681245738292e-03,5.251523165253844591e-03,3.330701291561126709e-01
-4.467949911648233519e-02,-2.878920676774098242e-01,-3.498136819497978112e-02,-6.691929782522951925e-03,1.228790427232506408e-02,-1.411543816695575576e-02,2.505796849727630615e-01
-5.759808014026156220e-02,-2.709586266653312703e-01,-2.413487999573252218e-02,-2.052010758762763936e-03,1.468946707506201465e-03,-5.459217494746399640e-02,2.504840493202209473e-01
-4.739679944785335497e-02,-3.667991554266858412e-01,-5.517334977245585970e-02,5.524250755861933075e-05,-3.080924763974889936e-03,2.513997205695580922e-04,3.156313896179199219e-01
-4.901484972215137959e-02,-2.666138666143593738e-01,-4.139180204810338770e-02,-1.215180764725346148e-02,-1.020621479363443239e-02,3.116405199796414005e-02,2.296416908502578735e-01
-6.090410307172054727e-02,-3.754932746771610930e-01,-3.723289707048937913e-02,7.787684718322147870e-03,9.329891656834796935e-04,-2.728578417397279341e-04,3.273501992225646973e-01
-5.183766622803789859e-02,-2.301734190397022872e-01,-3.213085981229783783e-02,2.916359161502703190e-02,7.930744517900701479e-03,4.756953286326196656e-02,2.126857936382293701e-01
-6.614321600350496488e-02,-3.808391102631804581e-01,-3.312166341098546352e-02,-3.522432441036912540e-03,-2.633693196169030557e-03,-2.352430802641721722e-03,3.325512111186981201e-01
-1.784355205537688227e-02,-3.633709644747359913e-01,-3.892977337624493883e-02,-2.872963118629253310e-04,-4.747932849744942660e-03,-5.465847509499884146e-04,3.355841636657714844e-01
-6.996427238459540510e-02,-1.928938776460389914e-01,-5.347626943971395957e-02,-5.557539443386438037e-03,-4.395976192147304368e-03,2.356670517561244502e-02,1.386622041463851929e-01
-7.328203335742944358e-02,-5.155173629458996709e-01,-2.656710982314230973e-02,1.089434362867716388e-01,-5.451339956604268379e-03,-2.424230521043684375e-02,5.058375000953674316e-01
-2.833846376152961838e-02,-1.445008735423325419e-01,-4.522620547178331230e-02,1.736907434003004055e-02,-9.207214381981038837e-03,6.588991895135072607e-02,1.612482517957687378e-01
-2.053255448586929766e-02,-3.697031878775802749e-01,-4.252116761653781940e-02,-2.196041701549905981e-03,1.592480475492154832e-03,-2.246266892907080107e-03,3.387669920921325684e-01
-3.817221228271792943e-02,-3.927603964366943590e-01,-2.751813340813200059e-02,1.055749160716999875e-02,-8.044555934996188221e-03,-1.446911541985458280e-02,3.616361320018768311e-01
-6.127536200530354915e-02,-3.730108674096467847e-01,-3.554689066324606683e-02,3.477769572827924330e-03,2.328975410643639374e-03,-3.798236616859513963e-03,3.255108296871185303e-01
-2.086351996105613449e-02,-3.400433404524792480e-01,-5.008187712293549199e-02,-2.026135013378645936e-03,-6.116184090472514233e-03,-7.578938020312006108e-04,3.058264553546905518e-01
-5.818769398791530378e-02,-4.037743205486522546e-01,-4.132341877115053297e-02,-2.380603605504105855e-03,7.251089942079623138e-03,-3.660106306746706371e-03,3.546230494976043701e-01
-4.295268275519607826e-02,-3.778321805569548331e-01,-3.396669386664696866e-02,-1.252685161778423900e-02,-4.384148486210662048e-03,6.882530612173277766e-03,3.404479324817657471e-01
-3.656565211486201283e-02,-3.781984578837396249e-01,-4.079200653594440562e-02,-6.190801900815405892e-03,-2.469626196277889280e-03,4.838257329047949799e-03,3.398388922214508057e-01
-4.342398310331127553e-02,-1.406616420182283389e-01,-4.777897583369292156e-02,-2.677080802756414898e-02,-9.330931376209350772e-03,5.415686805629589540e-02,1.423403918743133545e-01
-1.564115847693886563e-02,-3.640949329775320931e-01,-4.816455141548643681e-02,-1.075735320704916806e-03,3.340696046008580287e-04,-5.372580154939312773e-05,3.333897292613983154e-01
-2.386694938137090549e-02,-3.723188532959544883e-01,-4.317971293235441099e-02,-2.446094494614590390e-03,2.881249039325378247e-03,1.783178415695733758e-03,3.392853438854217529e-01
-1.847839818234434106e-02,-3.694458128052126034e-01,-4.564606343737628857e-02,-1.979531276325703724e-03,4.110853139075647950e-03,-5.939234366734313540e-05,3.382952809333801270e-01
-1.249011283506548664e-02,-3.496971156507524547e-01,-5.066826287948043850e-02,-8.653625543764914899e-03,-3.639630372563812735e-03,5.080293708633088238e-04,3.202458024024963379e-01
-5.768610032564408518e-02,-3.741150524448926262e-01,-4.003543816844808145e-02,-1.203792324459282978e-03,-1.901737559535942885e-04,3.449066695175936111e-03,3.256749212741851807e-01
-1.564327690759115264e-02,-3.597946866753931605e-01,-4.824460482662581984e-02,-6.809873554231281887e-04,-1.815003860572805654e-03,-1.363668196101228743e-03,3.290897905826568604e-01
-3.063223138521729838e-02,-3.897373410049872478e-01,-3.804458374324479197e-02,-7.806334041602388044e-03,-3.309311631703286578e-03,-2.214755787802923266e-03,3.557808399200439453e-01
-1.583682211891165870e-02,-3.672040286111184493e-01,-4.668074463270703578e-02,-1.550219165554204493e-03,6.077237960495902955e-04,-7.384383839897252231e-04,3.370202779769897461e-01
-4.040928063992144104e-02,-4.100745018019709143e-01,-4.619858098474269315e-02,-1.339991998412571467e-02,6.434251705738278787e-03,-2.532975547381298084e-03,3.677334785461425781e-01
-4.013624660479234163e-02,-5.471484930274721492e-01,-6.117693281531505489e-02,-4.270155669516541297e-02,8.915347702277393038e-03,2.467256963168996606e-02,5.043522119522094727e-01
-5.123113909841420233e-02,-5.301982327547472007e-01,-3.616491544346492337e-02,-1.921708118906665166e-02,1.551536393795547447e-02,-6.376906896541031933e-02,5.008814930915832520e-01
-2.947805698034131061e-02,-3.743890011172632537e-01,-4.261092430171774248e-02,-3.669092601279149834e-03,1.294873550030356101e-03,2.292108516716090220e-03,3.386259675025939941e-01
-3.944716456285807249e-02,-3.692214677975489967e-01,-3.963496997246608589e-02,-3.001579241043749848e-05,2.227845145039560683e-05,1.246656182512205285e-03,3.296875059604644775e-01
-4.686465996567162895e-02,-4.042437679982937571e-01,-2.708237609894778575e-02,-2.717666332444349658e-02,-4.481727933421183682e-03,-5.927570730169200337e-03,3.708939552307128906e-01
-7.872680957513009115e-02,-3.895518315378128094e-01,-2.190723981133183007e-02,8.551181941893693449e-05,-1.189699220455173005e-02,-6.679412237395711618e-03,3.435987234115600586e-01
-2.800425611650823876e-02,-3.612090050595002100e-01,-4.125678068645606544e-02,-6.273723612551513999e-04,5.987375784440476627e-04,-6.167407360509741601e-03,3.269580900669097900e-01
-8.427630478245740075e-03,-3.384691746262694090e-01,-5.050575230602656618e-02,7.726863160135860782e-03,1.168106755488836773e-03,9.199097546383167652e-05,3.114381134510040283e-01
-4.720980978907543535e-02,-3.680233629494180647e-01,-4.420609393471899851e-02,-1.561685195507536966e-03,4.734155481243834261e-04,-3.472201282392941017e-04,3.223388493061065674e-01
-4.152595869537063777e-02,-3.103201867391841562e-01,-2.456728895718936212e-02,-2.460433084623582511e-02,-1.260312354932907782e-02,2.349612990146270064e-02,2.846843302249908447e-01
-2.121934948985830516e-02,-3.688171049214709063e-01,-4.351643840945376707e-02,-1.038844315756968541e-02,-4.802886007863996914e-03,-4.284983625671537387e-04,3.375862240791320801e-01
-2.621689265434361260e-02,-3.644473752339565387e-01,-3.197181427635892303e-02,-7.316348433289346755e-04,9.361806493659024109e-04,8.769120790574622733e-04,3.353998064994812012e-01
-5.615380367786318438e-02,-3.846077659726918618e-01,-2.724833813791641135e-02,2.613446780707403758e-02,-2.033826354341911714e-05,-3.451123442807479871e-03,3.468377292156219482e-01
-2.781192639391694144e-02,-4.030769202577884069e-01,-6.367032287603166529e-02,2.880468345639244573e-02,-7.084922293000448131e-03,6.119765760173629526e-02,3.775293529033660889e-01
-3.767892786313087328e-02,-4.359395636425012488e-01,-6.593959466036365680e-02,8.265447762772144477e-03,-1.270914032554331871e-02,1.615191924030620965e-02,3.868168294429779053e-01
-3.757559125620824059e-02,-3.729497243090384995e-01,-4.136345928277215811e-02,5.191653583751417063e-03,-8.425435740605833170e-05,4.502716067791286370e-05,3.336175680160522461e-01
-1.796733904770744794e-02,-3.673673771734010662e-01,-4.570936264313330000e-02,-1.448150736366438356e-03,1.829872099134861310e-03,-8.916952096522735892e-04,3.364159166812896729e-01
-6.254840846285053546e-02,-2.580401498317799192e-01,-3.414296364943139594e-02,1.020237096084079670e-01,-3.506834274751621967e-03,4.605714993163330384e-02,2.867125868797302246e-01
-3.297740971986834468e-02,-5.917563845565656511e-01,-6.609112569361400014e-02,2.985614490691409356e-02,-1.247174359470651708e-02,5.120985975750232122e-02,5.530238151550292969e-01
-3.289206434470764995e-02,-5.440671061557345034e-01,-6.182057411921684786e-02,-1.413691312402486251e-02,9.081330594312190044e-03,3.472872844234985157e-02,5.018112063407897949e-01
-5.943239393719441932e-02,-3.765889202218946075e-01,-3.720520386816372760e-02,5.159786839954621021e-03,-1.239366774827442433e-03,-8.025541514121667950e-04,3.289653658866882324e-01
-3.058660462897230814e-02,-4.194599527315534537e-01,-8.555619218118140634e-02,-6.082811254539259062e-03,1.052011016938987110e-02,-1.149300425960444148e-02,3.656599819660186768e-01
-3.230846254669708650e-02,-3.799531197022723017e-01,-6.733427189378110578e-02,-4.121821704611055605e-03,-3.507477916323708481e-03,-1.179503720564232345e-03,3.316611647605895996e-01
-2.959861018142123656e-02,-3.643499658935407393e-01,-4.315108235961934158e-02,-1.377885839315882467e-02,-4.037805755807941620e-03,-5.407077746441193294e-03,3.292592167854309082e-01
-2.394963225789822903e-02,-3.460585116723220445e-01,-4.603555465609862618e-02,-1.021563024325676527e-03,-7.960170674462601140e-03,-9.967344724992220281e-04,3.119680285453796387e-01
-3.571632555102247086e-02,-3.931260569109047975e-01,-6.846304954518245278e-02,2.366714709856759542e-03,-3.978749764892514952e-03,-3.455986777909302271e-04,3.423079252243041992e-01
-2.446187116659760685e-02,-3.676313701092698283e-01,-4.494539242134612533e-02,4.531683119409318262e-03,-7.646739771424083303e-04,-1.137940856259645264e-03,3.335008323192596436e-01
-4.382683486961524988e-02,-3.704460945403467154e-01,-4.328169956149087449e-02,-1.564140101131906773e-03,1.819688543206577670e-03,3.641969693866084273e-04,3.269191980361938477e-01
-3.411761077224113869e-02,-3.330094761898274580e-01,-4.199828339434394375e-02,1.731572938553315941e-02,-1.305003046231228807e-02,-1.210056448154002602e-02,2.981487214565277100e-01
-4.610359208368491890e-02,-6.398676740876632074e-01,-2.935658821046924216e-02,-3.833111434734383371e-02,1.130564815659664164e-02,-1.776595148588655873e-02,6.070569753646850586e-01
-5.203430868109626406e-02,-2.311037426405075368e-01,-4.458562951497681281e-02,5.987739312256555591e-02,5.365015728632082509e-03,-8.681668441646456236e-02,2.586674392223358154e-01
-2.897945147510158637e-02,-2.804786383609278455e-01,-6.100624330713037835e-02,-2.468087330846603904e-03,-5.000044240249526366e-03,4.235244584899724481e-05,2.373101860284805298e-01
-3.124136663227167210e-02,-3.224683365734282714e-01,-5.364106340216220903e-02,-2.242598190304359584e-02,-1.659698588833311136e-03,-4.922998589952828604e-04,2.833888828754425049e-01
-1.538156207878206561e-02,-2.957206942817527384e-01,-5.775150678241122715e-02,3.058079488192209927e-02,-3.334965066173126505e-03,-5.239015487950201590e-03,2.672612071037292480e-01
-7.476017064600788686e-02,-3.776980297749291671e-01,-3.395473450696426254e-02,3.440111983981336552e-03,-2.087765056570406452e-03,3.383186771163978319e-04,3.253411650657653809e-01
-6.271879454819975774e-02,-4.432931071677873591e-01,-2.541793955126436799e-02,-5.312012226381438579e-02,-1.508558818128178389e-04,-4.489160407432097460e-03,4.110348820686340332e-01
-3.955528690406104331e-02,-3.749096965924851865e-01,-5.621354278309245722e-02,9.569687132440170057e-04,1.404208761452209117e-03,-4.509640708764737528e-03,3.274497389793395996e-01
-1.153967709665748576e-02,-3.587088014897078514e-01,-5.140082564533857146e-02,-1.020901922614000988e-04,-1.354069413811594645e-03,-4.633305082281526208e-04,3.290637135505676270e-01
-3.181959937596329224e-02,-3.681140265194795536e-01,-4.264218941556173481e-02,1.538956410033635912e-03,-5.319326404563914142e-04,-2.814331517164631643e-04,3.310282230377197266e-01
-3.647982475981889627e-02,-5.620652447817964248e-01,-5.540661670563354346e-02,-1.841750857024887153e-02,7.839640317463512226e-03,5.602382416550887034e-02,5.265629887580871582e-01
-4.035580988113818268e-02,-5.710984010490057772e-01,-5.414091398893466911e-02,-3.341118543592964951e-02,1.059364645802133784e-02,1.112261024596252791e-02,5.278428792953491211e-01
-1.316856935830409969e-02,-3.585866084964044465e-01,-4.902318952687356735e-02,-2.790120507870035406e-04,-1.706937528262149036e-03,-7.140248180364785688e-04,3.289754390716552734e-01
-5.969368786242199021e-02,-3.726906306142891423e-01,-4.158407456527599133e-02,-2.144776077923523684e-03,2.752204617580662673e-03,-1.732028924495868734e-04,3.224901854991912842e-01
-1.311557654606698708e-02,-3.585037143679480343e-01,-4.678056154404355849e-02,-3.087594021349115004e-04,-3.918041261804870029e-03,-6.060303911332461492e-04,3.299185633659362793e-01
-4.379892985821770557e-02,-4.347894564740257262e-01,-4.328664028666284747e-02,-1.913546672138730868e-03,1.747106570261311095e-02,-4.549215918095600962e-03,3.925085365772247314e-01
-2.339292780349799816e-02,-3.643414061370432444e-01,-4.003007457573537486e-02,-8.598760177043145549e-04,-1.649050335461492130e-03,-4.548009767764150642e-04,3.329583108425140381e-01
-5.940834256860065554e-02,-3.794323466946254442e-01,-4.447861640411165940e-02,1.701650991955460778e-03,1.081837171090471728e-02,-6.520927120756333899e-03,3.284866809844970703e-01
-8.730097915900875138e-03,-3.503491799053510825e-01,-5.031680723984520431e-02,2.642660036970586115e-03,1.870602599584735991e-04,-8.815086048865918011e-04,3.228771090507507324e-01
-3.400620018397199074e-02,-3.753948950803377427e-01,-7.213202077606109541e-02,5.131109358899868175e-04,7.723082799044497272e-03,4.096169032672226235e-03,3.243673145771026611e-01
-1.001231409727695865e-02,-3.585322894508391478e-01,-5.106015881416450797e-02,4.769783233908167670e-03,9.448274930664080410e-05,3.129282244167630282e-04,3.300207257270812988e-01
-7.664221927731208750e-02,-4.424614862252451153e-01,-2.685188591592377327e-02,4.520427715226717734e-03,4.698826816586677314e-03,-8.749041810392325230e-03,3.935406506061553955e-01
-4.897758618406283793e-02,-3.810674145295427362e-01,-5.037421217905897752e-02,4.544131320049503257e-03,2.222357612155270723e-02,1.887248476661958609e-03,3.337305784225463867e-01
-4.995535284125450504e-02,-3.647197013728846193e-01,-4.603426822564972432e-02,2.347454750330123830e-06,1.718350273977961628e-03,-5.232052683326466865e-04,3.167583644390106201e-01
-3.981687701805795843e-02,-3.728014538846225467e-01,-3.714687981658748583e-02,6.306967658187238347e-03,-9.359742904294862404e-04,-2.932798166427037865e-03,3.345484733581542969e-01
-1.928360903364328971e-02,-3.664299871991182900e-01,-4.844823824518534883e-02,7.943116578883257367e-03,-4.864821428664758605e-04,5.833746142751986344e-04,3.338080346584320068e-01
-4.465533087957747338e-02,-3.658517009515004359e-01,-5.360539115427001566e-02,-3.631457810972442781e-04,2.053643245912847339e-03,1.046505967696917101e-04,3.168368041515350342e-01
-3.918117336352830438e-02,-3.877342387410707691e-01,-4.069507265141410202e-02,1.045954172497288830e-02,1.561634236670881356e-03,-1.954026400545184894e-02,3.499211966991424561e-01
-5.183353536530058148e-02,-5.364150421117552803e-01,-1.836274519656128090e-02,-1.324806200720429587e-02,1.444900416321915661e-02,-4.043857612582098943e-02,5.081511139869689941e-01
-3.974178105320505527e-02,-3.748693866726084956e-01,-5.362302710896654778e-02,-5.845090218462901249e-03,4.498511531155251035e-03,-1.391943137806494514e-02,3.295385837554931641e-01
-3.274309021851620760e-02,-3.674320222456607943e-01,-3.309763134731696921e-02,1.079501930371809396e-03,-2.512127498308606034e-04,3.783573368117197459e-04,3.345179557800292969e-01
-2.456731989489101264e-02,-3.573030953429237599e-01,-3.630585527189805761e-02,-1.391282730837029545e-03,-1.033827377591950598e-02,5.382720892966920152e-04,3.275246024131774902e-01
-2.913494063222371588e-02,-3.653917936944469647e-01,-2.737959679927630396e-02,-2.599912224942155410e-04,1.378538365577845022e-03,-1.970464558728046581e-04,3.371468782424926758e-01
-5.947003186019755860e-02,-3.689044759898546522e-01,-3.892082643242746054e-02,-5.261676315632124457e-04,3.484124906111596247e-03,-1.094960055804867311e-03,3.202677369117736816e-01
-5.340520311132480880e-02,-3.688666321118584945e-01,-4.188035577629922734e-02,4.706659752595074232e-05,-1.868072958393247711e-03,1.488002983951310825e-03,3.214055001735687256e-01
-3.036730253304303906e-02,-3.673593518546680037e-01,-2.811980020163221128e-02,-1.623629040232968564e-04,1.402409110064855961e-03,8.094426622557842352e-04,3.381331562995910645e-01
-3.601227561228705076e-02,-3.731873205024143214e-01,-4.369648081324895017e-02,1.036241954995064871e-02,-1.303126072526563034e-04,2.766574217673758843e-04,3.338825404644012451e-01
-3.042071320324102324e-02,-3.663474926870169401e-01,-3.159676147221351927e-02,1.128305737123602546e-04,1.864044223529006967e-03,-5.509204861503015378e-04,3.353572487831115723e-01
-3.402728256328509115e-02,-3.648761180533526272e-01,-3.504139127995820058e-02,2.084735178999655263e-03,3.298967496200542766e-03,-4.423161359371016748e-05,3.304120898246765137e-01
-5.817615458943452278e-02,-2.741640879179683687e-01,-4.653075644606707861e-02,7.441340978743345332e-04,-1.069899661278532824e-02,2.039236785750186097e-03,2.228434681892395020e-01
-4.877227364474505389e-02,-3.706567155751614440e-01,-4.043257211568729304e-02,-9.860318807066125162e-04,-1.438762143986239712e-03,-2.000095245652170825e-03,3.261666595935821533e-01
-3.808137081171075744e-02,-3.756534624196772865e-01,-4.866516686771189815e-02,-3.704277622043397004e-03,2.768116709252370963e-03,3.032397033625913296e-03,3.325445652008056641e-01
-3.809560603785934474e-02,-3.753897008522349421e-01,-4.945750101178392200e-02,-3.827534240472130547e-03,4.380517298350245989e-03,-1.520429699951479120e-02,3.329551517963409424e-01
-7.843261125195222228e-02,-3.776469597850594662e-01,-3.099617445915439640e-02,-3.150675037119741876e-04,1.377196640193992130e-04,-3.669815738385836298e-03,3.255977034568786621e-01
-5.420473615949825130e-02,-5.106615121260460466e-01,-3.052229823912577800e-02,-6.491958583859461229e-02,-2.379325856949826481e-03,-3.696558771351073081e-02,4.862958490848541260e-01
-1.743738533775435195e-02,-3.701711984506813602e-01,-4.867955623473496640e-02,-4.711800420215762723e-03,2.952766378595582191e-04,-3.867627701360562401e-04,3.382962644100189209e-01
-2.125970662698786762e-02,-3.641862661695017267e-01,-3.824887044144921477e-02,-7.313167439783612063e-04,-4.420458967640596495e-03,-9.114958164625053651e-04,3.348491191864013672e-01
-3.036509579131529968e-02,-3.742916087235412248e-01,-3.495351863619805544e-02,-1.024279981744768628e-02,8.173358080622953334e-04,-5.314090766456999043e-03,3.422424495220184326e-01
-3.994598567524473842e-02,-3.722342941428472551e-01,-4.374897205278741041e-02,-1.212389519036673148e-03,2.821582276555653157e-04,2.538414654517609937e-03,3.304395079612731934e-01
-4.119851726458706453e-02,-3.741161155263657556e-01,-5.692185079815506588e-02,-1.620322737810290939e-03,3.714642939855616714e-03,-1.965908506301489601e-03,3.254345357418060303e-01
-3.606084371778364717e-02,-3.826357005601974670e-01,-6.617983757536990974e-02,-6.025536714095595979e-04,8.889439157634468694e-03,-3.586247463495667500e-03,3.329557478427886963e-01
-4.085761219688484325e-02,-2.435628627470142749e-01,-6.004901582094485796e-02,4.576540816501152575e-02,-1.143604434386599929e-02,-3.139537152212731191e-02,2.172563076019287109e-01
-3.719029313592370212e-02,-3.863494592998358845e-01,-6.979912715327689365e-02,-2.816910132452125383e-03,4.877539561994907388e-03,3.237957669701062476e-03,3.342400491237640381e-01
-7.607498996820136195e-02,-3.915404696447624122e-01,-3.179323001824291284e-02,-7.545443950875687852e-03,7.582029836345873311e-03,-2.079199529407788766e-03,3.403012454509735107e-01
-3.382729721668711886e-02,-4.249241265394372857e-01,-4.793724393664761108e-02,-8.638602718600445207e-03,6.141459254235198152e-03,-1.236013761142188382e-02,3.852697908878326416e-01
-1.713474029074606164e-02,-3.523199678192499018e-01,-4.637441268245601211e-02,-5.829406182255044908e-03,-5.581625891543517612e-03,1.168003426104528456e-04,3.218677341938018799e-01
-3.418133321491947929e-02,-3.808594137024058357e-01,-7.322210929729697226e-02,-2.870172918341204991e-03,-4.158548022518813829e-03,-5.964652101594355516e-04,3.290181756019592285e-01
-4.893156123451361528e-02,-1.380482066771143157e-01,-5.578423295340852184e-02,6.545192743778108224e-02,2.176093769839496008e-03,-2.080792767956766987e-02,1.467754393815994263e-01
-5.089712475632833522e-02,-3.544616758586039973e-01,-4.332620268619745418e-02,-5.884328232695323208e-02,9.565224156023108271e-03,3.276920853282688784e-02,3.292272090911865234e-01
-1.655274952699269109e-02,-3.586557193542506128e-01,-4.388740556681418326e-02,9.124758043280315270e-04,-2.005410817017557346e-03,-1.539301436182349435e-03,3.293205499649047852e-01
-2.516326326544221503e-02,-3.225788228625070531e-01,-4.161242725271716014e-02,6.876912255839930620e-03,-1.199885790095707103e-02,-1.084478042856433858e-02,2.911373674869537354e-01
-3.571357193766222515e-02,-3.867118807380537371e-01,-7.199719493372606915e-02,-2.679113506081825646e-03,2.446726695867145352e-03,-3.671942007590519447e-03,3.344559371471405029e-01
-3.147468494833211006e-02,-3.800843140027214684e-01,-6.102886662655387928e-02,-6.830494417957895179e-03,7.645280468675481195e-03,2.966537724041019407e-03,3.353222012519836426e-01
-3.019210773759703481e-02,-3.891122905632117823e-01,-7.597448161023685753e-02,-4.184605384124255069e-03,1.206843277909978862e-03,4.230741532210591238e-03,3.385234177112579346e-01
-1.581647500984455224e-02,-3.583018822905733591e-01,-4.397734056405835923e-02,3.429890376664554257e-03,-1.993356232910647313e-03,-3.665590496241919773e-03,3.294421434402465820e-01
-3.877576201303098435e-02,-4.033729730815623360e-01,-5.855173071555370978e-02,-4.037156008515870378e-03,-2.198632579814149661e-03,9.681258224438120744e-03,3.556072711944580078e-01
-2.242065088464173517e-02,-3.629467379334112009e-01,-3.922223188802388683e-02,2.224030083902219478e-03,-1.857840634849760794e-03,-2.437185534907860759e-03,3.325085639953613281e-01
-3.103108471666095325e-02,-3.488929939542300129e-01,-4.448653721764002367e-02,-2.107410637844494769e-02,-3.610991588724911296e-03,-3.517396654545437706e-02,3.194109499454498291e-01
-4.292995626136661413e-02,-3.700309993795654617e-01,-3.964840388863469234e-02,1.400405394943320635e-03,1.036733293755727909e-04,-2.785485551018242515e-04,3.287634551525115967e-01
-3.665329711461104423e-02,-4.213508518153086801e-01,-6.751618819457673448e-02,1.123937872211733810e-03,-1.368339479638134605e-02,-8.490519625671265775e-06,3.709950745105743408e-01
-6.218168327933946971e-02,-3.752323146809387611e-01,-3.396265898839388730e-02,3.920882383866620448e-03,2.242307658472941778e-04,-2.439553439912328040e-03,3.281693458557128906e-01
-5.987097706653068951e-02,-3.735888111366285624e-01,-4.097038667447587545e-02,-1.347060934006110702e-03,3.847558115588109017e-03,1.637396750891235639e-03,3.236718475818634033e-01
-3.541004868258570970e-02,-3.813567667041504738e-01,-7.098284004293320404e-02,-1.760552870310777085e-03,-6.110522932148862614e-03,-2.668406736801547628e-03,3.298195600509643555e-01
-5.182607107456560502e-02,-3.685803552400221950e-01,-4.964332770140356121e-02,2.271987768580029099e-03,6.245771825000131366e-03,-3.273420621658770877e-03,3.181101977825164795e-01
-3.496771233054106476e-02,-3.793084086019516965e-01,-5.386563190606244445e-02,-2.960152571105456945e-03,2.168131479365927169e-04,-4.079166416354466050e-03,3.354052305221557617e-01
-7.401525612606393856e-02,-3.594442146515735015e-01,-2.709843913978030039e-02,1.339632490045984115e-01,8.412514290736656380e-03,-3.673767879108665035e-02,3.939061164855957031e-01
-5.701331699254192503e-02,-1.756328541416663780e-01,-5.762746012314227950e-02,-9.639747808442743898e-03,-5.879364473940030221e-03,-4.897904957285342809e-02,1.468926072120666504e-01
-3.990142587818079623e-02,-3.727532063719349864e-01,-4.169201437158676082e-02,6.455005969017086828e-03,3.968274516727866836e-05,-1.182169486680379215e-03,3.321546614170074463e-01
-3.311946843523705386e-02,-9.636601919645612635e-02,-4.667799550097919553e-02,4.126073660004569293e-02,7.566625298049266257e-03,-3.659311185984394366e-02,1.123508065938949585e-01
-2.299871863693240398e-02,-1.360883042653649455e-01,-5.085165504216691834e-02,-3.817626553910677401e-02,-7.847802828866613442e-03,-4.565656407370703718e-02,1.456906795501708984e-01
-5.073677454494665562e-02,-3.806057370833494380e-01,-2.665820009862818196e-02,-1.530775724361806709e-03,1.156324761795493247e-03,-4.686901012647765041e-02,3.520472049713134766e-01
-5.498492633914198180e-02,-3.731699938722719545e-01,-3.496385243665858789e-02,-5.967699185455721013e-03,2.069823005781216366e-03,-4.582878876222612127e-03,3.289311230182647705e-01
-4.524658012784142647e-02,-3.682816773492600948e-01,-4.570401535454665654e-02,-1.201604147373227984e-03,7.729110514596410596e-04,-2.269235024210014724e-03,3.228400349617004395e-01
-3.960745248349492598e-02,-4.040077755611965471e-01,-4.348313313110599432e-02,-6.977603358524965549e-03,2.086438870075911414e-03,-3.467669054678813173e-03,3.627471625804901123e-01
-2.090408238333560376e-02,-3.472298363266981269e-01,-4.608885524930109168e-02,1.087739682076262551e-03,-7.446769942980538924e-03,-1.274064287195954184e-03,3.147683441638946533e-01
-5.712216854507203012e-02,-2.271443321740018728e-01,-5.176490371675063901e-02,3.818252660627593272e-03,-2.271514843092490004e-03,-7.110985166853280026e-02,2.123114168643951416e-01
-2.365201387689898349e-02,-2.995542321752361348e-01,-5.501379466016084741e-02,2.166519934647306508e-02,1.297758478006770695e-02,-1.071793013090333591e-01,3.237721621990203857e-01
-2.871724312267832924e-02,-3.661905768755870927e-01,-3.962351842622657827e-02,-1.530749469633291759e-03,-8.019437537832264321e-04,-1.462470508051104878e-03,3.321776688098907471e-01
-5.282074868238965937e-02,-2.506438642379402171e-01,-5.925767396099811124e-02,-1.998354846346732730e-02,2.830777942727726645e-03,-9.781306362892122630e-02,2.604348361492156982e-01
-3.124157677540151390e-02,-3.638564552749694592e-01,-4.304057292047226702e-02,-6.414719138772794187e-04,3.084876318086552174e-03,-3.343060149814086721e-04,3.269211947917938232e-01
-4.317113031671655776e-02,-2.011744691834813636e-01,-5.234359898428489477e-02,5.895780884232237895e-02,1.030936471137975340e-02,-7.575949463710351939e-02,2.270800024271011353e-01
-2.884937457848203712e-02,-3.700631480319696021e-01,-3.124760876625234940e-02,-2.996376500023133850e-05,-6.815413356045473253e-04,-5.405292062752452449e-04,3.400243520736694336e-01
-2.862947148079106330e-02,-3.582464388702366609e-01,-3.877688545270084608e-02,-5.034743016528868713e-04,-7.308662174716713811e-03,2.059870249617815345e-05,3.249101042747497559e-01
-6.111418759819346735e-02,-3.531075709412235253e-01,-4.407219523971531161e-02,9.762029352688593453e-02,1.571973224013836767e-02,-5.181815838067156677e-02,3.576486706733703613e-01
-3.384287632538650337e-02,-2.967285327350356883e-01,-5.796438749906221433e-02,2.202858070406606833e-02,2.209631886643580179e-02,-1.032330088445126554e-01,3.134345114231109619e-01
-1.776424500919973615e-02,-3.612276116412681537e-01,-4.275484866261601569e-02,3.416610912670533704e-04,-3.881981718910699694e-03,-4.345041795135473096e-04,3.317444622516632080e-01
-3.251821935484226767e-02,-3.170980477804231645e-01,-5.767741926796420004e-02,-8.130129270607798150e-04,-1.061563494645665316e-02,1.661614505181821522e-02,2.750040292739868164e-01
-1.861417199790255106e-02,-3.671870919601158967e-01,-4.257682617261193680e-02,-3.961493867631212494e-03,-5.613840050164320980e-04,-1.691883499041237733e-03,3.373146355152130127e-01
-1.935996252883512292e-02,-3.493240313662582253e-01,-4.232067548972526239e-02,-1.030739181462429245e-02,-6.096869150761106276e-03,5.671464811075876142e-04,3.197788000106811523e-01
-4.368069455436855708e-02,-3.781751436890153917e-01,-2.855301574243820917e-02,3.238593197088359635e-03,-4.594794484527718430e-03,-1.186325404683850546e-02,3.430634438991546631e-01
-2.487950143559004845e-02,-3.681001053256330868e-01,-3.605216101714173171e-02,3.071395763635925420e-04,-2.095075697561935360e-03,-2.347292031860440890e-04,3.377930521965026855e-01
-2.270943262732344481e-02,-3.674556364648218221e-01,-4.035668322592474155e-02,-2.109322690386092759e-03,-1.708905148383104778e-03,-1.211263495395722674e-03,3.363094627857208252e-01
-3.611972872289541392e-02,-2.829235043263632621e-01,-3.941812775286131221e-02,2.932458067776516630e-02,6.304010112654698586e-03,-4.689712763819654795e-02,2.634501159191131592e-01
-2.952883618254648068e-02,-3.854090094877965500e-01,-7.480707875042590105e-02,-5.801228343787905549e-03,-1.350823496715441259e-03,-4.218467855415519718e-03,3.357782065868377686e-01
-3.804337232264712321e-02,-3.697927572344427150e-01,-3.289663430058339944e-02,1.177959125437281698e-04,-1.204213334202725591e-03,-2.113914031380861554e-04,3.343592286109924316e-01
-3.525516637683882848e-02,-3.729031304953916992e-01,-4.328239373732083173e-02,-2.332480352511606334e-03,3.237785921331688428e-03,2.895600527816426586e-02,3.375253081321716309e-01
-4.329665129150012115e-02,-3.687471288177923689e-01,-4.003998444003555035e-02,9.326216182133430536e-04,-3.116495960689159676e-03,3.449910485859564971e-04,3.271400332450866699e-01
-1.738472981870281542e-02,-3.623341330666114968e-01,-4.235309448580808211e-02,9.370044517017583159e-04,-2.182485411989822967e-03,-2.201123965952826549e-03,3.332148790359497070e-01
-2.141482281079347405e-02,-3.611129378662834011e-01,-3.674265446600971652e-02,3.205162873779581791e-03,-6.923495934555158084e-03,-2.614392402283317873e-03,3.325929045677185059e-01
-4.312508727390895746e-02,-3.728362399390310333e-01,-3.889084038259282838e-02,7.606881666015725225e-04,-1.328138500707582955e-04,5.671838740583942055e-04,3.318526744842529297e-01
-3.998202104933699930e-02,-3.691090017189501138e-01,-3.888254353750794645e-02,4.310554462564310718e-04,-1.170329452272594873e-04,7.489898444139859264e-04,3.296815454959869385e-01
-4.288187228907648640e-02,-3.792290025151712207e-01,-6.288742375417001595e-02,1.350369288199004814e-02,-6.038097111244012348e-03,1.368559576969699265e-01,4.045316874980926514e-01
-3.199830958250080015e-02,-3.678333987845646691e-01,-3.561168810419573783e-02,3.544244501428594498e-04,-6.984641408261458694e-04,-5.515139845718140549e-04,3.340471684932708740e-01
-3.759415197216169069e-02,-3.636059491717876790e-01,-2.153381346730781631e-02,1.814579525533889168e-04,-3.744051490789651517e-03,-1.494190060261340464e-03,3.344044387340545654e-01
-1.301711316553946785e-02,-3.949340980769567855e-01,-5.108205679523643294e-02,-1.911879692519839399e-02,3.555707498217370536e-03,7.297810234847849908e-02,3.871482908725738525e-01
-2.659083094371220146e-02,-3.392766601662416392e-01,-4.628837425731846533e-02,5.560644262573802982e-02,-1.553316302139099402e-02,-2.058979814182172047e-02,3.213614225387573242e-01
-3.857374751578951377e-02,-3.597414733824139121e-01,-5.414150038497791972e-02,-1.253976835171081647e-02,-8.445438565976744194e-03,7.442433023936086134e-02,3.401379883289337158e-01
-5.304799109759061881e-02,-3.688790732039668452e-01,-4.523033901278865343e-02,2.978322796940378046e-05,2.678766816356483674e-03,1.389439134383043664e-03,3.198542892932891846e-01
-4.879084729922429642e-02,-3.699663986035979235e-01,-4.118633084551605317e-02,-4.198191417978692878e-03,1.291531500302851724e-03,-3.628961682806448961e-03,3.251942992210388184e-01
-3.670316618752078597e-02,-3.648034293510529213e-01,-4.246339090198021637e-02,-1.419723860090188645e-02,-8.673061696982001332e-04,8.931178470851610426e-04,3.261937499046325684e-01
-4.718262626428246231e-02,-3.674242872572188734e-01,-5.166486664102511173e-02,7.158286734748168535e-05,2.080731970120760794e-03,-6.772031631277248978e-04,3.180468380451202393e-01
-3.622670969012474484e-02,-3.684726654574350113e-01,-4.780219602501682707e-02,-4.050848521257906926e-02,2.188230257757439734e-03,2.821293514292630422e-02,3.376396596431732178e-01
-2.597566284155290728e-02,-2.261591713666222525e-01,-5.219354787447024607e-02,6.257837480306704947e-02,8.252147957315031541e-04,-2.626010241220611864e-03,2.174472659826278687e-01
-4.942712412343547995e-02,-2.138051578199374747e-01,-6.119581446656607165e-02,2.609777512161916974e-02,-5.166434669315466896e-03,-7.623757592738715852e-03,1.658971011638641357e-01
-5.305248262106965901e-02,-2.276875818705746957e-01,-6.013337025369440425e-02,2.314284386625655582e-02,-7.226830859157503881e-03,-1.851010071323868841e-02,1.791711747646331787e-01
-5.269600118169467939e-02,-3.650382368173925585e-01,-4.233152315413750422e-02,7.453791479520262882e-04,2.067881782365831120e-03,-1.319617956539110648e-03,3.176823556423187256e-01
-4.712457171036053827e-02,-3.663259003200932118e-01,-4.607524782120107909e-02,-8.196552698825236355e-04,4.599247335947569723e-05,8.948626019574967188e-04,3.197341859340667725e-01
-4.445579135119756553e-02,-3.748940308072948868e-01,-6.391111895144281629e-02,-1.280986338408658968e-03,9.391264084641515880e-03,8.760743088074967602e-05,3.215722143650054932e-01
-5.412506264342595297e-02,-3.689484996725790333e-01,-4.593341632402876684e-02,-6.279900450056700176e-04,1.739506374662629301e-03,-3.918450791399633406e-04,3.190149664878845215e-01
-4.333190790619187438e-02,-3.705507642414324065e-01,-5.241986069856487129e-02,3.667419746955182707e-04,1.386400146149408420e-03,3.363060360477392041e-04,3.227809369564056396e-01
-4.772876532984299258e-02,-2.270950372150630225e-01,-3.996768083440722930e-02,2.266285860684064124e-02,-9.860949334653574747e-03,-1.031387333838225742e-02,1.891460567712783813e-01
-4.529872000165714729e-02,-3.697295694603103255e-01,-4.300259328352913635e-02,-1.609626939631595690e-03,8.533480011533044239e-05,-2.722731344801321979e-03,3.256311118602752686e-01
-5.939166995757744205e-02,-3.689564707066473326e-01,-4.064872827394154509e-02,-2.280637285341377985e-03,2.776767859749911752e-03,-2.079581236920678439e-03,3.194299936294555664e-01
-5.101629438193662491e-02,-3.093459843810856258e-01,-2.024881662691213613e-02,1.092953772509304769e-02,-7.627729628344966963e-03,-1.131830681073182215e-02,2.766699194908142090e-01
-4.004172759406401938e-02,-3.693103284980387979e-01,-4.252982543051204989e-02,1.137476642408711842e-03,3.168992945505776028e-04,-1.487799010781050467e-03,3.280481398105621338e-01
-3.636221412533885422e-02,-3.690649536845101442e-01,-3.250665445619832505e-02,-1.697577327442596935e-03,-2.566356954432178795e-03,2.918723797491500592e-03,3.347277939319610596e-01
-2.174030190853150357e-02,-3.639372703024882361e-01,-3.970683856588917704e-02,-7.978948814816535671e-04,-2.414961428074738608e-03,7.413839787092605261e-04,3.336083292961120605e-01
-4.550197994632758369e-02,-3.204331588058800806e-01,-1.532129774293530811e-02,-5.481722584291093443e-03,4.618489136774618468e-03,1.833758587225220449e-02,2.931869328022003174e-01
-4.647555466572786398e-02,-4.243490897297468312e-01,-4.661933683735652867e-02,-3.443758880983888854e-02,7.644754571612703484e-03,1.122268637460713779e-02,3.832037448883056641e-01
-2.348975709521423927e-02,-3.676366993448435538e-01,-3.265108807730859874e-02,-1.353930398688447804e-04,-3.599499344805886028e-03,-4.533564678530755906e-04,3.397171497344970703e-01
-3.868508172868573292e-02,-3.766659385542590055e-01,-6.738991179512586471e-02,1.102758977851662884e-04,-4.486717617145165142e-03,-7.962395710781937580e-04,3.246777951717376709e-01
-4.308916947023437582e-02,-4.153577774107414244e-01,-3.495619360521864949e-02,1.309977022073264413e-02,1.259862565359017895e-03,3.188390075204035334e-02,3.811129033565521240e-01
-4.409259177098734384e-02,-5.134687764315143399e-01,-6.503413393886631200e-02,7.612931946839014696e-02,-9.960286056200237659e-03,1.118295524927099133e-01,5.158733129501342773e-01
-3.653505349601132712e-02,-3.700686749334528569e-01,-4.285065649673377997e-02,-1.105726513399957114e-03,-8.533068315287545627e-04,-1.509645592895265216e-03,3.304402828216552734e-01
-2.279621872581927278e-02,-3.686864617926454701e-01,-4.015556860363078684e-02,-1.830710624198755984e-03,-1.635817014768536134e-03,-7.902809185938267393e-04,3.375750780105590820e-01
-3.354437037956679857e-02,-3.661039334560765024e-01,-2.820190908868380752e-02,-7.500558946171837328e-04,-7.879480277622414111e-04,2.113801104789866079e-04,3.352682292461395264e-01
-3.469493041868179639e-02,-4.148420253810382596e-01,-6.184572914726080284e-02,2.832127095199434702e-02,-3.022966655284877770e-03,6.649301725668654850e-02,3.881048262119293213e-01
-2.340368146568783114e-02,-4.335258701998301878e-01,-6.130809067005829616e-02,-9.000944217028771996e-03,-8.737746359134723056e-03,-3.380097210784628603e-02,3.974809646606445312e-01
-4.527999279510332153e-02,-3.610949299230996612e-01,-1.988247025060142781e-02,-1.915662989901478113e-03,-5.752769391910399557e-03,1.252478339300529091e-02,3.301301598548889160e-01
-3.180986445463306056e-02,-3.791843839756255941e-01,-5.004427331919365785e-02,2.622641874613457214e-02,-1.902452951541565383e-03,4.991016842870849013e-02,3.524411916732788086e-01
-2.775872190117179006e-02,-3.686950274064267896e-01,-3.529946655629018215e-02,-6.397041561978416072e-04,-1.617284227632849718e-03,-1.749555613628679196e-03,3.372562527656555176e-01
-3.212154486861246161e-02,-3.700265535834188491e-01,-3.349494080174539312e-02,3.872580379379332019e-04,-6.653148717284375563e-04,-4.809713704393631713e-04,3.372240662574768066e-01
-4.575613789356150485e-02,-3.662902888255386014e-01,-4.705057488445162084e-02,-1.983748404097484337e-04,7.527700702971928080e-04,5.800392300164458528e-04,3.198933303356170654e-01
-3.395044517056187983e-02,-3.703623582005872716e-01,-3.394319092151315553e-02,1.470997175885929394e-04,-2.144663695219968123e-04,7.002824697573978990e-04,3.364180326461791992e-01
-3.301117959148039405e-02,-3.700582460267661244e-01,-3.281594277680666139e-02,5.718833661611957917e-04,-1.338948532710423911e-03,-1.264237316382343641e-04,3.371542394161224365e-01
-2.319365420676512690e-02,-3.650753011260818859e-01,-3.637164692987117365e-02,7.332929482563009266e-04,-2.774114174005836483e-03,-1.292723024197902758e-03,3.355311155319213867e-01
-1.990224176585105031e-02,-3.551342447540883906e-01,-3.917879907530538719e-02,5.551301588050388570e-03,-5.782140481947458353e-03,-4.429978800066819867e-04,3.263177871704101562e-01
-3.279121219798245002e-02,-3.705903095698603322e-01,-3.157641848157950737e-02,3.727981252115921025e-04,5.877896048682371144e-04,-4.312510486722504833e-04,3.384110927581787109e-01
-4.290197975436448735e-02,-1.947223672434585384e-01,-2.757766000016308866e-02,5.104938801099886264e-02,8.936783194075958656e-03,-4.877808687371960883e-02,2.020060271024703979e-01
-3.150993864051335192e-02,-4.208828775112930520e-01,-7.366366299636831205e-02,7.663142284586080787e-03,4.996364141587777627e-03,-2.234205607614201967e-03,3.704601824283599854e-01
-3.062503113214598560e-02,-3.774381411274599918e-01,-7.259706553018012432e-02,-1.097137874428235097e-03,2.531982524514800412e-03,1.160697944890857428e-03,3.278893530368804932e-01
-2.862409049948377859e-02,-4.192964619227103062e-01,-5.227081268895258925e-02,-3.574027703074144063e-03,-9.312693091710773016e-03,5.397358452956858323e-03,3.799103200435638428e-01
-4.579393886192786867e-02,-3.688518764396425675e-01,-4.045773957835652190e-02,-9.096763979826175605e-04,1.249948220198849463e-03,1.026166631329623793e-03,3.257746696472167969e-01
-5.324405841967003172e-02,-2.556519234506987592e-01,-3.301989420432531464e-02,1.002488432159787946e-01,6.830922836996797080e-03,-1.850526426534212371e-02,2.771070301532745361e-01
-4.141302273093135089e-02,-3.682283151728757420e-01,-3.960227636270707841e-02,-1.746990666333294445e-03,-1.268276519713343797e-04,9.568058279366223893e-04,3.277426362037658691e-01
-2.027504389082945835e-02,-2.738319876962899135e-01,-4.261096739924304100e-02,5.583273340879535418e-02,-3.605089372062547995e-03,-1.178805985785058157e-04,2.617584764957427979e-01
-4.982481956154630187e-02,-3.872815363368678487e-01,-3.360664333919320679e-02,2.137273126938784434e-02,3.724465473334276008e-03,-1.178821540943904116e-02,3.484851121902465820e-01
-4.586527248471386486e-02,-3.700100605276623877e-01,-4.633483714018152289e-02,-6.915438265361484457e-05,7.194260534463843689e-04,2.435517085658131953e-03,3.239401578903198242e-01
-3.231837649037193338e-02,-3.692587152244515281e-01,-3.064458443138017019e-02,-1.103465558396541550e-03,-3.707353122981486577e-03,2.388963450769551538e-04,3.378470242023468018e-01
-4.302211971985074601e-02,-3.704634616874518116e-01,-4.252343863071986196e-02,2.236514747939424147e-03,-4.141291122395628099e-04,1.968190264764257263e-03,3.277323842048645020e-01
-6.650906196435309170e-02,-3.749283249733816326e-01,-3.998305567937519844e-02,1.209690059908489213e-01,7.429000049044954569e-03,-1.345311428639711301e-02,3.855077624320983887e-01
-1.925575480558384955e-02,-3.380751588827866083e-01,-5.674857397389590496e-02,1.272277515616828183e-02,-5.572476651104748928e-03,-5.266238841347433905e-03,3.029192090034484863e-01
-2.888039166219412424e-02,-3.503436375956356930e-01,-4.191420896824057940e-02,3.568977644906280028e-02,1.111032461599440607e-03,5.034580085275870871e-03,3.212781250476837158e-01
-3.934575970929284072e-02,-3.694341693763776302e-01,-3.398326617723203269e-02,1.592589395773950662e-04,1.149429679791480474e-03,-8.566321458084654198e-04,3.328114449977874756e-01
-1.875526092892207397e-02,-3.652386380616654549e-01,-4.764049559063138206e-02,6.961911067410157632e-03,2.797176834179460059e-04,-1.152057886368780407e-03,3.332063257694244385e-01
-5.008027733383101088e-02,-3.655816953676392922e-01,-4.884461014797492062e-02,9.652817118066107135e-05,1.097013091960792478e-03,9.273497524639679260e-04,3.161309063434600830e-01
-4.840148799192579843e-02,-3.669718396237903746e-01,-3.534394242588509427e-02,1.409753251984576655e-02,4.788380687083501272e-03,-7.817949867588597787e-04,3.263190984725952148e-01
-5.390423748284760286e-02,-3.662344005910274092e-01,-4.506209028347753220e-02,-6.717582823157982903e-05,1.576848617536065521e-03,-1.847476894708956034e-03,3.168717324733734131e-01
-4.371362718796648061e-02,-3.699730422204025038e-01,-5.362361430887718772e-02,-3.322048998170197835e-04,2.884939782059060299e-03,-5.107476448747167580e-04,3.214595913887023926e-01
-3.575109877194247721e-02,-3.973150675159063949e-01,-3.395651264438562245e-02,-3.123866775394180603e-02,-1.296537102192064439e-04,3.181390384035384655e-02,3.706002831459045410e-01
-4.886808127636486920e-02,-3.658089397448859303e-01,-4.707968246732412154e-02,-1.328590822585910618e-04,5.789842178786402038e-04,-6.767409063605712332e-04,3.178426623344421387e-01
-5.048171432178599760e-02,-3.758311471367444812e-01,-3.551486873247869380e-02,6.806981739042190435e-03,1.431757681585909756e-03,-1.488387247926307132e-02,3.342984616756439209e-01
-4.291870603606214030e-02,-3.674037377920600367e-01,-4.184990970114238484e-02,-3.497472166956736364e-04,1.521621620503029362e-05,-1.832431023062340266e-03,3.250368237495422363e-01
-4.301506856110573485e-02,-3.672381587675813686e-01,-4.706091002596918260e-02,-5.533819223004757173e-04,-1.244445926151694672e-03,1.209881839578208197e-04,3.222279250621795654e-01
-7.800330739899519195e-02,-4.527649473498751020e-01,-2.563643852154390279e-02,3.373631552918467807e-02,-1.102238063894360465e-03,-1.286920322187838812e-02,4.083241224288940430e-01
-4.636251343767999744e-02,-3.625482161218753219e-01,-2.049888144541232859e-02,-1.513550923482150133e-03,-2.310306993839582931e-03,-4.067291910246625258e-03,3.299887180328369141e-01
-3.527523439603813538e-02,-3.588104216046974493e-01,-2.772640514800477074e-02,-1.110734354885954981e-03,-8.122412535732103506e-03,-3.309917865413818192e-04,3.276831805706024170e-01
-3.652733216336292998e-02,-3.711814579738363928e-01,-3.821005958654265233e-02,-1.503889746887181232e-03,-2.007683630888741980e-03,-2.841063538033681852e-03,3.338804841041564941e-01
-3.586480755198313830e-02,-3.705212781594333649e-01,-4.322174349828802886e-02,1.310816399526249128e-03,3.363570664794112417e-04,-1.895004932851639947e-03,3.310638964176177979e-01
-4.705164670444278441e-02,-3.744695248404713017e-01,-5.883732957624292215e-02,6.979176585152013996e-04,5.084750037221421985e-03,-1.632443155666976186e-03,3.218222260475158691e-01
-3.539069761705418427e-02,-3.423819638645524410e-01,-2.801731133668781959e-02,5.283550436164107141e-04,-1.148645689141421060e-02,-5.100029355300060921e-03,3.115064203739166260e-01
-3.592885924228010619e-02,-3.690574603645703222e-01,-3.647510458451437565e-02,-4.021885365414007104e-04,-6.912187588281301686e-04,-1.744479717954660952e-03,3.328724205493927002e-01
-3.618752776158402906e-02,-3.637171000763306239e-01,-2.214726732659444419e-02,6.802935667380226412e-05,-4.803362201326080196e-03,-1.939116225315553384e-03,3.348908126354217529e-01
-2.691626692116649844e-02,-3.703963515567081366e-01,-3.541861287068483188e-02,-7.787402677519097158e-05,-1.352588395673783722e-03,6.461357658164837339e-04,3.393187820911407471e-01
-3.244995710444611992e-02,-3.668172942873411113e-01,-3.065584416055680550e-02,-1.222063395041350989e-03,-1.738316247517520535e-03,-7.944798467676723180e-04,3.352910280227661133e-01
-3.351252799939885563e-02,-3.543832584404955632e-01,-2.949900193479673693e-02,7.703774382218754949e-04,-1.040467156867095830e-02,-5.942974833054868317e-03,3.235652446746826172e-01
-2.041754672396407788e-02,-3.643120904482470834e-01,-3.970594751006668865e-02,-1.333070901316867280e-03,-2.552467051693004581e-03,8.958958702960862419e-04,3.347082436084747314e-01
-4.288808460655019195e-02,-3.535994528162025308e-01,-2.294772358245085464e-02,4.011655042652054507e-05,-1.014167515241415352e-02,-1.197550857010297454e-02,3.222943842411041260e-01
-2.878828656681116371e-02,-3.695997900066141928e-01,-3.229045571259817060e-02,3.061679511958788824e-04,-1.056605561900018225e-03,-1.731984586337677410e-04,3.390794694423675537e-01
-2.967298121590629389e-02,-3.697229725588983551e-01,-3.243517599015069419e-02,3.023277617886006461e-04,-1.962774280111378349e-04,-3.021950495662239578e-04,3.386783301830291748e-01
-3.690017560530781116e-02,-3.718332236392408729e-01,-4.396307855644915330e-02,8.936994348767950255e-04,6.965544816913186131e-04,4.770274350231295049e-03,3.315668106079101562e-01
-4.075962163631531576e-02,-3.767211091902561981e-01,-4.440708071500965026e-02,-2.606002594875828342e-03,1.275804936794181247e-03,5.429704417450915456e-03,3.343227803707122803e-01
-7.345376450052100437e-02,-3.988774515865460835e-01,-2.539733676773608950e-02,-8.218154206748344223e-03,1.396778324276309576e-03,-1.282817348098695513e-02,3.529176115989685059e-01
-3.717111183669016827e-02,-3.562829591450392686e-01,-4.818261224564360234e-02,-3.568381027537570471e-02,-5.328528326727560499e-04,4.730602245806067585e-02,3.301123380661010742e-01
-3.631307580193181284e-02,-3.790654567559645916e-01,-6.339176919652422804e-02,-2.919947143963892450e-03,2.020135734627694502e-04,6.189783114062798186e-03,3.302602171897888184e-01
-3.272444747137270848e-02,-2.534429184979750671e-01,-5.396908807152907966e-02,3.172059666346144224e-02,9.995092619761199518e-03,2.281393139073557147e-02,2.221679836511611938e-01
-2.524452266139545764e-02,-4.003001023777523759e-01,-7.256623498326432442e-02,4.468322038792834489e-02,-9.025140713238540349e-03,1.253342396150674831e-01,4.225137829780578613e-01
-3.288416464981239185e-02,-3.771281388843745752e-01,-7.124868355127840502e-02,-2.515765604556306268e-04,2.422023076750309432e-04,-2.122896553370562465e-03,3.267765045166015625e-01
-4.106748024216169690e-02,-3.592967569759876745e-01,-3.322750145976328950e-02,-2.317810324079796862e-03,-3.981597612241489191e-03,-1.218887585424839777e-02,3.230102658271789551e-01
-1.868935737319787904e-02,-3.655265749955383670e-01,-3.917270222246695133e-02,4.721633693578902464e-04,-2.055137892640892042e-03,-9.775483517907592422e-04,3.370867073535919189e-01
-3.063593125155721075e-02,-3.755274143924310914e-01,-4.506343249635043346e-02,-1.030469800751425240e-02,-1.863233050858574406e-04,-9.173809448546665956e-04,3.383837342262268066e-01
-4.605075667545359408e-02,-3.676139758813336544e-01,-4.763683504760285459e-02,1.426568404092200693e-03,4.472989218893549468e-04,-1.122711074494356842e-03,3.207894563674926758e-01
-3.771972460460357168e-02,-4.168858587803334625e-01,-5.053261022707766781e-02,-8.721994267347836852e-03,-1.165962793067590840e-02,-7.691825254965685074e-03,3.740139901638031006e-01
-5.677424048086812669e-02,-3.924652143740746113e-01,-4.411337193741164675e-02,-1.198107555857604312e-01,2.033100623969128981e-02,9.048216653832923118e-02,4.312352538108825684e-01
-7.158639118020086733e-02,-3.764284458241161646e-01,-3.183437591777860121e-02,-1.076565937525631594e-03,-2.150536806661054994e-03,3.719456304838374486e-03,3.266279995441436768e-01
-2.736714342123945654e-02,-3.056653289876490320e-01,-5.554278769623609280e-02,-1.291727388466373284e-02,1.134170069553323487e-03,-9.947990970766705521e-02,3.171682655811309814e-01
-2.962756710308454833e-02,-3.754604437384295723e-01,-4.347431741716030473e-02,-5.972592237250417754e-03,-1.370093927285623899e-03,-2.055483313201176675e-03,3.393062949180603027e-01
-4.183160914222963656e-02,-3.680399484291186907e-01,-2.958207294393258580e-02,-1.340346246344655901e-03,-2.480232566625957926e-04,8.447123525492172900e-05,3.325107991695404053e-01
-7.683357161069778729e-02,-3.772838981905147215e-01,-2.871237944887009008e-02,3.553475795305393323e-04,-1.358933790898081504e-03,-3.518951937765724212e-03,3.272417187690734863e-01
-2.121250296306313732e-02,-3.457933487418730634e-01,-4.685988287542963704e-02,-1.640642906629188489e-03,-8.839959538561908275e-03,-1.203827961057320076e-03,3.129420578479766846e-01
-4.199826234293212168e-02,-3.766383962379759032e-01,-3.349089662233481479e-02,4.237972648398670265e-03,-7.846120671818149770e-04,1.808668912921526997e-02,3.405002355575561523e-01
-3.301172004330416021e-02,-3.726145878259147781e-01,-4.067719671084059352e-02,-4.326509619608991802e-03,-1.703131414474303709e-03,-2.581377647103840715e-03,3.359620571136474609e-01
-5.501913503423563889e-02,-5.696144093737867120e-01,-2.672855009920113711e-02,5.108165833518450022e-02,1.616655656889467996e-02,-2.671334522766943137e-02,5.393697619438171387e-01
-6.080695737824137748e-02,-3.759175475106054654e-01,-3.102773113842718922e-02,7.325258419776041474e-03,-1.437755609498729678e-03,-2.537123773995992367e-03,3.312879800796508789e-01
-4.402582762744298994e-02,-3.710604369217432308e-01,-3.417013348928030214e-02,-1.748515899401026710e-03,7.272230672077517740e-04,8.838772211889230068e-03,3.324410617351531982e-01
-4.112992660617012519e-02,-4.745519330389179613e-01,-5.041622532942291457e-02,7.868721636612899251e-02,-1.157565800342031520e-02,8.526939481250181418e-02,4.740312397480010986e-01
-5.707663860382403143e-02,-3.543645940657218496e-01,-1.880195583472191179e-02,-4.101157091092596380e-03,-4.873361470147075450e-03,-1.861457015243777116e-02,3.199763894081115723e-01
-4.784880441685875063e-02,-3.463329948828536287e-01,-1.317568554542022929e-02,-2.000668563906094280e-03,7.000166228142221797e-05,7.947516806057061331e-03,3.175624907016754150e-01
-5.981305751191268172e-02,-5.305798380759474409e-01,-2.943702523213961864e-02,-8.034714474207121926e-02,4.707774605672721685e-03,-3.138369622413274967e-02,5.091486573219299316e-01
-5.089980896568624402e-02,-2.956781898799114572e-01,-3.243696596646919450e-02,9.373831689807137629e-03,-1.493951784540507345e-02,-5.987247927402702258e-02,2.765211462974548340e-01
-3.635309929256860806e-02,-3.647892516172013266e-01,-2.448780689470470007e-02,-6.432631613610261413e-04,-3.107072070190046269e-03,4.211882116854879523e-04,3.345725834369659424e-01
-5.924960125818422296e-02,-3.751688329842078895e-01,-3.354786040389023949e-02,5.243592688697226896e-03,-1.642566820042674642e-03,-2.818103356062033778e-03,3.296962678432464600e-01
-3.241555364345065360e-02,-2.706689334311764839e-01,-4.047606143338169926e-02,4.134808989282217490e-02,-1.331309199858823553e-02,-2.192312264186576515e-02,2.490216493606567383e-01
-2.091287305730518686e-02,-3.625974613365811061e-01,-4.311900401609648770e-02,5.075344383349742708e-05,-3.837060727436312785e-03,7.509009590274019091e-05,3.312071561813354492e-01
-4.127459098370815649e-02,-3.720388310697670953e-01,-4.275354254838273360e-02,3.765616846886254108e-03,-3.838967620410559610e-05,-1.342905583169511953e-03,3.300998806953430176e-01
-1.974382760863895026e-02,-3.208656019702290640e-01,-4.382408663150197392e-02,1.219486365753411246e-02,-8.078383605758172534e-03,-1.924591723481411084e-03,2.909572720527648926e-01
-2.476680113695035879e-02,-3.129901070554015896e-01,-4.968606434638342395e-02,1.200591488599516733e-03,-7.337069565598876644e-03,-1.101317998253147637e-04,2.769064605236053467e-01
-2.013871245347867434e-02,-3.651462808721961384e-01,-3.984756641109965525e-02,2.087158042919277489e-03,-1.726984012759706037e-03,6.749811170677691690e-04,3.356223106384277344e-01
-5.376531430126910149e-02,-2.443886029478717636e-01,-5.466595784411405756e-02,8.429185687769888413e-03,-9.823389028441932916e-03,-2.310256078738221245e-04,1.914919763803482056e-01
-4.086840598706800026e-02,-1.549502332553771289e-01,-5.072709797646165336e-02,-2.256659959246602731e-02,-7.261570649654316631e-03,-5.611871852299885749e-02,1.520560383796691895e-01
-1.492049954449484184e-02,-3.548343067631070102e-01,-4.672252446611160903e-02,2.010359392071101037e-03,5.105805410214450451e-04,-1.603285520976431133e-03,3.252128958702087402e-01
-5.017683030001554578e-02,-3.531942892928362498e-01,-1.045416782300462311e-02,-1.405700458758197624e-03,-2.068310674817203272e-03,6.160299271292195462e-03,3.249103426933288574e-01
-3.561338971674932186e-02,-3.734906529599568703e-01,-2.953525503899234739e-02,-7.614614358390802730e-04,-2.431205312173420879e-03,-6.070613664489633333e-03,3.411476016044616699e-01
-4.297399436182986615e-02,-2.733671856511588755e-02,-4.638228188986649736e-02,5.086507499070172869e-03,-4.600668157449910346e-03,-1.718771000962035847e-02,3.656234964728355408e-02
-6.944014933802103440e-02,-1.830444624300716361e-01,-6.751778422493848186e-02,-5.169626740606083487e-03,-1.545033774299863502e-03,2.625775374848446451e-03,1.150480136275291443e-01
-3.271351642855255260e-02,-4.177218174353669600e-01,-6.506702591286331328e-02,1.039079393892864203e-02,7.248488711294087845e-03,-9.829241842912113392e-02,4.077836275100708008e-01
-4.443672479042379275e-02,-3.556533715289419417e-01,-2.088222543489939853e-02,-1.677589208096360836e-03,-5.900311115218132441e-04,2.631615456860423967e-03,3.236841559410095215e-01
-4.141770262134074343e-02,-3.701057295582060869e-01,-2.835694470535156386e-02,1.596695661962676703e-03,5.287219639261161487e-03,2.252653108924707742e-02,3.378064036369323730e-01
-5.125452371646274652e-02,-3.411050893195700096e-01,-1.412306450648370681e-02,-1.455930851701684034e-03,-5.004321963927616489e-03,6.389161432871370665e-03,3.104168474674224854e-01
-9.362871893467815398e-03,-1.089168844154668192e-01,-3.003127091279739896e-02,3.494153668730824898e-03,2.798138758342063985e-03,-3.832608745391103550e-02,1.129041388630867004e-01
-4.387303358938809961e-02,-3.692563434139667367e-01,-3.960491552830688877e-02,2.508014761922432515e-03,8.051470889687615921e-04,3.757993228573528431e-04,3.275706470012664795e-01
-4.699262500527461028e-02,-3.594798580770386942e-01,-1.725962573500018638e-02,-3.618579445581654713e-03,-4.888852221996043898e-03,1.205802206536946662e-02,3.291970193386077881e-01
-5.974495254657153503e-02,-1.956113179047845041e-01,-5.352551168376851881e-02,2.480337321622518715e-02,-5.508379668535026696e-03,7.966355358549940223e-04,1.458832323551177979e-01
-2.935820552248635806e-02,-4.192491411620606345e-01,-7.273336710087099921e-02,-1.592882983209099185e-02,9.561192458063808713e-03,7.081234284173623487e-03,3.717131018638610840e-01
-4.337561831584282879e-02,-3.705939659788365370e-01,-5.931388837257473012e-02,1.189434059204967382e-03,-2.414263624735725651e-03,9.324436497046961064e-04,3.195855319499969482e-01
-3.305261088581216977e-02,-2.786349445639497713e-01,-5.259030740593836906e-02,2.138658020504962884e-02,-1.205034678650210994e-02,3.916534562402810681e-04,2.402135282754898071e-01
-5.676609648562053190e-02,-9.690667305875186321e-02,-4.935878343124372458e-02,5.874362686119797422e-03,-6.719698963296163834e-03,-4.228845476752343679e-02,8.699078112840652466e-02
-3.498223691638775723e-02,-3.735534832395547289e-01,-3.642806319054112119e-02,1.779592961299569223e-04,1.000489349002240324e-03,3.097910459858081896e-03,3.378978371620178223e-01
-4.233436026404684138e-02,-3.863856818934908732e-01,-5.710602832550540353e-02,1.825848347690110784e-03,-1.129220980190964209e-02,1.317429145891020571e-03,3.374982178211212158e-01
-4.324094467535880004e-02,-2.449842178268583637e-01,-6.977593516144001140e-02,2.709881139372931087e-03,-5.602007977032383811e-03,-1.302347772195248856e-03,1.901905983686447144e-01
-2.401711958244101552e-02,-3.662039132590818591e-01,-3.847490740340753224e-02,1.113508548077730802e-03,-4.218966589954908919e-03,-1.085035489490238092e-03,3.352822959423065186e-01
-4.322053563342842519e-02,-3.413188083992788613e-01,-1.633352848162847315e-02,-2.575737635334157932e-03,-4.454394587192560609e-03,9.568453555743851313e-03,3.129769265651702881e-01
-2.051921292177763534e-02,-2.404343154691577500e-01,-4.955219764927524390e-02,-2.120134611192671034e-02,7.891485360317682758e-04,-8.984317674084117689e-02,2.615081667900085449e-01
-5.552722964268894112e-02,-5.775228495043610577e-01,-2.338750986927534692e-02,-4.710232637593501394e-03,2.039191608361024671e-02,-5.524605281953280655e-02,5.484155416488647461e-01
-5.121176966715335066e-02,-3.800491014875603257e-01,-3.787080616637900077e-02,-1.426422629341338264e-03,2.029851534580425117e-03,-2.912512864964138422e-03,3.357720971107482910e-01
-3.188564353375866744e-02,-3.128044269170373592e-01,-5.016664062291752157e-02,-9.668103101807120833e-04,-8.543808826478887022e-03,1.628146341158557371e-03,2.726606428623199463e-01
-6.035445087078499665e-02,-1.747283624911741273e-01,-5.960380307942298589e-02,4.598647747976594008e-02,-8.729558747006982422e-03,-3.457961733933428983e-02,1.527348756790161133e-01
-5.517386977114278890e-02,-3.769610349702644525e-01,-3.678849325283496674e-02,-1.713944175158258788e-03,4.514331431024094787e-04,-9.149240605527850191e-04,3.313806056976318359e-01
-5.751546790112195551e-02,-4.089033150783994985e-01,-5.092499236059820633e-02,1.589909034838380905e-02,-2.219704391234771784e-02,1.436146630306107952e-02,3.587309420108795166e-01
-5.285754687034603660e-02,-3.800976779536677230e-01,-3.457884571244081162e-02,-4.184093239111258411e-03,-1.594134349603976500e-03,1.111663722820432996e-03,3.368465304374694824e-01
-4.583128449254708636e-02,-6.314099222282647528e-01,-1.034175181561083900e-02,-3.590489757988244574e-02,9.105777406208399177e-04,-3.540769389326077488e-02,6.103891134262084961e-01
-3.304696078434767037e-02,-3.649102496057616274e-01,-2.711308914672455606e-02,1.937599781500988678e-04,3.239519497498460562e-03,3.353684379423948645e-04,3.349173367023468018e-01
-4.779272691742417895e-02,-1.883403110007024206e-01,-4.891091844605295613e-02,4.470217711454915754e-02,-2.038574636613950820e-04,-8.059197915927705791e-02,2.123155593872070312e-01
-1.857418303160629502e-02,-3.629305462475749255e-01,-4.297244644351481957e-02,-2.501434319243211048e-04,-3.290751686442816397e-03,1.001780931559154381e-04,3.328777253627777100e-01
-4.522121215948514406e-02,-4.098021973410683194e-01,-3.631111895676275569e-02,2.049341053907786578e-02,6.708424799473856198e-03,1.991210856093094620e-03,3.710174858570098877e-01
-6.954517927414594070e-02,-4.286848496715073842e-01,-2.586197323482333776e-02,1.708638578331971372e-02,-4.305328840457410891e-03,-1.322295170490376225e-02,3.847517073154449463e-01
-1.871729239851448179e-02,-3.422922395657052030e-01,-3.936312172930175879e-02,1.392296882263589428e-02,8.981425296307965489e-03,9.177889749229097005e-03,3.154723048210144043e-01
-1.408391741259115704e-02,-3.419254305815075390e-01,-5.109684956179506854e-02,3.590286021346058426e-02,2.392649471738469199e-03,6.028264748359647880e-03,3.173466324806213379e-01
-3.033381758932757188e-02,-3.692794115550541711e-01,-3.899144019916701842e-02,-4.420794497887689870e-03,-3.270317716369271210e-03,-3.897917886566815279e-04,3.348369300365447998e-01
-2.121582764015819689e-02,-6.221766284799303826e-01,-5.915244686841167332e-02,-2.547660777443326585e-02,1.373712537179363515e-03,3.144975642422463691e-02,5.871241092681884766e-01
-5.887848835608756881e-02,-2.353860400197657077e-01,-6.735647823027138270e-02,-5.452874715727225666e-03,2.396894707627012649e-03,2.259065810369886851e-03,1.727776378393173218e-01
-5.438886229314394971e-02,-3.728105787353576117e-01,-3.898379522835028477e-02,7.025261650724958819e-03,-1.036512949640282406e-02,-9.434966139978323346e-04,3.271208703517913818e-01
-4.684663858176298101e-02,-3.701348009358202407e-01,-1.739766525502031702e-02,-4.991982598652075455e-04,-1.331341896668377994e-03,-1.368132021308311221e-02,3.398096263408660889e-01
-7.707543978614422864e-02,-3.930258810165611072e-01,-4.038946599036316587e-02,9.577038224186356502e-03,-1.532239272737864928e-02,5.802275159384361579e-03,3.374047577381134033e-01
-4.105796604716123455e-02,-3.700265940591302427e-01,-4.459133984415944441e-02,-1.999355958652318955e-03,-1.516485234748724670e-04,-9.576126776024177986e-04,3.272388875484466553e-01
-7.508885717971670870e-02,-3.906144878628650119e-01,-3.114919311406025293e-02,-3.336907650471922920e-03,3.821211476098341012e-03,-2.644051630954649332e-03,3.397784531116485596e-01
-5.635952967677285153e-02,-3.636125606390736564e-01,-4.209226899616788642e-02,-3.529734057015386506e-02,5.203886352917075353e-03,8.515825678929051304e-03,3.209799826145172119e-01
-4.667027662120185050e-02,-3.660796462050908140e-01,-4.973045164999952139e-02,3.718745736358763731e-05,-1.053786513008055656e-03,3.275730841522317351e-04,3.178960680961608887e-01
-4.855765174386990346e-02,-2.777715528004334744e-01,-3.267221669561162778e-02,-1.110927569486180877e-02,9.491699170792598089e-03,-2.062863881618998835e-02,2.415567636489868164e-01
-6.100126936857591664e-02,-3.806929654809079189e-01,-3.787180343270762917e-02,-5.692702930163938066e-03,-5.371111104697948689e-03,2.411743947247963274e-03,3.321645259857177734e-01
-3.150346030600245650e-02,-2.716976325293001260e-01,-2.848902045026459329e-02,-2.535424719288712977e-02,-1.008907917263839223e-02,-1.005197887935017076e-01,3.016172051429748535e-01
-4.730344457578070094e-02,-1.915117937944703086e-01,-4.636308097025940850e-02,-3.124458967049407315e-02,-2.680596342669891961e-03,-4.542557983382915915e-02,1.734163165092468262e-01
-4.718925693342049255e-02,-3.676213231378064328e-01,-4.655588100327506806e-02,9.985284742086081907e-04,1.732669982985394520e-03,-4.692323226515006059e-04,3.207689523696899414e-01
-3.855773020193212219e-02,-2.512397494706618550e-01,-5.552523264228547556e-02,-2.969284307624624891e-02,4.666037544466818468e-03,-4.004587170956493310e-03,2.113558053970336914e-01
-4.086852036168685254e-02,-3.720298644742588978e-01,-3.267719388561056426e-02,-3.176296430120610029e-03,-1.085856228634827494e-03,-3.245147573454988665e-03,3.354295492172241211e-01
-5.619805361112691078e-02,-3.768445137341100981e-01,-3.764101239020017919e-02,4.669746858555398443e-03,-6.730465869902788187e-04,1.463935948182607926e-03,3.304269611835479736e-01
-2.930390891119620533e-02,-3.719370243166296719e-01,-3.972684293030821767e-02,-5.981650783181952265e-03,-1.337605490313316598e-03,-4.923099592171214199e-03,3.378169238567352295e-01
-5.528224989967492342e-02,-3.756475958095588097e-01,-4.050301039096013134e-02,-5.639242828870157445e-03,8.605689087418826651e-04,-1.401866508944794604e-03,3.281625509262084961e-01
-2.793087026497821646e-02,-3.702836557695757813e-01,-3.797011340601418039e-02,-4.343006828388008421e-04,-2.110700899289866175e-03,-8.169318613932964970e-05,3.374658524990081787e-01
-7.698684947121868516e-02,-4.367486425751105905e-01,-3.079386850416823695e-02,-1.497325839383389576e-02,1.152925256240545406e-02,-1.297113778737213168e-02,3.869844079017639160e-01
-3.902230792490973821e-02,-3.700129672154298666e-01,-6.736285468608536886e-02,1.750728161577653607e-03,-3.518167922812430199e-03,2.700521290873294632e-03,3.178769350051879883e-01
-3.926672040179163270e-02,-2.805997743671811984e-01,-5.011610784072906277e-02,-2.507756896693745866e-02,4.897054344800668563e-03,-1.738655912504782561e-02,2.420878112316131592e-01
-3.686411787404082763e-02,-3.680407355313623508e-01,-4.107362937563481531e-02,2.855980638875823922e-03,7.492310450437124087e-04,-8.479707039911771761e-04,3.291350603103637695e-01
-5.384501483688494683e-02,-6.178888187225650697e-01,-2.934127052910376343e-02,1.550480799506338478e-02,-1.129722540750653301e-02,-3.489048036632053790e-02,5.807952880859375000e-01
-4.598922290762441634e-02,-6.392745609298183807e-01,-3.773691760784583793e-02,3.305136501587544254e-03,-6.945033292719759652e-03,-2.067484421089725230e-02,5.986747145652770996e-01
-5.857293911185015856e-02,-4.246356431293216160e-01,-2.963901667323678990e-02,4.576407428565568147e-02,-9.927111455031945031e-03,6.531434760164095630e-07,3.898838162422180176e-01
-4.322845712150766295e-02,-3.714770744193852670e-01,-5.142153532623480738e-02,-2.459168077273896341e-03,-1.536792375814922951e-03,1.079145499189193558e-03,3.242740035057067871e-01
-5.137260268140325659e-02,-3.994101944936347404e-01,-3.686386345038367152e-02,1.104169045629796453e-01,-1.800379423647937779e-02,5.508263635031585698e-02,4.159815311431884766e-01
-4.419397902726826532e-02,-3.655262549976188713e-01,-4.471977157927055357e-02,-7.145292494042605790e-04,-8.268403254119191092e-04,2.181661745568318775e-04,3.210754990577697754e-01
-4.888642060026024416e-02,-2.725285174032275881e-01,-2.545458866288699551e-02,-9.271984587190443272e-02,-4.447666707175472120e-03,-3.931983042665109646e-02,2.937577068805694580e-01
-3.727637283502929777e-02,-3.699477981406634752e-01,-3.694589153499758249e-02,-9.223963041014027198e-04,-2.727179075819796770e-03,9.233964716268673817e-04,3.328779935836791992e-01
-7.235829352728098685e-02,-3.872605527412480431e-01,-3.667589138715585118e-02,-2.270870582693269857e-03,2.489295630413421211e-04,-6.114334102123699169e-03,3.343665003776550293e-01
-4.630753934449233222e-02,-4.433393100030444400e-01,-2.028696238573959865e-02,1.584718342003430328e-02,1.300712952331492533e-02,-2.402327005925727205e-02,4.142880737781524658e-01
-7.279546790057737915e-02,-4.158296747512973957e-01,-2.339621962226040575e-02,1.407528226559114914e-01,-7.439674126227888672e-03,-1.961217001176833799e-02,4.447610676288604736e-01
-4.936504542984246346e-02,-2.124714919427322379e-01,-4.702523062113060648e-02,-2.156320514943270081e-02,1.258976933206769518e-02,-1.433986569190470045e-02,1.716919988393783569e-01
-6.037924621212503729e-02,-2.773053418834925399e-01,-4.207072421616507574e-02,-1.496595512286109930e-02,6.666305971115936771e-03,-2.474892640927123938e-02,2.323930263519287109e-01
-3.421609299428116091e-02,-3.728481288218397083e-01,-4.350869862719039527e-02,7.923307782975393815e-03,-2.737816998085499894e-04,-6.272622342356038534e-04,3.343665301799774170e-01
-3.399663076772097003e-02,-3.717081033893337993e-01,-3.638688139955760514e-02,7.900508405994467742e-03,9.158571046001740728e-06,-3.830382786907904520e-03,3.368661701679229736e-01
-4.256993074443896075e-02,-3.752383024189084870e-01,-4.312870237966003051e-02,-1.082248777621300532e-03,-1.171691065609125433e-03,-6.048838998191909296e-03,3.325658738613128662e-01
-2.092301694540693591e-02,-3.705992811706558809e-01,-4.816427152056082517e-02,-8.229735165858292553e-03,6.707255302285043859e-03,-1.184705564909170096e-02,3.380076289176940918e-01
-3.006816478083737532e-02,-3.810331092418489662e-01,-7.662136703279846806e-02,-1.510329129424654133e-04,1.245648890477396651e-04,2.708905571593858350e-03,3.301926553249359131e-01
-6.531535889782666415e-02,-1.856707188813923604e-01,-6.980841684811542325e-02,-1.683428192413788035e-02,-2.690509402295741207e-03,-7.665029996566916949e-03,1.225275099277496338e-01
-4.170381817240181865e-02,-3.703103537059994066e-01,-4.706287341487606912e-02,-2.789875446915463224e-03,-1.103014332734225379e-04,-1.813987355034333507e-03,3.260110616683959961e-01
-3.143943013416966581e-02,-3.808319299590792739e-01,-7.165555870279172179e-02,-9.602662707772914152e-04,6.415797877539078722e-04,-3.445983897198881714e-03,3.311810195446014404e-01
-4.354532862182443342e-02,-3.691098298143977718e-01,-4.799181086077604352e-02,1.868404760518486453e-03,-8.950818452341438971e-04,1.679290218853507748e-03,3.233971893787384033e-01
-2.448361322478917468e-02,-6.111925333888104106e-01,-5.246738188235045008e-02,-1.853176812300831935e-02,-3.121508795942885654e-03,4.872541694093023013e-02,5.803224444389343262e-01
-4.120327382191334153e-02,-3.693334778615436909e-01,-3.761247791566248166e-02,-9.204211622812571601e-04,4.369781990857307463e-05,3.758034277694122845e-03,3.300083279609680176e-01
-4.390830518143756800e-02,-3.734523181931663216e-01,-4.459419302083836301e-02,-1.596390938416246885e-03,-1.065984637832562447e-03,-1.367114189562175855e-03,3.292269110679626465e-01
-5.211685379925533323e-02,-3.735178057208693447e-01,-4.913771047832642125e-02,-2.947231503559738638e-04,-8.657510113410848626e-03,6.962200967719193610e-04,3.232514858245849609e-01
-4.528860801752844500e-02,-3.710089377432527202e-01,-4.323878247847229295e-02,6.139202788789450602e-05,6.148004645969228727e-04,2.635611146087501631e-04,3.267521262168884277e-01
-4.435366558179652807e-02,-3.735001370662720532e-01,-3.755271857236187893e-02,-3.026628356904466008e-03,-1.937302173744101692e-03,-7.313044541354284632e-03,3.328984081745147705e-01
-5.084961056086982623e-02,-3.649398205587736088e-01,-4.888732005977122763e-02,4.949576837000025081e-04,-2.966414023505443802e-03,7.097190706497536654e-04,3.151213824748992920e-01
-4.563715299919193780e-02,-5.824445806251632440e-01,-3.978662901925081319e-02,4.395126586800014723e-02,-7.612984358654909314e-03,2.174749486144535865e-02,5.465573072433471680e-01
-3.576809793114382741e-02,-3.745837628663368224e-01,-7.227083518584505317e-02,-1.321302686870873223e-03,2.300702281800477006e-03,-1.895425051450306533e-03,3.221687376499176025e-01
-4.946933060905957247e-02,-3.728347637300090112e-01,-4.325408330344703012e-02,3.702748610479734970e-03,-2.961714247657141162e-03,4.802062039796320923e-03,3.267265856266021729e-01
-4.304845867558472483e-02,-3.717735516158999776e-01,-4.023574776088748028e-02,-4.046692670323281862e-04,5.045635921661866105e-04,3.059605108231470191e-03,3.301848769187927246e-01
-3.600513837205038259e-02,-3.745072765453369978e-01,-4.065357217263483591e-02,2.971932842156628767e-03,5.133481042130059058e-04,1.882113631034516453e-03,3.362584114074707031e-01
-4.703662501042676913e-02,-3.883718413160494043e-01,-6.674568705742690844e-02,-7.170277045690957862e-02,-8.186629146215675806e-03,-8.841873748703056590e-02,3.863280117511749268e-01
-5.784090211867277953e-02,-3.768981491524284744e-01,-3.724717142201974807e-02,-2.271727612410366203e-03,-1.302735147293969734e-03,3.499603599392599792e-03,3.299235105514526367e-01
-2.727541391783480651e-02,-6.243311990771056585e-01,-5.456730869850032195e-02,-3.047495465652632837e-02,1.131387031399433939e-02,-2.321463265458349745e-02,5.879732966423034668e-01
-3.470414004920449602e-02,-3.798166375147049578e-01,-3.166920231263201102e-02,2.938174107059637625e-03,7.943683022407719771e-03,-2.458830026241096058e-03,3.469763398170471191e-01
-4.667479113341194141e-02,-3.676818181508365591e-01,-5.317940781025677632e-02,2.025669561821337190e-03,-7.143705719219112845e-04,-5.885232841909333488e-04,3.178280591964721680e-01
-6.512442863254049030e-02,-3.734659297917256593e-01,-4.005085586446187340e-02,-1.741591860192684242e-03,4.857156357526429963e-03,-5.356732931181036475e-04,3.217376768589019775e-01
-5.040202558582496106e-02,-3.439173504630135825e-01,-2.003992958240613520e-02,1.588079442954170358e-03,-3.011776645298015406e-03,-1.357543257778561462e-02,3.107611536979675293e-01
-6.689851665744182829e-02,-3.805381274911979750e-01,-3.722655273830494105e-02,5.391838718598002643e-03,2.371162611171471080e-03,-3.521224855114531149e-03,3.296935260295867920e-01
-6.435433549914239271e-02,-1.500152769074179770e-01,-5.325795780425068154e-02,-1.435126898925055509e-02,-4.852632523399452204e-03,-3.547372771416223980e-02,1.134686246514320374e-01
-4.321600057875946144e-02,-3.716679380297840951e-01,-3.258364944090205717e-02,-3.879578983057990760e-03,-1.240787418450009592e-03,-5.147877618611480105e-03,3.340886235237121582e-01
-5.062557002808186490e-02,-3.475505715219404101e-01,-1.847011441762527739e-02,1.117816880377612600e-03,-6.152986474815637374e-03,-8.962064846414910871e-04,3.144295215606689453e-01
-3.996201176728760018e-02,-3.582739823775358823e-01,-3.925853595148982855e-02,-1.478791806838252593e-03,7.634910821929672070e-04,-1.331305641499184837e-02,3.195104897022247314e-01
-4.863626495549031037e-02,-3.503297731401224802e-01,-1.275191919360073312e-02,-6.077368070539054725e-04,-1.300216096500504941e-03,-7.859792779507379645e-03,3.214408755302429199e-01
-5.955120102858974668e-02,-2.540244070909776219e-01,-4.388585213146452280e-02,1.123145922108618935e-03,-9.082123289952941103e-03,-2.665750961903768854e-02,2.085541337728500366e-01
-4.140947891140607517e-02,-3.724353655417539932e-01,-4.321729536023327656e-02,3.630340329636735138e-03,-4.315287610317919664e-05,-1.199373870150633511e-03,3.301921188831329346e-01
-4.067045695881872647e-02,-3.558615895307600252e-01,-1.931362467300822006e-02,6.791747147955720697e-04,5.811971655323843779e-03,2.674969347040003637e-03,3.265841901302337646e-01
-6.147726812255441958e-02,-2.352960651354711052e-01,-5.511066735288253776e-02,-1.088599004689357183e-03,-2.339318932760195858e-03,-1.619298322263077036e-03,1.771665364503860474e-01
-3.296550570314214779e-02,-3.647112077003715758e-01,-2.575869112933026894e-02,1.107372609864951856e-03,4.814879570859869132e-03,5.260296026264020281e-04,3.355175554752349854e-01
-4.443635538961344944e-02,-3.712542990302196144e-01,-3.230368128845648168e-02,-2.380026401275679021e-02,3.341721540118031217e-03,-1.915689947245989566e-02,3.372775912284851074e-01
-5.972612154151554775e-02,-4.301245746702986872e-01,-3.344737924802720919e-02,-8.466830635273868422e-02,-8.371044513507300278e-03,-3.747450927075150762e-02,4.165916442871093750e-01
-3.688336349197865460e-02,-3.578429258613264885e-01,-1.928635862252413291e-02,1.693193017005442582e-03,1.971899433126308304e-03,1.259139417187448698e-03,3.301479220390319824e-01
-3.370573734692354495e-02,-3.633844256419294094e-01,-2.214362915589696001e-02,9.073780430450647172e-04,2.560106140966027840e-03,7.223684524232256527e-04,3.356444537639617920e-01
-4.200360674990244458e-02,-3.738238357866662809e-01,-4.351894108575897480e-02,-4.378620209456100636e-03,2.017327918054965890e-04,-2.087361965164615148e-03,3.311719298362731934e-01
-4.040748948600203505e-02,-3.645318781976646383e-01,-3.328022608862807319e-02,-7.258478816678049471e-03,1.052064528276572437e-02,-1.574650332244716816e-02,3.296232819557189941e-01
-3.674286150896169389e-02,-3.589979392583290685e-01,-1.674131435945201696e-02,-4.485041256444807821e-04,1.655847224567910713e-03,-1.168568114876857196e-03,3.327265083789825439e-01
-4.935421411572320227e-02,-3.655569012080781555e-01,-4.893911667457327697e-02,-2.163254530154246384e-04,-2.363817334669979925e-03,2.019821426919598834e-04,3.164373338222503662e-01
-3.038370369255585790e-02,-3.570623785059683364e-01,-4.094534945470555687e-02,9.184714982220516799e-03,-1.034557622586991001e-02,-1.009160717898461082e-02,3.228930532932281494e-01
-4.075189286093737484e-02,-3.704610913164625430e-01,-4.324222971514757319e-02,-2.516552448259577919e-03,-6.345110635234212071e-05,-2.844711858508976350e-03,3.285369873046875000e-01
-5.174904362803896263e-02,-2.171668124994772520e-01,-4.979890090762495447e-02,-1.215190487116093662e-03,6.410868024597353790e-03,-3.076608612085799874e-02,1.750908792018890381e-01
-4.490543378492792281e-02,-3.935970614158600944e-01,-3.100255087606101911e-02,-2.350507121567801255e-02,1.211127381964590376e-02,-6.139868373682541569e-02,3.742109835147857666e-01
-5.368828919635397490e-02,-3.386867192347513544e-01,-1.237458696142908210e-02,2.492074281983397508e-03,1.811545971183713003e-03,5.320613127421091335e-04,3.077898621559143066e-01
-5.776034347170494465e-02,-3.406723524790128410e-01,-1.749064248536182087e-02,1.705147155066757264e-02,7.963650134443740064e-03,3.550345254707919923e-02,3.128859698772430420e-01
-3.498614836233480963e-02,-3.639700174361982787e-01,-2.793349410099114916e-02,2.131713164268347221e-04,4.784506070005637574e-03,2.398360091663831028e-03,3.326956629753112793e-01
-4.429441596409133819e-02,-3.712710540034342976e-01,-3.320929970878347404e-02,-3.640892061027486189e-03,1.425259862047899761e-03,1.182315010763332862e-02,3.333562612533569336e-01
-1.943612621343324132e-02,-3.637147677109963118e-01,-4.251181612352152028e-02,-3.658510681437705515e-05,-2.586580759479123037e-03,6.761842486557367643e-04,3.333725333213806152e-01
-5.070148519385526964e-02,-2.567331515459201352e-01,-4.912192323172293040e-02,-2.154611345511074898e-03,-1.140306286133172496e-02,8.035894141223198306e-04,2.078050374984741211e-01
-2.493463690766686836e-02,-3.901293466010692379e-01,-8.323210274491418814e-02,-7.532064080442464095e-03,5.056851836846348522e-03,-3.111190994674730825e-03,3.402231633663177490e-01
-6.626384087336201212e-02,-4.314648594618335498e-01,-3.071612027763043207e-02,3.702338396416487206e-03,1.169206505823603033e-02,-1.878225608173487299e-02,3.861697018146514893e-01
-3.394795760808992646e-02,-3.741039235315756772e-01,-4.140245343251940102e-02,-9.055360771377267762e-03,-6.522607138550681489e-05,3.412270510777835192e-03,3.369078636169433594e-01
-3.949576444465953406e-02,-3.536260402941731606e-01,-2.135989641520427695e-02,3.044535682248433652e-04,-7.160599075551543451e-03,-7.312182066618622698e-04,3.238201141357421875e-01
-3.842003809022068173e-02,-3.341816979639679053e-01,-2.831140035904598784e-02,2.234443146962987806e-02,9.771082761696522206e-03,3.276135891849055182e-02,3.091456890106201172e-01
-3.329191500510954305e-02,-2.523230861304304185e-01,-4.385359022290391540e-02,-2.935360962170673743e-02,-1.336451235767116726e-02,4.505016308424980467e-04,2.211203575134277344e-01
-1.785469237345142790e-02,-2.659452252129672623e-01,-5.282550914988691504e-02,6.605955320247903877e-03,-1.023259453400615117e-02,1.089701747649350627e-01,3.002739846706390381e-01
-4.338264115663940934e-02,-3.093908243886993592e-01,-3.061669543040690389e-02,9.992362407417656328e-04,1.204371085690335470e-02,2.178455051860161279e-03,2.734438776969909668e-01
-3.633285236961426856e-02,-3.378008782556261025e-01,-4.655772320234792538e-02,7.899712713601741640e-03,-1.363475421640314303e-03,4.641837555670638715e-02,3.075090944766998291e-01
-5.270334445780676391e-02,-3.672739017767411296e-01,-5.358058861198466971e-02,-6.603242307173551621e-04,7.647941308170875217e-03,-1.044938484860561453e-03,3.144193291664123535e-01
-3.064306241362654837e-02,-3.699922829938527835e-01,-4.150673548519961953e-02,-2.841019921275280205e-03,-1.358937507213391462e-03,-2.840471848800424706e-03,3.341306447982788086e-01
-6.853463609609471152e-02,-1.658457003237231442e-01,-6.858063703992085813e-02,7.521509551690044783e-04,-3.476990300572483684e-03,2.632135472992670061e-03,9.758954495191574097e-02
-3.972734025037720496e-02,-1.402119441093577779e-01,-4.640358742260135283e-02,5.033439921439328280e-02,1.131538299350012735e-03,2.233201343868848956e-02,1.362773627042770386e-01
-2.878090454547788113e-02,-4.418301748065427415e-01,-8.306031216762557734e-02,1.648472385190365846e-02,-6.417174186682968878e-03,1.602734717879498727e-01,4.786829948425292969e-01
-5.094797662195366117e-02,-3.183470119806313114e-01,-2.058864702257839907e-02,-4.609704018816831506e-04,-8.410229893901235987e-03,1.030244539346722270e-02,2.847336232662200928e-01
-3.420659126980234166e-02,-3.641382065012154223e-01,-6.205082756126828469e-02,-8.152587466269278771e-02,2.168915636634349484e-02,1.061692413441447380e-01,3.944741487503051758e-01
-4.514026264129642613e-02,-2.262320156246403480e-01,-4.441030798598043228e-02,-6.357899012680567896e-02,2.219656057595248422e-03,4.202792788452591050e-02,2.244273424148559570e-01
-3.378450140331074047e-02,-3.543761795512238022e-01,-2.924355847551225740e-02,-2.868100747968751335e-03,-5.576982895637535784e-03,4.657185302595768205e-03,3.231694400310516357e-01
-4.671447266705494594e-02,-3.678987815977343701e-01,-5.285286537561800779e-02,-1.936309829347928431e-03,5.525661377541340492e-04,2.402863921099131249e-04,3.181789219379425049e-01
-4.391001748448250530e-02,-3.671765705225241705e-01,-5.041856745418173136e-02,-2.920399349512837247e-04,-8.450370382077477096e-04,1.971656012688406331e-03,3.200838863849639893e-01
-3.945307788806923233e-02,-3.595583538531813561e-01,-2.066103126209084540e-02,-1.636720587874084193e-03,-1.558534610172247889e-03,1.215801902335407860e-03,3.299328982830047607e-01
-1.737168874135111563e-02,-3.551804026554647997e-01,-4.218883674500711889e-02,-7.593395834616045725e-03,-6.149891493105268635e-03,1.333140718769888029e-03,3.265561759471893311e-01
-5.828579659341218133e-02,-2.404875353451074171e-01,-3.176241888194267227e-02,-1.067942440130135728e-01,1.573339755933477954e-02,2.875542015343119165e-02,2.759924530982971191e-01
-5.320420375874088115e-02,-3.662258520656522798e-01,-4.560543943164814540e-02,-4.625959401389600611e-04,1.247209932524499668e-03,-1.797203018295268117e-03,3.169130384922027588e-01
-5.014683622786125783e-02,-3.531913737382985641e-01,-1.142681960905175820e-02,-1.610020826198316993e-03,-1.443797096942869883e-03,1.047121820454313245e-03,3.241703808307647705e-01
-5.238218734335609028e-02,-3.708053081206471591e-01,-3.935173860196332363e-02,3.054273828931131345e-03,-9.730630030571422442e-04,4.138837987465233308e-04,3.251824378967285156e-01
-2.933608191564927858e-02,-3.032921618716345469e-01,-4.671164352548010101e-02,-3.027258361321325322e-02,-7.030663601115894404e-03,1.520174050839700336e-02,2.723684310913085938e-01
-2.108690830087425749e-02,-3.707863390647522239e-01,-4.105657999858225438e-02,-5.056321999887794863e-03,-1.718243810237141209e-03,-2.276205679966742095e-03,3.403030931949615479e-01
-1.431012861484576293e-02,-1.603836090417253279e-01,-3.683388920043501741e-02,-1.088197030391436192e-02,2.187158570105992607e-03,8.140049037747326688e-02,1.969832032918930054e-01
-2.901120116292150997e-02,-2.910128205741528973e-01,-4.892926652677132004e-02,3.153345725654641950e-03,-1.021729313284088642e-02,1.143121273834890508e-03,2.533178627490997314e-01
-2.086174786718759944e-02,-3.698347398225924065e-01,-4.319227018105879778e-02,-1.925352566297729162e-03,4.077460239976670245e-03,-8.930223934867796611e-04,3.384544849395751953e-01
-6.716368283450435683e-02,-1.991330783505730340e-01,-5.032394668356771072e-02,1.278441181022018725e-03,-7.723311985750208088e-03,2.873655144763726313e-02,1.502765715122222900e-01
-5.049898201474115056e-02,-3.494346559070531377e-01,-9.066931451681581322e-03,-7.728278843833828434e-04,-3.923341971279753894e-05,2.642272857109289989e-03,3.216945827007293701e-01
-1.028924400973222492e-02,-1.508465476275011319e-01,-3.829392485493809950e-02,7.267675438868065937e-04,2.149598476992682834e-04,5.614344831441592937e-02,1.614383459091186523e-01
-4.343997152672268713e-02,-3.657715006260806589e-01,-4.381051541709241048e-02,-1.029165284410679540e-03,2.671224010512117256e-04,-6.856042181051292574e-04,3.221538662910461426e-01
-1.931183477785859692e-02,-2.747970921192052218e-01,-5.334279503549495954e-02,4.120728491924881970e-02,1.098668432881896515e-02,5.216275694906907442e-03,2.515437901020050049e-01
-5.852853590223142805e-02,-2.033233752676859019e-01,-5.912930211293997151e-02,5.345782719129622135e-02,-4.648378136815402642e-03,-2.075055712840222569e-02,1.755241155624389648e-01
-6.041286502490288840e-03,-8.506356316333324452e-02,-2.477494034660122219e-03,-1.770821531144240596e-02,-8.530906072458628933e-04,2.011728362346433541e-02,9.325170516967773438e-02
-4.290003885370805015e-02,-3.840744323591746001e-01,-3.511255882576139187e-02,2.551334420183047624e-02,-9.216833416328024803e-03,-3.136804291575508857e-02,3.525294363498687744e-01
-4.177662318101751926e-02,-3.740414652616129709e-01,-5.304268660619278208e-02,-4.583825264223773859e-04,3.929405411457594956e-03,-4.989965414064996552e-03,3.269635736942291260e-01
-5.149435521881610966e-02,-3.662441585929753218e-01,-4.949540905203790586e-02,-3.933358244867778152e-04,3.399634751783708539e-03,8.561278756016442882e-04,3.158131241798400879e-01
-4.383143807389938695e-02,-3.741549991942106357e-01,-5.317984859246299711e-02,-3.098267644379590954e-03,2.180671531566548069e-03,3.254645830611350120e-03,3.258648216724395752e-01
-1.751588850293275823e-02,-3.560468127950902062e-01,-4.909395380057467173e-02,1.844797794013299571e-03,-2.048817260803239768e-03,-3.843344159371145027e-03,3.240020573139190674e-01
-6.895004416287034421e-02,-1.742524851112013939e-01,-5.644542269459129624e-02,7.749054286204381387e-03,6.251712052109209506e-04,2.032086432361648182e-02,1.182449385523796082e-01
-4.409940655663432962e-02,-1.272988421525008407e-01,-3.346506287937137808e-02,6.284788539658109352e-02,-2.713336638683946228e-03,-2.950903696695218389e-02,1.496797055006027222e-01
-5.660532187127323422e-02,-5.817556626579789558e-01,-4.299252484353627279e-02,9.288724499212905328e-02,1.957009016101556378e-02,-7.268193003091627524e-02,5.709623694419860840e-01
-4.788514131544244906e-02,-1.038181032935386328e-01,-9.741510573909289983e-03,4.673066256938470525e-02,-3.825889169068465677e-03,3.024807514895325525e-02,1.267159581184387207e-01
-4.144418645045966354e-02,-3.694259291295950987e-01,-3.592670232047515122e-02,-1.529258838763441217e-03,7.969734629142525856e-04,5.518730924274512298e-03,3.309265673160552979e-01
-1.171258170559658085e-02,-3.525306742343427557e-01,-4.924235155084509541e-02,8.788719647363043772e-03,5.945860091554127855e-03,4.583971466468746495e-03,3.243076503276824951e-01
-4.361479602454457205e-02,-3.673736593179714460e-01,-2.184776478574264325e-02,-4.279711471043900562e-04,-4.294906339303353887e-03,-1.551410577554201281e-02,3.363314270973205566e-01
-6.742892893410543098e-02,-1.913825839893559255e-01,-7.253470195804448406e-02,2.577737180870830007e-04,-2.946352129321366722e-03,-9.501978626509187745e-03,1.226980164647102356e-01
-4.789909738582358301e-02,-3.688778288397329685e-01,-5.965892414713025449e-02,-1.544247842286282498e-03,4.703200709535856547e-03,3.034022934947202600e-04,3.153803646564483643e-01
-3.434784115582029118e-02,-1.370594406558618139e-01,-1.512467316063709211e-02,5.410672589063322130e-02,-6.663953770151538267e-03,7.307913792451674675e-03,1.482217907905578613e-01
-5.244578863256502826e-02,-1.898456057100499084e-02,-4.476817843977457662e-02,9.036573654142348797e-03,-4.177203635213662912e-03,1.830435458442235611e-02,4.716112092137336731e-02
-5.362681061393458071e-02,-3.774612414719084041e-01,-3.772017226064358630e-02,-2.956913875423048104e-03,6.115637478871584253e-04,-9.469414103262708713e-04,3.321188390254974365e-01
-5.933967559626421306e-02,-3.524763396945297389e-01,-4.209475345739473184e-02,9.122378566828447111e-02,1.995425207022340913e-02,-7.681608545739428140e-02,3.676188290119171143e-01
-4.019103379950740573e-02,-3.732365974164992828e-01,-2.497581321380122621e-02,7.605501560904911465e-04,3.121301809108465060e-03,1.081718361567971919e-03,3.409584760665893555e-01
-8.913218480769563579e-03,-3.524078282935922957e-01,-5.186469392722631300e-02,2.832562445454643498e-03,3.337446644974597103e-05,5.308014884451527212e-04,3.241985440254211426e-01
-2.829874732165707507e-02,-3.750711781281721446e-01,-4.154166710735653079e-02,-4.644548243263672523e-04,-1.377441707975673394e-03,-2.616998797098848018e-03,3.403837680816650391e-01
-2.968404666463181352e-02,-3.915010838438727214e-01,-7.373852249940743286e-02,-4.845532999710804208e-03,3.087270275946329620e-03,-8.797891929046827491e-04,3.420731723308563232e-01
-2.275458922227469039e-02,-3.671693111964380307e-01,-4.024268519451736081e-02,1.329315296110498285e-03,-1.695574479649177620e-03,-3.469956326830682153e-04,3.360334336757659912e-01
-7.444647023383312023e-02,-3.740098230872860308e-01,-3.277518899072101588e-02,3.450242920087795515e-03,-2.089088881599831561e-03,-1.662379876382973423e-03,3.225135505199432373e-01
-4.168235930943890721e-02,-3.676657386047949561e-01,-2.721894239300295948e-02,-3.437390541756312899e-04,6.044800903122470384e-03,-1.984086031148990861e-03,3.336329758167266846e-01
-2.350990620530564457e-02,-3.627737271605242508e-01,-3.818698265946923742e-02,-2.249375880267569846e-03,-6.765529682785285069e-03,-4.521603886243351670e-05,3.323980271816253662e-01
-3.171832519796431715e-02,-3.693551305102207305e-01,-2.766513508552427558e-02,7.120626283165682488e-05,-1.817740638093168779e-03,1.050388797970385190e-04,3.396961987018585205e-01
-3.943392015577469600e-02,-3.727839694899398038e-01,-2.885871892369062941e-02,1.735275926485320853e-03,8.748039885795526978e-04,4.763215038870096275e-04,3.387792110443115234e-01
-3.251685642959148415e-02,-3.856213797341290217e-01,-7.256933132644870221e-02,-3.944221357107927789e-03,-1.337066046179581028e-03,-2.693386428790369835e-03,3.349896967411041260e-01
-4.671840007460345556e-02,-3.660157594078797816e-01,-5.021968634722477620e-02,-6.783090218557523291e-04,-3.397225098856792355e-04,-4.443913732668490512e-04,3.175648450851440430e-01
-3.165768238934785206e-02,-3.760114583005157440e-01,-5.608709507248352266e-02,-9.304570886592986381e-04,1.594741626471648209e-03,8.006860672456737188e-03,3.331163823604583740e-01
-3.118076903765341912e-02,-3.726668521615678631e-01,-3.587727396115562850e-02,-2.711122370656307134e-03,8.385105438451407461e-03,1.401205893047121698e-03,3.395141959190368652e-01
-4.355793910133895497e-02,-5.185553735991332847e-01,-5.663495702361268092e-02,7.777051587986731629e-02,-1.276135306073120784e-02,1.072750376262718436e-01,5.222443342208862305e-01
-3.226296254079531745e-02,-3.667791664212841640e-01,-2.679950194283998999e-02,7.483897730210549838e-05,9.757362136781438065e-04,6.671488143592410689e-04,3.372873663902282715e-01
-6.713279353081438861e-02,-4.338926938624902419e-01,-2.894436397543961870e-02,1.607608660294006925e-02,-3.608130476279591478e-03,-1.318966888665286299e-03,3.883256018161773682e-01
-3.481662671707055901e-02,-4.261873950089509755e-01,-4.853959202089976055e-02,-3.070700024225968272e-02,1.301874380404382733e-02,1.692193775560404262e-02,3.901088535785675049e-01
-4.169109637518624012e-02,-3.643322240853359983e-01,-2.957310739158215684e-02,-4.870187448018580239e-04,5.301265226059605380e-03,-2.773942853847399196e-03,3.290319442749023438e-01
-3.641936710573573377e-02,-3.858922095748055225e-01,-6.668770025434433979e-02,-7.841841831128011251e-04,4.140350276220203067e-03,-2.522681599069247151e-04,3.354443907737731934e-01
-4.982637735281522651e-02,-2.688116901766234856e-01,-4.027324476743425474e-02,-7.918784327821064284e-02,-5.876852057539561774e-03,-1.577697150220689487e-02,2.641974985599517822e-01
-5.817855934300017462e-02,-4.867125536983769596e-01,-3.960533284106371177e-02,-7.478270662006386571e-02,-7.344838691940602272e-03,-6.552848277703803015e-02,4.709211885929107666e-01
-3.838209790332391957e-02,-3.736778420998265737e-01,-3.061839028624435688e-02,1.216013276205601739e-03,1.535601315775216675e-03,1.531488804718246586e-03,3.392715752124786377e-01
-1.834982678322261140e-02,-3.611971741066573038e-01,-4.316513411171624126e-02,-5.530490059986113184e-03,-5.209756282210394225e-03,1.345809203522664056e-04,3.313992619514465332e-01
-4.469227548254782467e-02,-4.119586815905680321e-01,-4.283245979521616009e-02,3.926112630048275709e-02,-1.082356800865213499e-02,5.005484489893235328e-02,3.847900032997131348e-01
-6.793061759756552354e-02,-3.758678093974928136e-01,-3.751482680842599393e-02,-1.683192554870432825e-03,-7.139135898872371946e-03,2.979321372377802691e-03,3.245067298412322998e-01
-4.883463987684409646e-02,-4.293095556498288667e-01,-4.243188685547114036e-02,-1.132708832690166971e-02,-4.768943202280322147e-03,-1.763454657276445486e-02,3.855182528495788574e-01
-4.444291379365279682e-02,-3.573526533944618722e-01,-2.950107307355023800e-02,2.830668214721030179e-03,2.157754452672429931e-03,3.559003459221813607e-03,3.207603693008422852e-01
-4.446078158341565389e-02,-6.343544966565435317e-01,-4.141470598380797563e-02,-2.319022100248146340e-02,-1.243308163295970062e-02,-3.863002661531921705e-02,5.969377756118774414e-01
-5.170012884799461694e-02,-3.668166077429894090e-01,-4.653131288963988088e-02,1.128503554146855024e-03,-8.625904340407468049e-04,1.472141410441550049e-03,3.177521824836730957e-01
-6.053686803216559026e-02,-2.418035382659656785e-01,-3.158805631567797312e-02,-1.262467552929286418e-01,4.488106193269179693e-03,4.295532195436106010e-03,2.947432994842529297e-01
-5.265759232809386070e-02,-3.552523109406336421e-01,-4.071924305105510677e-02,-1.228786573269201599e-01,2.368880685820124246e-02,6.105406675408706768e-02,3.917682170867919922e-01
-4.925574824287949627e-02,-3.493425532264465838e-01,-1.228216879536526973e-02,2.408645752724893757e-03,3.216975805050871409e-03,1.584403078109736587e-02,3.214280307292938232e-01
-4.233919249741728563e-02,-3.704538173799168943e-01,-4.126107182969129816e-02,-1.916539577482588748e-03,-4.571185868616994483e-03,6.644221564755117089e-04,3.287691473960876465e-01
-5.074171273019160988e-02,-3.347710036845321646e-01,-1.537530303463670311e-02,-1.770370712064434819e-03,-4.272430304877589125e-03,9.758664545751854743e-04,3.033736050128936768e-01
-4.166351307263559123e-02,-3.652024580097212314e-01,-3.044646090278850525e-02,1.548779502785252362e-03,1.531308182166034966e-03,1.410597698219463075e-04,3.293124735355377197e-01
-5.097821037914718190e-02,-5.203250274912663009e-01,-2.918565274581697011e-02,-8.768721950265351284e-02,-5.568494510536770199e-03,-2.088798457985639387e-02,5.054292082786560059e-01
-2.827188506211592012e-02,-3.266784227534738072e-01,-3.898070951640585091e-02,-5.896797141123700028e-03,-1.213910349207528855e-02,7.942485873490449239e-03,2.944506704807281494e-01
-3.075080916451335133e-02,-3.743332928804924409e-01,-3.637875201901949462e-02,1.164379263596266234e-03,1.864147963392312349e-03,1.718575995559976219e-03,3.408376276493072510e-01
-5.059240307555790128e-02,-2.133357015374470755e-01,-6.115583560473132618e-02,-2.690461945673427654e-02,-3.678342592448377926e-03,1.285056937256467968e-02,1.660885810852050781e-01
-3.548952578918439238e-02,-3.643545520405204741e-01,-5.378741192285790840e-02,-2.618236119637970538e-02,1.132030704520005197e-02,-2.436962693058652984e-02,3.266375958919525146e-01
-4.967343907180696294e-02,-5.761487353268656547e-02,-5.792496016930961250e-02,-2.920432125794751241e-02,-5.288703730168069737e-03,-3.198147418231230606e-03,5.233447998762130737e-02
-4.132374209470759951e-02,-3.735049223789639328e-01,-4.026915773293757161e-02,2.525751154365516154e-03,-1.101106004221188853e-03,1.628083964449228383e-03,3.327558934688568115e-01
-4.634367841819661549e-02,-4.018816065250557790e-01,-4.274089513200625412e-02,-1.681269417844666672e-02,-5.520024191198895369e-03,-4.147900910913321706e-03,3.587368726730346680e-01
-3.693425982731421420e-02,-3.768281400109423362e-01,-6.235940162383991903e-02,-1.134969370984375376e-03,3.078287385335789724e-04,-5.212687580870802549e-03,3.280519843101501465e-01
-4.018122360019095451e-02,-3.621347474197159633e-01,-2.366673701814024644e-02,-6.088896654976205976e-03,-3.495193538568338101e-03,2.370049609563113901e-03,3.307694494724273682e-01
-4.695838069360945555e-02,-3.695254777902231558e-01,-2.058537001328517024e-02,-7.561082856607285975e-04,-6.085156094115638933e-05,-3.946203730105734241e-03,3.366015255451202393e-01
-4.193519866599507151e-02,-3.417521161227846660e-01,-2.030805718392258985e-02,-2.710248250500485977e-03,-6.756995331954763172e-03,1.041503015288344422e-02,3.119719922542572021e-01
-5.850764732493306253e-02,-3.181575953734274154e-01,-1.831441192918541183e-02,4.420131220971073790e-03,5.710295858971417213e-03,1.771187606408675119e-02,2.838438451290130615e-01
-3.260619143896947847e-02,-4.292183381857574420e-01,-7.077439310695599062e-02,-4.745621864357658232e-02,-6.077155613726129696e-03,-9.730119730372040199e-02,4.229535162448883057e-01
-3.885629418853783767e-02,-3.504008721228292211e-01,-2.662420002279604347e-02,2.102680703754598868e-03,9.718793550228867553e-03,4.750515071352367884e-03,3.184098303318023682e-01
-4.459736691003639286e-02,-3.832535092730168236e-01,-4.907332021159387103e-02,2.302443975726997313e-02,-1.968109650268323740e-02,-1.164880794583405925e-02,3.411036431789398193e-01
-3.826172863615429076e-02,-3.865079755276067397e-01,-4.522727263733754277e-02,-9.918303298856690972e-04,-2.337340235997477887e-04,-3.147079297792336472e-03,3.448638319969177246e-01
-5.912434454920586363e-02,-2.332231664062391630e-01,-5.479181914144622134e-02,7.575922432633523532e-04,-8.866223935879248563e-03,-2.040010788607569091e-03,1.770126968622207642e-01
-3.704865591663254742e-02,-2.953486779612038982e-01,-3.368626106926547736e-02,3.315484546511870967e-02,1.480106007762550455e-02,4.382281544087014008e-02,2.780556976795196533e-01
-4.723811429800545136e-02,-3.652191262066116773e-01,-2.421203448731873431e-02,2.983774200476056997e-04,9.793949032408615432e-03,7.755867592857368072e-04,3.305356502532958984e-01
-3.515649734569137319e-02,-4.302410799614883596e-01,-5.684355265573362570e-02,6.770216035895376683e-02,2.461337910731883558e-02,-1.089160467272317495e-01,4.462625384330749512e-01
-5.283098212966612361e-02,-3.224719713493550133e-01,-2.152205785119890025e-02,8.835783549531241740e-04,8.330174418262325034e-03,1.111668318339325938e-02,2.875933647155761719e-01
-4.079596934159721022e-02,-3.588573553140709249e-01,-2.144384877345498208e-02,3.551298175044727344e-04,2.960642844759259380e-03,1.430671536194828668e-03,3.282156586647033691e-01
-6.077751253613425386e-02,-3.752055100921455333e-01,-4.942230656381327303e-02,3.160323239098794621e-03,1.666389936016804407e-02,9.403234505714205219e-04,3.216052949428558350e-01
-2.749549986148572267e-02,-5.365735160964062445e-01,-5.886237040952282951e-02,-3.233513852611004380e-02,8.353966351760236386e-03,-7.741083231811692056e-02,5.152664184570312500e-01
-4.766140063859615472e-02,-3.306120580470079950e-01,-1.648976755660745697e-02,9.226834738913508235e-03,5.325265426555147140e-03,1.346853840365963562e-02,3.012265861034393311e-01
-4.201251867774548343e-02,-3.711199548875291354e-01,-3.901469702122221939e-02,-3.083901075961630218e-03,2.080016433958085302e-04,8.105317809920718070e-03,3.309577703475952148e-01
-2.587204948977103736e-02,-3.036680065278029028e-01,-6.093114113736239346e-02,2.198986481639679524e-03,8.695578072255190361e-03,9.923757266234861912e-04,2.624971568584442139e-01
-3.491451368935620525e-02,-3.848820479685464147e-01,-5.249950115056604971e-02,-8.058226436888725865e-04,-1.893611477472379465e-03,1.446224749065433673e-03,3.415425419807434082e-01
-2.856350904465539131e-02,-3.648962884122217143e-01,-2.552557683333343819e-02,1.031396098328234623e-03,4.079889090594420592e-03,9.496675059253826016e-04,3.379445970058441162e-01
-3.579162797825009845e-02,-3.577671312222748812e-01,-2.180453124977832502e-02,7.415791873084657442e-04,5.316252497454740204e-03,-2.495794394131902317e-04,3.293235301971435547e-01
-4.769877083608785318e-02,-3.963756493932761860e-01,-5.623683994674046061e-02,-6.257921050697069429e-03,9.262984671530758232e-03,1.300137051998235399e-03,3.450382649898529053e-01
-3.809234502695493796e-02,-3.850141061072101523e-01,-5.558884503743062588e-02,-5.474062593464961227e-03,8.142772588025159325e-03,-7.038214521487794022e-03,3.391582667827606201e-01
-4.829702603679941753e-02,-3.331823247458997050e-01,-3.262581287797140794e-02,5.646677525261473325e-03,4.370296037283727397e-03,2.576193409708342485e-02,2.966710329055786133e-01
-3.628447225564931933e-02,-3.814140275639322786e-01,-5.565986925354281245e-02,-5.260579153217544157e-03,8.278888186025834366e-04,-1.617626950338698624e-03,3.359995782375335693e-01
-3.885244275734998920e-02,-3.517377944146831137e-01,-1.533463572421854548e-02,1.939340134938287658e-03,6.553012055453654242e-03,2.824606410506748291e-03,3.255345523357391357e-01
-6.015675412879012418e-02,-3.733174682723059412e-01,-5.777829303110332271e-02,1.003604733344262423e-01,1.300041837144587029e-02,-1.025703633940698994e-01,4.013799726963043213e-01
-2.530444503738527029e-02,-3.780793444752714727e-01,-4.862046063209823910e-02,-6.615519224722554194e-03,7.943837446966174609e-03,6.085930996639276475e-02,3.580511510372161865e-01
-3.804171797033606417e-02,-5.859531521757399553e-01,-5.359820585694552442e-02,-1.496138775731476085e-02,1.271992381562883287e-02,1.911145321024985272e-02,5.423818230628967285e-01
-5.421892567562108800e-02,-3.504587209157680183e-01,-2.280809138787597001e-02,1.526438511175391005e-02,-8.555707020222168627e-03,-1.117425929946366976e-02,3.151872456073760986e-01
-6.407322892265557290e-02,-4.501845634145522634e-01,-3.815252066627886074e-02,-1.014000603213851132e-01,1.125339714443442107e-02,2.306631844133303147e-02,4.388440847396850586e-01
-4.798960772571367328e-02,-3.686697820553274108e-01,-4.922709245601557260e-02,1.997473964519388447e-03,4.075784398434992295e-03,-2.692391654001638143e-03,3.201937377452850342e-01
-4.071069831664522742e-02,-3.739577355164199757e-01,-6.306727355092113518e-02,-3.564735284059959448e-03,3.078321567924769894e-03,-1.338562132799127769e-03,3.227616250514984131e-01
-6.399900102328499873e-02,-3.770684630806574456e-01,-3.954982024365386040e-02,-2.411274202709882009e-03,5.903141897170291821e-03,-1.589072941807552269e-03,3.261810839176177979e-01
-1.669271609483663488e-02,-3.636640599367378934e-01,-4.800717882504572376e-02,-4.967206593123214657e-03,3.413195121095388869e-03,-2.727301471286941881e-03,3.326195478439331055e-01
-7.019796280790462084e-02,-4.132697639711612747e-01,-2.716903199236533895e-02,-1.647690704895075908e-02,2.942811168595756317e-03,-1.478339026058142838e-02,3.685211837291717529e-01
-5.091196116291887841e-02,-5.117612127627918506e-01,-3.352253663897519775e-02,-7.377864710887312161e-02,1.661437104638072496e-02,4.423110766338510941e-02,4.936856031417846680e-01
-4.056119238378738667e-02,-3.558440449762274582e-01,-1.497734193825354942e-02,1.317314110925068595e-03,4.879486114751249021e-03,3.212146874619499579e-03,3.289856314659118652e-01
-6.848104189054013413e-02,-3.838474555205844130e-01,-3.728504578664607050e-02,-7.464211070851864416e-03,7.317566327343253373e-03,-2.650192711380659673e-03,3.325901329517364502e-01
-3.593534790127335399e-02,-3.598752207637794243e-01,-4.784049393050576748e-02,-4.163085255404865709e-02,4.252921983804515069e-03,2.394206798950835810e-02,3.289308845996856689e-01
-4.491683684506234120e-02,-3.739191333080771340e-01,-5.974603842761538885e-02,-5.619055251582103427e-04,3.677397085608468449e-03,-7.153855563109876416e-04,3.219108879566192627e-01
-4.266955450967860330e-02,-5.683978742044843990e-01,-4.112926164489102976e-02,-3.550969240679924255e-02,7.956265757676770842e-03,9.191287034781103586e-04,5.302618741989135742e-01
-4.431535619657692160e-02,-3.467737615377081140e-01,-1.440265096913767584e-02,8.624873310646813092e-04,5.226028180131467651e-03,4.760164253711062464e-03,3.187088668346405029e-01
-2.984887172265821009e-02,-3.450300371318180126e-01,-3.949193161321851164e-02,-5.438810348586217702e-03,1.039761501972343537e-02,-6.974873881167765848e-03,3.113709390163421631e-01
-4.155265660370831282e-02,-3.725573954204860483e-01,-5.545255982037397557e-02,3.108440760202472661e-03,-2.337384466209122599e-03,-9.242897369452140674e-04,3.243522047996520996e-01
-2.603707703392889317e-02,-3.750586022119131169e-01,-3.865068538148512534e-02,-1.114743546181921376e-03,1.641427730728907061e-03,1.296905611822471048e-03,3.429133594036102295e-01
-5.489723453348183818e-02,-1.876832910414906741e-01,-3.380265803061937441e-02,-8.823492377969273381e-02,-1.962845927713209593e-02,-5.247170689333791743e-02,2.316248267889022827e-01
-4.933866384956767798e-02,-2.047918756701175291e-01,-4.639681241088923491e-02,-9.283282766397110697e-02,1.102065912113510925e-02,1.894156994125716781e-02,2.278731912374496460e-01
-5.581572564041521745e-02,-3.593435277072759559e-01,-4.635474740412741379e-02,-7.108568344500472425e-02,-9.270425707817359084e-03,-4.932889289429558122e-02,3.432312309741973877e-01
-6.522836036390780579e-02,-3.785984634423432693e-01,-3.853680119650904068e-02,5.175300653987382343e-03,-2.066493554458794391e-03,3.836058855976689098e-03,3.277421295642852783e-01
-4.546489675696092914e-02,-2.202799875080939940e-01,-4.977234268946092999e-02,-4.405370916969396367e-02,-6.269267837638923743e-03,4.765252670289040621e-02,2.063449770212173462e-01
-2.064920834551538242e-02,-3.481048178017727146e-01,-4.182229792136567259e-02,8.731379029882597531e-04,8.244551121672435284e-03,1.158725374678442992e-03,3.177301585674285889e-01
-2.286069898093912034e-02,-3.642225462945729575e-01,-4.144769241740350885e-02,3.595049340680687554e-03,2.093476032432541392e-03,1.182942871061631006e-03,3.325426578521728516e-01
-3.368817276495124358e-02,-3.388980978986376735e-01,-3.919578923128050341e-02,5.991639514775559195e-04,1.168570943834477613e-02,-6.724607959118928009e-03,3.033955395221710205e-01
-2.017607127405982026e-02,-3.715361820572783969e-01,-4.834890287230490802e-02,1.927887665627483343e-02,-1.744797213105452396e-02,6.331553776939551070e-02,3.583346605300903320e-01
-4.030079672829720017e-02,-3.820540229333648230e-01,-6.717877389542876998e-02,-3.308402650560543588e-03,-1.256534915793162434e-02,-5.477423079018933251e-03,3.300432860851287842e-01
-4.986274454010322654e-02,-4.393944487038907165e-01,-4.409218239138087969e-02,-6.788269054180499050e-03,-1.316968044636783811e-02,-1.065805961840676601e-02,3.937199711799621582e-01
-2.584882035684901713e-02,-3.724977448550086390e-01,-3.871998087654547616e-02,-7.697341045064460315e-04,1.680795706225910336e-03,2.875666539418772157e-04,3.404113352298736572e-01
-3.319015954066312224e-02,-3.755784105293500375e-01,-3.645069840724915466e-02,6.626254590962649300e-04,6.196818341552427821e-04,1.128960728140876403e-03,3.407789170742034912e-01
-4.092750012091833645e-02,-4.563965835669801518e-01,-3.563586255234454936e-02,8.498500077371167610e-03,-8.038389863813572705e-03,2.495522412611523785e-02,4.208561182022094727e-01
-4.905776132726649696e-03,-9.442546602144125112e-02,-2.552454167069879987e-02,1.234724910394121612e-02,1.991345175537943390e-03,-2.628441256370722678e-02,9.557716548442840576e-02
-1.925381971954277793e-02,-1.100392486545333781e-01,-2.256385343686541020e-02,-5.094623606851816922e-02,-1.483357143985210812e-02,-4.725388142986897827e-02,1.519799232482910156e-01
-3.580960578130443217e-02,-4.438497986846964838e-01,-6.561512020224906372e-02,4.041011442113518273e-03,-1.161218257317783720e-02,2.455326736110307120e-02,3.968443274497985840e-01
-6.951800574581570857e-02,-1.761724748343000968e-01,-6.247872668503932220e-02,-2.098340340918118142e-03,-2.697423583247138962e-03,-2.188104045503507932e-04,1.105019375681877136e-01
-6.392149416103413972e-02,-1.592911647444271717e-01,-5.112245077819817934e-02,1.686802770014819361e-02,1.785628598108284512e-03,4.157575433760540146e-02,1.285636723041534424e-01
-2.054629712764797708e-02,-1.029830331818381989e-01,-1.280014714266023562e-02,9.687739105052396368e-03,-4.615748523014480062e-03,2.174683469847120409e-02,9.622178971767425537e-02
-3.832151128899471959e-02,-3.716643752986308336e-01,-2.755690957813682063e-02,1.035315745995720469e-04,5.425447767025558428e-03,-1.169749303783312617e-03,3.389897942543029785e-01
-4.610000893844337644e-02,-4.006231818967270764e-01,-4.623930250854307866e-02,4.895904179647625303e-03,-5.478539399038736234e-03,-5.791656447255222502e-03,3.548237681388854980e-01
-4.845374665967470962e-02,-3.527039801869095159e-01,-1.599449459107431248e-02,-3.113953070491960393e-03,-3.796531413576333678e-04,-1.806250382259274798e-02,3.232735991477966309e-01
-4.771398740987416176e-02,-2.256992911120712653e-01,-5.514369014225549426e-02,-4.549918486248635124e-02,4.895891202072822322e-03,-3.752134682128025617e-02,2.022809535264968872e-01
-6.840849664009457376e-02,-1.893443183579719968e-01,-6.664655782716266685e-02,1.298145211089682307e-03,-2.717237230034059460e-03,3.573357118323138275e-03,1.220949292182922363e-01
-6.273465323211040168e-02,-4.001955756373542505e-01,-4.212927919672873611e-02,5.801279804945286105e-03,-8.446730885773807984e-03,2.546566825097685595e-03,3.487010598182678223e-01
-5.910712084880591355e-02,-3.782795198266697967e-01,-3.588723134566511319e-02,2.129762223388756426e-02,-1.133514855563612367e-02,-1.438486378514186245e-03,3.340265750885009766e-01
-4.724779661924830010e-02,-3.664386376153744851e-01,-3.052588484479276665e-02,-1.008800463433364401e-03,3.695999414439555858e-04,8.737971290417077353e-05,3.278770744800567627e-01
-6.468061346520939670e-02,-3.719237127347397864e-01,-3.808089027281431893e-02,-3.297718609373401070e-04,-2.061377467050030249e-03,4.330592662089608694e-04,3.213908672332763672e-01
-3.491348986562244766e-02,-1.588981093851037640e-01,-2.684152901460768598e-02,-5.690877288133899120e-02,-8.571040874723061601e-03,-3.770909827852967494e-02,1.750436574220657349e-01
-4.687862444903920234e-02,-1.198288314802317400e-01,-5.758882297623807434e-03,5.237127838133934232e-02,-1.004558156467946078e-02,2.690836381647928113e-02,1.439285725355148315e-01
-4.658022864523603257e-02,-1.747258770966227948e-01,-5.035866840985554760e-02,-3.036631300305296655e-02,3.222412851432069399e-03,-2.651437792370766461e-02,1.444227099418640137e-01
-5.464015588491513697e-02,-3.739772841123072400e-01,-4.164409831477035306e-02,9.468217855748520294e-05,-1.539082695551487493e-03,3.211081662096416933e-03,3.260878622531890869e-01
-4.244590280685742179e-02,-3.725581190087408068e-01,-3.315620322665399633e-02,5.730915048519606573e-04,3.918036929441824244e-04,-1.393993020941671629e-03,3.348645865917205811e-01
-7.166919390301740300e-02,-3.895186123051455063e-01,-3.390519340219522171e-02,-4.343432680163083343e-03,-9.295470121610965343e-04,-2.418046886315770860e-03,3.384292721748352051e-01
-5.432215393037527484e-02,-3.782868735305985330e-01,-4.109105429243881114e-02,-6.648586460718994805e-03,7.845492602575918767e-03,-2.890648520869063161e-03,3.312958478927612305e-01
-3.258347448816151237e-02,-3.756969081304292191e-01,-3.781630643745211018e-02,7.080467622987480407e-04,2.810517584456992575e-03,6.383813313449089068e-04,3.405659794807434082e-01
-4.856538565367551907e-02,-4.425385764884082196e-01,-3.587149263935179855e-02,-6.646340187130686528e-03,1.076246552202819728e-02,-1.583551788546164879e-02,4.020066857337951660e-01
-4.432232301316342549e-02,-3.091225746649696182e-01,-3.387005015843927436e-02,-2.561330958098664151e-02,-1.739814480523686063e-02,2.087759691899539888e-02,2.778129279613494873e-01
-4.897439883115652093e-02,-3.667853929043490835e-01,-4.753273047498836335e-02,1.817263816947327338e-04,7.271867831711186685e-04,3.082396226911607068e-04,3.185373544692993164e-01
-3.155678860380428663e-02,-3.668388903146198032e-01,-3.301944971812027785e-02,9.790242071686682847e-04,-3.382786216110470704e-03,-2.906059875510924508e-03,3.346466124057769775e-01
-1.657995079804555627e-02,-3.618043650214586293e-01,-4.741940970101650443e-02,-3.753161167258185142e-04,3.228735867469094108e-04,-1.878449320985492877e-03,3.309014141559600830e-01
-4.935283003626576848e-02,-3.672253446335528304e-01,-4.819649374899057093e-02,5.313576147853747234e-04,-2.196465377523455949e-03,1.832785935541267038e-03,3.184921443462371826e-01
-5.559207817928207840e-02,-3.717242491588080289e-01,-4.018815261844689568e-02,-1.645438102860138311e-03,4.788175674826215290e-04,1.626076286192589546e-03,3.241346180438995361e-01
-4.092031380232566407e-02,-3.445552438150649710e-01,-1.832794364616679994e-02,2.544828295639653664e-03,7.419410324964618997e-03,7.049756598257942222e-03,3.160665929317474365e-01
-3.836698449629075136e-02,-3.682688825652638553e-01,-2.672198002623195345e-02,-4.764863860528211446e-03,-2.504769740563612176e-03,1.551257628376301323e-02,3.370777964591979980e-01
-4.177210461052585644e-02,-3.722306619060126165e-01,-5.637119253005611064e-02,7.198095790179466187e-04,-9.076073396005544802e-03,-5.510406577495060481e-04,3.237918913364410400e-01
-4.449581820574362301e-02,-3.580909447182667460e-01,-1.315095459664827882e-02,-7.939156111653504965e-04,1.956743496435259157e-03,2.325300306601903785e-03,3.304294049739837646e-01
-6.312839357086874603e-02,-3.724868830762408933e-01,-4.164187784789888380e-02,-2.010958267719533473e-04,-5.585807205520702812e-03,1.823546448910534287e-03,3.208038210868835449e-01
-2.785787993898636294e-02,-3.746990182483784237e-01,-3.696422009554137245e-02,-1.201625654925473448e-03,4.775990580200515159e-03,1.297285062438663849e-03,3.424924314022064209e-01
-4.963114664377341057e-02,-5.053766529592453871e-01,-5.116680750700317026e-02,-7.196803978795640599e-02,-2.176559259644171226e-02,-1.008118587096730190e-01,5.044353008270263672e-01
-3.600688962519510428e-02,-3.709728942042263000e-01,-4.150698620620614510e-02,1.929978354470294859e-03,5.939288395817131491e-04,2.893588470779093116e-03,3.323062956333160400e-01
-6.074229981766722519e-02,-3.730332440223271262e-01,-3.802770286826426260e-02,-2.345650571738121248e-02,5.072932894606353889e-03,3.664120529978722243e-03,3.269606232643127441e-01
-2.302755480963772361e-02,-3.599391919704910681e-01,-4.325145733353226440e-02,-5.098879733722808810e-03,-3.864817363256469167e-03,-2.758950462904944347e-05,3.274562656879425049e-01
-3.521718271665001676e-02,-2.594220197950172224e-01,-3.570391502335276690e-02,-4.590484521771062004e-02,-3.582304674424666960e-04,4.176647424456809456e-03,2.377675324678421021e-01
-5.142947093208770359e-02,-2.106868280992776343e-01,-5.656233277525566511e-02,-8.880501676239281215e-04,4.232933228642397037e-03,3.512065865336014628e-03,1.570507138967514038e-01
-5.392160689787756089e-02,-3.696666316289070053e-01,-4.517621658743030399e-02,5.082652775163893147e-03,-8.666523351910334835e-03,-2.684770052513199036e-03,3.207135200500488281e-01
-4.458334724823106304e-02,-1.995334059618946720e-01,-5.971679604051390033e-02,2.708543114640916613e-02,6.054786493598398635e-03,5.611893859922627639e-03,1.558811664581298828e-01
-4.986878428020863341e-02,-2.064094271315163043e-01,-6.667643616315580002e-02,2.279436842887999290e-02,-3.077784100595781780e-03,4.624848308818694229e-04,1.540915220975875854e-01
-2.581447126855498930e-02,-3.335823890998439456e-01,-4.574871256962317889e-02,3.111289544258921680e-02,-1.033445944150359133e-02,-2.022950032854066091e-02,3.056721687316894531e-01
-7.939867130263195127e-02,-3.773253328500756343e-01,-2.961100146655271104e-02,-7.150563707035599093e-04,-8.243230611770422343e-04,-1.564370089673940839e-03,3.257040083408355713e-01
-5.093525119186920191e-02,-3.672056862765923357e-01,-4.899773529130396765e-02,1.406355460448603482e-03,-1.062975406268608022e-03,9.298403892535792676e-04,3.172624111175537109e-01
-2.572088817926705684e-02,-2.879128645995965297e-01,-6.663636761337307646e-02,2.894994132116724198e-02,3.443539018600066601e-03,1.256653880825799388e-02,2.504288852214813232e-01
-4.750183259322882101e-02,-3.704452803552141793e-01,-2.142019372688661050e-02,-2.949185004534071036e-03,5.509360333790770886e-04,-1.385177967724146933e-02,3.376362621784210205e-01
-3.529443075072721814e-02,-3.812674781349233433e-01,-6.661658530400882405e-02,-5.590197058987381694e-03,1.710449532395781277e-03,6.625888766849010424e-03,3.317770957946777344e-01
-4.405300775161011262e-02,-3.697656178930325277e-01,-3.353258411506232495e-02,-1.152661688242984659e-03,-2.135018804655563346e-03,-1.203191819522697083e-02,3.317800164222717285e-01
-2.236740782960822127e-02,-3.742503936270802356e-01,-5.351612881210671135e-02,-8.126989775863268858e-03,-6.472436971094812017e-03,5.667290739398688632e-02,3.518386781215667725e-01
-4.760468198811060314e-02,-3.662831957555841011e-01,-4.532492493460459071e-02,4.138446665043696163e-04,-9.077109438952555166e-04,3.934911488059027575e-05,3.198291659355163574e-01
-2.687824403696670306e-02,-3.735600952519556595e-01,-3.586747222009843694e-02,-1.598553029995047415e-03,5.456202310304089122e-03,-6.850515803490236097e-04,3.424194753170013428e-01
-4.056181289465000950e-02,-3.706786283698828566e-01,-3.257081747611524636e-02,-2.509432628562354318e-03,-1.121158633541452293e-03,-3.453678025108453467e-03,3.342714011669158936e-01
-4.112892955311464593e-02,-3.320999920660880345e-01,-2.698551079527430896e-02,6.203223251463780251e-03,-1.279571699945440851e-02,-6.982330797414986606e-03,2.995536923408508301e-01
-3.915319471463227230e-02,-3.990181690236010992e-01,-5.558190642903905465e-02,3.508584780696515776e-02,1.146331261787248909e-02,-5.448356960247325437e-02,3.699367940425872803e-01
-6.585983497681967280e-02,-4.158631430938379836e-01,-3.453210878099580161e-02,1.126338038140501790e-01,1.735063715605415779e-02,-6.794312759189759243e-02,4.327350258827209473e-01
-5.458594443478390068e-02,-5.407777132154312216e-01,-5.307327878575865410e-02,-2.943462964367823953e-02,-1.012018836352485650e-02,4.772608561704934534e-03,4.899948537349700928e-01
-6.435359418636082962e-02,-2.425859537349289718e-01,-4.973462974050477103e-02,-2.144707324494309411e-02,-4.005703950127923602e-03,-5.949241699120453447e-02,2.159448415040969849e-01
-6.034960152362744967e-02,-1.364043922527411468e-01,-6.320904054542604567e-02,1.319941478950528886e-02,-5.187126436011711347e-03,-5.340694873170762254e-03,7.914540171623229980e-02
-4.356138756447910931e-02,-5.744765617473496233e-01,-3.838761648667607385e-02,5.660068794304111417e-02,1.951962076925692000e-02,-5.983104234748993361e-02,5.532971620559692383e-01
-3.505524119466874033e-02,-4.215929136408195221e-01,-6.265873514484117390e-02,-5.187878136208208708e-03,1.059894602586982856e-02,-7.680765194488352321e-02,3.970132768154144287e-01
-4.732150454298926501e-02,-3.654467417537991536e-01,-2.212417623664912625e-02,-1.197438447861430772e-03,1.272275302703665747e-03,6.985079632687714660e-03,3.316775560379028320e-01
-1.679176533922037418e-02,-2.429201615277135073e-01,-5.450222637840471812e-02,-1.651830144316856000e-02,1.042149500769371483e-02,9.579728962307082485e-02,2.696376740932464600e-01
-4.061481221805585129e-02,-3.787017689765254103e-01,-6.237441535896633138e-02,4.234548973373773381e-04,2.676778589639013280e-03,-3.509580048761212073e-03,3.278393149375915527e-01
-4.300913136410208781e-02,-5.862093327977878632e-01,-5.259355063021012300e-02,1.785710321833888087e-02,-1.072391456574719841e-02,6.917328804041819601e-02,5.528187155723571777e-01
-1.561764372299871695e-02,-2.887667778484489522e-01,-4.570150947924439544e-02,5.248804418794722482e-02,-8.485222735876423329e-04,8.621934858756230557e-03,2.752966880798339844e-01
-4.684710912168189856e-02,-5.231694120567295658e-02,-5.130926890638864285e-02,4.443998462203836014e-02,-4.202762911463851954e-03,2.177894694673666778e-03,7.757176458835601807e-02
-3.970588919304110509e-02,-3.689712106242752920e-01,-3.954212869883040604e-02,1.021195215398623115e-03,-1.161527095929902782e-03,-7.405830533950010473e-04,3.293606340885162354e-01
-3.248838491984869237e-02,-2.370065536024395236e-01,-5.676436371992439611e-02,3.760445202691858890e-02,5.837535945518017647e-03,1.677316567998876629e-02,2.064961493015289307e-01
-6.222201460285881058e-02,-2.097769154063871544e-01,-6.378306121103312354e-02,-1.982986405153741583e-02,-2.048438380644369838e-04,-4.244082173691421378e-02,1.677140742540359497e-01
-3.077527094233267757e-02,-3.658757360036326567e-01,-3.803631247876490540e-02,-2.483612167190793387e-03,7.710070038469969689e-03,-1.617891174785013710e-03,3.318381607532501221e-01
-4.498346254359583685e-02,-5.841276232143928215e-01,-4.965224274176699426e-02,3.095099904720320996e-02,1.318565395286152436e-02,-8.568188797071231433e-02,5.600006580352783203e-01
-5.244493940154829059e-02,-3.490865710586725790e-01,-8.976087044428399109e-03,-6.071277763490953109e-04,5.998354327345659055e-04,2.174313026345935616e-03,3.206194639205932617e-01
-3.550233188279475205e-02,-9.539830709889485227e-02,-4.515632588718561380e-02,-3.471822912381523907e-02,-2.057515539967226872e-02,8.038375371486317783e-03,9.045670926570892334e-02
-6.793192218433491414e-02,-3.838521044145779548e-01,-3.637957424768606396e-02,-7.488471047300052346e-05,8.982944960587895336e-03,-5.258710532814292460e-03,3.333079516887664795e-01
-1.047244178399704684e-02,-1.046334415286026415e-01,-6.855544981914152292e-03,3.632845136165838845e-02,-4.355421494136338563e-03,3.231565626054871271e-02,1.279415041208267212e-01
-9.788522079644423890e-03,-1.380845404840948532e-01,-3.502449822509212662e-02,2.951369550636172290e-02,-7.998049580923339077e-03,5.132445691532731835e-02,1.567377746105194092e-01
-1.968256390854382365e-02,-2.241443280457487142e-01,-4.141735303840404087e-02,3.025839689321407899e-02,-8.946125349553428821e-03,7.366229111001844354e-02,2.389524877071380615e-01
-2.690837326651956962e-02,-2.730279869538977389e-01,-5.645928707577685390e-02,2.356983793886668899e-02,8.706819447230573078e-03,1.334102357633155283e-03,2.368004173040390015e-01
-7.639414763627538907e-02,-5.012579983347094092e-01,-3.294698309784629964e-02,-1.245800870013942518e-01,6.470224983410038412e-03,-2.458830490119951612e-02,4.993556141853332520e-01
-3.296000360708600807e-02,-3.974102631665848984e-01,-4.944185548072349556e-02,-1.534177265330209650e-02,2.551043970762849680e-03,-7.345756379575433745e-03,3.577378094196319580e-01
-4.217035504474245244e-02,-3.739800154370949703e-01,-2.797225885877002716e-02,4.118113586495548701e-04,6.068656334828326920e-03,1.313512129956525111e-03,3.393029272556304932e-01
-3.829595792212675542e-02,-3.333354845178319592e-01,-4.485349452697917627e-02,-6.599385870856792902e-02,4.761730841866455496e-03,2.475725242489156680e-02,3.164315819740295410e-01
-5.470011550900113345e-02,-2.435288497504970728e-01,-4.539860892228486655e-02,9.638581851339084183e-02,1.989107756745989598e-03,-3.067726149234344113e-02,2.611609399318695068e-01
-3.692992564618505225e-02,-3.728415827712019404e-01,-4.051888437053763337e-02,8.769108969869021317e-03,-1.831061128313845590e-03,-6.411247341603065406e-03,3.346759676933288574e-01
-2.969936763321799622e-02,-3.273221289057134942e-01,-4.382966368530172296e-02,1.052280754620530182e-03,1.236871086931973229e-02,3.573957020302665909e-04,2.916095554828643799e-01
-6.718441382195913802e-02,-3.457533352147142969e-01,-3.535434184992489182e-02,-1.016830105282650332e-01,1.408816083065123764e-02,2.019279016093622134e-02,3.468683362007141113e-01
-5.511434794871256093e-02,-4.121793153348559113e-01,-3.571386939589757392e-02,1.038737311050713999e-02,1.064685477646180965e-03,-1.536995977279671799e-02,3.685577213764190674e-01
-3.138876653322288102e-02,-3.870919179924149911e-01,-4.274052110621329170e-02,1.055662821305959273e-02,-7.221178478508479340e-03,-9.308266081369111905e-03,3.512355685234069824e-01
-2.385556458742867092e-02,-3.769806488277541723e-01,-4.246544828647767778e-02,1.823637588746082269e-02,-4.284379994651693960e-03,-4.231231102414586588e-03,3.458012640476226807e-01
-4.503963376733347013e-02,-3.664867845404334301e-01,-4.742774732962798390e-02,1.835191959389609979e-03,-3.159512369492853043e-04,3.733040434230261093e-04,3.202766776084899902e-01
-3.466398425262895433e-02,-6.480950676925900655e-01,-5.994806624431248121e-02,-1.179057419616287399e-02,-1.152236754250387379e-02,-3.136218659139522122e-03,6.018902063369750977e-01
-4.090940117138827659e-02,-6.077598980351321956e-01,-5.134012492177797427e-02,-3.359334371455190149e-02,-1.834693299592240687e-02,-2.323557984951608174e-02,5.670367479324340820e-01
-3.762144841697680209e-02,-3.681485002708586585e-01,-3.967287723554137335e-02,1.231171876724373960e-03,-5.122309622829049639e-04,-3.760785761489953121e-03,3.295786082744598389e-01
-4.431007242332107854e-02,-3.646659015341888743e-01,-1.459368690281939718e-02,-1.279660700976822550e-03,3.839730150324424315e-03,-6.070749927460239968e-03,3.364378809928894043e-01
-4.180144109180475298e-02,-3.725257446059528910e-01,-3.658879734337713852e-02,1.007371079198307378e-03,2.058857605216192141e-03,1.649451792034996528e-03,3.333970606327056885e-01
-4.827690266187312229e-02,-3.608967807812721862e-01,-1.556186607840276404e-02,4.782933009855842984e-04,9.678851964535811932e-04,-6.104014528654554215e-04,3.302021324634552002e-01
-4.640161191812193497e-02,-3.843312933466891401e-01,-3.550003999542122868e-02,-3.933001462446087705e-03,7.947215155350177479e-04,-3.053197185148039811e-03,3.436212241649627686e-01
-3.884590100050124006e-02,-3.770933552066224048e-01,-4.921994115287235683e-02,2.125511143648127748e-03,1.438278921593324090e-03,-9.941292180974174025e-03,3.336558341979980469e-01
-4.670361331439697172e-02,-3.691658360871060141e-01,-2.018353438299202995e-02,-2.508468021018677493e-03,5.855662672089144080e-03,-1.990549802012603776e-03,3.367054462432861328e-01
-5.926153483537659195e-02,-2.981865653361518431e-01,-3.094397108767885096e-02,4.346501909604277326e-03,-6.075544494687820218e-04,-9.791881755537464298e-04,2.543884515762329102e-01
-4.080111888966204969e-02,-3.743783386139702962e-01,-3.894640858373041303e-02,-1.904614817505128049e-03,1.721351417720854522e-03,-6.811850235179466549e-03,3.347459733486175537e-01
-6.220683870395093962e-02,-1.579489667317828805e-01,-5.915341902315631589e-02,-5.365166555121587272e-02,-9.057092544469744558e-03,4.728306266468694161e-03,1.357088238000869751e-01
-5.788048369748721722e-02,-2.790269912997089818e-01,-3.302805224432217579e-02,-1.951474852399309040e-02,1.425950935966044299e-03,-1.766959135661404570e-02,2.389658391475677490e-01
-4.420331620877883394e-02,-3.687395026163730050e-01,-5.319110654242285852e-02,1.492551893159021082e-03,6.813782989159587571e-03,-2.510788327673919157e-03,3.203943371772766113e-01
-4.603296426210073955e-02,-3.692276372872306256e-01,-4.550862467782749998e-02,1.211002538842682798e-03,6.428660321658163912e-05,1.743195105609915679e-03,3.234780728816986084e-01
-4.000761736844531125e-02,-3.568111970096408125e-01,-2.221918517548003569e-02,6.431814091807786090e-04,-6.969348720696302325e-03,-4.390118966950958684e-03,3.263757824897766113e-01
-1.836657942264702595e-02,-6.389918734785038357e-02,-5.013807490370787018e-02,-1.494539417757881805e-04,-5.059075755566735597e-03,1.744515240299565617e-02,5.124311521649360657e-02
-4.899447116680731573e-02,-3.297693959225810323e-01,-5.869459481674377255e-02,1.686553089245435011e-02,8.014123812108031597e-03,-9.914523097503041837e-02,3.267115652561187744e-01
-1.844692719902130129e-02,-3.599177025649140660e-01,-4.751915075135065836e-02,2.945504344810184142e-04,-4.086196051198909100e-03,-5.291895780083333669e-04,3.279807269573211670e-01
-2.296852849560138132e-02,-5.916481361504846159e-01,-5.813256826631313379e-02,-2.689258303770957620e-02,3.221284969883892856e-03,-5.593053981821254766e-02,5.623356699943542480e-01
-3.618329657516861086e-02,-5.387090880067251231e-01,-5.776081410322211895e-02,-3.500102008977629825e-02,-9.427824506181126107e-03,-8.088176991740042565e-02,5.154822468757629395e-01
-2.404746434457603194e-02,-1.245419749676375254e-01,-1.438475223243031870e-02,2.884528794964834331e-02,9.553112806025731291e-03,-1.912101058359250497e-02,1.225982904434204102e-01
-4.646331847876024324e-02,-8.943129241783023820e-02,-5.470842573545033755e-02,4.564982083258538326e-02,-3.624483547538670612e-03,1.004660867752020167e-02,9.029886871576309204e-02
-4.310582877890416220e-02,-3.100853576964570646e-01,-6.654276017233774765e-02,1.732697854504644183e-03,8.329243348323649284e-04,-1.027852384712689693e-01,3.118904829025268555e-01
-6.328591061035754306e-02,-1.663010587039349952e-01,-5.880699636522637025e-02,-4.141329051103996572e-02,-9.182012221249129941e-03,3.510677346112367481e-02,1.420885026454925537e-01
-6.170472591721630484e-02,-2.852249624470830636e-01,-3.072384483894420593e-02,4.413757855712261390e-03,2.746784192010329889e-03,2.823828535691731006e-02,2.455997616052627563e-01
-7.104347851906490929e-02,-3.553971336067565656e-01,-4.470641135901555485e-02,-1.321777255267184981e-01,1.386899302587684193e-02,2.359095833273383916e-02,3.790767490863800049e-01
-4.923857801930078826e-02,-3.642980875223783555e-01,-1.835845085757634165e-02,-2.871725235771105649e-03,4.399766895947236807e-04,9.295714989779069529e-03,3.320086002349853516e-01
-6.778552743577366535e-02,-2.950161673420245156e-01,-2.307909970577180780e-02,1.297199398455043881e-03,5.913307235255461621e-04,2.150934915619828400e-03,2.526085376739501953e-01
-5.571052267484744025e-02,-1.108571963417279010e-01,-3.192620174646051273e-02,4.969932555934272397e-03,-1.424727903961432729e-02,4.749291761172552695e-02,1.112126931548118591e-01
-5.130977372987629431e-02,-1.001892043665321419e-01,-1.102256887194050239e-02,-3.183941131897174981e-02,2.718164168672396273e-03,8.867812758746448573e-03,9.633689373731613159e-02
-4.785129254347192385e-02,-3.684502552340663817e-01,-4.774314726379828844e-02,1.983576792846443362e-03,1.174606510145856679e-03,-1.210354115224247535e-03,3.206847608089447021e-01
-5.411094815589528872e-02,-5.019377747269282430e-01,-4.854389049230428688e-02,-9.480583492933490619e-02,1.629736616092843440e-02,4.927208288315687579e-02,4.879727363586425781e-01
-6.072271999845585411e-02,-4.053752718384913689e-01,-3.145241007464064098e-02,-8.599665796367285397e-02,1.506492816398944529e-02,1.704940777813983982e-02,3.917517066001892090e-01
-4.021591047566308585e-02,-5.402446323628042890e-01,-5.297399224414267582e-02,-8.831233865619139700e-02,2.406909690168150193e-02,9.698358454293540265e-02,5.451281666755676270e-01
-4.335326496066202462e-02,-3.690802399681393231e-01,-4.232714348049292086e-02,6.742250142229414044e-05,1.653264139141061295e-03,-6.622257702491536396e-04,3.262558579444885254e-01
-5.542027942679267349e-02,-3.337007481255067631e-01,-1.391568860194597468e-02,1.313637472180178081e-03,5.744464142319613900e-03,1.196789900738116658e-03,3.013652861118316650e-01
-3.392906824638323993e-02,-3.628404977334211967e-01,-4.206250878080400324e-02,1.497890768144531475e-02,7.497085141992384984e-04,-2.536373968968823767e-03,3.259873986244201660e-01
-3.693351727204977064e-02,-3.821380938473682987e-01,-7.172030842851594146e-02,-2.784984534529629657e-03,-1.176819804096039057e-03,-3.388250507515438298e-03,3.292865455150604248e-01
-4.362958936715127800e-02,-3.668436375398315130e-01,-4.240630184197249908e-02,-3.480292269996355307e-04,1.420422779151751108e-03,4.263282049452599967e-04,3.238381743431091309e-01
-4.010750383244372774e-02,-3.695324168589247948e-01,-4.097385329664898768e-02,-2.219923581024053905e-03,5.251101893574432102e-04,7.737907998154018455e-04,3.290190398693084717e-01
-4.106713049652661873e-02,-3.716117885053474845e-01,-4.456205516702842206e-02,-1.171628071493048973e-03,-1.200416216244372825e-03,3.842890454136617048e-03,3.288913071155548096e-01
-2.992888695251638698e-02,-3.716266603129776414e-01,-3.577714836569617640e-02,-2.013098133252215092e-04,6.811310922488597770e-03,-5.761336825395503856e-05,3.390170335769653320e-01
-4.042717211336789573e-02,-3.745099905199963386e-01,-3.159251461148897266e-02,-6.008487143744933347e-03,-1.780671622505619264e-03,3.705082075939390360e-03,3.388213217258453369e-01
-3.331124057977109809e-02,-3.690044959166444150e-01,-3.509093919833103370e-02,-1.614197404909903778e-04,-7.001307605459293829e-04,-8.619885587314566645e-04,3.348125815391540527e-01
-3.392986190391508727e-02,-3.670327103856433903e-01,-3.296090117092106975e-02,-1.313813130931637757e-03,-2.207297102441911282e-03,-8.315955297421965837e-04,3.336211740970611572e-01
-4.421003063393229293e-02,-3.434283689663126804e-01,-2.036061622853679864e-02,2.757458696692430267e-03,-7.542986910106086636e-03,-6.770706792044578612e-04,3.121401369571685791e-01
-5.193712270790494523e-02,-3.854323684373974213e-01,-5.823576268560792801e-02,1.679345218599318174e-03,1.365763955252490350e-02,-3.584330171720146938e-03,3.313076794147491455e-01
-2.841396272933929823e-02,-3.880151572048337050e-01,-8.197444318166481614e-02,1.396369785367115044e-03,3.150638410116581196e-03,-5.283448676330614610e-04,3.360919356346130371e-01
-3.358602615257400004e-02,-5.854979730038704089e-01,-5.630138071075174722e-02,-2.830268268669216582e-03,1.037293349130874280e-02,-8.638145089602558557e-02,5.615318417549133301e-01
-3.127671259915754121e-02,-3.698801691651409929e-01,-3.891782820143864507e-02,-1.871088652012033258e-03,-1.672751788088850571e-03,-7.447376762960660054e-04,3.348789811134338379e-01
-5.409185031394966869e-02,-3.730481632054741814e-01,-4.100053566377215297e-02,7.000890575767614206e-03,9.714678331109349169e-03,-9.771648781751859827e-04,3.263634443283081055e-01
-5.106238920313457830e-02,-4.970251699117184674e-01,-2.977393562464708543e-02,-3.469602833072576303e-02,1.153303057610007704e-02,-6.488031893785077553e-02,4.748354554176330566e-01
-6.265049961763480280e-02,-5.022462630940900397e-01,-3.418534652637783555e-02,7.652601682057035004e-02,1.120366140170461072e-02,-1.001453916080871295e-02,4.741455316543579102e-01
-3.956210484005216743e-02,-3.674874445393565003e-01,-4.540989956245473913e-02,1.506927271882386099e-03,-7.458215472959014427e-04,-7.582852511774230530e-05,3.250539600849151611e-01
-4.641620853119582391e-02,-3.585981219852956148e-01,-1.229673355911645172e-02,1.486716498016241216e-03,1.755459506115938451e-03,2.978245252712010196e-03,3.306291699409484863e-01
-4.556711582302838681e-02,-3.628000625226350251e-01,-4.269493585569435201e-02,4.768265547017108696e-02,-1.649875728287908405e-02,6.727672127231254517e-02,3.503885567188262939e-01
-2.610234968839433845e-02,-3.680691668293913921e-01,-4.102827358774996380e-02,-1.627697536719194477e-03,4.852246378074325482e-03,-3.601657652878299787e-04,3.348714411258697510e-01
-2.980219475511174110e-02,-3.740284631591564990e-01,-3.987710751659344355e-02,-2.893460024120117838e-03,1.390478809833500936e-03,8.988178835774028369e-05,3.393466174602508545e-01
-3.305440600278408692e-02,-3.879439634190993136e-01,-5.870804856033599861e-02,3.094403312111482229e-02,-5.574307378211007351e-03,5.311354854973431711e-02,3.590674996376037598e-01
-4.123622291328231382e-02,-3.748327685489417083e-01,-4.635458944090378730e-02,-9.850686219191444066e-04,-6.527321074143807187e-04,-2.373013458344235167e-03,3.310988843441009521e-01
-3.948066176364616042e-02,-3.737846429190843645e-01,-4.722285795390374075e-02,-2.918831060620966349e-03,-1.941049216397477115e-04,-1.635450539468925575e-03,3.305518627166748047e-01
-2.054592857358712721e-02,-3.501221419888893016e-01,-5.903224418065063095e-02,-1.020716597371510055e-02,-6.618316264596505252e-03,5.482261378676436120e-02,3.269220590591430664e-01
-5.895816943247181308e-02,-3.003677803078252384e-01,-2.759819222599348143e-02,5.084653418614348223e-04,9.598040673008137458e-03,1.991409502803604716e-03,2.590785324573516846e-01
-4.480815362941149849e-02,-3.853864030035222266e-01,-5.081192660864901345e-02,4.625404429042475479e-02,-1.352626836255713463e-02,5.944279842182070145e-02,3.627014756202697754e-01
-3.111609416900834590e-02,-3.895068998634344526e-01,-7.198712858665932968e-02,-1.203839853644596584e-03,-7.866941064069031889e-03,2.738207717713438474e-03,3.401163220405578613e-01
-3.997415619278174570e-02,-3.801263293479604233e-01,-6.081886986805010165e-02,1.026079680893443894e-03,-3.547645331675519393e-03,-6.935580995662362670e-04,3.302877247333526611e-01
-4.182535552533456213e-02,-3.706747341111091831e-01,-3.030544743311625044e-02,1.355363470705414533e-04,2.100536247339910342e-03,-2.163670272308275481e-05,3.347778916358947754e-01
-4.328385874544365963e-02,-3.708549736023808996e-01,-5.465589977269781630e-02,-1.118396884126321000e-03,2.435652743051614985e-03,1.792583009394056216e-03,3.220841586589813232e-01
-3.969754620401327871e-02,-3.679947193608457678e-01,-2.478893633034998101e-02,-1.163162768801350192e-03,-6.272213222284524345e-04,7.369866205427468529e-03,3.362498283386230469e-01
-2.315392728159304525e-02,-2.286907105361409842e-01,-6.244166450303736959e-02,-4.298114707671744916e-02,7.002908162023776736e-03,1.036852944802794524e-01,2.713945508003234863e-01
-3.038365845084853301e-02,-3.547014587727702617e-01,-2.845671740323243992e-02,-6.995251562887153628e-03,-1.008011984938304850e-02,6.027236925257221586e-03,3.261461257934570312e-01
-4.299037006082960521e-02,-3.692494180050226449e-01,-4.344884153865319343e-02,1.634504545274548606e-04,1.904824561635933998e-03,-1.917119019692419034e-03,3.260637819766998291e-01
-4.053292134249684986e-02,-3.783949754359131057e-01,-5.959871163926312720e-02,1.383382415059109969e-03,5.414980741636577465e-03,-3.145229614553971334e-03,3.289316892623901367e-01
-5.351529934925919330e-02,-3.015547532172441203e-01,-2.873974182483651774e-02,-7.371609882798470931e-03,-7.477249963357758197e-03,5.893240076973232239e-02,2.811272740364074707e-01
-1.288796345268498900e-02,-1.218125061351995192e-01,-3.316164345663341617e-02,1.250283203170690638e-02,-7.087496287373237606e-03,3.958525390635495717e-02,1.240480318665504456e-01
-4.882572227945321253e-02,-3.682564514370941788e-01,-4.697853638054338976e-02,-2.131808552954426398e-03,1.476469799222162845e-03,9.740798739214799780e-04,3.203942477703094482e-01
-4.934614695731665002e-02,-3.735849604976924643e-01,-4.177927575436571339e-02,4.242071948108108552e-03,-2.938612322527494897e-03,3.691290789695258253e-03,3.282716870307922363e-01
-3.171137952358038525e-02,-3.805493664904018858e-01,-7.176515910524895736e-02,-4.249604521557682167e-03,-8.565822426280173332e-03,1.107110400492767981e-03,3.310557901859283447e-01
-4.586873014881800992e-02,-3.685023385127552675e-01,-5.966147713600872260e-02,-1.421938212741465047e-03,4.915571458212036546e-03,-9.954629973599389038e-05,3.160874247550964355e-01
-3.614992478051043401e-02,-4.369035248361218815e-01,-5.685184836542860054e-02,-2.206486477686223167e-03,-3.785640072844867997e-03,1.012487257423301881e-02,3.912809491157531738e-01
-3.528548500533516818e-02,-3.806795721385543008e-01,-5.955145785843117545e-02,-1.039997345606871737e-02,1.547625981172859322e-02,-5.119659521574862655e-03,3.355983495712280273e-01
-4.441577519783394823e-02,-3.657620578669087963e-01,-4.540783031443267059e-02,-8.946811487496311374e-04,-9.383117716312666364e-04,-4.088060274565947258e-04,3.208600580692291260e-01
-3.775472335812700420e-02,-3.803559004085538264e-01,-6.454287234284829256e-02,-5.967567698080557780e-04,-1.884778957867414440e-03,5.061875298446721081e-04,3.300424516201019287e-01
-4.588925777941796347e-02,-4.184727538214351172e-01,-6.291459174024988110e-02,-6.323729006684380982e-02,-1.399207773723473540e-02,-1.085287595758193530e-01,4.250701665878295898e-01
-3.546886618893781151e-02,-3.774511290372462580e-01,-6.543834608573470546e-02,-4.759883273260485763e-03,4.166904201142129782e-03,-9.982282055096987610e-04,3.282134234905242920e-01
-3.917064481177399971e-02,-3.746301887158681176e-01,-3.958318402682392545e-02,2.665599950633866597e-03,1.439599206538444019e-04,3.137896386308179717e-03,3.353293836116790771e-01
-3.318521379894456835e-02,-3.971919810061049771e-01,-6.821460883467278524e-02,2.338619907923297769e-02,-1.000582581079438767e-02,1.225635255841167892e-01,4.098580181598663330e-01
-2.092060779244250823e-02,-5.227778678947666569e-01,-6.485819421339686364e-02,-4.927177270347013471e-02,7.108141562468345449e-03,5.778339817284282309e-02,4.991916418075561523e-01
-3.238047482163636248e-02,-3.837248144582314224e-01,-7.537094992260673365e-02,-2.927512742661528690e-05,-1.038305655304571891e-03,4.547627716479535689e-03,3.320419192314147949e-01
-3.322318475405558469e-02,-5.929733507670394976e-01,-5.331595592136628703e-02,-2.318628589341204665e-02,9.125276763956249480e-04,-4.104792727273423592e-02,5.560100078582763672e-01
-5.486065109511514132e-02,-1.737441580895877635e-01,-4.910191760838523989e-02,3.878349501817004996e-02,7.184155924016464266e-03,5.152554782356554702e-02,1.657800674438476562e-01
-3.585937336727557101e-02,-3.918258771545263253e-01,-7.113293670575331074e-02,-1.489370630155850087e-03,7.060073333701915102e-03,1.270091067623614796e-02,3.406468927860260010e-01
-4.072399020985044416e-02,-3.734680577447516692e-01,-3.663977787689193244e-02,-2.178562687438485683e-03,-3.313994912314284676e-03,9.634010752285564715e-04,3.348794877529144287e-01
-4.916245600655425041e-02,-3.911216052132949206e-01,-4.572988015787883553e-02,5.020280102942034357e-05,1.455791325043255535e-02,-2.554368239301991680e-02,3.474404811859130859e-01
-6.210259159079349611e-02,-2.213863071915967984e-01,-6.094092394825782744e-02,1.679171811761539720e-02,-5.490131977663438578e-03,-6.995275630328806615e-02,2.029141634702682495e-01
-6.484117012201999486e-02,-2.450783370618741519e-01,-4.345178651642472856e-02,-4.849579417139997586e-03,-7.347440576959065814e-03,-2.764124195010903701e-02,1.982995867729187012e-01
-3.166167680814008234e-02,-5.315293860608047982e-01,-5.156550848391031061e-02,3.912361957478791008e-02,-1.409081866044623217e-02,5.387088758603460897e-02,5.041908621788024902e-01
-3.719138731196179604e-02,-3.719739813991480570e-01,-5.563723824605447399e-02,3.159785226360184961e-03,-1.639585130669908965e-03,-1.678552085515446109e-03,3.260226249694824219e-01
-5.968512394610791388e-02,-1.571536834022022600e-01,-5.136043889085074171e-02,2.420282974632206180e-02,-2.582372693525661692e-03,-8.749664780061193470e-02,1.874170303344726562e-01
-4.178475392802828703e-02,-3.427992132914245427e-01,-3.489804084749970059e-02,2.933128157767575864e-02,-6.381175135171916410e-03,-3.041263753438637127e-02,3.133816421031951904e-01
-1.969131153259432582e-02,-1.764418312055524851e-01,-2.697074083596288918e-02,1.518889685182029693e-02,6.940790334981628874e-03,-4.379397525576459588e-02,1.734157651662826538e-01
-5.425756694976689720e-02,-2.844380981272955355e-01,-5.604954570943902759e-02,8.444640449798196738e-03,7.244310308872919761e-03,-1.089577264510362270e-01,2.975912392139434814e-01
-2.885597239439058326e-02,-3.400067297706401703e-01,-3.099034001003996008e-02,1.305190239368510426e-02,1.221727768779589003e-02,9.421879619216165513e-03,3.120583295822143555e-01
-6.692909494615457977e-02,-1.726236376022520502e-01,-5.300491360733381591e-02,-4.105939224044738781e-03,-6.604964739827510513e-03,2.357694736004419672e-02,1.211858019232749939e-01
-3.138977862319894396e-02,-5.383497542329802599e-01,-6.831749802465100774e-02,-2.582941717122939559e-02,-6.053771234773210747e-04,-9.682508071688995799e-02,5.194026231765747070e-01
-3.539759512940009178e-02,-3.648135466414014205e-01,-5.000577583256321512e-02,-8.822308111151354326e-02,-1.191654216939710791e-02,-6.020982704687743298e-02,3.722468614578247070e-01
-7.210862608530835272e-02,-3.840129034091356308e-01,-2.940552030901957825e-02,-7.090206954299734660e-04,1.837097405596365080e-03,-2.916688338932115626e-03,3.353569209575653076e-01
-7.184521793869429185e-02,-3.896707550273716403e-01,-3.298497018825496951e-02,-4.540469705987533293e-03,3.562082995362678833e-03,1.357690779442643830e-03,3.390861451625823975e-01
-2.682767215924083959e-02,-3.707792118495805700e-01,-4.479375073158176068e-02,6.515137939402701299e-04,-2.141878195778912451e-03,-2.179283851467798353e-03,3.353733122348785400e-01
-7.086676978368945667e-02,-4.540648838818955868e-01,-3.168296189823971432e-02,-5.037749123446913502e-04,7.002860593531909025e-03,-6.511683929550849369e-03,4.045570492744445801e-01
-6.205819321986461023e-02,-6.103371338725829265e-01,-2.821022796071562255e-02,-3.022082581568590054e-02,-1.292022016792288529e-02,-4.872476976360300832e-02,5.750448703765869141e-01
-4.852373979123147940e-02,-3.733334318536710716e-01,-3.993985490362438051e-02,2.440033038894402762e-03,-2.029992382696847568e-04,3.151325887208729620e-03,3.292581439018249512e-01
-7.008505781838415827e-02,-3.884181664464128603e-01,-3.354446669741020792e-02,4.659556327681298356e-03,-1.190946999880735518e-03,-4.468194883064689283e-04,3.381911516189575195e-01
-4.826417424093538966e-02,-2.380654197934577720e-01,-5.075998126712739228e-02,-7.673068978014145614e-02,-2.296652278739250586e-03,-1.167862639886256201e-02,2.316135317087173462e-01
-3.003612789215748258e-02,-5.945655046926588971e-01,-5.925787433231963219e-02,-2.348716151714411171e-02,-3.362967457031140923e-03,-4.391552604639297613e-02,5.572480559349060059e-01
-8.890758146285028529e-02,-3.864064468565313049e-01,-3.164093610737564455e-02,3.377471238696897696e-03,-5.180774559521972994e-03,-3.720282144556548692e-03,3.301182687282562256e-01
-6.667410222501328476e-02,-3.740232949140057661e-01,-3.801629549563821653e-02,5.464286595850656632e-03,-9.806689214418356712e-03,2.743246057722932194e-04,3.232198357582092285e-01
-4.735714773253381360e-02,-3.798126925094456041e-01,-5.870769827047078726e-02,-4.635907996577812336e-03,-9.473204410983480581e-03,-1.437107890753275795e-03,3.274475038051605225e-01
-2.617907114777848210e-02,-3.097703094330716000e-01,-5.154882997131013389e-02,5.988094050516155203e-02,1.028262484339205127e-02,1.947586816356770487e-02,2.934029400348663330e-01
-7.366796714079303088e-02,-3.762406837309075769e-01,-2.764769111105713773e-02,-1.049078507158480089e-03,3.256011341393192857e-03,-1.969318958627559128e-03,3.280843496322631836e-01
-7.004141019420760672e-02,-3.882338600308767873e-01,-2.834254545717468377e-02,3.604641397155493830e-03,2.935327093992579073e-03,-2.356019460024129895e-03,3.410791456699371338e-01
-6.194824524037403912e-02,-3.931633877147607259e-01,-2.861786066505075943e-02,-2.107573404921012430e-02,3.518547839735410455e-03,-2.880852608466549433e-03,3.510676622390747070e-01
-6.924290388269865870e-02,-3.990069953097387656e-01,-2.884986132538522319e-02,-7.191902455612447960e-03,7.901363079511043372e-03,-1.064380037689824105e-03,3.521959483623504639e-01
-7.523024711237666362e-02,-3.882456239294162503e-01,-3.426432898704814822e-02,5.495287162686433510e-03,5.339022724137117582e-04,-2.705350852513064078e-03,3.355491161346435547e-01
-4.928007183856639162e-02,-5.050131158387149988e-01,-5.060458978534085328e-02,-8.851569482021771906e-02,-2.205281585924448104e-02,-8.116611927404303317e-02,5.018153190612792969e-01
-3.560778834900357737e-02,-3.730931028130251015e-01,-3.283275676525770903e-02,-8.172577218845497593e-03,9.440192800573201509e-03,-5.897642265889745800e-03,3.397243618965148926e-01
-2.371352665804951632e-02,-3.642965114750233990e-01,-3.805760909904405687e-02,-2.745709488790884327e-03,-5.705305870606732464e-03,1.677121646238932218e-04,3.338226079940795898e-01
-3.998632983725249057e-02,-3.732440544360368095e-01,-4.176289324401688541e-02,-3.257152781338004850e-03,1.740045656053154687e-04,1.815490293662224862e-03,3.324358761310577393e-01
-1.904197847775745966e-02,-3.712528025469260529e-01,-4.642192932704608532e-02,-1.539189723391926751e-02,-4.122257131127239106e-03,-2.433636688058413503e-03,3.404968380928039551e-01
-5.491068067819077081e-02,-3.670218521902283149e-01,-4.312989691203480969e-02,5.646911449410978385e-04,-2.044855559993240951e-03,1.276548345689233928e-03,3.181940913200378418e-01
-2.335199783272150220e-02,-3.640737285651282074e-01,-3.328351475693261396e-02,-1.408430246907908952e-04,2.111555970829089631e-03,1.200436129069257707e-03,3.358925580978393555e-01
-2.244396386930705423e-02,-3.628695904651681459e-01,-3.315893577295492278e-02,7.115625246890865596e-04,1.997271345042236218e-03,1.099464255449337331e-03,3.352221250534057617e-01
-1.625729243888485165e-02,-3.583947561321033648e-01,-3.622864721466305393e-02,7.440785543120231622e-04,4.084257073905207466e-03,-4.640185414731578303e-04,3.326804637908935547e-01
-3.041219988567861465e-02,-3.792950913231947219e-01,-3.946697859869206793e-02,-3.125174726325444761e-03,4.193741471097731967e-03,-3.691166253549251321e-04,3.445644676685333252e-01
-4.422279437426240856e-02,-1.912423949793832512e-01,-2.822649847262082706e-02,-7.697686843538775747e-02,-1.301565588316738048e-02,-4.269481666606428361e-02,2.190330922603607178e-01
-4.521535197412869522e-02,-3.646359678157075068e-01,-1.624709451518191461e-02,-1.453672747869429833e-03,-2.587951460867820696e-03,-2.873415060232016680e-03,3.349223136901855469e-01
-6.270927119203516253e-02,-3.797137611464966311e-01,-4.337668006215956995e-02,-9.428036229630068488e-02,-1.399444715263094274e-02,-6.189581321188389329e-02,3.817607760429382324e-01
-2.167730665979734905e-02,-3.593163830679066972e-01,-3.710149382409437535e-02,6.162467385628237274e-04,1.161441355586756907e-03,-4.810392942776416428e-04,3.302061855792999268e-01
-5.522029190576323299e-02,-3.749760942259071639e-01,-3.781988852174071603e-02,4.244383512877109715e-03,-2.088777045010211265e-03,2.026380820249020116e-03,3.289223015308380127e-01
-3.896929309374895511e-02,-3.719228292094968746e-01,-4.229105433040925011e-02,-1.635435844918798742e-03,2.529836261301160439e-04,-2.781265933296861448e-03,3.313525617122650146e-01
-3.989143616811199888e-02,-3.728199891008305289e-01,-3.845105213691431267e-02,-3.243491632285870185e-03,-3.683854305225633366e-04,3.265969877642974431e-03,3.337469100952148438e-01
-1.452554456807239602e-02,-3.630355365631522391e-01,-4.767079894703762921e-02,1.154730879804830407e-06,-2.334235299303800970e-03,-3.102230566820306495e-03,3.332440257072448730e-01
-5.031181046568822257e-02,-5.858407110874015444e-01,-4.884020052158272174e-02,-8.013547603371923289e-02,-1.439198660352713002e-02,-2.534608270856154519e-02,5.562330484390258789e-01
-4.262149870953367559e-02,-3.733895369384401253e-01,-3.964695373513009435e-02,-1.128550787676243106e-03,-4.730565491058346869e-05,3.426286361852146946e-03,3.323240578174591064e-01
-5.362666490014425524e-02,-3.769799697683055006e-01,-4.106464610793400527e-02,3.212065205146723019e-03,-5.979709987413201269e-03,-1.759182155811574340e-03,3.300373256206512451e-01
-6.760380897895226782e-02,-3.886860012369606210e-01,-3.421082659278681937e-02,6.786087473571820322e-03,-9.050782757952105864e-03,4.786457765663337457e-03,3.396812975406646729e-01
-5.652549202535370187e-02,-6.091119843180945459e-01,-4.469152080480276457e-02,-7.003904080344237892e-02,-1.291193431443828088e-02,-7.191948303699545464e-02,5.854613184928894043e-01
-3.612054930312338930e-02,-3.521935730488022775e-01,-3.619652245282807546e-02,8.732797445142894376e-04,1.043352913996444149e-02,7.720479998991393875e-04,3.165577352046966553e-01
-3.701278021096593429e-02,-3.949041057104873964e-01,-3.860739325717303660e-02,1.091384164172821448e-02,1.323858993669240879e-03,7.352871675604184983e-03,3.578307330608367920e-01
-3.606831080617714513e-02,-3.102069016744934959e-01,-3.649506998068724473e-02,-1.176496097367768501e-02,1.178478728488785258e-02,-1.278411868343182906e-02,2.763283252716064453e-01
-3.116367434370106992e-02,-4.980530816910050951e-01,-6.522001593339751824e-02,-5.127387489895398470e-02,-6.335696638994818899e-03,-8.148432086467424784e-02,4.808030128479003906e-01
-7.006616957800511358e-02,-3.709222602423528636e-01,-3.561265875884890575e-02,-1.051770874939877542e-03,-4.878129572377253378e-03,-2.199052955330996553e-03,3.196188211441040039e-01
-4.373946713002407893e-02,-2.544356125517324152e-01,-6.419041646843087756e-02,1.797919321208473050e-03,-7.002041078615111463e-03,-5.812326746897167849e-03,2.018918097019195557e-01
-4.662829538105886518e-02,-3.616794244528890312e-01,-3.790012074781665130e-02,1.497369616693642984e-02,-2.627602984343973668e-03,-3.775680446580481479e-04,3.205884993076324463e-01
-6.109476708401315181e-02,-3.897300208716643621e-01,-3.279533107290957816e-02,1.262994062783183262e-02,-3.445277053005449917e-03,1.247168130220883660e-03,3.444139957427978516e-01
-3.481303613158197308e-02,-3.667321679829759207e-01,-3.407323134036210899e-02,2.762509237040060555e-03,6.188702272818464786e-03,1.629205143677557371e-03,3.325088918209075928e-01
-3.391602782886742051e-02,-3.751745794389262367e-01,-3.417918265547080503e-02,3.839210365740561336e-04,3.923740046232099092e-03,4.156649674869337713e-04,3.411961495876312256e-01
-5.536128469826742671e-02,-3.803931910062786637e-01,-3.390961007510397140e-02,1.181280891800746136e-01,-1.850544432418273211e-02,7.083455418398013070e-02,4.135469496250152588e-01
-1.551965544513322914e-02,-3.747746296116056808e-01,-4.204716066406027908e-02,5.516183661779389819e-02,-8.762213615263197627e-03,-2.821478326843849041e-02,3.632970452308654785e-01
-3.511386839048563635e-02,-3.771053513225972598e-01,-3.242301031300656722e-02,6.014107523365765312e-04,5.493172820348308323e-04,1.415231057582160478e-04,3.433478176593780518e-01
-3.480997173421578050e-02,-2.475014705134475079e-01,-5.657420604230559147e-02,-2.951762299531415085e-02,-8.227424521525826540e-03,-8.804743700392347883e-02,2.591452896595001221e-01
-4.208309380328840998e-02,-2.438177107277788302e-01,-6.159990803300864626e-02,3.185732304204883219e-03,-5.889102770290772365e-03,1.251085981128476727e-03,1.930796056985855103e-01
-5.257722226939145344e-02,-2.220231793679176002e-01,-3.922823195923220985e-02,2.651689248265595364e-02,1.190015150151740343e-02,6.873407090629163330e-02,2.187680453062057495e-01
-4.166789952743550629e-02,-3.729797809068273740e-01,-2.831690287297458641e-02,7.825210220141424599e-04,2.286847768357754430e-03,-1.375181559938114381e-03,3.382193744182586670e-01
-4.144470699761625132e-02,-3.717877640803577410e-01,-2.131762151038874009e-02,1.318205591096759674e-03,4.872902539213620071e-03,-1.916512082254319882e-03,3.409808576107025146e-01
-4.163038884125112860e-02,-3.694372172396511167e-01,-3.763448228809070095e-02,-1.101243575798635348e-03,-5.138474867016496871e-04,-4.061360577626595397e-05,3.298296630382537842e-01
-3.172805774772424758e-02,-3.158549217768393813e-01,-5.135579005492056648e-02,2.712281975970684891e-02,1.768725332272343478e-02,-9.094278784164812335e-02,3.217045068740844727e-01
-4.133821030429533916e-02,-3.737593236897732707e-01,-4.222813024676115579e-02,3.197543082472188540e-03,2.414736934356871234e-04,2.714528078285521201e-03,3.320567905902862549e-01
-4.552017994164683778e-02,-3.677743540134492117e-01,-1.731160058435438076e-02,-1.846177643407737956e-03,-1.659620250590780220e-03,-4.002004311616394992e-03,3.373430669307708740e-01
-6.201013536028240902e-02,-1.967195504668891037e-01,-6.263504022297981810e-02,3.211566897594974376e-03,9.167848194174473301e-04,3.743523963139969157e-03,1.346786618232727051e-01
-4.484594851107764901e-02,-7.152523056980603089e-02,-2.396441285252582168e-02,-2.128571749496830159e-02,-1.898434011413659139e-02,-2.742218791843881176e-02,8.000823110342025757e-02
-3.904284646971059591e-02,-3.726690497531152113e-01,-2.840287440136801678e-02,9.809722844468565708e-04,1.081149425739698052e-03,-9.581657409843520818e-04,3.390848934650421143e-01
-3.803584194496123505e-02,-3.752287633226614183e-01,-2.857393816730148528e-02,2.279756567576678064e-04,2.181675494464203630e-03,-6.131698924701920747e-07,3.420431613922119141e-01
-3.682467432946062713e-02,-2.728736063592183680e-01,-4.088659645222428307e-02,-7.238227570853049408e-02,-1.250967476045625193e-02,-7.501267737415956427e-02,2.963857948780059814e-01
-3.261359558841051692e-02,-1.528567501017040753e-01,-2.583367728654854117e-02,-5.874959031244154223e-02,-7.531877917236507423e-03,-4.248942973263363648e-02,1.768061369657516479e-01
-6.194508930061674856e-02,-1.482196960933958585e-01,-5.859654420622092963e-02,-2.559148937819678490e-03,-3.291752572029397594e-03,-2.318339574309379383e-02,9.699473530054092407e-02
-6.777016581530287409e-02,-1.807225677787645535e-01,-7.091236592950898865e-02,4.263445205746844296e-03,-2.604489536178183646e-03,2.301674436865960155e-03,1.118211671710014343e-01
-6.107128792801442413e-02,-2.451207170884434350e-01,-2.935989613778176854e-02,-1.024092282506914794e-02,-6.753431977033995219e-03,2.615229325089608176e-02,2.078931182622909546e-01
-6.390735002882799720e-03,-1.422078445328714968e-01,-3.604121053975357925e-02,-2.850809818213437957e-02,1.004387675302910975e-02,4.747108696797316257e-02,1.574791520833969116e-01
-3.245767880532367256e-02,-3.478412238039815252e-01,-5.544106545887135529e-02,-4.672215420016360282e-02,1.452387282625313553e-02,1.142615315071464077e-01,3.729547262191772461e-01
-4.676298637940138475e-02,-1.310987171764902981e-01,-4.543589564055283692e-02,2.730852415069513761e-02,1.182309772805277331e-03,7.247641518710108699e-02,1.588274240493774414e-01
-4.254032752243473714e-02,-3.569618856565259790e-01,-2.443354901011574043e-02,-1.833958628007590144e-02,-1.412445988452104215e-02,1.940973555712782739e-02,3.280543684959411621e-01
-4.554350524400905403e-02,-1.495617659519370424e-01,-5.324943457860199791e-02,7.307553659195271945e-02,-1.679956190443449016e-03,3.953278608129584537e-02,1.754842251539230347e-01
-4.758058627946710334e-02,-2.014293200384545401e-01,-2.271634439589684251e-02,-9.425103207426305252e-02,1.897431465235475999e-03,-3.537055763185087062e-03,2.341177016496658325e-01
-3.321226879794901554e-02,-3.528977755066254884e-01,-2.517432595005945906e-02,1.950102770216233889e-03,7.193934514871651309e-03,4.603957621446270847e-03,3.241347074508666992e-01
-1.351137622418531643e-02,-4.172384931138486269e-02,-9.051666954963573375e-03,-3.851073514484280695e-03,-5.131782484546196232e-03,-1.022629211537620479e-02,3.713328763842582703e-02
-3.237080896756677761e-02,-3.191500719817391696e-01,-4.989771599423520332e-02,-2.900151992745353922e-03,-1.085853488792727639e-02,-1.168091177466327232e-03,2.791168689727783203e-01
-6.283134169351650700e-02,-2.123683196378212679e-01,-6.428974800486131347e-02,-3.387698676206592208e-02,-5.517371620532826376e-04,-2.896616193594512070e-02,1.676494181156158447e-01
-5.638314164179003551e-02,-2.458535949315336644e-01,-5.931877473549824337e-02,-2.865835632600660611e-04,-1.109915393544212009e-02,2.101658861194459233e-03,1.890357732772827148e-01
-5.688504383599592151e-02,-3.037171583692192534e-01,-1.578977179215183824e-02,-6.937536018376188815e-03,1.661092508884671028e-03,4.076490253775521405e-02,2.790995240211486816e-01
-4.304916116123169711e-02,-3.157857076897923609e-01,-2.003107589373694097e-02,-1.165021248682655136e-02,-1.158168087036940026e-02,2.909403720675854399e-02,2.907609045505523682e-01
-5.301076278832259070e-02,-1.119202548392371765e-01,-5.607983738338396390e-02,-9.169567154015713373e-03,-3.894200825367123177e-03,8.951742311829290200e-02,1.662431806325912476e-01
-4.551659938071498518e-02,-1.541567332322407446e-01,-3.704692336622457394e-02,2.622124843675079781e-02,-4.810798859787520504e-03,6.549191980105192878e-02,1.667160093784332275e-01
-4.829241142399885028e-02,-1.685495445720360808e-01,-4.963765728289191298e-02,1.867942476186998726e-02,-3.680666660664786306e-03,9.096108050541121259e-02,2.005267292261123657e-01
-6.661630158075747266e-02,-3.747785684771971493e-01,-4.091393682590642455e-02,5.165447855939238851e-03,-9.901205636537104005e-03,1.974022256699923226e-03,3.223831951618194580e-01
-1.704282153177934592e-02,-9.449007217330729347e-02,-1.267268959215797630e-02,-3.724195001783487530e-02,-8.005564460948511735e-04,4.383782199788194799e-03,1.028401330113410950e-01
-3.980776102376602787e-02,-3.066895412025025802e-01,-5.369383859383490554e-02,-6.345020071939554140e-02,6.691542091306487521e-03,5.320363196952512808e-02,2.973495721817016602e-01
-1.699982384683147718e-02,-1.237888422056550586e-01,-2.340692864367008297e-02,-2.480684712072562040e-02,4.864415744458924599e-03,4.442200129201841208e-02,1.363737732172012329e-01
-3.317544940710492885e-02,-3.641645018713628446e-01,-3.011275522141780570e-02,-1.822463012959252456e-03,-5.598572783265835448e-03,1.166107160276014460e-03,3.326934278011322021e-01
-4.234901030287002710e-02,-3.693716071661408140e-01,-5.612163047360589629e-02,-9.263845116347383865e-05,-4.431116003227745896e-03,2.855777697855214903e-03,3.204885423183441162e-01
-4.363936026410777935e-02,-3.525537685970867585e-01,-1.593758155979002611e-02,-3.428009349578295655e-03,-3.767637941513552347e-03,8.413530788011009185e-06,3.237758874893188477e-01
-4.852301837866476730e-02,-3.937590577197144226e-01,-5.144230497154646253e-02,-8.359868941596179659e-02,-9.060010009884359242e-03,-5.197762638265983337e-02,3.840652108192443848e-01
-3.977974782316473501e-02,-3.769281654602502640e-01,-6.427661014872423917e-02,2.730178865287376244e-03,-3.392479343778724565e-03,3.941479078415401245e-03,3.257507681846618652e-01
-3.812689722921563940e-02,-6.106092365580755299e-01,-3.902157548375578822e-02,-3.484401016555490477e-02,-2.476230023073644829e-03,-2.890163547138309766e-02,5.774004459381103516e-01
-3.377032533337251397e-02,-6.081577099282224896e-01,-5.316175129471129024e-02,-4.267273779023222219e-02,-7.074560035045403782e-03,-3.530528983848207902e-02,5.731589198112487793e-01
-2.948701952863182207e-02,-3.668799960859979170e-01,-4.276222960193344635e-02,-2.212078068258929459e-03,8.176098707867809640e-04,1.210540601365282624e-03,3.309869766235351562e-01
-4.291101409627261221e-02,-3.642705670286240371e-01,-2.010773398656989785e-02,-1.309257771431527467e-03,-1.586006100321053812e-03,-2.647349072863861469e-05,3.333657085895538330e-01
-5.731617495956831121e-02,-4.159496493935677108e-01,-3.985353129820737306e-02,1.252578121716935167e-02,-1.767504935032482988e-02,1.343378269563406426e-02,3.703173100948333740e-01
-4.349076190628659022e-02,-4.121457652159481455e-01,-5.635596200170521486e-02,3.566820112145028393e-02,2.019308151833313150e-02,-1.129130869621035177e-01,4.178722798824310303e-01
-3.220839718660256645e-02,-2.889809018438663779e-01,-4.884723618536693235e-02,1.708964173417073379e-02,-1.411658622432333983e-02,-1.777264152298429351e-02,2.536891400814056396e-01
-4.552936248799074881e-02,-3.490937049630265521e-01,-4.065307485872135529e-02,4.755701522305638002e-02,-1.651802670731216879e-02,6.377234484641432222e-02,3.368377089500427246e-01
-7.301184069861939296e-02,-3.851526132370147737e-01,-3.429682743150061497e-02,2.285256942525310236e-03,3.819516838286715014e-03,-1.579551350394565144e-03,3.332899212837219238e-01
-2.081143585667051543e-02,-3.233940968654519521e-01,-6.275887001125779463e-02,1.925269581552745829e-02,-5.698689155881297291e-03,-6.682151569518490417e-03,2.862982153892517090e-01
-2.807294311418093158e-02,-3.439030474182842578e-01,-3.730572855151535749e-02,4.969727361558758799e-03,-1.067161492666413546e-02,-4.018740553808554817e-04,3.119841814041137695e-01
-4.774318985225024792e-02,-3.693165660937591244e-01,-1.818615595616468461e-02,-1.843020201056710895e-03,-1.146153105967683645e-03,-3.819499939606671619e-03,3.374103009700775146e-01
-6.507828522854591791e-02,-1.334335540530226516e-01,-6.230795905951726221e-02,-1.464595714323174355e-03,-2.854478775943589466e-03,8.914248320886308460e-03,7.168510556221008301e-02
-2.146977328457747025e-02,-2.910563014490127332e-01,-5.732339797401118930e-02,6.732820594230297384e-02,4.670332729955224867e-03,1.490043505271305838e-03,2.792276442050933838e-01
-1.102714737842785953e-02,-3.347931993584575272e-01,-4.832167200808040741e-02,1.619874361113291666e-02,-2.047578537221358096e-03,-6.362816144641715360e-04,3.081260025501251221e-01
-5.252808990084226887e-02,-2.214139531639413849e-01,-1.336106501341638442e-02,9.160825061559958737e-02,-3.873616159179032667e-03,2.137397170161129192e-02,2.515214085578918457e-01
-4.581054388477431849e-02,-3.270354723751542902e-01,-1.803156888544478476e-02,1.187021814536001404e-02,-1.080641130335372076e-02,-2.347162015872653051e-02,3.001617193222045898e-01
-1.996832206806980342e-02,-1.259934177429399560e-01,-1.433045489145090556e-02,3.439675635177855822e-02,-6.405814489206996219e-03,9.803742527832885745e-03,1.258241534233093262e-01
-4.790235675994284487e-02,-2.095478100796636101e-01,-6.292492658600502831e-02,1.714638782531437491e-02,3.683577981003011842e-03,2.698634363703024831e-03,1.577059030532836914e-01
-4.793276308705907152e-02,-2.444307006129675108e-01,-4.413720015982093570e-02,1.542914145643455893e-02,1.208487562617669396e-02,1.235092038389910135e-02,2.024391442537307739e-01
-6.945950517207967467e-02,-4.034038571887685887e-01,-3.666524076045638014e-02,1.279677634811920983e-01,-1.375564275137036371e-02,6.698136007213990883e-02,4.320881366729736328e-01
-4.123315981770662997e-02,-3.805369977492217837e-01,-6.198873312987038253e-02,1.447947548687030048e-03,-9.596025616253256105e-03,3.206983156953313683e-03,3.298921585083007812e-01
-4.562380942560902153e-02,-3.246166202221044128e-01,-2.987134156594670187e-02,2.222626262313845413e-02,-9.967244517868812173e-03,-4.339127768045680789e-02,2.998473346233367920e-01
-5.122253463359943693e-02,-5.423989955587283918e-01,-4.798286623943817664e-02,5.240912113844448106e-02,2.058083798756090571e-02,-9.889026858017334332e-02,5.307586789131164551e-01
-3.969573495606611158e-02,-3.780710404080267484e-01,-6.127519570332011500e-02,1.611012930022379195e-03,9.176222205829547354e-03,-3.557903476541657110e-03,3.285725712776184082e-01
-1.759594491487252721e-02,-3.541191597452776341e-01,-4.510776471525239362e-02,5.527588282051470233e-04,-3.027075714420517701e-03,-2.581693137805833073e-03,3.237202763557434082e-01
-4.718429145931904434e-02,-3.782363333119999060e-01,-6.004573638569327132e-02,-5.092325006084533895e-03,1.144790406613051086e-02,4.166555395500121974e-03,3.256165087223052979e-01
-2.775601837389529702e-02,-3.584676350140413859e-01,-4.113125686594888697e-02,5.836814739047714584e-03,-9.930199751721444437e-03,-7.455451200767344681e-03,3.251007497310638428e-01
-4.381691581522302592e-02,-3.141414065503607689e-01,-2.574716634696815054e-02,-1.795226172057267549e-03,-8.071698658640333660e-03,-3.306742142963151054e-02,2.859580814838409424e-01
-4.885206822203980170e-02,-3.585818101504399391e-01,-1.142551958962975678e-02,-7.455487315794855335e-04,-1.057627354202068503e-03,7.082288923540409030e-04,3.300483226776123047e-01
-5.563458219145038519e-02,-3.214844398102281176e-01,-2.882899387231049881e-02,-1.712848505583633224e-03,-1.041592203036318699e-02,-5.197819202929493398e-02,2.948905229568481445e-01
-4.489118172408171348e-02,-4.251092157874598598e-01,-4.901926400802444905e-02,-3.523543120799589156e-03,1.679504818212491576e-02,4.650965808934746405e-03,3.794226944446563721e-01
-3.124807001163192044e-02,-1.624198569059871200e-01,-1.851915089280115750e-02,5.820472134211564230e-02,9.801393500177887214e-03,-4.169852234973822624e-02,1.862944215536117554e-01
-1.715780878708990376e-02,-3.570522127814380609e-01,-4.281875910375416983e-02,1.768061266474399212e-03,-2.256452444763194960e-03,-4.681834250601982911e-03,3.279559314250946045e-01
-6.091808710010870875e-02,-3.728093500427311913e-01,-3.563468489291095331e-02,1.343963915307743590e-02,2.352606563417026717e-03,-7.211035294406881874e-03,3.263671994209289551e-01
-2.168986990315090180e-02,-9.472509292596997810e-02,-5.027015334668648305e-02,-2.827908969208679096e-02,-3.787693723360959202e-03,-1.049550788630650711e-01,1.988780349493026733e-01
-1.666936657386142162e-02,-1.249940085179381960e-01,-1.962297271102338841e-02,3.970621746070516697e-03,5.813953022126477042e-03,-2.414832454469510725e-02,1.154172047972679138e-01
-4.881680268669581768e-02,-4.251048932620103415e-01,-2.919882626350525645e-02,-3.469025752008191542e-03,1.692982278990506906e-02,-2.062563147302818103e-02,3.892708718776702881e-01
-5.336066047406164137e-02,-1.209890000931051063e-01,-5.593825473087807310e-02,-4.955631100405330156e-03,-4.202223387393161542e-03,-1.069382534920964717e-01,1.970785111188888550e-01
-3.903592865553411062e-02,-1.886833457333167430e-01,-4.407560035221681771e-02,-6.133505388073402093e-02,-2.239680486783674623e-02,-7.389848856425355883e-02,2.254758328199386597e-01
-5.188330111890733509e-02,-2.632912820105609564e-01,-3.273412404230782724e-02,-8.357500703861225899e-02,-1.060578058404249187e-02,-3.275775096351416643e-02,2.713288068771362305e-01
-1.579481615099440767e-02,-7.695493435383787828e-02,-5.329151358939930583e-03,2.973791122551480617e-03,3.699517340440416566e-03,-1.934339546412513350e-02,7.536751031875610352e-02
-4.827418153861556815e-02,-2.531243982909198165e-01,-3.519097193388220912e-02,1.621640537681737909e-02,1.302535376000389482e-02,8.083851770262918957e-03,2.151948511600494385e-01
-1.837817945106147086e-02,-9.326258106282422911e-02,-6.778566642903570416e-03,-4.024428681149876119e-02,-8.715101782728203704e-04,9.851415257010996337e-03,1.084577888250350952e-01
-4.060595342107467531e-02,-4.019730712272007733e-01,-3.328175120796036945e-02,-5.650419534710206942e-02,1.085038634550114164e-02,7.612211412056038400e-03,3.786710500717163086e-01
-3.961438152136717572e-02,-3.555064685535925806e-01,-2.202356427466302391e-02,-3.989095554164961868e-04,-6.070032874213941200e-03,1.455465391177080499e-03,3.252251744270324707e-01
-4.020372851648243429e-02,-3.692263632858158173e-01,-4.313702354665900629e-02,-1.572778221070915850e-03,-1.132347404380685315e-04,-1.977116347286242849e-03,3.275951147079467773e-01
-4.008523284680433341e-02,-3.585469551689701717e-01,-2.318722471077769298e-02,2.810228741322988466e-04,-1.099340117136318089e-03,1.681574625415916020e-03,3.272569775581359863e-01
-3.808958656599245596e-02,-3.606655106308693792e-01,-4.027448981747407120e-02,1.400992425419143265e-03,-1.744676898121284066e-04,-1.274089865401606500e-04,3.214984238147735596e-01
-5.719190800978023181e-02,-3.876022391201319750e-01,-3.650572724321117513e-02,-1.490048489719838143e-03,1.675487583173678949e-02,-9.786540099969780540e-03,3.428848087787628174e-01
-5.537315814874932407e-02,-3.824189509312422297e-01,-3.717195566016316677e-02,1.088492978829364282e-03,4.340990618655850481e-04,-1.569760974518645807e-03,3.365328609943389893e-01
-1.039028909115341515e-02,-3.400972904045926337e-01,-5.192150157931703369e-02,6.810878870797515937e-03,3.304131775774503312e-03,4.023226753290981729e-05,3.113042414188385010e-01
-6.750482123386511435e-02,-3.752409941132126003e-01,-4.061186693914627110e-02,-5.184392131518631396e-03,8.744835161359321152e-03,-1.594924189933607205e-03,3.225188255310058594e-01
-5.560908361032168568e-02,-5.643514346691984596e-01,-3.522528978885844375e-02,3.939905572577281218e-03,1.536471259333981043e-02,-4.598378754981091721e-02,5.260253548622131348e-01
-5.445016636025964973e-02,-5.637989269063332642e-01,-3.872723240178890802e-02,7.782457050228461584e-03,-1.673231329495066325e-02,-1.166827064442125389e-01,5.563793778419494629e-01
-1.963840259729880688e-02,-3.463558193897950388e-01,-3.857139254854385912e-02,8.780537158969639253e-03,6.131589591172420702e-03,1.915955174868420093e-03,3.182327449321746826e-01
-5.682888871432753564e-02,-3.754117346435251190e-01,-3.923672576056499994e-02,6.771797350418242573e-03,-1.674621464262057995e-04,-3.361309824157206715e-03,3.279948532581329346e-01
-5.460720705124175178e-02,-3.780917238036718975e-01,-3.239361985396332910e-02,6.889735060764261808e-03,-6.163435118681144000e-03,-5.183755924572057763e-03,3.356462717056274414e-01
-4.056518669456617154e-02,-3.922452548346298529e-01,-2.767083422809191173e-02,1.714141264435829759e-02,-9.082069895024835401e-03,-4.799908751735027651e-02,3.693514466285705566e-01
-4.551605740914871356e-02,-3.489438428214594046e-01,-3.770876341935075482e-02,6.808026020074899043e-02,-3.220323689265267020e-03,-1.650510332997428414e-02,3.305320739746093750e-01
-6.278862686778682867e-02,-3.820559102456179135e-01,-3.253544106088734900e-02,1.364895355504932573e-01,-1.798868996446519042e-02,5.926776996236327727e-02,4.241493344306945801e-01
-2.017122651355568452e-02,-3.602751126982597918e-01,-3.974706824378607117e-02,3.299420560720838641e-03,5.641110715740259123e-03,1.283959031906647995e-03,3.309518396854400635e-01
-1.098671551303684324e-02,-3.478791850227820337e-01,-4.812794199626864444e-02,1.873918558661247713e-03,1.553290915155160776e-03,1.251853214977098876e-03,3.199779391288757324e-01
-1.964375862313955112e-02,-3.528458417141775993e-01,-4.107993499302566021e-02,3.034180829926581488e-03,5.533989652821543793e-03,1.107527874508844540e-03,3.232085108757019043e-01
-1.665374722506923755e-02,-3.532510783506593310e-01,-4.450448741819641729e-02,-1.584087773772222918e-04,4.102277163035272442e-03,-2.911346179855893728e-04,3.236506581306457520e-01
-5.399983527475014922e-02,-3.819758664357255640e-01,-3.792002741335011307e-02,5.462154196490308714e-03,-1.529818926275244503e-03,1.039591077716581517e-03,3.364526629447937012e-01
-1.120906373293906189e-02,-3.524749333330408074e-01,-4.852973963741546992e-02,1.062469676830805074e-03,1.584583154038723268e-03,1.311921584352961599e-03,3.242453336715698242e-01
-8.592849560158327682e-02,-3.853167890328734191e-01,-2.746841312015890768e-02,1.689721056241757276e-03,2.545141723096133648e-03,-4.367185501017214685e-03,3.326235413551330566e-01
-7.132198932042824180e-02,-5.694047322737366690e-01,-2.933397037619031589e-02,-4.801326772602989429e-02,9.209321472899914670e-04,-3.358729341898187420e-02,5.301561951637268066e-01
-5.240560113654449403e-02,-3.859087512758417882e-01,-3.391728275508672230e-02,5.386372140169991447e-03,2.213933739205697915e-03,-3.043624764858986458e-03,3.433097898960113525e-01
-3.653454412653217576e-02,-3.645906187880454952e-01,-2.413666247589901781e-02,-1.331442914817975668e-03,-2.057018816310371596e-03,8.725773849122289661e-04,3.344577550888061523e-01
-1.793439018505954552e-02,-2.457355293515659511e-01,-6.101632402958639262e-02,-2.354633413629178898e-02,1.169803944743393054e-02,1.107411053191705852e-01,2.877497076988220215e-01
-1.140195249698132407e-02,-3.523993439869108624e-01,-4.389114801967818058e-02,-6.998833943305601693e-04,1.383570770609532548e-03,-2.497576144574818312e-04,3.259807229042053223e-01
-4.706430497593865059e-02,-3.586702584992156884e-01,-1.385594697765424321e-02,-1.978460690296506182e-03,-7.708490188304095540e-04,3.746451522040181083e-03,3.295521438121795654e-01
-3.257630993036873812e-02,-3.628454634168524207e-01,-3.173280952058707416e-02,1.759945804661030688e-03,3.590487455609096303e-03,8.316112458473546307e-04,3.307673633098602295e-01
-5.983339127609509089e-02,-3.697951543282211873e-01,-5.875018713433019513e-02,-1.128900559030273920e-01,1.176094976972175826e-02,9.900304609942579825e-02,4.055434465408325195e-01
-3.555395476820098766e-02,-3.693574385819149430e-01,-3.663517955725621722e-02,-9.738580632165546843e-04,-6.747141692367387500e-04,-7.847630856988580114e-04,3.332732617855072021e-01
-3.814529389364255951e-02,-3.684114650961044513e-01,-2.420356570368975557e-02,-2.512506358598151610e-05,-3.292740642729746758e-03,-1.176160713799276293e-03,3.375074565410614014e-01
-3.395436252712924485e-02,-3.673326016299244268e-01,-3.131846428483467393e-02,3.591154966481525826e-04,4.293426473907800732e-04,-8.256829395735216604e-05,3.347054123878479004e-01
-5.263636442340563493e-02,-3.236698936731596810e-01,-1.355309872143944938e-02,2.125324515129290185e-04,4.104476163650796171e-03,5.399800708515123913e-03,2.927758395671844482e-01
-2.901378156785611173e-02,-3.657897688898686939e-01,-2.817737466736447427e-02,2.031537535071166554e-03,3.569344019262080114e-03,2.443169330258934593e-03,3.372965455055236816e-01
-3.723668220423097253e-02,-3.694901741907814507e-01,-2.594512735693375871e-02,5.337228389376087647e-04,9.209678287881471054e-03,-5.829893729015454829e-04,3.384196758270263672e-01
-3.228342771721062765e-02,-3.661262342023998140e-01,-3.481426104653320697e-02,-3.870756591077105383e-04,2.020927658664949025e-03,-9.306033073279997535e-04,3.326076269149780273e-01
-3.240452237901947363e-02,-3.673340933499041894e-01,-3.246691747323519894e-02,-6.019728214840550313e-04,2.751629005893464980e-04,-2.644740134564873917e-04,3.349006474018096924e-01
-2.819901242304313771e-02,-3.656963549666664148e-01,-3.223810880326886952e-02,7.486186306707565249e-05,-6.381247136815836919e-03,-4.873058548484459338e-04,3.356791138648986816e-01
-3.291707367703547438e-02,-3.672253002662974053e-01,-3.382580573350509046e-02,9.969317984153030013e-04,-1.045183834374786586e-03,3.399481921196902384e-04,3.338646888732910156e-01
-3.819257369545522862e-02,-3.670637611165882275e-01,-3.800299046402622061e-02,-8.329886753320900556e-04,2.584128466036264148e-04,-8.953559698388691753e-04,3.289731442928314209e-01
-6.265553656358535672e-02,-4.012162493400237562e-01,-2.748499028495443586e-02,-9.904871953070611135e-02,4.310436608150895049e-03,-8.868932664753003889e-03,3.968518078327178955e-01
-3.122136368450488531e-02,-3.781382802962282019e-01,-4.177652774830253879e-02,1.531622082203783729e-02,2.807496223031896374e-03,-1.120882382904502070e-03,3.428296446800231934e-01
-3.942164652612512032e-02,-3.722534487128429936e-01,-3.030988273092920238e-02,2.111542418080547719e-03,1.076181330142587152e-03,-7.071087740059187315e-04,3.375071287155151367e-01
-2.694429252239506634e-02,-3.647629910768289685e-01,-4.288482664702035485e-02,-2.334809391936658231e-03,-5.953012050040692874e-04,9.614282816528647250e-04,3.301677703857421875e-01
-1.578674447383432433e-02,-3.692844431105041236e-01,-4.525303742284454700e-02,-2.351684802557728327e-03,-2.072245682652469612e-03,-1.782493187841887672e-03,3.397817313671112061e-01
-2.530841146325953084e-02,-3.494498532046980133e-01,-4.787915969655497095e-02,-8.176831011244346456e-03,-1.035965519452136142e-02,-3.840313539905834922e-04,3.142991960048675537e-01
-1.910079798864805500e-02,-3.606388112272850277e-01,-4.835061763019701808e-02,-6.744215676675385449e-03,-4.139632617830669298e-03,-1.582109038300973667e-03,3.281908333301544189e-01
-4.230942084247531210e-02,-3.089943587403156666e-01,-3.683407616138206775e-02,-1.738860754749371393e-02,-1.467775383264913885e-02,9.132645474264129704e-03,2.727904617786407471e-01
-5.676047411040578694e-02,-1.690806667274429853e-01,-5.302304447540154286e-02,-1.186657024030795399e-02,-7.707318090265711033e-03,2.670650632319853876e-02,1.256580650806427002e-01
-5.702042727637123692e-02,-2.341265233379546951e-01,-4.488526103028238345e-02,-9.635773350568636875e-02,1.132349422818044148e-02,6.498976527452325624e-02,2.730808556079864502e-01
-4.670000773383448101e-02,-5.540158744498742127e-01,-3.152675482738465096e-02,4.148869636883514844e-02,-6.931833141484349502e-03,3.121597546249610042e-02,5.229996442794799805e-01
-3.958897321001018932e-02,-3.610284601933463344e-01,-2.135102436599152498e-02,-1.165295812065818889e-03,-1.815624767641407528e-03,2.040064046039415189e-03,3.309755325317382812e-01
-1.796961261997895298e-02,-3.497430420434940457e-01,-4.741848171579389482e-02,-9.907433349602269221e-03,-6.632180562080832939e-03,3.335216483080975076e-04,3.187432289123535156e-01
-2.591872707332400216e-02,-3.289639506924869616e-01,-3.978258963802050463e-02,2.394955239573713646e-02,8.815316015849948214e-03,1.663128133062944866e-02,3.010164499282836914e-01
-6.503182706671518931e-02,-4.106617213328662697e-01,-3.424825451049010039e-02,-1.381528362817918687e-02,-8.520251263872997624e-03,9.959382808203841655e-03,3.635042011737823486e-01
-3.319627556778774469e-02,-3.308405245742952472e-01,-4.417848020576126133e-02,2.870738598575737002e-04,1.084343696660538918e-02,1.066189696564532339e-03,2.929169237613677979e-01
-3.815814822731750100e-02,-3.374312579268439194e-01,-3.416371960806059704e-02,-8.166334618483341717e-03,1.250003942390641443e-02,6.784298370278798746e-05,3.023980855941772461e-01
-6.534102435460374669e-02,-3.712602182439778686e-01,-4.147752216952564630e-02,1.132420196718393612e-03,-7.438906720969213487e-03,1.312464128865389662e-03,3.187967240810394287e-01
-7.679112662229253816e-02,-4.034732377773553313e-01,-2.371870113371304933e-02,5.353921689144365906e-03,1.501871138045114077e-03,1.740250339302198967e-02,3.575989305973052979e-01
-6.897047864342001344e-02,-4.350415792747848176e-01,-2.279927822838068163e-02,-3.458947226823237252e-03,-2.894696218854853932e-03,-8.246905214280723928e-03,3.915441632270812988e-01
-8.306617957437797961e-02,-4.401058312302127962e-01,-2.288770505596771088e-02,3.324603862278543986e-02,7.858813682637541195e-03,-1.851378556641682495e-03,3.950902819633483887e-01
-3.621431850329002999e-02,-3.691290663848905140e-01,-3.919573358583161582e-02,-2.913618649792772955e-04,-6.973623620144973542e-04,-2.464067825053457318e-03,3.314641714096069336e-01
-6.982411643932058543e-02,-4.725532665600321036e-01,-2.137291544055736070e-02,2.589195793008917945e-02,-1.294137595408528449e-02,-1.983285676826214081e-02,4.332951009273529053e-01
-3.811248293278279853e-02,-3.763763950815248727e-01,-5.598928256947030557e-02,9.845868969932359497e-04,-1.646702305449368377e-03,-1.708757368593426381e-03,3.297192454338073730e-01
-6.566551428787055500e-02,-3.732657855780243117e-01,-3.959761153761945374e-02,-1.702951260295930717e-03,6.298763930581602853e-03,-8.207596007001618198e-04,3.216297626495361328e-01
-4.670336838199867779e-02,-3.665726674249972228e-01,-4.781249602578820090e-02,-2.353687746475979260e-03,-2.071773850650240195e-03,3.329257152296533095e-04,3.193628787994384766e-01
-6.016658016926400288e-02,-4.394520567090787755e-01,-2.675071570104803342e-02,4.324469664588983381e-02,-8.320797782491682129e-03,6.590072935436872698e-03,4.044707119464874268e-01
-7.037076842152194256e-02,-4.166171264800877516e-01,-3.262242238701626440e-02,-1.932517034908882774e-03,-8.379233893067373345e-03,-1.415638085171213277e-02,3.677019774913787842e-01
-3.269376011688887584e-02,-3.669731194453421663e-01,-2.429992012645018629e-02,3.149409564094646902e-04,-1.079731943303094931e-03,-1.138173905454633065e-03,3.385656774044036865e-01
-3.167811132856747369e-02,-3.676425166128282074e-01,-2.984752349955249739e-02,2.990444659461606071e-04,-3.201917380693989658e-03,-1.063875482315343414e-03,3.369345068931579590e-01
-3.278113208526034494e-02,-3.679904032401011271e-01,-3.460252616773148993e-02,6.281980877006531142e-04,-9.516894341859641207e-04,-3.721989762348149001e-04,3.343087434768676758e-01
-3.096596639821957986e-02,-3.699919530218512276e-01,-3.033009519964777190e-02,-4.276292282314190151e-04,-1.335126897073708133e-03,-6.853227893642699483e-04,3.393551409244537354e-01
-4.345946632574715363e-02,-3.494975170113171492e-01,-2.538725335509550707e-02,-2.421494169226344473e-03,9.786110291510644391e-03,-2.252596658852672878e-02,3.183454573154449463e-01
-3.650562179347362213e-02,-3.679758259730235848e-01,-3.087307555895196787e-02,-2.836279136131383220e-03,-1.266610372033648508e-03,1.137577762899376344e-03,3.343711495399475098e-01
-3.591554096318856637e-02,-3.682596203117299849e-01,-3.333249361365481223e-02,-6.781906891940462983e-04,-3.914311576478774184e-04,-1.027819948448585423e-03,3.336506187915802002e-01
-2.739739729834562987e-02,-3.660771503472340926e-01,-3.225404178799812227e-02,-9.738621227437678756e-04,-3.338645441550000016e-03,9.959319209623849426e-04,3.363361060619354248e-01
-3.668308703549474914e-02,-3.661833754469029367e-01,-2.527433317555090320e-02,-1.246808985142254089e-03,-2.025689967572292475e-03,-3.710394176349435919e-04,3.353761732578277588e-01
-2.683855668006564221e-02,-3.668171225051750084e-01,-2.842706400732421257e-02,-3.704360987250139244e-04,7.363037044565431217e-04,-3.400211631493609671e-04,3.391906321048736572e-01
-3.398615772248737843e-02,-3.682751864487083804e-01,-2.916424757580089733e-02,-5.316255872225254678e-04,-1.071968605396106475e-03,-1.215053891966840242e-03,3.367388248443603516e-01
-3.286211501524614886e-02,-3.656533169427067520e-01,-2.807560715297843790e-02,7.325917290653576660e-04,-5.046891163372381126e-03,-2.019029944177862506e-03,3.353446722030639648e-01
-4.698016311498706687e-02,-1.706830184514360749e-01,-4.749043830692895735e-02,6.750258736196779186e-02,-3.578603452602050969e-03,6.442190800887444280e-02,2.034657150506973267e-01
-1.938554385937381330e-02,-3.666500907484585570e-01,-4.326746872354206297e-02,-5.679732487008405661e-04,-2.499061328679971165e-03,8.540397683674612501e-04,3.359933793544769287e-01
-2.752328087166036608e-02,-3.701741414100684358e-01,-3.257808704828538127e-02,-3.708032816979854747e-04,-2.507090609992026955e-03,-1.579548618639772394e-04,3.401800692081451416e-01
-4.537550349806628025e-02,-2.406754200799445798e-01,-4.726410973177166963e-02,7.910875993728365418e-02,-8.444456828283073563e-03,9.315707782643904700e-02,2.877499163150787354e-01
-2.748122338924730013e-02,-2.504929254102298275e-01,-4.836438455766936539e-02,4.722221259678933275e-02,1.383237709554603276e-02,2.915680473389561586e-02,2.352175861597061157e-01
-6.099719880810904743e-02,-2.374672941503615242e-01,-3.797048410409906150e-02,-1.199422758593361865e-01,6.845653522448478731e-03,-8.529390571133350224e-03,2.815186381340026855e-01
-2.964230808734262534e-02,-2.872467673741769256e-01,-5.929694975837471183e-02,2.290040363073308355e-02,9.644929166181873820e-03,3.131095550042510209e-03,2.479557543992996216e-01
-3.525019993076378144e-02,-3.694762918185793277e-01,-3.688011992792783467e-02,-1.426117326693793566e-04,4.865173971061316732e-04,6.563590099534472684e-04,3.334172070026397705e-01
-3.635259462307315059e-02,-3.672881463184380912e-01,-4.094611910993647963e-02,2.067735411124670564e-04,-1.777743156270938929e-03,-1.491216804813075411e-03,3.286876380443572998e-01
-3.685808810088447851e-02,-3.688154782359466255e-01,-3.208757657754961190e-02,-1.420497536188947791e-03,-2.007673839441614927e-03,2.502592723859897901e-03,3.344233930110931396e-01
-2.959710342485528944e-02,-3.696521355375588236e-01,-4.289412422231071720e-02,-4.437856091654635493e-04,3.737170646510611159e-04,-2.276234657223326352e-03,3.336301445960998535e-01
-3.467544419403308098e-02,-3.681828327129184619e-01,-3.701964533036498917e-02,-1.997619488935445473e-03,-2.553667899675880586e-03,-1.071758755252340831e-03,3.323941230773925781e-01
-3.282935144444813769e-02,-3.699856071264607804e-01,-3.617364853745418107e-02,5.933887752226713530e-04,-9.064440390976658164e-04,-7.385880824132693074e-05,3.355018794536590576e-01
-3.362147858569683456e-02,-3.693382910534174224e-01,-3.781643946419746549e-02,1.530994541497973779e-03,-1.257143859506460425e-03,-3.473839636453685160e-04,3.336572945117950439e-01
-3.505661034969986822e-02,-4.218702737229498290e-01,-4.006277205857716739e-02,-1.021332405395205395e-02,-7.847820798621467711e-03,-5.119213535286082882e-03,3.850840628147125244e-01
-6.164713260837122177e-02,-2.369978252897755322e-01,-3.832709989515963034e-02,-3.652631738085058283e-02,-1.277135829367729951e-02,3.784039270365862490e-02,2.101627886295318604e-01
-4.976980388238565201e-02,-3.870241130588699674e-01,-5.969601298455641525e-02,-1.935359238034744470e-03,-1.574339569348657750e-02,-1.739988864472107868e-03,3.335494399070739746e-01
-7.243687009952894107e-02,-2.011079133159702215e-01,-6.110603486432730075e-02,3.190123520666064954e-03,-5.914799906399196032e-04,9.233942082208889193e-03,1.357569694519042969e-01
-5.055028538994955911e-02,-3.705323476782539371e-01,-5.172790465978326091e-02,-8.117907104243871292e-04,-4.524366826751799985e-03,-5.252583816831040862e-04,3.194953799247741699e-01
-3.090276479324352565e-02,-3.647216084217137499e-01,-2.738619857615492981e-02,4.038163990943318391e-04,1.299314721028826903e-03,-3.879780609471608155e-04,3.355998992919921875e-01
-2.203705450901158325e-02,-3.571507293225394397e-01,-3.627291182462102914e-02,5.869531353405142704e-04,5.617774374762819593e-03,4.192680155458919779e-04,3.283739387989044189e-01
-2.148939974688587884e-02,-3.448851554190247581e-01,-4.249270687656232781e-02,3.860138310271193224e-02,4.125004689228465790e-03,1.492583090226968362e-02,3.215947151184082031e-01
-3.124620363977238802e-02,-3.677539748489894178e-01,-3.113224776697887108e-02,3.802623286567287570e-04,-3.635476897143342153e-03,-1.202924574065860784e-03,3.366307616233825684e-01
-5.947811964735694873e-02,-1.966054395066889893e-01,-4.516486615899029805e-02,8.672006539447593698e-03,-1.622346995251622856e-03,3.946678300865106431e-02,1.608660817146301270e-01
-5.640189254528901741e-02,-2.569759103354629648e-01,-3.275090035037840630e-02,7.859167352607198884e-03,1.109095093713113704e-02,2.302432560162091454e-02,2.183523923158645630e-01
-5.772326147346069913e-02,-2.990472642077313115e-01,-2.434954787546639299e-02,6.724025546624841539e-03,5.879522935868668025e-03,3.331767884913782590e-02,2.664104104042053223e-01
-5.058710535037268252e-02,-2.317877344899157144e-01,-4.014420494415125995e-02,-1.924765319437000965e-02,-1.291356027875983220e-02,2.138961981600826651e-02,1.944716572761535645e-01
-1.718240652480509945e-02,-3.406856665617985502e-01,-5.803998442735161523e-02,-2.835608072438765368e-03,-4.135617537425595631e-03,-2.391663480709231571e-03,3.052846789360046387e-01
-1.680064819101020901e-02,-3.388704384578437034e-01,-4.840423254901239647e-02,-1.256877301466361634e-03,5.785712554521151366e-04,-2.493625633495744976e-04,3.074981272220611572e-01
-5.515954413787529931e-02,-5.223980527946441299e-01,-2.393108972724708461e-02,-2.352582244764443720e-02,-6.058137438183683679e-03,4.049194717659045789e-02,4.904767870903015137e-01
-6.216676021800701668e-02,-1.652218510700825815e-01,-5.437402758168222161e-02,1.609468161461295732e-02,9.344452029096106654e-04,2.295551987552913592e-02,1.176637709140777588e-01
-5.941766222807036424e-02,-3.808478700437312736e-01,-4.073278496886879874e-02,-3.396678307709448397e-03,-8.745192619440202847e-03,4.540085128060440851e-03,3.316598832607269287e-01
-1.913506345599305658e-02,-3.523690278819002764e-01,-4.350909207802786116e-02,4.228649788658223919e-03,-5.276457369445338927e-03,-1.404129833969322040e-03,3.219624161720275879e-01
-1.623355233276399523e-02,-3.632111053716221560e-01,-4.697860207002184374e-02,2.453568952673032631e-03,-1.365440234622089001e-03,-5.494297600952349498e-04,3.327091634273529053e-01
-5.746574431166343033e-02,-5.307433604190260334e-01,-4.019131051935714849e-02,-2.356666500389577659e-02,-1.485286238255648268e-02,-4.938489012219538649e-02,4.920470416545867920e-01
-1.533884909321037160e-02,-3.645528382844872572e-01,-4.914199953829681555e-02,-5.454826398355785283e-03,1.334068707866693749e-03,-6.391492192456446587e-05,3.337411284446716309e-01
-4.298877317820240518e-02,-4.385005159256750162e-01,-3.122035281185259192e-02,3.166324413460167020e-02,-1.017863032810108724e-02,3.797614795852448876e-04,4.056371748447418213e-01
-2.467357865654615234e-02,-3.628796326496960267e-01,-3.100746505950904841e-02,-6.494959040923944157e-04,1.099918189753481884e-03,-8.911101821240792432e-04,3.350948691368103027e-01
-6.640962514474978151e-02,-4.137432647320673507e-01,-3.080869383511430915e-02,-1.837022103608352414e-02,-3.677628273597160179e-03,-1.601300398291666954e-02,3.689115047454833984e-01
-5.181805626179245006e-02,-4.232845506904028277e-01,-4.460429575325439155e-02,-8.341543457590317942e-03,-1.096657832432474874e-02,-9.626086443674223073e-03,3.762533664703369141e-01
-3.631687784005584174e-02,-3.807859131179333056e-01,-3.148911274558527373e-02,-4.951562002860356027e-02,-1.019920615317231050e-02,2.899982339296579975e-02,3.612971901893615723e-01
-3.797668273396744010e-02,-3.828648630079801718e-01,-3.539129653113302909e-02,-1.300886937969341533e-03,-2.309217218015837715e-03,1.002258768920791417e-02,3.466534912586212158e-01
-3.895293084596015976e-02,-4.153890305060553567e-01,-4.371986743049992297e-02,-3.521735984613554027e-02,-4.725927561087439957e-03,1.769944978887408663e-02,3.803419768810272217e-01
-4.004904676456143287e-02,-3.473928623143867078e-01,-3.674884931115386666e-02,-4.773698571655058190e-03,1.684855944589660310e-04,2.276277863126121431e-02,3.116220235824584961e-01
-3.945562046810098533e-02,-3.761199986878547286e-01,-3.584375245734240656e-02,-3.231129257480307593e-03,-2.346470449076116811e-03,-1.807746518393145516e-03,3.385699093341827393e-01
-4.059468903888759084e-02,-3.716460536743467769e-01,-3.121540038108579218e-02,-4.241760786942435496e-03,-2.936962757712816528e-03,1.632571355304581265e-02,3.371460437774658203e-01
-4.125061474509802983e-02,-3.960263853878974727e-01,-5.012884516035544247e-02,5.538377082625943991e-03,4.713409472474690450e-03,-9.341866522644088483e-03,3.510204553604125977e-01
-5.584536811901869013e-02,-5.636301662485478925e-01,-2.988960295535750267e-02,-1.034561403418463865e-01,9.738668979882637508e-03,-1.934949767051481057e-02,5.524638295173645020e-01
-7.944396508027840031e-02,-3.774978340039570890e-01,-3.101471756318535666e-02,-7.159586760508488117e-04,-7.875188877295009838e-04,-2.191514204584801232e-03,3.250135779380798340e-01
-3.599687295957187949e-02,-3.731399138673333615e-01,-3.848716810027032198e-02,-4.642517476982841763e-03,-5.334270657239394749e-04,-1.434595489089434631e-03,3.360114991664886475e-01
-2.499960744668081047e-02,-3.668017177955801289e-01,-3.213065775905410426e-02,-8.854998556660603455e-04,1.157582623406208048e-03,1.124622438856892268e-03,3.383079767227172852e-01
-1.848747274534243146e-02,-3.688782480257712937e-01,-4.671647591460255378e-02,-4.286037189438367256e-03,-1.045328519178891167e-03,-1.373022288153609048e-03,3.372586965560913086e-01
-3.463203874156549344e-02,-3.659078460455350013e-01,-5.422648697983004085e-02,-1.576621779899675495e-03,3.893503946675912420e-05,8.457015426346039437e-04,3.219410479068756104e-01
-5.636438366925664023e-02,-6.451707262012831290e-01,-4.016690276447931751e-02,-3.820233534030236661e-02,8.708245067746887835e-03,-1.419308720427441516e-02,6.014171242713928223e-01
-2.987982798374108628e-02,-3.387753336709941054e-01,-4.362874071140440679e-02,-2.669554719412719004e-02,-4.210960490617489047e-03,-5.490189073569583071e-04,3.058603405952453613e-01
-4.024066660377821625e-02,-3.688631573733859303e-01,-4.372340179754286016e-02,5.721789972723368778e-04,4.858630490430179173e-04,-1.197656010070134031e-03,3.269042074680328369e-01
-4.361397279160530993e-02,-3.687528162816785526e-01,-4.567716495192315762e-02,1.834848140796542428e-03,-3.331715938809112982e-04,1.388131574019129885e-03,3.241371810436248779e-01
-6.313927693992515966e-02,-4.210362202020373479e-01,-3.362175927196384140e-02,6.157436162860574274e-04,-4.076998228765398198e-03,-5.843819245576572195e-03,3.737367987632751465e-01
-2.367750086098822926e-02,-3.100846324194781456e-01,-5.563820662828315722e-02,-1.482637756291195312e-02,-6.736066916391356650e-03,-1.657398798927650467e-04,2.732991576194763184e-01
-3.039371768479438851e-02,-3.431400873360342940e-01,-3.978832532909012953e-02,2.960624183337169299e-02,1.672498469332481426e-03,3.479494340794263979e-02,3.181673586368560791e-01
-2.101170165361172792e-02,-3.614683482335965259e-01,-3.786948881107546350e-02,1.716227880752245298e-03,1.693528327648606514e-03,1.035147832950059120e-03,3.323796391487121582e-01
-4.449460602037008661e-02,-3.544211058658317537e-01,-1.732587227503037952e-02,5.903096521909202525e-03,1.367551316480732776e-02,2.498099622684495091e-02,3.282539248466491699e-01
-4.405367028196305323e-02,-5.408972327736774055e-01,-4.339719412220663375e-02,3.372372206688649399e-02,-6.164177732394937950e-03,4.478652437430555994e-02,5.066788792610168457e-01
-3.884009107385823223e-02,-3.656495982672227085e-01,-2.712712300033096047e-02,2.296324033420185434e-04,1.528541210862417168e-03,3.003909481644313328e-03,3.328720331192016602e-01
-4.333538842167243554e-02,-2.899896807418622657e-01,-3.736984625747832856e-02,-8.215427617291590212e-03,1.036716694630464286e-02,1.116062530734249388e-02,2.514835000038146973e-01
-5.294569669839560566e-02,-3.694202481541948302e-01,-4.563786193505729727e-02,-1.590340182607332938e-04,-1.496380185909039961e-03,7.164946274370488513e-04,3.202040195465087891e-01
-3.092080739506045117e-02,-4.713850184676782740e-01,-5.434299480274279448e-02,-3.408980427400158057e-03,2.056143154392293254e-02,2.837734491441816671e-03,4.307760596275329590e-01
-4.142558032358166498e-02,-3.726997043913573560e-01,-4.824765638664976763e-02,4.770308154272527058e-03,-7.435334661283387247e-04,2.333117303231496773e-03,3.280478119850158691e-01
-3.747510577416754418e-02,-3.691676001559810461e-01,-2.863208391494291571e-02,-9.350936929130907425e-04,-5.551841124486737609e-04,-2.918855145284522082e-04,3.362068831920623779e-01
-3.357410826361333089e-02,-3.697824271310764521e-01,-2.865037244756818424e-02,-2.312153415632407457e-04,-1.270387856107219396e-03,4.595521381788589331e-04,3.387053608894348145e-01
-1.413842388370792347e-02,-3.046039514617323585e-01,-5.750894392011646206e-02,1.658637264504002687e-02,5.629193770691317189e-04,-4.880616374336100476e-04,2.729112803936004639e-01
-2.418995694365261295e-02,-3.711233176463286654e-01,-4.836222532990415435e-02,-5.265010344445536505e-02,1.585951079853059956e-02,-1.756403610214033947e-02,3.500814735889434814e-01
-3.443552526910816092e-02,-3.741318188449895277e-01,-5.511264976002810956e-02,-3.390978413835378513e-03,1.665790396758704776e-03,-6.811541348330442565e-03,3.301199674606323242e-01
-3.555850009956307289e-02,-3.735752033414319606e-01,-6.682494673320994727e-02,-4.081872325124797155e-03,5.416238594165622387e-03,-5.841993090578309579e-04,3.237333893775939941e-01
-2.661322066933145825e-02,-3.663927511896570843e-01,-2.947461310596920236e-02,1.168298574212112498e-04,1.425466628300791619e-03,-6.430585298143553195e-04,3.383688032627105713e-01
-4.048884857334375531e-02,-3.713822064078170504e-01,-4.369736374475702290e-02,7.635152446378715759e-04,1.430834009068945216e-03,-3.186221082627184540e-03,3.293590545654296875e-01
-7.129316992960689492e-02,-3.737756870227669781e-01,-3.463237338492780593e-02,7.864517462722769858e-02,4.257010555278216944e-03,-1.732218640361111311e-02,3.513383865356445312e-01
-4.779539692320294852e-02,-3.999705344287706188e-01,-5.178684243259994158e-02,-1.845819147926351309e-02,2.095168854775967746e-02,3.107211954283060039e-03,3.535612821578979492e-01
-2.841540908344436511e-02,-3.149668084440409022e-01,-2.865628228076996797e-02,3.317055633432094280e-02,-1.199681370073954825e-02,-3.866482293147322641e-02,3.004334867000579834e-01
-5.044429471053327174e-02,-6.069128925670999042e-01,-5.414711544864694859e-02,4.062532522087354547e-02,7.710118194624880628e-03,-7.627395882840076746e-02,5.746244192123413086e-01
-2.220667771524814649e-02,-3.585180938617648638e-01,-3.258624669740650681e-02,1.135870508671037562e-03,4.916967820842936543e-03,1.158826278270442232e-03,3.313649892807006836e-01
-4.350128019561878834e-02,-3.752797359155900514e-01,-4.529694658970460919e-02,1.368418814683107151e-03,2.963923911560933759e-03,-2.687262194014535931e-03,3.309653103351593018e-01
-4.261370977025100149e-02,-3.766691443142727858e-01,-4.077348074754398588e-02,2.051367882487492491e-03,1.847381090124165662e-03,-1.057585471400215686e-02,3.355138897895812988e-01
-4.040724620638344589e-02,-4.216546070357471976e-01,-3.964636474591790027e-02,-8.439816529114652424e-03,4.933921468880750165e-03,-1.789845691589728519e-02,3.832597136497497559e-01
-2.190527117460072670e-02,-3.643876357346335082e-01,-2.978092853673544593e-02,1.625014152867884187e-04,3.389215598693692821e-03,-4.016847305203204220e-04,3.386649489402770996e-01
-2.169271864275403028e-02,-3.608741964883280806e-01,-3.244356966795511332e-02,-2.929864441434741314e-04,2.884388356663636441e-03,4.485221295255868024e-05,3.339736461639404297e-01
-4.313989923439727481e-02,-3.276066287615183592e-01,-3.429083761267004427e-02,-3.522814418737387626e-02,-4.605374624891652932e-03,7.435426598240446605e-02,3.223185539245605469e-01
-5.038144276605105443e-02,-3.511701454790177035e-01,-1.241273645413448756e-02,-2.457135996871608746e-03,-2.006800465263490051e-03,1.413624939563914128e-02,3.224371671676635742e-01
-3.596226944751082510e-02,-3.695681955195091462e-01,-3.066944666929694030e-02,-1.811109314675934815e-03,-1.617356283345457906e-03,-5.314040686431549315e-04,3.363111317157745361e-01
-2.417840041709226617e-02,-3.693171820503171610e-01,-3.479944261875916878e-02,0.000000000000000000e+00,-1.625513653370494298e-03,-5.800590390349474315e-04,3.399658501148223877e-01
-4.627127870577323054e-02,-3.897858460944130798e-01,-3.634309950965808333e-02,-3.775352508768780452e-02,1.179430804299286609e-02,7.181809284439115426e-03,3.554705977439880371e-01
-3.773879256468881671e-02,-3.658026123791912054e-01,-4.059493555017565369e-02,-5.813764860845877132e-04,-3.641454546182675608e-03,2.191470952847769313e-02,3.289051353931427002e-01
-2.656580671357039458e-02,-3.652946651846576409e-01,-3.124213518059190675e-02,1.109160343757414338e-03,5.331562286771587139e-04,-1.361903749616674643e-04,3.364219069480895996e-01
-2.381639763875319227e-02,-3.575833286383344189e-01,-4.760378153263702949e-02,-1.211406724717841235e-02,-9.678279858097542376e-03,7.070401036774836244e-03,3.238795995712280273e-01
-5.096466439087418698e-02,-3.665784673979691766e-01,-4.790798156801705232e-02,-4.200704529093789814e-04,-6.944250995297201329e-03,-1.453037211649965471e-03,3.173919916152954102e-01
-5.366439417842666648e-02,-3.664485073438139562e-01,-4.672280558811395257e-02,9.134707416198923355e-04,-1.866760068332967834e-03,1.185712197650384348e-03,3.163391947746276855e-01
-5.355552797354205807e-02,-3.650711879598277365e-01,-4.644264600064590409e-02,1.114979424528278083e-03,-1.895491476636941954e-03,5.094255734994313032e-04,3.151565790176391602e-01
-5.179098144750335364e-02,-6.300036437344944673e-01,-3.956861025765595619e-02,-2.078174403564976916e-02,-7.543835825436537301e-03,-4.488096239937231641e-02,5.908093452453613281e-01
-3.899227090326659595e-02,-3.428080609210201191e-01,-3.881275651948805361e-02,-5.468502019803626185e-02,-1.258402064666671108e-02,2.826582017818580692e-02,3.228031992912292480e-01
-4.391709815124572591e-02,-4.091952994424765677e-01,-3.794557108845000859e-02,2.194336796482700136e-02,-6.339086095028759887e-03,-1.597033607441153760e-02,3.714503049850463867e-01
-4.829783192400811942e-02,-3.642325609661760111e-01,-4.845173784840782483e-02,1.728253588607482052e-04,-6.023580027837498288e-05,1.707505622830670343e-04,3.158580958843231201e-01
-6.270744663525812390e-02,-2.214486680396238194e-01,-4.963751391709607386e-02,-1.169577995504595194e-02,-3.608941368236191598e-03,1.411226644629834381e-02,1.687935143709182739e-01
-5.046294147648686113e-02,-3.650363635515654348e-01,-4.929836100604344240e-02,5.671515923861372190e-04,-2.416548825656607020e-03,1.137489960964620803e-03,3.151928186416625977e-01
-5.641775309267665905e-02,-3.661194894474200101e-01,-4.152914304492026643e-02,1.916249260859561243e-03,-5.534562809018570700e-03,-9.089520693477664420e-04,3.175740242004394531e-01
-3.222714078858011921e-02,-3.691037312437343565e-01,-3.814381128342957117e-02,-6.439131991814855136e-04,-1.219359022005657000e-03,-1.737288203421784001e-03,3.339796662330627441e-01
-4.861285580527727190e-02,-3.314955040402217112e-01,-1.087015380308579970e-02,-2.300607042091707376e-03,-2.004508319469602146e-03,1.318788008214436848e-02,3.044233024120330811e-01
-6.166183133980672471e-02,-1.903854475984842753e-01,-6.233756535203756333e-02,-1.567615321127646677e-02,-7.498648340722228328e-03,2.138103337432200809e-03,1.319199502468109131e-01
-4.380611518474954169e-02,-3.700175159526886137e-01,-5.642786722683292011e-02,-1.111378233727177475e-03,-2.102125029145371707e-03,-2.142050343903161968e-03,3.201352059841156006e-01
-2.490343179388258832e-02,-3.653066192345819641e-01,-3.778417573930421824e-02,-1.600616324971046401e-03,-3.663194723606173937e-03,5.063043244554609346e-04,3.342219591140747070e-01
-5.403702549467674643e-02,-2.599484377667511392e-01,-4.547892177664369928e-02,7.809608764179562512e-04,-1.100485954465714108e-02,1.861689377514712392e-04,2.111876308917999268e-01
-5.162011471527563899e-02,-2.951047288552561820e-01,-3.501273369097022969e-02,-1.189226068024052882e-02,-1.206894741699176057e-02,1.413719900413031201e-02,2.550784945487976074e-01
-3.947769751743870903e-02,-3.685824934203757453e-01,-4.244842788368970166e-02,6.902590678570705816e-04,-4.463107935301432886e-04,-1.381312829399150262e-03,3.276413679122924805e-01
-3.233591465337440352e-02,-3.351273454369756433e-01,-3.048772443434523416e-02,-1.439226759864442075e-02,-9.004919460758343056e-03,1.165026227130056685e-02,3.058063983917236328e-01
-3.191319220376116761e-02,-3.701692349762687462e-01,-3.587231172924509881e-02,-6.637141231199807177e-04,-2.522863565086513795e-04,-3.716974251476234210e-04,3.362968266010284424e-01
-2.355066264098437667e-02,-3.644813082922612746e-01,-3.424710147688565798e-02,-2.302613599222125707e-03,-6.555402397199928434e-03,1.118760202100277596e-03,3.359314799308776855e-01
-4.980116791935619569e-02,-3.666714185341509724e-01,-4.712437793138264663e-02,-1.550942855784608575e-03,-9.697815974964202508e-04,-8.084340540457145372e-04,3.182359337806701660e-01
-2.083627467473957162e-02,-3.677114238216075970e-01,-3.998950935072584367e-02,-2.925005799281578910e-03,-1.059504953127729694e-03,-6.291347569652724165e-04,3.377508819103240967e-01
-2.346977870741304151e-02,-3.652697691920003265e-01,-3.828821357120365532e-02,-2.209145053292357105e-03,-3.005269917041240336e-03,7.574771034820518105e-04,3.347018659114837646e-01
-4.147504210034633210e-02,-3.720658518638809142e-01,-5.171068118040447747e-02,2.862879026957791933e-03,-2.350955292091338154e-03,1.529787393119995658e-03,3.256676793098449707e-01
-3.157546874585279162e-02,-3.692113727375707644e-01,-3.260268214634023942e-02,-1.257691468746895429e-04,-2.548731197006199375e-03,3.143934797762581610e-04,3.371528685092926025e-01
-2.465824834192441306e-02,-3.647118135954304785e-01,-3.816565088538610706e-02,5.699081130704668815e-04,-2.248137833754533174e-03,2.530943831914076678e-05,3.335292637348175049e-01
-2.931573131745714156e-02,-3.705019537701195187e-01,-3.585475347378482003e-02,4.851917940704905246e-05,-5.780810118145132724e-04,-2.593961937531202725e-04,3.379659652709960938e-01
-3.583588505621183862e-02,-3.698096075379929681e-01,-3.479784964417675930e-02,-1.265372784810158552e-03,-7.547524684791697639e-04,-1.858838569265014332e-04,3.345038294792175293e-01
-4.390129072580424563e-02,-3.666489441239947911e-01,-1.636653335278870358e-02,-1.387550915980925639e-03,-1.559683770481491184e-03,-1.607000636569969401e-03,3.373897075653076172e-01
-4.392840686925136851e-02,-3.827749309923046406e-01,-6.078927643395706792e-02,4.417478084202399249e-03,-1.156979306695383493e-02,7.843072626556079133e-03,3.317117393016815186e-01
-5.624735327835507503e-02,-2.975847320903679538e-01,-3.446701692395835737e-02,3.035692751814540041e-02,7.708766730004932947e-03,5.535641369662554212e-02,2.758811712265014648e-01
-4.562462704438845218e-02,-3.705275584426762636e-01,-6.080945350941918681e-02,7.220504822491400493e-03,-9.621139655056638179e-03,8.321528745125712778e-03,3.185918331146240234e-01
-4.377338364427646455e-02,-3.652229718318893426e-01,-2.602903924901288357e-02,-2.818304932524667936e-03,-1.411870597562594424e-03,-4.737453857515080188e-04,3.307251036167144775e-01
-4.708463664440275254e-02,-2.705347838923740644e-01,-5.518038863026414331e-02,2.492842293569014211e-02,-6.902932233396491882e-03,1.079168878749114935e-01,2.917737364768981934e-01
-4.352432101881982540e-02,-3.621524226858796047e-01,-1.603084159085418903e-02,1.905883549513965344e-04,-2.173497953562040889e-03,-2.311029670441762038e-03,3.332720398902893066e-01
-4.649917659783411872e-02,-3.669971398707936316e-01,-1.672816378574842888e-02,6.352446823696692108e-04,-6.729322618430819396e-04,-2.646530819997077854e-03,3.364080786705017090e-01
-4.224012662795127715e-02,-3.609759020021682252e-01,-1.905510108150756943e-02,-8.016676201066758002e-04,-3.044748504428208304e-03,-4.373390579164177232e-04,3.309837579727172852e-01
-4.932621652363708420e-02,-3.722954097443008092e-01,-5.789864173956939253e-02,9.267045983223852175e-04,-1.291748120395047432e-02,-1.535323568920992678e-03,3.195687532424926758e-01
-5.718714320118399586e-02,-3.705294976300115284e-01,-4.269013563162368796e-02,1.217336806340080252e-04,-3.211598251302377315e-03,1.887384040478766152e-03,3.209015429019927979e-01
-4.219672818872584330e-02,-3.729436902381729757e-01,-4.851937465430077034e-02,3.587323108453727236e-03,-6.568057597648376293e-04,2.737433716850368615e-03,3.277265727519989014e-01
-4.156178485059332239e-02,-3.716628092604858935e-01,-5.409743162854160903e-02,3.040551835466282372e-03,-1.742364301013875219e-03,-6.450593829290339866e-04,3.240738809108734131e-01
-4.045970865704387465e-02,-4.400371185322918266e-01,-6.344357809170218798e-02,-4.599072478362005445e-03,-1.704230533438498563e-02,6.807197113595346311e-04,3.897982835769653320e-01
-4.114203826894960447e-02,-5.618107067333266702e-01,-5.023603627712788788e-02,-1.979224349448898204e-02,-7.458327073609370174e-03,4.232134657817448326e-02,5.226461291313171387e-01
-2.708178387844008272e-02,-3.268598608121576210e-01,-4.320496978422465328e-02,7.496331905288857291e-04,1.087956758415437215e-02,4.148429632406623190e-04,2.926615178585052490e-01
-3.406977388703315290e-02,-2.308539335875295917e-01,-5.759268968855588838e-02,3.872657833677341926e-02,3.890725600996091261e-03,2.007947189976603403e-02,2.010039985179901123e-01
-3.971312473530395903e-02,-3.717776692248094816e-01,-4.695845552581837112e-02,1.142858880513868917e-03,-7.090870725352584622e-04,1.525816805403316457e-03,3.285206854343414307e-01
-4.707617949963238679e-02,-3.767850009906735798e-01,-4.570386977111774718e-02,-3.732482272362062665e-03,5.253682871522649157e-03,-4.688934839791601347e-03,3.306853771209716797e-01
-6.804642834588425782e-02,-5.101940379359647393e-01,-2.375541539126799218e-02,7.843526066910823380e-02,5.554608292855903531e-03,-3.886760364141296498e-02,4.900206923484802246e-01
-3.938897860459972255e-02,-6.168952566644136937e-01,-3.917811418354044672e-02,-5.684531990162201842e-02,1.345267064393517592e-02,-1.903621179279760614e-02,5.873325467109680176e-01
-6.806463492899476886e-02,-3.839608187365010084e-01,-3.474344291248585015e-02,7.095663660839636152e-04,1.109782726201273724e-03,-2.934616811921004088e-04,3.338146209716796875e-01
-3.426879078765418529e-02,-4.113044798158097537e-01,-4.089973465857583979e-02,-2.030975958079208818e-02,5.897375780705441974e-03,-4.096009478572466660e-03,3.756220340728759766e-01
-5.899738527094267049e-02,-3.799039010133073435e-01,-2.949069173431365098e-02,-5.566195697107012216e-03,-1.690751988927551713e-03,-1.035736698393782251e-03,3.367866873741149902e-01
-4.854629855589739917e-02,-3.745388776980276835e-01,-3.882664226147480857e-02,-5.939144608903889483e-03,7.691242173680363755e-04,-3.091687817269064571e-03,3.311652839183807373e-01
-4.313224912112997855e-02,-2.787807230397700842e-01,-2.034550020193938435e-02,8.938780641037407521e-03,7.783284657444045941e-03,4.928689090991069527e-02,2.629223167896270752e-01
-2.999867940900087515e-02,-3.670650824387198252e-01,-3.264352090017626218e-02,2.246294929862737181e-04,1.411142324589340644e-04,-6.802484634602397459e-04,3.357541859149932861e-01
-2.942407156866923279e-02,-3.678411901757432378e-01,-2.937733151529114961e-02,4.226805331718762088e-04,-2.347078446803598244e-04,1.619276511071809715e-04,3.384416401386260986e-01
-2.849274870621056055e-02,-3.673238884870478338e-01,-2.920823174268993849e-02,-5.684663229833325721e-04,4.458630824041122441e-04,-2.483914128392055711e-04,3.384765386581420898e-01
-3.166436672668040964e-02,-3.634377164549467132e-01,-2.457120526713496567e-02,7.391215617178623553e-04,1.464268297608953013e-03,6.064591949963166759e-04,3.353898823261260986e-01
-5.283931333796655638e-02,-3.231466311738061536e-01,-1.263897516473735938e-02,1.265459452737413993e-03,2.712459358377204179e-03,4.840801671556515737e-03,2.926529347896575928e-01
-2.983767011660967694e-02,-3.643588642066496464e-01,-2.679633805246292577e-02,-3.182870225973685263e-04,2.719772505747199403e-03,-4.240590829821226518e-04,3.360864520072937012e-01
-3.364693713942655540e-02,-3.581113543111789088e-01,-2.538192922568896503e-02,1.649442290123073664e-03,7.664430532383452281e-03,5.643491051412563922e-04,3.289567232131958008e-01
-1.994359025667688523e-02,-3.578944928736503828e-01,-3.362924055399317547e-02,3.845195521203354817e-03,5.848879942354424932e-03,9.216886981436025420e-04,3.315457105636596680e-01
-2.580278696441276609e-02,-3.555390838851416047e-01,-3.103080251175011073e-02,2.728084016410615357e-04,7.576627768653767213e-03,6.064844060206218707e-04,3.274187445640563965e-01
-3.954949278876679353e-02,-3.202927824639739685e-01,-2.994417707011103047e-02,3.787264512059898558e-02,1.711310985338843071e-02,4.175354721304062877e-02,3.033436238765716553e-01
-3.103420634471697193e-02,-3.639379341062638495e-01,-2.275476451776801967e-02,-4.560033996141378055e-04,1.391579448196965645e-03,-8.452303432096451487e-04,3.371324241161346436e-01
-4.277327108363430941e-02,-3.769307615109972476e-01,-3.082704606926316149e-02,-8.048570202141721447e-03,1.016570926660838835e-03,2.419868666950865995e-03,3.406036794185638428e-01
-4.818149543954429459e-02,-3.467079797705617805e-01,-1.451991093696654300e-02,-2.421408541766993249e-04,-4.719959899765282380e-03,5.825249125141890999e-03,3.169682025909423828e-01
-4.988619505121155706e-02,-2.347344373523018168e-01,-5.379468380592977717e-02,-2.224052799443217501e-02,1.083931275080241008e-02,9.796070854255894966e-02,2.531540393829345703e-01
-3.942914382510805116e-02,-3.623243775406851386e-01,-2.160491108130610516e-02,1.653542296113730574e-03,6.523480216337971746e-03,6.329260245228334782e-03,3.325514197349548340e-01
-4.922365534236232409e-02,-3.512309702688735102e-01,-9.435587907399428653e-03,7.220182721613475202e-05,1.089598410761631522e-03,2.151653694003351214e-03,3.237673044204711914e-01
-4.690099605326057686e-02,-3.653392967455728613e-01,-1.371136561210919980e-02,-1.984693372085562929e-03,9.277896087443131398e-04,6.049854436381019336e-03,3.364484310150146484e-01
-3.583897281324749384e-02,-3.569100366993188667e-01,-2.650318361761890007e-02,3.968574770979099785e-05,6.541575937463471428e-03,-2.919591624239709890e-05,3.260362148284912109e-01
-9.475053669769192138e-03,-8.550550814128471400e-02,-9.645090116216451653e-03,-2.139439903227992670e-02,3.047174434219938367e-03,2.801716219767259874e-02,9.758909791707992554e-02
-2.646508476164022294e-02,-3.697968403551370464e-01,-3.792781435317267580e-02,-2.346182280415791323e-03,5.274863935342991722e-03,3.497394840563565282e-04,3.378948271274566650e-01
-4.021975456282628203e-02,-3.782065341759380805e-01,-6.404146469434260358e-02,1.645546066790863540e-03,-5.097993753403167860e-04,-4.579544726686617627e-03,3.268377780914306641e-01
-4.142700512521373113e-02,-3.788838857488321388e-01,-5.178084660932558148e-02,-1.492718943130268844e-03,3.248199084234343575e-04,3.596804527895147621e-03,3.324698209762573242e-01
-4.491832965076023032e-02,-3.829296564769637534e-01,-4.289459713272827934e-02,8.265549842722970039e-03,-3.930540381906302318e-03,-8.285525646169038813e-04,3.394011855125427246e-01
-3.924047579019951382e-02,-3.754060021111831347e-01,-4.339590103364140972e-02,3.249658455531493056e-03,-3.076244498901817569e-05,-1.215187706200877025e-03,3.341612219810485840e-01
-3.656765418791320388e-02,-3.745929083334992860e-01,-3.377967584502346299e-02,3.026972051561277986e-03,1.150656301211976486e-03,2.460724331293658268e-04,3.394744396209716797e-01
-3.096355027671654492e-02,-3.778342820663868062e-01,-6.231324901755917745e-02,7.837956321946896098e-04,-7.427471529109937447e-04,-4.912823139914769197e-03,3.324210047721862793e-01
-3.373146887640421365e-02,-4.046955293489927774e-01,-7.283162576709067970e-02,7.381284922143798279e-04,2.369859041809356959e-03,-8.616387076096709103e-04,3.530709743499755859e-01
-4.539968462626318979e-02,-3.692690598815251968e-01,-2.228715388143405474e-02,-9.099581439406300223e-03,5.117680222202428651e-03,-1.084360187172070909e-02,3.370322287082672119e-01
-4.383866031934419150e-02,-3.639563847704944122e-01,-1.901287189891986973e-02,1.028522494420081295e-03,5.762047575519652076e-03,-3.959615415966913896e-04,3.333798050880432129e-01
-4.080185839068728448e-02,-3.716013181793701436e-01,-2.476592300713117978e-02,4.505255361035165199e-04,2.210207349943447974e-03,2.068819190535876526e-03,3.391433656215667725e-01
-5.872338642289384736e-02,-5.749691365065907611e-01,-3.719811576602033432e-02,5.453543832977239547e-02,7.113932249342030424e-03,-2.013488086103782521e-02,5.370062589645385742e-01
-5.068791364709242936e-02,-2.171720220369083854e-01,-2.391453190298892251e-02,9.028632761510277382e-02,-6.403695196944354101e-03,4.677072084637110688e-03,2.398637682199478149e-01
-2.082139594405946204e-02,-3.661296137096400893e-01,-4.497839197681709200e-02,5.773965058690564388e-03,-1.635959807332543247e-03,-4.480645925054510537e-03,3.341376781463623047e-01
-9.456904467432664108e-03,-3.571684283523068326e-01,-4.964576252736607742e-02,4.417091050014189564e-03,9.342123231438390725e-04,6.973808085360605263e-04,3.295556604862213135e-01
-1.558601320372429710e-02,-3.565087114763126896e-01,-4.426686215226552368e-02,4.063839095527463190e-03,2.099408369033955394e-03,7.535134113347251045e-04,3.276238739490509033e-01
-2.613171383756270061e-02,-3.370619809007646128e-01,-3.681530020539051928e-02,1.543801273065717981e-02,1.549193030374802424e-02,1.708903261551160402e-02,3.094850778579711914e-01
-3.667454631572306112e-02,-3.547833115760121170e-01,-5.269663308119343359e-02,1.017813066014384288e-02,-1.617602815424496040e-03,4.488508101556558383e-02,3.204930126667022705e-01
-5.834577812507404926e-02,-3.633512337995049579e-01,-3.439653037237273836e-02,7.958298663764715175e-02,-3.193469544895106895e-03,-1.578871362510514756e-02,3.473979532718658447e-01
-1.364880221077957589e-02,-3.587048443935806352e-01,-4.648487802384150547e-02,1.250068668266615494e-02,4.682930545416253039e-03,2.628400693833079886e-03,3.307066857814788818e-01
-1.293772395571797518e-02,-3.333306466094077547e-01,-5.053441888873456966e-02,9.794681176022244917e-03,4.744247082109631641e-03,1.656082252773066060e-03,3.039456903934478760e-01
-2.777192254484418810e-02,-3.640052936562453434e-01,-4.383591188955672513e-02,1.170311045316335154e-03,1.876548140534558401e-03,1.540221963823544234e-03,3.285292685031890869e-01
-3.755531335194779718e-02,-3.681603963144933767e-01,-3.795443606586501595e-02,3.556021123253503679e-03,3.893784602427663270e-03,2.584523411373187279e-03,3.305622339248657227e-01
-7.040195019032353951e-02,-3.470070676667835197e-01,-4.374396068197243526e-02,1.241318803314152425e-01,2.174720762050712675e-03,3.424822842476620693e-02,3.665432631969451904e-01
-1.454138913364985686e-02,-3.410573270065124230e-01,-5.211412938705974052e-02,1.109462881090138509e-05,-2.967943837853547623e-03,-2.197056923310360317e-04,3.094880282878875732e-01
-2.655536083029660932e-02,-2.895164161942671566e-01,-5.941343227476213185e-02,1.736593337220591763e-03,-6.195084895613665703e-03,-2.025502480326605518e-03,2.484436929225921631e-01
-3.230740778925217382e-02,-2.838459412091391965e-01,-3.317358451639874917e-02,3.249493193141223674e-02,1.675277085617101966e-02,2.137124899186406551e-02,2.615997493267059326e-01
-4.269123550154672875e-02,-2.508918936788893106e-01,-6.142266528553477073e-02,2.604409551248277731e-03,-8.453326805646234343e-03,-1.126905670532857111e-02,2.010327875614166260e-01
-4.582117636157242990e-02,-2.708880971044178576e-01,-6.131217061875127161e-02,2.231243775682780622e-02,3.516101392257046498e-03,1.083493275733544564e-01,2.900998592376708984e-01
-6.233545237631950287e-02,-1.117521749035855771e-01,-5.193726542353495346e-02,-4.167421628450560661e-02,6.773521535567836836e-03,8.567229093079088698e-02,1.744450181722640991e-01
-1.730191153652617386e-02,-8.366087244455250316e-02,-4.127543630283649762e-02,-2.159426634507562864e-02,-8.896405531017422333e-03,2.370178240773297001e-02,8.190898597240447998e-02
-5.658749273178460826e-02,-1.986777740776836942e-01,-5.932084571931618006e-02,-5.616887217298129065e-02,3.664122441796217790e-03,-1.261564251708686794e-02,1.726015806198120117e-01
-4.172187058426013451e-02,-2.365187840797788876e-01,-5.769306023725202098e-02,-2.792776226853335014e-02,7.148818147817803496e-04,-3.029146243535765434e-02,2.004592418670654297e-01
-4.947268849773667210e-02,-3.985576247463641364e-01,-3.955806917573669035e-02,-9.070645218772966549e-04,-4.554206123285606429e-03,8.167871656932808658e-03,3.545200526714324951e-01
-5.653264718853458909e-02,-2.270176078638225514e-01,-2.961191081335215469e-02,-1.769172737148057978e-02,-4.713928992282344875e-03,4.937180628233895502e-02,2.066344767808914185e-01
-4.600897145186454151e-02,-1.720214265210383564e-01,-5.788873207072674915e-02,3.738193277740155251e-02,8.032079134310261825e-03,4.211607944100730777e-02,1.556609570980072021e-01
-4.119583328763823382e-02,-2.690044447662982563e-01,-5.112081352377689791e-02,-5.748916722137309421e-02,-1.067727559524363733e-02,-9.840628022859754243e-02,2.984002232551574707e-01
-6.291227965965651148e-02,-1.671778674964834455e-01,-5.393966954245510426e-02,7.762134420087486025e-03,-9.881067399211695274e-03,-1.258862189951674357e-02,1.132979840040206909e-01
-2.104469208041538641e-02,-3.246951908564017497e-01,-5.380221629426786001e-02,-1.335006357037206784e-02,2.873522536486353054e-03,-5.297961622454978523e-03,2.897818088531494141e-01
-6.112135626627396290e-02,-4.890364175147413617e-01,-2.776659873280695745e-02,9.473243144859751219e-02,-2.614656419403641081e-03,4.588741746700876478e-02,4.814114868640899658e-01
-6.022111671544751188e-02,-4.169486095959355487e-01,-2.985547184386136421e-02,1.692273294438242557e-04,9.140202176485727123e-03,-1.116116388233993201e-02,3.736753463745117188e-01
-3.055408872005203891e-02,-3.690248521175237828e-01,-4.048239485590106324e-02,6.307321717565636749e-04,1.204461761415818186e-03,8.024479422306579407e-04,3.336286246776580811e-01
-3.104292084200702129e-02,-3.699177271728180116e-01,-3.277597408958131397e-02,-3.050881932758483595e-04,-6.622055642291136465e-04,-7.984814632418467655e-04,3.380168080329895020e-01
-5.134115213737662498e-02,-3.717288678354703224e-01,-3.700288966232213872e-02,5.981442802468560360e-03,-1.723324706149348016e-03,-2.572865933416644893e-03,3.279996514320373535e-01
-5.140643702965493056e-02,-3.795130843832342782e-01,-3.726764778168653591e-02,-2.885813212958516800e-03,1.256215918748126927e-04,-3.752137784114429643e-03,3.354998826980590820e-01
-2.944927796453714053e-02,-3.674399996576425131e-01,-4.297400408703540287e-02,2.016532973992566922e-05,3.980680983257358025e-04,-2.899438420021567282e-03,3.314741551876068115e-01
-5.948838696062318243e-02,-2.801364487208138354e-01,-2.280631796589976945e-02,1.046229120824800907e-01,-1.092162576129087834e-02,3.998034328161881312e-02,3.100257515907287598e-01
-4.191507925635912235e-02,-3.635135594637944889e-01,-2.204245897499490514e-02,2.819481037349884714e-02,7.678124992473359285e-03,4.106286759385288643e-02,3.432662189006805420e-01
-3.579132362752746044e-02,-3.720467237085688939e-01,-3.653606489454885864e-02,1.034967036144258425e-02,-1.646179969985587079e-03,-2.962315703721759338e-03,3.364128768444061279e-01
-5.751188919880412254e-02,-1.943837730476618564e-01,-6.978167436737482687e-02,3.015581263601873978e-04,-3.130211474604000996e-03,-2.027772472582613922e-02,1.358981132507324219e-01
-1.374089017375515476e-02,-3.616607602335255023e-01,-4.925620644221034850e-02,-7.553538568819985304e-03,3.099015846185996376e-04,-2.261730945374565947e-03,3.318732976913452148e-01
-1.595861044014351693e-02,-3.650718361113143295e-01,-4.522711227224546215e-02,4.052220675490184119e-04,2.710994112204235043e-03,5.709942121670636642e-04,3.354730904102325439e-01
-4.645831488338115350e-02,-1.892954292943219985e-01,-4.497775535583142109e-02,-5.236016428937335931e-02,-3.111748628442575007e-03,-1.626696637969120285e-02,1.722317188978195190e-01
-4.298392060796456249e-02,-2.642569309276909806e-01,-6.155154379115134605e-02,-6.795437388760097730e-02,3.588512715562215682e-03,-5.365527138774596992e-03,2.432619482278823853e-01
-2.336597660254974285e-02,-3.686150181614297194e-01,-4.202751072221649897e-02,1.376009620293814663e-03,4.918536324292528423e-04,1.298206360624296150e-03,3.363238573074340820e-01
-1.470212368398346459e-02,-3.690013803495262312e-01,-4.790794527597758146e-02,-2.504586598701077482e-03,7.904093019373788003e-04,8.990540179349594411e-04,3.389526605606079102e-01
-1.796626410809623597e-02,-3.608659713983318196e-01,-4.493212796705707557e-02,-3.401787525332530381e-03,4.099050504257887098e-03,-2.588753043824047222e-05,3.303723633289337158e-01
-4.226441020094279244e-02,-1.512933378350429237e-01,-2.665757181888739336e-02,-5.205432639177542259e-02,-5.611293415283222577e-03,-4.506687871652113181e-02,1.677765399217605591e-01
-3.929149783016963604e-02,-3.664443077561650997e-01,-2.778010962824108143e-02,-2.688197470975292971e-04,1.066669460247781417e-03,2.460405337580039587e-03,3.330904543399810791e-01
-5.018339328903775876e-02,-5.800473678198332372e-01,-5.242351332501787864e-02,4.455995062019274533e-02,-1.189447514784171440e-02,5.459611216895109836e-02,5.430444478988647461e-01
-4.111618828005107751e-02,-3.693689869582020835e-01,-3.792503945749990668e-02,-1.256243257644239697e-03,7.252471409907102536e-05,3.104658427080909857e-03,3.299109637737274170e-01
-4.425263022271072599e-02,-3.675785175858647946e-01,-4.211874209866890706e-02,-2.068600553731052630e-03,-4.543389425597010108e-04,3.435366339762082537e-04,3.244193792343139648e-01
-2.648644899639743255e-02,-3.553445176561393914e-01,-2.912650146465298184e-02,-5.291875629333022682e-04,7.841529885371933614e-03,-1.099292650014945276e-03,3.278343081474304199e-01
-4.780499867724949392e-02,-2.511880397165364709e-01,-4.300605801955616203e-02,1.600916436602094206e-02,1.206467756402924800e-02,2.208046564613247182e-03,2.087675482034683228e-01
-4.469245023611695400e-02,-4.267911905203173317e-01,-4.262032118327199748e-02,3.934441423651868081e-02,-1.254895866086418177e-02,5.531189181674023986e-02,4.013603031635284424e-01
-3.334943728608696922e-02,-3.312135666159046199e-01,-3.532474251847605995e-02,1.158198680415607057e-02,1.314244692919444915e-02,7.510838623836317389e-03,2.987112402915954590e-01
-4.662598778426849111e-02,-3.661453558345509340e-01,-5.107412185106396940e-02,2.778777987942449788e-05,-5.823112172297218239e-03,7.659044310478574326e-04,3.174816966056823730e-01
-2.482292156148240003e-02,-3.665221452483448106e-01,-4.448253548962702308e-02,1.545806244419195563e-02,5.063609893071933411e-03,1.830711624137275340e-03,3.335131406784057617e-01
-4.252879701727077522e-02,-4.218200361970629308e-01,-4.767162469018336457e-02,9.258201196971790198e-03,-1.149679993015646079e-02,1.340586739384552056e-02,3.783259093761444092e-01
-5.528245039558721263e-02,-3.312090868668821630e-01,-1.159244522638815111e-02,1.345913458307621685e-03,-7.750653143521301486e-05,1.182120021325191138e-02,3.008724451065063477e-01
-3.154282077307926646e-02,-4.199033474620200712e-01,-6.299596842819997489e-02,3.184170437079806432e-02,-1.235532274767799088e-02,1.331172844900937735e-01,4.430105090141296387e-01
-2.093634681512357432e-02,-4.457906242570420785e-01,-7.964603083375433601e-02,-5.102822727165237660e-03,-2.527904267120611743e-03,5.959889651784620532e-03,3.990097343921661377e-01
-3.368826273467231958e-02,-3.561419733859723658e-01,-2.720131130828828958e-02,4.838807545730824770e-03,1.014672750318008215e-02,3.588312058518602042e-03,3.263862133026123047e-01
-2.925143598768667474e-02,-3.653318407680606894e-01,-2.901636945979749194e-02,-1.596767608683180377e-04,2.137857738062591464e-03,-1.759791497081380205e-04,3.362186551094055176e-01
-4.841279584881728881e-02,-3.697162080290148922e-01,-3.963099994375517132e-02,-1.545929172567773145e-03,-8.267809472856575172e-04,-3.336818169051965644e-03,3.258484899997711182e-01
-5.082760707676053924e-02,-3.700416161881658894e-01,-4.851853545359248454e-02,-7.726827824676528586e-04,-6.061403766584223980e-03,4.801186901254053088e-04,3.205506205558776855e-01
-4.590053594016095528e-02,-3.720787192413322897e-01,-1.975685811175312279e-02,-4.345576305803388988e-03,-2.266773242784496638e-03,7.917546172226667955e-03,3.403870165348052979e-01
-4.189748112886533538e-02,-2.736355260783205345e-01,-5.578220952893062079e-02,6.306244435984038887e-02,-2.857287831987337118e-03,7.911098316280168463e-02,2.853216528892517090e-01
-4.275566768631676451e-02,-3.464700460712307750e-01,-1.439375414221902294e-02,4.670701887213546096e-04,-3.616213733869496488e-03,6.348112617839202915e-03,3.190948367118835449e-01
-2.657919256713373035e-02,-3.887302649270778510e-01,-6.682435908462217022e-02,-1.419814048153274048e-02,9.212845846244722622e-03,7.540006064918871632e-03,3.452943563461303711e-01
-4.887103469841105885e-02,-3.648677188486144640e-01,-4.982749355295677807e-02,-4.362364676012740554e-04,3.603004016055487597e-04,-3.963852479230255002e-04,3.155218064785003662e-01
-5.150026367798661575e-02,-3.656947951541207331e-01,-4.996292093145854318e-02,-2.763156624750468925e-04,2.550274480787869530e-03,-5.564739775411257743e-04,3.149988353252410889e-01
-3.975330978929632331e-02,-3.713954173431298633e-01,-6.221925566978103728e-02,-9.828386065615509707e-04,2.301400694716865085e-03,6.543542276693720735e-04,3.210305571556091309e-01
-4.958244711378043124e-02,-3.652857792668890990e-01,-4.891461626191762058e-02,-3.837904543131335101e-04,3.348490461640862446e-04,-2.898652362012409567e-04,3.160394132137298584e-01
-4.703808504528639300e-02,-3.673981119646182458e-01,-3.941543295729200980e-02,-2.958508944836172119e-02,1.581356081693181467e-02,3.765524951938884184e-03,3.294681012630462646e-01
-4.779420421698218902e-02,-4.299794321129710717e-01,-4.916704975651964293e-02,1.896068458328969714e-03,1.740780997805722527e-02,1.907666417520964336e-03,3.827186226844787598e-01
-4.538900780757539055e-02,-3.652137699606865517e-01,-4.977734687177255701e-02,7.785441922361780853e-04,7.566940211017730280e-04,-4.830527480250331189e-04,3.176600039005279541e-01
-3.177580764335885544e-02,-3.235898181345998603e-01,-3.791505600214295502e-02,1.580554780341226692e-02,1.497906051839613221e-02,1.760454770143364545e-02,2.928376793861389160e-01
-2.097606981725864961e-02,-3.045466393240221503e-01,-6.012561051620182728e-02,4.731714400924150882e-02,-1.175610280245512236e-02,1.184027257865952198e-01,3.464567363262176514e-01
-4.126217317789683536e-02,-3.780005888055555374e-01,-3.762340641069986114e-02,-8.145826788231787241e-03,-3.622236923821938685e-03,1.524342827609586649e-02,3.399512171745300293e-01
-4.566837583389360411e-02,-3.537855856563806300e-01,-2.009796641495614766e-02,-8.309786430931257253e-03,-7.339150766175818984e-03,1.604099117889924361e-02,3.234338164329528809e-01
-5.087531310090832870e-02,-3.410462120338852987e-01,-2.917203429810964754e-02,1.056155657639686572e-02,1.981991281883636446e-03,7.244898572139767123e-02,3.272015154361724854e-01
-3.496098505931097278e-02,-3.633066528860812161e-01,-3.643334456115560060e-02,-5.227889552326233302e-05,2.290017634309614910e-03,2.669522909216963890e-04,3.276363313198089600e-01
-5.922581390245856836e-02,-3.331886245101626232e-01,-1.750810270898306431e-02,5.230810431821992894e-03,3.947481128740518326e-03,1.484462692640706703e-02,2.983538210391998291e-01
-1.866877802257854713e-02,-3.670874143701858827e-01,-4.581791119519515454e-02,-4.095453220257149959e-03,-1.343239099112735792e-03,-4.930967661865238907e-04,3.357526063919067383e-01
-2.160143391399162865e-02,-7.328721182594609418e-02,-3.970618285772661155e-02,1.102826560621222515e-02,4.279573358214151975e-03,4.565779655601890502e-02,9.347277134656906128e-02
-2.193530184663333715e-02,-3.637365813426611805e-01,-4.004027557418873839e-02,-8.671023561991374803e-04,-1.482959358307452775e-03,-7.989334583582016975e-04,3.331341743469238281e-01
-5.123546174393135699e-02,-2.964741784939509683e-01,-2.490863370252011100e-02,-7.043189260219321832e-03,-8.456257507803063497e-03,8.657245511086591495e-04,2.601097524166107178e-01
-5.277390716983264285e-02,-3.155357785054806463e-01,-1.947586946107743300e-02,-6.533530804380025328e-03,-8.296709356381451461e-03,2.079307284969769340e-02,2.837844789028167725e-01
-3.969947737309982572e-02,-3.407585423736280150e-01,-2.412286895229802386e-02,-2.343732553733256577e-02,-1.631371692248615932e-02,2.255540595039448939e-02,3.155015707015991211e-01
-4.000014447071764678e-02,-3.584800651563351259e-01,-1.991805120059823853e-02,-1.515260264578861902e-03,-1.442470873582418376e-03,5.314357438211182207e-04,3.290022313594818115e-01
-4.903872752310900474e-02,-3.732351406382923287e-01,-4.144544860479233706e-02,-3.580147281295276238e-03,1.288693503532614302e-03,-2.186076277371347149e-03,3.281469941139221191e-01
-4.585002094720908028e-02,-3.749974731231299208e-01,-4.027633055375259841e-02,3.433647654310895570e-03,-1.087400896605561799e-03,-5.271548315853280195e-03,3.321535289287567139e-01
-7.115775412514843690e-02,-3.811031124077427501e-01,-3.383002140877841568e-02,-1.412089220467090643e-02,2.472953150331469452e-03,-5.033426901859887684e-03,3.312425017356872559e-01
-4.326054158393520532e-02,-3.270491776243353854e-01,-2.110379006243986999e-02,-2.891085416156908422e-02,-1.131832866094738092e-02,5.347596727102051084e-02,3.143017888069152832e-01
-3.601458839978292914e-02,-3.684329242412238692e-01,-2.511367094767302799e-02,4.315415698128053593e-04,-2.907202172631228546e-03,-1.633091281844958756e-03,3.380508124828338623e-01
-4.561750032022687806e-02,-3.690419074909954134e-01,-2.179249562081972402e-02,-9.501914366090760330e-03,-7.196469101314397453e-03,1.874638381658364286e-02,3.381672203540802002e-01
-1.682665312511114064e-02,-3.599981833260548214e-01,-4.518575567918492464e-02,-1.399983838229222838e-03,-1.588449442623148444e-03,-9.623945665427147481e-04,3.299320042133331299e-01
-5.487058520220065155e-02,-8.712539497022159241e-02,-4.526884836887344610e-02,-3.214207987547978290e-02,-9.466775336019165807e-03,3.332270738831991791e-02,9.023123979568481445e-02
-3.955068981509217430e-02,-3.753816840519503262e-01,-4.404604384508617465e-02,1.530702467731778977e-03,7.467144324242488539e-04,-3.120574891118958229e-03,3.336628675460815430e-01
-4.396986228280427844e-02,-3.555805797752057962e-01,-5.013795547098931493e-02,-4.810712842250410709e-02,2.308880442636954133e-03,4.218060842906604796e-03,3.197334706783294678e-01
-4.717609366648950475e-02,-3.222419283780791899e-01,-3.227407757729394699e-02,-1.991342099947718616e-02,-1.095418380180237725e-02,5.304927487747361503e-02,2.999576926231384277e-01
-5.213535623364901062e-02,-3.733014740948428223e-01,-3.828132792262663175e-02,-6.468838422765565803e-03,4.102352328775977879e-03,-4.269055894279828040e-03,3.286635875701904297e-01
-5.973654789984271518e-02,-3.727067122349960182e-01,-4.091530294913955923e-02,-9.778986953528196434e-04,1.632211915472129475e-03,-7.034351781119966987e-04,3.228116929531097412e-01
-2.636760943392685297e-02,-4.207727339859792526e-01,-7.501767708915635380e-02,-1.104119806937082018e-02,5.631880819488597339e-03,5.900664454244908090e-03,3.732287883758544922e-01
-3.672485985531648289e-02,-3.695876933923151197e-01,-3.332883871058110736e-02,-1.100855356602711745e-03,-4.619544354076166883e-04,8.057650651781895134e-04,3.345830738544464111e-01
-3.362614900285698649e-02,-3.784340652848454667e-01,-6.155538677741871634e-02,-1.450528967137554043e-03,-2.346723419333785789e-03,5.564609786215430308e-03,3.319006562232971191e-01
-3.394224742115398152e-02,-3.761136047867723042e-01,-6.607579819022534051e-02,2.056131680269641070e-03,-4.192521277975188275e-03,-2.728731723286595846e-03,3.274238407611846924e-01
-2.526224427934950501e-02,-4.392855058830278381e-01,-5.993017519309065677e-02,-1.661235887775618092e-02,-5.570425453213871322e-03,-3.105628062896625009e-03,3.990159630775451660e-01
-3.942587295703395278e-02,-4.569557306092422722e-01,-4.916175764754579514e-02,-3.856777767174787014e-02,1.272998769067947705e-02,-6.643168179365706305e-02,4.342223405838012695e-01
-3.736312368081572133e-02,-3.783290553473914186e-01,-4.967436832869170926e-02,1.627896903352134348e-04,8.781670954196704390e-04,7.391814779056286953e-04,3.349860310554504395e-01
-5.800218869381421061e-02,-4.222037779734305607e-01,-5.637198778905795626e-02,-4.298487491874133232e-02,-1.854203962700056232e-02,-4.357322570487909968e-02,3.814571797847747803e-01
-5.732481724238702725e-02,-3.699061067448636830e-01,-4.573171044319863932e-02,-1.579095666223380694e-03,3.823684799406916034e-03,-3.442311093703727214e-05,3.186166882514953613e-01
-4.869344441912745736e-02,-3.813201664164057592e-01,-4.667546876727032834e-02,1.401063340604146367e-03,3.759747369538234563e-03,2.365268714607870505e-03,3.337377905845642090e-01
-5.113882232402242045e-02,-3.658464335983010463e-01,-4.807873077570251619e-02,-3.525795110099670887e-04,2.352344580525031828e-03,-8.886288607362538951e-04,3.162793517112731934e-01
-4.871223382537273605e-02,-3.693511893416838165e-01,-5.323654145415419869e-02,1.764349675181295981e-03,6.251400773626071897e-03,-2.404711607186465951e-03,3.186268508434295654e-01
-4.266317321582212274e-02,-3.645645678302656956e-01,-1.838280933769449732e-02,-8.368502159344163021e-05,-2.563664683002250463e-03,-1.592402614362637510e-03,3.347435891628265381e-01
-3.612603339502601374e-02,-3.609064721052879787e-01,-6.785133562628961612e-02,1.812754528422020478e-02,2.013616037372030487e-02,-1.205319925370620243e-01,3.767906129360198975e-01
-4.082594536511088834e-02,-3.645975827953104043e-01,-2.049238991383196817e-02,-3.257755731089390940e-04,-2.243936649611003638e-03,-1.369820087071487716e-03,3.344338536262512207e-01
-3.682749091013125253e-02,-3.670294005836765017e-01,-2.383274870878160367e-02,1.689435011895209951e-04,-2.509443820637363709e-03,-2.806047559253487369e-04,3.369158208370208740e-01
-6.406827881710031036e-02,-2.971016091470996545e-01,-3.065276759093828185e-02,8.542822986561619120e-03,-1.693222521918300028e-02,-6.097492387826414922e-02,2.746651172637939453e-01
-4.102795579803247827e-02,-3.669681611458677217e-01,-2.158926536839456123e-02,1.098571121365548263e-03,-2.973226048553404607e-03,-4.619698218153705377e-03,3.362214863300323486e-01
-4.144984209343272052e-02,-3.719628359761563141e-01,-3.171325730047698521e-02,-9.130862707847502190e-04,-1.453493042372648505e-03,-5.038893577978137590e-03,3.356139361858367920e-01
-4.497535035339320086e-02,-2.098413050312097350e-01,-4.561408982182429267e-02,-5.196207138346538301e-02,2.546594500130447154e-03,-4.620675170955616806e-02,2.039625048637390137e-01
-2.724660186799424122e-02,-3.735671916606046472e-01,-3.850426783086356719e-02,-1.445401159106600962e-02,8.678369620234750725e-03,-4.127852176590823124e-03,3.421545624732971191e-01
-4.301102344196115757e-02,-3.724444884979860038e-01,-4.297291688629038819e-02,7.051900852469711193e-04,-2.827723530073448545e-03,1.812637133116567221e-03,3.295061588287353516e-01
-4.259674038133752505e-02,-3.726199797154086668e-01,-4.132216530505070096e-02,-1.139858507114737025e-03,-2.658769177292117438e-05,3.095038620817790014e-03,3.307117223739624023e-01
-5.054167297548500803e-02,-3.677466599915706347e-01,-4.341776084519692602e-02,2.432547423090526174e-04,-1.002118141551842923e-03,2.825634340637309637e-03,3.208685815334320068e-01
-3.898403449321610759e-02,-4.148488402671225428e-01,-4.540721802813173225e-02,-2.318943007986289800e-02,1.300111294220395071e-03,-4.894638915925340894e-02,3.843265771865844727e-01
-3.306837559551137340e-02,-3.480853002093997062e-01,-4.979302190699144703e-02,-2.339340006328279389e-02,-3.866854490638247559e-04,-3.072740187844029414e-02,3.141998648643493652e-01
-5.824089870178847383e-02,-2.554138773529724404e-01,-5.020189491388071801e-02,-2.169908369716488580e-02,6.323823720380258168e-03,7.463634387805750752e-05,2.050839364528656006e-01
-5.189988949510514205e-02,-3.673666306597725972e-01,-4.646080455285246658e-02,-1.518224414169478320e-03,-8.187846946675989696e-04,-1.078926409142513289e-03,3.182406723499298096e-01
-4.294598986233681692e-02,-3.739938663325328427e-01,-4.602754456064248045e-02,3.557492513040480097e-03,-2.110335714313662115e-03,3.146961027241203419e-03,3.296408355236053467e-01
-3.949290874379646210e-02,-3.693348305314531621e-01,-3.321829366091008651e-02,-1.104613537497036628e-03,-3.249936630509700150e-03,-3.943112334993888884e-03,3.331466317176818848e-01
-4.049056820338896301e-02,-3.758214026367538985e-01,-3.427353087126437658e-02,-6.099288694648147399e-04,-2.607991172220169591e-04,-8.351645161098284875e-04,3.384872078895568848e-01
-3.477258482546115304e-02,-3.768414533874685501e-01,-5.320445853700514482e-02,-8.172044392496831747e-03,1.779145370205377193e-03,1.710627223812278760e-02,3.348635435104370117e-01
-4.517488341115957762e-02,-3.617448653758413846e-01,-1.861884328603906347e-02,-2.651457997705547378e-03,-2.786866176671828899e-03,2.577400590701987848e-03,3.307460248470306396e-01
-3.846647868560576500e-02,-3.750718099359147684e-01,-3.566445608054776006e-02,-7.959144443112371042e-03,-4.443806479384858864e-03,1.009325825259280163e-02,3.388348817825317383e-01
-4.711185206056439645e-02,-3.656282475256901754e-01,-1.956742129905875149e-02,4.525452300057828639e-04,-8.100790571948536783e-04,9.855961097350990005e-03,3.335846960544586182e-01
-3.382745968943080828e-02,-3.700145391983720167e-01,-3.598338348268517728e-02,4.191312336526578728e-04,-1.193381916788593912e-04,-1.609861735454157401e-03,3.351267576217651367e-01
-3.607436447451646544e-02,-3.695378881295444673e-01,-4.186872121731258223e-02,-4.565629046837360030e-04,-1.665916294288624644e-03,5.320757533085727648e-04,3.306192457675933838e-01
-3.006922550934644500e-02,-3.799413004595901255e-01,-4.210858713947085441e-02,-1.079835437046613826e-02,-5.056459009172973272e-03,2.241648274190615690e-03,3.446516692638397217e-01
-3.511821833859617159e-02,-3.035404848873666794e-01,-4.708344451264538655e-02,-1.130933565121590954e-02,1.176049838250761183e-02,2.320863202108276345e-04,2.641604542732238770e-01
-4.463743323164541532e-02,-2.726009239183255772e-01,-5.108171748734487150e-02,-2.297235635740839735e-02,2.099082416094070168e-03,-2.488321579418448053e-03,2.283742576837539673e-01
-6.708883512969628093e-02,-2.092373154606569363e-01,-5.696104119859204257e-02,-8.382334970795324303e-03,1.420792853347527338e-03,-1.287821589247613308e-02,1.498759686946868896e-01
-3.068775978766929979e-02,-3.695821088345546124e-01,-3.500088561367716011e-02,4.423282931056265999e-04,6.207545503917005422e-03,-9.171780060513403570e-04,3.369347155094146729e-01
-6.501046032486626491e-02,-1.914369030518991988e-01,-6.800769547518485669e-02,-1.552311363731235377e-02,-3.847271049146249768e-03,1.846029083276043946e-03,1.280282288789749146e-01
-6.537864014236541288e-02,-1.848658744562997058e-01,-5.146929729869945125e-02,-1.713758071510586420e-04,-1.273110712592953543e-04,-2.189482104149402530e-02,1.325554400682449341e-01
-3.350213333764755219e-02,-2.600244683301206061e-01,-5.328361145944774530e-02,-3.822970723337502236e-02,-1.296605859364845410e-02,-8.323450672649415627e-02,2.699917852878570557e-01
-3.959353613565821939e-02,-2.661600470438290067e-01,-5.331934773694502194e-02,-2.687318206463167047e-02,4.196529579539803358e-03,-2.523089475068815771e-02,2.292162775993347168e-01
-6.107735332431452058e-02,-2.590876400736364382e-01,-3.731404249255788896e-02,5.255431331418340983e-04,2.929810924995442795e-03,-3.094536648494271638e-02,2.176638990640640259e-01
-4.779910166373813052e-02,-6.886853702433554103e-02,-1.037590263472204510e-02,-1.713635571953144032e-02,9.751489244644893223e-03,3.437432348824080719e-02,8.569669723510742188e-02
-6.077468581762082711e-02,-1.193310778621625989e-01,-6.505995441142245483e-02,-7.592749037083186547e-03,-2.601077611959384459e-03,-9.707293451083320521e-03,6.059889122843742371e-02
-5.804750866764192552e-02,-2.743868703566312295e-01,-3.120234540603533668e-02,1.139303154832404207e-03,9.143974846925280800e-03,2.570805617627715603e-02,2.357296943664550781e-01
-6.620884578561303524e-02,-2.512414959695551953e-01,-4.138677599895208836e-02,8.723905276468698960e-04,-1.330741538959107247e-03,2.808164699928793889e-03,1.986891180276870728e-01
-2.906854016780347633e-02,-1.370398807696482646e-01,-1.438970430562932362e-02,4.657614081008205897e-02,-1.021713491303928925e-02,1.851195393199841013e-02,1.459706425666809082e-01
-5.941192197154345628e-02,-1.226810149645347764e-01,-4.918726462506432806e-02,1.572838977785035244e-02,6.895300618072727804e-04,6.724941472115501806e-02,1.380777060985565186e-01
-5.224246939446823557e-02,-3.559613820720647359e-01,-5.492237780053092766e-02,-5.489618385000714917e-02,8.310652487278448464e-03,8.368347440353191002e-02,3.488483428955078125e-01
-3.558102113312499454e-02,-2.028535596338713887e-01,-4.939146460654356141e-02,5.788085513226164103e-02,-3.395418436105650164e-03,7.178696058494818399e-02,2.267289012670516968e-01
-1.686734025998469499e-02,-3.532369361726119816e-01,-4.822590601990824066e-02,-1.459370066282572511e-04,-3.718846808420918793e-03,1.205055024070459914e-04,3.219027817249298096e-01
-1.314622170261879608e-02,-3.494231850932366656e-01,-5.051484593118489574e-02,5.573122175246616496e-03,-3.299043927021711332e-03,-1.749725554409998964e-03,3.194486200809478760e-01
-1.349108079809921423e-02,-3.586835697723416150e-01,-4.703085624389334585e-02,2.695397433266098763e-03,-1.239939001069685805e-03,7.537634347883691126e-04,3.297471702098846436e-01
-3.522713832729268413e-02,-3.534394869058492539e-01,-3.562771177874261841e-02,1.641440368474216330e-02,5.713486463750191285e-03,1.192586087803180518e-02,3.201010823249816895e-01
-4.048904411931097957e-02,-3.678135198185820132e-01,-3.117552432957079733e-02,1.877266625483139397e-04,3.052961096039709474e-03,7.974714336235314699e-03,3.324085772037506104e-01
-4.001999892630786482e-02,-3.655003816718248588e-01,-4.357145942803454519e-02,-4.050437358553134280e-04,-3.657701315970416029e-04,4.760568162349583499e-04,3.237217068672180176e-01
-4.908104786447994861e-02,-3.405926038626315711e-01,-9.546075197151421277e-03,-7.118305421657262610e-04,-2.090839242846329570e-03,7.367640696226410678e-03,3.134396076202392578e-01
-4.188898652317488147e-02,-3.703197999501328663e-01,-3.419955756589841689e-02,-1.466715787138735475e-02,1.105239357537437205e-03,3.134603121499620476e-02,3.377101421356201172e-01
-4.101123931818735635e-02,-3.560758173677249783e-01,-1.783467144444411678e-02,7.801968770477813765e-03,8.609780137401041103e-03,1.208477529726135168e-02,3.285545408725738525e-01
-3.446053911052637808e-02,-3.635231539306575943e-01,-2.725071469375217603e-02,5.302583499385075646e-04,1.687274752635951718e-03,3.527766700859159116e-04,3.327407836914062500e-01
-3.621585637112140210e-02,-4.129895879758009869e-01,-4.553374379734999311e-02,5.840938052228865709e-03,-4.581626546800692500e-03,3.719381297532617370e-02,3.779550194740295410e-01
-5.515982894415351334e-02,-3.676629355791430909e-01,-2.118709464313375812e-02,-3.425810950712905156e-03,-1.562942257422230774e-03,2.400850975119360117e-02,3.334676623344421387e-01
-3.412294895149395324e-02,-3.867442042592582618e-01,-6.145428042504165467e-02,-7.883696563029998425e-03,-4.811203167759128645e-03,1.076405484796479984e-03,3.401624858379364014e-01
-4.647446717425370022e-02,-3.710602458886802513e-01,-4.522390102788284572e-02,-9.200007133916691168e-04,1.171091165844264726e-03,-1.845488612439144917e-03,3.252387940883636475e-01
-2.948867244714245550e-02,-4.365068827266937457e-01,-7.116371873233184875e-02,3.351207550838088828e-02,2.135915626181586133e-02,-9.485266238819914375e-02,4.268102943897247314e-01
-2.346665231218250658e-02,-6.037185373488980211e-01,-5.892593468724396932e-02,-2.587176383151127551e-02,3.363268579961430430e-03,-5.814608206671651597e-02,5.740724205970764160e-01
-4.636890614818041378e-02,-3.644537051862122290e-01,-1.675451901560406909e-02,5.786849891196359057e-04,2.449084574542284651e-03,-2.678263591853597553e-03,3.339391350746154785e-01
-2.444073947479086240e-02,-2.877361367931580149e-01,-5.200035844655948036e-02,3.540909885674104612e-02,-1.099109695311187296e-02,-2.618428939812438710e-02,2.626944184303283691e-01
-3.121016331882955908e-02,-3.773355145073116756e-01,-7.137803468824470421e-02,-3.984637092746734819e-05,4.175808825677981102e-04,-3.787378769401899062e-03,3.279583156108856201e-01
-3.886170539349878550e-02,-3.999805140978769380e-01,-6.796590992525479435e-02,5.082667162348140054e-03,1.282853063971732197e-02,-5.821752640028180978e-03,3.484489321708679199e-01
-3.978367124788746712e-02,-3.866451231195634497e-01,-3.572305571022797721e-02,2.307204935575678760e-03,-2.565551212084938703e-03,-9.436978148717493561e-03,3.493432700634002686e-01
-2.305524239319614588e-02,-3.585644047690901282e-01,-3.810643687792185375e-02,6.924028257133249195e-03,-4.851075390405889740e-03,-3.539015771801355854e-03,3.286261260509490967e-01
-4.361916730293635691e-02,-3.660379449221853321e-01,-3.026858329012974136e-02,-5.642167207401417020e-04,-5.016331961120614044e-04,-1.344551517028553416e-04,3.292997777462005615e-01
-4.477100245838094850e-02,-3.998747460754356053e-01,-6.949961378763198916e-02,4.266497228837358435e-02,1.171043229603598891e-02,-7.737505136568886832e-02,3.765128850936889648e-01
-4.844654252315166998e-02,-4.111172316245129688e-01,-2.720758232582989877e-02,1.665943267995272439e-02,-6.620570912874717759e-03,2.019307397938118961e-02,3.766580224037170410e-01
-4.265490108094524557e-02,-4.360472279968705123e-01,-4.364170482003312812e-02,-6.780548040936159801e-03,-1.713117409310992850e-02,-8.009260148320036798e-02,4.178912937641143799e-01
-4.620436262989295606e-02,-3.970506353926949727e-01,-3.039795390911617656e-02,-2.086490344976631856e-02,7.712931348088528614e-03,-2.236107948486736746e-02,3.631433844566345215e-01
-4.094286442437798657e-02,-3.887391033628204706e-01,-4.438828114241702427e-02,5.522936786653756883e-03,2.118924722055885517e-04,5.020987840532907358e-03,3.463279604911804199e-01
-4.404689972864400671e-02,-3.711724347226236231e-01,-4.750921965298506022e-02,2.523613420516257737e-03,-1.172099378603953974e-03,5.109493782519892091e-04,3.254450857639312744e-01
-5.818014969600464326e-02,-3.751385093024736106e-01,-4.675358022216813403e-02,-8.486767712217417603e-02,-9.002456599400904605e-03,-6.380980829245533337e-02,3.718611299991607666e-01
-3.214820307905043306e-02,-3.638659936317693022e-01,-3.935221589436392609e-02,-8.979981105972794937e-04,8.356348910712348404e-04,1.021785956857808580e-03,3.281867504119873047e-01
-3.172450827814596308e-02,-3.641574628709645656e-01,-4.164192889283806209e-02,-3.716652880340262362e-04,7.336713743451764693e-04,-2.391926494094403360e-04,3.275902271270751953e-01
-3.334116625230518216e-02,-3.800424786771132712e-01,-6.654167201034542900e-02,-3.906710262078862822e-03,-1.329501051902210081e-02,9.469980668590103007e-04,3.322230577468872070e-01
-5.091895788494070485e-02,-3.711722287146721477e-01,-4.334040950174888884e-02,1.384096581492142656e-03,-2.140432267945237884e-03,-2.742143423346652710e-03,3.241738677024841309e-01
-5.932749688692477708e-02,-3.993007590975566901e-01,-3.903095627401809153e-02,2.106875498831774305e-03,-1.155108151353453558e-02,5.873318530944046309e-03,3.512992262840270996e-01
-2.639750585434157137e-02,-3.635564653942940372e-01,-3.200553601399604153e-02,-1.203475345488268250e-04,1.105325771569665681e-03,4.488586723517269781e-04,3.343966603279113770e-01
-1.057176423716890690e-02,-3.505165711908522219e-01,-4.885180345943344882e-02,9.142637241518545947e-04,-3.198748570323543990e-03,-6.752636206113597230e-05,3.225646317005157471e-01
-1.685801036276118881e-02,-3.585891105494778408e-01,-4.447255719725873302e-02,1.471277167679896011e-03,-2.883240593294630026e-03,-1.887541497231261115e-03,3.288587629795074463e-01
-1.217969717332384461e-02,-3.527904238331159847e-01,-4.645751994219217418e-02,2.881862552965278393e-03,-9.510914650904932904e-04,-6.643660882471711824e-04,3.248756527900695801e-01
-1.590882054677753010e-02,-3.510757802028923735e-01,-4.748894619964733055e-02,1.617893594819992545e-03,-1.367003615918616338e-03,1.369611994727734010e-04,3.205668330192565918e-01
-1.131378751452122300e-02,-3.521453673887245950e-01,-5.539399030171705818e-02,5.399652840965127841e-03,-1.481521586577830762e-03,-2.163994481436851570e-03,3.212372958660125732e-01
-1.304302123643964750e-02,-3.494798502253626538e-01,-4.352317568441309292e-02,4.973410368626370905e-03,-4.409889699105939975e-03,-1.382981560441931719e-03,3.224940598011016846e-01
-9.129671844162551286e-03,-3.508855893539292725e-01,-5.181830453845226447e-02,1.220355144823128974e-03,9.183275587806093263e-05,-8.461088156970722083e-04,3.225476443767547607e-01
-2.938950517525609762e-02,-3.664245975009788325e-01,-3.649796085585287064e-02,1.987968625201941113e-03,1.693875116271333992e-03,4.156817816960190512e-04,3.335691392421722412e-01
-2.951468497225870347e-02,-3.572688121816105511e-01,-3.428130660751739500e-02,5.682596490747753026e-03,6.645762769740587612e-03,1.950818976120168415e-03,3.257668018341064453e-01
-3.271281200100040198e-02,-3.777975478492341388e-01,-5.802884086214973869e-02,-1.456660355714004722e-03,-3.145468028978612165e-06,5.551989743808870628e-03,3.332972228527069092e-01
-4.238038543199705577e-02,-3.622144762563974663e-01,-2.255182706470808263e-02,2.108936162243139824e-04,9.177722334807511930e-04,-1.484782922902383017e-03,3.302092254161834717e-01
-3.682403504943379535e-02,-3.190476987557655519e-01,-2.869648486243447927e-02,2.588847114161970872e-02,8.196995683388571749e-03,4.116074148262630766e-02,2.988392114639282227e-01
-3.460705503553135332e-02,-3.653976838698321794e-01,-3.029144284007695420e-02,-5.997899102334608564e-04,7.342701804689043352e-04,-1.434454162270296692e-04,3.329735398292541504e-01
-3.405552705726960783e-02,-3.719515745196817491e-01,-4.777543498014281964e-02,3.532657237380413401e-02,-8.638826187257086413e-04,4.614428472792647673e-02,3.462081551551818848e-01
-2.578386585215190763e-02,-3.475273036908392843e-01,-3.628826256577760700e-02,3.096900289832074226e-03,1.190248609537906087e-02,3.725579161384547349e-03,3.174033463001251221e-01
-3.194724194577269749e-02,-3.202828719964072590e-01,-3.530565324994490439e-02,5.526966722132184429e-02,1.290964131655402726e-02,3.061321700916268262e-02,3.076622486114501953e-01
-3.992139688345607007e-02,-3.701463103327513604e-01,-4.025142928366198802e-02,2.821154955028206887e-03,2.566848741024722533e-03,3.504061425829603504e-03,3.301819264888763428e-01
-4.426763349389066515e-02,-3.249802023040044285e-01,-2.050589648065978543e-02,1.139411245796755458e-03,1.052625266630671970e-02,6.429057746557680433e-03,2.940997779369354248e-01
-4.698416799898526286e-02,-3.009768503221948444e-01,-2.719698311362060694e-02,3.229228633369726244e-03,1.072419453996946437e-02,1.716775674791622130e-03,2.651693224906921387e-01
-5.544040899049641757e-02,-2.797462166995758337e-01,-3.208469979495390256e-02,2.846238916776970378e-03,6.368811909068277516e-03,1.889001284669048625e-02,2.394032031297683716e-01
-3.797401097586920737e-02,-3.662159421723418795e-01,-4.112072116411075173e-02,1.001956413126119929e-03,-1.677078283783249753e-03,2.681643952610852986e-04,3.266977965831756592e-01
-4.664384533298253366e-02,-2.943739442393217276e-01,-2.893181292658256187e-02,1.643487111344341112e-02,3.007613980867059143e-03,6.625511431218315817e-02,2.829812467098236084e-01
-1.974310972272698417e-02,-3.584951131072438568e-01,-4.419519119163131671e-02,-3.747708148330085309e-02,-2.020481279764617041e-03,3.254394320468535686e-03,3.336543738842010498e-01
-3.607303866734414000e-02,-3.695878774539808620e-01,-2.844763186628211649e-02,1.258942505394819184e-03,-5.072057332804118940e-03,-2.210215546351511524e-03,3.375352919101715088e-01
-3.461521464651853841e-02,-4.052453017194765361e-01,-3.904009378988194945e-02,3.220276171449277386e-02,-4.281129135396702368e-03,-1.493727582563422057e-02,3.736062645912170410e-01
-1.052952703450418803e-02,-3.443155221488193307e-01,-5.427321875254981220e-02,6.379172942202686325e-03,-1.677532829265357579e-03,-2.375105160969428943e-03,3.144407868385314941e-01
-5.745985179153084710e-02,-1.883655003982135367e-01,-4.525021812612719380e-02,1.001383775336165821e-01,3.370450714263469646e-03,7.646869508583738206e-03,2.217572182416915894e-01
-3.093116834286475936e-02,-3.677119539666446335e-01,-3.633287231401040318e-02,-5.673260362863476744e-04,-1.881317011684865287e-03,-1.302471251199528333e-03,3.341376483440399170e-01
-3.363329093276103132e-02,-3.710864015451208475e-01,-4.136147955047987657e-02,2.330762050666202942e-02,5.751789160780776053e-03,9.238891858940095209e-03,3.366177082061767578e-01
-2.974117354181983475e-02,-3.339840761040956396e-01,-3.588193302174667865e-02,1.437725576505733370e-02,1.231497208155798821e-02,8.581055380153711221e-03,3.033630847930908203e-01
-1.083153011364368368e-02,-3.492824878296438840e-01,-5.048289736433134167e-02,1.962872885222838228e-03,-1.119499138935332351e-03,-1.654473837648583147e-03,3.205070495605468750e-01
-1.619514001343738685e-02,-3.538300378906233390e-01,-4.867240279931205060e-02,2.373584414240467646e-03,2.612760672616297290e-03,7.050388556209829811e-04,3.226848542690277100e-01
-3.711870667858523098e-02,-3.846932212277687779e-01,-4.218055168890089135e-02,1.946035617950210225e-02,7.329266363620638020e-04,-2.380492873276083068e-03,3.467405736446380615e-01
-4.424447199596151514e-02,-2.650744929522809157e-01,-4.862329400990646200e-02,1.696983716697933204e-03,1.127266839888534794e-02,9.527222954772254435e-03,2.201823294162750244e-01
-5.246151600896419021e-02,-2.673983245661756269e-01,-2.802982679003869493e-02,-6.507016855642228960e-03,-9.344903375415726174e-03,1.952403754217836226e-02,2.314704656600952148e-01
-6.640813934427035325e-02,-4.470351765291307178e-01,-3.753283006178603776e-02,-1.015602724672244328e-01,-7.636976291826820702e-03,-4.373690331139860887e-02,4.399529993534088135e-01
-3.144028342836040213e-02,-3.034092751413394740e-01,-5.021583717061767205e-02,-2.756461927350700031e-02,-9.125028180863784324e-03,1.432343259978508540e-03,2.678593993186950684e-01
-2.720061486250280325e-02,-3.045153760406613119e-01,-6.259751855766908235e-02,-2.637978720013915701e-02,-6.485838532354797244e-03,6.933844530429897476e-05,2.656204402446746826e-01
-1.623564636548371909e-02,-3.628419754267983577e-01,-4.473516223648524304e-02,-2.140084041885530197e-03,-2.202550289221767363e-03,-1.963599436576313737e-04,3.333143591880798340e-01
-2.994484501128719112e-02,-2.937182339854479407e-01,-5.633322783976617287e-02,-7.094797797671583426e-04,-1.211754901706622699e-04,7.407482637340042026e-04,2.516255080699920654e-01
-5.532512761547943303e-02,-3.305837814370692351e-01,-1.389826194119229974e-02,1.461567838169734344e-03,2.227419683684719041e-04,1.200739623888885665e-02,2.988740503787994385e-01
-3.313126076172057122e-02,-3.642103457803004818e-01,-3.102178776155006812e-02,1.200708340523478973e-03,-3.168375318129908018e-03,-1.627432649775004039e-03,3.322026431560516357e-01
-2.423273072940027029e-02,-3.650088108982033619e-01,-4.715055888468608347e-02,-3.611690757673931274e-02,-6.228640914463815133e-03,-1.733199980735170009e-02,3.373048901557922363e-01
-5.746938405572037112e-02,-3.976871564521887725e-01,-3.375430440195928417e-02,-2.086647712649778927e-02,-1.624476970264254272e-03,4.637705585604965069e-05,3.545320630073547363e-01
-5.304611528585913283e-02,-2.524420977319274950e-01,-4.900607024106888587e-02,-2.624786703903285792e-02,-1.414699247495822265e-02,3.078414020194117015e-02,2.146879136562347412e-01
-2.050839358630490716e-02,-3.730157293798498919e-01,-5.389378380682255387e-02,-1.277771096730689719e-02,-9.588378021710705710e-05,1.505620568551292737e-04,3.377829492092132568e-01
-2.265784439096926728e-02,-3.202564838724438756e-01,-4.699539002782779362e-02,-1.391504092137226672e-02,6.281816113249949311e-03,-2.940725743528921094e-03,2.874711453914642334e-01
-2.030766201021044770e-02,-3.225101059712345286e-01,-4.985327080840211422e-02,-7.241509999262356161e-03,-9.720162406273245967e-05,-5.771937684446350062e-04,2.888405323028564453e-01
-2.368081181819263470e-02,-3.390538963675344686e-01,-4.450191711225283397e-02,-8.052775779531354261e-03,9.355764286804886185e-03,5.385765324061171600e-04,3.062438368797302246e-01
-2.010155359412306442e-02,-3.611151937286681823e-01,-3.389868360732359309e-02,3.291123983486209104e-03,5.823710505575876474e-03,8.166935552159157322e-04,3.345323503017425537e-01
-1.995940470539268874e-02,-3.164453942420093480e-01,-5.123315679117311505e-02,-1.584080065428249487e-02,-8.518634021088633199e-03,6.645731534673173999e-03,2.840999066829681396e-01
-2.004666389725213993e-02,-3.262588230032309466e-01,-4.839119634127841962e-02,-2.037063205067484242e-02,-1.078316701947556501e-02,9.258600066564592890e-03,2.962106466293334961e-01
-4.929028416912117905e-02,-2.890920575595600228e-01,-4.149570677118795403e-02,-9.899850033010090811e-02,-1.149129601626672041e-02,-6.548211825291884447e-02,3.195258677005767822e-01
-2.054209893378836083e-02,-4.669574730784878946e-01,-6.717883141698298421e-02,-2.948031157139094013e-02,1.336646605480470637e-02,1.214046106781556805e-01,4.774963855743408203e-01
-4.773057594947685556e-02,-3.686871010184640252e-01,-1.695498394459063474e-02,-5.495216122627319573e-03,-2.088425207561812012e-03,5.088856660128316702e-03,3.376673161983489990e-01
-3.911975241255069569e-02,-3.690108827968138772e-01,-3.115536272144084351e-02,-1.392986469055082889e-03,-1.100438949000580834e-03,2.510613310161316850e-03,3.339870274066925049e-01
-4.107977053142768120e-02,-3.648313414503582819e-01,-2.339110623063241079e-02,7.581174060602795771e-04,5.276715972301613319e-04,9.817544692937744608e-03,3.333862721920013428e-01
-6.183984034946487379e-02,-2.767243306835002192e-01,-2.333069818022646957e-02,-8.098302863497669132e-03,-9.368866092275895258e-03,2.732912722894082630e-02,2.421446591615676880e-01
-3.978016743462299554e-02,-3.744337758013201456e-01,-4.366938771481986004e-02,-9.867653702958104154e-04,3.347793120600011047e-04,4.491495729286941463e-03,3.328218758106231689e-01
-4.358693702548514792e-02,-3.313332672398567880e-01,-4.976677659000179610e-02,-3.063768547312396492e-02,1.342362448425230524e-02,8.806148882334069450e-02,3.281447589397430420e-01
-3.956963942551311453e-02,-3.762894387283662878e-01,-4.525290697195305523e-02,-3.342162828740295223e-03,1.402914934801794246e-03,1.519290793398329377e-02,3.350085616111755371e-01
-4.079816421768233531e-02,-1.436669536328003816e-01,-4.413092466922705764e-02,-9.512756550897533137e-03,1.704067964160929649e-02,8.782895348302370564e-02,1.858350485563278198e-01
-6.024777803085856753e-02,-2.525145457451106745e-01,-2.851306812415708991e-02,-4.726906484640389788e-03,-5.681815362857385414e-03,5.279469234301212982e-02,2.293487489223480225e-01
-5.727128623686265907e-02,-2.973836402128996470e-01,-2.532595530718384502e-02,1.354545206894110319e-03,3.914507502938520053e-03,1.926189952065423053e-03,2.576965689659118652e-01
-5.481933613061268362e-02,-3.238397198699601853e-01,-3.187412887553864316e-02,3.111533131579359481e-03,-8.351513283513078978e-03,6.628653113835245025e-02,3.041236102581024170e-01
-3.589701849525339661e-02,-3.453221960285102199e-01,-4.905200248696878207e-02,5.502967716804625653e-02,6.823229188342172253e-04,9.280238781580438245e-02,3.560471236705780029e-01
-4.885406791987634278e-02,-3.757534452531371416e-01,-4.455794265146445499e-02,-4.623704511587103591e-03,8.083452145313972312e-03,2.128682217158137189e-03,3.294841647148132324e-01
-5.716341708557676204e-02,-3.510212586860631534e-01,-1.314676522765884092e-02,-1.813822988771176680e-04,-8.890212819076638740e-07,1.324979430750653116e-02,3.189848065376281738e-01
-3.888796232068759962e-02,-3.293299344417273122e-01,-4.850127218141513097e-02,-1.749848397990917334e-02,-1.387105574568293052e-02,1.562180229583507753e-02,2.896286845207214355e-01
-4.134667074364559158e-02,-3.162800250934771906e-01,-2.888846518074164593e-02,-1.056757407507367096e-02,-1.241102636703734011e-02,8.248061565462496813e-04,2.827859520912170410e-01
-2.902986756068735852e-02,-3.456469861220128892e-01,-3.289628214194942335e-02,-7.039326527889696629e-03,-8.671708710154685251e-03,2.599275444519493546e-03,3.153279125690460205e-01
-5.189753127910232133e-02,-3.300496260850422914e-01,-1.890905718428277649e-02,-2.136951216308023357e-03,-1.989525133803390477e-03,1.912175331438076276e-02,2.979180216789245605e-01
-3.876177593049739967e-02,-3.741708141536633225e-01,-5.042193793857976947e-02,-3.102512475790513303e-03,-3.549196874294065218e-03,-1.920634434782591280e-03,3.298514783382415771e-01
-4.243166250144199403e-02,-3.826039467385166648e-01,-5.256843164243002464e-02,-4.590060902723428534e-04,-1.133834290106240043e-03,-3.466142916156793406e-03,3.352793157100677490e-01
-5.673637698677634622e-02,-2.725684213678664092e-01,-3.239367747709727408e-02,1.926193861552037538e-04,8.991787500937617125e-03,1.716133320800783055e-02,2.314220666885375977e-01
-5.398880928523556999e-02,-2.594414686193537989e-01,-2.578227143847842961e-02,1.013969580785724182e-02,3.018530681496200789e-03,7.023185792818449624e-02,2.528533637523651123e-01
-4.744147545820028011e-02,-3.704789561469744585e-01,-2.999032829474973516e-02,-1.086674592845981004e-03,-1.313418541205192648e-03,1.580067318086507324e-03,3.321315050125122070e-01
-3.637647176907840563e-02,-3.820856146825795108e-01,-5.443986929109523309e-02,-2.204603074516440185e-03,-1.257679392286111084e-04,-2.651829395191444318e-03,3.370936810970306396e-01
-1.703240529037947093e-02,-3.898461098035621020e-01,-6.261896820944440334e-02,-3.095155056674278593e-02,1.463452816605940543e-04,5.524331357623864236e-02,3.689206242561340332e-01
-3.206640961380954891e-02,-6.293141535200961201e-01,-6.682105593180437397e-02,-4.554162240513449922e-02,5.972523022628719626e-03,6.108898093005105112e-02,5.955504775047302246e-01
-3.701897568851249265e-02,-3.790859536705211696e-01,-5.468326359996907027e-02,7.653226766638848927e-04,-1.588529998504200746e-03,4.220667546615905485e-02,3.415157496929168701e-01
-3.822988999059949433e-02,-3.229338397258239568e-01,-3.488990075767299526e-02,-2.048900075243217933e-02,-1.870560510990617806e-02,2.962830572999291395e-02,2.948915064334869385e-01
-4.454316495321369862e-02,-3.265792953718557046e-01,-3.186734721234842083e-02,1.528011800855783899e-02,2.903431272984148027e-03,2.555417956272412056e-02,2.931976914405822754e-01
-4.669369497105088640e-02,-3.543589438664992430e-01,-1.371237811571425491e-02,-1.066031418305146434e-03,-1.283270290159718935e-03,2.910006943950504705e-03,3.254637122154235840e-01
-3.958015544528928342e-02,-3.592137523839125657e-01,-3.887403603836692145e-02,-2.924404345506934413e-02,-4.084585200159514783e-03,4.271360137487512088e-02,3.323866426944732666e-01
-2.849675161913224619e-02,-2.180465607546996920e-01,-2.706734408682512361e-02,-2.495281302686433444e-02,1.079231376573370864e-02,6.020944305494779075e-02,2.220247685909271240e-01
-3.119092794247468881e-02,-3.990157971120369962e-01,-6.319410264245303721e-02,-6.257439012909301289e-03,-1.019732364290361695e-02,1.318768813933623128e-02,3.542582988739013672e-01
-5.066768700931706393e-02,-2.997797238954278964e-01,-6.207529806899945990e-02,5.751694919262670402e-02,-6.086846417991420045e-03,1.187985549775128769e-01,3.342457115650177002e-01
-4.190895627574475757e-02,-3.728807213273992449e-01,-3.517759198721051583e-02,-4.157828315466968218e-03,-3.309612073700912965e-03,-5.243855131541987546e-04,3.345161676406860352e-01
-4.159682787991587916e-02,-3.685614242705601562e-01,-2.689529111566900388e-02,-5.638746400895823518e-03,-4.061956644170586911e-03,5.976816714659296398e-03,3.349342048168182373e-01
-5.625471774282700399e-02,-5.285090271879248069e-01,-5.367846813321294763e-02,-8.729758895594193213e-02,1.581133890824058114e-02,9.292095992896795553e-02,5.232235789299011230e-01
-5.110141330284469208e-02,-3.526180379340821958e-01,-1.292677391075811033e-02,-1.646708052587333342e-03,-3.245511839619567417e-03,6.885198483036855666e-03,3.225861489772796631e-01
-6.197925705923699319e-02,-2.447270723768628364e-01,-4.427865641225077475e-02,-1.172090540285136706e-02,-1.016620595504407094e-02,1.725181037583101889e-03,1.941029280424118042e-01
-4.859381897863161714e-02,-3.389457261134420918e-01,-1.707650799444646039e-02,-3.177700586017755038e-03,-7.864539868569666095e-03,4.766567891966405450e-03,3.077867627143859863e-01
-4.970216808475906578e-02,-3.518839587304843919e-01,-1.304787409783117469e-02,-2.636140840329908881e-03,-1.168691217575852648e-03,6.598810510026367586e-03,3.223184943199157715e-01
-3.986681802922079076e-02,-3.635001617650195360e-01,-3.365138169232022303e-02,1.427212301460763872e-03,8.677758020555037099e-04,6.340220126831188057e-04,3.268000483512878418e-01
-4.048288015933856898e-02,-3.693367242657819016e-01,-3.634760984690295349e-02,7.369636642349340757e-04,1.666695568325438949e-03,5.009667841003564298e-03,3.310696482658386230e-01
-3.922727751663715456e-02,-3.685250645955252535e-01,-4.265745456942067471e-02,2.963572945819046818e-04,-7.579523626021808080e-04,-2.474202031925432348e-03,3.276272416114807129e-01
-3.781300136420712166e-02,-3.668919573269102674e-01,-3.796296234387296076e-02,-1.000787525163183500e-03,2.186492612108524136e-04,-7.105382493459857325e-04,3.290110826492309570e-01
-3.411712892202907466e-02,-3.621049635421121904e-01,-3.012842136904599066e-02,2.351119354480380851e-03,2.931876974189153752e-03,3.245203698673354738e-03,3.301123082637786865e-01
-4.068142474755798155e-02,-3.579605136437811197e-01,-1.619013250209141996e-02,1.136425334731292749e-03,2.471815428215250621e-03,8.244418809320697801e-04,3.302433490753173828e-01
-5.647162441528633114e-02,-3.058946597799153122e-01,-1.553346558821726286e-02,2.773643608297779450e-03,4.022841655949958503e-03,1.247009465540449731e-02,2.731974422931671143e-01
-4.608693391293652852e-02,-3.547856971203211529e-01,-1.157993569027335190e-02,1.432069940183829234e-03,1.803502609166373607e-03,1.769684706150551328e-03,3.273579478263854980e-01
-5.348911528621121125e-02,-1.608055586674284054e-01,-6.306076960868993442e-02,6.179958640526875269e-02,-9.160066833842128503e-04,-9.819208448136715513e-04,1.484729498624801636e-01
-4.046281345577508459e-02,-3.534897689377062835e-01,-1.913293126418154355e-02,9.718306195071016755e-04,5.790562743559677338e-03,2.639950692977226232e-03,3.244102299213409424e-01
-3.315677854922489953e-02,-3.653483902020920882e-01,-3.001603691779622385e-02,1.940972783311571486e-04,3.728904902411693447e-03,6.250867062332468626e-04,3.338374793529510498e-01
-5.023576238168771246e-02,-3.667001703344761054e-01,-4.707528665807225732e-02,8.844152620913535521e-04,-1.825023434906986129e-03,1.383857951138673086e-03,3.180848360061645508e-01
-5.101049105334655442e-02,-3.714457430308134578e-01,-4.625181296207292458e-02,5.181821205859067289e-03,-5.829454863931785892e-03,4.943431357421728366e-03,3.232368528842926025e-01
-3.441939751613722065e-02,-3.760201827644476524e-01,-3.129606468734526248e-02,6.534316827407674576e-04,5.029240752475273857e-03,1.014165125404966608e-03,3.432900011539459229e-01
-3.533246102421051804e-02,-3.778650596043689469e-01,-3.734924712657895773e-02,-3.992790455263517391e-03,7.346291202523386535e-03,1.958145562132208514e-03,3.418523967266082764e-01
-4.664309394971610789e-02,-3.690714665051084697e-01,-4.741447405615314969e-02,2.905603562909155144e-03,-1.382154928792207445e-03,2.537874975108343322e-03,3.221215903759002686e-01
-4.663320425038050554e-02,-3.669292117749948789e-01,-4.897651490301779820e-02,1.809026367327383174e-03,-2.065075226459500441e-03,3.584246901096835194e-04,3.191668391227722168e-01
-5.327219507942222709e-02,-1.442952108715021553e-01,-5.469645165175855694e-02,2.690678879384792235e-02,-1.145994468483081327e-02,7.326750841639924350e-02,1.637921780347824097e-01
-6.014206630243101870e-02,-2.325254241419975332e-01,-4.449633262324911853e-02,1.020743497053873267e-01,-1.897226284927217357e-03,6.865346651593143279e-02,2.794030904769897461e-01
-2.876642976750359848e-02,-3.297430342494535038e-01,-3.482300150766372282e-02,1.339683950053460308e-05,1.349720649916292918e-02,6.172428886011317901e-03,2.991012036800384521e-01
-1.231472527492254165e-02,-3.353723600996871834e-01,-5.368281703366001301e-02,9.777568326997887471e-03,3.201432162261697283e-03,2.839780713090203287e-03,3.050492107868194580e-01
-3.927728197484742223e-02,-2.677286543855588175e-01,-3.633158065246272495e-02,6.070420848439778139e-02,1.712106491887295870e-02,4.165746239844035637e-02,2.645979523658752441e-01
-3.420540484706736939e-02,-2.964230192414456511e-01,-4.268913154354135597e-02,3.453704018150895866e-02,1.589589592864455378e-02,4.305705822712133785e-02,2.765929400920867920e-01
-5.314090714167354901e-02,-4.257692141281080311e-01,-4.824542754995808647e-02,1.095993867686365086e-01,-1.910921404512966673e-02,7.659533082481113919e-02,4.420770406723022461e-01
-6.569975515684664535e-02,-3.701533369861991218e-01,-4.175506816844520852e-02,9.435866879434541034e-04,-7.052301109991596963e-03,1.400375723320788175e-03,3.173533380031585693e-01
-1.432355872133048158e-02,-3.674662930453899135e-01,-4.569053075927510810e-02,-6.432671412437824393e-03,5.769182001123787564e-04,-2.426693467604880763e-03,3.387616574764251709e-01
-3.613243177810807061e-02,-4.099638747239409686e-01,-2.958991463217006124e-02,-3.747159099080401429e-02,2.141929741026381631e-03,8.519415199399178393e-03,3.829914033412933350e-01
-2.785097584353654621e-02,-3.656720323567761444e-01,-4.028431813206989620e-02,-1.015819487695385865e-03,-2.651692599209303034e-03,-6.133895792551042184e-06,3.318156003952026367e-01
-2.139601484022923827e-02,-3.677265693074478481e-01,-4.348043362077737284e-02,-2.579455539342764923e-03,-2.308656200977255313e-03,-2.847959555798040463e-04,3.358872830867767334e-01
-4.943058878213976021e-02,-2.155554426563124348e-01,-2.875845150842273878e-02,-9.772935487134119803e-02,5.145458881889082049e-03,-3.167784753695443607e-03,2.454008460044860840e-01
-2.284376432026612169e-02,-3.489266331318461312e-01,-4.141307461938677215e-02,-9.253951410920530085e-03,-7.856152553610796022e-03,2.431383498528512377e-03,3.179300725460052490e-01
-3.427844639062949117e-02,-3.561351665423185819e-01,-3.999480398058612163e-02,-8.158794788920127605e-03,-3.787186894692005923e-03,-1.064563443893407199e-03,3.194224536418914795e-01
-4.411008491803124210e-02,-3.307088347356043068e-01,-2.242722166336008627e-02,-1.111263095645455973e-02,-1.198168786477613046e-02,1.240588799849869431e-02,3.001435399055480957e-01
-3.988639610356571608e-02,-3.713250853913054317e-01,-3.900371474418996842e-02,-1.283685022983001257e-03,1.422243970349923578e-03,8.095958382052417801e-03,3.321935832500457764e-01
-3.709260421868693092e-02,-3.417902778609826497e-01,-3.309799624403968188e-02,2.056133452858645641e-02,2.185149307854944607e-03,2.650477357645789067e-02,3.121921122074127197e-01
-3.955652440225614075e-02,-3.580614647188637978e-01,-1.767006870282737674e-02,1.078469370617411629e-03,1.945932039498919587e-03,-1.134042554204726553e-04,3.300155103206634521e-01
-3.665339704017785138e-02,-3.601179851836920909e-01,-2.193460171298391992e-02,-2.895494482295473933e-04,1.249065904609984300e-03,2.554511643011850883e-04,3.310772180557250977e-01
-4.761473385996864427e-02,-2.022266759534477876e-01,-2.829219859621680266e-02,2.568300558374082831e-02,6.121163266792054372e-03,4.865275577231598092e-02,1.909403949975967407e-01
-4.008124310995597739e-02,-3.459577360794082734e-01,-2.855097454327513995e-02,1.703746956810915300e-02,4.153749182077206593e-03,3.173055186527373034e-02,3.180617690086364746e-01
-3.553515726115627493e-02,-3.306425426718319072e-01,-3.838145959976074773e-02,1.901302134135974056e-02,9.726838487623378979e-03,1.750297065903528432e-02,2.975632548332214355e-01
-4.480566429998711353e-02,-3.358474156209850792e-01,-2.336963525323290658e-02,8.583855660704691739e-04,9.249049796921713154e-03,-7.624496796030877203e-03,3.030459284782409668e-01
-5.144459010180706116e-02,-3.094526562819774340e-01,-3.926334197961246775e-02,-5.322712372744638210e-02,-1.227042461308566236e-02,-2.832285157381610879e-02,2.849860191345214844e-01
-4.371145597340217459e-02,-3.747826284578024136e-01,-3.671411889559415831e-02,-4.623974809505443893e-03,6.276370399779037865e-03,8.963742852958547780e-04,3.349006175994873047e-01
-5.460757877427513396e-02,-3.722601544944635910e-01,-3.986111912023400372e-02,1.176117517710072256e-03,-2.503387008682496275e-03,1.148809630049816774e-03,3.253179788589477539e-01
-4.382762572958823211e-02,-3.710137205210897182e-01,-4.262885103339272841e-02,2.491259006349473689e-04,5.178484106304050106e-04,2.234435156309858179e-03,3.278114795684814453e-01
-2.419558568339323645e-02,-3.385156920522418011e-01,-4.845517122938690358e-02,-1.516838948955583424e-02,6.259479101806725461e-03,-3.238722072802466614e-03,3.043018877506256104e-01
-4.084693589309905393e-02,-2.820629865687091509e-01,-5.102284337723123064e-02,-2.709005457225446140e-02,7.821831093241606719e-03,-1.645542450466657911e-02,2.429642826318740845e-01
-3.087622558349568946e-02,-3.399786067430303760e-01,-3.721599673838406341e-02,7.331811563896915200e-04,1.386032480962056009e-02,-7.368801730842648029e-03,3.071899712085723877e-01
-4.638446304390936303e-02,-4.016158348546117196e-01,-5.130722162221418303e-02,-7.210845343888926118e-02,-1.296884372847815006e-02,-7.798659557691227373e-02,3.985147774219512939e-01
-5.250367879437076168e-02,-2.316724893339794089e-01,-5.301242868260697128e-02,-9.050083175439253835e-02,-1.862764256376808064e-03,2.367738723259385156e-02,2.414001524448394775e-01
-3.786536721576708175e-02,-3.254879175138005731e-01,-1.739986784129618491e-02,-2.109828012309323056e-02,-2.252302236734331220e-02,5.202290642610635230e-02,3.162409365177154541e-01
-2.146744830478122812e-02,-1.955357713175252532e-01,-4.298745473387939608e-02,-3.046897084547949344e-02,-1.433066738865338731e-02,-4.026319193204909441e-02,1.878336817026138306e-01
-5.831345164645838908e-02,-5.230288810660348175e-02,-4.920135273571761558e-02,-1.528493639209545576e-02,-2.589796174279760006e-03,2.490707081875961904e-02,5.144398659467697144e-02
-4.990833323798807980e-02,-2.387787077141742542e-01,-4.719087159955252797e-02,-4.000507840459512771e-02,-1.926051923338470417e-02,2.863448552491163271e-02,2.111079692840576172e-01
-5.513658197141763084e-02,-2.548210824319533385e-01,-6.981882349913881569e-02,-2.958012911058352165e-02,-9.537730607124728435e-03,-3.034611604743245924e-03,2.002077251672744751e-01
-4.599677225957869708e-02,-3.151758311984942384e-01,-3.780074264934574213e-02,-1.247947353102329612e-02,-1.628369101871837352e-02,1.300697074737602356e-02,2.765880823135375977e-01
-4.234645706130538145e-02,-3.713756441414985954e-01,-4.119117016480368376e-02,7.747167650590336060e-03,5.310314879858402722e-04,-2.185776890951009969e-03,3.299043774604797363e-01
-5.550913008617815170e-02,-3.737237406589339894e-01,-4.015034972909792277e-02,2.179249750456731987e-04,1.995378547800225662e-03,-9.044783680768436447e-04,3.261876106262207031e-01
-5.948787723053819421e-02,-3.766164207991029578e-01,-4.003354654403179502e-02,-6.038164840486784932e-04,2.810854293000418416e-03,-4.383036050778858425e-03,3.274155557155609131e-01
-7.376255123678197856e-02,-3.842385456935554222e-01,-3.136443940181526946e-02,-9.976278221929563584e-04,9.197992529314327498e-05,-3.127789184659535236e-03,3.337497413158416748e-01
-4.978452633537520933e-02,-3.492525022828065762e-01,-3.263163460507735592e-02,5.016869101638675443e-02,-1.651169519068840285e-03,2.773032259463599492e-02,3.240028023719787598e-01
-4.717996550466302397e-02,-3.680081713880767325e-01,-4.410342736316166801e-02,-1.967760239103424381e-03,4.267415241344665812e-04,-1.759218670187127638e-04,3.223964869976043701e-01
-7.505467424928927156e-02,-4.569273270661048381e-01,-4.175858905353035944e-02,1.400184540859694404e-01,1.490748882953643432e-02,-6.939367363997035743e-02,4.832999706268310547e-01
-7.003315265293312553e-02,-3.775357813597998158e-01,-3.591460975751906148e-02,3.499353270107386296e-03,4.452738195628269365e-04,-1.376978228957584935e-03,3.259700834751129150e-01
-3.230602435748934631e-02,-3.524889345292108178e-01,-3.203654863651497764e-02,-1.694622514205761099e-03,-7.282341924417808261e-03,1.049614426931626997e-04,3.205794692039489746e-01
-2.650928709246538895e-02,-3.155043607579405274e-01,-4.914227040044043260e-02,-2.280397760644496327e-02,-1.390339923414423209e-02,7.634728475152595568e-03,2.824967801570892334e-01
-3.579327814493807325e-02,-3.254883871961685160e-01,-3.815470581191250654e-02,-1.153192159309651557e-03,-1.411627045514498788e-02,5.751744573074376622e-03,2.897339761257171631e-01
-3.003150355747568473e-02,-1.265045589707467222e-01,-3.851097562169769617e-02,-2.977192415484864949e-02,1.667519935954172097e-02,4.850917565282885507e-02,1.382520198822021484e-01
-2.089013343873263873e-02,-3.414751119562984272e-01,-4.693538936082433666e-02,-1.135712428864576974e-03,-8.284057291567661560e-03,4.994674119175021359e-04,3.087294399738311768e-01
-2.342719793834331654e-02,-3.231930813585435214e-01,-4.573049418478518369e-02,-8.379288448491352057e-03,-1.007421358983315481e-02,1.318115166036545969e-03,2.901578545570373535e-01
-3.535945892593646278e-02,-3.707206585891863471e-01,-3.631990154803993454e-02,-5.341314154250458718e-02,-1.118756954855869984e-02,2.250881629890533892e-02,3.501432240009307861e-01
-1.528621871037035007e-02,-3.400196007515297048e-01,-4.357962181754042319e-02,-1.570944095735320178e-02,1.297590791179994074e-03,-1.566165395040570356e-03,3.127574920654296875e-01
-1.668170591882972564e-02,-3.565752426500582994e-01,-4.126958592210423771e-02,7.134562500166688340e-04,2.365004148027682537e-03,3.824847871297574705e-04,3.283194601535797119e-01
-4.902487233074946660e-02,-3.295985854688183725e-01,-1.751611001067149287e-02,-4.885298792631061204e-03,-3.887321686940980233e-03,2.054295826194104876e-02,2.998965084552764893e-01
-2.354843188933483655e-02,-3.303726940058798744e-01,-3.691290930919569058e-02,2.535493964137402328e-02,1.485055896404756035e-02,1.822157144818290636e-02,3.062768280506134033e-01
-4.796213263708590246e-02,-3.512411544991239642e-01,-1.602061807752758194e-02,2.286540680929525973e-03,5.782987937378279882e-03,5.384949879151374082e-03,3.207625746726989746e-01
-4.172844343750391205e-02,-3.749742127552362359e-01,-2.391646805370373219e-02,-7.081351569663498283e-03,-1.839619097115340529e-03,1.814881413719617725e-02,3.441722095012664795e-01
-3.359463991395478244e-02,-2.298374122169279943e-01,-5.609149265021103059e-02,-1.730240104565723344e-03,7.706616559998790512e-04,1.143471944290376935e-01,2.717334926128387451e-01
-4.134706151038158861e-02,-2.704792324265736791e-01,-4.603203386647401751e-02,1.476297141323051247e-03,1.162790113788513338e-02,1.258155984051381564e-02,2.287729680538177490e-01
-6.453486746320230560e-02,-2.470450717598926815e-01,-3.936515211743976672e-02,1.685470609812978002e-03,6.705049257638782088e-03,3.656592881429487733e-03,1.967758238315582275e-01
-2.956282871341978091e-02,-3.290003561626088091e-01,-3.507037755292312375e-02,9.846945256461782110e-04,1.275492109720738690e-02,5.493090820964701554e-03,2.977003455162048340e-01
-5.085144714260701054e-02,-2.135414892987034241e-01,-5.982325559070028609e-02,-2.720015293846829441e-02,-4.825163982701641784e-03,1.159264579039148702e-02,1.666777729988098145e-01
-3.379770283793129271e-02,-3.197967791690810579e-01,-3.114470917296427444e-02,1.028959556831635438e-02,1.351552722972695214e-02,1.590655574541829324e-03,2.888502776622772217e-01
-3.439333676881303758e-02,-2.248897526126642232e-01,-6.122677930314381761e-02,3.228021523018816813e-02,2.100245713448932027e-03,5.747233883480324084e-04,1.871830821037292480e-01
-4.141645863819719275e-02,-3.835877544613774948e-01,-4.308623630178375075e-02,-4.160640346561726862e-04,3.815072854552802734e-03,1.077973292256948976e-02,3.419143557548522949e-01
-1.963756215691406237e-02,-3.544048153720049665e-01,-3.666198105553968023e-02,3.246094410658977893e-03,6.066787929988242366e-03,4.868012383645346840e-04,3.268064558506011963e-01
-4.523689081368578724e-02,-3.653183234295518944e-01,-1.948799816045951316e-02,-5.948843696794205334e-03,-3.447369107105122121e-03,9.887655213137820295e-03,3.343530893325805664e-01
-5.002861343700916452e-02,-3.588696347842468271e-01,-1.212352048063705667e-02,-4.563709601728939890e-04,-1.769993311528916900e-03,2.973630230005130503e-03,3.294886648654937744e-01
-3.949764858680498980e-02,-3.765570951249614939e-01,-5.329369100916153679e-02,-7.124308665589311300e-03,-5.129586612278848280e-04,1.680321994942676560e-04,3.306092321872711182e-01
-3.965056848052875282e-02,-3.722054189783637335e-01,-4.391992123044710650e-02,-2.874348922924423178e-03,3.754506711291376612e-04,3.392243368218463614e-03,3.305312395095825195e-01
-4.318830275427142096e-02,-3.696074306476162530e-01,-2.976305954468429216e-02,-2.326354878372815550e-03,3.541353910335343796e-04,7.262297407864794696e-04,3.333618640899658203e-01
-2.497653390881444946e-02,-2.776453231043606862e-01,-6.759081484946768970e-02,2.472257497564792073e-02,-6.243093398753258617e-03,-1.478422516889459776e-02,2.397841960191726685e-01
-2.165864391939428812e-02,-3.515645810259981907e-01,-4.036223483142548085e-02,9.061302540968351957e-03,-8.405312007025621257e-03,-7.870451679147721230e-03,3.219649493694305420e-01
-2.429074629923685946e-02,-3.049520167826308414e-01,-5.401014130113575284e-02,7.835271443273387169e-04,-6.758879083043849330e-03,-3.026304856034964762e-03,2.673560678958892822e-01
-4.999607844290877845e-02,-3.492247365824152627e-01,-2.751819482173736842e-02,9.718086844500112287e-02,-3.996792864103363395e-03,1.210480284833531130e-02,3.543852865695953369e-01
-5.753170692668420350e-02,-4.495440252836645501e-01,-3.227535482269561218e-02,6.566542155729111763e-02,1.432192591580422510e-02,-4.931679365769852524e-02,4.301859736442565918e-01
-4.763917520615704865e-02,-2.189256715606599790e-01,-4.682406456868374450e-02,7.607683923421444672e-02,5.155451665533343844e-03,-2.079672428573656195e-02,2.195897251367568970e-01
-4.660017343974572068e-02,-2.546286991936212996e-01,-4.337264233915344436e-02,2.259117988300730255e-04,-9.186883296650559874e-03,-2.607269485203191420e-02,2.150590866804122925e-01
-2.248865754673901041e-02,-3.613567801702729509e-01,-3.409606638013147617e-02,4.749117366517193947e-04,2.250851067325237292e-03,8.364983195257501237e-04,3.332430422306060791e-01
-4.101955419740160869e-02,-3.839743375330078590e-01,-3.129354623033335503e-02,4.727568800288859161e-05,-4.422156172405093677e-03,-4.866023418984912439e-03,3.481061160564422607e-01
-5.889332035428755663e-02,-2.959128171266368623e-01,-2.861018738405578243e-02,-7.515677783270739189e-03,-2.055016135022822571e-03,-1.642321642269557944e-05,2.538801431655883789e-01
-2.718570235913840560e-02,-3.613863478331366119e-01,-3.612602605997106142e-02,2.109929815388521430e-03,-4.803760023694634597e-03,-1.235380230581085157e-03,3.299534916877746582e-01
-4.536124887229015662e-02,-1.962012568293237669e-01,-6.483878884171259682e-02,3.170544053198558893e-02,3.966371050886994057e-03,8.653592594774439650e-03,1.532372236251831055e-01
-4.404540111163225691e-02,-3.521132957267477659e-01,-2.899790639440823214e-02,3.908951144833220368e-05,-8.731496216778716554e-04,-1.676767141104825581e-02,3.171965777873992920e-01
-4.019204236588468093e-02,-3.214848332413591248e-01,-3.135023478615742154e-02,-3.327855372086227070e-03,-6.246014377409393054e-03,-4.589595720335642309e-02,2.969183921813964844e-01
-4.582629773728626177e-02,-3.699533414203074466e-01,-2.942052820134276325e-02,-5.109142352716079111e-03,-3.527583456440287410e-03,1.436485185312872878e-02,3.337360322475433350e-01
-5.866899190758962518e-02,-2.448077565959284052e-01,-4.552288585147672151e-02,-5.336540724948914127e-02,5.208569661878240283e-03,8.817224728023423386e-02,2.630883455276489258e-01
-3.926780673702919000e-02,-3.547871290150435009e-01,-3.550425815058851076e-02,-1.106843235556634504e-02,-3.868856492072406637e-03,1.837030272747602888e-02,3.196543753147125244e-01
-3.973879260128096447e-02,-3.679966946456561527e-01,-1.952651100717789356e-02,-1.257275218133107469e-03,-1.157979324768014951e-03,2.016706396346723204e-02,3.406251966953277588e-01
-4.576791166644512965e-02,-3.692548380272313024e-01,-3.036847098151888857e-02,-5.028860490169127090e-03,-2.882128534300471782e-03,1.510294910513915482e-03,3.316173851490020752e-01
-5.072043663577675832e-02,-3.230011519982024515e-01,-2.043389294745116824e-02,4.797777840151081494e-05,-9.300285171105236032e-03,1.386238675025677422e-02,2.900629043579101562e-01
-4.164373309512135746e-02,-3.476564564930858525e-01,-2.092597129938690570e-02,-4.164908490088593124e-03,-5.973213042346042258e-03,4.135328530839442462e-03,3.172117471694946289e-01
-4.119319853971939449e-02,-3.722870224671384065e-01,-2.905675458422050939e-02,-1.277593359997782063e-02,-1.883936072210352832e-03,6.176086436342837632e-02,3.545874357223510742e-01
-4.080958941355693204e-02,-3.619270107511219359e-01,-3.347310104505121786e-02,-1.131463285242187596e-03,7.037055797529553859e-04,1.126723183393293871e-03,3.248618543148040771e-01
-3.914541730486650883e-02,-3.607512595074605644e-01,-2.787997821529121512e-02,-8.402605578663336489e-04,3.470227726304840696e-03,1.753888888971479000e-03,3.274564743041992188e-01
-3.581406651730879853e-02,-3.487761353102732387e-01,-2.586425739722508776e-02,6.307709482827503558e-03,1.161731013250580716e-02,5.780639634447824748e-03,3.190339505672454834e-01
-2.970430046942933167e-02,-3.506679677951708429e-01,-3.944908275678389586e-02,1.912881192628952329e-02,9.991533951879582459e-03,3.619730983284065971e-03,3.184673488140106201e-01
-4.914494414407469258e-02,-3.500079809287339749e-01,-9.573612389033286929e-03,-8.943949896735889458e-05,7.778555518927438928e-04,1.828639527600714812e-03,3.224932253360748291e-01
-4.711950926955597863e-02,-3.641015668745097300e-01,-1.916790456681233268e-02,1.747189940425028119e-03,1.535059502131019566e-03,7.886600142608272968e-03,3.321473896503448486e-01
-4.730474365455909769e-02,-3.459393689448876374e-01,-1.288327601079952700e-02,1.137015365170398161e-03,5.119941680705500028e-03,4.237733067247213478e-03,3.174638748168945312e-01
-3.991251602971745971e-02,-3.714051258016349277e-01,-4.070966147221334597e-02,1.796820607736512778e-03,6.217999652162266126e-03,7.089175823669275657e-03,3.315119743347167969e-01
-3.384323106934261638e-02,-3.921752126305448893e-01,-7.285160567281319388e-02,-8.543881458487703230e-04,-1.312240355487872320e-03,1.111873910777991855e-03,3.405239880084991455e-01
-4.263885043275596198e-02,-2.204728009688416979e-01,-5.646215219135550939e-02,1.189837873196382227e-02,2.490125752509142389e-03,1.016369065326474114e-01,2.465588003396987915e-01
-3.948855062200096189e-02,-3.448078009208106476e-01,-2.739779754026445968e-02,-1.039674024689981290e-02,-1.069804887847328016e-02,1.069962400317235260e-02,3.131591379642486572e-01
-3.920015976221298548e-02,-3.703844747210227606e-01,-4.435865436403087225e-02,-7.794404537513757248e-04,-1.544283300108885090e-04,2.161501027250926042e-03,3.286596536636352539e-01
-4.320790445944575064e-02,-3.694767142877229960e-01,-5.010803436508177999e-02,1.242186558727166688e-03,9.478963811113678799e-04,-2.012824931251781715e-03,3.229041993618011475e-01
-5.076427914522231577e-02,-3.730077297505019485e-01,-4.403653808867072361e-02,-5.694968184549715692e-03,6.906811297714906227e-03,4.285211237279282735e-03,3.261128365993499756e-01
-4.581932430726737282e-02,-3.664993974092732310e-01,-5.217070497950643260e-02,1.064779044932531293e-03,1.318444567860973735e-03,4.326309594905569764e-04,3.175664842128753662e-01
-4.718733413571724045e-02,-3.692284285958461476e-01,-4.726364538564456486e-02,1.672426398323298901e-03,1.163541982990419022e-03,-1.459275852832816849e-03,3.220322132110595703e-01
-4.339979155035207647e-02,-3.761593458831996584e-01,-4.049563658122051768e-02,4.301612114836244477e-03,-3.851121214240646592e-04,-3.387400771783259743e-03,3.343562781810760498e-01
-4.190164297552224915e-02,-3.680741429506332318e-01,-4.482780144994101545e-02,6.236576331773564753e-04,7.315834280896842037e-04,4.646809021348816387e-04,3.247245848178863525e-01
-5.435346328062759524e-02,-4.575423602937967460e-01,-3.777749557127069169e-02,-7.735842586290836431e-02,1.189159307639259429e-02,-4.128144013100678135e-04,4.334709048271179199e-01
-4.193232679835109944e-02,-3.753407421531290145e-01,-4.017708867229469183e-02,-3.103250581376991446e-02,8.724602317566920381e-03,3.926086850673989048e-02,3.456748723983764648e-01
-5.558876572518495207e-02,-5.419741803007740444e-01,-2.265797971166491620e-02,-6.475196688477657947e-02,-1.321266251950357276e-05,-2.491487030523105092e-02,5.177962779998779297e-01
-2.711032269469848544e-02,-3.650393801224731671e-01,-2.582038432805054684e-02,8.760893169976107040e-04,4.431709395956547753e-03,1.079176295882921079e-03,3.386714160442352295e-01
-5.507509502064815432e-02,-3.809749071298086931e-01,-3.892943860545272639e-02,-1.066980487016532496e-02,5.030183720280167678e-03,-1.892105374145902673e-03,3.349050879478454590e-01
-5.216462954303671684e-02,-3.683576056046734548e-01,-4.736321826571089633e-02,-2.412325565424495197e-04,1.964591168905995867e-03,-9.444166821719881741e-04,3.186434507369995117e-01
-6.209285516349455358e-02,-3.758538982090107172e-01,-3.897269412454040793e-02,2.434394258342548623e-03,4.431726387246792340e-03,-4.182729997997541860e-03,3.261348307132720947e-01
-7.844557856090045300e-02,-3.778253951201788197e-01,-3.100681383386613699e-02,-3.391067431870703041e-04,6.003634546203022579e-04,-2.252546882013876234e-03,3.257262110710144043e-01
-6.760678714390827571e-02,-1.908692307604561988e-01,-6.438424610234705359e-02,4.639465357524372689e-03,1.765753148242446048e-04,2.886741988176660251e-03,1.252633184194564819e-01
-4.547263914140511898e-02,-2.588676022396866339e-01,-5.996380408671606738e-02,-2.206713087685334765e-02,-1.029330990177688282e-02,2.396130437278457155e-03,2.108341008424758911e-01
-5.583892605718055596e-02,-2.476763648442366905e-01,-4.595598212125553972e-02,-2.305333649526829795e-04,-1.167906774112692156e-02,1.385397994955301672e-02,1.994501352310180664e-01
-5.673230567503274174e-02,-9.799674329185756316e-02,-5.184863194170676037e-02,-3.474389706721997539e-02,-6.930525995929658935e-03,9.684113938716791201e-03,7.729802280664443970e-02
-6.202957658840790867e-02,-2.216219981715025766e-01,-5.796389730931299222e-02,-1.433820059190411313e-02,-7.853428242615130214e-03,2.137038889968502151e-02,1.682467907667160034e-01
-3.855845195012376492e-02,-2.692871928659388847e-01,-5.748881634227492876e-02,-2.668851533769515255e-02,4.870817858263870072e-03,-8.313488224253843964e-04,2.267959713935852051e-01
-2.285657608658879514e-02,-3.404233116408724724e-01,-5.151961769944268799e-02,-5.882360681904759761e-03,6.355658000259500895e-03,-7.515084445866767986e-03,3.048970103263854980e-01
-5.885732882463006604e-02,-1.520880188638113473e-01,-4.848045265566915119e-02,-4.036147521684262107e-02,-2.338879690056252028e-03,6.795862876817317100e-02,1.688957363367080688e-01
-4.973264779978506939e-02,-2.098616828474007545e-01,-6.345650722829984658e-02,2.142776440539278029e-02,-2.192336343395354711e-03,-1.791576427600741076e-04,1.581898480653762817e-01
-5.965671191177442795e-02,-1.836173896237943137e-01,-6.822383820086364015e-02,-2.849804846837918071e-02,-2.612936628724853595e-03,4.973033470674442747e-04,1.297509074211120605e-01
-4.583572108050600058e-02,-6.144349103462241890e-02,-5.741417839006618395e-02,-7.571107186545565984e-03,-3.559848365831672144e-04,-2.985363875314767448e-02,5.516351759433746338e-02
-3.153562483442752529e-02,-3.676099653596467953e-01,-3.831041199617080117e-02,1.296010420536543306e-03,-3.204582631541284202e-03,-9.114408797210951391e-04,3.327962756156921387e-01
-2.588311169332052630e-02,-3.649633865916185327e-01,-3.296690556320551468e-02,7.660849133661485483e-04,-1.560051526129391805e-03,-1.352531397429673939e-03,3.356161415576934814e-01
-2.747725164793064778e-02,-3.413310922828379224e-01,-3.806647514190476811e-02,2.929348775126394949e-03,-1.025642675554973814e-02,-4.826074012490549469e-04,3.092489540576934814e-01
-3.301975151738381631e-02,-3.461599181157221095e-01,-2.932457718002570712e-02,2.547840132471836886e-03,-1.002029683006359570e-02,-6.973559197345107104e-03,3.157437443733215332e-01
-2.583140117760934773e-02,-3.568820319204682456e-01,-3.457186244241035322e-02,7.250749326773373027e-03,-5.144925356457357400e-03,-3.171165292656536253e-03,3.271768391132354736e-01
-3.422223814699235089e-02,-3.678449802063372132e-01,-3.565839424234405752e-02,-1.634219177371478522e-03,-3.561684165146603498e-04,1.017118458532615403e-04,3.329196274280548096e-01
-2.623729770886081003e-02,-3.695829543442527010e-01,-3.304671441417687816e-02,1.542028330448090741e-03,-1.508014513132576589e-03,5.440090762819372846e-04,3.400139212608337402e-01
-3.172364413954423257e-02,-3.683509485056714050e-01,-3.058158389523819853e-02,3.605139039208963268e-04,-2.530979225680397588e-03,-5.576961565774663735e-04,3.372302353382110596e-01
-3.389847405859069962e-02,-3.705987139260509822e-01,-3.052359447258290448e-02,2.871853170242844510e-04,4.956095014460878230e-04,-5.224369569742759022e-04,3.384029567241668701e-01
-2.752357180349200572e-02,-3.568306833301165826e-01,-3.633204137991700999e-02,8.826006805315048326e-04,-8.103837985708099365e-03,-1.569543651355775806e-03,3.253103494644165039e-01
-3.606738165493848791e-02,-3.577450224193914341e-01,-3.432570629650599781e-02,-1.596228312307211919e-02,5.852967153305955322e-03,-2.116886441384807985e-02,3.259621262550354004e-01
-5.698955613945383414e-02,-3.718721984092737687e-01,-4.943553334156279566e-02,2.487489984054870422e-03,-9.638796522544656672e-03,3.602260207212042587e-03,3.192538022994995117e-01
-4.857136606023927661e-02,-3.823345566895373082e-01,-4.823434566749838781e-02,-2.773600798103606491e-02,-1.268173508993662019e-02,-3.036162739903575797e-02,3.421495258808135986e-01
-4.595762919165968796e-02,-3.916826029387963648e-01,-4.322258996767126826e-02,-1.792717590125161159e-02,-1.778506549905165338e-02,-5.317780067997082000e-02,3.617672324180603027e-01
-6.056069475421604897e-02,-4.223812083965305941e-01,-5.013236199734175114e-02,-8.729820785869474298e-02,-1.235463445441232523e-02,-7.600151328843478271e-02,4.188622236251831055e-01
-5.446442761806497002e-02,-4.407380617980431459e-01,-4.745735867869990687e-02,-3.257101918587070738e-02,-2.129789541606389933e-02,-6.142338449283889917e-02,4.096644818782806396e-01
-6.443774658412447509e-02,-3.732784333001212262e-01,-5.217767084064720007e-02,9.597425546423871134e-04,-1.215867434309189296e-02,2.713329392641125343e-03,3.158918023109436035e-01
-3.300294883749760322e-02,-3.609673756925961818e-01,-3.108817525457154007e-02,-2.808551560092975921e-02,4.536933600824809981e-03,-1.950533355191760507e-02,3.343079686164855957e-01
-3.770652760831323669e-02,-3.772424169688467499e-01,-4.351019243389600555e-02,2.890948243240655437e-04,9.567871395654420612e-04,-6.938717849203096359e-03,3.368904590606689453e-01
-5.438160079743101227e-02,-2.686447473256681207e-01,-5.088000139465563565e-02,-6.587657597416299304e-02,-8.947454399607019976e-05,-8.227595565602455197e-02,2.828398942947387695e-01
-2.711210720404359786e-02,-3.528796975037122308e-01,-2.990950715495317713e-02,2.401942214691865207e-03,9.241201344000551238e-03,1.518954475219043030e-03,3.248099088668823242e-01
-6.023102269754833371e-02,-2.551330873963212342e-01,-3.753149137329840623e-02,1.568764499424977771e-03,-7.050552845524654492e-03,-2.387690139332386552e-02,2.116438150405883789e-01
-3.541603863531624097e-02,-3.589780367376644854e-01,-3.164501225650365179e-02,6.018094804349521541e-04,8.990723316268798421e-03,-3.064350828436568884e-03,3.258811235427856445e-01
-3.959629933485880882e-02,-2.573412878856038422e-01,-6.110166588520198755e-02,-3.086654071747994832e-02,5.717477365194291797e-03,6.340090074688463362e-04,2.148259282112121582e-01
-4.862951722271066646e-02,-3.007424528129859498e-01,-2.436522609360632086e-02,-6.024926474855661629e-03,5.835939974936582043e-03,-2.929799227406121656e-02,2.702835798263549805e-01
-4.111629630086629378e-02,-1.196012233004792591e-01,-4.812699779185809768e-02,-1.698815498260129037e-02,-5.062932418221133095e-03,-5.954196162285315536e-02,1.312906146049499512e-01
-2.965328431185840219e-02,-3.671170686310645248e-01,-2.895349111840946066e-02,3.605404151820874544e-04,7.800020516136819872e-04,-1.024953169286670724e-03,3.378221690654754639e-01
-2.947097136790241545e-02,-3.677019801517147912e-01,-2.934463023833820683e-02,5.675674463527483234e-04,-1.393525885247545411e-04,4.404724533812841964e-04,3.382965624332427979e-01
-3.288024641119381697e-02,-3.673246820915747612e-01,-3.177221644515702825e-02,-3.761219693855957606e-04,3.029142351749897189e-04,-5.231342766550661208e-04,3.350020945072174072e-01
-2.444021031508721020e-02,-2.807500795790699444e-01,-4.038191167008139959e-02,3.727000498445187660e-02,1.173997444606969705e-02,3.087871083509291167e-02,2.632565200328826904e-01
-3.259514662124815554e-02,-3.635916153049943422e-01,-3.572029249491459613e-02,1.709809113678910321e-03,4.600853440991193449e-03,1.759633921947802854e-03,3.295687735080718994e-01
-3.307910660584899298e-02,-3.587990181563078806e-01,-2.293793990373364788e-02,1.709862307362079725e-03,4.076672450955869803e-03,8.286429045346611335e-04,3.309987485408782959e-01
-3.445082310738320497e-02,-3.642848971190763008e-01,-2.377145804837607623e-02,9.297864406697692752e-04,2.065899535649496060e-03,1.529265408187122696e-03,3.353347480297088623e-01
-2.525176308406996972e-02,-3.651523318668217222e-01,-4.125020431277831578e-02,2.903801561480213664e-02,6.479621727297660977e-03,1.023065979719875451e-02,3.366304337978363037e-01
-2.708899411155545056e-02,-3.484554216134683191e-01,-2.659918155398929840e-02,4.393072700406056540e-03,8.461510301780605925e-03,3.949765599946516992e-03,3.221079409122467041e-01
-2.731400117570849384e-02,-3.564879269438098186e-01,-2.706090622013422597e-02,4.312864287102438632e-03,8.775278649470807935e-03,4.258532808118631677e-03,3.298182487487792969e-01
-3.443952750570437871e-02,-3.669540329703223636e-01,-3.548747033410172558e-02,1.409558282835047475e-03,1.838214276628742172e-04,4.579339389184370257e-05,3.320009112358093262e-01
-4.213331990841757968e-02,-3.839013365103870479e-01,-3.296094888693675007e-02,2.416995082338176462e-02,3.890800501065960672e-03,4.730105328882723559e-02,3.585170507431030273e-01
-8.889536753819822501e-03,-1.566062789296943092e-01,-4.279726319566751896e-02,3.249868001545914986e-02,-1.257501994759550878e-02,8.568144637991369217e-02,2.088732868432998657e-01
-2.946475987492103155e-02,-3.689729394572551224e-01,-5.379609450585391694e-02,2.452590444062767439e-02,-2.873090862635822602e-03,4.586062553320861823e-02,3.402000069618225098e-01
-4.364485626837034948e-02,-3.735215068408057615e-01,-2.480744208163247755e-02,-9.267111894833267999e-04,6.737050667715651503e-03,1.264621914881187970e-02,3.405965268611907959e-01
-3.893684448621967387e-02,-2.536081254992672562e-01,-4.696670697938908068e-02,6.974992379850376845e-02,-1.642912706187950669e-02,8.971226378089565412e-02,2.897830903530120850e-01
-5.037553519597700452e-02,-1.988612141378582054e-01,-4.359463268329338836e-02,7.350085438209223720e-02,-2.640738706221012772e-03,5.309312208566846492e-02,2.185990214347839355e-01
-3.356382858669908209e-02,-2.889129904781492231e-01,-4.954855962349172249e-02,1.637194138802747917e-02,-4.531849270308411191e-03,8.306728252103268151e-02,2.879987359046936035e-01
-4.430574183663518739e-02,-3.877103558431641561e-01,-8.620770609935286821e-02,-2.671461381291093118e-02,3.134563482725657990e-03,1.856796435066812578e-01,4.592324495315551758e-01
-2.761071678938084584e-02,-3.627820751141284106e-01,-3.755184464672428613e-02,-5.767120097542735102e-04,2.552103155680529676e-03,7.574359629989591816e-05,3.303441107273101807e-01
-5.411619074218143588e-02,-8.564009954282089665e-02,-4.726914762538292347e-02,1.912515756672881692e-02,3.496273048478990182e-03,5.619897749135226162e-02,1.089286282658576965e-01
-3.927067582948971791e-02,-2.727920553755878164e-01,-4.411732556152341000e-02,5.306509963240466782e-02,9.711486310627636537e-03,5.560865061954343297e-02,2.672668099403381348e-01
-2.385380228186688434e-02,-3.659128225251656596e-01,-4.770407226915147902e-02,8.002435358959690548e-03,-2.843634656413305921e-03,5.662359705861022682e-04,3.311077654361724854e-01
-3.555348868463993617e-02,-3.404565516257955782e-01,-2.602857343999259720e-02,1.450067399157333944e-02,1.457605305379782758e-02,1.434176489100041051e-02,3.128035068511962891e-01
-5.185462766286989822e-02,-3.465815774186690179e-01,-1.064942636985283242e-02,2.412452056373238368e-03,3.879920223070290348e-03,5.204119994364399954e-03,3.175688982009887695e-01
-3.873689421957038359e-02,-2.369809783545257231e-01,-4.496456078773303222e-02,5.797882901380099763e-02,-4.847072466006990821e-03,7.064445433539394414e-02,2.514595985412597656e-01
-3.935979046040544160e-02,-2.594675647733357682e-01,-4.720044680592087871e-02,5.187413707289233872e-02,5.170679422489931731e-05,6.478907227064799323e-02,2.597090303897857666e-01
-6.104285119025833206e-02,-4.013449585294631694e-01,-4.447191795142425852e-02,9.532923758537778514e-02,-3.603969356276989951e-03,6.014458895735842747e-02,3.998416066169738770e-01
-2.809652931580010338e-02,-3.446590643122184883e-01,-5.801227794529661974e-02,5.097236968240285993e-02,-1.132831653553655754e-02,1.039687380099491854e-01,3.636545240879058838e-01
-4.521163855655717378e-02,-1.796826015724319325e-01,-5.033021951800173421e-02,7.583981169360730357e-02,1.591554148286585717e-03,6.096250062337226633e-02,2.140846699476242065e-01
-4.640025690105410716e-02,-8.521848074538639073e-02,-4.679069912965036493e-02,5.564246382926392454e-02,3.216566701211936411e-04,2.776078398994213589e-02,1.144220083951950073e-01
-2.868411222631812862e-02,-3.666118969567186414e-01,-3.090288398359519739e-02,1.258184623461449216e-03,1.559965558625430815e-03,6.338368799199302480e-04,3.368435502052307129e-01
-2.004034561838002881e-02,-3.434442086007879480e-01,-4.498714772542579399e-02,1.807642406335202394e-03,6.787102748815427786e-03,5.701015138634803539e-04,3.119190335273742676e-01
-1.285285887485146383e-02,-3.450680491519902970e-01,-4.831269065967329357e-02,3.490631705961859833e-03,5.455873815933304401e-03,1.365641063935620373e-03,3.161889910697937012e-01
-2.635120047633807139e-02,-2.677217325513829849e-01,-3.896927737341460141e-02,5.343044035880297610e-02,5.473995631751181479e-03,2.137008723245695588e-02,2.557297050952911377e-01
-3.029551171522493203e-02,-3.645380153803903234e-01,-3.091363104129510320e-02,8.142360628255531111e-04,2.238446087256781066e-03,4.014183897680161594e-04,3.339600861072540283e-01
-3.760285769533244088e-02,-1.264094897639945758e-01,-5.200928361110576659e-02,6.300881287833183519e-02,3.024178115394391287e-03,3.027058618091185357e-02,1.466338038444519043e-01
-6.393181572979428351e-02,-1.662798584466378959e-01,-5.760697256554635215e-02,1.529665551477495632e-02,-9.878522144594701487e-04,2.176770590826741097e-02,1.152772754430770874e-01
-5.602223538935087455e-02,-4.404421503706044683e-01,-3.744663179719581736e-02,1.299234926849605377e-02,6.549462754689611838e-03,-5.144975249443722171e-03,3.949418365955352783e-01
-4.665538155324607666e-02,-2.020176665733239008e-01,-6.070660784048048653e-02,2.915572085236178140e-02,7.784309524364327673e-03,2.612412708650683427e-03,1.578108817338943481e-01
-6.396528393339756535e-02,-2.209615430522022528e-01,-5.659425631088357833e-02,2.161091102586478341e-03,5.106296447570313896e-03,1.768973555966205091e-02,1.639829128980636597e-01
-5.073462585754325710e-02,-2.032624682146106365e-01,-7.134982707348819231e-02,2.373668696559075655e-02,-1.078495252830322061e-03,-3.866620933641458607e-04,1.491293609142303467e-01
-3.103645407210249563e-02,-2.547107738377624164e-01,-5.588959132896614834e-02,6.572861394918207145e-02,8.400381087793118429e-03,3.115810084211536463e-02,2.473333925008773804e-01
-5.492893190505266504e-02,-1.617088673193764203e-01,-6.702874127677112270e-02,5.859949914075691935e-02,-1.534069238384609733e-04,1.110586329246478383e-03,1.433939188718795776e-01
-2.317356011756983858e-02,-2.548999806320887407e-01,-6.304953874316004958e-02,2.726592508735930370e-02,-1.541593623704927505e-03,1.843897879312520293e-05,2.197369635105133057e-01
-5.869347147688298849e-02,-2.386138911998286205e-01,-3.657475514045903375e-02,1.086432710304671562e-01,2.871842299332102826e-03,2.489245267289604685e-02,2.722754776477813721e-01
-3.424825636637725268e-02,-3.516038253483155240e-01,-3.264671812870560685e-02,1.630545825463480120e-02,-6.633829568253812002e-04,8.417720397673888674e-03,3.197450339794158936e-01
-3.387027332753156372e-02,-2.732951143901571900e-01,-4.656726090313996480e-02,3.536147634948083596e-02,1.383378171101355691e-02,2.156218299815898173e-02,2.452869713306427002e-01
-4.981183915352650760e-02,-3.752130164131195489e-01,-3.767099153896309727e-02,-3.250057241274159278e-03,-1.472324415042954330e-03,1.346713322511996092e-03,3.317040801048278809e-01
-7.195556332539712607e-02,-3.803565533548186051e-01,-3.444531054859056862e-02,-2.340135642928183914e-03,6.714006801150518983e-04,-1.976192924065924353e-03,3.288097977638244629e-01
-1.842105857515211054e-02,-3.650464590493531780e-01,-4.760160048600613203e-02,6.615279615181937460e-03,5.125463287655758612e-04,-9.199434149583430751e-04,3.331975042819976807e-01
-5.888498192777889828e-02,-3.500722168536227752e-01,-3.219516241659675648e-02,6.455777986140996683e-02,1.339606975950771066e-03,-1.361023864932640187e-02,3.260955512523651123e-01
-5.092177103350192802e-02,-3.722458444641651987e-01,-4.119602359826954330e-02,4.443903069091244794e-03,-1.802344760812317872e-03,1.943984604187732343e-03,3.264187276363372803e-01
-1.768146747731788593e-02,-3.596431876853327658e-01,-4.434822367968337120e-02,1.962350476435109538e-03,-2.074386130580299289e-03,-3.621146679616494592e-03,3.295356333255767822e-01
-6.870447595187612055e-02,-2.014903467495453016e-01,-5.348673581002733740e-02,1.417732738193801549e-03,-3.184329606889559506e-03,2.240136475680769637e-02,1.463771909475326538e-01
-4.889995340777153476e-02,-3.124938282656911093e-01,-1.455961846366581047e-02,2.096829909066841476e-03,7.488068429626083475e-03,1.235120289749020057e-02,2.834641933441162109e-01
-3.984772406462211425e-02,-3.707949405802402620e-01,-4.115430852876453272e-02,8.833252167382421929e-03,2.359296286450260956e-03,1.980289301726946213e-02,3.324494063854217529e-01
-6.348513765112387408e-02,-2.404093101028721979e-01,-4.836403162984409532e-02,-4.108169847984220052e-02,-1.262119793096355518e-02,3.493829967313424184e-02,2.083486467599868774e-01
-3.056878037074439725e-02,-2.642469460389461622e-01,-2.741191762649516916e-02,7.514398687794320020e-02,-1.551828871409784323e-02,4.010605442885113725e-02,2.789998948574066162e-01
-5.633178602595963202e-02,-4.220781202342339111e-01,-2.893438324588964994e-02,4.248074752716439473e-02,-8.833567033594925955e-03,-1.164498767614387557e-03,3.875480592250823975e-01
-1.250186263084299143e-02,-3.578193600610279912e-01,-5.063479066163162345e-02,1.607974865222132690e-02,-1.740144855789476340e-04,1.058267378729522892e-03,3.291040062904357910e-01
-3.248627669228126846e-02,-3.605067549769084834e-01,-3.942628616097533512e-02,1.224691228559167660e-03,-1.428292981528841337e-03,-7.477845517198067685e-03,3.248807489871978760e-01
-5.132422454503152154e-02,-3.388268206582011333e-01,-5.857230896103335360e-02,7.689030087036986816e-02,-8.011278630886667709e-03,9.676753930121211045e-02,3.558752536773681641e-01
-4.000395850134225162e-02,-3.587787892738469875e-01,-4.572331452239461469e-02,9.338343509006551135e-03,-2.662380691270161120e-03,1.089390177084069954e-02,3.169634342193603516e-01
-4.015047513899870635e-02,-2.951032890115219409e-01,-3.110375372122149706e-02,3.072199316711548764e-02,8.597878566588902302e-03,4.914354267954279543e-02,2.787253558635711670e-01
-4.098232609963946282e-02,-3.680175824709680521e-01,-3.212886575937767830e-02,-1.211248798932084607e-03,1.993453070334478161e-04,-1.839395630583717366e-03,3.315727710723876953e-01
-4.913528069613358473e-02,-3.983179019396568266e-01,-3.573320585318814913e-02,2.952713607433270562e-02,-7.638427326136771819e-03,5.902298831267829143e-03,3.601152598857879639e-01
-7.004916710025330118e-02,-4.247283265013497289e-01,-3.813094019527199507e-02,-5.223740666971089189e-04,-8.684435861472441023e-03,-5.525196143169014418e-03,3.720960617065429688e-01
-3.943518179541986857e-02,-3.664946420835478724e-01,-3.426339910375630904e-02,-9.134501584013546456e-04,4.408310278195229251e-04,-3.841479469544626453e-04,3.296811282634735107e-01
-2.328478040362753909e-02,-3.524171643553851707e-01,-3.385983997318586791e-02,3.973023688647984997e-03,5.560364837697671578e-03,1.828554187263772010e-03,3.242059648036956787e-01
-3.312873900890027368e-02,-3.304891701315753050e-01,-3.961487636395857881e-02,2.023829357678025645e-02,7.835238108152047659e-03,1.514014963572029963e-02,2.977199852466583252e-01
-4.147285894840420373e-02,-3.718988086238809165e-01,-4.649975132334398242e-02,-1.725986721488255958e-03,-3.057554139889671332e-04,-2.212246588806148113e-03,3.279778361320495605e-01
-4.121618890306273653e-02,-3.693548926606224914e-01,-3.776178026422884193e-02,-4.433485730246091924e-04,1.989384335791710863e-04,3.532787832482195065e-03,3.299372792243957520e-01
-5.529450576860123201e-02,-3.723658704060299196e-01,-4.004293214003123991e-02,-4.081966340366892029e-03,1.952115591927529705e-03,1.663150841603120919e-03,3.250729441642761230e-01
-3.386853151148710994e-02,-4.030384911570858986e-01,-5.089896149492123545e-02,-6.979859363813076603e-03,1.483236167654350748e-02,-5.517142270586906927e-02,3.744691908359527588e-01
-4.003677881312586728e-02,-3.577433126729785418e-01,-3.531296489360535862e-02,9.524597284883572559e-03,-4.467149815847819977e-03,-1.176994188506800924e-02,3.212602734565734863e-01
-5.333140735983603331e-02,-3.679131270417220767e-01,-5.205194350136987946e-02,4.341833326292706850e-04,-5.861504251675497303e-03,7.693300101249406350e-04,3.153905570507049561e-01
-5.266943395537254657e-02,-3.735282301036992880e-01,-4.091143732439891934e-02,-1.097334830065844992e-03,-5.199985005591606889e-03,3.227631744011943537e-03,3.270737826824188232e-01
-4.378110017303711576e-02,-3.740169733179375955e-01,-4.034118207830345026e-02,-5.473767629275427815e-04,-1.804063196511996410e-03,2.722039955747345297e-03,3.320187330245971680e-01
-2.394549826068524678e-02,-3.679847212875874685e-01,-3.620911031488781295e-02,-2.405828229728230409e-03,-5.967113597749577718e-03,-2.918090408484185307e-04,3.382582664489746094e-01
-3.762804013979971496e-02,-3.626480232870054055e-01,-3.090722859118982813e-02,1.512254815531316292e-04,-3.019362660134578338e-03,-2.031088405921629113e-03,3.284925520420074463e-01
-3.493504257970425630e-02,-3.742182304356118649e-01,-3.922967550694868299e-02,8.009328521367779915e-04,2.434367417953626784e-03,1.052141865817654478e-03,3.371905386447906494e-01
-3.391102249271474300e-02,-3.692188105790310537e-01,-3.845481874636449970e-02,-8.174636378497544820e-03,8.453521983764018463e-03,-1.080248551138712244e-02,3.342055082321166992e-01
-4.035508112672522851e-02,-3.936426483212552840e-01,-6.431491706202260850e-02,-4.650380411648211837e-02,-1.452657668967617492e-02,-6.892012423024941603e-02,3.718767166137695312e-01
-4.274573755416360976e-02,-3.745772965812585453e-01,-5.779371385583791099e-02,4.248409943282877022e-03,-1.227671802639205070e-02,9.789287430419430815e-04,3.253527283668518066e-01
-4.266549320471002549e-02,-5.483415335451859995e-01,-4.023144685864746273e-02,-7.473515135636319903e-03,-8.766646906567369252e-03,-3.922315892457044206e-02,5.118188261985778809e-01
-4.121353163291441302e-02,-4.642637806460602756e-01,-6.364534097433471871e-02,2.603559638923766059e-02,-1.756827125485041843e-02,-7.462312781864301192e-02,4.354884922504425049e-01
-6.651695264724619139e-02,-1.869695971489055419e-01,-4.430591692558156353e-02,2.888052579473221037e-03,7.503388737031524674e-05,4.419771121058279489e-02,1.535021215677261353e-01
-5.535467919358551259e-02,-3.780399481171065057e-01,-3.571854054215348184e-02,-3.305665744072705092e-03,3.196368842595454559e-04,-2.301784113085394913e-04,3.329878449440002441e-01
-4.083791504617909074e-02,-3.272880300559634081e-01,-2.669072821423568165e-02,1.355553571431526196e-02,-9.342178556884454810e-03,-5.975233413249449871e-02,3.127785027027130127e-01
-2.211056559948818001e-02,-3.403485908034593610e-01,-4.290759934065044301e-02,1.715163958238875158e-02,-3.813920706162484547e-03,-2.004542265608477702e-03,3.098835051059722900e-01
-4.695371868328887532e-02,-1.362939207491237759e-01,-4.335386628564105033e-02,8.089954556481909753e-02,2.209463188833147955e-03,9.263430892251086832e-03,1.679956316947937012e-01
-5.022729321216733156e-02,-1.350213581966525356e-01,-4.710626714191995523e-02,8.363570620960268653e-02,-6.309224368124258936e-03,2.828399438530841692e-02,1.759789288043975830e-01
-3.274797777188589998e-02,-2.925417949485305535e-01,-4.998983206275163516e-02,1.667813027594616110e-02,-9.943519928946428083e-03,-8.532500223233468323e-03,2.542838752269744873e-01
-3.704648973108708165e-02,-3.880465296038060341e-01,-5.144634877686285468e-02,-1.757623950821908662e-03,6.920513737556724669e-05,3.977642563988132546e-04,3.440403938293457031e-01
-4.395275911600891178e-02,-1.728764909035021002e-01,-5.580854396343949003e-02,3.401693529195647103e-02,-3.749599295206397682e-03,-1.482107292444954190e-03,1.369438618421554565e-01
-3.932651207954698802e-02,-3.697371140413576174e-01,-3.489756320168854731e-02,-8.221220499073403050e-04,-1.146841909571690542e-03,3.607474348591701240e-04,3.326567411422729492e-01
-3.170373576014255679e-02,-3.702853436103376583e-01,-3.686729288228908497e-02,-4.337210190215209341e-04,-2.588571920179032920e-04,-8.476340112772937649e-04,3.360339403152465820e-01
-2.441946519549843819e-02,-3.670933062502344524e-01,-3.877823911565232706e-02,8.029733433767642084e-04,-3.317026305666030944e-03,-8.234542931104964257e-04,3.357799053192138672e-01
-3.276339203154239599e-02,-3.430018609388204576e-01,-2.573186390706823368e-02,5.767226639286781334e-05,1.078393024776630807e-02,2.914394552700811606e-03,3.144092559814453125e-01
-3.279866209013411471e-02,-3.642747502015680205e-01,-2.277047514653512961e-02,1.266896381566309793e-03,2.602812048312687972e-03,5.924402437143116030e-04,3.366411328315734863e-01
-3.973718651589874806e-02,-3.601243177107612548e-01,-1.648902100928428816e-02,1.491592792566511253e-03,2.698934928167299151e-03,8.219620029766144809e-04,3.326670527458190918e-01
-4.048551610125880607e-02,-3.554983423832129286e-01,-1.630427074612268712e-02,5.999327391450010255e-04,2.198934322048205423e-03,1.026781898409710172e-03,3.278017044067382812e-01
-3.288431813684093707e-02,-3.472692260569480993e-01,-2.720492624000489523e-02,2.732635753336660599e-03,9.080335915213524900e-03,4.853028773969061266e-03,3.177987635135650635e-01
-5.337457195805658805e-02,-3.098726406767950414e-01,-1.548888637528267331e-02,8.718911138017276623e-04,5.183832503709975836e-03,1.088338668834932209e-02,2.781769633293151855e-01
-4.159534545133630745e-02,-3.534551084950985911e-01,-1.470960346443986322e-02,2.101368985932127766e-03,6.651708177735625796e-03,3.689756751846350134e-03,3.264211416244506836e-01
-3.381011105293758867e-02,-3.297223631365523433e-01,-2.431289416795764935e-02,8.781404142781062613e-03,1.145598357852634780e-02,5.406010937086899552e-03,3.019558489322662354e-01
-4.360586490570078633e-02,-3.670494407938473813e-01,-4.785772586180568611e-02,8.841502637024095147e-05,2.724077965312271077e-04,-4.702087457183377287e-04,3.213401436805725098e-01
-4.857870785793290402e-02,-3.659238557302413875e-01,-5.166304446466415956e-02,5.071826057512481088e-04,3.348421566874443082e-03,-3.605826617538944370e-04,3.158693611621856689e-01
-4.910756722486353532e-02,-3.660020391821483532e-01,-4.803780613858653348e-02,-9.019267409759201045e-04,3.386103675687090163e-03,-7.942852969576124061e-04,3.174917101860046387e-01
-5.739261177889359855e-02,-3.668914097544925257e-01,-4.588106468223934753e-02,-2.330567743599790218e-03,3.362428512706416590e-03,7.247811579461880009e-05,3.154917657375335693e-01
-4.922366163680925999e-02,-3.655563371175815091e-01,-5.144169107105303618e-02,-1.079892323229978638e-03,2.331247383347534539e-03,-8.896761492901789309e-05,3.152609467506408691e-01
-6.324324264987957189e-02,-5.199882825047099644e-01,-3.613207665024664728e-02,1.146995649917024740e-01,-2.422168258749796913e-03,-1.445235565522645649e-02,5.117090344429016113e-01
-2.589961180424187048e-02,-2.629059717028371379e-01,-5.390415564761769085e-02,2.223266377006259328e-02,7.088362683521586514e-03,7.393881431591546073e-03,2.282906770706176758e-01
-5.072979158446971892e-02,-4.359148523055201285e-01,-3.761262068836085382e-02,9.744967192497152111e-03,-7.766810177214801721e-03,8.571983614963132533e-03,3.927829265594482422e-01
-5.088258921558852510e-02,-3.665741243892925993e-01,-4.667212382403199133e-02,-1.340013257962860849e-03,-4.476430314843321328e-04,-1.284836841558051248e-03,3.178348839282989502e-01
-5.583153808503113491e-02,-3.672187823649026850e-01,-4.856920562297671606e-02,1.585150179418758944e-03,-3.994461994972345331e-03,2.336740382553033867e-03,3.151950836181640625e-01
-3.200835138966599824e-02,-3.550955944942818521e-01,-3.961471915664380172e-02,-6.627903212901906267e-03,9.555184037326726332e-03,-5.158161503086722104e-03,3.201112449169158936e-01
-5.385665706747289061e-02,-3.708865278539741350e-01,-4.560861914525850269e-02,1.287572232676936377e-03,-4.240448247869421997e-03,2.926325755508725913e-03,3.213649690151214600e-01
-6.278212227740086193e-02,-4.296044318816606977e-01,-2.887286646090819753e-02,1.447007345237680265e-02,-1.186776764184335666e-03,-1.143026018517494941e-02,3.862271904945373535e-01
-6.024534116952104390e-02,-3.724505740821245081e-01,-3.609197990860063543e-02,1.493729795727640440e-02,4.222229600776936966e-03,1.573276293721100148e-03,3.260775506496429443e-01
-5.042512756353766112e-02,-3.781991295446734958e-01,-4.296697937517353350e-02,3.768930834532141939e-03,-5.080872416864739075e-03,6.047915513333559749e-03,3.319123387336730957e-01
-3.676398814806487725e-02,-2.990467129979760275e-01,-6.052546603198721842e-02,-3.875642922236648830e-02,-7.555097470957721807e-03,-4.994044786422208171e-02,2.743796110153198242e-01
-3.818013819837548506e-02,-3.752748118892341167e-01,-6.155693432063111259e-02,-4.511027747583303991e-04,-2.482082164347576385e-03,-4.814323273106082580e-03,3.261713087558746338e-01
-4.124956887778627457e-02,-3.725871469499620336e-01,-6.092007781977108738e-02,3.207142789602415636e-03,-4.349504161882891337e-03,-4.616281248303698423e-04,3.220903575420379639e-01
-4.154725203120875066e-02,-3.729502757484650655e-01,-4.859170040559855630e-02,4.502368053143809314e-03,-6.450751930383404661e-04,2.416336443668211376e-03,3.280588686466217041e-01
-3.482407692986198844e-02,-3.712290655386966121e-01,-3.826451670063249488e-02,1.111818806714168911e-02,-1.960446474986021238e-03,-2.296206498071544800e-03,3.352923393249511719e-01
-3.891096298061899605e-02,-3.745013065254011453e-01,-3.745523149177598654e-02,2.890058688255159932e-03,4.333051260141987902e-03,-1.453949182134023311e-03,3.364509642124176025e-01
-4.060531021798534368e-02,-2.099532851347670204e-01,-5.267532503445523928e-02,4.515780350733677312e-02,4.160840290532995082e-03,-7.646202340774145567e-02,2.246983200311660767e-01
-3.989210647209864846e-02,-3.980144934299462145e-01,-7.354015855490091125e-02,-6.296738868507506873e-03,9.897992243521697153e-03,-1.011105081332014793e-01,3.852487206459045410e-01
-4.221913782841379276e-02,-2.156853278563958809e-01,-5.244911375739572112e-02,6.125206240465037172e-02,5.753257499721214398e-03,-7.221861178425319217e-02,2.354186624288558960e-01
-3.114410466624356610e-02,-5.719449157443138310e-01,-5.252242673503801362e-02,3.821670978719520894e-03,1.299982510730720610e-02,-7.936359254773579786e-02,5.484593510627746582e-01
-3.607587477454787805e-02,-3.444848524452860383e-01,-4.688398329279651333e-02,2.517733273411876943e-02,-5.509693992613466651e-03,-6.163050544281668125e-03,3.066044747829437256e-01
-4.175084730916485409e-02,-3.675203409378074992e-01,-4.611832561971218603e-02,-6.985136681152685116e-04,1.097354180134074361e-03,-5.478487070697875706e-04,3.236171007156372070e-01
-6.551814473872177857e-02,-5.115827032113735573e-01,-3.382146267255589644e-02,7.162403584074521212e-02,6.620042239413237092e-03,-2.636051200729202029e-02,4.813763201236724854e-01
-5.049697972185865358e-02,-3.717255064758340777e-01,-3.885443567064941761e-02,-1.659403654970501929e-03,3.150974528344186669e-05,-3.848695612983228480e-03,3.272857069969177246e-01
-4.744918196564762436e-02,-3.570600190741057278e-01,-3.910050832341158134e-02,1.440186137916134312e-02,1.688433064860962339e-03,9.992277222350890234e-03,3.153470158576965332e-01
-6.197497260340882608e-02,-3.932572742145949429e-01,-3.243611267113530316e-02,1.107111781705908196e-02,3.389419098652764195e-03,7.322539589308931819e-03,3.478063344955444336e-01
-3.850437278230395277e-02,-4.017726671282015327e-01,-4.800056557851832550e-02,-5.194318070573000767e-02,1.498321024548818735e-02,2.950482908210683847e-02,3.741440176963806152e-01
-6.023759387233268425e-02,-3.943135683521135082e-01,-2.770617346213161136e-02,2.217496687811479350e-02,4.398604370079159452e-04,-8.527586779575607387e-03,3.538741767406463623e-01
-4.169433653150075858e-02,-3.709942995402261134e-01,-4.603346367755767332e-02,-1.437334890077422321e-03,-3.078905137602538575e-03,-2.334313418144078143e-03,3.272298872470855713e-01
-5.251352255373684108e-02,-4.280938000379495012e-01,-3.938379219667786924e-02,8.766181397153810506e-02,7.352937519109562989e-03,-2.332366975688293306e-02,4.135361611843109131e-01
-5.810161307704538036e-02,-3.934638800238214884e-01,-1.689259238324217205e-02,6.203711715458676973e-02,5.169277529999000316e-03,-3.595956811794837754e-02,3.788023591041564941e-01
-7.815235639941864321e-02,-4.821407614119463947e-01,-2.336120836449126492e-02,1.497037983997910882e-01,1.350734098802927434e-02,-3.377176766920877288e-02,5.094568729400634766e-01
-2.371370124313491867e-02,-3.652849046793613108e-01,-4.372008718206672750e-02,7.942327905145244241e-03,-1.646879742910843918e-03,-5.270739114979127761e-03,3.324428498744964600e-01
-3.242543865965633043e-02,-2.846418422388886094e-01,-5.765590407450610355e-02,6.194454024531673153e-02,4.658864334676360817e-03,2.341232291974613966e-02,2.666590511798858643e-01
-6.043276447147130637e-02,-3.649558065686376862e-01,-3.497016955270944305e-02,-2.105196133878836987e-02,-2.622628300886193677e-03,-8.687603851771938043e-03,3.204889893531799316e-01
-3.166184158707092966e-02,-3.633866434273554935e-01,-4.283206577736776988e-02,2.812926189136902635e-03,7.494860899659933952e-05,-4.968297355105471711e-04,3.263206481933593750e-01
-7.092434686292570234e-02,-3.776693981456246130e-01,-3.313492479655780198e-02,5.583287539706842731e-03,4.238022168313538597e-03,-8.240171319690685076e-04,3.275083601474761963e-01
-4.059411216670100186e-02,-4.002858955786832151e-01,-4.102779687319280111e-02,4.185510357287384325e-02,2.200391833425976561e-03,7.611169796032698186e-03,3.669689893722534180e-01
-5.917059972654906130e-02,-5.488632667383338548e-01,-2.744907349867858892e-02,1.127559365582745804e-01,-1.091672256821799372e-02,-4.058752309794995752e-03,5.430355668067932129e-01
-4.101852147046070041e-02,-3.737239949890749369e-01,-6.252882943758991674e-02,3.878900869827140666e-03,-4.513482288520674450e-03,1.042106525247174205e-03,3.226585388183593750e-01
-4.216871465635513294e-02,-3.785210267616851976e-01,-6.248598525467356779e-02,1.618473703329810455e-03,-9.704704876847334086e-03,1.641312453732168830e-03,3.271244168281555176e-01
-3.354040783873005194e-02,-6.370790069987739557e-01,-5.119156494953081005e-02,-5.783623072280035145e-03,-3.219495363633498482e-03,4.979234451341436191e-02,6.012374758720397949e-01
-4.535339065913661372e-02,-3.896397034828175676e-01,-6.714139916063982527e-02,3.282066218550319268e-04,-1.575224243103267793e-02,-3.618256928345211284e-03,3.350977003574371338e-01
-3.178656994456507956e-02,-3.886208695519288714e-01,-7.138788421890734925e-02,4.301509425045576011e-04,-4.225134884502679288e-04,3.037663719165556442e-03,3.388165533542633057e-01
-3.943656314418100828e-02,-3.774056804073261384e-01,-6.305796753463421833e-02,-3.123241779429825060e-03,-1.718502439389733372e-03,-2.544764341259900687e-03,3.268873393535614014e-01
-3.406876975076292280e-02,-4.351399466856408771e-01,-4.715987032371744825e-02,-1.657852497617607127e-02,-6.937267282954730392e-03,-1.611852780493228110e-02,3.968971371650695801e-01
-2.239611634468641199e-02,-3.730071567253695486e-01,-4.351349017026677479e-02,-3.402464413449959174e-03,2.591103643994180881e-03,-4.023615296568313661e-04,3.406250476837158203e-01
-3.071481125422240166e-02,-3.686268351100016050e-01,-3.884988436187217231e-02,-3.695606250423127265e-03,1.033950946790946832e-02,-7.306342213217974051e-03,3.346992731094360352e-01
-4.091445329583752455e-02,-4.058642937259688277e-01,-3.736793172250589545e-02,1.914786036459389593e-02,-4.089358772968713744e-03,-1.905170385516920251e-02,3.697759509086608887e-01
-2.186343901428464132e-02,-3.528411069275056433e-01,-5.365314541832777451e-02,-4.186641379082399472e-02,-6.644978332201290083e-03,-7.000613406351075332e-03,3.249199986457824707e-01
-2.902270496834732927e-02,-3.100756685472035867e-01,-4.584971397976031482e-02,3.213642985180954780e-04,8.852179742333403031e-03,-8.378645834340940624e-03,2.738441824913024902e-01
-4.502079540538043295e-02,-1.927475448558605975e-01,-5.754999876826890487e-02,-6.432184523383285835e-02,6.098713232035508393e-03,-1.420782272248279597e-02,1.823686957359313965e-01
-4.890618772134114334e-02,-1.731334828272194648e-01,-3.524829279510051372e-02,8.109919735064720359e-02,2.854786142385404464e-03,2.472447917285969243e-02,1.972440928220748901e-01
-4.705849673371351183e-02,-3.528260029954863874e-01,-2.708820890422042327e-02,6.345364822418379791e-02,-1.489591837322625997e-02,2.123874486410821938e-02,3.377822637557983398e-01
-3.015290088881203423e-02,-2.629627346620945216e-01,-5.715404613553214802e-02,2.712557893718850824e-02,-5.466789570366328496e-03,2.298512611727932637e-04,2.257001399993896484e-01
-1.404293887173158062e-02,-3.244839958242039524e-01,-5.363975117063356224e-02,6.808730327287044505e-03,-3.602832647041083296e-03,-1.037794842599391388e-03,2.929681241512298584e-01
-5.231022274780448844e-02,-1.591662937591034055e-01,-1.876428272798701807e-02,7.661911110783302392e-02,6.333586937713020504e-03,-3.211530836085584734e-02,1.922345608472824097e-01
-5.021144698290226638e-02,-2.123144288096680959e-02,-4.767013144997628293e-02,2.414743494446136909e-02,-3.570943814727866802e-03,9.184943116323366838e-03,5.304047465324401855e-02
-4.786042010083413345e-02,-2.053438299139810908e-01,-6.778805903148051037e-02,1.825948291629219192e-02,-6.861389143182326528e-04,3.112426124415572522e-04,1.518610864877700806e-01
-5.088105695870770440e-02,-3.829911086397994602e-01,-3.745970362524020381e-02,-1.804342280597641054e-02,-4.592495691460822885e-03,4.998364044253065554e-03,3.406603932380676270e-01
-5.533912196136218931e-02,-3.776160189861330618e-01,-3.798328177717813503e-02,-5.740367389256109676e-03,4.518363681792370024e-03,-2.526847656234766648e-03,3.315663933753967285e-01
-4.613015532797797025e-02,-3.701701934835503471e-01,-3.845865350094093693e-02,2.781258210103287193e-03,6.981736342655224395e-04,-3.531804773327301868e-03,3.280377388000488281e-01
-6.097458213551590345e-02,-3.855946022602284029e-01,-3.938611962716159764e-02,-2.402365277621825931e-02,4.990327627520247701e-03,6.056170083646739317e-03,3.387748599052429199e-01
-7.483713230053797016e-02,-3.893879487459586675e-01,-3.030962885157617581e-02,4.706970112780071297e-03,-9.176015067828368179e-04,-1.822119608561335955e-03,3.391312956809997559e-01
-3.756518763647108405e-02,-3.697241992028567070e-01,-2.759800155573137459e-02,-2.185812598638737624e-03,-6.600018951172730887e-03,-4.602114469436118481e-03,3.375621438026428223e-01
-6.662419275000652785e-02,-4.341991394386438552e-01,-2.451375933289742792e-02,1.796326763685283413e-03,1.107715402195951979e-02,7.927366686402047757e-04,3.908235430717468262e-01
-1.591011009532478093e-02,-3.640697938252248633e-01,-4.550070494749368366e-02,-1.775846643340560924e-03,-1.991770019585325027e-03,-1.466642893887127447e-04,3.343799412250518799e-01
-1.225031048786473509e-02,-3.491948753483331558e-01,-4.729642698745362139e-02,-8.517024608131265606e-03,-4.280932623017455647e-03,-3.218293661876381936e-04,3.212851881980895996e-01
-1.964435762191275858e-02,-3.638339987731246672e-01,-4.304858357326234175e-02,-3.802610986313951081e-04,-2.324302176520320375e-03,-4.392989486070566422e-04,3.331305980682373047e-01
-1.828319860275162689e-02,-3.674503816061143735e-01,-4.861145674768325986e-02,-3.557015346196504366e-03,-1.303023826624067748e-03,-1.763894883095875514e-03,3.351123332977294922e-01
-1.579883325312772535e-02,-3.622960928871072350e-01,-4.639184972360983761e-02,-1.579377084284618645e-03,-1.873478191383846523e-03,-5.200950896389276148e-04,3.322871029376983643e-01
-1.314861653796323138e-02,-3.585751102654611833e-01,-4.808888448376123781e-02,4.043713217062061571e-04,-2.780174139875739737e-03,-9.172141015830309043e-04,3.293891251087188721e-01
-3.048713332978458812e-02,-3.723096063999860039e-01,-4.112133013675815796e-02,-4.987490748514789886e-03,-3.400199271919056732e-03,-1.583018356099942774e-03,3.368048667907714844e-01
-1.881772359432504205e-02,-3.675195815863584459e-01,-5.735117259596617112e-02,-1.406315337382737368e-02,-2.336146623154269821e-03,-4.997142178525277451e-03,3.321531713008880615e-01
-4.087661541546311339e-02,-3.686724816908096281e-01,-3.465983414963526299e-02,-3.996542490765783544e-03,-3.112842636622714827e-03,2.655679737868973911e-04,3.310646712779998779e-01
-3.699499716373515212e-02,-3.689705893573713147e-01,-3.721423039845082881e-02,-2.900032294669915075e-03,-2.565442786207983942e-03,8.794922654151715591e-04,3.319372832775115967e-01
-4.145714111041566563e-02,-3.718487365916285370e-01,-2.759739353410001206e-02,-2.105957608631400801e-03,-4.984987111802222613e-03,1.745655352098992100e-02,3.390160501003265381e-01
-4.671893401676437130e-02,-3.847236098060258791e-01,-4.526564871476532192e-02,-1.132501884451676561e-03,6.604013605831762952e-03,-4.592014182505601942e-03,3.390257060527801514e-01
-4.159183408192591858e-02,-3.669637703208437074e-01,-3.500500908995203553e-02,-5.001324281691106556e-04,-4.439824826964898670e-04,4.781552509736442837e-04,3.287179172039031982e-01
-4.076100213882902223e-02,-3.677559577001765501e-01,-2.595329629894028989e-02,-5.348366066285486012e-03,-3.879698989063453101e-03,5.637194726175269975e-03,3.349825739860534668e-01
-3.281386771260724755e-02,-3.682048204037867700e-01,-3.602878527842619250e-02,6.289568293189270760e-04,-2.177933937391531970e-03,-5.332388695899330537e-04,3.338194787502288818e-01
-4.129593512410843770e-02,-3.624291784587296839e-01,-4.660373067375613021e-02,1.411728295305817674e-04,2.963957730592842003e-03,-1.088077973935630939e-03,3.185595571994781494e-01
-4.462398589131189031e-02,-4.005217726109736587e-01,-4.704809056491125741e-02,1.246103496193313662e-02,9.194515552885570986e-03,-7.750605427872564457e-03,3.559579253196716309e-01
-5.433869405121166674e-02,-3.780966557395875061e-01,-3.859650581901571953e-02,-4.978139683837120959e-03,6.676226320077098889e-03,-4.526603684922986953e-03,3.323149383068084717e-01
-1.355557033541443523e-02,-3.571399807232835122e-01,-4.418095576453277828e-02,4.101319326432053235e-03,-4.440149840816806810e-03,-1.261642020981157452e-03,3.295150101184844971e-01
-3.503372443835074679e-02,-3.842080453189021805e-01,-3.899510881743546709e-02,-3.451753448191070134e-02,-1.342564690602719409e-03,1.872085271751466884e-02,3.538168668746948242e-01
-4.972356983786922757e-02,-4.147463296813804767e-01,-2.242087244794957468e-02,-1.993828953551562283e-02,-3.532277960538289865e-03,-1.907006754837418591e-02,3.824580907821655273e-01
-4.755490456466280463e-02,-1.814072472703759931e-01,-6.269412864360654480e-02,-2.211280573073013539e-02,-9.197465776765228682e-03,-3.601255008393219100e-03,1.337117850780487061e-01
-6.249865468743062702e-02,-3.762209230646779701e-01,-3.273638549448205926e-02,-4.664667567124351766e-03,-8.831911669342671582e-04,-3.640421303566408685e-04,3.297158777713775635e-01
-1.301285285189007768e-02,-3.601072668677789412e-01,-4.827388636753353335e-02,-7.455359395328510323e-03,-4.307471691826112239e-03,-1.544890141812762857e-03,3.312228024005889893e-01
-1.339005838904228085e-02,-3.618564561552196635e-01,-4.826520541877805937e-02,-6.682726325725976517e-03,-3.724187235217028477e-03,-2.120588309960822707e-03,3.326880931854248047e-01
-4.061916006368755661e-02,-2.856609963921329376e-01,-4.740116096492619224e-02,-1.465465336514786519e-02,-1.382701313330985879e-02,1.593600207542929161e-03,2.442438900470733643e-01
-2.785012299702351035e-02,-3.647953042419512792e-01,-4.343605877152655059e-02,-1.135574285103384783e-03,-2.841889616414665625e-03,-6.319686510365273187e-05,3.294715285301208496e-01
-3.363125816522392897e-02,-3.703067506525771768e-01,-2.978394171189809037e-02,-4.835204762052843636e-03,-8.414259932524155439e-03,1.383938353674770382e-03,3.390409648418426514e-01
-4.609326688963051588e-02,-3.628707041859881022e-01,-1.981299139056177938e-02,-7.699417714764792775e-04,1.741736806779907443e-03,-1.115048889180201468e-03,3.307237625122070312e-01
-3.514871034699057484e-02,-3.354906991995064147e-01,-3.385963855416926349e-02,-3.344124080817133943e-02,1.818845466677126987e-02,-2.122687137460572623e-02,3.103115856647491455e-01
-4.249681989282963479e-02,-3.712069777856594199e-01,-2.380919610219077442e-02,-1.491239803465616845e-03,5.189636475171659907e-03,-3.293177218931190881e-03,3.386183977127075195e-01
-4.202340625833485277e-02,-3.749511486520437087e-01,-4.165006411729289815e-02,-2.930017235989223860e-03,-3.854806444642647472e-03,-5.312826668122336629e-03,3.333471715450286865e-01
-4.013015416893417342e-02,-3.744562717286589182e-01,-5.214521650184186785e-02,2.704898435944950996e-03,-1.037893573527517380e-03,3.125285591883442213e-03,3.285663425922393799e-01
-3.717560740784355000e-02,-3.599860438003730234e-01,-4.080094691112939875e-02,-1.189591909568062447e-02,1.392620994490870959e-03,-7.732037234608974373e-03,3.219613730907440186e-01
-3.761276257432608072e-02,-3.744851883508981683e-01,-5.216701731272842257e-02,3.079121326134060498e-03,-8.047350800053578064e-04,2.974755905152146745e-03,3.299224972724914551e-01
-5.522584681079584223e-02,-5.520506267109064336e-01,-4.341763195222192451e-02,-1.105797293167494755e-01,-1.952750795692747773e-02,2.564524741351461093e-02,5.409635305404663086e-01
-4.010162493369674730e-02,-2.886241789036161354e-01,-5.896941114975622067e-02,-7.039344044306555803e-02,-8.348256613206164745e-03,-9.246225146209105517e-02,3.132937550544738770e-01
-1.930399240056590582e-02,-3.808315622597138184e-01,-6.404843791845468703e-02,5.033500837062650918e-02,-9.548894252591983778e-05,-5.486319103070547154e-02,3.649091422557830811e-01
-4.129025258981047775e-02,-4.515783412913374484e-01,-5.629398859542630862e-02,-6.317746754337683068e-02,-4.786428053833748780e-03,-8.145247245979052308e-02,4.408537149429321289e-01
-3.973354910933026007e-02,-2.265141932213339815e-01,-4.203908806632807721e-02,5.477002929217089471e-03,6.172312423637310239e-03,-7.091485050733040141e-02,2.230531871318817139e-01
-4.974272036758285720e-02,-3.752751486251265645e-01,-5.773768113069181751e-02,4.807391100861073234e-03,-1.110901241166292221e-02,1.225471321779568815e-03,3.222991228103637695e-01
-4.400945159230633397e-02,-3.716536202570077663e-01,-4.510180088765478046e-02,2.530343555369938408e-03,3.769725451827415572e-03,-2.035772300842370909e-03,3.272128701210021973e-01
-3.343026079007394707e-02,-1.700895943865887439e-01,-5.122995475566969464e-02,-2.669736275589135524e-02,4.103775226417524964e-03,-1.138515377176599203e-01,2.400737255811691284e-01
-4.044833234357921026e-02,-3.705496408004442799e-01,-2.096555183247839071e-02,-7.126715860429574424e-04,2.135470620906861072e-03,-1.303215755639163496e-02,3.410314619541168213e-01
-4.007878021024856297e-02,-3.778449129427354780e-01,-4.339522608659450442e-02,1.046666578131848300e-03,1.135198595908910835e-04,-6.766349033291363217e-03,3.363293707370758057e-01
-6.281500594332509180e-02,-4.238256304180247902e-01,-3.692355569961902617e-02,1.132552612996114367e-03,-3.097763116820803804e-03,-1.417416024247073001e-03,3.746795952320098877e-01
-7.304120012839879217e-02,-3.832979907887894555e-01,-3.042189085494251266e-02,-3.911694324719399004e-04,-1.580093768175402707e-03,-4.623444615004366869e-03,3.337224721908569336e-01
-5.327672806753136481e-02,-6.165430711133257358e-01,-3.609614572708297331e-02,2.242553414273999041e-02,-1.119462326505505333e-02,-1.462015021718707057e-02,5.742536783218383789e-01
-8.992533531211766018e-03,-3.495670832480194945e-01,-5.025629188187899499e-02,2.486584959853646668e-03,4.512736707907070792e-04,-3.444482232475650396e-04,3.219625055789947510e-01
-3.336746721314015618e-02,-4.108896050021829671e-01,-3.905004134108541747e-02,-2.016368300359682939e-02,3.244765269984312400e-03,-4.833256053109915087e-03,3.764722347259521484e-01
-6.392825809449259600e-02,-3.786104906619580102e-01,-4.108746941027252575e-02,4.753071839144253422e-03,-4.947041760382102880e-03,4.564988257554309335e-03,3.270136117935180664e-01
-4.637265515221183909e-02,-2.916353409828507104e-01,-3.368057037331050052e-02,1.772414934246227623e-03,1.272973466810383217e-02,8.907532699956309183e-03,2.533009350299835205e-01
-3.839865022513030968e-02,-3.064055742129365156e-01,-3.351001047679803835e-02,7.930912618811554113e-03,1.686367614667335160e-02,1.550278330729678786e-02,2.737236917018890381e-01
-3.943459478276853392e-02,-3.264500226717804710e-01,-2.961065934423273704e-02,7.743777175116794628e-03,1.393700946939390589e-02,8.854167134543869128e-04,2.933580577373504639e-01
-4.079966262685648382e-02,-3.330565277687306258e-01,-3.620264184107754857e-02,6.206739074945188256e-03,1.673574890186253078e-02,1.244814191276374417e-02,2.969838678836822510e-01
-3.620389773970014713e-02,-2.841893024371308085e-01,-3.077496300606456792e-02,2.552282126893263767e-02,1.748036370764335934e-02,2.847599223914808533e-02,2.611055672168731689e-01
-5.028825415979588931e-02,-2.082524090001990624e-01,-3.128548865751726304e-02,2.877859355007973338e-02,8.569351499591322530e-03,4.547699349425572690e-02,1.929376274347305298e-01
-2.896015573038260293e-02,-2.884696518348716654e-01,-5.036134843293159358e-02,2.048202043124114358e-02,1.148864082512873752e-02,1.267077647224183756e-02,2.537430226802825928e-01
-3.398318304347737462e-02,-3.592030944475603227e-01,-2.964086328578628693e-02,1.504019192759591117e-02,8.777019537040442118e-03,8.715053450692674536e-03,3.291453123092651367e-01
-4.838382257195147917e-02,-3.649490283080931152e-01,-4.952700542315428833e-02,4.433298434131388729e-04,-1.042537739537013506e-03,8.114924115615914767e-05,3.160012960433959961e-01
-4.249739426573137524e-02,-4.073332385509693676e-01,-6.595511769845972816e-02,-7.268157756127759279e-03,-1.294504735127521150e-02,-3.108964883614279053e-03,3.546652495861053467e-01
-5.219713064198946983e-02,-5.268505927116831078e-01,-3.420497382169954137e-02,7.470322862944588083e-02,-4.992280737046422140e-03,3.280954019428553720e-02,5.041880011558532715e-01
-4.938245160443043014e-02,-3.753668698132542891e-01,-4.051685155898908375e-02,-2.911954987393693302e-03,4.682994266060517370e-04,-7.686797842605361827e-05,3.305459022521972656e-01
-5.192330705402170565e-02,-3.708492864780995601e-01,-4.010818948436034592e-02,3.329587829516706798e-03,-1.494235558505706751e-03,-3.588065821216541908e-04,3.250567018985748291e-01
-4.767255057366803772e-02,-4.134426921427666324e-01,-4.310827857778577743e-02,5.015132571632406611e-02,-8.520376281194744217e-03,2.620768753502286663e-02,3.811848461627960205e-01
-4.622249384364851554e-02,-4.345944984707818537e-01,-6.144727862040137711e-02,3.034525440239847077e-02,-1.069887041863315166e-02,8.054319268660474485e-02,4.095354080200195312e-01
-4.017086886406025237e-02,-3.710638589159040990e-01,-3.923526677304219057e-02,2.271264342728566716e-03,6.632607206243954856e-04,1.825648464450636832e-03,3.314022123813629150e-01
-5.467335135071713093e-02,-5.240345288981174132e-01,-2.993829566392927632e-02,-1.831941085918621735e-03,-1.004334792157190147e-02,2.898183293250828144e-02,4.851329028606414795e-01
-5.237252344929735348e-02,-5.109881074064078765e-01,-3.773074330217315864e-02,-3.406590160987703342e-02,-1.435874718205965017e-02,2.302063475028234135e-02,4.721730649471282959e-01
-4.280265087007903424e-02,-3.708910470939671411e-01,-3.892272989435834052e-02,3.399822377081683847e-03,9.659832529804131046e-04,4.008268984131984833e-03,3.301752209663391113e-01
-2.512818424307541876e-02,-3.416122889618595782e-01,-3.841787774043943504e-02,3.856732321304446459e-02,1.517943163449824578e-02,1.542867373104180734e-02,3.193752169609069824e-01
-4.493307325217607562e-02,-3.676705514679980968e-01,-4.373475464771617305e-02,2.523841381847855285e-04,-3.086233663397813971e-03,-7.254552079976049920e-04,3.233852088451385498e-01
-4.674683271019923481e-02,-3.704113602595375809e-01,-4.117569006783054764e-02,-1.744841414795558158e-03,-5.783897041439644985e-04,-2.855477574729264108e-03,3.265387415885925293e-01
-3.973987590454755581e-02,-3.666727123225805851e-01,-3.931206211216495272e-02,-2.184562318185071092e-04,2.356999443570009529e-03,2.897617802133303257e-03,3.272111415863037109e-01
-3.583800156864271058e-02,-3.672461131238734522e-01,-3.657845986204885658e-02,3.849656939082305969e-04,1.456595589646880566e-03,-1.647031861991637113e-04,3.310489058494567871e-01
-4.867807521738463927e-02,-3.771515781974288384e-01,-3.973362311897113419e-02,-2.668414904950905039e-03,-7.196907251638361407e-04,-3.492668289667098780e-04,3.330707848072052002e-01
-5.420918096568320965e-02,-3.797712397091259628e-01,-3.347156544351927165e-02,-4.754227032657065179e-03,-2.195197930730836879e-03,-1.876768962392187873e-03,3.365485370159149170e-01
-7.158904862793386004e-02,-3.764930710678208170e-01,-3.184327804916201043e-02,-1.070857277800844540e-03,-1.459604755201109527e-03,4.079340598898041495e-04,3.266116380691528320e-01
-4.715277202667614298e-02,-3.672207265123451636e-01,-3.791709984704567937e-02,1.392828237567452637e-02,1.986221157429578742e-03,4.318748637138946820e-04,3.256980478763580322e-01
-2.136859696504717077e-02,-3.599913876683508152e-01,-4.425451894945106601e-02,5.905097534525756333e-04,-2.841766121117881476e-04,-2.089178271537665312e-03,3.278015255928039551e-01
-3.872221750831275622e-02,-3.692507227646807388e-01,-3.950335114136330206e-02,-2.446369686944700229e-03,-1.027047823560254207e-04,9.189494186019577708e-05,3.301659226417541504e-01
-3.294603928391355574e-02,-3.660969520781017783e-01,-4.517185987897898158e-02,3.553973729347910935e-04,-3.652314987155212862e-04,-3.001255414864396290e-03,3.272518217563629150e-01
-5.048051315122221994e-02,-3.813259651526134109e-01,-2.756453257419413938e-02,6.966648651419303506e-02,-1.348843125722921747e-02,1.847319530678434921e-02,3.656437397003173828e-01
-5.745372811093828191e-02,-3.693871972412848259e-01,-4.442320214457697036e-02,4.113716063246475015e-04,4.590422629109330854e-03,9.747089130616448660e-04,3.187530636787414551e-01
-4.880289839209511760e-02,-3.658520104862532651e-01,-4.876118533375735364e-02,4.605354184680585800e-04,4.403109310831368993e-03,-7.471186862935102601e-04,3.171653151512145996e-01
-4.894776696481709100e-02,-3.659647984704038626e-01,-4.950488648065184960e-02,5.670873001253752630e-04,3.762192717076385498e-04,-2.694811156137735635e-04,3.167413771152496338e-01
-4.975410548663672383e-02,-3.716656991438871405e-01,-4.274042486725480872e-02,-1.316070035878015533e-03,1.605504414747918357e-04,2.596380866053987335e-03,3.255142867565155029e-01
-5.012359385719358795e-02,-3.771875596241153206e-01,-4.396201357639943630e-02,-4.583983434115068353e-03,9.993249121128346124e-03,1.051387867323324687e-03,3.307415544986724854e-01
-4.708634851647558461e-02,-3.675940756224698180e-01,-4.647019033120543263e-02,8.457130599301795242e-04,2.313562978997272645e-04,-4.645294921384526951e-04,3.208208680152893066e-01
-3.751860276110197123e-02,-3.652053213806946141e-01,-4.195927212617597823e-02,-4.598851339291789371e-04,-2.383825978306829216e-03,-3.449659456241651549e-03,3.255710899829864502e-01
-3.785385146571716708e-02,-3.769985559066667546e-01,-4.498407338222051854e-02,1.024289127232196756e-02,9.334829611105337557e-03,-3.053177677654532463e-02,3.406237363815307617e-01
-5.403246304755014717e-02,-3.792072642563827922e-01,-4.144714519599684843e-02,-2.414116016125572670e-03,1.016801495299540781e-02,8.763923541792852188e-04,3.321436643600463867e-01
-4.139319558911205843e-02,-3.671138231507319327e-01,-4.031689517984717031e-02,4.526095599576348692e-04,1.153566952714917557e-03,-1.576884620535787057e-04,3.262672722339630127e-01
-3.585803363084902329e-02,-4.487976422692781520e-01,-5.519829697461532680e-02,-5.679610031632242699e-03,5.994417661033286417e-03,1.089991011065499782e-02,4.043115079402923584e-01
-2.997262433121292147e-02,-4.009044663414991772e-01,-5.535393947889143129e-02,-9.202624685000279983e-03,1.751250238867612871e-02,6.975256438189466474e-03,3.607492148876190186e-01
-5.025340889453748516e-02,-4.201222645007109957e-01,-4.342136491573236889e-02,5.482266881191855817e-02,-8.429190009826224503e-03,2.498460234219601617e-02,3.879162669181823730e-01
-4.528377230715879831e-02,-3.046466049417156374e-01,-5.168230429541617599e-02,6.767538936221099977e-02,-4.697478729857264626e-03,6.642593235268423602e-02,3.044565021991729736e-01
-4.205064909086184133e-02,-2.662443082691219320e-01,-4.572311497157682814e-02,8.645436017177958454e-02,-1.022395025364858032e-02,9.165160490856293085e-02,3.120731413364410400e-01
-4.982105928836572106e-02,-2.658928718800510627e-01,-4.200812395358223539e-02,7.926387396378242745e-02,-6.418881615130939654e-03,8.197930653051810346e-02,2.959221899509429932e-01
-6.411334912289765042e-02,-4.469992268272835467e-01,-3.838782148360364577e-02,1.693370881264338532e-02,-1.116068554391280894e-02,-5.834326180302642530e-03,3.980570137500762939e-01
-1.552019758591005605e-02,-3.590707225675353609e-01,-5.467128024101199080e-02,1.704272591481004184e-02,4.265815229972252237e-03,-2.290698903512177701e-03,3.271866440773010254e-01
-3.666624483041452942e-02,-3.780146513911731843e-01,-3.347672135596811704e-02,1.610864044728234010e-02,9.034154045072646105e-03,1.806854310997587851e-02,3.458617925643920898e-01
-2.120036430639674063e-02,-3.658240615105567417e-01,-4.189848589168829185e-02,2.188515208597228284e-02,2.101130460495930982e-03,-1.681060242833012659e-03,3.369264602661132812e-01
-3.298380876626665070e-02,-2.967232985689026714e-01,-3.914532954417404564e-02,3.869551827165117197e-02,8.457388083525528219e-03,8.668238553511654898e-03,2.700064182281494141e-01
-4.371222419355871858e-02,-3.526720158000276051e-01,-1.252508763477808151e-02,1.446869720234349090e-03,2.091254118405572963e-03,1.690646106903893149e-03,3.257181942462921143e-01
-3.920849787842922707e-02,-3.562614687514985556e-01,-1.646568999384208365e-02,-2.331575143733158361e-04,3.382248568634609910e-03,8.890351457185132801e-05,3.290668725967407227e-01
-4.390695690883995861e-02,-3.546360851741769959e-01,-1.644924096544396475e-02,-4.058168120581916107e-04,1.575655520959460057e-03,1.180547831472360471e-03,3.253468275070190430e-01
-3.921370981704529191e-02,-3.381467917142297885e-01,-2.089820615412740779e-02,6.501245167665177863e-03,1.093742494945913572e-02,8.366092018116267487e-03,3.096243143081665039e-01
-4.597133442709686046e-02,-3.199956741824383499e-01,-1.942837817961143299e-02,1.940590068426685608e-03,1.054152473897777310e-02,1.031417386937834822e-02,2.893632650375366211e-01
-4.668887838878746366e-02,-3.592761746055828653e-01,-2.549122040372078790e-02,2.520861589768831103e-03,2.264234165837944891e-03,7.563732618593923575e-03,3.240252435207366943e-01
-3.954856128045676489e-02,-3.433345005441587050e-01,-2.166334471059469524e-02,6.616175061716834949e-03,1.125906661257608000e-02,1.072817624446953215e-02,3.144772648811340332e-01
-4.890271455104670817e-02,-3.371742172136498739e-01,-1.694584303206615739e-02,4.275784853429827163e-03,5.773912235765509514e-03,1.341867450840444724e-02,3.066414892673492432e-01
-1.952076898396150340e-02,-3.421654118121144617e-01,-5.041238864635068373e-02,1.461739350337877379e-02,-7.883153270882733293e-03,-5.071545791829817212e-03,3.098248541355133057e-01
-4.631417213937821797e-02,-2.868509264970162675e-01,-5.044802049298410807e-02,1.725118835081823664e-03,-1.263994028229670913e-02,-1.351019695073252085e-02,2.406584471464157104e-01
-2.663174389713179185e-02,-1.356029815272978833e-01,-2.998089894611692674e-02,5.620475255018030081e-02,-1.149274582649407843e-02,3.327774688499501865e-02,1.572144478559494019e-01
-4.007522665061392930e-02,-2.504698451308878804e-01,-5.701524513698465191e-02,5.867917990701157493e-02,1.177117969503123016e-02,3.690071141318163050e-02,2.362608313560485840e-01
-4.316427112934750204e-02,-1.079869944584019303e-01,-4.436865926291326534e-02,6.499067336620792390e-02,-4.332845250642299549e-03,1.898436383475542860e-02,1.339188814163208008e-01
-4.807971514689549780e-02,-1.383105249154273075e-01,-1.214775690826278703e-02,5.450205919884324596e-02,1.432807238259846232e-02,9.616769557406463706e-03,1.499320715665817261e-01
-5.837070390277077081e-02,-1.027790824194798613e-01,-5.174858934596152094e-02,4.413311097225258023e-02,-1.247663790669226256e-03,2.769901375432523571e-02,1.022722050547599792e-01
-3.857433998164519484e-02,-3.695447911449133982e-01,-4.035180579741169671e-02,-2.025811343345748942e-04,7.776124035579428219e-04,-1.752906135067208758e-03,3.301022052764892578e-01
-4.462035564014375788e-02,-3.673898975735675476e-01,-4.268928489990124475e-02,-1.460490738682243246e-03,1.197511399650525002e-04,-1.640525878192461776e-03,3.237618207931518555e-01
-3.814596798752645235e-02,-3.679927641300787533e-01,-4.011239748574167707e-02,2.394353413631841992e-03,9.107506675221299034e-04,-2.757185482618826084e-04,3.288982808589935303e-01
-3.615523918025422001e-02,-2.591730422389355581e-01,-2.684712928289424705e-02,4.117635325279786485e-02,1.377935519037231694e-02,3.556986056525440060e-02,2.476917207241058350e-01
-3.293705109769637374e-02,-3.674311069208451297e-01,-3.385652411902810577e-02,6.174700946014252808e-04,-2.585149920953593678e-04,3.611077962577971621e-04,3.340378701686859131e-01
-4.110635289722090746e-02,-3.703028867648924249e-01,-4.705785330998965565e-02,-1.914577706914335868e-03,-2.481825754113069302e-04,-2.255746027484936082e-03,3.263020217418670654e-01
-3.677786125165252717e-02,-3.672628092079015527e-01,-3.616731321289402834e-02,2.477420637501252017e-03,1.998406599992810957e-04,1.615429836856069508e-03,3.308304846286773682e-01
-1.915431707821466101e-02,-3.611296086256736149e-01,-4.279384740250125052e-02,-5.182261703610039445e-04,-2.364986289476563724e-03,1.194431865200661986e-04,3.308162987232208252e-01
-3.335270941941026468e-02,-3.983515676120519267e-01,-4.415919756082845038e-02,-1.605400377579944624e-02,5.872641325855497592e-03,-1.856300618287380676e-03,3.609481751918792725e-01
-1.418550399895765479e-02,-3.589951788884818695e-01,-4.546190675034671169e-02,8.218749454587798414e-04,-1.141836826015803089e-03,-2.920041302183903832e-04,3.302933871746063232e-01
-3.809648146871408292e-02,-2.924774680333851462e-01,-3.563512770505897209e-02,-1.499020844441568967e-02,-1.348290301097888541e-02,9.172430977806988669e-03,2.584835588932037354e-01
-2.936473178062413980e-02,-3.719762500716430331e-01,-4.265639073759180944e-02,-8.975238433894292640e-04,-1.533793764695952052e-03,-2.081021926942401481e-03,3.361962437629699707e-01
-5.046850921820072999e-02,-3.321630802677719152e-01,-1.280611726278246820e-02,-1.814870776799567490e-03,-4.211521428085360751e-03,1.409074031524070077e-02,3.033781647682189941e-01
-6.074510735200201045e-02,-2.675524294910086032e-01,-3.348608669925023928e-02,-1.087230304140046058e-03,-3.247366154225037049e-03,1.479892508771473575e-02,2.232529819011688232e-01
-3.880700367890485558e-02,-2.681972763644597246e-01,-4.286599538748256388e-02,-1.638713868144144742e-02,4.231837371460911087e-03,7.001143721239500017e-02,2.593635022640228271e-01
-2.991533233323218077e-02,-3.603708957104941324e-01,-4.163415458980745942e-02,-6.001067101550888044e-03,-1.265400599969215487e-02,7.738642520342365987e-03,3.259351551532745361e-01
-1.195901103413091193e-02,-3.585222826926654505e-01,-4.915102866154716366e-02,2.992407104172279189e-03,-1.369725993722869422e-03,-3.216004446964175045e-03,3.296414315700531006e-01
-1.970858457896075555e-02,-3.612395273863204803e-01,-4.460837430280964466e-02,1.244357976323353515e-02,-4.759967034625007219e-03,-3.400679464723577964e-03,3.306456208229064941e-01
-8.746411749326749030e-03,-3.498524202536246186e-01,-4.979557529929277970e-02,1.829737976348586514e-03,1.041893219450241894e-04,3.729716299543801004e-04,3.225627243518829346e-01
-1.793836722447079979e-02,-3.392985109068300531e-01,-5.013581452208985823e-02,9.186206483243574208e-03,-6.052925199026852957e-03,-5.375096222688059179e-03,3.072650134563446045e-01
-1.449416409875745049e-02,-3.558904502345074938e-01,-4.664170696463112997e-02,5.357313501626334053e-03,-5.114822124595549795e-03,-1.740118904126803723e-03,3.267774581909179688e-01
-1.485713367426094722e-02,-3.472247548646004156e-01,-5.118359593875611291e-02,-3.426708972447506488e-05,5.168591818559863278e-03,1.028754120916680311e-03,3.159072995185852051e-01
-3.305157340783411446e-02,-3.703917967105772591e-01,-4.189307659454720445e-02,-3.705518489982549853e-03,8.601884087748754243e-05,-1.868609459266408566e-03,3.330851197242736816e-01
-6.482784459143235700e-02,-3.105024635813364853e-01,-1.937208713182780873e-02,-7.136778402743727996e-03,-8.554787564322013926e-03,3.327404640176500478e-02,2.779989540576934814e-01
-5.460234252458207038e-02,-3.743293477900894173e-01,-4.184670305073734387e-02,1.766126957975162979e-03,1.359205856127739930e-03,-4.366383964290619299e-03,3.264023363590240479e-01
-5.099652182347852447e-02,-3.696979002203910625e-01,-4.505829274152316211e-02,-1.695412696450052667e-04,1.117297801317885695e-03,-4.234803370496942028e-04,3.217183947563171387e-01
-5.857521119572363377e-02,-3.855189736659009325e-01,-3.457752371917105494e-02,-1.646352530279389034e-02,8.764237810300069473e-03,1.539724124132553322e-02,3.421531915664672852e-01
-4.172000054530589086e-02,-3.840507679946627007e-01,-3.953244948685083471e-02,-3.805568672870341534e-02,-1.196302268216146991e-02,-4.104846670624906838e-03,3.503835201263427734e-01
-4.651271912622001459e-02,-4.451226023789869868e-01,-3.646823670303567244e-02,-4.377907093832487245e-02,9.184493667558102717e-03,8.718891382227655223e-03,4.113702774047851562e-01
-3.968801145099465355e-02,-4.006847792836294442e-01,-5.432094284726002309e-02,-1.659917207821681034e-02,4.732098421841415652e-03,2.232487812391497489e-02,3.572664558887481689e-01
-3.592931201043098044e-02,-3.654772689523790863e-01,-4.105316380305347457e-02,-1.398750500513619248e-04,1.376856762190315018e-04,-1.552544343732536677e-03,3.270273804664611816e-01
-6.352421072747019282e-02,-2.395794686161012155e-01,-3.616333236401496343e-02,1.072141664817265194e-01,1.114893490911330947e-03,-4.067773066939790738e-02,2.757054567337036133e-01
-4.551617990652087609e-02,-3.672147600621742392e-01,-3.961258339859825839e-02,-4.488469305741109652e-04,2.226838334372350202e-03,-1.325712153022018608e-03,3.247225880622863770e-01
-1.629915807123269444e-02,-3.450388980242993231e-01,-4.935614025044085529e-02,3.224669268113757731e-02,-8.616522592426513819e-03,-7.932944525980452702e-03,3.191026747226715088e-01
-5.197045390279830812e-02,-1.781851589734768093e-01,-1.510783225304250521e-02,8.857742790099513985e-02,-1.062588242149517179e-02,2.084227045668155670e-02,2.170746922492980957e-01
-3.217818779729712808e-02,-3.285545216841800342e-01,-3.971262116303649059e-02,2.857952851913823228e-02,-8.172488948101793577e-03,-1.379709539564738345e-02,2.981350123882293701e-01
-3.284786809610426572e-02,-4.194187649736696444e-01,-5.111303106533159057e-02,-1.137755683962306946e-02,7.546497109810829801e-03,3.839108626329646064e-03,3.785674273967742920e-01
-3.405455309662477892e-02,-3.830213689164682633e-01,-3.795474297267696639e-02,-9.683472189783499939e-03,-2.166320738424557402e-03,1.630938935087193273e-02,3.486049175262451172e-01
-4.062114354107514147e-02,-3.754473330987649904e-01,-3.578682989981649132e-02,2.081657653786984832e-03,4.117983233910594318e-04,1.002113898153113823e-02,3.377356529235839844e-01
-2.496686638084022469e-02,-4.009103156589702843e-01,-5.872029251747905298e-02,-5.816901254241089309e-03,8.761647169450260259e-03,5.103557526539789085e-02,3.713880479335784912e-01
-4.007688117719504506e-02,-3.686922587643011173e-01,-4.914800087311432808e-02,-1.935095495590170205e-03,-2.892798388535366342e-04,-6.074767091070008970e-04,3.241944313049316406e-01
-2.904405918853264490e-02,-4.413509410716532355e-01,-7.255411429486452457e-02,-1.052896776722406051e-02,1.934347473166571785e-03,1.105450748535018006e-02,3.932696282863616943e-01
-4.391853268389095399e-02,-3.551674060212332007e-01,-5.684047532209569875e-02,6.247432425850268922e-02,-5.772414622738443295e-03,1.007036871368681696e-01,3.677685260772705078e-01
-4.071925394826583777e-02,-3.928409551887125373e-01,-4.636322284714473885e-02,-3.675025822391411647e-03,-9.823132345670662277e-03,4.295166726840961291e-02,3.576292991638183594e-01
-4.174793695686894457e-02,-3.763301780741202807e-01,-3.919248010058104525e-02,-4.746705864737364948e-06,1.415800582310245823e-05,7.578083990356217388e-03,3.361236453056335449e-01
-1.632971790122050848e-02,-2.662728084278725427e-01,-5.872192657511236119e-02,3.950895798550909700e-03,-7.445303990192380901e-04,1.094314942363972670e-01,2.994115054607391357e-01
-4.325239309337250426e-02,-3.593629094774222765e-01,-2.893802043875767782e-02,-1.626555023729967008e-03,8.546198371762774504e-04,4.731259660589923720e-03,3.236247301101684570e-01
-4.078758438783296192e-02,-3.650159453561799272e-01,-1.802269229823390273e-02,3.827117586336567078e-03,4.811669546949334970e-03,2.619068270938397155e-02,3.394032120704650879e-01
-3.700083070715461109e-02,-3.715196634143514975e-01,-4.382369897354229660e-02,-2.615600475286186319e-03,5.902702651811662059e-03,6.509402831003979241e-03,3.315406441688537598e-01
-1.992859264656236806e-02,-3.568583181049910236e-01,-4.136072260747451768e-02,3.013457870518659095e-03,5.599390169332122205e-03,5.084938727158870228e-04,3.269280195236206055e-01
-1.681182461725078126e-02,-3.575864118679852877e-01,-3.704544334963456864e-02,-6.648005698347453666e-04,1.574861187588653911e-03,-4.768282307203548722e-04,3.311360180377960205e-01
-2.180368287876392752e-02,-3.583173450196813770e-01,-3.703830161057120041e-02,-4.968021540544661965e-04,3.893081375424418608e-03,-4.709457893346802033e-04,3.292320668697357178e-01
-2.193028461405380214e-02,-3.594910937466534451e-01,-4.001901396402772482e-02,4.250428564020525051e-04,2.286044438097986371e-03,5.460637339755420802e-04,3.289157450199127197e-01
-2.583032798347281722e-02,-3.625981602903506351e-01,-3.807369637812305085e-02,-6.673051842863049476e-04,8.802787318576293669e-04,2.566154360741494688e-04,3.308219313621520996e-01
-2.461834243659942467e-02,-3.309620770256689326e-01,-4.033636200213538969e-02,3.929236273181990757e-02,1.410973649592737848e-02,2.624744084974631533e-02,3.107637763023376465e-01
-2.734191414211206705e-02,-3.475927269058377567e-01,-2.950891094961481664e-02,4.655952873358520580e-03,9.018695741637289959e-03,3.052278398009339311e-03,3.197003006935119629e-01
-4.187400319852867259e-02,-2.656037155704989439e-01,-4.630477804549416876e-02,-9.340606581530742913e-02,1.795919266599703759e-02,7.399161608721845085e-02,3.043834269046783447e-01
-6.267126666587158335e-02,-2.679055949612713095e-01,-3.185340337961933832e-02,-9.187968392585987507e-03,-6.568014296785580110e-03,2.313865185967182297e-02,2.266817539930343628e-01
-5.017296649782876372e-02,-2.062213324706525519e-01,-4.070432762608654220e-02,-9.766705542095530101e-02,8.694824941580050343e-03,1.965654551417516955e-03,2.340368926525115967e-01
-4.585691610409503571e-02,-3.132391877937024116e-01,-5.767211928950116695e-02,-3.114917739219598067e-02,3.178702432656670736e-03,1.231699177320563221e-01,3.419463634490966797e-01
-6.253517249909931741e-02,-2.093308719880347946e-01,-6.470458885179194986e-02,-2.838400162961624701e-02,-1.226383705091818772e-02,8.839870908278670697e-03,1.560058146715164185e-01
-6.448790186402318658e-02,-2.300876033041659996e-01,-5.251280580883405102e-02,-3.971334530467870300e-02,-1.617107917829899849e-02,3.207662798231116635e-02,1.953264623880386353e-01
-4.082965346349512470e-02,-2.937222625362884698e-01,-3.499673829008199955e-02,-1.590825005691084981e-02,-1.432213156544268236e-02,1.154818889608738748e-02,2.593038082122802734e-01
-5.350957231612900322e-02,-1.046964720248113323e-01,-6.817560002290011523e-02,-1.164983243311299745e-02,-7.051858957827507671e-03,6.883164062391620985e-02,1.298237591981887817e-01
-4.114866263979798100e-02,-3.195062317015232023e-01,-3.141680587794358492e-02,-2.318642185556353888e-02,-7.385838553534795729e-03,3.963543309771149631e-02,2.945775985717773438e-01
-2.882042797145242807e-02,-3.017234126196637889e-01,-3.852038896470122431e-02,-1.056878970169654493e-02,6.985084005658392936e-03,8.037894431352368696e-02,3.029633164405822754e-01
-4.660062861536283518e-02,-2.707121685511706399e-01,-4.706431394064061746e-02,-8.971411374075147216e-02,8.509795977076661452e-03,8.141381642907209726e-02,3.071970343589782715e-01
-5.276404526102368431e-02,-3.440998092710817469e-01,-2.210971877809986275e-02,-5.871705728982107818e-03,-9.603327492801747370e-03,1.168479662920931389e-02,3.090899884700775146e-01
-3.610432971196290974e-02,-2.661334747050226879e-01,-4.905624972801488071e-02,-4.229115226279509671e-02,-8.721338981677754848e-04,2.270852236163691321e-02,2.387818694114685059e-01
-3.814500781206162094e-02,-3.384111785790997473e-01,-3.848857577689122900e-02,-4.687191384855814158e-02,-1.239132860007547722e-02,2.503069869439369932e-02,3.146234154701232910e-01
-1.927844873742901033e-02,-3.720909175601439522e-01,-4.612019162042237108e-02,-1.342937462358875962e-02,-4.254882780290696401e-03,1.913200864829256486e-03,3.410767614841461182e-01
-3.609968041833340469e-02,-3.244710550560320206e-01,-3.834127524968936052e-02,-1.213250939614923113e-03,-1.344023726165120662e-02,6.496340891986846985e-03,2.884260714054107666e-01
-4.611361426108147310e-02,-2.473099565456974291e-01,-2.484110040638884409e-02,-6.054863793861118421e-02,7.348736256013091613e-03,1.020253578080895264e-02,2.380864173173904419e-01
-2.289755698001116890e-02,-3.400417595650618852e-01,-4.908434932132069162e-02,-1.144821135815535761e-02,-8.272550765333876177e-03,-1.295668509605701424e-03,3.058835268020629883e-01
-4.697860336896532429e-02,-2.750512596072071103e-01,-3.722073263039253621e-02,-6.083699834451029159e-02,5.678082071699965504e-03,2.594825874734610696e-02,2.599191069602966309e-01
-5.543765404075136349e-02,-2.564597095094039436e-01,-3.482780002595345370e-02,-6.313814451130222993e-02,-1.459943590396329746e-02,4.917942014180670673e-02,2.546217143535614014e-01
-4.197894136351230931e-02,-3.273567370419574463e-01,-2.039668754627660396e-02,-1.038084326838823769e-02,-1.184362326917519533e-02,1.045864282186895720e-02,2.985592484474182129e-01
-3.135343409832028194e-02,-3.847958975372255397e-01,-6.995704926224428910e-02,-2.730996321390219417e-03,3.163902115184876948e-03,8.062603609758918488e-03,3.361771702766418457e-01
-2.871669230025306052e-02,-3.694183363207275694e-01,-3.235119484067973394e-02,7.383675800536977554e-04,-4.089827268238124293e-03,-1.665983498135942655e-03,3.389877378940582275e-01
-3.488300606084170086e-02,-3.692310773418533421e-01,-3.279812633905174191e-02,-9.193921676915543231e-04,-1.451110214073359547e-03,-2.153626976518889795e-04,3.354087769985198975e-01
-4.028644823769367278e-02,-3.678987140900554786e-01,-2.976976539016348844e-02,-1.999051587323136692e-03,-8.906009406886785003e-04,-2.593833541713323645e-04,3.330170512199401855e-01
-3.446850996908558395e-02,-3.681034553893904882e-01,-3.747258067315745178e-02,1.541389340335851512e-03,-4.007847713427385890e-03,-6.845180381949902016e-04,3.322284817695617676e-01
-3.990277926535827635e-02,-3.680795834307769576e-01,-3.880713891887385691e-02,5.314909038349416998e-04,-3.559133563447482163e-04,-2.401027050561511163e-04,3.287281095981597900e-01
-2.569924486159273769e-02,-3.160943241437003115e-01,-5.090213968571707936e-02,5.626373393671162820e-02,-1.275157505692764599e-02,-3.657556376001161458e-02,3.027270138263702393e-01
-3.643845777990305235e-02,-3.720219942976510374e-01,-2.659956859101189619e-02,-1.599222382171347273e-03,-6.066457391966620545e-03,-4.025582919084538282e-03,3.408541977405548096e-01
-4.256786854177120605e-02,-3.705123725885753339e-01,-3.681693215190412483e-02,-2.061462574595418571e-03,-2.360316043820407154e-04,-3.931478580123316975e-04,3.308776915073394775e-01
-3.829595878567333689e-02,-3.668278185918051326e-01,-3.729171448734454331e-02,8.052728011538648175e-04,1.732347745195967834e-03,2.239699839385380590e-03,3.290746212005615234e-01
-5.872057641703506969e-02,-3.703490867381189489e-01,-4.035809995477039613e-02,1.246285077094337265e-02,-9.696014657757675778e-03,1.260168860634600617e-02,3.231039941310882568e-01
-4.211186086875491619e-02,-3.662447871229866925e-01,-4.289394304825211446e-02,-2.801965313236962074e-02,7.443612849310013435e-04,-2.711753932374133102e-03,3.273962438106536865e-01
-2.764556550985076966e-02,-3.710568807391139701e-01,-4.662215602887356813e-02,6.995113703260559448e-04,-8.334040298576913435e-04,-2.486212201971576847e-03,3.343602418899536133e-01
-1.808686269143065795e-02,-3.431745892029728906e-01,-4.567988182140893250e-02,9.105800112021340820e-03,-5.573851110923178954e-03,-2.176587891267193521e-03,3.127769529819488525e-01
-6.942465759865175390e-02,-3.770746404322241618e-01,-3.875868001886922931e-02,-9.153730165684136662e-04,-8.840059198458771056e-03,2.706707790758280073e-03,3.244722485542297363e-01
-1.967114575857199787e-02,-3.452309697715569281e-01,-4.942298595933881933e-02,-3.823730270208937484e-04,-6.371225288732436723e-03,-1.327619722797722867e-03,3.119549155235290527e-01
-5.362041591782340522e-02,-3.776027587451549761e-01,-3.904132145102097440e-02,4.167313237664984661e-03,-1.458079451762088388e-03,4.335261744323816099e-03,3.316856026649475098e-01
-3.460908350908221964e-02,-3.341678574062397766e-01,-3.073154946739305171e-02,-6.712259085449946532e-03,8.059371311039833716e-03,-1.837969895760372535e-02,3.037359118461608887e-01
-1.787110402267916287e-02,-3.640811355409542260e-01,-4.647280346701145037e-02,-3.339761703387850579e-04,6.115529383673059659e-04,-7.442973393583155297e-04,3.328368365764617920e-01
-3.478735966984670969e-02,-3.839273337401097885e-01,-4.093299704932078231e-02,-1.528132775659154716e-03,1.649621714878935115e-03,-2.129734948212115911e-03,3.461496531963348389e-01
-6.212261681042240136e-02,-3.854042106640073739e-01,-3.337922844285037827e-02,3.389932893933607274e-03,-1.249294735581924550e-03,-1.868363340776411701e-03,3.386428952217102051e-01
-1.974329826657747478e-02,-3.698050649136934154e-01,-4.816068034655686392e-02,-4.349248522744779757e-03,4.104837789876472078e-05,-2.373872537887061242e-03,3.368628919124603271e-01
-2.634569779536515000e-02,-3.705125315695175781e-01,-3.870605648040968683e-02,-1.019957393610601906e-02,8.398346143335410491e-03,-2.053315170527871773e-03,3.389482200145721436e-01
-3.898800069046856609e-02,-3.611756088585296176e-01,-4.184507400860351667e-02,3.693505554493074858e-03,2.766993239088696467e-03,-1.263188284445333114e-03,3.208756446838378906e-01
-6.103648944051916214e-02,-3.209050320506058873e-01,-2.021746376501136477e-02,-5.530718187213527239e-03,-8.037229885539807399e-04,-2.579283997493625122e-02,2.861729264259338379e-01
-4.725794820426108822e-02,-3.622900334298643221e-01,-1.331667790543444863e-02,-2.390022562031580023e-03,-3.268021302716906848e-04,-6.848983545110142249e-03,3.335385918617248535e-01
-4.019329085717507355e-02,-4.293284329779947783e-01,-5.571460475206357899e-02,2.609784098236209073e-03,-1.982320835329631076e-02,2.124069519362776701e-02,3.849415481090545654e-01
-4.493434290303623818e-02,-1.445623087028292675e-01,-5.413270643235584823e-02,-2.970543111855628721e-02,-9.928583414227658190e-04,-3.709246359062687293e-02,1.259828358888626099e-01
-4.798234967053623123e-02,-3.672665406423063494e-01,-1.704338474550387561e-02,-2.708711210277235226e-03,-1.286102899370740547e-03,-4.296761270298260840e-03,3.359468579292297363e-01
-3.634945753387240630e-02,-3.754493159334579278e-01,-5.422139092517294645e-02,-7.731540592484725197e-04,-8.090392679762748547e-04,1.835240617975748617e-03,3.305474519729614258e-01
-3.631960876571400931e-02,-3.761337061354964595e-01,-5.625215989418480556e-02,-3.306183604314550523e-03,-9.516186580532736512e-04,-5.851120650496017747e-03,3.305083811283111572e-01
-3.954084322540210583e-02,-3.762956293798863650e-01,-3.666985548537486650e-02,2.338174169895203746e-04,4.695847817013545748e-03,-2.019271705451581786e-02,3.401005864143371582e-01
-3.868980619088831230e-02,-3.728212080304789122e-01,-2.412853027461865640e-02,1.102709550143394926e-03,1.322550989142856192e-03,1.393369239379361373e-03,3.416664004325866699e-01
-4.301627842950248026e-02,-3.700442956770571001e-01,-1.980953718511208050e-02,-1.252099735860430539e-03,3.261395394771024730e-03,-2.352990662769901197e-04,3.392814695835113525e-01
-5.629070078920060671e-02,-3.095245998996491998e-01,-2.189746043861234837e-02,-2.183859623826971217e-03,5.273885151309728493e-03,-1.506715032825167895e-02,2.734934091567993164e-01
-4.524846364892136374e-02,-3.625706516032231597e-01,-1.802329239304223396e-02,7.913521929632725800e-04,3.157486124528140984e-03,1.357030673133000737e-04,3.318215906620025635e-01
-4.336300327762891704e-02,-3.637439913176064299e-01,-1.807068026496538860e-02,7.469146972214048491e-04,1.107105927713757532e-03,1.797337875264001230e-03,3.337692320346832275e-01
-3.834642048451177010e-02,-3.408022472497054256e-01,-3.081722951007682954e-02,-8.177324157011030617e-03,1.056525770381893346e-02,-1.799287393535449345e-03,3.071785271167755127e-01
-4.044143287864079839e-02,-4.152834109194200041e-01,-3.812916584116810004e-02,-6.123565367150349270e-03,8.427476485778074818e-04,-3.363881838621587961e-02,3.806414604187011719e-01
-4.639556474676613529e-02,-3.633041874837604213e-01,-1.837651556157630928e-02,-1.337064262444730706e-05,2.560486639250233966e-04,-9.013857226440572142e-04,3.318105638027191162e-01
-3.962324142837179985e-02,-3.755048608017209633e-01,-2.765593648030739704e-02,2.744169435628528880e-05,1.749760925971388052e-03,-2.669541082686368596e-04,3.420360684394836426e-01
-1.089470038155238019e-02,-3.493351620526903289e-01,-5.470148791721042569e-02,6.697328193432908368e-03,-1.668223182560342206e-03,-2.034330612909492249e-03,3.190459609031677246e-01
-5.132848524361834086e-02,-3.401790891170887177e-01,-3.794311037134587283e-02,9.280015652283542249e-02,4.196206551220744790e-04,2.330087168872895659e-02,3.390356004238128662e-01
-5.849905457900617112e-02,-4.301392041522313359e-01,-3.569280302897345769e-02,1.438455112248707840e-02,-3.162155176439509097e-03,-1.247820722768935679e-02,3.850066363811492920e-01
-6.088840983764914894e-02,-6.411964271514372093e-01,-3.488772897518235827e-02,4.230321519378845048e-03,2.542926975431113960e-03,-2.027020794313870097e-02,5.948340892791748047e-01
-3.770092237685795933e-02,-3.575934321718232667e-01,-3.831168472638987743e-02,4.247522942009307467e-02,1.637156402465229617e-03,5.258277574673201823e-03,3.280847966670989990e-01
-8.209828887184406065e-02,-3.858782481526697450e-01,-3.058546386663460459e-02,-3.620748880531917801e-03,-6.379303828478525597e-03,-1.748838412763587371e-03,3.327987194061279297e-01
-7.741173546738762401e-02,-4.777544155734537168e-01,-2.383855343682583783e-02,7.636975180703152455e-02,-5.381845527315670414e-04,1.863932252349980237e-02,4.507018327713012695e-01
-3.924896558624665910e-02,-4.929703853226375942e-01,-3.749131731227151043e-02,3.643899623170321692e-03,-5.986944034717463399e-03,4.119404694710530890e-02,4.603280425071716309e-01
-7.977244854583014078e-02,-3.956213123357747996e-01,-2.966643572441263199e-02,-8.521201191512613876e-03,-3.207657405452069531e-03,-1.359921315517007966e-03,3.440222144126892090e-01
-3.200157653779757416e-02,-3.711439195485343179e-01,-2.856066547851127124e-02,1.329312195518072249e-07,-5.311026323925370843e-04,-5.698170562644101463e-04,3.408784866333007812e-01
-3.191222116984961110e-02,-3.699452531539165756e-01,-2.873151019859980504e-02,4.642559129758550246e-04,-2.718568910893919649e-08,-1.132717974258022229e-04,3.396355807781219482e-01
-3.393540395216199101e-02,-3.710965024434873527e-01,-3.417422626138222341e-02,-5.700106662755201201e-05,-1.438868542159541051e-03,-1.167105191687211772e-03,3.370570540428161621e-01
-3.717718387010679471e-02,-3.708762083913753616e-01,-3.143136190312371958e-02,-1.127051271537286153e-03,-6.022599543116229515e-04,-6.119169477628998459e-04,3.366176486015319824e-01
-2.891441030851034377e-02,-3.661919280447278324e-01,-3.286257597456621049e-02,9.643728242288017623e-04,-5.126931545298032793e-04,1.600907585017329602e-04,3.353263139724731445e-01
-2.401775988869393752e-02,-3.650572053542367468e-01,-3.694102022442351252e-02,8.809073062854527302e-04,-2.110797187448741619e-03,-1.409513089049475951e-03,3.347972929477691650e-01
-6.599595006945457865e-02,-3.747239539409656928e-01,-4.280211672883760254e-02,3.173530987468467165e-03,-9.100078450626072207e-03,2.320406713581130501e-03,3.214130103588104248e-01
-1.673750187633456232e-02,-3.171196093237965696e-01,-5.293369265129418966e-02,1.773430251289698570e-02,5.641874121464709665e-03,9.999862494721358918e-04,2.858476638793945312e-01
-7.036273758890521091e-02,-3.839738508538147466e-01,-3.249519378246532031e-02,6.381322344945947710e-04,-3.024333226547542153e-03,1.275477271203551057e-03,3.342081904411315918e-01
-7.127961037695330904e-02,-3.755715180046471646e-01,-3.744683909019369539e-02,3.910623886718220775e-03,-1.640153421083545083e-03,3.336558393464604533e-03,3.226772546768188477e-01
-5.940668690391265327e-02,-3.736948523497823915e-01,-4.014453626757599758e-02,-1.309868275484586371e-03,9.820865618209659049e-04,1.653957607216252493e-03,3.243735432624816895e-01
-4.365204736812576536e-02,-3.825231898454711787e-01,-3.733989241275410820e-02,3.247783521224443994e-03,2.266368372328783631e-03,1.066057402559711072e-03,3.421446681022644043e-01
-1.447111818958482510e-02,-3.622091418267219254e-01,-4.940595314342294264e-02,-7.831673813944813392e-03,3.135766580891278989e-03,-4.238277830533112266e-03,3.320563137531280518e-01
-1.339825735707003695e-02,-3.534602786246009987e-01,-4.956593877364565137e-02,-9.576416086982335318e-03,1.863901260883457037e-03,5.679813055766228793e-04,3.239406347274780273e-01
-6.770494250475853071e-02,-4.370578523509721647e-01,-2.291401986101321286e-02,-4.148164598385134169e-03,9.401509432263501637e-03,8.699564171774728681e-04,3.940691649913787842e-01
-2.625852981583519374e-02,-3.596372534425953393e-01,-4.369977253652283788e-02,-3.190491116360443143e-03,-4.192285353066458036e-04,-1.699721079086185475e-03,3.250704109668731689e-01
-2.783445648886750945e-02,-3.263661637903688684e-01,-5.422423194875171382e-02,-5.525565574850163642e-02,-5.376646653817128158e-04,1.141790797601439401e-02,3.024747073650360107e-01
-3.513263224184470790e-02,-3.484105549719583861e-01,-4.219699822329099625e-02,1.972891378882837832e-02,-3.204521438580639793e-03,-1.654533709814730996e-02,3.130488693714141846e-01
-1.272985528810055555e-02,-3.502544391034553839e-01,-4.949276386196652111e-02,5.177816046095269978e-03,-3.259481383676868325e-03,3.924718325303288863e-04,3.209030032157897949e-01
-2.802403205787237783e-02,-3.880681389702323458e-01,-4.030288505547618971e-02,4.144041342875157130e-02,-5.181296848842026348e-03,-1.878938286341660935e-02,3.628404438495635986e-01
-4.139578827220251334e-02,-3.708842311015273507e-01,-3.881398662647941866e-02,-1.975275584894788279e-03,-1.070931317015086284e-03,-4.586851701211878789e-04,3.308107554912567139e-01
-4.229302340636169333e-02,-3.743647466593473250e-01,-4.715954210382651557e-02,2.003807697846735612e-04,2.569372188749799966e-03,-5.599092432550038280e-03,3.298382163047790527e-01
-2.817436326905339850e-02,-3.473438625981906114e-01,-5.715178483745853022e-02,2.973285755979906617e-02,-1.090025909598134508e-02,-2.749904304680946682e-02,3.142249584197998047e-01
-4.866841609119158807e-02,-3.715965094527894919e-01,-4.020126815470534409e-02,-1.685540041395812904e-03,3.039087704228769695e-03,-6.833507109150964258e-03,3.275131285190582275e-01
-4.316021917340653880e-02,-3.696191990839030606e-01,-4.402609185831908578e-02,3.031192908596981768e-03,-1.314454106067078788e-03,3.691911201287800207e-03,3.261398077011108398e-01
-3.251488610773831112e-02,-3.737093995888614018e-01,-4.063046477307762083e-02,-3.312108288349713270e-04,2.851359395669936844e-03,2.355802318465966428e-03,3.372713029384613037e-01
-4.740415403929978955e-02,-3.699971592642605778e-01,-4.553628268310680460e-02,1.717020417606387930e-03,-1.145279094013483328e-03,3.785520542107786296e-03,3.236171603202819824e-01
-4.516491713315430589e-02,-3.497493488077323409e-01,-1.821240194549822444e-02,-2.067591479309764321e-03,-2.282632376051581084e-03,-1.034097160636801398e-02,3.194631338119506836e-01
-3.259421092847177015e-02,-3.764498469803660430e-01,-3.417147938911799243e-02,4.030677422078317697e-04,3.419870744021400247e-03,1.060602853017629521e-04,3.431216180324554443e-01
-4.246470398618976128e-02,-3.713188392924853254e-01,-3.716045098637438260e-02,-3.720374364500004388e-02,-1.993542409616245493e-03,-2.786517881063763080e-02,3.411908447742462158e-01
-3.303315363526158899e-02,-3.729339593877959436e-01,-4.075173459553041444e-02,-5.465645757618277888e-03,2.943214425452190825e-03,2.179459723697104757e-03,3.363011181354522705e-01
-5.359371432353542131e-02,-3.731027571211154026e-01,-3.996777572427619163e-02,2.686712825028815185e-03,-1.644125322448918665e-03,3.874706709284247985e-03,3.266498148441314697e-01
-5.098117978001323602e-02,-3.728071997864116360e-01,-4.210815527924229029e-02,3.478923179940115844e-03,-8.656032535867949542e-04,4.480892155010020653e-03,3.265043199062347412e-01
-3.731268702399401227e-02,-3.720776753617264787e-01,-2.759588766177646646e-02,-1.529354386361314979e-04,4.064877475515006437e-03,-1.810916098496909502e-03,3.398151397705078125e-01
-3.648663733969055578e-02,-3.760381011749232005e-01,-2.802361224730939848e-02,1.629331089849160585e-03,4.500098622900998262e-03,2.573066276938365299e-04,3.439612984657287598e-01
-4.028432274757745568e-02,-3.674976025872804253e-01,-2.376457329821958508e-02,-6.844810908782123123e-04,3.720402051613158449e-03,-6.739800997806527291e-04,3.358440101146697998e-01
-4.057103822055069253e-02,-3.662998579575484914e-01,-2.416086484972443382e-02,4.216698176748941607e-04,8.068264726403540088e-03,-1.381153130183015337e-04,3.345290720462799072e-01
-4.040270291265933567e-02,-3.720385618080351842e-01,-2.295092716273924860e-02,-4.108555134795971757e-04,3.220998941365370294e-03,-1.615947760509313684e-03,3.407550454139709473e-01
-3.877929262245530251e-02,-3.741980377680188541e-01,-4.063294331081017396e-02,2.670308269917820443e-03,4.035805779390847815e-04,2.733669765162386345e-03,3.345619738101959229e-01
-3.906626575734223339e-02,-3.739173043930181239e-01,-3.973738049018313290e-02,2.549271589774196149e-03,-3.056452803806289299e-04,3.172634469687049801e-03,3.345906734466552734e-01
-4.069874883872476312e-02,-3.726484746487829236e-01,-3.177198384402220299e-02,6.244781138991071937e-04,-6.047888929598210870e-04,-1.451944323091597898e-03,3.365146815776824951e-01
-1.433873132748515744e-02,-3.048447915410005260e-01,-5.721709509489239509e-02,1.307736909318617594e-02,-2.320289847672045089e-03,-1.545653425019126361e-04,2.725897729396820068e-01
-3.912264889936246937e-02,-3.734301969243342123e-01,-3.908587650484207643e-02,3.204847647128698969e-03,-1.512812421128992724e-04,2.950791007424573027e-03,3.344111740589141846e-01
-3.971907676579262969e-02,-3.633539293564334027e-01,-2.553803389149121583e-02,-9.872756336071944038e-04,8.333709098543334859e-03,2.092060259952051228e-04,3.312725424766540527e-01
-2.162803671663793281e-02,-4.120078839774556911e-01,-5.800845139914424797e-02,-1.500237538809945197e-02,-4.542468839661647530e-03,-5.704443006098502966e-02,3.873203992843627930e-01
-4.934300818852876969e-02,-4.182867579213922493e-01,-6.344398905935874633e-02,-6.197741389974278231e-02,-1.164031308701805878e-02,-1.084918485443139152e-01,4.223237931728363037e-01
-4.091975761757427055e-02,-4.316998403395813089e-01,-5.025973848879927708e-02,7.920273466174071811e-03,-1.307925477809916866e-02,2.526792623900996418e-02,3.895680010318756104e-01
-3.993270062813375487e-02,-4.059295454818022120e-01,-5.342947041103224270e-02,1.691745844907240406e-02,-9.690945494270901406e-03,2.086689287337570309e-02,3.628259897232055664e-01
-4.422772395516609556e-02,-3.647113655731357151e-01,-2.590886185008153819e-02,-1.604164515582084342e-03,-7.704656125444838755e-05,4.518978393776521690e-04,3.300372660160064697e-01
-3.563014405589684519e-02,-3.109571460969147161e-01,-3.677334913379393111e-02,-1.329053665209821780e-02,1.155866385729073693e-02,-1.074058809183274163e-02,2.770709395408630371e-01
-3.846451803101268163e-02,-3.711050813151351990e-01,-2.707073126559218779e-02,4.188406256693591174e-04,5.609980213675798931e-03,1.778820725980921180e-04,3.386216759681701660e-01
-3.963911873092240690e-02,-3.658545478141242424e-01,-2.341332850917056396e-02,7.973841432477136526e-04,3.224804127976619271e-03,3.419784001985865830e-03,3.347253799438476562e-01
-4.842475401790478917e-02,-1.989544790872291025e-01,-2.882889013930148292e-02,2.609924041561097544e-02,7.643470481365788674e-03,5.024946076684826818e-02,1.891738921403884888e-01
-4.303925762147765843e-02,-3.382180728787729240e-01,-1.920363781535647241e-02,4.526345574625338826e-03,5.839843934685404539e-03,1.514264092977050773e-02,3.091700375080108643e-01
-3.783125674055584642e-02,-3.594608307131703651e-01,-3.024145172739500786e-02,-1.106164706159862635e-02,-9.285699911827911476e-03,1.432031616937085548e-02,3.273915946483612061e-01
-1.576256853086130394e-02,-4.646604993961036545e-01,-5.925621365364919235e-02,2.890936562689989595e-02,-1.382398383943626418e-03,-1.464400546412946737e-02,4.324733316898345947e-01
-1.991135976839952804e-02,-3.641648220136444181e-01,-4.403147535427763548e-02,5.296290402713232058e-03,2.467641228639371343e-03,2.993473763757348999e-03,3.330436944961547852e-01
-1.714844563005328559e-02,-3.039853932521189295e-01,-4.826505068064039505e-02,2.768945094879371460e-02,9.088433054905871444e-03,1.869771205619754836e-02,2.791326045989990234e-01
-3.154172786529384209e-02,-3.845255412800903105e-01,-3.640070406360980393e-02,3.385947246138051869e-02,4.576240085023812292e-03,9.838594078409182778e-03,3.559475541114807129e-01
-1.209425525691631975e-02,-3.433859195508330853e-01,-4.854170933693133239e-02,3.954900738817285037e-03,-3.065176418236586608e-03,-2.055806247484954271e-03,3.147946000099182129e-01
-1.973054993632211707e-02,-2.847998171619736119e-01,-5.547132429192021263e-02,3.054738493367237587e-02,-4.660411619745128417e-04,3.687722503180896304e-03,2.547669708728790283e-01
-3.372682537746396481e-02,-3.697821923409500555e-01,-3.927818374766067766e-02,-2.931551561475380092e-04,-2.512452551195832988e-03,-1.395964175838537063e-03,3.333519101142883301e-01
-1.794282158557608531e-02,-3.347874386969863503e-01,-4.529892287541391338e-02,5.299324897501591497e-02,2.098391178913282425e-03,4.899192693657488350e-03,3.177755475044250488e-01
-4.790137829713853046e-02,-3.225098688724180596e-01,-4.048988013992184387e-02,4.798085218032159538e-02,1.930631283659062312e-03,1.353793816124709663e-02,2.914918661117553711e-01
-3.184197133494190424e-02,-3.214575316990883058e-01,-4.986531877221164755e-02,1.654397037253327318e-02,1.484796474605412121e-02,1.525388936827362478e-02,2.848907113075256348e-01
-3.675668218411093369e-02,-3.669245391115118493e-01,-4.093217302568154248e-02,-1.189535777874781673e-02,-4.037193258537995384e-03,-1.619803328437678484e-03,3.288326263427734375e-01
-2.839128316885407288e-02,-3.599993340379482598e-01,-4.189814472233782672e-02,-2.361122413260051747e-02,-1.202153001532216617e-02,8.652131695963939662e-03,3.286304175853729248e-01
-5.202803532353486582e-02,-2.964153437199946728e-01,-4.377362257740470552e-02,-6.169851495277208636e-02,5.570020241821380808e-03,1.767151572578041022e-02,2.725079953670501709e-01
-5.179173129039121859e-02,-3.418458722674957428e-01,-1.136772259888486902e-02,-1.566593866929400685e-03,-1.566332316391234099e-03,7.419277651408421291e-03,3.125228285789489746e-01
-5.097779619002518192e-02,-3.388979471378904540e-01,-1.691905425600821744e-02,-3.789557799087247582e-03,-6.013655063126650303e-03,6.156493985920682629e-03,3.068053126335144043e-01
-5.060308583284228723e-02,-3.558567497256863721e-01,-1.211603799224633682e-02,-1.092165112734000930e-03,-2.362270840084198902e-03,7.987744526326428368e-03,3.265288472175598145e-01
-5.005005556972294545e-02,-3.464353160060218428e-01,-8.227162849033547998e-03,1.810162626564545615e-03,1.279843176697260032e-03,6.409758109140201859e-03,3.195732533931732178e-01
-4.467205073327376597e-02,-4.171064216592095808e-01,-3.671969542220493432e-02,-7.436466514665285299e-02,7.248275872874748380e-03,2.279291073034812182e-02,4.000484943389892578e-01
-6.947356142386020006e-02,-4.371643875402215218e-01,-3.840598254091148744e-02,1.845756510383821623e-03,1.114777378294535062e-02,9.275785793797886730e-03,3.850015103816986084e-01
-4.959563172754974381e-02,-3.793691407619051437e-01,-5.777669112075432822e-02,5.973479831248265821e-03,1.387125819425131905e-02,-2.548091956990039455e-03,3.268384337425231934e-01
-7.129425241603559726e-02,-3.849924021489978809e-01,-3.898956224774538515e-02,4.068903899683767172e-03,6.641585178588846165e-03,-4.102783295945166414e-03,3.313857913017272949e-01
-6.287041381640458282e-02,-3.862413111592915005e-01,-4.078951295226662666e-02,5.409119986345082426e-03,2.310443197152363577e-03,-1.545835517283168951e-03,3.351232409477233887e-01
-6.104599505978675067e-02,-4.206804072650620618e-01,-2.779528482464369010e-02,3.461249806211061462e-03,4.203239594113755695e-03,-1.395676910129300605e-02,3.782511651515960693e-01
-3.909746440125567990e-02,-3.742312378310378440e-01,-3.954993919184612849e-02,2.078792423126592237e-03,2.520206525682940849e-03,-2.159277723429552619e-03,3.349764347076416016e-01
-3.817547529961215491e-02,-3.778959926927429880e-01,-5.377756992658315471e-02,3.693535253573125565e-03,-1.221139726025782888e-03,5.772472577567183162e-03,3.324131071567535400e-01
-4.076402951431300214e-02,-4.009769490369852751e-01,-3.578651582210418125e-02,-2.904333003759611287e-02,-1.876865925316422356e-03,-1.787633551844415233e-02,3.675199151039123535e-01
-4.046239363806690414e-02,-3.589616235116104281e-01,-2.403371145897924277e-02,-2.151941697256608125e-04,4.578538642227059779e-03,-4.267080449165749217e-03,3.272030353546142578e-01
-3.770339026967908791e-02,-3.721573621679452604e-01,-4.758902221615608774e-02,-6.564651331711781647e-03,-2.066544764728463733e-03,-6.050042860098543869e-03,3.300042450428009033e-01
-3.193038148015564515e-02,-3.734426858128145899e-01,-7.313419550088751109e-02,-2.915493606289996844e-03,-4.551346720462336876e-03,-8.511243350224780534e-04,3.230272829532623291e-01
-3.894420251423688639e-02,-4.050022824673511490e-01,-4.611483379800142279e-02,-1.603113645574283722e-02,-1.055962882085381867e-03,6.268000692001462343e-03,3.637544214725494385e-01
-4.066774304943959750e-02,-3.672069041025283198e-01,-4.127677927496545274e-02,-3.068997225509980005e-04,2.666764216128478682e-03,1.362481291807994131e-04,3.262682855129241943e-01
-4.279012776952455244e-02,-3.729385522709716128e-01,-6.198378861854142441e-02,5.003500619964754148e-03,-1.050725237332794659e-02,6.402992812883025360e-03,3.218057453632354736e-01
-3.661434587059847479e-02,-3.673037621835169575e-01,-4.206025116067660385e-02,-1.178239355407120163e-03,1.022139769337672459e-04,-1.551103465751074500e-03,3.280177712440490723e-01
-4.424602882687253547e-02,-4.105282468273123708e-01,-4.254598942741842638e-02,3.857950308485626895e-02,-1.030190405103875544e-02,4.841590606837270494e-02,3.828891217708587646e-01
-3.349725415694204678e-02,-4.054030452319385969e-01,-4.139853137695670426e-02,1.593061674841843864e-03,-8.440085366454625274e-03,4.152310129617152457e-02,3.752754032611846924e-01
-2.982497222149059490e-02,-3.160530471209310743e-01,-4.431174827627099022e-02,6.367225144348692689e-02,-8.027777579132686081e-03,7.575266709532663123e-02,3.279650211334228516e-01
-5.371663550346674615e-02,-1.524572566327935252e-01,-5.554324524153574083e-02,9.051611950209541291e-02,4.668172145092571584e-03,-3.568769832731388814e-02,1.950343549251556396e-01
-4.695761355898421530e-02,-1.336861468125365437e-01,-5.918248462110464736e-02,6.240024160942255621e-02,3.230585728877426090e-03,-2.007506226116716891e-02,1.397596001625061035e-01
-3.079525182393577643e-02,-2.947500634513152695e-01,-5.345060746810020857e-02,1.988657498174463412e-02,-8.691616646887972975e-03,-3.733855994773590224e-03,2.562426626682281494e-01
-4.792428664464809529e-02,-3.541495899942261882e-01,-1.498247254903989356e-02,4.552760340756536176e-05,-4.760897498522591309e-03,-4.275340892977395890e-03,3.241443336009979248e-01
-4.672244237624149921e-02,-3.312587347163448714e-01,-3.810974668157485201e-02,-3.601898765636288389e-03,1.344152638853441349e-02,-9.929360982405266434e-03,2.904520928859710693e-01
-1.573347488131877914e-02,-3.378700038416083684e-01,-5.375046864162390248e-02,1.061884508461040984e-03,-3.758263410745531306e-03,-1.225415271626655728e-03,3.049931824207305908e-01
-2.937596346819063009e-02,-2.731032799368142694e-01,-5.143182014401416480e-02,1.772479344460347814e-02,-8.683390918493731625e-03,-4.403943519296357224e-03,2.360947728157043457e-01
-4.556493966024793840e-02,-2.265507285420594319e-01,-3.922223714617192880e-02,7.390733692346697359e-02,1.169127161119771011e-02,-3.693617797762159538e-02,2.341662049293518066e-01
-6.065920007202291186e-02,-1.875156128221089624e-01,-5.223083233702748018e-02,4.213690740987664080e-02,7.716068735970916560e-03,-7.628813456325424236e-02,2.004933655261993408e-01
-5.654618704237242277e-02,-3.551858052037351610e-01,-3.440290309879236175e-02,-9.517762572472922289e-02,-1.213696057066960231e-02,-1.039620254961918198e-02,3.524646162986755371e-01
-5.282654721127241770e-02,-6.013404229028241899e-01,-5.083187965097130112e-02,-5.774802864649513506e-02,-1.971918528870168774e-02,-6.835523858207580294e-02,5.719736814498901367e-01
-6.122610638761954993e-02,-3.330613412854591671e-01,-3.498595690324884933e-02,-3.622032963024428981e-02,-7.411594171156264156e-03,-4.425028019378658001e-02,3.028047680854797363e-01
-3.553384780740254101e-02,-4.060107162791806168e-01,-3.855667093673614820e-02,-2.212299662373289760e-02,4.961510403193497391e-03,-9.134756258328217277e-03,3.713957667350769043e-01
-5.610371872445149566e-02,-3.666461308944110598e-01,-3.261913513353584260e-02,-2.902272201933813259e-02,-6.289717450123686812e-03,-6.782523574914085807e-02,3.474586308002471924e-01
-5.270086143119230571e-02,-3.942921642122461656e-01,-3.912350203203399102e-02,-3.988971105834168696e-03,-1.173152823231706117e-02,1.177437993959338201e-02,3.498333990573883057e-01
-5.513665230920142268e-02,-4.425519536912096430e-01,-4.428518654813540234e-02,-7.229310911326273202e-03,-1.996908067862518746e-02,-3.950655549284473600e-02,4.005593359470367432e-01
-6.489841915161885522e-02,-4.338272594715842922e-01,-3.653913154034382771e-02,-8.797687564681126726e-02,-6.422591266047849613e-03,-3.221279729336314068e-02,4.169314503669738770e-01
-5.097793487823088637e-02,-2.205118877712352043e-01,-4.830298307950819242e-02,-8.687330857286522379e-02,-4.870950377571514611e-03,-2.388812128105694682e-02,2.315738201141357422e-01
-2.687147261525481279e-02,-3.010388277837726667e-01,-6.480508728290028386e-02,4.648206819759065356e-02,-3.964114197644420280e-03,-3.202598556489744119e-02,2.753405570983886719e-01
-3.166035791980610636e-02,-2.911223986256764595e-01,-3.857788301445648493e-02,1.671563022667991311e-02,-1.222624201924943192e-02,-9.298740081424099885e-03,2.590745985507965088e-01
-2.918480358711299238e-02,-3.460346755903235816e-01,-3.523205626971903648e-02,5.334904565415581230e-03,-9.159766699629342049e-03,-3.190027152923094987e-03,3.144550025463104248e-01
-3.378023969354500278e-02,-3.703398479640829244e-01,-3.290549875106478506e-02,-2.828988600991306037e-04,-2.048778063567985308e-03,-7.811526846916290413e-04,3.370195925235748291e-01
-1.437896845647293476e-02,-3.084449110859401877e-01,-5.110693291055895537e-02,1.354414033872460357e-02,-3.018454795931154160e-03,-4.678575889937170969e-04,2.785706222057342529e-01
-1.446582961383004184e-02,-3.563498566851228677e-01,-4.636110443599600339e-02,-1.459647006677210819e-04,-8.040282034695238160e-04,-1.573936587060007115e-03,3.271191716194152832e-01
-1.424807504698322180e-02,-3.523633265164342609e-01,-4.633706536193718528e-02,4.926929781675978316e-03,-5.122388507851283017e-03,-2.353238266549211640e-03,3.235274255275726318e-01
-1.962935053193332058e-02,-3.584408520295971901e-01,-3.946368367693572909e-02,1.403379022525000699e-03,-1.742851484816156744e-03,-2.168136493307979730e-03,3.293868005275726318e-01
-3.882135545981062197e-02,-4.034363382175870649e-01,-3.843920079067675299e-02,-3.294561853750008901e-02,5.110706865168058305e-03,-6.411239788500661466e-03,3.695152103900909424e-01
-4.469423144475660747e-02,-3.782498294573352071e-01,-4.287902719121351736e-02,5.856941318026260765e-03,-5.292930436416001805e-03,-4.423996801715827432e-05,3.347462713718414307e-01
-3.529178301860684541e-02,-3.789382463907747800e-01,-3.555285712423608691e-02,-2.151136169792851674e-02,5.863277548252554539e-03,-1.255652283125189769e-02,3.463633954524993896e-01
-4.866087787087763905e-02,-3.776060417746552322e-01,-4.666298546662028812e-02,-4.609594593687251982e-03,8.962593859652276049e-03,-1.415175014291681840e-03,3.304192125797271729e-01
-5.317546966977326761e-02,-3.763151689933404986e-01,-3.842580040355536575e-02,2.519547319238688889e-03,-1.047964354564368287e-03,2.520645912877954396e-03,3.308238387107849121e-01
-5.316501146214912266e-02,-3.721395057849893329e-01,-4.148485002373769603e-02,4.753334225276462099e-03,-1.305417853538702513e-03,4.744979021721868959e-03,3.251880407333374023e-01
-2.542997483360992517e-02,-3.600759796140893254e-01,-4.395972292463488917e-02,-1.254647268668037524e-02,8.134999131830796676e-03,-3.676321720549110151e-03,3.268665075302124023e-01
-2.178866697138408248e-02,-3.609212819178224674e-01,-4.801147208462755445e-02,-4.153635981582442203e-03,2.240875044465602452e-03,-1.846059147313721272e-03,3.269290626049041748e-01
-3.402258631249338583e-02,-2.932093029220436131e-01,-4.290042022151871470e-02,-2.868975194093657116e-02,1.329067075892922424e-02,-2.818669086003419005e-02,2.652136087417602539e-01
-4.977821762902812086e-02,-3.478138946789459673e-01,-3.714046043788961360e-02,3.985380386525363972e-02,-1.252579496896408587e-02,5.498394024012134146e-02,3.271954357624053955e-01
-4.698502732018489114e-02,-3.712599886612651945e-01,-5.139823038102193931e-02,3.869700060401950266e-04,-6.410814471871935545e-03,-1.767711194510107880e-04,3.222832083702087402e-01
-7.089320143897569204e-02,-3.942802679363666130e-01,-2.703946930336031951e-02,1.025886915976928770e-01,-8.595574495521019973e-03,-1.549895351196073010e-02,3.914073407649993896e-01
-5.216814871144156984e-02,-3.365794806858992128e-01,-4.068803890440778059e-02,4.853086512732655150e-02,-4.548382082871789411e-03,3.049906524141151806e-02,3.069283962249755859e-01
-3.411504440305519748e-02,-3.694528549948312701e-01,-3.217760236633744608e-02,-6.904827918516841245e-04,3.934231946502463918e-03,1.245698852180570628e-03,3.363887965679168701e-01
-4.762243809273596085e-02,-3.693102123416252547e-01,-4.724311465404651411e-02,1.621092969273287693e-03,-5.591562854392289131e-03,2.941545880392409853e-03,3.220758140087127686e-01
-3.682527076055268356e-02,-3.664160326803922452e-01,-3.652162827260309330e-02,1.684530599793535301e-05,-2.718057194343614837e-03,-3.105730068904401838e-03,3.298201560974121094e-01
-4.646339960058355756e-02,-3.706813796013203044e-01,-4.145888578302128757e-02,-3.135775150045482049e-03,-6.348236051344556367e-04,-2.549530413967187725e-03,3.268257975578308105e-01
-4.092042057565112301e-02,-3.683795068855205690e-01,-3.860594191960117771e-02,-3.423755873926841598e-03,-2.950279547190382077e-03,1.042366365654392307e-02,3.292110860347747803e-01
-5.309060401204304669e-02,-3.662554432212964395e-01,-4.671912909944882231e-02,2.998684396331368707e-04,-6.446980425875602737e-03,3.069534660127174776e-03,3.166407346725463867e-01
-5.295208268227533099e-02,-3.718417262140928381e-01,-3.954539634808648674e-02,7.709183754352745728e-03,-5.478080037871414960e-03,5.524341015120330222e-04,3.262128829956054688e-01
-4.682272544038529327e-02,-3.699878518929653470e-01,-5.137184163333942399e-02,-3.276563862523878298e-04,-5.696479817963577899e-03,-7.932656031641470212e-04,3.210698366165161133e-01
-3.913236675439828172e-02,-3.444264166112577241e-01,-2.710674600453076566e-02,-3.586453225520082073e-03,-4.706590550852810494e-03,1.429682608456762927e-02,3.126318454742431641e-01
-3.916031056068441929e-02,-3.674456075136839917e-01,-3.903388775068417083e-02,-7.826133332005694133e-05,-5.042887256407700133e-05,-1.431120263642105461e-03,3.283579349517822266e-01
-7.722068726038386344e-02,-4.231521240565485065e-01,-2.915224654223455558e-02,5.366097658244742795e-03,8.645567642343622572e-03,-1.442379609076157795e-02,3.735535740852355957e-01
-5.022364706850136751e-02,-3.905376189351761340e-01,-2.567602196707791107e-02,4.400850268725779030e-02,1.634445208225225252e-03,-4.831926104879711095e-03,3.614670038223266602e-01
-5.117688255798236163e-02,-3.688686528824250965e-01,-5.563467793334121725e-02,-1.946405424733260942e-03,7.538905229078923624e-03,1.140193814216925068e-03,3.157807886600494385e-01
-5.247045869794314532e-02,-3.799205131679795899e-01,-3.603293245768751651e-02,1.483457631734472204e-02,4.992882704296358783e-03,-4.358396155499984041e-03,3.371470868587493896e-01
-5.506101695720917039e-02,-2.261755229945418555e-01,-4.659600837995717115e-02,1.092216466243255552e-01,1.439693535745087969e-03,-3.396160840439421680e-02,2.646786868572235107e-01
-3.867673982769227747e-02,-3.658486776747805203e-01,-3.753487100533729748e-02,2.143750653632247813e-04,-5.356853251332134754e-04,-3.925872114183594393e-03,3.278164267539978027e-01
-4.283816810259605257e-02,-3.726501653684921034e-01,-3.814375645673849513e-02,6.325770473851720539e-03,-3.090560765457606054e-04,-4.506979873834952681e-03,3.324568271636962891e-01
-4.043260104158076518e-02,-3.670573550172011035e-01,-3.692274814034675334e-02,-4.991540234262873028e-04,2.388044214410993166e-04,-8.762546700299666527e-04,3.283986449241638184e-01
-5.062740888127129080e-02,-2.545586302911791998e-01,-4.568155028518106064e-02,9.277351449407184036e-02,1.125057076431899665e-02,-8.425007120250534165e-02,3.001928329467773438e-01
-3.777943752060217153e-02,-3.608319565998307499e-01,-2.712515287964038790e-02,1.716221050229836545e-03,-6.109659369752331974e-03,-7.895179795539537457e-03,3.289774358272552490e-01
-3.928272922584445659e-02,-3.724904682647916521e-01,-4.469998070223957232e-02,7.254083048576674079e-04,9.222630685748318914e-04,-2.140251023663398196e-03,3.305594325065612793e-01
-3.514689589646112500e-02,-3.744923824906563059e-01,-5.886952412891430231e-02,-4.522547783367166299e-03,4.479112834107993983e-03,2.901174132434987309e-03,3.283515572547912598e-01
-5.723338053021453931e-02,-3.753378971140930442e-01,-4.172020331296152906e-02,1.484275812442471332e-03,1.543735744722898439e-03,-3.903685205253097992e-03,3.262290954589843750e-01
-4.126335020813975962e-02,-3.652599569334154528e-01,-3.123237920561090786e-02,-4.560299956074187130e-03,-5.173737266926702397e-03,1.620741613605128015e-02,3.305376768112182617e-01
-4.111807059896652183e-02,-3.779942413192345918e-01,-3.890919794152068734e-02,-1.121654773156922566e-02,-7.064223567255615427e-03,6.081261480477384573e-03,3.389286696910858154e-01
-5.129904067992871464e-02,-2.820490310910234166e-01,-3.426378732138454786e-02,-2.948313267365518589e-02,-1.262968201557269736e-02,3.457216166880354435e-02,2.532560825347900391e-01
-2.650434423186345811e-02,-3.127030735583473664e-01,-3.436066850072229395e-02,-2.271114650689716116e-02,-1.150594371470688680e-02,1.123176196504896245e-02,2.864366769790649414e-01
-3.984530267926858493e-02,-3.722295263919056518e-01,-3.902901080997370209e-02,3.049426713695489797e-04,-3.908964450638721016e-04,-2.655649366789963797e-03,3.328260183334350586e-01
-5.575232628733033102e-02,-3.761493462800069021e-01,-3.529384660436905852e-02,6.964912166443874841e-02,-9.559650671109845912e-03,1.779819907014249317e-02,3.541258573532104492e-01
-5.453921296105135319e-02,-3.855426864421264699e-01,-2.248772935999249212e-02,8.125037034794350965e-02,-3.979123034343750274e-03,4.143030397161614337e-02,3.823630809783935547e-01
-3.647036261643807342e-02,-3.372429243766989493e-01,-4.411104482649939873e-02,2.919383937210482619e-03,-2.858384738050499460e-03,3.588793941258684034e-02,3.035429418087005615e-01
-3.785400195276873714e-02,-3.804504857051329569e-01,-5.096578632161559430e-02,-3.461246834072212626e-03,-8.876554566747027171e-04,-3.140494096772435302e-03,3.363333344459533691e-01
-3.835346447871736120e-02,-4.018261363238195272e-01,-4.284194021087354975e-02,4.330322776043763616e-02,4.314745585843310534e-03,3.254331732889934742e-02,3.733090460300445557e-01
-3.904630662206658165e-02,-3.427149448660501418e-01,-3.105425665181094086e-02,2.144932711702827316e-02,6.020802674598259643e-03,3.670459031734845529e-02,3.166008591651916504e-01
-3.739116495751471092e-02,-4.092690799419113068e-01,-5.407137017166624426e-02,1.516590166903913905e-02,-8.492902705486861728e-03,1.807655516325276657e-02,3.664083778858184814e-01
-3.815535701546761416e-02,-3.554135534583680034e-01,-4.116725492105459405e-02,9.285151256689154475e-02,-1.710789705850859418e-02,3.449595472824524417e-02,3.605807125568389893e-01
-4.374645705218666025e-02,-5.377940331577454325e-01,-5.218793824745154852e-02,2.979998018355931727e-02,-4.798295232819854705e-03,5.644561522022406574e-02,5.022701025009155273e-01
-4.391549951565074106e-02,-3.663876922987909790e-01,-4.609314508864506554e-02,-5.785688573853365636e-04,-2.431347210911466612e-03,4.916998626881144765e-04,3.214191794395446777e-01
-3.976597760978747842e-02,-3.739346762522567369e-01,-4.654228180047775831e-02,-5.672576990406792523e-03,6.183706705950089803e-03,-6.037691145907990095e-03,3.313167989253997803e-01
-4.452044971210256108e-02,-3.683508101261958601e-01,-5.952054370983515807e-02,9.700949243153530023e-04,4.487009290563843955e-03,3.262616375684758777e-04,3.166972696781158447e-01
-4.037675064724115248e-02,-3.806787272463912908e-01,-5.830395922391910790e-02,-5.458840928497392213e-03,5.044524684682072206e-03,2.392510685610672004e-03,3.319775164127349854e-01
-3.618568918552181324e-02,-3.821766279183593795e-01,-6.694552265379916101e-02,-3.176584761739982814e-03,1.526595818954852015e-03,3.610069480528730560e-03,3.317975699901580811e-01
-2.985337132833076890e-02,-5.233553163798008168e-01,-6.427667302090356305e-02,-5.202347996833096844e-02,-7.098566148524723500e-03,-6.911231899947276047e-02,5.003410577774047852e-01
-3.724048676201204000e-02,-3.746839419250437286e-01,-5.546700673386936731e-02,-2.089718306753041328e-03,2.857038412326277834e-03,-1.837244917695662113e-03,3.287819623947143555e-01
-6.203269695333533257e-02,-1.588133223500157731e-01,-6.251842584851002860e-02,1.315345840970504054e-02,-8.641424892272923930e-03,-2.178066188422092542e-02,1.071726232767105103e-01
-2.877400070693016121e-02,-3.730329253324409233e-01,-3.990943224098730813e-02,-7.034818410821134897e-03,4.724736777477243389e-03,-6.487837894444709475e-04,3.391481041908264160e-01
-4.736697803825119790e-02,-3.652753138327045068e-01,-2.580173555001069596e-02,-2.806800068395147105e-03,-4.991523111822454388e-04,-3.495325178387521849e-05,3.292581439018249512e-01
-2.160319604606382449e-02,-2.752108115766052077e-01,-6.347347816281831423e-02,-3.918109923652694088e-02,-3.884777866078650919e-03,2.156256906944639673e-03,2.451856881380081177e-01
-4.553536581647532611e-02,-3.139588362799092813e-01,-3.108747010369820873e-02,-6.847284951628022399e-03,8.449631910611946073e-03,-7.315749144252338019e-04,2.765763998031616211e-01
-3.762838685350081147e-02,-4.107284303076254028e-01,-4.999842628044127990e-02,-2.040033505258438511e-03,-8.611370895904199921e-03,-1.151586964025601637e-02,3.679323196411132812e-01
-4.594449034932053533e-02,-3.214037427026900651e-01,-2.389871924721219398e-02,-6.436023102610406200e-03,9.256679627685684975e-03,-9.370142907674525526e-03,2.882381975650787354e-01
-3.381667805501253898e-02,-3.508569342352381160e-01,-3.996033433287196623e-02,-1.590559338009431278e-02,9.355117195668890195e-04,-7.701412437555271023e-03,3.155059516429901123e-01
-3.806744178504542497e-02,-3.382127816495414940e-01,-3.449330564018279754e-02,-9.827630147580670300e-03,9.252867719622734355e-03,-6.537952700074910889e-03,3.030636608600616455e-01
-3.186524345129465585e-02,-3.888573229182234470e-01,-3.308777176378326079e-02,-2.396453871877673569e-03,7.286542401578603723e-03,-7.956114774641622790e-04,3.566326200962066650e-01
-3.863070595982837085e-02,-3.655348668713760407e-01,-3.698544305482895367e-02,5.678488912196979907e-05,8.077582146932067025e-03,-6.680089556472794399e-02,3.478357493877410889e-01
-4.407370630408384560e-02,-3.638248945065842843e-01,-2.014309670538007302e-02,1.150406721670463030e-04,5.368519349740039429e-03,-2.575918517909725047e-03,3.325233161449432373e-01
-4.095862007348281819e-02,-3.656919888538819330e-01,-2.073851348550083407e-02,-4.985374073208701353e-04,4.927350674036776526e-03,-3.551798964675767761e-03,3.354671001434326172e-01
-3.897864941171028108e-02,-4.292790928537593143e-01,-4.569265624218515898e-02,7.411271416778129027e-03,-2.533290358942493457e-03,-1.242012077255678221e-02,3.878219127655029297e-01
-3.124607230627257648e-02,-5.682349392535884780e-01,-5.118134406597260599e-02,-3.422760845252627304e-02,-6.936756634993011166e-04,-3.515325921694990169e-02,5.341092944145202637e-01
-2.201693595288731209e-02,-4.266757751381771713e-01,-8.974384421235556686e-02,4.056489586705879988e-03,-4.188420637243106363e-03,3.507756487464200323e-02,3.804243803024291992e-01
-4.086041356671400726e-02,-3.644299777539817264e-01,-2.253079244564221151e-02,-7.825271755075371982e-04,-1.757590189795930338e-03,-6.332354801435622835e-04,3.331312835216522217e-01
-2.870407793971907484e-02,-3.778801694278541845e-01,-7.606270780168539192e-02,-1.097535377729936916e-03,2.956199762498970280e-03,-1.106357673247210889e-03,3.281216025352478027e-01
-3.532230534625269147e-02,-3.680468510080198152e-01,-3.295070717791825921e-02,-1.569991653231954604e-03,-8.639284335295636203e-04,6.071424369274627114e-04,3.339327275753021240e-01
-4.041935903620559600e-02,-3.739291758188011960e-01,-5.356930725585475062e-02,-2.880811124557513658e-03,1.447762325186665146e-03,-5.251155299593707020e-03,3.273071944713592529e-01
-3.115137923798039221e-02,-3.496603541295091322e-01,-3.830306166327629436e-02,-1.700938206703743807e-02,3.518986835752835416e-03,-8.681929971780098787e-03,3.167845904827117920e-01
-4.238807584954831786e-02,-4.147815240704353368e-01,-6.430408458719549802e-02,2.693542626329000975e-03,-1.988692056500538166e-02,8.271689277388626430e-03,3.638809025287628174e-01
-3.741128983602343139e-02,-4.326360290251788365e-01,-4.038228930852713616e-02,-1.603937450218806404e-02,-9.699456674368298146e-04,-2.080454097385565221e-02,3.963714241981506348e-01
-4.053777484026345468e-02,-3.979022402570052686e-01,-4.853980215168425538e-02,-5.943988421980928027e-02,-1.628278843121964276e-02,-2.412671401619696093e-02,3.715571761131286621e-01
-3.601001239350708205e-02,-3.349279866889317558e-01,-6.303687169470517659e-02,-4.164401150488024339e-02,-1.254466006638716401e-02,-6.077575460724197326e-02,3.142601549625396729e-01
-3.667100231710812563e-02,-4.984299001319406064e-01,-7.049321672940844774e-02,-1.970427212446087400e-02,-1.315429084955826479e-02,-6.236789668612598148e-02,4.605438709259033203e-01
-6.497342757511785638e-02,-3.789103551592807317e-01,-4.539154897786265574e-02,-7.694842601884654965e-02,-1.579865509658461703e-02,-3.487803211169230450e-02,3.567194044589996338e-01
-4.469181473205974253e-02,-4.752051105812539200e-01,-5.170268593713028826e-02,6.538045523585143959e-02,-1.066932090519836021e-02,6.962165530540601228e-03,4.423610568046569824e-01
-3.647732343866227911e-02,-5.073724157603951568e-01,-5.689097098266310271e-02,-3.562987443441989477e-02,-1.613413953341372858e-02,-1.436675517303729645e-02,4.666420817375183105e-01
-7.022284108010805326e-02,-4.769772119231508456e-01,-2.284668573816917014e-02,2.201384985856003843e-03,8.929051821809714379e-03,7.528819406545790918e-03,4.328831732273101807e-01
-5.565279279102905430e-02,-3.768934362345541800e-01,-5.036246049124866453e-02,-1.384560991570918907e-02,-1.248099292112059104e-02,-6.713553256098435569e-03,3.257309496402740479e-01
-5.630903544665608051e-02,-5.635331285452906958e-01,-2.854012792575744140e-02,-1.026062526401451264e-01,8.666376716992361257e-03,-1.537790580419603863e-02,5.519523024559020996e-01
-1.995296988616286626e-02,-3.688745594336900746e-01,-4.197420925603437269e-02,-1.898448362629578988e-03,1.395588549163771222e-03,-5.452338049611924311e-04,3.384746313095092773e-01
-5.995947329145752402e-02,-4.213136536129806209e-01,-3.095777685374512256e-02,4.368076361805523292e-03,7.769018119044013293e-03,-7.290317973115034884e-03,3.772208690643310547e-01
-6.840851933857086675e-02,-3.846356072779126833e-01,-2.869840866563425075e-02,-7.192108348182388311e-03,9.081954542206210207e-03,-8.682212009223925359e-03,3.387663662433624268e-01
-6.618785797827887729e-02,-3.959149320497360458e-01,-4.242292829397364962e-02,5.698959450456592135e-03,1.002550427354882007e-02,-4.562567039422939751e-03,3.429024219512939453e-01
-5.952426839965667404e-02,-3.844501831258129165e-01,-3.921776343206029303e-02,1.669270955478272065e-03,1.284244922893546838e-02,2.968131057632685671e-03,3.363285362720489502e-01
-3.368160741316471307e-02,-3.701551394770515868e-01,-4.278975282847052863e-02,2.541222837366521534e-02,1.891220369356488851e-02,-7.600308275873692010e-02,3.613481819629669189e-01
-3.682646471284040102e-02,-3.636233189263187171e-01,-6.840615127605960410e-02,2.157425867248194060e-02,1.758859783941551722e-02,-1.196262229597725851e-01,3.777949810028076172e-01
-5.432557961282941800e-02,-1.897985814144835248e-01,-5.251529429778699354e-02,5.910586134408502695e-02,4.422326655118337911e-03,-8.546549113272429443e-02,2.259506285190582275e-01
-4.951652518533877778e-02,-3.292198715007094156e-01,-3.678836403214466588e-02,2.000574175700602086e-02,-1.505190021082299795e-02,-5.037086928198843128e-02,3.024038970470428467e-01
-2.206166410031193403e-02,-2.516766333497081898e-01,-5.713358101676323936e-02,-1.703484813336763465e-02,2.264350700884679331e-03,-9.987238105531760779e-02,2.769647240638732910e-01
-3.385583096700164885e-02,-3.849312581702187264e-01,-5.025075937020621886e-02,-8.500664546888870785e-03,-2.258819176802444664e-03,2.197148235652581633e-02,3.456113636493682861e-01
-3.283159383067627002e-02,-3.772403056359218132e-01,-3.461050293552864199e-02,-6.220855050304841796e-05,1.127456585905639748e-03,1.565954922236881199e-04,3.435283899307250977e-01
-3.215983900263788553e-02,-3.769694272543926417e-01,-3.524845912499235956e-02,-8.273218916913992692e-05,9.899166856949487107e-04,7.160431940472030852e-04,3.432822525501251221e-01
-2.898998800970589707e-02,-3.742753342330097377e-01,-3.649797128157908355e-02,-1.730128601305016298e-04,2.808117791225554424e-03,6.888370059304649729e-04,3.416300714015960693e-01
-4.698255975562729003e-02,-3.697231617851111096e-01,-4.813102830707498281e-02,1.145160955465592163e-03,-1.392364558979699435e-03,1.631709563536665967e-03,3.221954405307769775e-01
-3.174205663046225645e-02,-3.602862777157192498e-01,-3.493901625859308080e-02,-4.101382166520443906e-03,7.721191005289821177e-03,-9.250966934152426860e-04,3.273118734359741211e-01
-4.363138785170987688e-02,-3.736697925026731815e-01,-4.044022743539146814e-02,1.976219912668921753e-03,-1.473882359199174671e-03,8.983835302089735082e-04,3.316766321659088135e-01
-3.250124151580911780e-02,-3.746847890601104902e-01,-3.664972800454029123e-02,5.145836368127562708e-04,3.466778957459658219e-03,4.216915991781816512e-04,3.401832282543182373e-01
-3.530727735248882782e-02,-3.753683440580377617e-01,-3.107346850110706549e-02,1.318892835225646785e-03,1.362617107926099259e-03,5.335089651027907906e-04,3.422146141529083252e-01
-4.313418079290803897e-02,-3.536753601406984471e-01,-2.847687399106528516e-02,4.062933467271330479e-03,-1.306826391680190706e-02,-7.355095871754617140e-03,3.192593157291412354e-01
-4.619893738172914377e-02,-3.802227209308223776e-01,-4.466073588699275010e-02,4.132081651743866463e-02,1.197630427335471398e-02,-7.419100776229362038e-02,3.662697076797485352e-01
-4.770394229961705257e-02,-3.716869276490818441e-01,-5.226815577363913556e-02,-9.404036328708062454e-04,9.180444577228162248e-03,1.611447880493069740e-03,3.221340775489807129e-01
-4.884941802671555200e-02,-3.650609715362099772e-01,-4.878104554563543471e-02,-3.500728110949227713e-04,1.556916930707634970e-04,-3.201879792421903625e-04,3.162469267845153809e-01
-4.545067171654526561e-02,-3.698364288553459001e-01,-4.519533724241744932e-02,-1.392433142999632313e-03,2.324187086943866731e-03,-2.166115421774809880e-04,3.245476484298706055e-01
-5.298316099128499990e-02,-3.732713409424102680e-01,-4.397471246691235514e-02,2.424276126126264329e-03,7.227410581100754405e-03,1.408195828377912595e-03,3.251634240150451660e-01
-2.655552536201076508e-02,-3.605600139902641610e-01,-5.257297265211556547e-02,3.870573096641589939e-02,-5.876193249524878232e-03,-3.580791573460168770e-02,3.346499204635620117e-01
-4.259884809090061508e-02,-5.965994770249825052e-01,-5.723951420358666664e-02,-3.248408138269927303e-02,1.823223750259271927e-02,-2.016212448730613296e-02,5.517268776893615723e-01
-3.641785447427978162e-02,-4.051995332635637270e-01,-5.617765395910304105e-02,-1.201635571916902234e-02,2.410579634848697417e-03,4.542986788456674502e-02,3.684366345405578613e-01
-3.176040953329983818e-02,-5.989700540335487489e-01,-5.119767937795480228e-02,2.499372826021733704e-02,1.344701331277249091e-02,-3.474914215404578677e-02,5.631328821182250977e-01
-4.059863477335144688e-02,-3.678268704605348050e-01,-2.980402833108547478e-02,-1.039519016133933849e-03,2.345176198014755665e-03,2.060650040399144775e-03,3.328056931495666504e-01
-3.957633858891487777e-02,-3.850648948156044638e-01,-3.551177548818172658e-02,9.003349152801119748e-03,-8.081329296005511711e-03,-2.838225613117682788e-02,3.516232073307037354e-01
-4.739119940185070046e-02,-3.664593394307799068e-01,-3.596580665416668210e-02,3.039538869437878599e-02,-5.736236342047396075e-04,-2.622420360261931704e-02,3.322893977165222168e-01
-2.023508569010468161e-02,-3.723774532862600406e-01,-4.341537868189676574e-02,-2.237630614345252622e-03,1.528615733273697716e-03,1.419141969452108066e-03,3.411845266819000244e-01
-4.834071641879852943e-02,-4.222150740756492882e-01,-3.058388407748641180e-02,1.546178229732637216e-02,-4.133653865090023208e-03,-1.489045526600049976e-02,3.849283158779144287e-01
-3.754926529132997237e-02,-3.804636609670971614e-01,-3.880055425180413409e-02,7.234320518231551235e-03,-1.823765318444657991e-03,-1.731459379762889401e-03,3.425474166870117188e-01
-5.755707773620945267e-02,-3.693878503956748993e-01,-4.267549565604145112e-02,2.250524606801170254e-05,3.324950341170737188e-03,2.298114833197379228e-04,3.195837140083312988e-01
-7.304782712198118477e-02,-3.883647664676151412e-01,-2.947025104860914735e-02,1.905767207803399322e-03,-1.151442500689095570e-04,-9.660347447980742897e-04,3.392318785190582275e-01
-6.102652475318488812e-02,-3.752868658240116617e-01,-3.574146011909681842e-02,7.083624310204598290e-03,3.743728655212921015e-04,-5.916874882289955423e-03,3.280258774757385254e-01
-5.572741969484672209e-02,-3.767318736315410366e-01,-3.684719336849991145e-02,-1.311908599557840309e-03,1.548492885788827541e-03,-3.270019529905683446e-03,3.309159874916076660e-01
-4.059072966898216728e-02,-3.725577332137071096e-01,-3.975173036676829530e-02,5.560549887490385569e-03,-9.436859314122679390e-04,-4.282131319523884566e-03,3.326135277748107910e-01
-5.219535034035953369e-02,-3.746038214840523017e-01,-4.456736918523653002e-02,-3.863656740900468182e-03,2.763395625131939357e-03,4.366030684055090261e-03,3.264806568622589111e-01
-6.657266700225974998e-02,-3.732242601597784981e-01,-3.955438065829167127e-02,-1.235243111992119589e-03,5.328890859124136604e-03,3.400335808079625989e-04,3.211549520492553711e-01
-2.410456699362101274e-02,-3.495993081478102615e-01,-4.148445574297580929e-02,-4.188250599233904708e-04,-9.268123294700659348e-03,1.646705094200215814e-03,3.175817728042602539e-01
-4.116563586094830474e-02,-2.929477215656642319e-01,-3.217496628249337520e-02,-1.210993304326888828e-02,-1.324151256321167390e-02,1.541666406393854723e-02,2.596492469310760498e-01
-2.508042109474624415e-02,-3.485083586486172891e-01,-4.142930713596738868e-02,-8.154359788556513403e-03,-1.067693807572876914e-02,1.786682779247003453e-03,3.164431750774383545e-01
-3.213010342218340643e-02,-3.642382898967497784e-01,-3.155587525369063506e-02,-1.719856922345224361e-03,-2.803617537189097893e-03,1.917346728905963910e-03,3.324610888957977295e-01
-2.573685205802681009e-02,-3.549311276605251475e-01,-3.735643319177629762e-02,-5.936092850766079565e-03,-5.621588066007051666e-03,4.820842424417622236e-04,3.238518238067626953e-01
-6.409531210510516219e-02,-1.894306725205118780e-01,-3.099700111651522427e-02,1.278490475887446385e-03,4.777211020758375878e-03,3.472954534116352854e-02,1.569860875606536865e-01
-1.892170107283735331e-02,-1.410388380609634840e-01,-4.750004653372268820e-02,2.357067879194131230e-02,3.236447450075567896e-03,6.829080102880413783e-02,1.671181172132492065e-01
-4.292017066813134940e-02,-3.753818656226961537e-01,-3.685333965084378050e-02,4.509289887088348617e-03,2.189141820664651603e-03,1.296517578347352825e-04,3.356486260890960693e-01
-3.002377047213759809e-02,-3.641056518577264756e-01,-4.284490567442830744e-02,-1.072620070744023744e-03,1.804448335073365701e-03,9.104274696052192970e-04,3.278833329677581787e-01
-1.757807031568051070e-02,-3.581419272844292845e-01,-4.445282264834357622e-02,9.097663010447856746e-04,-2.455152532783315238e-03,-1.096929177509704595e-03,3.279902338981628418e-01
-2.086132977691149137e-02,-3.358103514410175627e-01,-5.100038373940660175e-02,3.820905821423548759e-02,-2.216914600030443685e-03,-7.431365571884245361e-03,3.084950447082519531e-01
-4.023588635297357941e-02,-3.608494824235637388e-01,-3.952087188617157965e-02,-1.487669020915471756e-02,1.304313488698136125e-02,-4.900979533041443202e-03,3.229074180126190186e-01
-3.646227710552836510e-02,-3.783168051229911510e-01,-4.044692814019977545e-02,3.061880314157761334e-03,-1.190167427354683763e-03,-1.861134017336345606e-02,3.414524197578430176e-01
-2.790474189141245454e-02,-3.552513906592610349e-01,-3.954411830857149091e-02,5.173011079981537814e-04,-6.611620318316096916e-03,-2.599776469771618211e-05,3.218899369239807129e-01
-2.071783358749203219e-02,-3.477185439979652570e-01,-4.325163741993254263e-02,8.197374852435746937e-05,-8.614340158668616285e-03,-1.212103892658783445e-03,3.166949748992919922e-01
-3.487072332034789335e-02,-3.692955557997078531e-01,-3.274070138083741421e-02,-1.127258513003073304e-03,-1.483743474111189802e-03,7.032391061491702171e-04,3.355126380920410156e-01
-2.905439490744256281e-02,-3.684835120525120633e-01,-3.115452611781038827e-02,-1.261313590064298384e-04,-1.903130300082442891e-03,-4.385196023207437442e-04,3.384009301662445068e-01
-3.972477969064665271e-02,-3.477659757440767496e-01,-2.967649404761560361e-02,6.928366310237079120e-03,-2.889317352301346269e-03,-1.290019672459173476e-02,3.142513930797576904e-01
-4.638772040229227622e-02,-4.430992846307840183e-01,-5.806495674961416331e-02,4.764452802937309966e-02,1.569737919704130430e-02,-4.176403593658226804e-02,4.070207178592681885e-01
-4.916702133745545766e-02,-6.297098534551814897e-02,-4.384951516928809606e-02,-3.333757492657798971e-02,-4.684631416935859834e-03,-2.434411493051538006e-02,7.396049797534942627e-02
-6.206681941301037814e-02,-2.516540020581837789e-01,-3.500456338084913244e-02,2.988101597623461412e-04,4.279607004801134693e-03,-3.785728254848578361e-02,2.148512452840805054e-01
-5.815958225973896778e-02,-1.844766948295517850e-01,-6.917378726376985365e-02,-1.839901653544285393e-02,-2.426463304731025367e-03,-7.707102189568589522e-03,1.260851919651031494e-01
-5.550299012910739349e-02,-2.233026785285228966e-01,-6.584900926320651215e-02,-4.418989012264165498e-04,1.231732678739378209e-03,-1.370523680072198653e-03,1.629063785076141357e-01
-5.369515331902542654e-02,-1.324608576250045633e-01,-6.368927096895106443e-02,-1.476141458961723746e-02,-1.935578382505872110e-03,-5.829510392229375268e-03,7.926923781633377075e-02
-5.079321470260307614e-02,-3.529389920219278554e-01,-8.742458311470191479e-03,-9.249301725007224965e-04,-1.155992950733777350e-04,2.480702471610112935e-03,3.252489268779754639e-01
-5.178713747746685470e-02,-3.504127633317391521e-01,-8.581405155562632503e-03,-2.928126016460470978e-04,1.768318543829785247e-04,1.893587431853179480e-03,3.224243223667144775e-01
-5.209276145781671641e-02,-3.440239748898267225e-01,-9.080173623762149981e-03,-1.227530909937937613e-03,3.636414520535613017e-04,5.179330461511268005e-04,3.156522810459136963e-01
-2.620669014855959988e-02,-3.688673469057103249e-01,-4.100340940016569680e-02,6.450527214914989404e-04,4.893820553869448683e-03,1.368956067303719838e-03,3.356243968009948730e-01
-4.809776419779702994e-02,-3.467133740849425161e-01,-2.711202156134895347e-02,-2.059472786864514557e-02,-1.152902415733295625e-02,2.545070515217697643e-02,3.154247105121612549e-01
-3.708525927196541783e-02,-3.576034962520995841e-01,-3.018181370475193914e-02,-1.193990768758180186e-02,-5.387743906061085060e-03,7.571597964501799831e-03,3.250831067562103271e-01
-4.152471841403966579e-02,-3.680958144532693321e-01,-3.140873230969157270e-02,-6.338778031112165569e-04,-3.149705131734897336e-04,1.968519531305627703e-03,3.317645788192749023e-01
-4.268749323337234225e-02,-3.823969914350415777e-01,-3.874820652000413035e-02,3.097749903780073685e-03,-1.997755165190809312e-03,-3.831153989950147366e-03,3.418202400207519531e-01
-4.110021107544074848e-02,-3.727163995428822707e-01,-4.193617035436171536e-02,-4.282889988392208150e-03,-1.035757248306692777e-04,1.460452409223717083e-03,3.312917649745941162e-01
-4.199241631379631301e-02,-3.615894084041650913e-01,-2.883690499235307125e-02,1.945892060523430082e-03,-6.314314130178412879e-03,-1.493830915865331649e-02,3.275976181030273438e-01
-4.468285163961278894e-02,-3.708628688464727929e-01,-2.299762017104235723e-02,-4.538748021385057355e-04,2.231053053832474271e-03,-2.613294321239639437e-03,3.375988602638244629e-01
-3.245441627283235375e-02,-3.653210651816700683e-01,-3.245396654104865108e-02,3.458033975128514508e-03,-5.842794941425009242e-03,-5.820127024016059783e-04,3.330760598182678223e-01
-3.710220589467561059e-02,-3.694009710323672424e-01,-3.329287331147209872e-02,-1.467424565322137135e-03,-4.180301186763949448e-04,7.663879672156474103e-04,3.342328071594238281e-01
-3.791556204621020221e-02,-3.725199025267824648e-01,-3.497847726985038597e-02,-2.101442815129565649e-03,-2.298820160301788366e-03,8.354040024464146931e-04,3.361289203166961670e-01
-3.562295631028047915e-02,-3.731962222950652164e-01,-2.867618422891646257e-02,8.950055289341229958e-04,-6.403053245958757397e-03,-1.805807951491522926e-03,3.412978053092956543e-01
-3.173041207155544163e-02,-3.696121947830008914e-01,-2.981640111710098795e-02,-8.524403370857553492e-04,-2.397516982183925968e-04,8.687011578669243562e-05,3.388463556766510010e-01
-3.036559078313105786e-02,-3.697863767964318926e-01,-3.158340228899234048e-02,-3.102782259366157567e-05,-1.248430067695023007e-03,-1.710578963807508771e-03,3.388333916664123535e-01
-3.653586656148560818e-02,-3.652876966576770190e-01,-3.064917181575536886e-02,-1.741260775541077655e-03,-2.210823248327869767e-03,2.599639360662947258e-04,3.317704796791076660e-01
-3.810113536573306314e-02,-3.424380769054034546e-01,-2.744556192369890235e-02,-5.115803858697596249e-04,-1.062313868267590784e-02,4.128074002403044583e-03,3.104317188262939453e-01
-3.992935590604526630e-02,-3.656180994669108730e-01,-1.997213521795936086e-02,-2.068103702292206983e-03,-2.026469327457499844e-03,-9.839293165283648571e-04,3.361537456512451172e-01
-4.303284464002572751e-02,-3.552809204161012091e-01,-1.633959825538651434e-02,-8.628995353196757196e-04,-3.057000167904452750e-03,3.439929223232787280e-04,3.264612257480621338e-01
-4.028413267184616231e-02,-3.601695794559176544e-01,-1.664378701402187410e-02,4.821318281904288434e-05,-1.261540651996707722e-03,-1.324663865914083071e-03,3.323519527912139893e-01
-4.705966625405903769e-02,-3.585781158265778923e-01,-1.383937549324754102e-02,-1.683932505297179930e-03,-1.441687227979545271e-03,1.421026123435903572e-03,3.294189870357513428e-01
-3.291920275414730868e-02,-3.543179260265932884e-01,-2.815283839610314975e-02,-1.991019466529278872e-03,-8.773836934282745054e-03,4.812762999457088214e-03,3.242901265621185303e-01
-4.769207048347605393e-02,-3.531526916456675380e-01,-1.345582433735248440e-02,2.544920575647437590e-04,-1.156133779297942961e-03,1.282003588401360171e-04,3.239450454711914062e-01
-5.010567764686978121e-02,-3.530628971767897362e-01,-1.032923677966901543e-02,-1.691962731221872311e-03,-1.480443564450912566e-03,2.093313096493315366e-03,3.247216045856475830e-01
-2.867842184443507303e-02,-3.692851818418371179e-01,-2.967920469783733028e-02,9.949511732844312870e-04,-2.554125155594192884e-03,-2.135244677268375614e-03,3.401607275009155273e-01
-3.733700246273773810e-02,-2.003604594203667877e-01,-4.562059707560316840e-02,1.468545572834230317e-02,4.894418264007997961e-03,-6.441246560647820307e-02,1.961137354373931885e-01
-4.890193873882113518e-02,-3.094939154973836981e-01,-1.939869590824755408e-02,8.862028887324414558e-03,-7.160919561527535372e-03,-1.867795857994731037e-02,2.791110277175903320e-01
-2.569626499927145369e-02,-2.891452353192385250e-01,-5.109743704579848556e-02,1.926815187477634236e-02,-1.075595252898700616e-02,-1.898093525318201788e-02,2.567106485366821289e-01
-4.558932615598865201e-02,-3.556030070685154421e-01,-1.843862415702693380e-02,6.616989172578648841e-04,-5.638269649187364028e-03,-2.269191735529190335e-03,3.246149420738220215e-01
-4.191069129540542226e-02,-2.573119214233561269e-01,-3.724480831450056872e-02,3.231312888435476649e-02,-1.516477519886743654e-02,-3.439750754612756756e-02,2.340862900018692017e-01
-3.334829337777305003e-02,-3.118008610022155458e-01,-4.619813450943989486e-02,1.085418232257825272e-02,-1.589820952415206892e-02,-7.279551653051429330e-03,2.745788693428039551e-01
-2.868181312363626834e-02,-2.469443994063019454e-01,-6.034093315367040911e-02,4.182845610205308817e-02,-3.739050918395539144e-03,-1.486978150132391846e-02,2.183689177036285400e-01
-5.223522276034207878e-02,-1.220445662974534162e-01,-4.138071991308900355e-02,4.380704181937864622e-02,-5.914380392704655584e-03,-5.812937674269786498e-03,1.082238033413887024e-01
-1.930031842372145756e-02,-3.682574468974422754e-01,-4.292298683124678993e-02,1.712529577091556360e-03,2.513619658508232674e-03,1.938071653367289286e-03,3.378236591815948486e-01
-6.249043939052451035e-02,-3.771112372541057800e-01,-4.101406520841198444e-02,-9.374332951214611742e-02,-1.110290328079569476e-02,-5.669028493594870100e-02,3.775963783264160156e-01
-5.842348642360797872e-02,-3.700782620739324624e-01,-4.466729708835495694e-02,-1.229630613104887174e-03,-8.234689205658479727e-03,1.634833731925824235e-03,3.190941810607910156e-01
-5.508177063963522191e-02,-2.749893525523664506e-01,-5.519284424597852012e-02,-5.043560269087272313e-02,8.020020893578809137e-03,-1.563283666752439058e-02,2.385210692882537842e-01
-4.194308233085984605e-02,-2.936004471896281887e-01,-5.600567440901917105e-02,-2.883241801351530895e-02,3.953046063241342709e-03,-2.767087578408212664e-02,2.546135783195495605e-01
-3.672418595365851968e-02,-3.388371160630850865e-01,-4.639641029383344273e-02,-3.287373720812308830e-02,1.491965494126866118e-02,-1.914104657350830865e-02,3.057002425193786621e-01
-3.742130978110706774e-02,-3.370329077324294431e-01,-3.981528560423824858e-02,-1.128981774666813591e-02,1.111720130860603152e-02,-6.527686049124338703e-03,2.998942732810974121e-01
-4.233031258374332639e-02,-2.787435780056981560e-01,-3.151709983034507723e-02,-2.358401265155387477e-02,8.968505982695782267e-03,-3.877621495180680333e-02,2.549220323562622070e-01
-2.810037722615217615e-02,-3.686679463745966556e-01,-3.330537623308242601e-02,-1.800172767118762883e-03,-9.718793857335399815e-04,-1.811301451340644299e-04,3.380138576030731201e-01
-1.944556436023593682e-02,-3.443065643339620063e-01,-4.092675528190424517e-02,1.053904162348719836e-02,-4.796948966246768024e-03,-2.057231961854990698e-03,3.153294324874877930e-01
-3.541998720572833714e-02,-3.680135146076850550e-01,-3.270402529357399612e-02,-1.588593510036361142e-03,-1.650316353801557908e-03,1.771876407850980881e-04,3.339835107326507568e-01
-3.420296321648670645e-02,-3.678998263515148581e-01,-3.291126834495243514e-02,2.602039171891915633e-03,-2.080373661697711759e-03,-3.736553845438720864e-03,3.344569802284240723e-01
-3.748685845567116537e-02,-3.683016886404101298e-01,-3.229697839087126987e-02,-8.381799047489166135e-04,-6.569510727579767461e-04,9.401966402457141063e-04,3.334491550922393799e-01
-3.889959285133580413e-02,-3.679431523524863135e-01,-3.023045380291115858e-02,-4.989875808947594844e-04,-1.101595569329058642e-03,4.651213093633404811e-04,3.334701955318450928e-01
-3.473414998749808913e-02,-3.681594857868402126e-01,-3.785723632486155676e-02,-1.450549148162560325e-03,-1.338758391596620370e-03,3.968168429699949992e-04,3.318931460380554199e-01
-2.096758171730597753e-02,-3.682282367013349766e-01,-4.154093670148181761e-02,9.528315479618132411e-03,-5.471935625906456692e-03,-4.180614200364529687e-03,3.380584716796875000e-01
-2.927205980480847292e-02,-3.528573348426167211e-01,-3.583813293916825182e-02,4.336511958710968610e-03,-9.476599080347902423e-03,-1.122719501637930951e-03,3.208667635917663574e-01
-3.744855696439799986e-02,-3.384212626860449991e-01,-3.096153315552339913e-02,-6.933610312968342855e-03,1.310536342908965798e-02,1.006908419832286926e-03,3.053548634052276611e-01
-3.011360594871682894e-02,-1.885382118641372728e-01,-3.061495571080608685e-02,5.113653310422409948e-02,-1.426769141016469636e-02,8.533817426108535054e-02,2.352074235677719116e-01
-4.351361116335900059e-02,-1.428541992859034271e-01,-4.615413927122177795e-02,3.741792947452839135e-02,3.096266554319945710e-03,7.185280133540594694e-02,1.712622344493865967e-01
-2.595245342720318982e-02,-3.723008140595928661e-01,-4.063691970240800033e-02,2.098142081791015690e-04,3.628761545875789762e-03,-4.682419005831637529e-04,3.393039405345916748e-01
-3.780695672684573905e-02,-3.750149364373740468e-01,-5.286311023485663896e-02,-9.565839494757491079e-04,-6.770767369398521121e-04,-2.921986979273281070e-03,3.299826979637145996e-01
-1.362255329898065526e-02,-1.035190285116155684e-01,-4.698269423568421366e-02,4.148089460345654594e-02,3.084304443545592134e-03,2.750922256283533374e-02,1.168594062328338623e-01
-4.829936890372073244e-02,-2.611666618226142766e-01,-3.360009350682963136e-02,1.511802635307475662e-02,9.524795488900133014e-03,1.890319856859658601e-02,2.251385599374771118e-01
-4.712911374246700480e-02,-1.908434511404965006e-01,-5.461352572065222843e-02,3.458397620416897578e-02,9.098794244570586331e-03,3.061023364862672930e-02,1.621162742376327515e-01
-3.450845205872134225e-02,-2.998488289365974224e-01,-3.318858315923711721e-02,3.456811983579854280e-02,1.142172204501358188e-02,5.542814270360582607e-02,2.897422015666961670e-01
-3.847959118012941881e-02,-3.687256979222307551e-01,-3.025163409857735408e-02,-1.615191107722212423e-03,5.276871010527759906e-03,-1.439457412771781054e-03,3.345818519592285156e-01
-5.060947740751059465e-02,-3.045289804078381568e-01,-2.972167895830765683e-02,-1.673569717853382738e-02,8.681209830200714225e-03,1.689936893274551289e-04,2.669862508773803711e-01
-3.711208021423834102e-02,-3.717855345861634242e-01,-5.543838876339425570e-02,6.108650998293273541e-04,5.136949600363925920e-04,-4.677583928588381450e-03,3.260006010532379150e-01
-3.329168505851771986e-02,-3.619359042817132388e-01,-3.320334459738479016e-02,6.258622367907890061e-03,6.982794208484736920e-03,3.264870263284356134e-03,3.291380107402801514e-01
-5.016076694982163353e-02,-3.049080907853947142e-01,-3.605354349150786952e-02,2.373156354719129467e-03,8.166542010995489834e-03,-1.461778423676808082e-02,2.637176513671875000e-01
-3.888535724854856601e-02,-3.584983238535788264e-01,-3.911892040190954878e-02,-6.248594197238947073e-03,1.236316010096163119e-02,-1.362131682101738912e-02,3.212633728981018066e-01
-4.105245654666372923e-02,-3.683186330097057426e-01,-2.658747853715501264e-02,-1.066159257189259807e-03,-1.510357252168228722e-03,6.842621063767239872e-04,3.347505629062652588e-01
-5.260388073129307340e-02,-3.476555874708612270e-01,-4.756881060878052903e-02,1.109782198044796837e-02,9.403698324332673830e-03,-4.873852370696110659e-02,3.103668391704559326e-01
-3.928688861647047781e-02,-3.753385452631974872e-01,-5.541067809277834544e-02,1.861523274407262665e-03,2.220425663413607732e-03,-4.181796091222411346e-03,3.284051120281219482e-01
-3.496060390205525670e-02,-3.559297775761689486e-01,-2.782187142570448357e-02,1.789444991636087324e-03,-5.241039240188686936e-03,-6.041167631885791152e-03,3.249076604843139648e-01
-3.527098517079622908e-02,-3.682620515368880687e-01,-3.683032478090426942e-02,3.278946700294280495e-03,-3.957927405986353016e-03,-9.720723150368173115e-04,3.323376476764678955e-01
-4.162156900337039833e-02,-3.730715967457854387e-01,-4.660613472235874966e-02,-2.621717154893320797e-03,2.673167863443695180e-03,2.359635206167654139e-04,3.290502429008483887e-01
-3.602215442855528915e-02,-3.592264573317781040e-01,-2.820114420353095341e-02,2.229260486492638978e-03,-7.934502619358692332e-03,-7.514534313344302125e-04,3.274987637996673584e-01
-4.250374853632071792e-02,-3.627996656137668086e-01,-1.755881233840626832e-02,-1.144682449181698295e-03,-3.132179617996084121e-03,2.198230577988588650e-04,3.335191011428833008e-01
-3.736825748552631554e-02,-3.647844243154778621e-01,-2.341884090062898438e-02,-1.283245739566084721e-03,-4.118871598872683726e-03,2.908030023318013786e-04,3.346928358078002930e-01
-3.969877246411961103e-02,-3.640427373364183428e-01,-2.341101681942893420e-02,-9.262332144567311755e-04,-2.035418067377412453e-03,-1.358580947582728720e-03,3.328177928924560547e-01
-2.122788609713636976e-02,-3.366111762840889310e-01,-4.818648555574762959e-02,1.252136167766683926e-02,-7.149724151793167108e-03,-1.037908838209710034e-02,3.043648898601531982e-01
-3.926269919989537616e-02,-3.458548789638647425e-01,-2.969725472996120885e-02,9.996794506081435258e-03,-3.143914827440101069e-03,-3.988668358614657836e-03,3.120899498462677002e-01
-4.386600950154863343e-02,-3.681890643758509718e-01,-2.186656892937335894e-02,-1.106290359700094154e-03,-3.015134723539695215e-03,-3.256909190185629070e-03,3.359570205211639404e-01
-3.486916349573883356e-02,-3.916027076136544549e-01,-5.256174403495919578e-02,-5.688810130570268880e-03,3.076706346275055737e-03,1.942858430264469971e-02,3.500260114669799805e-01
-5.348893324422643314e-02,-5.231164432158021960e-01,-3.257208153520910199e-02,-6.988097852484562167e-02,2.080690460675052242e-02,3.555167489686346383e-02,5.005509257316589355e-01
-6.560101321674446928e-02,-3.831815667694273286e-01,-3.629163462939916096e-02,-2.058917640123559580e-03,1.456840250001011040e-03,-4.742865939078184760e-03,3.333333134651184082e-01
-4.719740851676472448e-02,-3.700637014637646605e-01,-4.348052972574391328e-02,-2.563652452405848058e-03,1.202810845724643649e-03,-1.770414260678450499e-03,3.247922062873840332e-01
-5.715497643423271545e-02,-3.857400886103702908e-01,-3.287902732961664465e-02,2.416362299889667636e-02,-2.148236091334081339e-03,-9.854030046074964758e-03,3.443704545497894287e-01
-3.472530378999899581e-02,-3.723549432428707728e-01,-4.021339469401999378e-02,6.836791300204779487e-03,1.970543293380767544e-03,1.994769098662578944e-03,3.351637721061706543e-01
-3.720790086691555532e-02,-3.694702810088232869e-01,-4.103904245559737707e-02,4.030649932289716644e-03,1.592995023600982704e-04,5.162893147525796480e-04,3.304385542869567871e-01
-5.518858951742877661e-02,-3.750468819962941569e-01,-3.682688290705268819e-02,4.687119276271862166e-03,-3.653894447902475938e-03,-1.957351124116719042e-03,3.296013772487640381e-01
-6.358458120330530428e-02,-3.811218200439014936e-01,-3.785228097158195582e-02,-3.621191069449048242e-03,-1.576632218095077274e-03,-2.405229981180790743e-03,3.312509059906005859e-01
-6.035701057278713977e-02,-3.812050435322996700e-01,-4.063621984071838500e-02,-3.376377719814371587e-03,-4.596917729976106315e-03,-1.725117835408428602e-03,3.313099443912506104e-01
-3.796834657897106557e-02,-3.467672833513240072e-01,-2.578565008421661309e-02,1.020269837975444453e-02,1.203883284583942385e-02,2.182423720786825019e-02,3.185014724731445312e-01
-5.188106780547911689e-02,-3.142572173460632667e-01,-1.986376344246126857e-02,-5.123653485026327843e-03,-8.384164665391538249e-03,1.968605557608091305e-02,2.823458611965179443e-01
-4.684003592596236443e-02,-3.594064387317525977e-01,-1.416529841299871140e-02,1.068306383621492849e-03,5.056687419412106421e-03,1.512261103084279121e-02,3.312772810459136963e-01
-5.526545571760757558e-02,-3.402989877532841545e-01,-1.645149054515526732e-02,-1.190596954186527723e-02,-6.986862800130510393e-03,2.996905756471091725e-02,3.115767240524291992e-01
-5.149390011575516457e-02,-2.769181325712463115e-01,-3.129800851230069014e-02,-4.055098918523662548e-03,-1.238691371487192147e-02,1.538124696193990566e-02,2.387383282184600830e-01
-4.547703008181955275e-02,-3.411589109953722110e-01,-1.739305177863560703e-02,6.051043192809308323e-03,7.634296392709610107e-03,1.036020266308227376e-02,3.116522133350372314e-01
-6.461700533164077553e-02,-2.570582139773990304e-01,-2.752586124056170813e-02,5.464068041592795707e-04,-7.521544059110121545e-04,2.793648997357112487e-02,2.188405096530914307e-01
-7.059116018485309119e-02,-4.937841834915251971e-01,-4.981782078444288442e-02,9.689347281313868965e-02,-1.785837834955948666e-02,4.754871699347468228e-02,4.735181629657745361e-01
-6.820807990856793401e-02,-4.029913137051156502e-01,-3.813733630745499981e-02,-2.876346806742059552e-03,-1.140788660345264278e-02,4.606329405945456222e-03,3.514685332775115967e-01
-5.180547240836697043e-02,-4.351828868504796222e-01,-3.888982730674436783e-02,1.291679859156159502e-02,-6.449259981352515464e-03,6.386024867418234156e-03,3.909530341625213623e-01
-5.607741385810961765e-02,-3.939267562189985306e-01,-3.537896496889247899e-02,1.878927559844004516e-02,-5.246156871401471029e-03,1.298957029311369887e-02,3.510148525238037109e-01
-4.568766114943349776e-02,-3.819402393311532307e-01,-3.703826174397320536e-02,2.342277291645963183e-02,-4.581862713026995867e-03,-1.355363041504946062e-02,3.439606726169586182e-01
-6.979218181290021417e-02,-3.800070172593902340e-01,-3.403024962856454616e-02,-1.420305225087709067e-03,-9.654969246799181793e-04,-2.089157402382092830e-03,3.295876085758209229e-01
-6.522925012750616092e-02,-4.641521441648798207e-01,-3.174841690470769917e-02,1.685024553067554498e-02,-3.278333831981233935e-03,4.029135358294475347e-03,4.177911579608917236e-01
-6.592915357128345533e-02,-3.979078112894466335e-01,-1.698217333290824582e-02,2.568151998238431266e-02,-1.155977451923711520e-02,-2.708809153233986827e-02,3.652886450290679932e-01
-7.007233113716636319e-02,-4.279005174944497947e-01,-2.912815639977583970e-02,1.642007279444448326e-02,-2.862819632550357533e-03,-1.068984505768875819e-02,3.815031945705413818e-01
-3.386118402524100623e-02,-3.784229377984418274e-01,-5.413205808923739204e-02,-1.736354685772264128e-03,1.885212720595679685e-04,1.625473431846512218e-02,3.360817432403564453e-01
-4.142530257045992648e-02,-3.727474230388174714e-01,-5.371616736311295159e-02,-2.057362023223316579e-03,2.498466977441274588e-03,2.076638992062933980e-03,3.254190087318420410e-01
-4.385066251970683171e-02,-3.549771493982817328e-01,-3.326032562500437495e-02,1.258266422558815701e-03,-5.404441890028823491e-03,-8.791766204680594859e-03,3.170663118362426758e-01
