sxx,syy,szz,sxy,sxz,syz,smises
-3.259736424657252996e-02,-3.259736424657252996e-02,4.851947284931446003e-01,5.293991695317294179e-37,2.832285556994609180e-37,2.832285556994896085e-37,5.177921056747436523e-01
