sxx,syy,szz,sxy,sxz,syz,smises
3.391347612616434359e-01,6.251954035821234712e-02,6.609395510780424754e-02,-2.695796308150601693e-03,1.098279905910806622e-03,4.160583936833740608e-03,2.749861180782318115e-01
3.524973480945934323e-01,6.454197588299045996e-02,5.941805158693569400e-02,1.802271074632891051e-03,-1.935313078228448162e-03,2.420016180522843296e-03,2.906175553798675537e-01
3.836847689187591337e-01,5.821066571755860453e-02,6.149033023246673613e-02,-2.201248091113704175e-02,-5.190613948985434677e-03,-5.450275781600401673e-03,3.263438344001770020e-01
3.727927367342237508e-01,6.631433331725937463e-02,6.230607104495000659e-02,4.585013711823386455e-03,9.929253567526129254e-03,1.687606787588972904e-03,3.090969324111938477e-01
3.573778861077506752e-01,6.707413084450676577e-02,6.532478244953743296e-02,9.118578087831625883e-04,-2.889490490212399953e-03,3.483080530807099607e-03,2.912921309471130371e-01
3.117794184860064877e-01,4.046950876331853464e-02,6.389417453113689638e-02,-1.863062890869876184e-02,-5.519539494078567511e-03,-1.039375803163828868e-02,2.631714642047882080e-01
2.952318246923003597e-01,3.750258034009962271e-02,5.992419109225069485e-02,-3.086452053929442108e-02,-5.300076856801243588e-03,-6.221279673885814904e-03,2.533902823925018311e-01
2.951454694761372344e-01,3.669740430059527381e-02,6.346619362074341908e-02,-3.000468361347228760e-02,-5.804786550011288397e-03,-6.611142041929327605e-03,2.520450055599212646e-01
3.101801177944912835e-01,3.137687011300310802e-02,5.802447003132665815e-02,-1.677662256983099634e-02,-6.633400507937052028e-03,-5.917606591676457563e-03,2.685020267963409424e-01
3.109259053958688401e-01,3.409389602100089400e-02,5.861375738372463784e-02,-1.508243025532630954e-02,-6.660230326412328213e-03,-5.985015730988319134e-03,2.671559154987335205e-01
2.628414935824917031e-01,3.107996439465141036e-02,5.473114454163352516e-02,-2.436462533440923728e-02,-7.781079169557230876e-03,-1.032854095807719287e-02,2.259954214096069336e-01
2.911206593733997039e-01,3.379230549250626658e-02,5.869846698527229900e-02,-2.966609783839868966e-02,-3.472500518133804503e-02,-7.972420698797753197e-03,2.586068809032440186e-01
2.957844215241187680e-01,3.560914777035932566e-02,6.421240680473624951e-02,-3.254496649312781098e-02,-1.006432192648233810e-02,-7.237955704640024190e-03,2.543737888336181641e-01
2.958990828412907947e-01,2.971659615995242421e-02,6.437779001778932975e-02,-1.482295644916918273e-02,-1.099619653853978370e-03,-3.744360447083755830e-03,2.520578503608703613e-01
3.120466586190582259e-01,3.153510070485149308e-02,5.820423615507516746e-02,-1.651132006258607121e-02,-6.444016480937815074e-03,-5.726058438905654892e-03,2.701070010662078857e-01
2.813014229787543785e-01,3.696883924178694103e-02,4.975697201540472958e-02,2.312891432801698552e-02,-1.628140440128436270e-02,8.476874666343083703e-03,2.436248213052749634e-01
3.248612975261819247e-01,4.399402953130336635e-02,5.784271551608423378e-02,1.795324783882749561e-02,-1.350138671936369252e-03,1.006855018194346106e-02,2.765232622623443604e-01
3.271331068826713873e-01,4.398849138243986212e-02,5.898331573125206728e-02,8.851990906164518974e-03,1.637040315758597417e-03,4.159444324678973799e-03,2.764869332313537598e-01
3.120728739987476685e-01,3.480029249380572898e-02,5.334791304090433228e-02,4.207804199939946428e-03,-2.038242860308486781e-03,3.991982237313203633e-03,2.686907947063446045e-01
3.304522606432056531e-01,4.172235729829408546e-02,5.939232713392092466e-02,1.093643331393586403e-02,5.767199373960463704e-04,3.751674820252607571e-03,2.810291349887847900e-01
3.300486902922620258e-01,4.148593107923631562e-02,5.761272312052607980e-02,1.091435123172972491e-02,-6.363033178239898462e-04,4.710382160136139529e-03,2.816027104854583740e-01
3.217945569062543032e-01,4.762419082722696428e-02,5.742337819879551886e-02,1.018998597304729067e-02,-2.775583907353066249e-03,6.747917480548355426e-03,2.702776193618774414e-01
3.215174564492911391e-01,4.210464742554453910e-02,5.405775156287771777e-02,9.138871131027095224e-03,-3.169113774709066307e-03,4.021576227174922767e-03,2.742330133914947510e-01
3.423007491947253067e-01,6.923626578885060112e-02,6.342409055987802136e-02,1.594245872612722417e-04,5.074737399711357283e-04,-1.710003019462356944e-03,2.760339081287384033e-01
3.377903271309339317e-01,6.191039150411628555e-02,6.319122497797446947e-02,-1.217427239246808872e-03,4.695438843287090026e-03,-2.503774760123875578e-03,2.754040956497192383e-01
3.459914741843804764e-01,6.327284544786980491e-02,6.120340732670867534e-02,5.647346365296393965e-03,-5.948536082219481151e-03,-9.318978271012387342e-04,2.841190099716186523e-01
3.611531860093407653e-01,6.385276842739828762e-02,6.614936223560718975e-02,4.030653770219144033e-03,6.512984205747490533e-03,-2.872317712075190144e-03,2.964975237846374512e-01
3.373153581184165639e-01,5.546453226806499770e-02,5.830558249671434490e-02,-1.369842453241402981e-03,8.600003168607487725e-04,-1.558770095208333796e-04,2.804552018642425537e-01
3.852558942726502789e-01,6.279620067829569385e-02,7.023313458401309051e-02,9.755185134612175341e-04,-1.126591683247685780e-03,-3.885254856657412419e-03,3.188877403736114502e-01
3.337882895803329086e-01,6.314158110726694750e-02,6.189019464578190965e-02,-6.196646465561516303e-04,-3.845147271359726477e-05,9.680099723664315490e-04,2.712818682193756104e-01
3.515410754953065542e-01,6.646669949018649270e-02,6.459581673069768326e-02,3.231545104442149104e-03,-7.441504651968056192e-04,-3.371431375192794188e-03,2.861316800117492676e-01
3.436115911864722761e-01,7.057229915268109499e-02,6.440017289113438015e-02,-1.421773662363006114e-03,3.338640164969484177e-03,-5.570902486407701415e-03,2.764170467853546143e-01
3.308536560373211977e-01,6.202259826478975779e-02,3.653957960760280399e-02,-2.366544422758003457e-03,1.558150828290414715e-02,1.717890901364757918e-03,2.837677896022796631e-01
2.951817006577169833e-01,5.380122577415780150e-02,3.096090928820424693e-02,-1.008531351882033071e-02,1.000505757908996297e-02,4.196786452554967552e-03,2.548680007457733154e-01
3.178888933301612929e-01,5.983920929375716180e-02,3.824908997539246125e-02,9.829164632560267664e-04,6.323321504186585514e-03,1.671457023633375746e-03,2.697375118732452393e-01
3.256499332878182162e-01,5.693675243829478261e-02,3.886053909157223540e-02,-3.305551803115155864e-03,5.839739299140213509e-03,1.425918336464088989e-03,2.784457206726074219e-01
3.358510376078462922e-01,6.086770837887392482e-02,4.986379042729302546e-02,2.117098204558926205e-03,1.055117310006019674e-02,2.122077111132604846e-03,2.812894284725189209e-01
3.320376516127868660e-01,4.413726182345163729e-02,4.769342084896094347e-02,1.981102696435237760e-04,1.656462804725148752e-03,1.084090474582948688e-03,2.861596345901489258e-01
3.386615652572075863e-01,6.411849261123450661e-02,4.643328057004635079e-02,4.943213567239356301e-03,1.108015616425441115e-02,3.123086306102089166e-03,2.846276462078094482e-01
3.375055185254327572e-01,5.493786028354748219e-02,5.589402761301627554e-02,-1.505663382092431880e-03,-1.978659032123896658e-03,-1.246164855654809936e-03,2.821319103240966797e-01
3.419403530382648659e-01,5.510992817030938018e-02,5.428828292916935971e-02,3.610991092749841688e-03,3.415129267833629228e-03,-2.197786556730700787e-03,2.873963117599487305e-01
3.307947494743572747e-01,5.902603055390429065e-02,6.073375391409388535e-02,-6.770791212025943206e-04,-1.834660308866312465e-04,-6.544851113722262260e-04,2.709240019321441650e-01
3.254169001224735958e-01,5.802128339800881329e-02,4.005511907986268605e-02,7.562326289106570518e-05,3.443335239765863906e-03,2.916384019551731925e-03,2.769266664981842041e-01
3.400450336242443194e-01,5.572171019550932469e-02,5.305312906956168029e-02,1.242230132920113051e-03,1.182993090520846483e-03,-2.044334703048047378e-03,2.857043445110321045e-01
3.407963161756195625e-01,5.652147588168211778e-02,5.482040216943047384e-02,5.061029583498724690e-04,5.102883455058369357e-03,-2.833512898502027824e-03,2.853097021579742432e-01
3.437888218463874823e-01,5.240141274085681478e-02,6.405162413017291556e-02,-1.894343563458201910e-03,2.588557171884374800e-03,6.399390665881434870e-04,2.857966423034667969e-01
3.360117060314208315e-01,4.290859602352894986e-02,6.150515130226516525e-02,-9.006756818236894349e-03,2.794629014679920771e-03,-2.806739491080494238e-04,2.847307324409484863e-01
3.254805070381047161e-01,3.984009726165244070e-02,6.004460691048921217e-02,-4.845109382241270107e-03,3.293512804781292564e-03,-1.340038200529842507e-03,2.762893438339233398e-01
3.484131605443893109e-01,4.960274499113294377e-02,5.751480608722622789e-02,-2.225201684446477882e-02,9.651394015492521317e-04,-6.008651700847597674e-04,2.974481284618377686e-01
3.363837742544635301e-01,4.395449010988014549e-02,5.570641212850974133e-02,-5.686144196866527167e-03,3.313334807494819085e-03,-9.057882604290818729e-04,2.869647741317749023e-01
3.274466276449826685e-01,5.383641556258904337e-02,3.565509514668703528e-02,-7.720815986312425409e-05,1.211988412800045663e-03,1.401965558004889282e-03,2.831572294235229492e-01
3.287672362199797194e-01,4.406776675347331973e-02,5.910389800404237948e-02,-1.490309334997151451e-02,3.853954370223148726e-03,-5.189539393540454522e-04,2.787665128707885742e-01
3.389043921610578325e-01,4.843768631016720505e-02,6.108272591999512613e-02,-1.936680332455194969e-02,2.884905383896056111e-03,4.388458381746160753e-04,2.863714396953582764e-01
3.411650946727572964e-01,4.661057464618452439e-02,6.096125552865437613e-02,-7.549317277636422366e-03,-1.435533856506389047e-04,8.724868605231129526e-04,2.879489064216613770e-01
3.090733699701952997e-01,4.419742962019655719e-02,6.244802051465621340e-02,1.038244712024481362e-02,7.649083277234566998e-03,-6.679580002502961446e-03,2.574703097343444824e-01
2.770220381221994987e-01,3.166178602786423602e-02,5.039562795833274489e-02,3.150513168116200746e-02,2.240642708627164914e-02,-4.288618632337284214e-03,2.459575384855270386e-01
3.088877575067476844e-01,4.302473853402624671e-02,5.593909655723439123e-02,1.003110545064140290e-02,8.495961347018627166e-03,-7.483711390012338059e-03,2.609653472900390625e-01
3.589881069258005208e-01,5.005430850028831646e-02,6.727117588084172151e-02,2.147913222357666213e-02,1.748163705505314039e-02,-3.684530260963768487e-03,3.045640289783477783e-01
3.484457737800287225e-01,4.930792638189322730e-02,5.801002556866573234e-02,1.383590286100413839e-02,4.516227859605317745e-03,-4.200349258961617697e-03,2.960480749607086182e-01
3.407702330262213919e-01,4.230162971205987665e-02,5.429009169548877634e-02,1.890304720728717622e-02,7.507424951969022230e-03,-6.910248570219134842e-03,2.950141727924346924e-01
2.860086565934244485e-01,6.369979805762127079e-02,3.558782761371102887e-02,3.060556561861223213e-03,-7.224001977541022815e-03,4.731870763635502922e-03,2.381446659564971924e-01
3.283246491062870032e-01,3.755648727699467671e-02,5.238242994147548903e-02,-3.902310030348354018e-03,5.475547075128198680e-03,3.718184197182121137e-03,2.839579582214355469e-01
2.986994406993886964e-01,3.635389346416420531e-02,5.924322550662310116e-02,-2.031548186876831405e-02,1.808411767898431693e-03,4.010258400056115023e-03,2.542447745800018311e-01
3.248598700539651607e-01,5.133684389091615341e-02,5.804805250012352869e-02,-1.237571169514612227e-02,7.572474096939924015e-03,1.137483635205673894e-02,2.721100449562072754e-01
3.036644055535480113e-01,3.469719220725193953e-02,5.576313654383523166e-02,-1.900809291538990697e-02,5.638407491034896565e-03,6.328834078251964999e-03,2.615732252597808838e-01
2.811838951514326057e-01,6.067425424573115456e-02,2.961531469791872651e-02,-1.795126959622122187e-03,-1.062173618564621856e-02,-2.085279548335464920e-03,2.383256852626800537e-01
3.318971849648842953e-01,3.863254441971737674e-02,5.479749328946173503e-02,-3.117876830983487210e-03,3.451648418860816560e-03,3.240507096288829884e-03,2.856943309307098389e-01
3.197015618787840685e-01,4.965351433896658673e-02,5.814989545744374266e-02,-1.724184627568406056e-02,6.341001505220252542e-03,1.257785894132041303e-02,2.686834335327148438e-01
3.238381677917021584e-01,4.553111375012060258e-02,5.540381785344913879e-02,-5.149609648791641375e-03,3.151396973268538130e-03,4.698501000038515091e-03,2.738251686096191406e-01
3.370693431785409810e-01,4.337084938828417169e-02,5.183772616559231827e-02,-5.301057339159106554e-07,-2.773826449007698320e-05,-1.778087394988786063e-03,2.895742952823638916e-01
3.332427596750782706e-01,4.112917458926770853e-02,5.269512998629888312e-02,3.947321392067422961e-03,2.791223188212685682e-03,-5.438285347454554011e-03,2.867828309535980225e-01
3.379221712242661546e-01,4.181177340195148251e-02,5.271841979750474527e-02,3.864681024016747377e-03,2.914714951428804771e-03,-5.643307835460021661e-03,2.910954952239990234e-01
3.338798589987617138e-01,4.447091558648937071e-02,5.402062682505956448e-02,2.151034356689528193e-03,4.559179611036207752e-03,-7.342203711846754556e-03,2.851717472076416016e-01
3.149089377196030992e-01,4.260928160783930552e-02,5.357216726336180845e-02,3.797742793642230278e-03,2.456874271737319228e-03,-5.617597219053260121e-03,2.672791481018066406e-01
3.211629739658125038e-01,4.708947619738206025e-02,5.226436207862714123e-02,4.941363363654430185e-03,1.792294050407178480e-03,-4.127271535609826521e-03,2.717696726322174072e-01
3.652761723200417254e-01,6.578901537001674571e-02,6.500335470199032628e-02,3.489520107265224342e-03,1.282281421224616951e-03,1.455799473875795400e-03,2.999604940414428711e-01
3.336272785260777640e-01,5.676024993931677587e-02,3.916316970090788496e-02,1.952732134834636666e-04,1.370844803042973884e-03,-1.104246436788417635e-03,2.860882282257080078e-01
5.248127696746343052e-01,6.844948408664133788e-02,8.069591163859446414e-02,-3.491310378401406983e-02,-5.437060431930111105e-03,-1.128333916365669223e-02,4.549241662025451660e-01
3.527162373273785567e-01,5.868806250939852254e-02,5.830272602133995674e-02,9.101179594319280461e-03,8.347190250293175934e-03,-1.823787523243525222e-03,2.950144410133361816e-01
3.529289751945331455e-01,6.720930872217235896e-02,6.836738705368622382e-02,2.311639460430259339e-03,-1.420066333423207765e-04,4.291592186370252887e-03,2.852674722671508789e-01
3.492993217983954568e-01,6.137758377214233563e-02,6.200909704999013616e-02,-2.887928949478655097e-03,-2.820336154354463349e-03,6.757930717432800985e-04,2.876938581466674805e-01
3.409184923101449827e-01,6.394957235469297951e-02,6.403634804316261919e-02,-2.307326142634960869e-03,2.117445868322615551e-03,5.952311933939304425e-03,2.771704792976379395e-01
3.337624529423951492e-01,4.303062582107901324e-02,5.270459353344701670e-02,1.473611628717121005e-03,-8.939248031821787129e-05,-8.434995432892026298e-04,2.860327363014221191e-01
3.342809732355763730e-01,5.631172978578399824e-02,5.773314154844848278e-02,4.950215916295749776e-04,-2.014380327479774711e-03,7.650515268052418896e-04,2.772877216339111328e-01
3.348576907179316997e-01,6.246423105075173121e-02,6.507192904127989674e-02,-7.182633011808242218e-04,2.244600473629754581e-03,-1.659976120620080620e-03,2.711449861526489258e-01
3.425926582471063853e-01,6.531903326216487171e-02,6.640807930114388247e-02,-2.812280638485781508e-03,3.254272823575030116e-03,-2.010724507107143361e-03,2.768528759479522705e-01
3.103973163807453584e-01,3.133811407152385653e-02,6.093477125921900606e-02,-1.551865036644550083e-02,-8.464155780263349707e-03,-3.881512497498452747e-03,2.673450708389282227e-01
3.196563151797187086e-01,3.889984453808593978e-02,5.670620690802413710e-02,-2.569774656532727852e-02,-2.197827236474781537e-02,-8.771715994050586010e-03,2.789320647716522217e-01
3.199161214249939822e-01,3.762576822425565959e-02,6.036564267435309827e-02,1.451651409263407164e-04,-3.829192817723941111e-04,-3.799646820564386678e-03,2.717158794403076172e-01
3.325517825759246593e-01,4.806918763472438350e-02,4.460112147928896320e-02,-2.355108402159598093e-05,-6.290805303916384471e-04,6.260257831893149393e-04,2.862365245819091797e-01
3.158759912265360903e-01,5.825739209546908215e-02,4.412447139472873425e-02,-1.330864774512347491e-02,-2.494835057796129102e-02,-1.359110266321992937e-02,2.704824507236480713e-01
2.933336567745292722e-01,4.298941030498300286e-02,4.285261651474045475e-02,-2.041484151275099052e-02,-2.490819329482889602e-02,-1.237005156978873352e-02,2.574434280395507812e-01
3.169876754198243107e-01,4.503484560090145750e-02,4.352707453181746400e-02,-6.386432705111804928e-03,-1.016255566398635915e-02,-7.577592866050792894e-03,2.738158404827117920e-01
3.142998131523870864e-01,4.812540390963632175e-02,4.404728294989601611e-02,-1.278624787913135337e-02,-1.076599920986157782e-02,-1.154978028609825527e-02,2.705352306365966797e-01
3.361883917459118631e-01,4.644431815980364087e-02,5.560803360475591317e-02,6.967085452825519734e-03,3.208561227201652422e-03,3.424024260014723307e-04,2.855824232101440430e-01
3.086427672354825069e-01,2.912487467127912455e-02,5.737228670385857709e-02,-3.797560043331881657e-03,-1.102230946225360702e-03,-2.239393491884443445e-03,2.666354477405548096e-01
2.890648570148017793e-01,4.843479035892651885e-02,3.764095354140872818e-02,-1.535404498296452473e-02,-1.446095274421682619e-02,-1.217617480465332629e-02,2.497919797897338867e-01
2.888613620151671557e-01,5.227456888219399189e-02,3.273659204035973824e-02,-1.450683735874333524e-02,-2.267541150035764022e-02,-1.073587961878221669e-02,2.519863545894622803e-01
3.315280901694762639e-01,5.207858220542634087e-02,4.587201524690909249e-02,-8.927218270832114333e-03,-7.721694342045321187e-03,-1.004785087435005296e-02,2.838763892650604248e-01
3.029100495206160648e-01,4.850259928541550414e-02,4.080821319528697699e-02,-1.171433689002221445e-02,-1.459466919945992883e-02,-1.176798791787170111e-02,2.611628174781799316e-01
3.145501661060137732e-01,5.890750487795735901e-02,4.013756909293600406e-02,-5.703840569913089763e-03,-1.558554152975703821e-02,-7.711111895997938698e-03,2.674109041690826416e-01
3.203845049291794145e-01,4.351739917751833164e-02,5.025616876421686030e-02,-9.281125422522136514e-03,-5.282508190687848319e-03,-8.258584345808230379e-03,2.745574712753295898e-01
3.146804865389577488e-01,4.158610246735824911e-02,5.152477871942458265e-02,-1.169288741810099730e-02,-9.158994234086998212e-03,-1.053144823645186211e-02,2.701105177402496338e-01
3.011698422705609834e-01,4.200411827411214272e-02,5.039912896497561468e-02,-1.346114107507585117e-02,-1.137723079103002306e-02,-9.091955614109052328e-03,2.573743760585784912e-01
3.250944054518372650e-01,4.661760246520026130e-02,4.466369209229487103e-02,-7.025375136257494373e-03,-9.620212941232208007e-03,-7.645172002672949094e-03,2.805322110652923584e-01
3.737405223081023964e-01,6.643172652132475764e-02,6.708606079203185968e-02,-8.741903585262125742e-04,8.682365440855686857e-04,1.007628446494883813e-03,3.069945275783538818e-01
4.005965654606269966e-01,5.892250190583107894e-02,5.231892997070415607e-02,7.603357186480181815e-03,6.055202401491481534e-03,-1.363741346234248128e-02,3.462404012680053711e-01
3.813414111362057324e-01,6.260182991984908352e-02,6.467118127978087327e-02,1.244187192336838541e-02,8.578161611114154886e-03,7.797080697556474892e-04,3.187892735004425049e-01
3.738530421805021930e-01,6.192391724977187872e-02,6.528705095706209549e-02,-3.077682479119874838e-03,2.615057933542377032e-04,1.738164297090541563e-03,3.103219568729400635e-01
3.488059968611529893e-01,6.309242683829768827e-02,6.493759749251062918e-02,1.204030417382532863e-03,1.309569256153359819e-03,3.629709521165950300e-03,2.848815023899078369e-01
3.481864853556092543e-01,5.957127778850299094e-02,6.097631518272426943e-02,1.215415431615108743e-03,1.383080874866920084e-03,1.333182076035095785e-03,2.879421710968017578e-01
3.488195990923629308e-01,6.121889654959294935e-02,6.442190895264193751e-02,8.549765301553797960e-04,1.035773809536819339e-03,4.807750687287731459e-03,2.861433029174804688e-01
3.432085024270948304e-01,5.705108327832641990e-02,5.723458835373565479e-02,7.550449335942554900e-03,7.380834984027386664e-03,7.511149588272873886e-05,2.866497337818145752e-01
3.324221383940648145e-01,5.315350343396801902e-02,5.264327961028426872e-02,2.810443342288953400e-03,3.532606035831596138e-03,-2.251381859140330274e-03,2.796606123447418213e-01
3.546937170467299172e-01,5.825219721435782871e-02,6.023132511859978500e-02,2.664933152337366652e-03,-3.339842676370234978e-03,-3.045619760318814696e-03,2.955966591835021973e-01
3.387073523912744744e-01,5.215267559246460072e-02,5.644540876802921214e-02,5.248004205383655085e-03,2.268970462818248822e-04,-4.624517047634921045e-03,2.846907973289489746e-01
3.126508192660211183e-01,5.109686101048685480e-02,5.222844271331605892e-02,2.694506200116980610e-02,1.914278263027002075e-02,-7.896378623902520696e-03,2.675449252128601074e-01
3.470195729273102825e-01,6.453148110881623545e-02,6.646042528163886853e-02,-2.404092894820639495e-03,-3.690429224876860034e-03,3.783445889668967266e-03,2.817081511020660400e-01
3.504114243579130594e-01,6.534300096236422828e-02,6.520553381546381755e-02,2.815507108572134869e-03,1.429090016179950223e-03,3.318880004050860089e-03,2.852475643157958984e-01
4.639972445557049574e-01,6.476666482481463483e-02,7.569819989160272988e-02,-2.416188968466800174e-02,6.415244904933123382e-02,-1.036536455599543737e-02,4.117774665355682373e-01
3.515976550086364338e-01,6.429933369017722111e-02,6.027316979448896217e-02,-7.537540531860724424e-04,-9.372689327865751929e-04,6.762855270528548039e-04,2.893422842025756836e-01
3.866372619533651189e-01,6.639087958172626425e-02,6.706470879006053154e-02,-1.192346188140105435e-03,-1.118187430292078878e-02,-9.901811476046833843e-04,3.205069601535797119e-01
3.760378653609477984e-01,6.394803900781309558e-02,6.481505389030725595e-02,-1.572252063927560492e-02,-5.772750850001622143e-03,-1.060589379572710088e-03,3.130098581314086914e-01
3.319636369506219209e-01,5.213015319217642607e-02,4.895241767224668694e-02,-4.246082401053272171e-03,-2.860642902923670773e-03,-4.631591627815412511e-03,2.816897332668304443e-01
3.317602784031190577e-01,5.360339874684456885e-02,5.561646497101228881e-02,-1.585321950158229273e-04,1.044819401976225092e-03,-1.496513925881383595e-03,2.771739959716796875e-01
3.335224089824648797e-01,5.223598767624794414e-02,4.867015753497136443e-02,-4.079732097928003356e-03,-1.336347984817730546e-02,-7.623523741931032341e-03,2.844254076480865479e-01
3.290318978665786598e-01,4.938413698628769943e-02,4.877102644260186692e-02,-4.900949444208319364e-03,-2.940464310990412514e-03,-7.962252383483447646e-03,2.804690599441528320e-01
3.286312704748668989e-01,4.296512295488202904e-02,4.701781721783580836e-02,-2.344255291097436036e-03,-3.054580118168439759e-03,-6.258340972592581382e-03,2.839468717575073242e-01
3.322935970492469915e-01,4.776665358313533782e-02,5.139677480756907335e-02,-6.011762990745387128e-03,-5.023592032322522598e-03,-4.808625203307675781e-03,2.831773161888122559e-01
3.164322337116652895e-01,5.530004741547385472e-02,3.271503047376146667e-02,-1.570270199530621972e-03,-4.373684860965261836e-03,-4.468696081732012083e-03,2.733541131019592285e-01
3.241085242276393052e-01,4.911735067154160417e-02,4.172389791161758288e-02,-5.271940839522551436e-03,-3.837214582101226845e-03,-5.438159254772977590e-03,2.791490852832794189e-01
8.435205712805063372e-02,3.991484353113447514e-02,5.392533670825049724e-02,4.141932714148973543e-02,1.701714477076397836e-02,5.317324505055396819e-03,8.745642006397247314e-02
3.127731995261503473e-01,4.591674341909575408e-02,4.809893586323153725e-02,-1.118146190259533893e-02,-6.767555639052654295e-03,-6.878192979297152038e-03,2.670003771781921387e-01
3.484034187320054765e-01,5.386989362453609154e-02,5.309490771773343887e-02,-2.095332354968048455e-02,-1.346615973288486923e-02,-6.411493626834175591e-03,2.982671856880187988e-01
3.462505358125611554e-01,5.644962533081285261e-02,5.035367280665674350e-02,-9.031575946886414782e-03,-1.349124755636950217e-02,-7.705346486160088819e-03,2.945457696914672852e-01
3.499561351883838656e-01,5.843094367594846295e-02,5.807462653967933319e-02,-4.304795977677310787e-03,-6.057103102993186558e-04,-2.486704602285872822e-03,2.918324470520019531e-01
3.412413227593745213e-01,5.672346316001758426e-02,5.961370704235666174e-02,-3.300388547738652197e-03,-2.162987377540447152e-03,-1.462593954968820697e-03,2.831776440143585205e-01
3.326190711509603992e-01,5.228083563600297023e-02,5.344451169232329601e-02,-6.610704522434956640e-03,-4.864136244555997655e-03,-2.554735815202198966e-03,2.801541090011596680e-01
1.907280867889472042e-01,6.429078885108627239e-02,4.063581251712160280e-02,3.487478768081803127e-02,3.474841264544160924e-02,-1.806270549161504693e-03,1.637611538171768188e-01
3.315385952285753168e-01,4.843720894301495328e-02,5.159230514729529204e-02,-3.031149632433584144e-03,-4.012686199176716470e-03,-4.464551070690433304e-03,2.817779183387756348e-01
3.268383523450099082e-01,4.616116220098610834e-02,5.121771532251996606e-02,-1.261212302199948149e-02,-1.576124339178790884e-02,-8.569356446799108323e-03,2.807645797729492188e-01
3.437078678061125103e-01,5.098433481079285567e-02,4.882503760565015671e-02,-1.247737165200142433e-02,-1.448074155505187435e-02,-6.922570020816544087e-03,2.959116399288177490e-01
3.184732983017358743e-01,6.298376893419881106e-02,3.553102385975508148e-02,-2.113880352503382659e-03,7.342463745253543367e-03,3.115382090115650059e-03,2.706412672996520996e-01
3.161334300408948916e-01,5.820549030812680047e-02,4.438946573699714682e-02,2.026143096616431650e-03,1.044131632610860103e-02,5.574010562810198521e-03,2.659207284450531006e-01
3.225848422593282638e-01,6.441474558498391789e-02,4.165450093936512443e-02,-4.629404029220921847e-03,4.165258607179606748e-02,3.728176954967920859e-03,2.799225747585296631e-01
3.164918149868243824e-01,5.432738318890588392e-02,3.849585552345465012e-02,3.522657925917280133e-03,-2.921447327698189090e-03,5.847612187806359302e-03,2.707336544990539551e-01
3.238405582195761356e-01,5.910767485867392257e-02,4.616640878824274097e-02,5.584229980424269997e-03,-1.294807630611627923e-02,3.955180638221176409e-03,2.726176679134368896e-01
3.293912996186645903e-01,4.808511544371972535e-02,4.524540512788881308e-02,1.142071643947177931e-02,-9.050610242130840283e-03,1.043739827063293324e-02,2.844361364841461182e-01
3.248251734377419209e-01,5.372190499690070176e-02,4.451347673397484939e-02,1.072777077597554529e-02,-1.166288478822764645e-02,8.558424323684045085e-03,2.775811254978179932e-01
3.115506894197702659e-01,4.906264063390865238e-02,4.943757135070755981e-02,1.818648040924145809e-02,-2.873643017357474516e-02,1.179336256517118930e-02,2.696081399917602539e-01
3.249434746030469556e-01,5.315066300033044477e-02,4.129012375529991785e-02,8.479281381542039253e-03,-6.793919024786813053e-03,5.099681821027924472e-03,2.786894440650939941e-01
3.252738430387934754e-01,5.198515072004518400e-02,5.335311884215045153e-02,6.283361234068565206e-03,-3.196739903365754254e-03,6.413679575044120215e-03,2.731066346168518066e-01
3.332591197934795524e-01,5.482301412017344389e-02,4.123826145144073030e-02,1.042148254706483715e-02,-1.072997252339493932e-02,6.887917861963683067e-03,2.868923842906951904e-01
3.232137190154177886e-01,5.011130136876967844e-02,4.429204123257973746e-02,6.163998959111964722e-03,-5.786127335988590532e-03,5.204081458920601332e-03,2.765930593013763428e-01
3.150362958912267253e-01,5.760266185828251395e-02,3.316775708510492915e-02,-9.732123667783433227e-03,-1.326806141818540757e-02,-6.479552403306569966e-03,2.722089886665344238e-01
3.107709421146056528e-01,5.328693967177623725e-02,3.747449153125116672e-02,-7.857827698133628552e-03,-8.484004092205336967e-03,-5.353255134231246250e-03,2.666582763195037842e-01
3.308266164193810477e-01,6.412039982957981610e-02,3.761334628260296076e-02,9.594421705139833789e-04,-1.567975439496525902e-02,-4.549186257344711715e-03,2.823239862918853760e-01
3.222825559945997620e-01,6.186514596774572716e-02,4.008872221980966377e-02,-6.785003109899721656e-03,-2.173705449755237648e-02,-1.029946761030014861e-02,2.753838002681732178e-01
3.228414470230418498e-01,5.371005028610255361e-02,4.120432581915646486e-02,-1.658207539089287617e-03,-7.169489511567251477e-03,-4.885001022826730016e-03,2.760214209556579590e-01
3.476020009562862390e-01,7.115375082866123857e-02,5.842434336490748281e-02,2.054811204835651616e-03,3.065801410832155564e-03,3.097529961691225693e-03,2.831507325172424316e-01
3.466286458726891562e-01,6.769886385510782978e-02,5.668869234467761864e-02,4.418413658822860032e-04,1.427973899399289986e-03,6.022514489591174322e-04,2.846083343029022217e-01
3.380540027455198882e-01,6.549533370528810849e-02,6.125611810234765642e-02,3.213837520764193257e-04,2.448217503328909526e-05,3.222934934983262686e-04,2.747039496898651123e-01
3.474428476949756317e-01,5.761799143231639830e-02,5.887648920153878973e-02,-5.659746978892117759e-03,-2.505254055552852410e-03,-1.327341164526411269e-03,2.894054353237152100e-01
3.389094974684308537e-01,5.773762402527624071e-02,6.078759948642775690e-02,-5.915122046990242514e-03,4.239030351197645152e-03,1.574469482708950284e-03,2.799565494060516357e-01
3.166640629736612311e-01,5.020797117661786324e-02,4.577837012286219143e-02,-1.286590193822001633e-02,-1.453797567299212716e-02,-9.079520337876912858e-03,2.712503075599670410e-01
2.996752299719965817e-01,4.135287362062876892e-02,5.462276098333597452e-02,-2.802588607615906502e-02,-1.470655336972732929e-02,-1.196283948789447250e-02,2.586757540702819824e-01
2.810383988431446878e-01,3.383105393327852373e-02,5.690733181364270032e-02,-1.641704956307874982e-02,-5.359243273340986644e-03,-7.734667317135381949e-03,2.387751191854476929e-01
3.202087434956900069e-01,4.420985238127483896e-02,5.953240232154548284e-02,-1.217984586032640204e-02,-1.398687926382367365e-02,-9.956909652169556105e-03,2.711282372474670410e-01
3.027474327657853070e-01,4.926812715058830061e-02,4.232275994328967006e-02,-4.232190898454763969e-03,-8.653571311851813996e-03,-1.006797979368767582e-02,2.581530213356018066e-01
2.830270711060813849e-01,4.952281989005737073e-02,4.697935206610369396e-02,-1.498207291410102830e-02,-1.205240160859673455e-02,-1.134332286901064413e-02,2.379491478204727173e-01
2.703947208564462246e-01,4.731520446095226207e-02,5.059000965387375204e-02,-1.794379112523154796e-02,-2.284730857886759642e-02,-1.426120358954816383e-02,2.284441590309143066e-01
3.472869839977230644e-01,6.289117509503124037e-02,5.728975604724467763e-02,1.522908511244758017e-03,5.180491515502208370e-03,3.600192220773623230e-03,2.874573469161987305e-01
3.420018366519960162e-01,5.344715249016883385e-02,4.988830367282361122e-02,-4.915247262177192475e-03,1.213167709616718055e-02,8.364316873730077984e-03,2.915943861007690430e-01
3.283282810505661065e-01,5.735338314913179802e-02,5.224639990303642234e-02,-3.659897323971162027e-03,8.910681764658649057e-03,4.475370732953617287e-03,2.741820812225341797e-01
3.284329198143505213e-01,5.014871274391589917e-02,5.377399831218923620e-02,-7.924889017350921980e-03,9.781182268424734941e-03,3.986219926930504621e-03,2.774337232112884521e-01
3.720946539410653897e-01,5.890837799745531067e-02,6.111634196890447512e-02,-1.587325419633283177e-02,2.668624440359761152e-02,7.094613015563071279e-03,3.169264197349548340e-01
3.468708492373374641e-01,5.526002261060972143e-02,5.923209550507131660e-02,-6.047915176435454850e-03,3.215993964811498271e-04,2.599964423677882455e-03,2.898700833320617676e-01
3.190227869720064779e-01,4.620169871084968405e-02,4.350905640402383256e-02,5.996145266448717724e-03,-3.288871061970364672e-03,7.741477739642967613e-03,2.747604548931121826e-01
3.315632441437158517e-01,5.020446212357754234e-02,5.008420300472826714e-02,4.650105896860907452e-03,5.149511565204250218e-04,6.210820091772871997e-03,2.817410230636596680e-01
3.012579452405717562e-01,4.219292764487939107e-02,3.933585507061367059e-02,9.186534849795003135e-03,-1.435124072591171737e-02,8.344587638742717237e-03,2.625699043273925781e-01
3.372660102771033452e-01,4.819914594127984453e-02,4.567563335379611067e-02,8.631347792744208103e-03,-9.070998099649452140e-03,9.222830943394539141e-03,2.915836274623870850e-01
3.277328860948026668e-01,4.587579000694513853e-02,5.227278910750791929e-02,7.642295273245084015e-03,-3.805277722115121310e-03,4.513943980593235379e-03,2.792151272296905518e-01
3.225155369536975014e-01,3.933339897812027086e-02,4.976365454426476265e-02,6.729136510548715429e-03,-5.762312940406369433e-03,5.607409681595196781e-03,2.787060141563415527e-01
3.375118570769027326e-01,5.985736087732715371e-02,5.868080718656069894e-02,-1.172225236987818955e-03,-2.601659477013082335e-03,6.933067796004978517e-04,2.782911360263824463e-01
3.425897089187963096e-01,6.419880274740717707e-02,6.635372878377238104e-02,-2.894916565505032541e-03,-3.164653964999528113e-03,2.407564451967319965e-03,2.774505317211151123e-01
3.405258743567347590e-01,6.191533080731519145e-02,6.330920938600147208e-02,-1.675218595386746652e-03,-1.518124114583027564e-03,8.355380127190210763e-04,2.779475748538970947e-01
3.353781241724417272e-01,6.006130030924315688e-02,6.017148637441042947e-02,-1.103035034079556382e-04,-3.535724196655781900e-04,1.354642017595006917e-03,2.752724885940551758e-01
3.359853414379320169e-01,6.015515953957915884e-02,6.003198465098712189e-02,8.908056721339034591e-05,-1.218252933369316044e-03,1.315805538864916850e-03,2.759093046188354492e-01
3.412791544086862805e-01,6.279758031639910698e-02,6.085327842167652379e-02,-3.245914298596281299e-03,1.259958252019125011e-03,2.488782262036865443e-03,2.795571088790893555e-01
3.376345644736645224e-01,5.932147207638072128e-02,5.732720049620070035e-02,-2.514017554015466650e-03,-3.371082680849098959e-03,1.822149669488312674e-04,2.794106900691986084e-01
2.700567099820591066e-01,3.545326378203231266e-02,6.422674390925890708e-02,-3.758813166498548713e-02,-6.947847011103028270e-03,-7.527205625663916863e-03,2.316672801971435547e-01
3.385900484846035008e-01,6.006558321179863991e-02,5.068900858683934862e-02,2.970413103134417112e-03,-6.566951422307279115e-03,3.680071323711963088e-04,2.836047410964965820e-01
2.813938982108290521e-01,4.033694639681378868e-02,5.846897280720464440e-02,-2.276606533695112178e-02,-5.056011444297938730e-03,-9.774326968910802133e-03,2.366105616092681885e-01
2.934302570155638001e-01,3.821604078496539103e-02,5.537331371797526991e-02,-2.786439492813939586e-02,-1.059549251173226743e-02,-6.437044835368497739e-03,2.526662945747375488e-01
2.553991740837524560e-01,3.104757388514058081e-02,4.800726959554836581e-02,-3.757348030797692806e-02,-2.276888307090023031e-02,-1.292056795074007780e-02,2.304511368274688721e-01
2.967553650219310057e-01,4.114109066031025608e-02,5.529049553645369597e-02,-2.584470508810084166e-02,-1.575092233754751478e-02,-1.271329110637398584e-02,2.552549242973327637e-01
2.793964577000711547e-01,3.957289658361191897e-02,6.381325096235303251e-02,-2.858850157030227990e-02,-1.269935686289420072e-02,-8.847751217775298715e-03,2.354996949434280396e-01
3.076873927021108179e-01,3.285648084736950136e-02,5.597820495705208010e-02,-2.346184780294327879e-02,-1.129599449172347982e-02,-8.516987714176867119e-03,2.682608366012573242e-01
3.103159190452925986e-01,6.462892785376564420e-02,3.548916380148831040e-02,2.411664102904097998e-03,-9.910279377432249653e-03,2.898725883099091249e-03,2.621216773986816406e-01
3.110356490270360652e-01,6.091142024658716125e-02,2.863488129547650529e-02,-1.100653636434916751e-03,-1.076089804540929229e-02,-3.719989560673400545e-04,2.683812379837036133e-01
3.056148295593620334e-01,6.142686256245971643e-02,3.003220703414608006e-02,-5.356694532860839172e-03,-2.683727681850182553e-02,-4.314183397748691702e-03,2.656731605529785156e-01
3.113744136035501153e-01,6.256030275640402094e-02,3.572819548367599241e-02,-2.444828596019588303e-03,-1.479702718173914362e-02,-2.785916803655264992e-03,2.645802497863769531e-01
3.029906260066538848e-01,6.241758387771652317e-02,3.056375914084544232e-02,2.678062534226393742e-03,-5.795826665796614471e-03,1.465982311678927247e-03,2.582285106182098389e-01
3.082661470231805589e-01,6.244277552828741973e-02,3.449038812952280597e-02,-2.824276087200448381e-03,-1.173882801401236568e-02,-4.822727709287234592e-03,2.618948817253112793e-01
3.062507931121130067e-01,6.031784477163092129e-02,2.931771361003875087e-02,-3.681880758402521995e-03,-8.199998275951891555e-03,-1.948902678904021078e-03,2.632902562618255615e-01
3.273266029792255005e-01,4.341418834742812038e-02,4.817770575020879908e-02,-5.581818027581177252e-04,-8.101967335709817433e-04,-9.554757558479647387e-04,2.815709114074707031e-01
2.761991914647596857e-01,5.921789005613747880e-02,3.286249397720006349e-02,1.147235736664568677e-03,-2.263577521837243853e-02,3.935368422051569760e-03,2.346948385238647461e-01
2.971073045867915763e-01,6.337305706253713866e-02,3.761313850449074514e-02,2.400304790442823848e-03,-1.573437704063544718e-02,3.926623187634713068e-03,2.492438554763793945e-01
2.741583847920018857e-01,5.523953381562124454e-02,2.481594462812231061e-02,-9.245093437999740661e-04,-2.815358051307323764e-02,-4.743496625000531187e-03,2.407473623752593994e-01
3.522001249421482516e-01,6.520746305335152482e-02,5.895907548686286914e-02,1.586088746115956946e-02,-1.359940946933146065e-03,1.741402952389451125e-03,2.914899885654449463e-01
3.518844254982309572e-01,5.305585170597890143e-02,4.805786129033284837e-02,2.507979749676132394e-02,-1.819286791833939557e-02,1.180051599724315364e-02,3.067812323570251465e-01
3.069811740329174699e-01,4.989704788579027439e-02,5.159534211906631473e-02,3.078891881779088555e-02,-1.882146101294415383e-02,1.497217286352350331e-02,2.650238573551177979e-01
3.291859251301041400e-01,5.165160041165532678e-02,5.724632399298218433e-02,1.745850864813658365e-02,-8.043563545549864066e-03,5.318428696958770255e-03,2.769426405429840088e-01
3.081730279411014628e-01,5.003337218458518698e-02,5.412988407532498547e-02,2.897614106606828666e-02,-6.629341428292396740e-03,6.882498347939013453e-03,2.615113556385040283e-01
3.376338142593932612e-01,5.439900304762623762e-02,5.998563689869332305e-02,8.963865037658043031e-03,-4.214689160906414690e-03,3.654195787435118685e-03,2.810787260532379150e-01
3.466130938371715930e-01,5.344460700391152896e-02,5.501191360380909556e-02,6.518026442331738626e-03,-7.095494546077362082e-03,7.630027532221543909e-03,2.931618690490722656e-01
3.420467117690469960e-01,4.973505298563941912e-02,5.813068162229925728e-02,9.280892678991363789e-03,1.794341898413785556e-04,7.235480031570391997e-03,2.889256179332733154e-01
3.389798164389791202e-01,5.057824017115897242e-02,4.496805738937076358e-02,3.324180881305908932e-04,-2.685056946927979208e-05,-9.998583795540149071e-04,2.912529110908508301e-01
3.047144691707899256e-01,5.019033657154196859e-02,4.346364820212328395e-02,2.982348101989707942e-02,-2.195189742470020702e-02,1.411101389987443229e-02,2.669292390346527100e-01
3.211508257541836886e-01,4.723427544713873494e-02,5.508681140918329777e-02,1.025416685552756925e-02,-1.932557360588074485e-03,6.311754500423079860e-03,2.709006369113922119e-01
3.187978954345612181e-01,5.182432797888059106e-02,5.082130598980096059e-02,7.617993383611012734e-03,-7.297257475252273001e-03,6.467409564003553414e-03,2.683337628841400146e-01
3.370748236342646642e-01,5.185863918785997562e-02,5.160803060963069233e-02,-1.213840317023339105e-03,6.026960708399888272e-04,-5.367094215733498111e-03,2.855026125907897949e-01
3.347623164848179123e-01,4.685247726126549883e-02,5.073005062019002309e-02,2.640018096150209808e-03,2.288440151892167772e-03,-3.157378841963961406e-03,2.861070632934570312e-01
3.349545200976495885e-01,4.854002824763496704e-02,4.662002555525435188e-02,-6.452073711758710356e-04,-8.966638117442318539e-04,-2.507997829988526349e-03,2.874185144901275635e-01
2.817599538977819673e-01,4.823861033351913019e-02,6.187149888162615796e-02,2.630399290329833804e-03,1.347093139453184839e-03,-2.727433648080146000e-03,2.271189540624618530e-01
3.146617419757412604e-01,5.724840244033312098e-02,4.121964616197464071e-02,1.411906212956763780e-02,-1.601668467137156229e-02,9.872193172815841092e-03,2.688951194286346436e-01
3.456230404387790056e-01,6.805975974413543128e-02,5.832756180910121657e-02,-1.201564315350568376e-03,-1.400494706268022539e-03,1.612431354864499221e-03,2.825869917869567871e-01
3.523123931734014058e-01,5.961753760427075666e-02,5.824701134957749327e-02,-8.841214367437842669e-02,-6.881200192917522052e-02,5.409278880052016507e-03,3.518756628036499023e-01
3.030645150832715351e-01,4.885579913148499487e-02,4.105927159392144810e-02,1.156856914338723688e-02,-1.384991224725993890e-02,9.012285990011319539e-03,2.605483233928680420e-01
3.114068348200441094e-01,5.465401464039405799e-02,3.831197931452773320e-02,5.464758918887909454e-04,-1.461406005920223839e-04,5.725982495187675707e-03,2.654887139797210693e-01
3.079784307642334240e-01,5.390587389496789839e-02,4.337490189464469903e-02,-6.805371292289318563e-05,-2.766300561859280204e-03,7.841493008690560151e-03,2.598977386951446533e-01
3.149422135933119260e-01,5.825001858712498815e-02,3.596875818084382948e-02,7.256057119050322336e-03,1.432963603845016295e-02,-1.195047343663534125e-03,2.699722349643707275e-01
2.246439200246042045e-01,5.180577226240928868e-02,3.688977535653401030e-02,-1.205607774557256560e-02,5.821398667868228627e-02,-6.097628836667075367e-04,2.080320417881011963e-01
4.048739277020556582e-01,6.920536783960599958e-02,6.628637169058904099e-02,-1.249516610306836660e-02,2.060020897102804070e-04,-1.865351420438393258e-04,3.378318250179290771e-01
3.352439821703937506e-01,6.171652806627830889e-02,3.877967329113846118e-02,7.919598093617261428e-03,2.025543958082028084e-02,-1.862629110851061218e-04,2.881602644920349121e-01
2.602247895874389982e-01,5.705296818283445148e-02,4.652038906133883212e-02,-9.585007624822427727e-03,6.674520575660659871e-02,-1.478994853753784543e-04,2.391026914119720459e-01
3.304244094303901980e-01,6.150975891753485136e-02,4.691081578558493892e-02,6.385370219010764840e-03,2.834708145091508619e-02,1.836351153675256070e-03,2.810643911361694336e-01
3.421522367234947071e-01,6.238922323151215032e-02,4.162789725123439144e-02,-3.803049912864225803e-03,1.456990476588677398e-02,2.463541306399783665e-03,2.918990850448608398e-01
2.644620030666048338e-01,3.760168074132749783e-02,6.618920772305046663e-02,-5.637030645780288091e-02,9.730660442881792355e-03,3.149645959811398725e-03,2.358900755643844604e-01
3.108639495105166572e-01,5.618524554180376329e-02,3.722343160520112659e-02,-8.397389937008699692e-03,1.536722319474574140e-02,1.323480920516281181e-03,2.664117515087127686e-01
3.373363719839261865e-01,5.669207905696789507e-02,5.697142375439628870e-02,-3.114986912830616144e-04,1.633500233378687872e-04,-1.914316544172413401e-03,2.805249691009521484e-01
3.442401330363457079e-01,6.083990826735476143e-02,6.890749895354171539e-02,5.833229939825155955e-04,1.444452024777693501e-03,4.146847365973488873e-03,2.795591056346893311e-01
3.371704882597712505e-01,5.748441716326110895e-02,6.004255310946365887e-02,-2.639037314994660457e-03,-2.280241971974585578e-03,-4.414027461124403039e-05,2.784813642501831055e-01
3.384884928552377437e-01,6.158645563953568658e-02,6.653414545422366155e-02,-1.309894081157660919e-03,-1.190483374533867237e-03,2.585457712330046500e-04,2.744791209697723389e-01
3.410132393934920958e-01,6.079048480685808609e-02,6.810303621274196861e-02,2.662749600602335614e-04,-1.905282702536404815e-03,3.145866664433256011e-03,2.767126858234405518e-01
3.536230207807554704e-01,6.461205653797875981e-02,6.771712864504744744e-02,4.289365730377844854e-03,4.443929804145490756e-03,4.421118807461488220e-03,2.877718806266784668e-01
3.374152964912260910e-01,6.718882487689675775e-02,6.121443619421416960e-02,1.317355652500580890e-04,-1.994175426519858652e-04,6.639246050789942687e-04,2.732653915882110596e-01
3.417861240294896019e-01,6.174720757855343967e-02,6.910886315848585593e-02,-5.293780762955433957e-04,-1.217689928688043448e-03,2.869091224805966206e-03,2.764858305454254150e-01
3.383641081006290019e-01,6.050222797137615183e-02,6.849345235815301747e-02,-3.538283911289613463e-04,-1.506007069689467917e-03,1.684283576174554209e-03,2.739823162555694580e-01
3.360163157973638515e-01,6.057745026208016803e-02,6.773126327296077887e-02,-4.121562807836386382e-04,-5.575850587004590802e-04,1.494606019914384481e-03,2.719475030899047852e-01
3.196160232825775438e-01,2.958790528695555422e-02,6.240576010472000112e-02,-4.225755459572287653e-03,5.047553527729900340e-04,-1.094077980289369150e-03,2.751965522766113281e-01
3.102190110068299700e-01,2.689508626043887740e-02,6.043403892407019085e-02,-1.751668211030061543e-03,6.697013267156152593e-04,-1.172219241135043959e-03,2.681596279144287109e-01
3.308426083061135614e-01,5.749108577230210848e-02,5.922165034259303795e-02,-8.123995601008531745e-04,-5.328067297961202719e-04,6.506879362427076549e-04,2.724978923797607422e-01
3.010146859685387533e-01,3.147561113866943761e-02,6.278629762293734540e-02,-2.042472543101718149e-02,7.875451034518396063e-04,-1.891809130461573341e-03,2.577912509441375732e-01
3.145298799752521690e-01,3.049624467286304874e-02,6.211972628396747464e-02,-4.749866724310299396e-03,-5.858122706565705145e-04,-3.479601498342256159e-04,2.697444856166839600e-01
3.166557612907442421e-01,3.761340163128423786e-02,5.412550357372128418e-02,-8.385455301239162079e-03,-5.965298208279607058e-03,-6.438454062757765703e-03,2.719775140285491943e-01
3.123485461266460872e-01,2.990891145295536402e-02,6.067587425287043756e-02,-3.806564998077806728e-03,5.912933475149741592e-04,-1.572906210334190820e-03,2.684788405895233154e-01
3.195935853638274815e-01,3.553166728120246698e-02,5.425376453882074790e-02,-1.023356732979600024e-02,-6.597403206675632285e-03,-6.359712429362424958e-03,2.762056291103363037e-01
2.746748632207475227e-01,3.132566615843218605e-02,6.347324042288855772e-02,-3.098618666969007659e-02,-6.570409837345410169e-03,-1.296762177749731515e-03,2.354659140110015869e-01
2.911038120117070416e-01,3.840462346950979100e-02,5.181099657405000003e-02,2.551937676354716980e-02,-1.226477189592627484e-02,8.773510055498640395e-03,2.515645921230316162e-01
2.933261853543965292e-01,4.006580996289206553e-02,5.885161594237307836e-02,2.642212349906848667e-02,-9.724442616935693312e-03,1.051539921556073412e-02,2.498916238546371460e-01
2.698373409729079575e-01,5.448427789068395477e-02,5.742665372975504223e-02,5.622605860935606104e-02,-1.167047648129208165e-02,1.296802844789812260e-02,2.369581609964370728e-01
3.085539532854716938e-01,4.282029483231342137e-02,5.654138447476612928e-02,-1.555422056071466448e-02,1.568228094578297607e-02,1.006085453859335843e-02,2.625333368778228760e-01
2.770752707585268926e-01,5.295984482749684086e-02,5.286133604446739687e-02,-1.739460446722898221e-02,1.581279211475392077e-02,1.059894552297975523e-02,2.285709381103515625e-01
2.683703775167932681e-01,4.566692648459197423e-02,5.185836696288094461e-02,-4.234825923057138064e-02,9.523960407113576943e-03,1.316900283820448408e-02,2.332998365163803101e-01
3.355383646303699008e-01,6.009271358004519836e-02,7.018111821194890354e-02,-1.227080774328494846e-04,-3.207254474668120334e-04,-1.279446698883522507e-03,2.705522775650024414e-01
3.047953756788845947e-01,3.877960017912457369e-02,6.214305649759434280e-02,-2.050115966053847258e-02,4.017048433467676309e-03,7.194637991614187718e-03,2.579918205738067627e-01
2.768218152778971763e-01,3.897460380525416546e-02,6.222805359854631513e-02,-3.409227871680677729e-02,2.596475704555884639e-02,7.877606863208602359e-03,2.393256723880767822e-01
2.230480413078118618e-01,3.606026953254061473e-02,5.995741934350972552e-02,-4.667112545416847447e-02,9.168454482458541360e-03,3.296612961317189460e-03,1.946442723274230957e-01
2.710582318923291378e-01,4.249034149209754418e-02,6.896825294397486428e-02,-2.393741013544275001e-02,1.240473160068364562e-02,5.078748604770640801e-03,2.216988354921340942e-01
3.373593104413766808e-01,6.420893879642064483e-02,6.222201287699108407e-02,4.331948194317589650e-04,-1.239445248161028662e-03,1.840356424194395562e-03,2.741771936416625977e-01
3.380390918320506088e-01,6.882475289158809795e-02,6.364971547010314645e-02,-1.047928106549288110e-03,-7.046688838526991286e-04,4.241449785351540311e-03,2.719468474388122559e-01
3.383203379435767433e-01,6.658293383338190208e-02,6.556020703495461788e-02,-3.455440998340225699e-05,7.765901316331065042e-04,3.729002053795869593e-03,2.723301351070404053e-01
3.464511720693387309e-01,6.277061555066060228e-02,6.552677448065363786e-02,-3.399490887971494640e-04,-4.021665903404590507e-03,5.459219227324594442e-03,2.825573682785034180e-01
3.482240495997113716e-01,6.205188995891498804e-02,6.096201438537333928e-02,1.386396154992329760e-03,-1.086591695405237333e-03,7.357430182955221809e-04,2.867377102375030518e-01
3.356080592091739700e-01,5.470348360088533868e-02,6.115496209821157103e-02,-2.064166497482749097e-03,8.890734870234254507e-06,-1.920007359867381604e-03,2.777779698371887207e-01
3.224925700376793936e-01,4.434057817053065065e-02,4.459616398333597631e-02,6.190927456997718029e-04,3.612758784052576538e-03,-6.427487104156904413e-03,2.783195078372955322e-01
3.357301245156658620e-01,6.120318601916675816e-02,6.224602404452642124e-02,-2.397411937007824095e-03,-7.500990814897723433e-04,1.515093535653167563e-03,2.740541100502014160e-01
3.375897584890982794e-01,5.376905515631698329e-02,5.384759980609971075e-02,-4.930801302100186294e-03,-5.461235488850418526e-03,-3.896310963308874994e-03,2.841476202011108398e-01
3.477050825777410203e-01,6.350717517673298840e-02,6.497568255151447980e-02,-1.625360642870098907e-03,2.006543423338823587e-03,1.662618017481352992e-03,2.835164070129394531e-01
3.582807818460536087e-01,6.257281888386249935e-02,6.121137501278320348e-02,2.567858004856149023e-03,1.169371853662460291e-02,-1.555236934445868762e-04,2.971156835556030273e-01
3.643529581714389787e-01,6.367340523634015814e-02,6.450334401829251052e-02,6.541585182280989716e-03,4.141628143376078867e-03,-1.749834088571387391e-04,3.005649149417877197e-01
3.496011658760382890e-01,6.284571027016006006e-02,6.943103404702481718e-02,9.826043374798320434e-04,4.486567099199990027e-04,3.666001767707909292e-03,2.835974395275115967e-01
3.804006522186873518e-01,6.308199235609651678e-02,7.429610960999212532e-02,-1.566252845536556752e-03,6.563482015462898146e-03,1.723381043652674966e-03,3.120960593223571777e-01
3.702991321582769224e-01,6.202981748132264939e-02,7.254861059152410696e-02,2.923418204389373158e-03,6.089028693778229979e-03,1.340039291344794978e-03,3.033813536167144775e-01
3.763719051721186037e-01,6.224850552294838857e-02,6.581692518595157193e-02,-2.141175420450415305e-03,1.061011195381466807e-03,1.729088634524361375e-03,3.123962581157684326e-01
2.798792973943280415e-01,6.320550505277554298e-02,3.465823381630704636e-02,8.159650527828741931e-04,1.204376856038819055e-02,2.832060710952024208e-03,2.332576662302017212e-01
2.378053728278202994e-01,7.607410813976020481e-02,5.700025072129251413e-02,2.768345536791136027e-03,1.922677525038153645e-02,1.509846715420315672e-03,1.753410696983337402e-01
2.480898686957516419e-01,7.090583423680905939e-02,5.663829385897735380e-02,-1.851795335502849638e-02,2.709567378056947431e-02,3.384157507719317160e-03,1.933684349060058594e-01
2.696688590716260769e-01,6.501422251961211374e-02,3.787825023094050503e-02,6.001004219566860240e-03,2.941918858648299301e-02,-3.757942478135639815e-03,2.256551682949066162e-01
3.072475557213566466e-01,6.909106379928993402e-02,4.029269186679915182e-02,5.188217902494185463e-03,1.328380978267327747e-02,2.876317334719713081e-03,2.550320327281951904e-01
3.388754889895201905e-01,5.859502391665062648e-02,6.133637531479069205e-02,2.000105329283223370e-03,2.041613712963388262e-03,5.596734696718489452e-04,2.789655029773712158e-01
3.495462782636412080e-01,4.121363151960791282e-02,6.044270718852833013e-02,-2.339676716207138990e-02,-8.393540883026703522e-03,-3.552155842554495339e-03,3.023264110088348389e-01
3.441887229290381822e-01,3.906198394135813878e-02,5.916899101340922229e-02,-2.560851360340418367e-02,-8.417291040933460103e-03,-3.658274143614798860e-03,2.993184328079223633e-01
3.383979194910576305e-01,5.071580916746011580e-02,6.132530578137959654e-02,-1.983065244683054548e-02,-7.248977437672561586e-03,-1.569640079133483371e-03,2.848968207836151123e-01
3.484321866682072999e-01,5.327329462158481022e-02,6.383330217434117493e-02,-1.693471093028871624e-02,-8.717077704807551456e-04,2.138169714545451114e-03,2.915300130844116211e-01
3.431385821679521775e-01,5.599971826416409726e-02,5.821294620793608654e-02,2.765885910514180243e-02,-1.520136393779915156e-02,5.673410473814281471e-03,2.913811504840850830e-01
3.476646209260958464e-01,6.353718635622052080e-02,6.509113415429666760e-02,4.051487505552399740e-03,4.095418237192655249e-03,-2.457645189320271321e-03,2.835612297058105469e-01
3.276718192824235598e-01,5.024856206983885354e-02,5.506951554350043854e-02,1.477824689970318184e-02,-9.284464916787533995e-03,2.836562785700449951e-03,2.767442762851715088e-01
3.461390084183122440e-01,6.035961142602745688e-02,6.134426742116343145e-02,4.011215530564908247e-03,-6.490685530268383401e-03,4.803849479622840694e-04,2.855955064296722412e-01
3.260507257199267150e-01,5.633756901826328378e-02,4.759516911836580988e-02,7.413182006510801378e-03,-1.484988225274645746e-02,3.417378872373947381e-03,2.757553458213806152e-01
3.412348794324825407e-01,6.106637238976113380e-02,4.646131246358892186e-02,2.167626165297593943e-03,-3.742037157009576315e-02,3.421162159968345155e-03,2.950417697429656982e-01
3.157935194806391621e-01,5.131849526899824598e-02,4.416785145510247756e-02,1.554403971276922813e-02,-2.444174645564106685e-02,8.199533140364768588e-03,2.731448113918304443e-01
3.133091350797621022e-01,6.346538396118936443e-02,4.441660631375070334e-02,2.342801774213567473e-02,-2.880468270284969670e-02,7.440312969050966348e-03,2.680406570434570312e-01
3.386409658616847951e-01,5.419600405315128100e-02,5.081343363431073401e-02,1.336836473306988841e-02,-1.163327014773881361e-02,3.581070918800118019e-03,2.878595888614654541e-01
3.343346855036992693e-01,6.265295873978342367e-02,6.565374859344232095e-02,-6.358239166794561791e-04,2.612948837263655462e-05,1.413715756412813529e-03,2.702071666717529297e-01
3.340088207617912808e-01,5.780133666292525119e-02,5.560055410126038544e-02,9.201128063600853141e-03,-9.408789096247196712e-03,2.757801917573729500e-03,2.782905995845794678e-01
3.355411773823270272e-01,6.311818902287257005e-02,6.098141401424328478e-02,-1.589618687126953100e-03,-2.163064325065048362e-03,6.555657458229612131e-04,2.735395133495330811e-01
3.335813911819673905e-01,6.297642586167551126e-02,6.320934341261315315e-02,-1.017435896681429756e-03,-3.457904646365650165e-04,1.052399292913531624e-03,2.705011367797851562e-01
3.329774423344501466e-01,6.366078022558027683e-02,6.209420288284554779e-02,4.576363052863411090e-04,-2.695477442077954589e-04,5.849282179003605911e-04,2.701068222522735596e-01
3.329600661465927924e-01,6.366988341822410469e-02,6.192523351245336760e-02,2.989245015807209674e-04,6.600250098455079644e-05,5.754038723842747841e-04,2.701690793037414551e-01
3.316880280647989676e-01,6.081215850459650851e-02,5.909206065136653196e-02,8.625646754506728414e-04,9.995742051576664983e-04,2.026420161581181292e-03,2.717722952365875244e-01
3.359165315717137501e-01,6.050438375235096811e-02,5.970750800325809460e-02,-1.309092240069995765e-03,-1.783074661461133206e-03,9.826103003222493547e-04,2.758433222770690918e-01
3.353208333537048835e-01,5.995238122579703288e-02,6.237459730646345568e-02,-1.260717608424562425e-03,7.104514843723070934e-04,1.648521170783306727e-04,2.741769850254058838e-01
3.391233439965747887e-01,6.506157759410353958e-02,6.762866893269738056e-02,-2.472082113337418022e-03,-1.812693724761174890e-03,4.907096100963924401e-03,2.729713022708892822e-01
3.575001788389987611e-01,6.594206149616879675e-02,6.607623275241937544e-02,2.505914189647623922e-04,-1.795226228505816509e-03,4.009857253345610467e-03,2.915906906127929688e-01
3.404340963950878152e-01,6.445917098035326698e-02,6.473155064743148224e-02,2.474501182042517498e-04,-2.486099397678417835e-04,2.638581627741823019e-03,2.758773565292358398e-01
3.274364645397248585e-01,4.089286197762627417e-02,4.560547534875414311e-02,8.918586306982930010e-04,-3.109883326325939387e-04,8.711425729077639695e-04,2.842253148555755615e-01
3.397066476438771465e-01,6.803434492370835640e-02,6.371860069701017204e-02,-1.530354537100023574e-03,6.375091292592535467e-06,4.169658200250848587e-03,2.739637196063995361e-01
4.049951180303152931e-01,6.839972403275561275e-02,6.191053402150624441e-02,-5.941324212877569302e-03,2.132867416667118005e-03,1.651645870521959835e-03,3.400743007659912109e-01
3.582787279724756191e-01,7.605209791985788337e-02,6.050271148834097945e-02,9.100160172628207669e-04,-2.400621940004295241e-03,7.768316620021885983e-04,2.903509736061096191e-01
3.621932366139172244e-01,7.632608311401800627e-02,5.988059761806434345e-02,1.802686819342695429e-03,3.629420945070225158e-03,1.699406150327983879e-04,2.945183515548706055e-01
4.094237318265008252e-01,6.724653394240155679e-02,6.031819669322094346e-02,-4.054466322662951538e-03,5.429503453425399244e-03,1.744984220672468026e-04,3.458927571773529053e-01
3.527808777642964522e-01,7.372915524430373457e-02,5.823869790922199530e-02,5.288527485313862997e-04,1.833937349195620013e-03,-5.300651676321346557e-05,2.871295809745788574e-01
3.539664013524459474e-01,6.845911491421761974e-02,5.721459403870618465e-02,-1.052022347337754592e-02,-6.731131707345500105e-04,-5.620521462468058491e-04,2.918656766414642334e-01
3.388124953104634240e-01,4.620776721279876154e-02,4.883626184284632632e-02,-4.169117478903178252e-04,-5.111400909222182020e-04,-1.140570757947331239e-03,2.913083136081695557e-01
3.217385206421909949e-01,4.317439756788350735e-02,5.476858419375622844e-02,-2.080231004448986759e-02,-4.355930308479709703e-03,-8.676366148019360250e-03,2.758326232433319092e-01
3.349990720054399906e-01,4.505495156876265783e-02,5.626420818843579086e-02,-2.657186149198598885e-02,-2.693347888016851821e-02,-7.849243860400116277e-03,2.922711670398712158e-01
3.545965773906442631e-01,4.603992672869636205e-02,5.418332618500579234e-02,-2.209833160206899072e-02,-1.558906024216484727e-02,-7.354731505288018660e-03,3.084107041358947754e-01
3.352586894197970846e-01,4.446481580172828574e-02,5.382259356674649886e-02,-1.983543335137851957e-02,-8.230484272409606741e-03,-7.357605697594552137e-03,2.889176607131958008e-01
3.318034051048239785e-01,3.947351409595911687e-02,5.412265371283413173e-02,1.696846928377359698e-03,3.137426752099091627e-05,1.259888281130277935e-03,2.853110432624816895e-01
3.358650838744317024e-01,4.679813418785978840e-02,5.485998253787909007e-02,-1.881621107596840800e-02,-7.901151603411612698e-03,-6.491789073971437028e-03,2.875241637229919434e-01
3.283528414594624190e-01,4.542781546066611276e-02,5.866410261028051631e-02,-2.468118067333532895e-02,-7.332497993938206365e-03,-1.717952385720039913e-03,2.801330387592315674e-01
3.552835034678744619e-01,5.967718336389192524e-02,6.080189788151221797e-02,-2.923143590473559379e-03,-1.985064112868920299e-03,-2.520707358953969048e-03,2.951413393020629883e-01
3.576177507547435575e-01,7.374827545099725545e-02,6.403812134236390452e-02,7.784165773940468144e-03,6.090775501915179652e-04,4.023531460359215488e-03,2.892473638057708740e-01
3.501954086215349760e-01,7.114617290611623124e-02,6.264633791071964886e-02,1.838462371705135764e-03,2.851256922578616622e-04,2.971186540123315224e-03,2.834598124027252197e-01
3.595040813213551401e-01,5.448352044919642367e-02,4.721916111120819104e-02,2.379409211964416890e-02,1.582874626361891954e-02,-9.925492623761451513e-03,3.131321668624877930e-01
3.729876416638873704e-01,5.084128293653093766e-02,5.964035801731365494e-02,1.584267988156701223e-02,3.224485519092913643e-03,-5.091479520840314771e-03,3.191912472248077393e-01
3.356260021344201760e-01,5.902917629888609907e-02,5.131209107632385413e-02,-3.394096980987686141e-03,1.021225615465191049e-02,1.793150198314482323e-03,2.811706960201263428e-01
3.260625930437630604e-01,5.289839281064560861e-02,5.266294032154483773e-02,-1.587158056431486192e-02,2.180310672683323167e-02,5.833362483693319694e-03,2.774292528629302979e-01
3.298840160391443010e-01,5.756736709184492873e-02,4.820655856911386372e-02,-3.294171270757018620e-03,4.319052009929007577e-03,4.416339923697207293e-03,2.773808240890502930e-01
3.320296867642386074e-01,5.652794216688604434e-02,5.731493484947451644e-02,1.090447167578092492e-03,3.368245015533505001e-04,-4.441854212365103845e-05,2.751162052154541016e-01
3.852876777239918615e-01,6.702128536869651765e-02,6.412398174308160670e-02,-2.666493583591338697e-03,-5.538798434317332257e-03,-1.357206752911550287e-03,3.199107646942138672e-01
4.004133007619025131e-01,7.010389669872706120e-02,6.674383867313708751e-02,-1.896325507855190331e-03,-9.449243838559395064e-03,-1.302654988742078758e-03,3.324292302131652832e-01
3.799973352214112143e-01,5.581900937720446487e-02,6.043422716883038726e-02,-1.312929298066850721e-02,-8.454887859567158243e-03,-5.857369870294456583e-03,3.231891989707946777e-01
3.523566193999507212e-01,4.893227229694575853e-02,5.710758066902928143e-02,-1.919712630646990340e-02,-4.169408754356230574e-03,-5.405073684408615541e-03,3.014928996562957764e-01
3.511884452042220994e-01,6.263587041397773725e-02,6.216116253083704690e-02,-7.704039638076941310e-03,-1.792907117976551973e-03,2.835174975621790154e-04,2.891154289245605469e-01
3.535476004380813109e-01,6.268917987906467981e-02,6.077715425440761987e-02,-7.100097229491079444e-03,-5.001035841359915361e-04,5.040316112860168674e-04,2.920807301998138428e-01
3.921044642982707273e-01,6.516818343975790129e-02,6.517059281030750106e-02,-1.607447632174631783e-02,-3.355211002815317728e-03,-2.367469233993808354e-03,3.281955122947692871e-01
3.768937378562811080e-01,5.889397326029621738e-02,6.042800170640331980e-02,1.280466921056123281e-02,4.369541979588153352e-02,-2.555230062519557154e-03,3.269215822219848633e-01
3.944095677623549179e-01,6.653536548614454038e-02,6.596467174196496419e-02,-1.720858741779547271e-02,-3.852809961812677254e-03,-2.099636476745988817e-03,3.295983970165252686e-01
3.266647084164937542e-01,4.356754966983857058e-02,4.664643161485797218e-02,2.358528648729153656e-03,-2.058433099791822513e-03,2.948842723139689752e-03,2.816688418388366699e-01
3.153541888813736205e-01,5.799054161365312099e-02,3.658840823676762222e-02,7.856426591211771934e-03,-2.235711105239792523e-02,8.666887940222269687e-03,2.722356915473937988e-01
3.203570132503478218e-01,5.320729800658828557e-02,3.908703165737359431e-02,3.492117724649904630e-03,-3.956319357136050575e-03,6.270138077546827220e-03,2.748491764068603516e-01
3.314352753968059506e-01,5.291318717209833600e-02,5.308617948870530956e-02,4.976655814459950838e-03,-1.067945894760055159e-03,6.683623519759584845e-03,2.788155972957611084e-01
3.159302505789497451e-01,5.303588951609077007e-02,4.280726082203538396e-02,6.811172020426929999e-03,-1.311416270729530952e-02,8.005556112131776564e-03,2.697304189205169678e-01
2.995254498444746005e-01,5.421617853009620680e-02,3.991371546039040874e-02,8.019319039598585275e-03,-1.058354712495167098e-02,8.666905424677483205e-03,2.542518973350524902e-01
3.286080358016602032e-01,5.015437816677789651e-02,4.199737474602723009e-02,1.680157626195898351e-03,-4.796313156893065345e-03,4.118093559560919055e-03,2.828474640846252441e-01
3.354528427353303810e-01,4.681184161568309465e-02,5.911631733939409772e-02,1.488003717721303118e-02,-8.192959884673859869e-03,2.895581467567084379e-03,2.842608392238616943e-01
2.990848911869656845e-01,4.853292451911386807e-02,4.184088701063087834e-02,-1.030177177350105958e-02,-1.832574643412098261e-02,-1.278494858803609982e-02,2.575150728225708008e-01
3.262635478924689192e-01,5.020377156951992548e-02,5.826047748871929222e-02,3.193752786484629208e-02,-5.144078746228036673e-03,7.168998992839827056e-03,2.781067490577697754e-01
3.443224131088405415e-01,6.163782306820884960e-02,7.638349303037723914e-02,4.624869190681221340e-04,4.814475581500117507e-03,9.291246302763830900e-04,2.757397592067718506e-01
3.306317734746268000e-01,5.429378517820150629e-02,4.491702232998473487e-02,1.262753161377961134e-02,-9.815096634955331953e-03,8.101655363687104011e-03,2.828533947467803955e-01
3.262389755682129078e-01,5.354930405914036518e-02,5.827514860856793100e-02,3.444905334819749459e-03,-4.363688833358416244e-03,2.397816949860845023e-03,2.705610394477844238e-01
3.384669962345687733e-01,6.152349987752342431e-02,6.547243941600594530e-02,-6.774409710679552866e-04,-9.472540026407475595e-04,5.720248610648485162e-04,2.749994695186614990e-01
3.303044481889687578e-01,5.456394140161242856e-02,5.749011899665515402e-02,7.072191098164845417e-03,-3.520066957984146951e-03,1.037791576400110948e-03,2.746360898017883301e-01
3.313577401145513246e-01,5.433849963393225235e-02,5.939417993410865682e-02,8.004947317958050618e-03,1.082518301225310516e-03,-2.031068955812623787e-04,2.748828530311584473e-01
3.240298229411655573e-01,4.064780760370620416e-02,5.514472165152445315e-02,1.533895399969855723e-02,-8.405245149501571270e-03,5.533688751997343017e-03,2.782391607761383057e-01
3.789405017929118324e-01,4.944409194446303113e-02,4.977967142857814276e-02,2.808529734842734812e-02,3.527255167229340592e-03,-5.050283479051956119e-03,3.330729901790618896e-01
3.556350374013007576e-01,7.027319520540782627e-02,5.497458938279213558e-02,7.016779868082419214e-03,-5.446967699817261907e-03,-1.204134949538364537e-03,2.937211692333221436e-01
4.124991090930335558e-01,8.611977517811893190e-02,6.468794061368358939e-02,1.876969249897183015e-02,1.658616728951085818e-03,-1.305930456323186337e-03,3.391872346401214600e-01
3.973170556337898285e-01,3.841050325867673143e-02,5.337891616573114950e-02,1.710627779907968743e-02,7.100764463365605295e-03,-1.004966340556378819e-03,3.531258702278137207e-01
3.469744482765345639e-01,3.434052856582857360e-02,6.197073506052118430e-02,-1.401636113161493571e-02,3.455493202365546301e-02,-9.162659835240588579e-03,3.070645332336425781e-01
4.212283604678602189e-01,3.256171484786166137e-02,7.722169065106036789e-02,-1.809424780557316453e-02,3.553771959944903441e-02,-1.105196750444139078e-02,3.752810359001159668e-01
3.814713057240962102e-01,3.924726320931543055e-02,5.738522080727535835e-02,-7.217964680504357355e-02,5.331131349855201471e-03,-3.769724342563815327e-03,3.563658595085144043e-01
3.936800233312754416e-01,2.879600646658242447e-02,5.568320288775066573e-02,4.114518763138864769e-03,1.204783832939932200e-02,7.873780435567030722e-03,3.531639575958251953e-01
4.016992098082597384e-01,6.876207349157928417e-02,6.655413499312669290e-02,-1.182908292497946746e-02,-5.389588350939329524e-03,-1.790457650428639190e-03,3.348188400268554688e-01
3.537315776014029467e-01,5.897364870756051369e-02,5.563536472915919795e-02,-1.309656907212490388e-02,3.378416082199479833e-03,-5.347166037977529743e-04,2.973668277263641357e-01
3.423427299097900334e-01,5.718989199989459038e-02,5.840957124663571920e-02,-1.535393493160313108e-02,1.024497248236531021e-03,-1.005860758413454565e-03,2.857958078384399414e-01
3.347510121174886999e-01,4.854924746215608100e-02,5.073306874630954810e-02,-1.514744856246880676e-02,-1.296644761177747664e-02,-6.535203986126227396e-03,2.874231338500976562e-01
3.335984682233467113e-01,4.407555348700814557e-02,5.341578819034038805e-02,-1.264574349544445725e-02,-7.906774048731168500e-03,-9.346752732423897411e-03,2.865936756134033203e-01
3.397668529526149950e-01,4.593956917224899239e-02,5.581561095183516785e-02,-1.384623428262702315e-02,2.496261752230342278e-05,-6.129990264952614627e-03,2.902034521102905273e-01
3.249168526882884045e-01,3.885572164865036537e-02,4.510529619944038393e-02,-3.862127417988425043e-03,-4.227746512900496488e-03,-5.343987794927224436e-03,2.833130955696105957e-01
3.184402248675032299e-01,4.794833526920783129e-02,4.946005588124177677e-02,-8.233917951250620260e-03,-7.160484399481896294e-03,-7.203292057863910740e-03,2.706882059574127197e-01
3.260586132354906796e-01,3.963142166902018648e-02,4.591557683780966848e-02,-4.512069262474804540e-03,-2.634444089796483725e-03,-5.938517791106756420e-03,2.836683988571166992e-01
2.356420357757192940e-01,5.698656866863591186e-02,5.556527454272693067e-02,-4.996811778952718608e-02,6.620873371936306095e-02,2.438810009303127302e-03,2.298538386821746826e-01
2.973652875952519925e-01,4.081210015487653220e-02,6.119051525224679378e-02,-4.551686818714686944e-02,2.597925056345112838e-02,1.260123472761756278e-02,2.640514373779296875e-01
3.218657151382317005e-01,5.738882464549598106e-02,5.520511256182820958e-02,-2.880597311352373763e-02,5.078205937706840867e-02,1.421954203420135524e-02,2.852415144443511963e-01
3.640708218281569208e-01,5.826984572723552247e-02,5.799795296422297075e-02,1.074308480795913012e-02,4.228508189313845422e-02,-3.016836007655300609e-03,3.151746988296508789e-01
3.261159013796643968e-01,4.628227493867088926e-02,5.279561907058104298e-02,-3.463195467088645008e-02,4.998104947259891101e-02,1.195558292512059230e-02,2.967286109924316406e-01
3.373138950457694185e-01,5.686673801225938796e-02,4.430953251394983972e-02,-5.966755586050196021e-03,-1.915688125796888644e-02,-1.026192907510116610e-02,2.895748913288116455e-01
2.635319452947771923e-01,5.008145372030070597e-02,2.868124143879965948e-02,-2.518362277993877602e-02,-4.528858473756264963e-02,-9.927875732330830594e-03,2.427724599838256836e-01
2.801795688033305032e-01,5.824249569617856448e-02,4.139592309697287531e-02,-1.730866518389097969e-02,-4.974647934637262819e-02,-1.380284777027376494e-02,2.493455708026885986e-01
3.358040653101179718e-01,5.870262811999382713e-02,5.549984036342611726e-02,8.332677619764046646e-04,2.982207428306138993e-03,1.242506040233217358e-03,2.787765264511108398e-01
3.182277181861572490e-01,5.603876374543122207e-02,4.566906116726394960e-02,-1.267610183564336392e-02,-2.467229220731820272e-02,-7.599481645082048487e-03,2.721228897571563721e-01
2.636196513180453227e-01,5.155224680992399888e-02,3.221784147803326281e-02,-1.961708110945667438e-02,-3.655613816869551086e-02,-9.014591697591159067e-03,2.342091649770736694e-01
3.045299012202826727e-01,5.922951597512927935e-02,4.275673511137509375e-02,-3.187098779230490564e-02,-3.279818879026085571e-02,-9.524593681615418223e-03,2.665164172649383545e-01
3.383651710873237239e-01,6.084739873032489477e-02,6.759166289136034345e-02,-9.642502637277160086e-05,-1.461176433276985915e-03,2.601617571982821429e-03,2.742566168308258057e-01
3.214546566538591943e-01,5.624259218508574631e-02,4.124196874129239243e-02,-5.504943395372451781e-03,-2.168796012610851864e-02,-9.737860198164487516e-03,2.762739658355712891e-01
3.369543576207565949e-01,4.992981264668343300e-02,4.607177221118664845e-02,-3.751179410368508265e-04,6.822448620337510580e-04,-5.251401372676776967e-04,2.889774739742279053e-01
3.310603293915668210e-01,5.882531739108018409e-02,4.403796622200049915e-02,-3.517270587058520664e-02,-3.552773022122108354e-02,-1.030017393430025970e-02,2.935515344142913818e-01
2.476736384787741052e-01,7.169622377031101279e-02,5.772599734844552355e-02,9.111280037600850631e-03,-2.037450797984037901e-02,7.532066317345824553e-03,1.878463923931121826e-01
2.398207999981681882e-01,4.886191715584344009e-02,6.741876652282957627e-02,2.066338856583347164e-02,-9.144191571400617224e-03,7.428652206326362244e-03,1.869849860668182373e-01
2.586060678077414243e-01,5.022043128309064408e-02,5.644945979107132694e-02,2.559033603710818283e-02,-2.471100042127050145e-02,9.972690056083054200e-03,2.150818258523941040e-01
2.379337093613081433e-01,7.091687739994693984e-02,7.206457677558353314e-02,1.297966901141026780e-02,-9.117244185550319943e-03,1.152364071538516423e-02,1.698747277259826660e-01
3.629352805083010947e-01,4.707988917766439685e-02,6.254734426796759728e-02,-2.472723934550338440e-02,-6.869535431741307166e-03,-3.315034883474274763e-03,3.116524219512939453e-01
3.382671084216635204e-01,4.486250286887336070e-02,5.264613581132993048e-02,-1.415749898115748091e-02,-9.446314864849944190e-03,-9.613739562214947826e-03,2.915636599063873291e-01
3.517072108171949152e-01,5.648970644707833333e-02,6.143021601581395708e-02,-6.233656447739017482e-03,2.793684829643409365e-03,1.056352732148966846e-04,2.930175364017486572e-01
3.102142610189108085e-01,6.221066429189138491e-02,3.055171270338727374e-02,-3.045980545218400048e-04,-2.331084348839288813e-03,2.891171136405275201e-03,2.653323709964752197e-01
3.387456618465160552e-01,4.841988477992664741e-02,5.728111630762679207e-02,-1.359961874644455108e-02,9.811036069776164856e-04,-1.363085049580263063e-03,2.869812548160552979e-01
3.368235867473562406e-01,5.433718504082253598e-02,5.696973032359610445e-02,-2.344224152549399982e-03,-7.141381586011461176e-03,-4.427372239947185983e-03,2.815850377082824707e-01
3.569239710119044284e-01,5.650780418255794968e-02,5.957648395442559364e-02,-3.599959041152793644e-03,-4.221734638948018183e-03,-3.203381975793580423e-03,2.990995645523071289e-01
3.076183636677866096e-01,5.797864445984290960e-02,2.858426703485265896e-02,7.430403405539391486e-03,-1.325393799525013787e-02,3.524726216451108934e-03,2.669305801391601562e-01
3.220378063234337618e-01,4.830925413283396197e-02,3.962161910096599626e-02,1.190144576191647530e-03,-2.982732090291711699e-03,4.138465853196674794e-03,2.783220708370208740e-01
3.141134962750786741e-01,3.176285839587519866e-02,6.399580585908783148e-02,2.232981454023763579e-02,1.112247161737255768e-03,2.214257291544431249e-03,2.705071866512298584e-01
2.552258016199877577e-01,2.863686437841150845e-02,6.070801182324352813e-02,2.939415414930615297e-02,-6.135170346415318859e-03,-3.552798810920050534e-03,2.187395095825195312e-01
2.044125243949372894e-01,4.328982995385997207e-02,6.303555783231853948e-02,5.425172493867628370e-02,1.052124506745781909e-02,4.877077908093365756e-03,1.800059080123901367e-01
2.564915395482272875e-01,5.279133766183775889e-02,6.737928374806340104e-02,3.064276153563359056e-02,-6.186414656940192672e-03,2.031038413284942060e-03,2.041547000408172607e-01
3.134175035438081514e-01,3.765618376402751766e-02,6.379843581500768690e-02,1.251073806119151755e-02,-3.518777857104532156e-03,9.682368751061718251e-03,2.651540040969848633e-01
2.729272617032256765e-01,4.761911537107132997e-02,7.194919874144431460e-02,7.559058647724545277e-02,2.053131325967160609e-02,7.087751312525548616e-03,2.538327574729919434e-01
2.192687138665214142e-01,2.903162110050884481e-02,5.967375947677847764e-02,2.421175453016313414e-02,5.516000831273164089e-04,3.687901658556704335e-03,1.819345057010650635e-01
2.862199075324962094e-01,5.785511837536090607e-02,7.516313657021368722e-02,5.238318976343937783e-02,4.925173317041249728e-03,6.187165123343216395e-03,2.385730743408203125e-01
2.710151937175229730e-01,4.678484739141557103e-02,5.889098855844249192e-02,5.127074633254223579e-02,-3.546592848505793292e-03,1.297291534462606880e-02,2.369386702775955200e-01
3.024502641120873081e-01,6.214631983562061979e-02,3.801366115239412924e-02,-1.300035063431186251e-02,-1.991493704489348884e-02,-1.120582451201632135e-02,2.572957277297973633e-01
3.325551625423446289e-01,5.521409895903919840e-02,4.578746848808433467e-02,-8.217178290929594980e-03,-8.280393252694813466e-03,-5.934760245316562932e-03,2.830816805362701416e-01
3.098438350061548663e-01,5.555803028753639183e-02,3.096833049675702665e-02,-5.253975907279430542e-03,-6.760153982100639176e-03,-3.749572440436226613e-03,2.679194509983062744e-01
3.075055133758054504e-01,6.068024211865995221e-02,3.065664510455505531e-02,-3.978891484899696809e-03,-6.443108763593785766e-03,-4.889930918578570644e-03,2.635877132415771484e-01
3.233977295825261056e-01,5.640772437845339993e-02,3.882994920866762734e-02,-3.978123404947679631e-03,-8.289563722076877250e-03,-6.073011287733344650e-03,2.768573760986328125e-01
3.347679976273685853e-01,5.617021939488754667e-02,4.987485521860568483e-02,-1.603927815007541707e-04,-3.243861812144177657e-03,-3.598583914715260818e-03,2.819232642650604248e-01
3.364490865457268609e-01,6.316071454060717683e-02,3.826733030577543493e-02,-3.879829498304147081e-03,-1.563243930171033177e-02,-7.203234321975702376e-03,2.881722152233123779e-01
3.124920646962986437e-01,5.495359265088924083e-02,3.634060887247921035e-02,-3.017827133769288451e-03,-1.034882887411231293e-02,-4.047158994815189779e-03,2.680742740631103516e-01
3.283595453131527009e-01,5.075609950618072130e-02,4.556214915683774735e-02,-4.305579602994792469e-03,-8.522265531595223792e-03,-6.733883660088126923e-03,2.809662818908691406e-01
3.217081325549348003e-01,5.583328420571562201e-02,4.683766451392261387e-02,2.685804008708934259e-04,-5.189230760707880773e-03,-4.447743279509873242e-03,2.707441747188568115e-01
2.377104608189698765e-01,5.885261818014851654e-02,7.169272914185814694e-02,-4.129028512373343271e-03,-8.712549152316548034e-04,-2.647265516767116286e-03,1.730112433433532715e-01
3.185119719060425236e-01,4.226571747909800558e-02,5.044628897960964919e-02,-1.345400224515214322e-04,-3.801687478986015122e-04,-4.635206487423519303e-03,2.723674178123474121e-01
3.198723434861221460e-01,6.122572784984564587e-02,3.192003980403773644e-02,2.170837456795803554e-03,-2.481936011841486683e-03,2.813922450481137587e-03,2.745780050754547119e-01
3.319182464345921679e-01,5.468119560814735380e-02,4.325481351627635807e-02,-3.340277516456220241e-03,-1.137787322724569117e-02,-8.920798603215549308e-03,2.842874228954315186e-01
3.321019052914851444e-01,5.581628214878858740e-02,4.080635963482875939e-02,-3.110456670971795535e-04,-4.134800659552712032e-03,-3.644630516676972739e-03,2.842490077018737793e-01
3.299588789479941942e-01,5.324753356260202020e-02,4.448413210450379018e-02,-4.808814249459761672e-03,-9.353825193832350851e-03,-7.106222863135017165e-03,2.820536196231842041e-01
3.231404750179592833e-01,4.546826115067682805e-02,4.477492919326396537e-02,-6.911772586879902369e-03,-8.889088999723262358e-03,-7.984536183155225772e-03,2.790456712245941162e-01
3.249665446647827527e-01,4.865755023466808438e-02,5.166710673197191794e-02,-1.751047552144451014e-02,-1.523269957191590064e-02,-9.462329661782750354e-03,2.782242000102996826e-01
3.102120622519391469e-01,3.886150476273333987e-02,5.272762920961167332e-02,-1.709461627353343546e-02,-7.039861249587219504e-03,-9.647105620755897643e-03,2.671429812908172607e-01
3.223733579043566166e-01,4.426632653608487955e-02,4.803993795875531603e-02,-1.223664209714946279e-02,-1.379029777504322922e-02,-1.015958874868610508e-02,2.786353528499603271e-01
2.459292049675008140e-01,3.743367041015531471e-02,4.842740183687414129e-02,-6.913214800184494524e-02,-8.715773595062634160e-03,-1.175661436265758482e-02,2.372328341007232666e-01
3.122055386891381401e-01,3.795453018098224329e-02,5.147305261046501712e-02,-1.795408771469924822e-02,-9.036808156265003014e-03,-9.087102346398000241e-03,2.704600989818572998e-01
3.162306578835430426e-01,4.025708160927522761e-02,5.361535274985756994e-02,-1.973684781975977229e-02,-7.207414420974092052e-03,-1.007692302036358560e-02,2.725480496883392334e-01
3.271526489955832728e-01,4.115162786749623769e-02,5.415796419986283750e-02,-1.585281846123409374e-02,-6.535306490546718972e-03,-8.982466153571785211e-03,2.817268967628479004e-01
3.156464386681937517e-01,4.015106183933771222e-02,5.839276448049268708e-02,-2.420701234680663894e-02,-2.003794274483283039e-02,-7.343322616135477057e-03,2.726338803768157959e-01
2.460215076133001610e-01,3.340973977382494242e-02,5.000020804740860220e-02,-2.550274779706220019e-02,-3.634506606144693314e-02,-1.162179859195510388e-02,2.197064906358718872e-01
2.409762472448819248e-01,6.575109915934854166e-02,3.315829800462934129e-02,-5.286320782712878620e-03,-3.722107706375305664e-02,2.759985457344384975e-04,2.042486518621444702e-01
2.534435545290780745e-01,6.603728748622830769e-02,3.520795643257813856e-02,-1.713512274535587123e-03,-3.723652839299765316e-02,3.531542518264570401e-04,2.145181298255920410e-01
2.804352892668656172e-01,7.293426908638941941e-02,3.922112592853727042e-02,-3.611977583265556669e-03,-3.285957825586664771e-02,4.585531150937384665e-04,2.333833426237106323e-01
2.736863209751615456e-01,6.089326859693461325e-02,3.219601733340667071e-02,3.754202409187346653e-03,-3.762119084262374735e-02,5.223526314147876153e-03,2.378680109977722168e-01
2.533440941561104220e-01,5.921760256006249057e-02,2.956057186862302844e-02,1.264917121105959240e-02,-4.421197089816868153e-02,5.029282483265223348e-03,2.252594679594039917e-01
2.915664764646129781e-01,6.365440507989279795e-02,3.572928376964225328e-02,8.998807028427075957e-03,-3.491852461790044548e-02,6.878370580027538123e-03,2.512587904930114746e-01
3.195566908021790775e-01,6.173376855264099683e-02,2.970129883324250375e-02,9.539406199108334044e-04,-4.278726940349167514e-03,5.808459632906724345e-05,2.753454446792602539e-01
3.108820997446031797e-01,5.905103534076339145e-02,3.598762526943814766e-02,1.404646125900107893e-03,-1.971798760769428657e-02,4.211321833530973051e-04,2.663301229476928711e-01
3.006701263611957220e-01,6.077045404988294652e-02,2.709604888521481569e-02,-1.756451371866684275e-04,-2.261307347617309144e-02,1.309340135421437827e-04,2.613398134708404541e-01
3.228659642666278362e-01,4.321452737108402720e-02,4.781584811612919761e-02,1.161097470946021072e-04,-1.069646197083395228e-03,5.366352228256600701e-03,2.775413393974304199e-01
3.242284371442595292e-01,4.275997060190915577e-02,4.796902621510576448e-02,1.165696641469559031e-03,-1.965956926447710688e-03,3.738364269222710628e-03,2.790036499500274658e-01
3.321258645437160650e-01,4.448749497940097941e-02,4.536571131133597390e-02,-1.918118331724252479e-05,6.268071898640105314e-04,1.856040087351751473e-03,2.872202992439270020e-01
3.301949538518124672e-01,4.487341587728700676e-02,4.520986593590411995e-02,4.456000335993389578e-04,-3.863232599767654242e-04,2.771894055516263902e-03,2.851957082748413086e-01
3.293714516314816265e-01,4.607484178548380827e-02,4.532400941873315769e-02,2.118713694686327764e-04,-2.810203310053205816e-04,2.884590954611136043e-03,2.837174236774444580e-01
3.190774925001065854e-01,2.897192030884754299e-02,6.109053413529412502e-02,-4.469840178374871395e-03,-1.304246601908061812e-03,-4.999727201083899132e-04,2.755736708641052246e-01
3.527400336847844597e-01,6.090231042157558117e-02,6.518660206564784454e-02,3.487555318937051504e-04,9.829399121274067628e-06,3.931983805256833442e-03,2.897999882698059082e-01
3.376942470180928080e-01,5.715897731453689623e-02,5.759822919473386871e-02,-2.886736235151074383e-03,-2.820117583511865152e-03,-6.448322157043362510e-04,2.804052531719207764e-01
3.126930686041325957e-01,6.049087160497518267e-02,2.755094743529055978e-02,-1.749717378406044535e-04,-1.775897096196388768e-03,2.267573657255689810e-04,2.702003121376037598e-01
3.381490249208235488e-01,5.603416151854187510e-02,5.736224452702165522e-02,1.507505643252300079e-03,7.108926591617764548e-04,-6.402460610118644200e-04,2.814701497554779053e-01
3.373508033762525615e-01,5.472136003777393343e-02,5.715475309059070419e-02,-2.455565507383334831e-03,-2.927587935372531758e-03,-6.232602722963002462e-04,2.815005183219909668e-01
3.372359506715851274e-01,5.505372343567921378e-02,5.619542753765791043e-02,-2.423830026214814689e-03,-3.229761571849220150e-03,-1.206843783311565979e-03,2.817077040672302246e-01
3.766658041372413779e-01,5.908361626145501588e-02,5.711028647270718905e-02,1.027211569914279234e-02,-1.316031620429572620e-02,2.765082786090328117e-03,3.199189007282257080e-01
3.386210301320117244e-01,6.659713857473011089e-02,4.814916998921552060e-02,1.010197984310991920e-02,-2.067551725509414462e-02,3.350475883830606252e-03,2.845661044120788574e-01
3.309396369162720952e-01,6.526610493761975107e-02,4.502926723451887436e-02,1.032996707781384457e-02,-1.739862809589075646e-02,2.878748265864772456e-03,2.786062955856323242e-01
3.120440749580766227e-01,5.736086271488850807e-02,3.950073735896950100e-02,3.583500640206487529e-03,-9.199110127682823268e-02,-9.291093084576895235e-04,3.084791600704193115e-01
3.580531376916369357e-01,5.604193680703301039e-02,5.873874731198452936e-02,1.168767477294287149e-02,-5.241370766746624582e-02,1.240789167686139668e-03,3.147373199462890625e-01
3.281321775294243626e-01,6.038022214305917290e-02,5.042733180372338531e-02,1.140454855156618555e-02,-1.045011051684873425e-02,4.596489506601473055e-03,2.742922902107238770e-01
3.487911504082852887e-01,5.226288944565843364e-02,5.408187209775139337e-02,-2.966591161599593449e-02,-1.378080150680571596e-02,-7.306987571420700718e-03,3.012690544128417969e-01
3.541479424978941637e-01,5.454233321662634026e-02,5.663263090501997887e-02,-2.577685560987489667e-03,-4.137685407829706091e-03,-5.222763380153202378e-03,2.988222837448120117e-01
3.357349451590568301e-01,5.459752046878252330e-02,5.808389595307375530e-02,-4.746174275536390284e-03,-3.781020867325588473e-03,-2.207886602570490082e-03,2.796342968940734863e-01
3.494546328475729435e-01,6.095682103905621096e-02,6.357312373672857619e-02,6.065848673513698358e-04,1.298622477088403216e-03,3.165934294847050660e-04,2.872098386287689209e-01
3.197637962011704582e-01,4.577248269616134013e-02,4.417532113188439580e-02,-8.940905080378185737e-03,-1.148330069703459161e-02,-9.500341085954312065e-03,2.764373123645782471e-01
3.396666939498885207e-01,5.268895709561165208e-02,5.237453666539564068e-02,-2.373660649024650349e-02,-1.138792440820136573e-02,-6.786271882367310264e-03,2.909708619117736816e-01
3.331484179356707376e-01,5.991866348052539426e-02,6.198988882789634169e-02,-4.443824278261742560e-05,7.252756916157863942e-04,2.779656260652063225e-04,2.722033858299255371e-01
3.346459088157137662e-01,6.290132094701746113e-02,6.265265885738691143e-02,1.951652402089367345e-03,-2.019852831643402134e-04,2.128118611666804903e-03,2.719152271747589111e-01
3.341995177538494843e-01,6.099677275477086158e-02,6.277387267699570395e-02,7.401204950506330097e-04,1.225639470057648614e-04,-1.611026925818711294e-04,2.723217904567718506e-01
3.294754842305056552e-01,5.726233966902939676e-02,5.252698929485988266e-02,2.477790672462385803e-03,7.331251748407590675e-03,1.125944079552584822e-03,2.749452888965606689e-01
3.292211222364080925e-01,5.393459144672246852e-02,5.298824441884504577e-02,-2.863661309243620279e-03,7.451230941504446113e-03,1.693733351357889398e-03,2.761228978633880615e-01
3.347951776702965399e-01,5.366580296660564131e-02,5.013876406721694268e-02,1.122122179758459990e-03,1.411403605038777202e-03,2.995365051508499122e-03,2.829741835594177246e-01
3.274335699754282736e-01,4.632746690261156652e-02,4.378656881741006812e-02,-5.668864690145904639e-04,1.202802125724700176e-03,1.107188219193310039e-03,2.824010252952575684e-01
3.384991507373754094e-01,5.789242212313680525e-02,4.642392843039232220e-02,3.847126137714064302e-03,2.777678831026242183e-03,3.717595046637570295e-03,2.867033481597900391e-01
3.028368294312512310e-01,4.993663996280288397e-02,4.002087107135118837e-02,-1.387685790745378728e-03,-2.784108329278426556e-03,-6.864607716710499977e-03,2.583310306072235107e-01
2.938267797199135556e-01,4.831145994093340168e-02,4.453054523398307374e-02,-3.528288177886235340e-03,-1.279442235332592815e-03,-9.439144095211007487e-03,2.480521947145462036e-01
2.974385011691250136e-01,3.824833623418030792e-02,4.787215175278888846e-02,-1.208073029563815418e-02,-4.217212351904287525e-03,-1.006293640345995270e-02,2.560717463493347168e-01
3.153691019298676679e-01,4.140791485441007447e-02,4.668429596855327990e-02,-5.639958478712970777e-03,-3.465653192448682387e-03,-6.449906807482256449e-03,2.718332409858703613e-01
1.958889970080278375e-01,4.635625875139703228e-02,7.301407178301844159e-02,-3.521822794137841051e-02,3.866380560507322404e-03,2.066768720825477509e-03,1.512054800987243652e-01
2.869991770582775992e-01,4.800128850865507946e-02,4.823728124470852419e-02,-3.308624798818750757e-03,-3.008079046655147068e-03,-9.379502728641655324e-03,2.395569980144500732e-01
2.991589118068891384e-01,3.919342428692056124e-02,4.830055894137777472e-02,-4.902841202268237546e-03,-3.612060783826792371e-03,-8.036139189574405955e-03,2.561297416687011719e-01
3.396477344413891819e-01,5.799428776435699984e-02,5.050472650087267645e-02,-1.026360458930957766e-02,-1.419853643670300480e-02,-9.181572093519690947e-03,2.875203192234039307e-01
3.505445809431160242e-01,5.837011397814603764e-02,5.780181262398227660e-02,-3.910154129300239673e-03,-3.825772874675956083e-03,-2.175111486742707743e-03,2.926367223262786865e-01
3.841422001228288474e-01,6.579802329369316416e-02,5.597260997921336967e-02,-9.165508695880581619e-03,-2.160086667070163294e-02,-3.756136476603037181e-03,3.259778320789337158e-01
3.547307592229731465e-01,5.994049881267561608e-02,6.035347512433096584e-02,-1.394130991383517532e-03,-1.547484612615260269e-02,-1.416937406582978497e-03,2.958208918571472168e-01
3.301634513233567270e-01,5.809587772795216098e-02,5.283573152750514756e-02,-1.915658783468401037e-03,-7.145084372805279166e-03,-2.431973281646366853e-03,2.750662863254547119e-01
3.028739815635557164e-01,6.329535424535226440e-02,3.412297019309598611e-02,-5.393045836574350549e-03,-2.839575491132897284e-02,-6.591385726602854225e-03,2.605274915695190430e-01
3.148875916519520146e-01,6.473108909677115219e-02,4.186554947746332078e-02,-2.818092286928157789e-03,-2.102455777267166204e-02,-6.044001785633354613e-03,2.651048600673675537e-01
3.181974524673764071e-01,5.591676774727113997e-02,3.822569836862674264e-02,-1.465307681423586028e-02,-1.816363271203902049e-02,-1.049850313266178885e-02,2.751521468162536621e-01
2.737950721520333586e-01,5.869393721646706807e-02,4.448792089647170267e-02,-2.194244609494293285e-02,-5.178155900757760999e-02,-8.920951258109375767e-03,2.434197813272476196e-01
2.856656780444949417e-01,6.219519453582483814e-02,3.370606143971208168e-02,-1.179360254112823796e-02,-2.067676856760306339e-02,-9.914572817116829029e-03,2.431294322013854980e-01
3.150052336986343127e-01,5.711934906297737313e-02,3.291530906310478899e-02,-8.924931516730932879e-03,-2.732858694611700959e-02,-7.723902262756506161e-03,2.756652534008026123e-01
3.176827403838793917e-01,3.264204705362606929e-02,6.595885866012306253e-02,-4.488355776194999369e-02,2.716627748902733768e-03,1.551309464274648549e-05,2.809400260448455811e-01
3.370031655836734363e-01,3.680543416405281099e-02,6.340866785798819627e-02,-2.252356527900998412e-02,1.566864943549538041e-03,-5.273118315300256639e-03,2.906078100204467773e-01
2.945780508466478986e-01,3.478565597526427078e-02,6.307937284892359275e-02,-1.975854591626786602e-02,2.088078506173524692e-03,-2.552176235533958407e-04,2.492520958185195923e-01
3.060420156890936161e-01,6.140383110260179411e-02,2.941592473752877024e-02,-3.650068233272127111e-03,-8.364701688339611432e-03,-2.988056976071492080e-03,2.626274824142456055e-01
3.002688984302682718e-01,3.482868002047560807e-02,6.483641792226146894e-02,-2.533920011042373188e-02,5.257613500222067717e-04,-3.779073985407600117e-03,2.556630969047546387e-01
3.345678492478589838e-01,5.732022394678293331e-02,5.769393785038652578e-02,7.221050777824276033e-03,7.801231975399564554e-03,-2.536544066356242284e-04,2.776724100112915039e-01
3.392966178190531812e-01,5.283136252417676426e-02,5.228744986917328863e-02,1.273049556631614934e-04,1.022946088303796188e-03,-5.094650410231138168e-03,2.868789136409759521e-01
3.399840016492700623e-01,5.955772416105675759e-02,5.748234976968021048e-02,2.350284803561075112e-03,1.017744458200058218e-02,-3.819166352728645803e-04,2.820513248443603516e-01
3.801934229804014298e-01,6.628022521448465043e-02,6.647507628827556414e-02,-3.128133832326479829e-04,2.351538110656390540e-03,3.272766735196251404e-03,3.138939142227172852e-01
3.248772430842803427e-01,4.542331317760135712e-02,4.752550773377799131e-02,3.077421321039470938e-03,-3.442771353305903483e-03,7.002935046809423587e-03,2.787876427173614502e-01
3.271976116916160970e-01,4.645363710168609606e-02,4.803235280848658362e-02,2.883124890121747507e-03,-2.673837422177405537e-04,3.110146046317224626e-03,2.800546884536743164e-01
3.310375411628136977e-01,4.696090447213875640e-02,4.974878643936096745e-02,4.145179376095022017e-03,-2.088648964738587001e-03,2.056298066256619355e-03,2.828297317028045654e-01
3.270900115864092683e-01,4.569328731402279298e-02,4.609871218546984784e-02,1.580186968850264689e-03,-2.363648730024546334e-03,2.449037902258914545e-03,2.812693417072296143e-01
3.158840030091837336e-01,4.943451878363758212e-02,4.667050133163910819e-02,5.707708709345254115e-03,-5.193073343209751724e-03,8.322239311686832966e-03,2.685625851154327393e-01
3.293482502056435113e-01,4.760952668279237743e-02,4.478296867690795269e-02,1.060879879125525447e-03,-9.411370536030143731e-04,1.820727572400296498e-03,2.831907868385314941e-01
3.287671204901503330e-01,4.656000687439468266e-02,4.257204991153386298e-02,3.339569417803931774e-03,-2.063740636937355828e-03,1.646869616398402613e-03,2.843177020549774170e-01
3.262967496118501787e-01,4.941210259775022373e-02,3.813349386813205677e-02,5.334208252346441491e-03,-7.276732698069268354e-03,6.137539097743277029e-03,2.833238542079925537e-01
3.836802450781420237e-01,6.809082646930131322e-02,5.984240028733757433e-02,-1.025103880407128576e-03,5.158870842502780857e-02,-4.880588439006493424e-03,3.321545422077178955e-01
3.986454013246752415e-01,6.680927092023156155e-02,6.851069752332189511e-02,1.211496290340926749e-02,-8.365108346202160261e-03,9.414714546101131572e-04,3.319735229015350342e-01
3.857235930348181241e-01,5.209332080541713428e-02,4.016136218018258319e-02,3.367376365913643619e-03,-2.675874961528937335e-02,4.305525844170244275e-03,3.430307805538177490e-01
3.910536284517405203e-01,5.877447683088644903e-02,6.487665862164938846e-02,3.557936762482841880e-03,-5.169884293212013288e-03,2.463709872082132761e-03,3.294774889945983887e-01
3.364136479602226615e-01,5.367613340079313566e-02,5.184133286473133206e-02,-2.591576217438596591e-03,-1.681680600019466905e-03,-2.520178919935598706e-03,2.837434113025665283e-01
3.149573955769215949e-01,6.094688940620486550e-02,2.792876287557052861e-02,1.610142355755595888e-04,-1.173921495722382233e-02,-1.219796642051161790e-03,2.727937996387481689e-01
3.299065905483120620e-01,5.372984170585363983e-02,4.617303739032854737e-02,4.053176894128231872e-03,5.808615571595290676e-03,-7.229076768151536381e-03,2.805797457695007324e-01
3.291501121785813666e-01,5.228518413685596944e-02,4.234164536680193325e-02,4.853773724861177620e-03,5.088921245890613149e-03,-4.965274557479900340e-03,2.823621928691864014e-01
3.451228772541470868e-01,5.021671885819223302e-02,5.032570986543444258e-02,4.962393815824002810e-03,7.305197059394791421e-03,-7.341756579143645864e-03,2.955218851566314697e-01
3.414088512622163729e-01,5.684880318536900123e-02,5.095268521051216082e-02,1.392002366260061165e-03,8.655550727921925563e-03,-7.551076402494017598e-03,2.882509529590606689e-01
3.285112369942283506e-01,4.975683730702977481e-02,4.509027032169017624e-02,8.759549035790441295e-04,4.658333232116735950e-04,-3.510871862103522728e-03,2.811877429485321045e-01
3.032510424062921928e-01,4.954770996467026956e-02,4.539199150550438100e-02,-2.474460213775904818e-02,-3.119328162232121171e-02,-1.002481357551376559e-02,2.655078470706939697e-01
3.459391569572138336e-01,5.313181350920460899e-02,5.316764499858132875e-02,-1.006280264633320660e-02,-1.197177574314214725e-02,-4.971959209804459150e-03,2.941658794879913330e-01
3.444485058844805048e-01,5.777009313540933111e-02,5.276358634194094899e-02,-2.868911940137476579e-02,-4.270420219445829335e-02,-9.428606764292571038e-03,3.030704259872436523e-01
3.242560222290648553e-01,4.642076362412569934e-02,4.569903409909278902e-02,-1.812204237102996510e-02,-1.386370638478125888e-02,-7.719678835240225724e-03,2.813078165054321289e-01
3.354444252124864079e-01,5.219877124733765528e-02,5.098021965660851085e-02,-3.083426576580021363e-03,-4.068240889019371018e-03,-5.576340154926308704e-03,2.841587364673614502e-01
3.223883567529422511e-01,5.911574072005346125e-02,3.078682661301404555e-02,6.121860311658802300e-04,-1.165904518463906775e-02,2.464842823869747672e-03,2.792854607105255127e-01
3.156208122996196908e-01,5.280610773128124880e-02,4.013722959871185436e-02,-1.074959483516365819e-02,-1.739164913722594449e-02,-8.565021134552073395e-03,2.720951735973358154e-01
1.560938197201583166e-01,5.074374128368518144e-02,3.661075391506089100e-02,-6.312766778811738921e-02,1.425283203235448281e-03,2.440941726195657718e-03,1.573739796876907349e-01
3.361506514698008874e-01,6.251642615163485739e-02,6.492666522750716041e-02,6.196536938411554944e-04,-6.587238097053860209e-04,1.952085288312485753e-03,2.724625766277313232e-01
3.349315396293465752e-01,5.153345266590210472e-02,4.779337632430083471e-02,-4.984166613129704070e-03,-5.117092939901175287e-03,-4.265891637064247663e-03,2.856502532958984375e-01
3.334533576020005663e-01,5.499546065370748693e-02,5.244140994177613757e-02,6.149581597637170972e-04,-8.489342971006272765e-05,-1.421555073505977908e-03,2.797565758228302002e-01
3.479515215836693764e-01,6.255263498172393410e-02,6.332839280748005228e-02,1.514286679230436757e-03,2.804949424250737997e-04,9.149527160321696637e-04,2.850286960601806641e-01
3.356078812339480244e-01,5.365109893196877422e-02,5.345649547154721071e-02,-4.882499491700662171e-03,-5.837168888527552967e-03,-3.795004055128311463e-03,2.824384570121765137e-01
3.276351492862820680e-01,6.226348764449279871e-02,3.519478271329562480e-02,-1.454209805508612646e-03,-5.968087543946241740e-03,-4.989472645274670073e-04,2.800929248332977295e-01
3.335447872536065894e-01,5.491913804063065785e-02,5.260516408976953495e-02,4.884898694775337454e-04,1.995319945320418687e-05,-1.640579421623055128e-03,2.798055112361907959e-01
3.329326177658334385e-01,6.293314171751458741e-02,5.878739992652629032e-02,2.537569326054176433e-04,-9.515440354856468871e-04,7.718519973726396029e-04,2.721046805381774902e-01
3.100261879778474228e-01,2.826767692805572108e-02,6.149273693088058712e-02,-3.500801943476225314e-04,3.857930991854919027e-04,-5.389969412120919085e-04,2.667058408260345459e-01
3.308664469804786790e-01,5.894878394446149972e-02,6.154686297400599471e-02,-7.437515884685915249e-04,-1.123743230027192353e-04,1.373074781224365045e-04,2.706312239170074463e-01
3.329301037129293039e-01,6.335580620119457551e-02,6.246756847088257014e-02,1.332463889056482607e-03,7.993420904491185504e-04,7.012957615807469255e-04,2.700356543064117432e-01
3.327872545024613271e-01,6.141569381123682114e-02,6.292531274475153535e-02,1.011042203230910807e-03,1.005192077160979884e-03,3.767667626691685459e-04,2.706319689750671387e-01
3.353094736666399900e-01,6.390268029161660923e-02,6.612623496493943986e-02,-1.116233621884710724e-03,-8.824739809239127812e-04,3.216630041841698779e-03,2.703705132007598877e-01
2.907902777464173028e-01,3.860038320887175523e-02,6.151426055394576542e-02,-1.190524674447726063e-02,-4.508514796144660539e-03,-8.933239601443690794e-03,2.430467754602432251e-01
3.331978630863852153e-01,6.138139310700876927e-02,6.488866959989880723e-02,-1.415548037333605805e-03,-9.637448316279457550e-04,1.578278735246545520e-03,2.701100409030914307e-01
3.382967636274500922e-01,6.234124853906354569e-02,6.642978571577554114e-02,-1.137881430853489697e-03,8.652177606291322097e-04,1.444411979651830840e-03,2.739567458629608154e-01
3.248001892509785327e-01,4.792831276159272014e-02,5.088483849593186670e-02,-1.629179126549544845e-03,5.420828445990782431e-03,7.153925507560842528e-03,2.758584022521972656e-01
3.206540027960345096e-01,4.933036915209411399e-02,4.055584112688624676e-02,-1.354072706858239694e-03,4.079192706115257992e-03,4.963343481979576310e-03,2.760499417781829834e-01
3.285961010913670544e-01,5.405286803370482063e-02,4.685294052827577993e-02,-1.482251172317449557e-03,4.798395033021801877e-03,3.245829120634284668e-03,2.784057855606079102e-01
3.340322875768941269e-01,5.241092879337769239e-02,4.789411966148149347e-02,-7.014041133130714291e-03,1.286155348006290736e-02,9.722269441020574623e-03,2.855353653430938721e-01
3.250328780028441944e-01,4.740618165925200578e-02,4.697231770648793714e-02,-1.177911242109790785e-02,1.199323457558854056e-02,8.884475869003521237e-03,2.797888219356536865e-01
3.147555105468597958e-01,2.839009190977610786e-02,6.220951261756177408e-02,-2.046923983789402778e-03,2.492235834723940664e-04,-3.250530294734876760e-04,2.710669040679931641e-01
3.336826611332687209e-01,5.189287324103145083e-02,5.359965863450320833e-02,9.918500394253030954e-05,-3.045901540865004112e-05,6.230280140489603173e-04,2.809424102306365967e-01
3.269988956160694293e-01,4.802887191595227312e-02,4.441223735416174878e-02,1.810477940711827669e-03,-7.825576763368279282e-04,5.094405515248538047e-03,2.809551954269409180e-01
3.179884674248131260e-01,4.153733357987345054e-02,4.770908500942089292e-02,-5.803380316769212767e-03,-7.283886839454330533e-03,-5.461909064584993638e-03,2.740562558174133301e-01
3.300322409167888438e-01,4.515212541101956689e-02,4.538424060299497964e-02,6.128229596826356143e-04,1.579703979039078551e-04,9.138104774023657209e-04,2.847706377506256104e-01
3.301128609385736157e-01,4.753455069666898125e-02,4.452785953283668052e-02,5.534537823781401130e-04,4.712869493712028139e-04,8.060841865860499849e-04,2.840998172760009766e-01
3.479567877334222570e-01,6.292178098056783186e-02,6.427518365071482886e-02,-2.579974570464741053e-03,1.010654840010181873e-04,-8.792381842746420546e-04,2.843999564647674561e-01
3.344609222752066291e-01,6.174675712211627476e-02,6.138074483437447326e-02,9.447739190018024889e-04,1.070583261990576754e-03,-1.207508031075860784e-03,2.729165852069854736e-01
3.421534547807769666e-01,6.710304905244593443e-02,6.443198695571285273e-02,2.711132840077080594e-03,-1.506276205351956329e-03,-2.133646560648224787e-03,2.764725089073181152e-01
3.450677444142759009e-01,6.030118909262409399e-02,5.685487961075143259e-02,-3.717473957803009866e-03,4.763431608249217748e-03,1.408613122455091172e-03,2.867067158222198486e-01
3.417527446255147483e-01,6.596989907414868570e-02,6.301779790045561325e-02,2.465918780303920973e-03,-1.915136713761736572e-03,-3.226382658276369907e-03,2.773797214031219482e-01
3.341181798115087087e-01,6.135746812401161876e-02,5.687128543559866189e-02,1.148989691323985254e-03,1.567113586097637352e-04,-5.232641077490996374e-04,2.750400602817535400e-01
3.182254850132433255e-01,6.192091910081536088e-02,3.956395724040448481e-02,-7.406390157242383719e-03,-2.035278877287435839e-02,-9.405715435921392989e-03,2.712834775447845459e-01
3.355382733392650030e-01,6.428642670265079240e-02,6.590540885332768495e-02,-4.384490837178906821e-04,-9.814902552130195645e-04,-7.569940703020607052e-04,2.704555690288543701e-01
3.355413891092339784e-01,6.553979367264418932e-02,6.625371209211813883e-02,-9.315118214025134907e-04,1.379214139395110389e-03,-2.812207605351656550e-03,2.697047293186187744e-01
3.329773762251897473e-01,6.288181658308773792e-02,5.885957268642140472e-02,1.170738590581443285e-03,3.086651970908771067e-04,-8.458447517853929457e-04,2.721410095691680908e-01
3.176323263959061061e-01,4.075182257251810936e-02,6.197466740736236324e-02,2.368414307280068687e-02,3.817671559240130245e-03,-5.765992261045734674e-03,2.703022658824920654e-01
3.377727428845465063e-01,4.435584957952633245e-02,5.773296365649303874e-02,2.899180100405154142e-03,1.538860017408207439e-03,-3.566687349767734983e-03,2.870850563049316406e-01
3.385634373494831317e-01,5.893627933189557466e-02,5.807550871515540503e-02,1.413220259680667782e-03,-1.874929973081715471e-03,-5.975043600789075584e-04,2.800899744033813477e-01
3.456094444053583459e-01,6.125727556582827305e-02,6.368881862547735861e-02,-4.175849352573253286e-03,4.401536806250620250e-03,-4.243505140553428985e-03,2.834344804286956787e-01
3.352583496634965465e-01,4.520547723889289937e-02,5.864065670529212959e-02,-1.198554238815492884e-03,-9.089270418777138823e-04,-1.561152572488427653e-03,2.835989296436309814e-01
3.382941125351753842e-01,3.568047759723609602e-02,5.671724718886934913e-02,1.170585068727968657e-02,-2.261535165026242085e-03,6.300936021193555411e-04,2.933925092220306396e-01
3.357483600404685964e-01,4.230796612038724425e-02,6.324010275595744190e-02,-5.132322434455467838e-04,3.366455100053918677e-04,4.928722395801615839e-04,2.835576534271240234e-01
3.240065874178146843e-01,4.309454565111743574e-02,4.683275556832128261e-02,-3.535954223272816475e-03,-3.099800631665310113e-03,-3.237650345296258069e-03,2.792368531227111816e-01
3.517204367523238950e-01,6.425814983383826284e-02,6.034460097688763847e-02,-3.488650056424471256e-03,-1.788849043534422719e-03,5.126485963900660774e-05,2.895185649394989014e-01
3.423586213072219442e-01,5.328082835192417266e-02,5.816566126090172428e-02,1.088368603348266461e-03,8.804234334130159496e-04,-2.892585484558345740e-03,2.867206335067749023e-01
3.666150207511581494e-01,5.464079237232492836e-02,6.242378463718228909e-02,1.514036984539908308e-02,-3.227979133906379652e-03,-2.978396431854957952e-04,3.093212246894836426e-01
3.366302246080527527e-01,5.373922300693703691e-02,5.592572982312600527e-02,1.606973951881763337e-03,-4.683449329522802501e-04,-1.411912229176652891e-03,2.818296253681182861e-01
3.093271547195315385e-01,4.643630762163032666e-02,4.896787677121675064e-02,2.421819446295350384e-02,2.174924543911659069e-02,-5.686922586065652242e-03,2.678211331367492676e-01
3.383575214380788454e-01,4.368902289403696348e-02,5.245521384448587066e-02,1.704248284005314973e-02,1.297002712188233264e-02,-8.669469807542663775e-03,2.931292057037353516e-01
2.796531724278614739e-01,3.885660420811812288e-02,6.278426432083120123e-02,2.100903409250405932e-02,-5.436748586108058716e-03,9.107391618998154220e-03,2.333569526672363281e-01
2.911935487744714557e-01,5.621122425125107958e-02,5.288292189185535286e-02,2.497829313990295244e-02,-1.006509948144822773e-02,1.038436586617197052e-02,2.418864071369171143e-01
2.963024810242883555e-01,6.318077064723905123e-02,6.197218077289251559e-02,2.041544208604162414e-02,-1.414182748857613012e-02,1.676400860971215961e-02,2.394209355115890503e-01
2.586628084590125165e-01,6.311786361730033212e-02,6.587142611671270576e-02,2.025502414549857841e-02,-1.143184007129267703e-02,1.124447287323100848e-02,1.992715150117874146e-01
3.159239933228573660e-01,4.850800156801865493e-02,5.511332924847472947e-02,2.030830078340252129e-02,-2.450723965346236072e-02,5.105212703384078878e-03,2.700108587741851807e-01
3.295196328997997970e-01,4.684157182720120882e-02,6.105157336431277226e-02,2.784945149612847934e-02,-3.337021506109138884e-03,6.747100427095581790e-03,2.803367674350738525e-01
2.696281951891087991e-01,4.070944380493658754e-02,4.929309456246620813e-02,3.906877411904968733e-02,4.327967568293318926e-03,6.532001655846331190e-03,2.351080924272537231e-01
3.115237163318598235e-01,4.429161092226886753e-02,4.875786364102679959e-02,7.465827500671345061e-03,5.533575235191853618e-03,-6.434043359975350276e-03,2.657493054866790771e-01
3.368848978801524119e-01,5.742797386625013434e-02,5.703950100997037809e-02,-3.842702605284862086e-03,-2.771862766921020984e-03,3.713968086295366144e-04,2.797724902629852295e-01
2.996333493228968692e-01,4.232852991000915499e-02,4.702438825136584510e-02,-2.680153954159469887e-02,-1.624348873288810474e-02,-1.225980656536830235e-02,2.615664005279541016e-01
3.320650008615724236e-01,4.572570192799756128e-02,5.583983350019734726e-02,-8.463152248664123842e-03,-6.833904277648801540e-03,-6.874976191068199113e-03,2.822998166084289551e-01
3.307507950269990005e-01,3.656616586777916567e-02,6.109788232359435189e-02,-1.819067833901139714e-02,-9.383130969340035266e-03,-6.249688371777153972e-03,2.851377725601196289e-01
3.067987416426993796e-01,3.384174306954915168e-02,5.452321862188304336e-02,-1.460003931311254326e-02,-3.865941083529101513e-03,-5.683618885676591619e-03,2.647061049938201904e-01
2.967352184207197041e-01,5.791362385140678970e-02,2.781423442074285046e-02,-5.521640400366067958e-03,-7.679481546567897866e-03,-8.295382228111918043e-04,2.557353377342224121e-01
3.065293236546414724e-01,5.851942337253018822e-02,3.106984861862632785e-02,3.918347526458703864e-03,-8.972724165376302560e-03,3.405994237605490266e-03,2.634246647357940674e-01
3.262313365053489678e-01,6.567388861231610031e-02,3.632353060458086425e-02,-2.880243622939258983e-03,-4.803552276891142475e-02,-9.626471971966938301e-04,2.887022495269775391e-01
3.094081277232578753e-01,6.239948116126747824e-02,3.774184004246235180e-02,3.562541632116970544e-03,-5.926630859632304148e-03,7.070537104865026387e-03,2.607783377170562744e-01
3.055111838969598592e-01,5.983100652414530263e-02,3.191751068469322883e-02,1.134871049591283654e-02,-3.156942686580825608e-02,8.386119204349977083e-03,2.675499022006988525e-01
3.066514495486737935e-01,6.177099841022087867e-02,3.710608851026447885e-02,3.189672161885132636e-03,-8.901841070344257076e-03,6.569857974505210162e-03,2.588677108287811279e-01
3.227414868284559368e-01,5.992054157718033902e-02,3.026004733694070969e-02,-1.749768335647055358e-03,-1.088187812451336077e-02,-7.613686777439719524e-04,2.794926762580871582e-01
3.196229940162324534e-01,5.511156637099513811e-02,3.830199874309171693e-02,8.312716975777548548e-03,-7.990987832090533372e-03,5.673993231064253240e-03,2.742091119289398193e-01
2.771147703028517539e-01,6.711530811635108007e-02,3.180432285969837791e-02,2.587606166499187375e-03,-2.390130717124602788e-02,1.280819155296870513e-03,2.334539592266082764e-01
2.764707009301787255e-01,4.296917745468298300e-02,6.029771194170900628e-02,-2.051073433391861073e-03,-4.562263799295063725e-03,-8.207176285468541221e-03,2.259516268968582153e-01
3.385014054140179640e-01,6.012493539475992355e-02,5.055756806394791358e-02,7.759765593613955799e-03,-8.077092175364808738e-03,7.091112185269239296e-03,2.842103838920593262e-01
3.218677181501045093e-01,3.502519580178890812e-02,5.285914419007896325e-02,-2.169610413753932359e-03,-6.179975800952171002e-04,-2.716352374899831668e-03,2.784215211868286133e-01
3.368290338492334612e-01,5.718950446274788380e-02,3.807502685802688358e-02,4.258655392310789836e-03,-1.322611472883359826e-02,3.567656733292917486e-03,2.907338440418243408e-01
1.982045323566448691e-01,5.733067252760495891e-02,6.538730686289366545e-02,-7.640502830952555779e-02,6.452222680197079729e-02,-6.750638971745086953e-03,2.211665362119674683e-01
3.208760301669194570e-01,5.411264691346369393e-02,3.547196389741125166e-02,1.375546318951265633e-02,-2.059998500006135838e-02,6.930764889313729277e-03,2.801207900047302246e-01
3.291829110619978183e-01,6.362665199017913942e-02,3.918113358796178336e-02,7.332001620168381376e-03,-2.248076847794311037e-02,9.082574272913857688e-03,2.820182144641876221e-01
3.487399273121836174e-01,5.853025399294585485e-02,6.105605681953318875e-02,9.838546227715872297e-03,4.290671014037543071e-03,-1.485446901369836051e-03,2.895639240741729736e-01
3.535599955949667583e-01,6.408521149792546778e-02,6.865223794294370019e-02,3.450394137131087592e-03,2.942049751388695154e-03,5.946026341814564589e-03,2.875103652477264404e-01
3.582583267879202449e-01,6.936725522352106543e-02,5.887315008631813229e-02,-1.012893578173433128e-03,7.090518151635425001e-04,1.301816281672413169e-03,2.942949235439300537e-01
3.371228362662833655e-01,6.654528302258595762e-02,6.253672538958615634e-02,8.444280071831219764e-04,8.009144019384611480e-04,3.136552401754940864e-03,2.726655304431915283e-01
3.745923724308670710e-01,7.336538745255077876e-02,6.292753497870891277e-02,7.782247584626727187e-03,4.035146796958219775e-03,-1.281200345011234342e-03,3.069629669189453125e-01
2.529257697625505452e-01,5.176407655605712310e-02,5.880880414138395934e-02,-4.621892173853248131e-02,-4.726926118405821303e-02,-1.594361712674080556e-02,2.301582843065261841e-01
3.526544481198838898e-01,6.210237676347275804e-02,6.033461460551192701e-02,4.703845959462972515e-03,5.017512652421285413e-03,5.834907322548245779e-04,2.916850745677947998e-01
2.374272843373916864e-01,4.349993993182303675e-02,5.697166931600889522e-02,-4.673141068199655745e-02,-2.169680683694635154e-02,-8.528428717641480319e-03,2.082275152206420898e-01
2.534091449341915325e-01,4.644886713155248203e-02,5.965009702812399534e-02,-4.581428273878358076e-02,-2.143445334602052735e-02,-8.305622212612568528e-03,2.194465845823287964e-01
1.999212067630781187e-01,4.040389496451603918e-02,6.176986878768318118e-02,-4.484064497569866664e-02,-5.550113318320452210e-03,-4.154330819142629944e-03,1.693229824304580688e-01
3.420162172823281166e-01,6.108955988126531234e-02,6.362754836036864370e-02,3.354010183926439334e-03,1.002098715554416839e-04,-1.596897870525574702e-03,2.797403633594512939e-01
3.427118572947521757e-01,5.819048445062013908e-02,7.363392754695102793e-02,5.336684637046037842e-03,-1.073591684613098458e-02,-6.770559248152468188e-04,2.779020071029663086e-01
3.425654808059064305e-01,6.425075037313340842e-02,6.639176307605722249e-02,-2.151844462073435049e-03,5.554929633766349413e-03,-3.419316031895182611e-03,2.775055468082427979e-01
3.361145624789833031e-01,5.793925113338956046e-02,5.950346156138951181e-02,1.521652912117379096e-03,-7.456033048976875655e-04,1.721315044929321286e-03,2.774280607700347900e-01
3.346828319252817541e-01,5.048826453302364403e-02,5.505739321827830823e-02,1.145920130395289976e-03,3.022119748388689756e-03,3.524458705359273004e-03,2.820594012737274170e-01
3.405904824124040831e-01,5.553902276753347467e-02,5.660546609531823259e-02,6.117688775224083310e-03,-6.286080314858306407e-03,2.102370424174346795e-03,2.849483489990234375e-01
3.351248706831927437e-01,5.893917672082812920e-02,5.931479165446786050e-02,-3.499697302007195475e-04,-1.199533969319311255e-03,-6.130837006552263815e-04,2.760086059570312500e-01
3.359307202676612425e-01,5.540788008102626172e-02,5.512000444619305495e-02,7.266630238974719838e-03,-3.640127644723179304e-03,4.487713903756355288e-03,2.811271548271179199e-01
3.357956441567291339e-01,5.443507188244627037e-02,5.403823151860714935e-02,6.956143087211857229e-03,-5.889929427242665202e-03,2.558899911485984675e-03,2.820362746715545654e-01
2.550777101990790996e-01,4.347072490622609642e-02,5.683897196425540671e-02,-1.542481044353903423e-02,-6.835073979655779779e-03,-9.015744292907839491e-03,2.079066932201385498e-01
1.912246077868672289e-01,5.743237531333250656e-02,5.703391243026938867e-02,-1.945862721748835289e-02,-2.119825883362908003e-02,-2.650744405983670744e-03,1.430346965789794922e-01
2.484406238666748701e-01,3.391482910936453876e-02,5.730857506430033638e-02,-3.461214716999119756e-02,-1.813380938309885199e-02,-9.137524839203145510e-03,2.153625190258026123e-01
2.861099928870958764e-01,3.421390283861754089e-02,5.403191925292563647e-02,-1.898879837630978312e-02,-7.633773743637140528e-03,-8.749399508225669600e-03,2.456389963626861572e-01
2.665307677430830968e-01,5.117435555823934834e-02,4.846428694795848480e-02,-4.048773025374134693e-02,-3.573772160356471911e-02,-1.442644011127290973e-02,2.373669147491455078e-01
2.710729070389117368e-01,5.734032905524970303e-02,5.409454470590328856e-02,-1.233577101485814308e-02,-1.929637677736057919e-02,-1.100979883445281880e-02,2.198251336812973022e-01
2.943349115750877321e-01,3.515120089058360042e-02,5.125389229085119958e-02,-7.611244132049404046e-03,1.777921775009405408e-03,5.879309516548927861e-03,2.520890831947326660e-01
3.008289381401118012e-01,5.002385219859098453e-02,3.879663721559686862e-02,-4.879482970279265877e-03,6.860476840857865008e-03,9.448428358785428485e-03,2.575374245643615723e-01
3.303041005150910148e-01,5.224112929352332790e-02,4.872591367787781902e-02,8.690275058252887666e-03,-9.430388340972407912e-03,4.417147086626889430e-03,2.808215022087097168e-01
3.401798299030071027e-01,6.305426123714050202e-02,6.408497042364157126e-02,-2.969472724042108731e-03,2.203052931674073876e-03,-2.083748651252896513e-03,2.767093181610107422e-01
3.546439762725727141e-01,5.762943902389665307e-02,6.520238687571341951e-02,1.102151466722043303e-02,-1.648180403925801184e-03,-5.155063742257935764e-04,2.939372062683105469e-01
3.397950226098473414e-01,4.899544542125265634e-02,5.416317751896466970e-02,1.138745292851735735e-03,1.217895807315577976e-03,2.586204708475108808e-03,2.882997095584869385e-01
3.402917468588091410e-01,5.283510492219289922e-02,5.575592873413270922e-02,1.514167400744888302e-03,1.300597414430935440e-03,3.885511372235840588e-03,2.861074805259704590e-01
3.420992036196728314e-01,5.703617887704375000e-02,5.998627482308323267e-02,6.621968967078224570e-03,-6.131467068450724076e-03,2.716658743933050846e-04,2.840303182601928711e-01
3.399101147913721199e-01,5.014197494837209501e-02,5.499682716179050967e-02,9.592914316443158047e-04,3.988979284972837239e-04,3.924589865996487223e-03,2.874574959278106689e-01
3.372315439619836264e-01,5.422189846514811895e-02,4.257227738094405967e-02,7.541494332281302448e-03,1.169950920953692804e-02,-5.013821954743188057e-03,2.901444435119628906e-01
3.409698192167200936e-01,5.307592331596548696e-02,4.734957390544625166e-02,5.458410641782945709e-03,7.438965202109679327e-03,-5.005625015782084498e-03,2.913671731948852539e-01
3.032284878376438897e-01,3.657293040180008281e-02,6.142550568317919901e-02,-1.748615065325875850e-02,4.327561379172868185e-03,5.913851564606128694e-03,2.572433948516845703e-01
3.090404476384888133e-01,3.446705056279562862e-02,6.329506372470115882e-02,-2.863079908767373824e-02,4.019818468849576873e-03,1.294573164442350830e-03,2.661181390285491943e-01
3.045209691910706340e-01,3.660257236241251655e-02,6.161363155670107616e-02,-6.073423007409068687e-03,5.589957948233660427e-03,4.327482690482452148e-03,2.568374574184417725e-01
1.588828622851134464e-01,4.900048606010844188e-02,4.323476810538094683e-02,-7.573448555531162030e-02,1.173407639809661597e-02,-3.838997776672360457e-04,1.742457300424575806e-01
1.658835854120654929e-01,5.276256462186770801e-02,6.041688994661151973e-02,-5.281215319838410832e-02,3.876273691387813886e-02,5.467763651373559741e-03,1.579677164554595947e-01
2.194207343231058815e-01,5.776191587369598063e-02,6.286893476508004230e-02,-5.842163718101257841e-02,2.695726032076053644e-02,-2.185350211504073770e-03,1.943392157554626465e-01
3.337571432556661333e-01,4.083709588456739537e-02,6.575355073472609335e-02,-4.636377520467235142e-02,5.031205523760056558e-03,5.504857652725571662e-03,2.928141057491302490e-01
2.565939495601874398e-01,3.717527850505324138e-02,5.269969643894246991e-02,-8.018357068740811222e-02,4.653851109826369868e-03,2.819377598518457099e-03,2.536853253841400146e-01
2.482739928466395352e-01,3.897571332013230472e-02,6.292563712363527517e-02,-7.416414751141146844e-02,5.109485752150185215e-04,-1.640584313449805227e-03,2.363821268081665039e-01
2.497689915933936911e-01,4.196486619652568806e-02,7.827434766958482615e-02,-5.171265555635738004e-02,1.745209767247029795e-02,6.649043819939760500e-03,2.145335078239440918e-01
3.318994056792136660e-01,3.899800446346388116e-02,6.125499820523312711e-02,-4.816808317094629921e-02,1.971709263058068692e-02,7.247247730088075997e-03,2.967353165149688721e-01
3.355624850677321191e-01,5.967578355674645063e-02,5.424463061431165911e-02,1.417056117625461759e-03,2.069713309290129467e-03,9.781620438475023202e-04,2.786810100078582764e-01
3.417377277171876893e-01,6.424204377899242480e-02,6.440840236941705599e-02,3.149991903269917185e-03,-1.555111925792292083e-03,-2.213579427162976673e-03,2.775057554244995117e-01
3.345453305189217685e-01,5.563113297309642269e-02,5.260754166438764978e-02,5.645409212031062544e-05,3.783773109825735678e-04,1.830485982691233259e-03,2.804569303989410400e-01
3.382665073446630144e-01,5.446204825890585410e-02,5.288488980115473026e-02,3.755407475022225542e-04,1.518835343220233114e-03,3.152079313396742490e-03,2.846615910530090332e-01
3.337199989667001265e-01,5.770644443784990474e-02,5.360652565168179395e-02,-4.581700502693502458e-03,3.785870693499122919e-03,1.765268831160754547e-03,2.782934606075286865e-01
3.454657823044033904e-01,6.511286390739594310e-02,5.845035588752652000e-02,-2.468580900725529052e-03,4.345283238272936235e-03,2.372260689591055649e-04,2.838751375675201416e-01
3.353194382486018865e-01,6.028414537485096703e-02,5.826379601966655275e-02,9.828661192961577961e-04,-3.839393916426358275e-04,3.145388282062264217e-04,2.760576009750366211e-01
3.383249354722649427e-01,5.563514046926751333e-02,4.906050604821757255e-02,1.148661226840410644e-03,2.574729384340753661e-03,3.284854010363955600e-03,2.861320376396179199e-01
3.380878840466119417e-01,6.059804445390486183e-02,5.866432646301560083e-02,2.431883784333937343e-03,2.454334984151702263e-04,-9.512146783027847392e-04,2.784987986087799072e-01
3.393079124970166394e-01,6.071681320406643878e-02,5.805591871014416372e-02,-1.513916188497762888e-04,3.156342390207405365e-03,-6.835172053057816206e-04,2.799870371818542480e-01
3.443775828633444114e-01,6.548300392791822633e-02,6.516838282455032771e-02,-1.619110782100542959e-03,-1.711610630625693774e-04,-1.707096968316785873e-03,2.790819406509399414e-01
3.452531389212641910e-01,6.598444219230967245e-02,6.709260668575119102e-02,1.570623073752780083e-03,-3.103954059130251825e-03,-4.069396079370105404e-03,2.788704633712768555e-01
3.444351283112251361e-01,6.513419324757638296e-02,6.091247225968327017e-02,4.682681644920018600e-03,2.768098064680846702e-03,-3.356224303048345632e-03,2.816531956195831299e-01
3.198957295672595347e-01,3.056024821541460101e-02,6.148188360035777844e-02,-1.295305558989110623e-02,1.950503850085485427e-03,1.548191017336052926e-03,2.761274874210357666e-01
3.465101374833016168e-01,7.495646671967699792e-02,5.816981938838179655e-02,-9.962498246302048822e-04,1.209766118167401568e-03,-9.094010034809785290e-04,2.803417742252349854e-01
3.657759884741404455e-01,5.210947454717389238e-02,6.069265963055911484e-02,1.191007266498954678e-02,1.814364736620186457e-03,5.105872013282891728e-04,3.101681768894195557e-01
3.188113554914177583e-01,4.369244992838335062e-02,4.773424957174939032e-02,-8.105194477297517075e-03,8.826150872442935225e-03,5.959836773671378304e-03,2.741023898124694824e-01
3.467254157509617185e-01,6.139626942917782160e-02,6.092532454345965520e-02,2.431125769696508478e-03,1.277719313925366031e-03,-1.563334778972865153e-03,2.856173515319824219e-01
3.468862410973427846e-01,6.735019400847253035e-02,6.160460777505170904e-02,-1.471622759249069769e-03,2.669389290417538418e-03,-1.317079997841289060e-03,2.825112342834472656e-01
3.449626465293314515e-01,5.611601873147292752e-02,5.976479276013661746e-02,4.420109646490205527e-04,2.032986562648990414e-03,3.885724922053798670e-04,2.870630323886871338e-01
3.399049154744445134e-01,5.376667013828537178e-02,5.803832303038804208e-02,5.627071564143125426e-03,4.901518708860350300e-03,-5.942510374965118657e-03,2.845067083835601807e-01
3.319448877642410256e-01,5.064271189663371864e-02,4.902647672626507525e-02,-7.186485988075340565e-04,-2.022518620391474797e-03,-4.074885112559204457e-03,2.822265326976776123e-01
3.318070150236593907e-01,5.505025560898796355e-02,5.416685433579621067e-02,-2.800589004064143257e-04,-3.295193152503690095e-04,-8.630344374737847820e-04,2.772045433521270752e-01
3.055371813558605543e-01,3.289693195158584216e-02,5.653937323146231153e-02,-1.723597743828253828e-02,4.419184469357316514e-03,2.869304462727156110e-03,2.634773552417755127e-01
3.386253269890882045e-01,6.829602407179137524e-02,6.121041476029576156e-02,6.040409932190464199e-04,2.536048255471290162e-06,1.471748610922533852e-03,2.739546895027160645e-01
3.237865402946523696e-01,3.631306424605364180e-02,5.737608945418175288e-02,-9.298870955345216877e-03,1.829554149572112020e-03,4.264048833997567504e-03,2.781251370906829834e-01
3.200106917717731592e-01,3.883087100369929379e-02,5.280739211175418391e-02,-5.950874226648149128e-03,8.269351840575639781e-03,6.461714198921340684e-03,2.752529084682464600e-01
3.124147850773785207e-01,3.894412640285374594e-02,5.653264837147464750e-02,-1.282243549306904401e-02,1.301711084202566114e-02,7.008987012977201288e-03,2.672724723815917969e-01
3.193477666668083081e-01,4.536449172037003430e-02,5.478714105938889412e-02,-3.720658787423565973e-03,8.213022345017513201e-03,8.698011435535626945e-03,2.702680826187133789e-01
3.014477239094701666e-01,4.533788436072018480e-02,5.197780434897687762e-02,-1.153787156772264483e-02,8.159144860025063437e-03,8.960662629918868249e-03,2.545108199119567871e-01
3.393216322876113078e-01,5.777551214789942990e-02,5.585345959733588328e-02,-5.058952187891384115e-03,-4.871957138851480337e-03,-1.957910629995629655e-03,2.827941775321960449e-01
3.362137747677368949e-01,5.702101566472168870e-02,5.981466457009194937e-02,-1.034973465408367673e-03,1.073467652956778531e-03,-5.166887054696914098e-04,2.778199315071105957e-01
3.358218721011768659e-01,5.987245311035606365e-02,5.811932741077888154e-02,1.119777254050609592e-04,-1.269977594131378252e-03,-2.784724991981329034e-04,2.768393754959106445e-01
3.345744414889130214e-01,5.507324436025520797e-02,5.450610231315271281e-02,-4.388697819332856333e-03,-4.100563490547741094e-03,-2.192433159221889288e-03,2.800042927265167236e-01
3.519211183261239384e-01,5.805264175009568206e-02,5.532876710721139346e-02,8.941395985905120983e-03,9.573022259799925104e-03,-1.879960523946826428e-03,2.961282432079315186e-01
3.520203493409370665e-01,5.621958775302086930e-02,6.213127420380762378e-02,-3.572608998977269516e-03,-4.741139994789078486e-03,-2.590412643775027481e-03,2.931044399738311768e-01
3.391576952246875276e-01,6.238538444964235319e-02,6.272149941534789497e-02,-2.005095403581876393e-03,6.793489174786351403e-04,4.934809066840136794e-03,2.767607271671295166e-01
3.529455921301415389e-01,6.268361751176074192e-02,6.651497263956090977e-02,4.900117488666786564e-03,2.364623551692576330e-03,8.400236728638526412e-03,2.888859510421752930e-01
3.515045503547666872e-01,5.426116622723628491e-02,6.334341237858366613e-02,-5.408516853362386329e-03,-1.293557512357742688e-03,-1.176003785001863760e-03,2.929733991622924805e-01
3.975479021992190942e-01,4.868480033396725692e-02,3.675314709881587205e-02,-5.999856593561849437e-03,-1.390744697183312999e-02,-1.422857565286588313e-02,3.567995727062225342e-01
3.908594181373444831e-01,4.124518606721357117e-02,3.490041111892891457e-02,-2.334961897470770945e-02,-3.558754383440541902e-02,-1.958106582107435600e-02,3.620412647724151611e-01
4.511035603525059279e-01,6.655621664602363874e-02,5.687083188922439914e-02,-4.685718746580709582e-02,-5.254077571088260068e-02,-1.232576474529348612e-02,4.086797237396240234e-01
3.958852894764822716e-01,4.150434428511530494e-02,5.123063263971450176e-02,-2.600647509735561774e-02,-1.588956484532298707e-02,-1.978967993358818345e-02,3.552393317222595215e-01
4.000170306468894266e-01,3.537470973263434626e-02,4.835648199729609964e-02,-1.786724366956916193e-02,-1.774942652334926194e-02,-1.608342924092176843e-02,3.620465695858001709e-01
3.180206167947386975e-01,4.019788289523940072e-02,6.432642594408842507e-02,1.978721503477144303e-02,-1.298451245794913014e-03,4.329633975029820170e-03,2.688867747783660889e-01
3.108099322089584171e-01,3.518576079622046104e-02,5.999637084483160077e-02,8.052231091289184517e-03,5.011645696981853644e-03,-2.189360653316078757e-03,2.646319866180419922e-01
3.065734758185299502e-01,3.377274609777645986e-02,6.293294885631531277e-02,1.037575809282484038e-02,1.490052978452680596e-03,6.648500790554361670e-04,2.600895762443542480e-01
2.668141481928061332e-01,3.089113673818849604e-02,5.271173543877986922e-02,3.291721635494463533e-02,4.948075046378068616e-03,-2.069649932134720767e-03,2.330767065286636353e-01
3.005852594843366754e-01,4.320518138479383097e-02,4.263322061616109382e-02,-1.141795387108892994e-02,1.281938367227362409e-02,8.543022283589028071e-03,2.597981989383697510e-01
2.579722224079366022e-01,6.030089630808617429e-02,3.248368415793687070e-02,-5.781230137190911242e-04,3.615667883456211151e-02,2.047007906962724534e-03,2.219952791929244995e-01
3.104439018676261597e-01,6.381806992977909210e-02,3.966134205687175951e-02,-3.525109411625405864e-04,1.330424183628670966e-02,-1.529064432276448912e-03,2.605837881565093994e-01
3.349222596756115111e-01,6.798678660556682629e-02,4.578784184267163659e-02,1.982329086754728740e-04,3.606764137341668397e-02,-3.606702379356264976e-04,2.856154143810272217e-01
3.321863610401812883e-01,5.601595740550839586e-02,3.432185984416326330e-02,-5.549650867215201932e-04,1.132398606587451187e-02,6.040678691590797524e-05,2.883012890815734863e-01
3.318259853435983064e-01,6.137458291494811424e-02,3.522200699137129076e-02,9.084198289251991696e-05,1.186516375390500762e-02,5.164838172482115767e-04,2.851738035678863525e-01
3.519680669110926141e-01,6.659015122864100911e-02,6.099767090197318054e-02,2.845283116083190903e-03,-1.509990923804871692e-03,1.420152341978395897e-04,2.882689535617828369e-01
3.386004400212877519e-01,6.348329919577035130e-02,6.703045165562486474e-02,-1.417945734445645459e-03,2.451011607814661134e-04,2.911032665536042105e-03,2.734186947345733643e-01
3.370985436282850634e-01,6.022309798895600363e-02,5.686961903835047183e-02,6.642675724461628503e-03,8.290252471008762933e-03,-2.965228324492006815e-04,2.791748046875000000e-01
3.472251914566056308e-01,6.189007335620404227e-02,6.973727223125465724e-02,-3.076815212079643015e-03,-3.409950088404379437e-03,3.648067586897402702e-03,2.816768288612365723e-01
3.362923926191715429e-01,6.081918636692838775e-02,6.238109724397462863e-02,1.625384770221867197e-04,-1.674457026497050503e-03,9.172782625279774340e-04,2.747156322002410889e-01
3.704340695643388859e-01,6.067125605634487995e-02,6.308434615345828722e-02,-6.340515922143625908e-03,-5.983057575004484957e-03,5.004537920769732253e-04,3.089337944984436035e-01
3.734486097534444604e-01,6.230968362555291962e-02,6.612484299852326719e-02,-3.096189877534594528e-03,1.143261516844908468e-03,1.090081606596893932e-03,3.093076050281524658e-01
3.475203455114687645e-01,6.436549199872609872e-02,6.972091140414610200e-02,-7.632320080386726735e-04,-1.889880893114572998e-03,3.914960707102899985e-03,2.806196510791778564e-01
3.247065098854478027e-01,3.614566480922797032e-02,6.300437014740944974e-02,3.717003806378207931e-02,1.278366205861065355e-03,7.135813689699930379e-03,2.837972342967987061e-01
3.257024343166695646e-01,3.719621836590034092e-02,6.043942165764647212e-02,5.956691654248523482e-03,1.100211720489779410e-03,3.648022034535739616e-03,2.778853774070739746e-01
3.397518298905891632e-01,4.896829574269685736e-02,6.091825361235786440e-02,1.878854137966614810e-02,2.661460383638263993e-03,-2.571013198829771255e-04,2.868858575820922852e-01
3.395519739924804936e-01,4.688227029717433048e-02,6.156369556261064024e-02,1.086940568722673597e-02,2.489011843655185817e-03,4.375780658975750824e-03,2.863647043704986572e-01
3.240997235042194502e-01,3.896119812566728458e-02,6.060038036753687130e-02,3.199405112464882243e-03,3.895434653895688492e-04,1.136911512419701504e-03,2.750220298767089844e-01
3.461738745141553775e-01,5.595131838915687328e-02,5.715720298602856853e-02,-1.717982264852117077e-03,5.584621973540385143e-03,1.205070132211240796e-03,2.898057699203491211e-01
3.376249250841169003e-01,5.009505152786186688e-02,5.911840382886186795e-02,4.191718677154783294e-03,-3.648292015909286828e-04,1.512640644859554852e-03,2.832319438457489014e-01
3.381065873964760327e-01,4.374904012570733636e-02,5.902061046290137114e-02,8.177928082906162077e-03,6.795268892764540387e-03,-7.667358735381033397e-04,2.876199185848236084e-01
3.591255301360792851e-01,5.595776434381470599e-02,7.396069444537309301e-02,-6.238418503314058802e-05,6.782644627162080515e-04,3.793003597472816506e-05,2.945815324783325195e-01
3.738635561410766361e-01,5.527097913136480578e-02,4.806398699163859367e-02,-3.583409982363651002e-03,-7.222105357290360683e-02,-1.780894828731511247e-03,3.457527160644531250e-01
3.733490491747440965e-01,6.865372709025122089e-02,4.442312182994274938e-02,4.859360102205124987e-02,-3.516596667247544328e-02,-3.168516754850474464e-04,3.340711891651153564e-01
3.618145222996456134e-01,5.632560795208034488e-02,3.768889520323326359e-02,1.678251690137532240e-02,-3.013560580733682173e-02,7.902103752991442367e-03,3.211243748664855957e-01
3.563905000830787095e-01,5.932419341306399696e-02,6.641597221519233984e-02,1.326215391590599563e-02,-3.703498686754231120e-03,3.647430446969076884e-03,2.946195304393768311e-01
4.983659625769172319e-01,8.159462513405563167e-02,6.408987620620590353e-02,1.793607353522856315e-02,-6.352668751571291517e-02,-5.518158160452548387e-03,4.409802854061126709e-01
3.091347109844520546e-01,5.123609064599973784e-02,4.163477060773948524e-02,-1.194814914688350441e-03,-5.247788946692843667e-03,-6.828638662465891761e-03,2.632619142532348633e-01
3.274131539950473901e-01,4.854200872027075730e-02,4.269300881122975455e-02,-6.197931444317029189e-04,-1.609751269858217563e-03,-4.335320527488320530e-03,2.819570004940032959e-01
3.216064042088551123e-01,4.354233360718441637e-02,4.445950881621175965e-02,-8.825668890503225034e-04,-2.818812772932203017e-03,-3.558768379494696432e-03,2.777221798896789551e-01
3.217750125115125259e-01,3.829135403464711818e-02,4.824798905579406882e-02,-4.634869717038362508e-03,-5.751099385067335625e-03,-5.765323255564082199e-03,2.791110277175903320e-01
3.263574285251164553e-01,4.214177783012754142e-02,4.162083425398153957e-02,-1.534622459045683653e-03,-7.639390278015806366e-04,-3.541762571279212252e-03,2.845581173896789551e-01
3.213251859681089950e-01,4.367495614643635005e-02,4.768983955785738305e-02,-1.602405446392924900e-03,-1.794769732757761247e-03,-3.712199926035161107e-03,2.757711708545684814e-01
3.451095559437943328e-01,6.692045872808155549e-02,5.020580034647852130e-02,-6.956772842399569978e-04,-4.403250704139499011e-02,-7.356871670136609469e-03,2.971511483192443848e-01
2.794604120013474691e-01,3.023794420612119227e-02,6.375877205459359875e-02,-1.050866486731450757e-02,-5.231063848089881297e-04,-1.545255087838834612e-04,2.349755913019180298e-01
3.623441160162873542e-01,5.698820602669002477e-02,4.650017467500333623e-02,-1.515060804172820713e-02,-7.150987344385860423e-02,-1.519600630541285058e-03,3.355463445186614990e-01
2.937027713599293932e-01,5.646842542705404755e-02,4.275443652908211822e-02,-1.390681338911299060e-02,-6.492745437527668029e-02,-6.855071574574825126e-03,2.703507542610168457e-01
3.227519478027272015e-01,5.205741754137514776e-02,5.247493154105044300e-02,-1.732423963990037744e-02,-8.529591365156766192e-02,1.574999042830885318e-04,3.096600174903869629e-01
3.484859132904354340e-01,6.105068524146528564e-02,5.762867861089847332e-02,-3.209965586195229464e-03,1.336052979122654381e-02,3.643314586588289154e-03,2.902078032493591309e-01
3.453728836400293267e-01,6.001880509605306280e-02,5.587842359891448396e-02,-4.025585000937171275e-03,5.347284168919018421e-03,1.695432931552577453e-03,2.876952886581420898e-01
3.405492615791448907e-01,4.635442548251514361e-02,5.066837486569128468e-02,-3.619530034580614123e-03,7.028647157561871382e-03,7.029386708168968226e-03,2.926359772682189941e-01
3.357128243608121787e-01,5.851475217698319520e-02,5.749597946958764916e-02,-5.426387873951131480e-03,4.107882057080164580e-03,3.472696105959158924e-03,2.780240178108215332e-01
3.182628557030853234e-01,4.661467154830224724e-02,4.710471217501627228e-02,8.343297519744101443e-03,9.358108940791516270e-03,-5.407881296880184298e-03,2.724319100379943848e-01
3.210953955075500632e-01,5.141655031746636406e-02,3.974607068693621070e-02,8.128526033907835374e-03,9.260197040069740454e-03,-4.502067083183675447e-03,2.766341269016265869e-01
3.226600586987129482e-01,5.717696762264927457e-02,5.022356137988021052e-02,2.966221010780057191e-02,2.293476161847206665e-02,-6.543125278342868181e-03,2.769866883754730225e-01
3.414853273343445572e-01,5.793493795352604170e-02,5.526100647600647175e-02,4.064419656279183446e-03,7.122861174597678625e-03,-8.628501891247279980e-04,2.852545678615570068e-01
3.275734515457244811e-01,4.998789161919853230e-02,5.329910314412647510e-02,6.224824678461637027e-03,-3.568894701117298306e-03,6.114266726670970938e-03,2.764275074005126953e-01
3.122106944953001451e-01,3.610425639218645122e-02,5.370679239168450747e-02,1.278116834377950040e-02,-4.754541522018697515e-03,7.017928505632193767e-03,2.690540552139282227e-01
2.935132432301172933e-01,4.587126471906437242e-02,5.251280296806219716e-02,3.081804710977053413e-02,-1.563667313751963134e-02,1.184849837468563219e-02,2.524477541446685791e-01
2.909642287053579857e-01,4.728799357896931732e-02,6.048751093156282121e-02,3.736201880341006448e-02,-3.227817062964813410e-02,1.003286499213707807e-02,2.528859376907348633e-01
2.920766201592780997e-01,4.373409659797534987e-02,5.969584751896858665e-02,4.900767772355775487e-02,3.394338665690638680e-03,7.436871064941937524e-03,2.556766569614410400e-01
2.499316085381329544e-01,4.780630329979723703e-02,5.581761221408210877e-02,2.839740143891879981e-02,-2.046582101775991022e-02,9.238360857470765547e-03,2.079215198755264282e-01
3.131665160024484917e-01,4.456479655566711329e-02,5.804810439719235160e-02,1.149205261650383322e-02,-5.105136389420653412e-03,1.065461726139430021e-02,2.636702358722686768e-01
3.139659487809731697e-01,5.104740566105486765e-02,6.125034163073024562e-02,2.832144928941364090e-02,-2.477316396843338379e-03,1.162220621834605429e-02,2.633964121341705322e-01
3.103509523428958916e-01,4.429861703169740705e-02,6.178769265705209845e-02,1.639868384830620029e-02,-9.147202820131912797e-04,-3.840470780843554735e-05,2.593182623386383057e-01
2.984622212115348727e-01,3.615689339516295342e-02,6.351401903946705951e-02,1.485732510304615950e-02,-5.999242915888867468e-03,8.441061940164510183e-03,2.517151534557342529e-01
3.224200044214327598e-01,4.034762098250843643e-02,5.917995720417820738e-02,1.687107993747212487e-02,-9.401773355076151195e-03,4.883946153949684718e-03,2.753144502639770508e-01
3.672473465207609644e-01,5.765639541532385781e-02,6.212047157930575270e-02,3.519607956443480262e-02,-7.415032576637137565e-03,7.978105253784884693e-03,3.139373064041137695e-01
3.364887822857728361e-01,4.992861214088141486e-02,5.770556150205494172e-02,1.103271054209489267e-02,-6.021628432276875109e-03,3.557239206550957128e-03,2.836557030677795410e-01
1.797158293418884001e-01,5.941921344858613202e-02,6.834859880360055762e-02,-2.213110687783889294e-02,-7.650433026874712411e-03,7.061533795805002237e-04,1.229767277836799622e-01
3.322228903264048405e-01,4.952260287218851476e-02,5.181802764737647449e-02,-2.700425308290531779e-03,3.287108737925631581e-03,7.505865791543094544e-03,2.819558680057525635e-01
2.948818440521069340e-01,4.983200109609872697e-02,4.456834213617213991e-02,-6.611182739156083732e-03,1.585617973225922697e-02,1.128007955582456014e-02,2.502680420875549316e-01
3.183362468899317843e-01,5.593340829210378951e-02,4.194821755740278657e-02,-2.461690458513273241e-03,3.865473153989297354e-03,6.212356938110175954e-03,2.699988484382629395e-01
3.152520786545257581e-01,3.088807465780993300e-02,5.793580674376604123e-02,5.177378000586960009e-03,-7.852491369739562552e-05,2.612444479442613873e-03,2.720367014408111572e-01
3.006947606974748055e-01,5.870855291333862414e-02,3.547973125123718430e-02,-6.605229799135320205e-03,1.349422482451506124e-02,7.511742850635373843e-03,2.560554742813110352e-01
3.249348939319993690e-01,6.585777919031619854e-02,4.483133116082738123e-02,-3.062860524784565344e-03,1.650758391446085008e-02,1.013496827507129674e-02,2.723312973976135254e-01
3.256093723937494855e-01,4.081771636651732038e-02,5.456468199657669993e-02,-1.195016809828907192e-02,-7.256017913202227401e-03,-6.364178720450180265e-03,2.794425189495086670e-01
3.317120630934615733e-01,4.384284700873301854e-02,5.053327816546748785e-02,-7.387859911337299988e-03,-5.858047336689564157e-03,-5.675707652030177568e-03,2.852206230163574219e-01
3.234544284484091592e-01,4.654965630281511502e-02,4.296096944837832221e-02,-2.207970621097985614e-03,-3.457385394468994247e-03,-6.915423635356329583e-03,2.790641784667968750e-01
3.295102538292106198e-01,5.079869336978877492e-02,4.775537048598137158e-02,-1.347514815852680512e-03,-1.646143319845484168e-03,-2.844722216869699331e-03,2.803131341934204102e-01
3.159647955494290228e-01,6.077628541172089283e-02,2.770194542436572871e-02,4.516894273563410345e-05,-1.172545367661853100e-03,-3.847248115748817050e-04,2.732395529747009277e-01
3.250104006130040135e-01,4.985320342898938439e-02,3.627557891400261247e-02,-4.063161432639799883e-03,-2.626880878525923290e-03,-3.249238802520682499e-03,2.823716104030609131e-01
3.283492155111906730e-01,4.728638658715028642e-02,4.157192759695184370e-02,-4.365203215752653382e-03,-3.924073207451735622e-03,-6.341488792834741595e-03,2.843573391437530518e-01
3.143666318790364622e-01,4.650599965597630725e-02,4.560447931254477116e-02,-4.842125530481710717e-03,-4.560178244471150590e-03,-7.972320368587939438e-03,2.689144909381866455e-01
3.311221029128004201e-01,5.063956375046450853e-02,4.381916260177942668e-02,-4.904794390014916711e-03,-5.664621905416698973e-03,-5.507903262142056951e-03,2.844106554985046387e-01
3.313713025815847590e-01,5.158564363058346092e-02,4.739368600107798923e-02,-2.014456305486886953e-04,2.596236523089613538e-04,-1.022187843722821132e-03,2.819111347198486328e-01
3.198551194293395294e-01,5.295541477240438277e-02,4.077405837171101111e-02,-3.673738418969452191e-03,-5.823337665990633780e-03,-4.946977148926588914e-03,2.735885083675384521e-01
3.352342357971931364e-01,6.510973707816272715e-02,6.434405500738082928e-02,2.378081677666707243e-03,-1.576391481857292035e-03,-2.622455778467996761e-03,2.705914080142974854e-01
3.405672668747824483e-01,6.461792489091150449e-02,6.206167807822339511e-02,-8.416612583188400097e-04,3.193481124342474869e-03,-2.415678725891620780e-03,2.773268818855285645e-01
3.588821081846199634e-01,6.837608230171028645e-02,6.617498347650811741e-02,2.113509677067111538e-03,1.624544569853534704e-03,-2.513171681092376750e-03,2.916818261146545410e-01
3.471360382312484449e-01,6.300906408271098047e-02,6.622892292153534366e-02,7.742494726325353967e-03,-1.699979087317881124e-03,-5.219887439240769936e-03,2.830086648464202881e-01
3.396617111309320758e-01,6.509881342657955483e-02,6.171059519814622862e-02,1.592498385150272052e-03,-5.483578886548263424e-04,-2.763707890089723510e-03,2.763294577598571777e-01
2.074917619523815038e-01,7.459317155536616950e-02,4.666848202296418335e-02,6.342200005196108395e-04,-4.233943626201505661e-02,5.341397337335761220e-03,1.661856174468994141e-01
2.764600275103464844e-01,6.244978972646018922e-02,4.418484751311821390e-02,-8.919335226206612927e-03,-1.755909924521898910e-02,-8.559807167281541923e-03,2.267737090587615967e-01
3.427472757349999122e-01,5.568334006118355606e-02,5.417998568667024839e-02,-3.833374400864811033e-03,8.090553277795691292e-03,4.307134102998665809e-03,2.883324921131134033e-01
2.709810994365909886e-01,6.477131599171581655e-02,4.817162963323756708e-02,-2.133006318481639810e-02,-5.009465357034522531e-02,-5.298227741448901379e-03,2.349438071250915527e-01
3.147940229303773929e-01,6.145586413983299134e-02,2.765682807128787279e-02,-1.160893487982257412e-04,-1.539175283835479040e-03,-1.430392336616870827e-04,2.718315422534942627e-01
3.564276844185233495e-01,6.104335099300675638e-02,5.821951499764362048e-02,7.953756050487556387e-04,4.295277092282408400e-03,1.553154411084687724e-03,2.969149351119995117e-01
3.177818078998637663e-01,5.499368588410702419e-02,4.720512414565153358e-02,2.230354856996175777e-03,1.757447001006152629e-02,7.867462287235883062e-03,2.688720822334289551e-01
3.478020733610907023e-01,6.429485505647701549e-02,5.685675532792346110e-02,7.701476104155196688e-04,6.571139964996501256e-03,2.206786062443372599e-03,2.875523567199707031e-01
3.231540992969368364e-01,3.900781237471873109e-02,5.252367537477810322e-02,-1.188093333647172699e-02,7.535833903413986443e-03,6.558253327387590995e-03,2.789340019226074219e-01
2.348487567175436275e-01,6.077212611770026196e-02,4.348443917187368168e-02,-2.967773264233840996e-02,-5.099728689241336821e-02,-8.014151356136660700e-03,2.103522568941116333e-01
3.191411091550634405e-01,5.338379843433542493e-02,5.193756506902626191e-02,-7.229148490053805172e-03,2.715086670712105882e-02,1.030210293820176155e-02,2.714775800704956055e-01
3.132700968964622357e-01,4.438786035630674920e-02,5.772917961866687320e-02,-1.696707035528701932e-02,1.357472819508464233e-02,1.055896576127559640e-02,2.657806277275085449e-01
3.208154310671885168e-01,4.866987996520975857e-02,5.586987748465623016e-02,-1.162735011144337693e-02,6.473216517197312274e-03,8.808423847666654871e-03,2.700363993644714355e-01
3.287586407107507824e-01,4.592278252426004737e-02,5.368757215320348053e-02,-1.725048719554330909e-02,1.774252839407183466e-02,7.168969474619688899e-03,2.825801968574523926e-01
3.599492146588176844e-01,5.194094423968935448e-02,5.915014589385576838e-02,-1.713325960826338895e-02,1.753083159836258884e-02,6.738800620110653450e-03,3.076352477073669434e-01
3.175482958025034330e-01,4.386502991586620215e-02,5.397493458877732075e-02,-9.436814112705025834e-03,5.981597289402133290e-03,5.192282902088541340e-03,2.696167826652526855e-01
3.355532082221808210e-01,5.836456852525157002e-02,5.649315623440470668e-02,-5.416657780231555648e-03,5.440170872197750036e-03,5.680745634099483707e-04,2.784484624862670898e-01
3.186328410788820675e-01,4.026416796197095083e-02,5.325873583091633723e-02,-9.233743960681493543e-03,7.116791385347606171e-03,7.048025740216568025e-03,2.731253504753112793e-01
1.613579804387118566e-01,4.791454584406740214e-02,3.936563310446619668e-02,-1.736636176113540500e-02,-6.889190356922038350e-02,-2.836568664859835730e-04,1.704570651054382324e-01
3.426804106746761391e-01,4.823956561658322706e-02,5.313583158691174979e-02,-4.766129468007824360e-03,4.883968248949434668e-03,8.372529329148560920e-03,2.926221489906311035e-01
2.924314441987557744e-01,4.954042298826832891e-02,3.951440689902666059e-02,-8.053834063977144062e-03,1.330740808567715087e-02,9.197975830485797047e-03,2.500229179859161377e-01
3.189276839341859127e-01,4.803772259832457536e-02,4.913747215286987102e-02,-7.552824354890723228e-03,8.854627396396464595e-03,7.127386193654634307e-03,2.713732123374938965e-01
3.127630809345485208e-01,2.990244603937504408e-02,5.809630086612464772e-02,-3.100367333602830613e-04,-1.072746193589594514e-03,-1.791823158413274582e-03,2.698953151702880859e-01
3.392812020315163490e-01,5.891017028416530021e-02,4.542179708554687501e-02,1.822100136106559291e-04,1.083726282451387239e-02,3.307889973735107358e-03,2.880223393440246582e-01
3.329305338508907752e-01,5.697302884943571122e-02,4.711596303887052861e-02,-3.199733507754334849e-03,1.567208270291312044e-02,9.979756668363105529e-03,2.829066514968872070e-01
2.554829673545996327e-01,6.559431031046827898e-02,5.662890972504176779e-02,-8.137854258086646420e-02,3.680269690053514925e-02,-5.565392337180953032e-03,2.487250417470932007e-01
3.327422184259396509e-01,4.666042579741573604e-02,5.017222158064384152e-02,-2.102764974777289724e-03,3.340143717085941252e-03,6.028799565349241864e-03,2.846159338951110840e-01
3.445128212202061557e-01,5.932474633201385850e-02,4.834145344739837480e-02,-7.111708454589610968e-04,7.903033915312853569e-03,3.359537662379257893e-03,2.912180125713348389e-01
3.410059844162876552e-01,5.383317976684351414e-02,5.233023671855299708e-02,-3.651087067369116704e-04,7.981770858173857508e-03,7.743412391246162936e-03,2.885714769363403320e-01
3.332830431109525815e-01,4.704404889073583729e-02,5.199832692593862882e-02,-1.453316172935848437e-02,-4.047821985827120515e-03,-7.547686339643147439e-03,2.852944135665893555e-01
3.313867416782059205e-01,5.387864903744558898e-02,4.213312909381891624e-02,-1.283104289344214576e-03,-7.655461691078514416e-03,-4.543579268436893220e-03,2.839909493923187256e-01
3.354563226092479034e-01,5.943977241356009078e-02,4.594608106285442972e-02,-1.067672895045352482e-02,-1.476398657102609598e-02,-4.924835706337442331e-03,2.848865687847137451e-01
3.171646391199801629e-01,5.996522661039185853e-02,4.295523939774710531e-02,-9.356052231668569863e-03,-1.690303497498641880e-02,-5.481311886995741608e-03,2.683760821819305420e-01
3.256567868474374294e-01,3.995979986422126817e-02,4.988847192993349500e-02,-6.120340547417741500e-03,-4.357846764032675957e-03,-6.340049530814429249e-03,2.813799679279327393e-01
3.135840092543759061e-01,4.303776664225947290e-02,4.044973933000653443e-02,-6.621849248757370569e-03,-4.485445106413918706e-03,-5.553968463206751874e-03,2.723721563816070557e-01
3.361309338863103235e-01,5.653374424971073509e-02,5.500097949983462353e-02,-1.483329321085027951e-03,-1.964187425886300886e-04,1.222485015918464669e-04,2.803787589073181152e-01
3.276358351724322215e-01,4.364864330886324140e-02,4.919990267719645538e-02,-6.985103630513689321e-03,-5.568681825748817218e-03,-5.851443861273028166e-03,2.818602025508880615e-01
3.314129707061129748e-01,4.806059764823646108e-02,4.635583886707023149e-02,-5.858050866470889241e-04,-1.657710864634219647e-03,-3.157609278179554068e-03,2.842775285243988037e-01
3.177341705305083419e-01,5.391809430903352074e-02,4.688681282439607911e-02,-1.157186553234662747e-02,-1.483183937342518084e-02,-9.664007881668783620e-03,2.698984742164611816e-01
2.997514493002861324e-01,3.006189768369173232e-02,5.793363932643452729e-02,-1.729028970418589745e-02,-5.389789417943811368e-03,-5.128523467240489637e-03,2.589507400989532471e-01
3.060892044084294605e-01,3.738793946170285154e-02,6.084571692900522799e-02,-3.021741757920059016e-02,1.181721231927652807e-03,-8.699841353707339284e-03,2.634730041027069092e-01
3.558857432665070153e-01,4.691907662020927683e-02,6.088109693403569167e-02,-2.487490283957111137e-02,-9.811389085971759447e-03,-2.353653246963939571e-03,3.057829737663269043e-01
3.275347560291609339e-01,3.875409901188706097e-02,6.458347880347217740e-02,-1.996387650820412307e-02,-5.771078209001989125e-03,-5.042691166139355065e-03,2.792387306690216064e-01
3.330300076792267472e-01,4.384888490286815987e-02,5.793207731358118728e-02,-1.264846886700996681e-02,3.437439437455860197e-03,-3.553128295467574468e-03,2.833808958530426025e-01
2.218882922349752485e-01,5.736619469193564996e-02,5.784078661195499182e-02,-5.724172413374212925e-02,-5.176063130521686706e-02,-2.695798038396826201e-03,2.118461728096008301e-01
2.775269098275232604e-01,4.856539277841898095e-02,6.469386656771396182e-02,-2.754160474508908149e-02,-1.803026010512638611e-02,-1.393089419880970577e-02,2.298343032598495483e-01
2.684064117577986686e-01,3.215069607087846226e-02,6.555796579969463966e-02,-4.606020786481934692e-02,3.061550140293964068e-03,-4.167182748002388505e-03,2.355525344610214233e-01
3.223163324513925176e-01,5.096127353272196514e-02,4.942418395301205469e-02,-6.784090867705755770e-03,-1.351511479814256067e-02,-1.254914068792839336e-02,2.742471694946289062e-01
2.498412115683748824e-01,3.585210733807517314e-02,5.474285107267644335e-02,-5.079557383174367752e-02,-2.558558055221264033e-02,-7.392763437349088480e-03,2.279784679412841797e-01
3.247213225851872664e-01,4.830926829372017561e-02,6.179709101746182209e-02,-2.971093092743049349e-02,-3.669855151177308511e-02,-1.211169840784083115e-02,2.828179597854614258e-01
3.139138993869454719e-01,5.141031177569126143e-02,4.052412720755846354e-02,-8.990121424927817115e-03,-1.596166391489240929e-02,-1.089780130487050247e-02,2.706425487995147705e-01
3.072193899423675267e-01,5.436509601233062428e-02,3.425801631433038341e-02,-1.515991236849957135e-03,2.242769836864900654e-03,-5.666089990115108846e-03,2.637082636356353760e-01
2.924134951657578751e-01,5.239117505703919098e-02,3.316383769154895855e-02,-1.754065843715476138e-03,-7.100911501332534195e-03,-7.700351455652047587e-03,2.508660554885864258e-01
2.836686476240666277e-01,6.162550491930132712e-02,3.002211550725931988e-02,-2.407487178415660485e-04,-1.457140297845385159e-02,-5.104506750483497370e-03,2.409036457538604736e-01
3.167821583087275239e-01,5.565671759470107449e-02,3.382442179081671108e-02,-1.860250723049250172e-03,-3.652355156513060683e-03,-4.703096161702846785e-03,2.729118466377258301e-01
3.162539049099361010e-01,5.749757076111604304e-02,3.144937708656861397e-02,-1.354563357128943640e-03,-3.705910382705027151e-03,-4.178829370720175268e-03,2.728966474533081055e-01
3.275919314081823241e-01,4.745070773912812845e-02,4.268283635669357923e-02,-3.854959150889592304e-03,3.320593280147212008e-03,4.195150659364241946e-03,2.827861011028289795e-01
3.268297158224624521e-01,4.726924929870732206e-02,4.307518890925675359e-02,-2.560735950642040746e-04,7.670488049128797213e-04,3.375011167886530876e-03,2.817450463771820068e-01
3.321666093522380736e-01,5.142576134137957777e-02,4.754613378037163274e-02,1.100576398361345241e-03,-5.294995110841417031e-04,9.680644048674095972e-04,2.827135026454925537e-01
3.314959056808982618e-01,4.986515548031274225e-02,4.324915518071333065e-02,-1.062322114472489306e-03,-4.739454117416186949e-04,1.999530208052599251e-03,2.850245237350463867e-01
3.323253970547707103e-01,4.816406791143096333e-02,4.490955519848102706e-02,-2.943658753104646717e-04,6.537809292284964139e-04,3.479632778990051582e-03,2.858687341213226318e-01
3.712668028525232256e-01,7.027513142378064015e-02,6.826941910022532589e-02,1.092986612717149197e-02,1.420810844635671732e-03,3.486935665101715924e-03,3.026625812053680420e-01
4.074556314654013134e-01,7.293710019371847653e-02,6.625426812915294339e-02,5.564418946951429391e-03,-8.126714959558776347e-03,6.754716947230775389e-04,3.383418917655944824e-01
3.384700019105338908e-01,6.522576842093248672e-02,6.312132883771533198e-02,4.626789622822271046e-04,-8.644477569312120037e-05,3.655866090962393237e-03,2.743768095970153809e-01
3.468594408697923126e-01,5.848548151728388822e-02,5.294592158884743605e-02,-1.174094832058829134e-02,-1.644575132244476684e-02,-4.964200039576455170e-03,2.934051156044006348e-01
3.387059270311344461e-01,5.950730027694298152e-02,6.531386265330962893e-02,-4.460387966249126294e-04,-1.532796954237999930e-03,-5.054468964120232763e-04,2.763563096523284912e-01
3.534122377025804562e-01,6.500058453510047796e-02,5.852218266072232999e-02,6.491475684392419496e-04,-7.151475508674411639e-03,3.384128353859267111e-03,2.920286655426025391e-01
3.182333405905385937e-01,4.896916456574131049e-02,4.685684803452148939e-02,-6.492919225658435288e-03,-1.078021224245647239e-02,-7.028051933560054351e-03,2.714769244194030762e-01
3.358520889719351921e-01,5.578991765011417914e-02,5.722330516875742679e-02,-4.374973051981012259e-03,-3.690008704012780194e-03,-8.448840105130398306e-04,2.795279026031494141e-01
3.380741641976605094e-01,6.122986890133971793e-02,6.157979510122139899e-02,1.702937192971666711e-03,2.956876137905041328e-03,-3.350428171419787132e-03,2.767934501171112061e-01
3.437429470747537241e-01,5.643187070160964047e-02,4.790347489885143917e-02,-4.641100853544602618e-03,-8.807125500434907772e-03,-6.122652469866130508e-03,2.923704385757446289e-01
2.921841423873102750e-01,4.002290846043653205e-02,3.751415762106401208e-02,-2.870627460955803636e-02,-3.481212989049608381e-02,-1.285131232435853497e-02,2.661342918872833252e-01
3.478712815234156208e-01,6.250777542416238730e-02,5.030616581773678098e-02,-1.402327999638177444e-03,1.691217225304625024e-02,-3.837319301713918232e-03,2.932085394859313965e-01
3.370535289689278735e-01,4.597663134693394382e-02,4.906171735278137824e-02,-7.004577675641589880e-36,-1.035649688903899886e-03,-7.548094245103687547e-04,2.895551919937133789e-01
9.252495027945287220e-02,5.731740660862086334e-02,5.420190684138308929e-02,-1.721177880267915627e-02,-4.564439291333636378e-02,4.762588146391762318e-03,9.255258738994598389e-02
3.564279465885415443e-01,5.813546022449185557e-02,5.689704512660055669e-02,6.316515770560587537e-03,8.298154653400896183e-03,-3.558077040590483433e-03,2.995222806930541992e-01
3.385513728765015551e-01,6.103262017373610460e-02,6.146985585298932186e-02,1.886444848293453852e-03,3.928646991151726713e-03,-6.812421739854441528e-03,2.776539325714111328e-01
3.452983097087127251e-01,5.928012934943052703e-02,6.062391752141910173e-02,3.133854464577438711e-05,-2.338064209473328381e-03,-1.317502136916364657e-04,2.853775024414062500e-01
1.138538515447583555e-01,6.140124914664664424e-02,6.212189317594897509e-02,-2.898817036689925464e-02,1.746165561722691495e-02,6.647904286676369762e-03,7.926063984632492065e-02
3.326545520796088118e-01,5.691131861123188695e-02,4.536838000054153885e-02,1.584967990688815548e-03,-4.045001292551190521e-04,-2.096604564932454725e-03,2.817297875881195068e-01
3.875030307468656510e-01,5.156783767551620379e-02,3.441544093715580288e-02,7.825316770701506650e-03,4.057377012564463564e-02,-2.959196051865176525e-03,3.522178530693054199e-01
3.160237378989512180e-01,4.481954606842315780e-02,4.837836266322285972e-02,-1.507662241714480093e-02,1.018237803000941223e-02,8.985468110666774283e-03,2.717248201370239258e-01
3.266989798727851779e-01,4.785275501177051194e-02,4.859052665102123192e-02,-8.945646413648712962e-04,9.339736272940696044e-04,4.013846083285807671e-03,2.785738408565521240e-01
3.266770681996805092e-01,4.359668503384149518e-02,5.283676231077995278e-02,-1.555893649450391285e-03,2.262276982104245281e-03,7.326729954532359979e-03,2.789047360420227051e-01
3.066210546790468783e-01,5.805660564430355219e-02,3.837684014117363762e-02,5.008854540832828259e-03,-1.093066836558086695e-02,5.532775461108134507e-03,2.599784731864929199e-01
3.180658010583981010e-01,4.813829962804463958e-02,5.069142375333439421e-02,-2.197867872333164304e-04,2.869001634856400886e-03,7.482928874416462650e-03,2.690186500549316406e-01
3.384756897300205680e-01,4.718757597912658086e-02,5.077022992511869004e-02,2.956353314585523535e-03,1.016306196158568362e-03,-3.762139974453915844e-03,2.896373569965362549e-01
3.164788251512434814e-01,5.184672819806754318e-02,4.722433856532684548e-02,3.967714387078122816e-03,1.033270312979313668e-02,-7.480636696963487500e-03,2.679741680622100830e-01
3.269335261423934602e-01,6.200645069054717962e-02,3.752205243746963015e-02,1.852125899761462424e-03,1.336453818036951492e-02,-4.026805577876487602e-03,2.790469229221343994e-01
3.146783932951695006e-01,5.805899199996504556e-02,3.442005088536290169e-02,7.397360844824250013e-03,1.488148603000687478e-02,-4.708356029282048487e-03,2.708755731582641602e-01
3.179891619653497647e-01,6.086082027603775813e-02,3.849703284336163100e-02,2.601710330240882083e-03,4.821267387132693698e-03,-2.503443310235883151e-03,2.692105770111083984e-01
3.339718124787544040e-01,6.111381373614187262e-02,4.000915288542312986e-02,4.696460981152839921e-03,8.756970478457070176e-03,-4.171752700740089144e-03,2.846118509769439697e-01
3.382452003280813635e-01,5.683891733381928046e-02,5.665801021951899497e-02,2.946241909117237271e-03,-1.450571010194660329e-03,-4.241165598801902026e-03,2.816500663757324219e-01
3.489979782882225434e-01,7.272016261319443065e-02,6.500029074829009879e-02,6.819205788178712459e-03,2.508673330656378906e-03,5.053603988840790762e-03,2.806365191936492920e-01
3.466204956733469622e-01,6.072359490720839748e-02,6.486828495486751667e-02,3.870125015300590198e-04,-8.811673132119212173e-04,1.251031224153909297e-03,2.838604152202606201e-01
3.519486635043697076e-01,5.307611673789608409e-02,5.048651476065248167e-02,-1.001289242161805537e-02,-1.342414740169980622e-02,-8.020491566073362916e-03,3.018937706947326660e-01
3.995666378581220757e-01,3.564104800696779596e-02,5.359476209556415793e-02,6.914241745142413707e-03,4.281734248862676707e-03,-1.028974427311310155e-02,3.560146093368530273e-01
3.505524185035581164e-01,6.485443513836382234e-02,5.919349830087772268e-02,-2.765022957753339537e-03,-5.475265832013680167e-03,1.332901637588487700e-03,2.887748181819915771e-01
3.764806047836979364e-01,7.064628692472685323e-02,6.543009882139645683e-02,3.389023690704589132e-03,5.970210658112184640e-03,1.963357101257376391e-03,3.087233006954193115e-01
3.138072861587051232e-01,6.358037940754797390e-02,4.189472023144200086e-02,-3.703365176656502489e-03,-1.979149429171182112e-02,-4.588208210414471307e-03,2.641770541667938232e-01
3.197924548149082558e-01,5.440307048886905417e-02,3.557579845277408781e-02,-7.756640562640498837e-03,-1.576453978359505792e-02,-6.995112091078430766e-03,2.772280573844909668e-01
2.815496918252263781e-01,5.732762546758719824e-02,3.326472666444331427e-02,-1.916583035686838035e-02,-6.616747673687185805e-02,-8.120562228321415166e-03,2.658650279045104980e-01
3.041705459473794115e-01,5.972471694088916927e-02,4.104317783574029654e-02,-1.805571852231743421e-02,-5.797558020541164481e-02,-8.225223266144839063e-03,2.755610346794128418e-01
3.208544128717234489e-01,4.849412053139191825e-02,4.128451875181514408e-02,-2.896690160344716179e-03,1.626593447106631412e-03,4.473182795487314935e-03,2.762043774127960205e-01
3.162140146247222061e-01,4.473868192190191828e-02,4.876610333591473168e-02,-6.579226925082252639e-03,5.942866200249633489e-03,8.793991706161175675e-03,2.703507840633392334e-01
3.341963091592227153e-01,5.103000866948061154e-02,3.782300401481603069e-02,-2.633834453243843652e-04,4.081263440047991223e-04,-2.839537508997131820e-03,2.900383770465850830e-01
3.154435283638191145e-01,3.773811960597726889e-02,5.613668179302777617e-02,-3.273260983348935324e-03,1.973154798771698925e-03,4.073435763596876084e-03,2.691524028778076172e-01
3.165577446759721414e-01,3.788426932772419320e-02,5.143895309516241521e-02,-1.445038246539698951e-02,8.258485539788855412e-03,7.421541740016163180e-03,2.739737033843994141e-01
3.294138628977735239e-01,4.638199868709344531e-02,5.522221220903007766e-02,-4.311700661974088300e-03,4.988750205717669590e-03,6.321263519602069413e-03,2.791655957698822021e-01
3.155058666496913244e-01,4.222543836476368162e-02,4.988621034286878919e-02,-8.452278990411950937e-03,6.277677398583192230e-03,7.229063958420927673e-03,2.704379260540008545e-01
3.141538500709679660e-01,3.639081593049355023e-02,4.831107033483840463e-02,-3.561026992394988357e-03,3.351847730870854102e-03,4.618152180171016495e-03,2.722482681274414062e-01
3.194286333834829850e-01,5.757904462293400583e-02,4.934100454920456458e-02,7.688616223762197686e-03,-6.043109847021507254e-03,8.299951618154190885e-03,2.669902145862579346e-01
3.415455895316534263e-01,5.779744278665972790e-02,6.130350802657442977e-02,-2.254322187589958334e-03,-3.790621547304844335e-03,4.734678552723225401e-05,2.821149230003356934e-01
3.124124341439666885e-01,5.971487147528110884e-02,3.494191006518218567e-02,-1.113000822698524163e-03,-1.069065942464410973e-02,4.905894753404587035e-03,2.667369842529296875e-01
3.423261080109479826e-01,5.575290302351307292e-02,6.017646692372025097e-02,1.777887948057855442e-03,3.897174408248704151e-03,-3.272651375757783514e-03,2.845404446125030518e-01
2.956559203550481740e-01,5.837958129411602304e-02,4.588473681403727744e-02,1.287453055228615813e-02,-2.062796661625258474e-02,1.345908487173930711e-02,2.484716325998306274e-01
3.465436820572818100e-01,6.004094224635030119e-02,6.579453649105003465e-02,2.273395078184948636e-03,1.728119440256305770e-03,-1.416136924012888524e-04,2.837129235267639160e-01
2.186362872783334799e-01,6.838846223767196253e-02,5.249572065589884484e-02,1.533947268860466791e-02,-3.279504644325093726e-02,1.176167437605131309e-02,1.719368845224380493e-01
1.934069396916791583e-01,6.303155510411825868e-02,4.996106848137534667e-02,3.033090894345059560e-02,-2.985506039680759990e-02,9.669147343944516429e-03,1.568024009466171265e-01
2.225525039675385064e-01,6.583567855279001679e-02,4.542873347274209439e-02,1.176527671919318750e-02,-5.468363689830425117e-02,7.766077478981428008e-03,1.942725330591201782e-01
5.444595360155570773e-01,1.006546203110847693e-01,6.904153897630591064e-02,1.293633636926856158e-02,-2.111658624746528753e-02,-2.046590348487536612e-03,4.624333083629608154e-01
2.550448833790126546e-01,4.543342625048306382e-02,6.904249148568850081e-02,-4.753941936131598350e-02,5.248839249865927536e-02,1.571573713178024342e-02,2.352268248796463013e-01
2.808154502944392727e-01,5.716638690519501576e-02,3.899276717786170909e-02,-1.493598503214930637e-02,3.610703171575205955e-02,9.860186905089499826e-03,2.434867024421691895e-01
2.890184349863036406e-01,5.677836863969047687e-02,4.232754334775370997e-02,-1.137499427282286091e-02,4.106079660400447501e-02,1.465483187685872636e-02,2.521720826625823975e-01
3.107605367630211779e-01,5.962689863388415112e-02,4.421288566623496341e-02,-1.688214565300193842e-02,3.115019905249093168e-02,8.509667319489025786e-03,2.667582035064697266e-01
2.630802321165184310e-01,4.864720622789614479e-02,4.841642047417422934e-02,-4.094877089856373276e-02,1.400266800351547200e-02,1.427829542202312292e-02,2.286073118448257446e-01
3.684545204169826782e-01,5.754270342352624246e-02,6.062266187210701984e-02,2.211614110817081147e-02,2.013484866824373845e-02,-5.120288879540114101e-03,3.138157129287719727e-01
3.270331466824066280e-01,5.321436653474310996e-02,5.213319011891966170e-02,1.478478088041636218e-02,1.658524382396841731e-02,-2.921423632784712898e-03,2.770929932594299316e-01
3.356330401216485737e-01,5.414101562433670800e-02,5.579249245884278230e-02,1.393732222367523310e-02,6.985538183283106911e-03,-3.265886302344766373e-03,2.820225954055786133e-01
2.912613640628683442e-01,4.565757172918856466e-02,4.333743280729361602e-02,2.764088632574421625e-02,3.556133484745608447e-02,-1.345123475651419966e-02,2.598559856414794922e-01
2.866993648944189399e-01,4.154227033422168425e-02,3.505227062495555601e-02,3.023805349626747935e-02,3.059869356112143030e-02,-1.061432301952642751e-02,2.600481510162353516e-01
3.278677485747651388e-01,5.062457933452123304e-02,5.086585316994772510e-02,1.563063735766838727e-02,1.500420990742391131e-02,-6.733250177372666553e-03,2.798951268196105957e-01
3.142051044697365958e-01,5.274689455611118738e-02,4.624954607655085148e-02,1.697506444059644626e-02,2.056004510923238257e-02,-6.840596718030755516e-03,2.690248787403106689e-01
3.560734853447929948e-01,5.501953124316766308e-02,4.966852505199681467e-02,-3.589665453731150785e-02,-3.283756011857626167e-02,-9.250531821548085842e-03,3.156428337097167969e-01
3.423889264121980358e-01,5.884853372902175417e-02,5.497383860100930886e-02,-4.302386367493509422e-04,-4.991409631835033549e-03,-2.216497210190206818e-03,2.856551110744476318e-01
3.941362871558229397e-01,6.172736938267948947e-02,6.319137911537960062e-02,-2.894924494740259285e-03,1.600651162282567836e-03,-2.413741665999917605e-03,3.317551612854003906e-01
3.545785274661790165e-01,6.064966484097288058e-02,5.928123348807877446e-02,-1.206897722847523552e-03,-5.396020162676153434e-03,-2.710538227259605415e-03,2.948084771633148193e-01
3.428833135124405018e-01,5.764465044004847549e-02,4.607721645045659287e-02,-2.745105882106787208e-03,-1.199961914306531784e-02,-4.944053369525168613e-03,2.920998036861419678e-01
3.356751533741334503e-01,5.196053000226759366e-02,4.916038863439196882e-02,-4.689321419418581230e-03,-6.069110823766159409e-03,-5.157475836257622952e-03,2.855740487575531006e-01
3.309522475969257638e-01,5.254334278816301385e-02,5.102229964763414782e-02,-1.671959376079900283e-03,-2.564487777958642228e-03,-2.477025818778625516e-03,2.792558372020721436e-01
3.316298836569219199e-01,5.127961457812764412e-02,5.405388996755378095e-02,-2.482894776045427819e-03,-1.574141456831481319e-03,-2.479467949757688684e-03,2.790530025959014893e-01
3.229590323634782822e-01,4.982695015610079381e-02,4.308078155704209156e-02,-1.322161882460541268e-02,-2.667358616533338153e-02,-1.224190209677349442e-02,2.821306586265563965e-01
3.356736079251201321e-01,4.583492570368777330e-02,5.160078784545059361e-02,-1.608129874770903092e-02,-1.296552880689971765e-02,-7.474540709247023094e-03,2.895104289054870605e-01
3.352740298677168163e-01,5.450555858303234025e-02,5.928231894157477699e-02,-5.757944761185726512e-03,-1.480307129901745978e-03,-7.555697791855883272e-04,2.786042690277099609e-01
3.316351079260317913e-01,4.322144041493733435e-02,4.952032565241745732e-02,-6.691946589647014207e-03,-6.352854856142320893e-03,-5.334601791359390791e-03,2.859129905700683594e-01
3.369819224588868067e-01,5.599325515352482352e-02,5.461754385881349705e-02,-1.427868259144171289e-03,5.251430296500808354e-04,-7.866810578107211746e-04,2.816946506500244141e-01
3.363166509343606947e-01,5.827677448712212382e-02,5.618344760733531840e-02,-9.396825441302076405e-04,-1.771113883920283263e-03,-1.049295898242486470e-03,2.791199386119842529e-01
3.351989733370770441e-01,5.948366893948539569e-02,5.843139126416842244e-02,-7.982392944873527556e-04,-2.303923044618366982e-03,2.215894124725193380e-04,2.762754857540130615e-01
3.350974230976348500e-01,5.944343195384073353e-02,5.887473273893505110e-02,-9.301985607943348252e-04,-8.132078315280634549e-04,2.306412372171548443e-04,2.759473621845245361e-01
3.362664264401860059e-01,6.138115388760230495e-02,6.214517003904591885e-02,-1.580826504031994546e-03,-2.073984152365332227e-03,3.206446616148346160e-04,2.745417952537536621e-01
3.064698783291148199e-01,3.670524594770478710e-02,6.233021656900769591e-02,-1.961148175637453250e-02,2.587178921915411940e-03,7.210900999489660429e-03,2.604741454124450684e-01
3.349753026078643448e-01,5.708028621670237224e-02,5.742765433055160851e-02,-1.459141349909867744e-03,-2.385533267302858244e-03,1.025957682058242868e-04,2.777637839317321777e-01
3.338262227480508493e-01,4.152628287704016041e-02,5.623944345355122443e-02,1.022997274629294275e-02,-1.207736031911035715e-03,4.038010511280598451e-03,2.858711779117584229e-01
3.257474098608699187e-01,3.493601569241142069e-02,5.602641515267119121e-02,4.047494976584065465e-04,-7.923407122964282135e-04,2.517508916565825740e-03,2.808987796306610107e-01
3.293760317742013832e-01,4.210374564226342098e-02,5.851036286347219284e-02,7.655887053571960345e-04,7.152292661570296356e-04,2.247513552858558441e-03,2.794634699821472168e-01
3.257875288729405461e-01,3.746636536622914571e-02,5.318725735225685036e-02,-1.329168800355992090e-05,-4.167155401895465878e-04,1.263905636198567415e-03,2.808004319667816162e-01
3.266498276357405750e-01,3.740317034331347434e-02,5.270425711415517578e-02,2.344860924019075924e-03,-6.343857959330634951e-04,4.530983539293056972e-03,2.820483148097991943e-01
3.343915345238072101e-01,6.010999447547837882e-02,6.152701119309911260e-02,-1.402278939300005689e-03,-2.656033721754345119e-04,1.996220603980111957e-03,2.736088037490844727e-01
3.310896962312798175e-01,4.322041564454208451e-02,5.092957874731955659e-02,7.765726109374006085e-04,-1.285473885102919427e-03,2.238218557976030115e-03,2.841315269470214844e-01
3.383518499066046070e-01,4.405669574814939649e-02,5.246213928464817100e-02,5.620432973194579469e-03,1.374063128017728600e-03,5.172110314605573092e-03,2.904949188232421875e-01
3.120200393426793561e-01,4.933925567624485031e-02,5.405716560815007621e-02,1.442916289890138794e-02,-4.265667928374158044e-04,2.800486829065821671e-03,2.615966796875000000e-01
3.703822494517208241e-01,5.786326587975487712e-02,6.320389386590088976e-02,1.850618463342685108e-02,-2.900502448781894140e-03,1.845773737511034436e-03,3.115934729576110840e-01
3.351039665271466905e-01,5.697126766238898299e-02,6.024810506900891982e-02,9.348001343492768830e-04,2.447559523029042687e-04,7.706601614318479756e-04,2.765171229839324951e-01
3.486564195974716784e-01,6.356635607644368913e-02,6.752490580312048296e-02,1.057851670630476559e-03,2.544595709568836712e-04,-3.191167587517508997e-03,2.831917703151702881e-01
3.332982972445113212e-01,6.828320902429567407e-02,6.513456233248535177e-02,6.248586814109301224e-04,-5.467557740439475146e-05,-2.282197481721178704e-03,2.666348814964294434e-01
3.651829901294090797e-01,6.132404441553737651e-02,6.838149541231758333e-02,-2.037753574413229008e-03,9.139617957176857793e-03,-6.338056344469696589e-03,3.010301589965820312e-01
3.385947744839072349e-01,5.344104961826091904e-02,5.627851033983403972e-02,1.205461801259342415e-02,-1.137249517401867603e-02,6.057782725490771895e-03,2.853868007659912109e-01
3.549990317788022098e-01,6.138418865769279531e-02,6.414413048179601340e-02,6.420001757127504621e-03,-3.622823880886786967e-03,-4.346406691257573241e-04,2.925243973731994629e-01
3.336366713106826420e-01,5.535202130755464967e-02,5.882570369993599113e-02,7.370339659424197595e-03,2.472149223853831179e-03,6.109577483138422865e-04,2.768937647342681885e-01
3.056296552561506563e-01,4.130420067705359299e-02,4.683364945654178157e-02,2.950429605745948786e-02,-1.902196680656957281e-02,8.968624534275795174e-03,2.690265178680419922e-01
3.068284501985570900e-01,4.234938433789105228e-02,6.206947028986102566e-02,2.481703050573301483e-02,-1.334295634374339790e-02,1.031364912928601531e-02,2.604292333126068115e-01
3.216831933146004907e-01,4.995772729861368278e-02,5.948802836346241130e-02,1.611739492337541449e-02,-1.813686053350335985e-03,2.041168693407221287e-03,2.685844600200653076e-01
2.877710605850674064e-01,3.696171680461150799e-02,5.604973197662839468e-02,8.915471934644491475e-03,-1.959129984905423703e-03,6.887899736042827660e-03,2.426407337188720703e-01
3.135737449219512252e-01,2.972697372112050040e-02,5.702476948233947684e-02,-2.888204663933608730e-03,2.366716663446315292e-03,1.014517037779103783e-03,2.713128924369812012e-01
3.144394081287684717e-01,3.480949754627542247e-02,5.379279961611947714e-02,7.198859093846359664e-03,-1.617455541210788706e-03,4.382525172791018435e-03,2.710459232330322266e-01
3.363461993751661328e-01,4.495163514897719537e-02,6.625920366941405459e-02,2.638800334193697195e-02,-8.528847909386665788e-03,9.515139973552938502e-03,2.858928442001342773e-01
3.269353792617435417e-01,4.396103882061923318e-02,5.820538618936572928e-02,1.415448182776701987e-02,3.257603824231748366e-03,-1.276751258511239556e-04,2.772715687751770020e-01
3.224812509493527046e-01,4.304179447133690828e-02,5.582966126392865935e-02,1.401927938292826283e-02,-2.884394339952395855e-03,9.361687389005581700e-03,2.748709022998809814e-01
2.882330164001373207e-01,6.090391946610046459e-02,3.701707518880253955e-02,6.376815171564222985e-03,1.040620106150709490e-02,-7.899145728738846822e-03,2.414815127849578857e-01
3.372495442546527000e-01,3.513035181472301538e-02,5.791526554413849170e-02,1.307194688647957646e-02,3.689294354564017549e-03,-4.792823196741182682e-04,2.923449277877807617e-01
3.492428131020172133e-01,5.835760872839212965e-02,6.463760824419845230e-02,7.772425218093046784e-04,-1.895598113673955957e-03,-2.420950173816032965e-04,2.878187894821166992e-01
3.508352193932836594e-01,6.017394453807903276e-02,7.238777894882673924e-02,3.747752401682568311e-03,-1.166774214911026888e-03,1.005297301994880757e-03,2.848373651504516602e-01
3.401846677927296558e-01,5.913100875327792494e-02,6.037825102849124492e-02,3.704682394777501862e-03,-1.133379854843146947e-02,1.966028941177140436e-03,2.812122106552124023e-01
3.462981348876817966e-01,5.615843067204469297e-02,5.796602166115198684e-02,3.028284049802324601e-03,7.549188500552680764e-04,1.939463399886589602e-04,2.892908453941345215e-01
3.495352486696224892e-01,6.084738445675655361e-02,6.527270672656466932e-02,1.144878659118219420e-03,-1.845558161917797277e-03,-1.681319378546812380e-06,2.865255177021026611e-01
3.460188575983033088e-01,6.058666729928405270e-02,5.980687989414994188e-02,-3.909025200341212369e-03,8.924153153158792279e-04,-6.326573827290042076e-04,2.859093546867370605e-01
3.375079781956630276e-01,6.205966445730032310e-02,6.529959339501750781e-02,-4.057564665902143913e-04,1.509005537205198623e-03,2.449284728485480195e-03,2.738889455795288086e-01
3.366803932988277070e-01,5.502976251171923239e-02,5.292532649725260885e-02,-1.120782952389471395e-03,-6.711008779002348166e-04,2.368406794418038606e-04,2.827180624008178711e-01
3.324961524171409777e-01,5.214844280532858478e-02,3.813429639038032337e-02,-5.481801288487782829e-03,-9.144740110277532058e-03,-6.015854301996891203e-03,2.883915305137634277e-01
3.184219518569193497e-01,4.223756118419808026e-02,5.535060650515770397e-02,-2.987671675187684658e-02,-2.493602780819074646e-02,-8.699570779675385238e-03,2.785650193691253662e-01
3.347303333535732728e-01,4.959994597257431914e-02,5.770525946552107488e-02,-3.471295678641724957e-03,6.846065389165185457e-04,-3.828823828927461689e-03,2.813103199005126953e-01
2.542620539147379954e-01,5.573483325179723336e-02,4.839827059142057242e-02,4.292285294912139698e-02,-6.146898623737860612e-02,7.962349282395685471e-03,2.407820820808410645e-01
2.222623935944765816e-01,3.719162208595952479e-02,5.536800194417890869e-02,2.282705439797340710e-02,-2.405256964215554683e-02,9.259019126328239813e-03,1.864769309759140015e-01
2.563607896879767645e-01,5.072525439151957805e-02,5.242940796138086113e-02,3.974217400267181927e-02,-6.315286289412892773e-02,8.157500515596353627e-03,2.425721585750579834e-01
3.037746049730810083e-01,4.033510224178384063e-02,4.983812354028917257e-02,1.454204628796056456e-02,-1.147910262771014399e-02,1.024237891297689017e-02,2.614032328128814697e-01
1.823286564769405760e-01,8.300972109263465848e-02,7.407216762193555293e-02,1.692273350108556076e-02,-1.704212114704450540e-02,6.990659006057016629e-03,1.127335131168365479e-01
1.840456107373451278e-01,7.264576439168043964e-02,6.895823694177630192e-02,-1.248802552068260449e-02,-2.823362855491910392e-02,2.751132028723515636e-03,1.253646165132522583e-01
1.817518694130570156e-01,7.350509476865950409e-02,6.972726957546962478e-02,-2.302010654560396677e-02,-2.410326064802799026e-02,1.503087018975352279e-03,1.244187653064727783e-01
1.345055457354871753e-01,6.024863163493994478e-02,6.116966584943226565e-02,-2.435047608244920656e-02,-3.469529506934670993e-02,1.851724093607612451e-03,1.041487306356430054e-01
1.999421199499300805e-01,8.137027610943325939e-02,7.449872358942032091e-02,2.352608630102709375e-02,-2.751334679677979594e-02,9.945699815703579888e-03,1.383813768625259399e-01
1.126510158781673099e-01,4.198934478277624449e-02,5.443672650241847960e-02,-9.130555308131251685e-03,-4.496697836302651630e-02,7.458610175093857014e-03,1.036896184086799622e-01
3.242694280049589484e-01,3.633022188702042521e-02,5.503162366642413983e-02,-7.868457637741455707e-03,-1.143658747925643164e-03,-4.766371097054316122e-03,2.795204520225524902e-01
3.091904771043322286e-01,3.723494963805497326e-02,5.071216608733963849e-02,-6.401133723813649465e-03,-1.848689869134080609e-03,-6.728145875342403208e-03,2.659797370433807373e-01
3.157688485059118033e-01,3.681649946303193477e-02,4.983943545666712216e-02,-9.833180960482933164e-03,-1.246139701804933886e-02,-7.705592478263916141e-03,2.743816673755645752e-01
3.260558841854235279e-01,3.438731946214992896e-02,6.023369905592254603e-02,-8.789702435211205547e-03,-5.020241243326926256e-03,-5.366441755097528347e-03,2.803458571434020996e-01
3.230538648353767361e-01,4.043217807091799287e-02,5.227771047498711021e-02,-6.092174578289976349e-03,-2.495324999709454695e-03,-4.990871332647281271e-03,2.772585153579711914e-01
2.974638418327247291e-01,7.060318453769523495e-02,3.594517143626350941e-02,7.656613344727276720e-03,-2.195953449038753544e-02,1.337469237684226885e-03,2.493138164281845093e-01
2.583210320528997461e-01,6.608938636826974800e-02,3.193305520832062649e-02,3.976290543287691256e-03,-6.459083268432232183e-02,-5.673540323706822985e-03,2.394692301750183105e-01
2.236864618619923140e-01,6.499152787241738172e-02,4.777786315033796805e-02,-1.049635488209782214e-03,-6.942911452730453348e-02,-2.719786958872722621e-03,2.066369205713272095e-01
3.367409971565994420e-01,4.472241191443269981e-02,5.058949084055582024e-02,-8.157684847295025490e-04,-9.663022742561967922e-04,-1.280766290911731576e-03,2.891465127468109131e-01
3.033357839551560908e-01,6.415778400279617544e-02,3.643263758713864708e-02,-5.025581165961076147e-04,-1.504495846585520921e-02,5.250214992130717434e-03,2.556727230548858643e-01
3.365686528348792450e-01,5.316711187999423327e-02,5.332212295468059804e-02,8.884287494200660690e-03,-5.485901416718989669e-03,4.238532227814222932e-03,2.839955985546112061e-01
3.179044856775805061e-01,5.092641206772891005e-02,5.202245063044559636e-02,8.469170136608151697e-03,-7.381687641793418381e-03,6.541832934474451841e-03,2.673815786838531494e-01
3.386854191996422347e-01,5.230014864589764556e-02,4.729614904115644891e-02,2.415636134346101083e-02,-1.987933049141665451e-02,1.032569602017913493e-02,2.945006787776947021e-01
3.470364370383465791e-01,5.361175830586667468e-02,5.568192534172830555e-02,1.015728481387867012e-02,-2.698846184184702443e-02,3.472864114497012985e-03,2.966912686824798584e-01
3.193824447697404256e-01,4.679527167323489778e-02,4.960354603384446726e-02,8.554329931018960984e-03,-1.100704048548020036e-02,1.131962051496383619e-02,2.729716897010803223e-01
3.129962337214436952e-01,5.322162318463113939e-02,3.273946673700053878e-02,1.350103161369245811e-02,-2.903710002079710334e-02,9.344964794011806700e-03,2.766972780227661133e-01
2.838332221178220260e-01,5.620073753987864240e-02,5.778230858377762791e-02,3.103132120441548167e-02,-8.296634083322755593e-02,-4.083409662859926320e-03,2.739491164684295654e-01
3.525501781453401207e-01,6.141235826372898332e-02,6.286645756804801199e-02,9.709045263794437218e-05,3.257121728878696983e-05,4.306805911455457796e-04,2.904145121574401855e-01
3.376775613588418601e-01,6.173505192840941791e-02,6.302452854879159183e-02,-3.350681672948939188e-04,-1.134571909897737251e-03,1.106219118615402305e-03,2.753143310546875000e-01
3.361296035395715531e-01,6.510896031616379698e-02,6.043742492482230555e-02,-4.945075091831249584e-04,-9.115163509449233144e-04,1.013944256430489169e-03,2.733978927135467529e-01
3.393182309753575154e-01,6.546022323165050227e-02,6.887977735095671128e-02,-1.659087712021581080e-03,-2.072723781973676623e-03,3.452627588329342922e-03,2.722688615322113037e-01
3.349452874231463317e-01,5.023488152732336065e-02,4.609324752496070376e-02,-1.100345430448689682e-03,-1.218329944541800226e-03,-4.151550722205676718e-03,2.869078814983367920e-01
3.436484920040028257e-01,5.880498584474239121e-02,5.637989306599572314e-02,1.786935378711112079e-03,-2.051475321962860972e-03,-9.039837304084530887e-05,2.861026227474212646e-01
3.671377311487163397e-01,6.352042533346077824e-02,6.646845396755331203e-02,3.515570901676777493e-03,9.013436403918308193e-03,6.446131673162446701e-04,3.026204407215118408e-01
4.023151671537797958e-01,6.585778331086822313e-02,7.264786132402691055e-02,9.238724647628853565e-03,1.466170708325106528e-02,3.974065695624792727e-03,3.345346748828887939e-01
3.750876829753481689e-01,5.853927059123820165e-02,5.675446667048247851e-02,1.512488130161661858e-02,5.864829007735999157e-05,5.979848840371133206e-03,3.186920583248138428e-01
2.724923366794052004e-01,2.927932778505057398e-02,6.142193190154340149e-02,-3.480786104418016891e-02,-1.284704989656747925e-02,-3.394149461257582861e-03,2.377660125494003296e-01
3.358029575999871286e-01,6.007488738390205640e-02,6.000273927319983713e-02,-1.983457242736559687e-03,-3.896403248987561577e-03,1.174359311772582614e-03,2.758755981922149658e-01
2.665105800285410553e-01,4.394256082812209030e-02,7.055563409930443175e-02,-2.898673265982006780e-02,1.555022151136013775e-02,9.305842045635571644e-03,2.186949402093887329e-01
2.645735166336047328e-01,3.058714109248962532e-02,6.192499683073249966e-02,-3.277531806093230554e-02,1.226858049058594455e-02,2.461919557925701645e-03,2.282355278730392456e-01
2.651375429735026712e-01,4.249352257405231148e-02,6.974005253449210018e-02,-4.681372736399803947e-02,-2.836416449294589404e-03,8.461061588810247711e-03,2.259644567966461182e-01
2.626391000864072289e-01,3.005977328138396965e-02,6.207767791310765670e-02,-2.570359967241047511e-02,-5.051732662053602663e-03,-5.783263987602107158e-03,2.232274860143661499e-01
2.526687638413420700e-01,4.509401695746030614e-02,6.963963331864619910e-02,-1.796371092701118041e-02,-8.431482925669616171e-03,1.093196168702587328e-04,1.994394659996032715e-01
2.147555692533838489e-01,4.298790792147888506e-02,6.427649770268795137e-02,-4.363290359436301780e-02,-7.908881126055936073e-03,-3.940927540987091381e-03,1.795727610588073730e-01
2.848308654122044259e-01,6.058021161728217863e-02,2.721926387615468401e-02,8.847567514304694944e-03,-5.422562515605457850e-02,1.163410013380080169e-03,2.606581747531890869e-01
3.357240849488064560e-01,5.779674276792920451e-02,5.124322957550142554e-02,1.034349406567460633e-02,-6.947303550788489629e-03,4.789033466409997261e-03,2.822100520133972168e-01
3.503188641535699421e-01,5.292811585690222753e-02,5.415276181744853312e-02,2.205149260618958357e-02,-1.327833212578211249e-02,8.358114430843202949e-03,3.004594445228576660e-01
3.577914748970882353e-01,5.510879224243092622e-02,5.668442856558877918e-02,2.053720167772973143e-02,-1.075343699751707405e-02,7.825914467474385378e-03,3.048579096794128418e-01
3.377225279802120728e-01,4.865145354406466560e-02,4.332727035714332986e-02,-7.530855995185312991e-04,-9.116930649145907253e-04,-7.852176322682398804e-04,2.917799651622772217e-01
1.690627060429157891e-01,5.174490516153415487e-02,5.758594503664022507e-02,-3.970204266470386822e-02,-3.025401748427787238e-02,-8.290174538677795926e-03,1.441984027624130249e-01
1.918237059306182601e-01,5.265509160017441820e-02,6.146230100209799929e-02,-4.641535910802111614e-02,-2.401223284240371417e-02,-7.576737401372126562e-03,1.630488336086273193e-01
2.446142568771094150e-01,5.148991659754549588e-02,6.946248839034487033e-02,-2.080167748125814550e-02,-1.125788266855716133e-02,-6.816188094943773264e-03,1.896491795778274536e-01
2.647508364309112405e-01,6.009544856747926767e-02,4.811687112497428642e-02,-1.604823256079097177e-02,-2.942046017494316310e-02,-1.286224734715767613e-02,2.198736816644668579e-01
2.515470090522643476e-01,4.322778843079425060e-02,5.614176786238446459e-02,-4.968515072110813585e-02,-4.637583500373223394e-02,-1.394810985954796252e-02,2.351915985345840454e-01
2.472025330594264658e-01,4.201982222361660968e-02,5.470699543545883003e-02,-3.109639332703734854e-02,-1.674417728683966558e-02,-1.196353184850207710e-02,2.093541473150253296e-01
2.450505895385442778e-01,4.308075127692449768e-02,6.089563212492662275e-02,-3.091914617731023746e-02,-1.808197598153362534e-02,-1.291361014004818383e-02,2.045977860689163208e-01
2.951377922617902660e-01,4.493140418045150908e-02,5.355438406558674092e-02,1.480629388822943433e-02,8.130359296401098307e-03,-1.056622727421991335e-02,2.484169751405715942e-01
3.320038299292078499e-01,5.328842910008693701e-02,4.765717276182562800e-02,9.086741392513336842e-05,1.248825858953618584e-03,-7.229005646059712825e-03,2.818598747253417969e-01
3.328334038150851382e-01,4.745999237210830890e-02,5.119790996451428766e-02,1.449740119098150539e-03,1.651789353592993017e-04,-3.457909653833086960e-03,2.835974395275115967e-01
3.376890352635733006e-01,4.901498858539414527e-02,5.128923564763518406e-02,-8.375544886740744158e-04,-1.680517231572321727e-03,-4.781605063576327766e-03,2.876813113689422607e-01
3.400769552273235075e-01,5.133517807069894190e-02,4.939166608380228529e-02,-1.432753192592312692e-03,-7.492454228402013836e-04,-4.283979112460398024e-03,2.898269593715667725e-01
3.332979254572283612e-01,5.381344452220200580e-02,5.551551245268067369e-02,-4.667695765962090004e-04,-1.274172711134260701e-03,-1.498841665084113539e-03,2.786593437194824219e-01
3.107315602884394012e-01,5.263060252856623100e-02,3.900264984492314568e-02,3.742621228476418569e-03,2.720232508778220887e-03,-7.404131052666740320e-03,2.656085491180419922e-01
3.002884007930400889e-01,4.940023414727080786e-02,5.750260883915209176e-02,-1.671032622567533710e-02,1.070541192868391424e-02,9.549319638738795052e-03,2.498656064271926880e-01
3.066966240787043496e-01,3.376005986635850775e-02,5.968765254448869795e-02,-4.784992194051345370e-03,6.422625424535809667e-03,3.562392170106074354e-03,2.613819539546966553e-01
2.928442217219026089e-01,3.903169227245313622e-02,5.495230732525106798e-02,-4.601803010646702413e-02,3.321650196029012070e-02,1.152840774345048960e-02,2.658855319023132324e-01
3.392839480691978160e-01,5.101782785584807467e-02,6.284076441162098070e-02,-9.678537394796031881e-03,1.017457587677687847e-02,4.704330862326230878e-03,2.837022542953491211e-01
2.630254204090065606e-01,2.934697203613254035e-02,6.448043510742158813e-02,-2.854418810386761748e-02,-3.703221959071648084e-03,-9.462048568264810455e-04,2.238709032535552979e-01
3.238516108259748560e-01,3.434433840851058850e-02,6.119068180423246905e-02,-2.357492841551134602e-02,-2.543497688256974882e-03,-3.054483033744535142e-03,2.801387310028076172e-01
3.147017921158927201e-01,4.023348659977110664e-02,6.186345456452960190e-02,-2.652611371925212361e-02,-1.093804816264215551e-02,5.916959502990279374e-05,2.689494490623474121e-01
2.665885827278295928e-01,3.001758088050482387e-02,5.578120869288694800e-02,-4.507681271679807311e-02,4.361744689442112639e-03,1.628834508725156196e-03,2.381080985069274902e-01
3.330488630619019563e-01,3.770029275961374327e-02,6.768011515533876865e-02,-2.123326282383769525e-02,5.375948366103051705e-03,8.262533394035157007e-04,2.841062843799591064e-01
2.681032896180219893e-01,3.154867717205132871e-02,6.319358536146099659e-02,-4.453686720200114579e-02,2.681786000667870512e-03,-4.067239802901052772e-04,2.354706078767776489e-01
3.462400485251518889e-01,6.148614462743988429e-02,7.164357098260691614e-02,2.970496374524139119e-03,-1.529858918835091443e-04,-1.557681750218965289e-03,2.798739373683929443e-01
3.331098323584184007e-01,4.897799361392614348e-02,4.502548986415468024e-02,-6.346078954021206441e-04,4.881944936806896799e-05,-5.372282057689706236e-03,2.862819433212280273e-01
3.508212934460013255e-01,5.868240579829407666e-02,7.215035637468539265e-02,5.085237565388968546e-03,-1.024850359278538453e-03,1.504272110484269160e-03,2.857962846755981445e-01
3.476170968841643116e-01,6.133185149159803284e-02,7.076942673783880033e-02,1.422279491038843573e-04,4.538046974825989469e-03,-1.755602156238713360e-03,2.818112075328826904e-01
3.433722909166943005e-01,6.037295896389210936e-02,7.238003496883879673e-02,4.673939507033816627e-04,-4.495613007818590259e-03,-2.693929360885003160e-03,2.773406803607940674e-01
3.448815221704848999e-01,5.935225037029834283e-02,7.349503961535737429e-02,7.718622963678280690e-04,6.194143181123545894e-04,-3.678178419960205872e-04,2.787331044673919678e-01
3.054545284183964871e-01,5.869887473848774129e-02,4.294890753251752458e-02,7.904872156453612506e-03,1.470584024252372633e-02,-3.275800252592609308e-03,2.566929161548614502e-01
3.110660327105003731e-01,6.466012402621872102e-02,3.531880420575779500e-02,4.177093094840487672e-03,1.141585886191114757e-02,-7.031508351472836194e-04,2.631567120552062988e-01
3.198367191957500744e-01,6.036220345130481613e-02,3.929975118902172271e-02,1.077593902951765991e-04,5.875908499740962153e-03,-4.188468245348155408e-04,2.708135247230529785e-01
3.344577628227204946e-01,5.907646702059092536e-02,4.228351987943593238e-02,7.829895922850520793e-05,5.847537328683618391e-03,-3.057675684430952601e-03,2.843799889087677002e-01
3.299080491338801102e-01,5.451842039835576303e-02,4.838463623244443346e-02,9.564273219837110193e-03,2.598336631260896729e-02,-6.048079423205422571e-03,2.827999591827392578e-01
3.175091832572769501e-01,5.579917362901165578e-02,3.960793816835501968e-02,1.908358141824807730e-03,5.156631042624163809e-03,-2.669127612586604577e-03,2.703770697116851807e-01
3.309979343258765416e-01,5.463443771352301248e-02,5.334418554056764850e-02,2.325663011170168038e-03,3.496069088009159942e-03,-3.106708612591031846e-03,2.771585583686828613e-01
2.913116506563621089e-01,6.020743587129964713e-02,3.864118035598571033e-02,6.849380622430619597e-03,4.884460521372145647e-02,-1.974437023423115771e-03,2.572316825389862061e-01
3.198275350760669822e-01,5.999342765319619353e-02,3.754431465976204585e-02,-3.097841235945160920e-04,5.136570223436286858e-03,-7.610076866062258274e-04,2.719042897224426270e-01
3.191025548374677445e-01,6.197671064440966882e-02,3.898295643371733898e-02,1.815319511797430091e-03,4.594441733035334145e-03,-2.307174873072356108e-03,2.695252895355224609e-01
3.299797471332193144e-01,4.602057553551279490e-02,4.693670524204307526e-02,-7.021177355035937255e-04,-1.272108822679424026e-03,-1.684277913206049708e-03,2.835283875465393066e-01
3.286417907012543216e-01,4.366546637349408289e-02,4.185782805641427573e-02,-2.592907779953672050e-04,-4.993181303418194831e-04,-1.855917857746886002e-03,2.859041690826416016e-01
3.251076534045143629e-01,4.763512221344526343e-02,4.054988225314344608e-02,-8.956142441174614688e-04,-5.195051036111411179e-04,-1.853774670935452685e-03,2.811062037944793701e-01
4.887988186101530075e-01,9.264286417249990857e-02,6.786226059319955262e-02,3.863717229216133420e-02,5.221287795792917130e-02,-1.504777318049509583e-03,4.243046641349792480e-01
3.312483650160048532e-01,3.750108706395041680e-02,5.401851580946520626e-02,2.851215755997522222e-03,7.059144288585456582e-04,-3.242661368337197095e-03,2.859471440315246582e-01
3.268333021054314891e-01,4.456985565561860652e-02,4.174004703846991016e-02,-4.796154795036332730e-04,-7.686999246205129333e-04,-2.025152454366663333e-03,2.837149500846862793e-01
3.267868144158821986e-01,4.700960722299131478e-02,3.770694661039614148e-02,-1.679672766580424248e-03,-7.494662363532511628e-04,-1.573427810658703215e-03,2.845734953880310059e-01
3.074027681082919239e-01,5.835053609169228717e-02,3.845367992941155222e-02,1.778106552424289256e-04,-1.503544045926686170e-03,4.350572306881911842e-03,2.596957981586456299e-01
3.268167026747573756e-01,4.736114400217568410e-02,3.806300759454796234e-02,-9.769588478415922820e-04,-9.545805183541954076e-04,-1.974565236549367941e-03,2.842491269111633301e-01
3.433674983542941983e-01,6.232587057888377968e-02,4.775609458132640261e-02,-2.674942065882398093e-03,3.496918890167928506e-02,3.213827225350850657e-03,2.949785888195037842e-01
3.373773986685824067e-01,5.201875815928487523e-02,4.677891866500795415e-02,-1.503332307615458299e-03,6.139200786930902425e-04,-1.846408986417297574e-03,2.880457937717437744e-01
3.239913076503589950e-01,6.233613242808913602e-02,3.569928671539070175e-02,1.782221258322091648e-02,5.633227100176728397e-02,3.632264804289686132e-03,2.943723201751708984e-01
3.389016162650546060e-01,6.375216036428307809e-02,4.439288568046689809e-02,1.072208707520907849e-02,2.914833657514914744e-02,4.329043377607540155e-03,2.904456555843353271e-01
3.205000492423374925e-01,5.560126945657957453e-02,3.863074010846728745e-02,-4.239046918025004759e-03,2.648983414808820259e-03,4.977183201595983437e-03,2.740513086318969727e-01
3.205747352534707439e-01,5.520467247850346926e-02,4.184634088585252598e-02,-3.490037729031147929e-04,1.029727583418219711e-02,3.331176547197445270e-03,2.729402482509613037e-01
3.323322874111047653e-01,5.617487723192861326e-02,3.829146072540827450e-02,-1.390688022933193218e-04,6.363399134870968178e-03,3.984850175441007059e-03,2.858155667781829834e-01
3.176035676525723606e-01,5.338843782138051608e-02,4.202045621505391682e-02,-3.537469945919434044e-03,6.522476916045755017e-03,9.438957310059439484e-03,2.708780467510223389e-01
3.155158288425679580e-01,3.447234753626700343e-02,5.470423931496419534e-02,-1.848113581386217784e-03,-1.150795113784607417e-03,-3.128423661542867329e-03,2.715737521648406982e-01
3.489038956194920882e-01,6.387714762455311279e-02,4.003553045590893533e-02,-7.711964050720119916e-03,1.138323278435916276e-02,4.688524506973361199e-03,2.987260818481445312e-01
3.372122417913879788e-01,4.808888069719757796e-02,4.657608302687543667e-02,4.819630615979373560e-05,1.612034060733165278e-04,-3.197366215956697066e-03,2.899357676506042480e-01
3.384405355250495462e-01,4.595983080375003194e-02,4.636610312861558225e-02,6.071960641601980880e-05,4.341256954742880717e-04,-3.269970747425710814e-03,2.923336327075958252e-01
3.352736857106712876e-01,5.028869679439652851e-02,4.617143757175055929e-02,5.882595980641657299e-04,1.312197230398179457e-03,-4.156595320592509912e-03,2.871668338775634766e-01
3.360511851923317361e-01,5.042007332691891830e-02,4.577756616345067531e-02,-1.452967449751641415e-03,-9.401404704297127704e-04,-4.079409497623151006e-03,2.880826890468597412e-01
1.763247290526560040e-01,4.886643607682922968e-02,5.549524891464767407e-02,-8.822803453230031179e-02,-2.355230511135707888e-02,1.236569444179268099e-03,2.011614739894866943e-01
1.908774940083396154e-01,4.398109192375690424e-02,5.955074585846570345e-02,-4.675578813907023401e-02,-2.413169513503236538e-02,-6.369399594591724362e-03,1.672150641679763794e-01
2.172286979353642011e-01,3.832858430325679355e-02,6.420930816387604434e-02,-4.198856977445717537e-02,-8.441027126792833429e-03,-5.578411450687475971e-04,1.831633299589157104e-01
1.432116892118671658e-01,5.214458367915390108e-02,5.910717721137571934e-02,-5.736273957394161932e-02,-8.064136974921649881e-03,2.279741638182535522e-03,1.333782821893692017e-01
1.357745901913642583e-01,4.995646914546120199e-02,5.447710557499115674e-02,-5.392542755121652875e-02,-2.651985068409580450e-03,9.560370395439080462e-04,1.254788041114807129e-01
1.721769436752135785e-01,5.866924692094272614e-02,5.650231507435014844e-02,-7.645384198778649998e-02,-2.645584567118865540e-02,1.126362488853408601e-03,1.810352653264999390e-01
3.395682303414341296e-01,5.044603683641332714e-02,4.594628108752286944e-02,1.904734495915154152e-04,-1.615414749411391688e-04,-1.035469707071631730e-03,2.914039790630340576e-01
3.307970573063920838e-01,4.448722518708378426e-02,5.967567573902088363e-02,3.885502451957482603e-03,-3.197319052643983472e-03,-1.550793375166523679e-03,2.791748344898223877e-01
3.409009793060658877e-01,5.572452533939142860e-02,5.681280850339458233e-02,3.250409062192424932e-03,-5.446867377763529861e-04,-6.848116131527029948e-04,2.846935689449310303e-01
3.345225578904306163e-01,5.580080763257158627e-02,5.703445564734289930e-02,9.464353258529803470e-03,6.828193135357154935e-03,-2.083282677085386125e-03,2.788639664649963379e-01
3.459667624386707496e-01,6.048250408879744799e-02,6.009719735213327196e-02,-2.940879986787367940e-03,2.839431907812358605e-03,-4.447535098423571233e-03,2.858686447143554688e-01
3.450462720831464214e-01,4.561302725018905047e-02,6.490756401085188976e-02,3.082497238354329344e-02,7.459142179097377756e-03,-3.376116255756747998e-03,2.954771816730499268e-01
3.256819906633421358e-01,4.952794865391992041e-02,5.429298935851423202e-02,3.442099047315490962e-02,-6.609388147630972446e-03,-5.318405149167481326e-03,2.806032598018646240e-01
3.195568606147622948e-01,4.180633443761340440e-02,5.942469128492251784e-02,1.476946347426105061e-02,2.971952047481071085e-03,-3.562748746781523035e-03,2.707050740718841553e-01
3.479142970604925944e-01,5.560944419194618904e-02,6.784134291377313941e-02,3.547297952858014664e-02,1.387788209581183180e-02,-6.350024809017739205e-03,2.940919101238250732e-01
3.544049172406268378e-01,4.596125995259629782e-02,6.108229260069487909e-02,2.923818985306450569e-02,6.118824630039684624e-03,-1.552240648789840732e-03,3.055917322635650635e-01
3.345631455282074285e-01,5.523300941772865680e-02,5.904450386009935103e-02,9.757253367856525209e-03,6.852208877855110042e-03,-5.099751058164394548e-04,2.782129347324371338e-01
2.337216837548075354e-01,6.230499917807420102e-02,4.821673779050576758e-02,-1.929970428426248594e-02,-3.847685374528790614e-02,-4.944731945435242200e-03,1.939827650785446167e-01
2.765218045627898524e-01,6.354067114934748572e-02,4.054697871661191999e-02,-1.268414132408855408e-03,-2.896469715322996623e-03,-4.226969577468235248e-03,2.255448848009109497e-01
3.155265039555434914e-01,6.039575705936223171e-02,2.860398703857237879e-02,5.214840187877998849e-04,-2.483034260451736849e-03,-9.494957215251416784e-04,2.724618911743164062e-01
2.605162773846199653e-01,7.123156914064038281e-02,4.603147287736580884e-02,-5.475819127135816457e-03,-2.392148609260741701e-02,5.064409104750843601e-04,2.074636667966842651e-01
2.523753922023665441e-01,6.402964116741846623e-02,3.872782156901737050e-02,-6.988436384461381781e-03,-5.882903248762278575e-02,-2.860447527575047354e-03,2.267893701791763306e-01
2.261606451499541814e-01,5.393970203006889091e-02,4.092318053573340553e-02,-2.937573839947542689e-02,-2.852213468414757994e-02,-1.354301174186495378e-02,1.940380930900573730e-01
2.389791799043437803e-01,5.014340908448818024e-02,5.616449112453669734e-02,-9.815615226130849913e-03,-7.698185626532295933e-02,2.294071454640263762e-03,2.294376790523529053e-01
3.357147026821337699e-01,6.033175730519337032e-02,4.056250098446004260e-02,1.633793451427934668e-03,-1.235506149787613884e-03,-5.928630638882147110e-04,2.858047485351562500e-01
3.273211495962186635e-01,6.684588508500560744e-02,3.864541224197409752e-02,-2.298186786622696473e-03,-1.953076849042951688e-02,7.076906665601132799e-04,2.777586281299591064e-01
3.085401298137909198e-01,6.139370356894784109e-02,3.428908639502407929e-02,-4.143708326022523501e-03,-1.234985058327092537e-02,-6.511258295432478631e-03,2.629659473896026611e-01
3.000250211429341674e-01,5.876739277626630287e-02,3.867819289232982127e-02,-6.683006165765412697e-03,-1.658512477030604781e-02,-1.049124301741272657e-02,2.544501423835754395e-01
4.003522034542211783e-01,6.387082758569791185e-02,6.402371284276404950e-02,-8.232154653217206878e-04,-5.687837343317077299e-03,-5.309828704851694316e-03,3.366778492927551270e-01
3.353649122846420472e-01,5.541575375473864473e-02,5.377778862698343043e-02,2.661695062535321160e-04,4.842753311688792819e-03,-2.867140851275321728e-03,2.809412479400634766e-01
3.357665313355987502e-01,5.825932499002345333e-02,5.480748199761413531e-02,-2.124845843875660420e-04,-1.784299651206351991e-02,-6.517148067605690095e-04,2.809565961360931396e-01
3.369179630883322729e-01,6.073620851059871595e-02,6.389816944697822299e-02,-1.959103671309192496e-03,-1.538681190803728796e-03,7.958450110898941882e-04,2.746517658233642578e-01
3.108470069291461302e-01,6.173530560418077906e-02,2.850962198619849675e-02,1.171302129768507126e-04,-3.869835305982383383e-04,-3.223250161109070299e-04,2.672794461250305176e-01
4.111560491171734610e-01,6.837721801269061594e-02,6.890933325716511182e-02,5.273661097361585608e-03,6.677459894995233479e-03,-2.881285602252153561e-04,3.428303599357604980e-01
3.698344528773523376e-01,6.006537964652805539e-02,6.116940077683130639e-02,-9.923356404773025195e-05,-1.177100240164108760e-02,2.398651758060041622e-04,3.098902702331542969e-01
2.925899424047900821e-01,5.625480845811103858e-02,4.898697338667436230e-02,-2.025407460935601742e-02,-3.019659307034225013e-02,-1.039606455404798457e-02,2.488276213407516479e-01
3.052811212960514498e-01,4.895947272976822195e-02,4.736963680713753011e-02,-2.725298227200505588e-02,-2.800086639540319208e-02,-1.008766920801158935e-02,2.664515376091003418e-01
3.308522892766869727e-01,4.784841649450141676e-02,5.004459756482140809e-02,-2.122390815432803612e-02,-1.531147971873472215e-02,-1.198615480250255980e-02,2.862868905067443848e-01
2.714111677670960621e-01,5.226601035901998205e-02,5.090579851850239590e-02,-4.097863061205433283e-02,-3.228188062599184754e-02,-1.425279745705759250e-02,2.389520108699798584e-01
3.013702363692866149e-01,4.354670240742064546e-02,5.351865730320137793e-02,-3.224720487983811362e-02,-2.696240336455260622e-02,-1.374815076375207092e-02,2.643274664878845215e-01
3.211327974323641143e-01,5.934568883791192795e-02,3.162928239620842186e-02,-1.612221522368992733e-03,-3.224865422182772619e-03,-1.066146553638783710e-03,2.767650485038757324e-01
2.883983961157216558e-01,5.313792252854153408e-02,4.565296959099393592e-02,-3.090725857873011240e-02,-5.209535895511656356e-02,-1.236420044180248576e-02,2.619744241237640381e-01
2.815989201478819037e-01,6.141881617722298736e-02,3.293114436427387048e-02,-1.150604246372144944e-02,-2.139348602579086225e-02,-9.813753507730015729e-03,2.400466352701187134e-01
2.985343926349988686e-01,6.335236172756297801e-02,2.828888878743528179e-02,-1.228210270555319663e-03,-9.805379839204623679e-03,-1.307299399095433181e-03,2.551164925098419189e-01
3.812574717183907502e-01,6.504948608117176734e-02,6.834099128461280925e-02,1.149444691479837959e-02,-8.464778883674754957e-04,3.001471374002655582e-03,3.152508139610290527e-01
3.828295743736375156e-01,6.528203264445285592e-02,5.878204307267395623e-02,-1.718394660039475590e-03,-1.330408873865997731e-02,4.256813976733938546e-04,3.216879665851593018e-01
3.755212913091131588e-01,5.953245190265610276e-02,3.622625352564934342e-02,-2.060404008667608786e-03,-3.549725889774002496e-02,4.809372421524014259e-06,3.339903056621551514e-01
4.156017655712010983e-01,6.611944304456264521e-02,3.924013034930254329e-02,2.256922774343407198e-02,-3.178825900142061289e-02,-6.410898194541938058e-03,3.700501620769500732e-01
3.718502335794593439e-01,6.272571666960424785e-02,5.591942413366025877e-02,7.429483003025613578e-04,-1.139737902023121169e-02,-4.906745250445891437e-05,3.132086396217346191e-01
3.195114282201421130e-01,4.536555585667974289e-02,6.149522137252895482e-02,-8.523525530923571278e-03,9.391650994246369781e-04,7.577206282493698097e-03,2.671836018562316895e-01
2.594223676741299611e-01,3.039435103577196873e-02,6.455757623770763676e-02,-3.270315042630066171e-02,6.534080816180128960e-03,1.764661372051998418e-03,2.216811627149581909e-01
1.738570904419521335e-01,6.024694921747082710e-02,7.208567470922885856e-02,-2.200869068447768029e-02,-1.170734833644895313e-02,3.285592986846822515e-03,1.166153475642204285e-01
2.624500440272151680e-01,3.701901415313875454e-02,7.002704063317587158e-02,-7.274572163239360900e-02,1.496603111966178187e-04,-4.242843574041057358e-03,2.457590997219085693e-01
2.992199085907315537e-01,3.281303817166322800e-02,6.448588843970283480e-02,-2.316061521620420630e-02,3.107629412703432617e-04,-2.074435947000261102e-03,2.552652955055236816e-01
2.928267883998638133e-01,3.948288080615106055e-02,5.565743586098302609e-02,-1.409056602813579112e-02,6.211327154802915272e-03,7.985993140653110944e-03,2.474868297576904297e-01
3.744648091287388625e-01,6.015465343204291770e-02,6.633058653802012539e-02,2.003812672300002429e-02,-4.837022641136040049e-04,2.956151922133686428e-03,3.132400810718536377e-01
3.033603506351311707e-01,3.443124174989252440e-02,6.549139936037047527e-02,-1.019402307748700463e-02,1.294941547533076795e-03,-9.326440212725489861e-04,2.554486393928527832e-01
3.460579289083588472e-01,6.892150443705329088e-02,6.008946628962832937e-02,4.459567852457376391e-04,2.192691441219822481e-03,-8.110575371237751553e-04,2.816864848136901855e-01
3.791200905960382395e-01,6.578096379204413646e-02,6.344925583436583638e-02,8.384127621758479670e-03,2.790045774176936645e-03,-5.456100265184949489e-04,3.148850500583648682e-01
3.342616028810834194e-01,5.889268858498217241e-02,5.937156928675740852e-02,-1.322847171821329342e-03,-1.370308644548407472e-03,1.568794774653242902e-04,2.751497030258178711e-01
3.521880105405456041e-01,6.053229031498139068e-02,5.941288452400236841e-02,6.019050744715776641e-03,6.485813115983185724e-03,-8.906626370700120509e-04,2.926227152347564697e-01
3.063480095152903981e-01,5.752965095586748401e-02,4.468830803700915566e-02,2.904708652373199154e-02,2.458928894297972290e-02,-1.213643925088378310e-02,2.646839916706085205e-01
4.064582450741830444e-01,4.928296105400042926e-02,6.901722692359073263e-02,2.914241818190190306e-02,3.092950522313757389e-02,-1.930371947048705036e-03,3.554489612579345703e-01
3.412553180409111375e-01,6.276150465013789759e-02,5.959555416317736942e-02,1.471551128383854741e-03,-5.214381329935990341e-04,1.239857782060922991e-03,2.801114916801452637e-01
3.425801293429941996e-01,6.588482727302950870e-02,6.169330527972581579e-02,-3.241020387703075429e-04,-1.366071689095649201e-03,3.030361268649986450e-03,2.788746953010559082e-01
3.059096999935846939e-01,5.664697273565046098e-02,2.856590538278998281e-02,-2.853192541166431600e-03,-7.584308917731400097e-03,-2.858999811800111597e-03,2.648424506187438965e-01
3.475814424214788700e-01,7.545802535823009638e-02,6.173825262022956950e-02,-1.161308446785063809e-04,1.669428520095377717e-03,3.160802751954448243e-03,2.793049216270446777e-01
3.227885457706382577e-01,5.509086971304372193e-02,3.626825938633117252e-02,-1.311860126367154567e-03,-6.380279615763984058e-03,-4.807609151136702993e-03,2.779419720172882080e-01
3.505849935868060596e-01,6.930281335262386544e-02,6.195973855711341127e-02,-1.344340593886498864e-03,-1.630690991713400651e-04,3.313054892845508203e-03,2.850920855998992920e-01
3.443715520256580565e-01,6.016610678386455358e-02,6.945118344832486301e-02,-9.651243814284486515e-04,-6.567939980457906772e-03,3.991227919140289890e-03,2.800001502037048340e-01
3.451648477746934729e-01,5.702040960050054619e-02,5.739196757844632069e-02,-1.028000120288805009e-03,-2.950252827802101385e-04,1.864799011417089705e-04,2.879649698734283447e-01
3.411806833645014136e-01,5.875917858165796703e-02,5.737360066955679572e-02,1.420532063938822857e-02,-1.789269513123184149e-02,2.037411815688488365e-03,2.858905792236328125e-01
3.697717956838586506e-01,6.139337855946815081e-02,4.919285360961098141e-02,8.784633480078692103e-03,-2.506385028343973559e-02,8.322879356811229909e-04,3.180041909217834473e-01
3.901219908497023381e-01,5.406385394576807002e-02,3.417476759707996359e-02,7.019792423892619315e-03,-1.376142534975114198e-02,-3.860961274870986643e-03,3.475272953510284424e-01
3.617125570754934905e-01,5.991180651412399139e-02,7.096985283790389898e-02,4.186222902402925790e-04,-1.711612564467687161e-03,-2.199196499268129060e-03,2.964666485786437988e-01
1.566124507798011267e-01,3.952887571947327067e-02,4.454013345390146067e-02,-3.219812700418735185e-02,-4.481978633340161916e-02,3.828166673760006154e-03,1.494238972663879395e-01
3.686221835420497306e-01,6.153718571954459871e-02,7.424326188937978299e-02,3.545103311226548842e-03,5.253496859881104548e-03,1.342297023143548601e-03,3.011423349380493164e-01
3.278358442687685503e-01,4.557494923873781079e-02,4.992582303164153079e-02,-9.683033657119510459e-03,-5.453375983157355764e-03,-8.191125929659830510e-03,2.811295986175537109e-01
3.211123256921628588e-01,5.948552413361701818e-02,3.003252684895957314e-02,9.970632167252693138e-04,-2.027418620828398688e-03,1.453011332377256940e-03,2.775669395923614502e-01
3.494036698158414778e-01,6.213586302958890029e-02,4.862670011697768635e-02,1.009737946359809879e-03,-1.474722699088969018e-02,-6.412306153261269556e-03,2.955755293369293213e-01
2.872478825199775709e-01,5.431178000419283058e-02,4.333086582541988141e-02,-1.365733758259786608e-02,-2.319679190559469084e-02,-1.226500183771492454e-02,2.440548986196517944e-01
3.017317270004288288e-01,4.237920089427094084e-02,4.648178052549292727e-02,-3.383350685801118918e-02,-2.669345636684365697e-02,-1.104652051848109030e-02,2.686156630516052246e-01
3.572798920134970801e-01,5.295353040686842649e-02,5.400965316706406172e-02,-3.104315323622699671e-02,-4.024806285307600678e-02,-8.597630380524563451e-03,3.166492581367492676e-01
2.059176635692786528e-01,6.572281594829101903e-02,5.137540077837308289e-02,-1.255634700488369180e-03,-2.344825436082385861e-02,1.206820484017740239e-02,1.547998487949371338e-01
3.012418886715673150e-01,6.026418063282681925e-02,3.348972841045577686e-02,-8.012605269381502249e-03,-1.992443883762498244e-02,-2.916136863860691476e-03,2.581632137298583984e-01
3.100062059268404169e-01,5.743349808510975207e-02,3.388985565348338891e-02,-7.084378731654223001e-03,-1.216599525989022455e-02,-5.510810193472316827e-03,2.664197087287902832e-01
2.824884731245239644e-01,6.406734097308337816e-02,2.735857147618830920e-02,-8.000144642435823988e-03,-3.075411085247341594e-02,-3.391607594904018017e-03,2.452289909124374390e-01
3.489593603675779088e-01,7.097821466364225007e-02,5.548946831026112247e-02,-1.688222985414119300e-03,-4.850216451806436957e-03,7.910819691133011205e-04,2.861817479133605957e-01
3.525407791883644060e-01,6.904677760329699931e-02,5.970254131917020202e-02,3.540787053161065386e-04,3.029649910587722881e-04,2.429452158916121929e-03,2.883115708827972412e-01
3.665021133593823199e-01,5.812852961052697442e-02,5.731336804745387759e-02,3.593211050177646778e-04,8.511256868242205592e-03,-1.288522287816610884e-03,3.091423511505126953e-01
2.824551461016108211e-01,5.861020029746911997e-02,4.437710610681414036e-02,-7.459864484144005346e-03,-1.705963665444102870e-02,-8.792172665951062532e-03,2.340237051248550415e-01
3.820766664572824989e-01,6.579257331434590350e-02,6.102421723139851706e-02,-1.520397215946437753e-03,-1.504318336470079724e-02,-4.288338286518415809e-03,3.198554515838623047e-01
3.320508696179654828e-01,6.048570958517821006e-02,5.218574894960864574e-02,1.805444795261816268e-03,2.290856673638457484e-03,7.743526383769412224e-04,2.758583426475524902e-01
3.616065874694370796e-01,4.126806416749062567e-02,4.955369941058877792e-02,2.169329798078409310e-02,1.351625548775099370e-02,-6.217139273983744545e-03,3.195419311523437500e-01
3.578388751315567662e-01,6.742524535335672753e-02,5.802950067046158678e-02,1.168017098854297851e-02,7.841830114802925134e-03,-3.238413576161538175e-04,2.962281107902526855e-01
3.713095826343345562e-01,6.703890047884830672e-02,6.049752427930095433e-02,7.446701972257745682e-03,9.835176712553669875e-03,-5.140398085403375360e-04,3.083360791206359863e-01
3.478227514088536587e-01,7.139982535634396832e-02,5.909915321912068142e-02,-9.321532451819180805e-04,-3.553272900881049670e-04,4.232892194184784823e-04,2.827802300453186035e-01
3.833122504082886461e-01,7.149709002826275250e-02,5.981107175122077346e-02,4.656779552363189689e-03,1.540760357301655019e-03,-4.889042235250506485e-04,3.179340064525604248e-01
3.399727707730760828e-01,6.100610882915452615e-02,6.801647752530688706e-02,5.637049511040666478e-04,1.709103211140539417e-04,1.173731369832586987e-03,2.755377590656280518e-01
3.118391382661370725e-01,3.685372146541363025e-02,5.983644459223833034e-02,1.583056416679565204e-02,-6.934857491196612465e-04,1.723932863459862489e-03,2.656829953193664551e-01
3.076746477262706225e-01,4.133433582205871260e-02,5.310454117724670853e-02,1.415107541370491488e-02,-1.025213048736682564e-02,9.360014879302632276e-03,2.629063129425048828e-01
3.346830405421417076e-01,5.060159124963069244e-02,4.835979535132285678e-02,3.016806821065838931e-03,-1.198618755540316571e-04,5.403612645532462899e-03,2.854104042053222656e-01
2.612815396553143099e-01,5.534375617040987461e-02,4.481358341020157121e-02,2.464635732809367097e-02,-1.797288353826958715e-02,1.196214759559058489e-02,2.188846617937088013e-01
3.253894389179527447e-01,4.419852341868836521e-02,4.847556748365029755e-02,2.827181346980700907e-03,-1.636244413056783028e-03,3.740703092817082749e-03,2.792094945907592773e-01
3.191336726031834825e-01,4.802510146041591432e-02,4.686761979270458178e-02,6.225808742099033476e-03,-3.250966491880912836e-03,6.138754993446049121e-03,2.721691429615020752e-01
3.269327426765096245e-01,4.552895201013572313e-02,5.101296858067937146e-02,7.235126952682262649e-03,-3.029445804291559536e-03,5.295161194439288940e-03,2.791838645935058594e-01
3.219639078746506788e-01,4.571441232127160248e-02,5.153412307272341175e-02,4.711584585568749303e-03,-5.787274779226400656e-03,7.340366221623872978e-03,2.739866375923156738e-01
2.444561040391234341e-01,4.823211307125428726e-02,5.762211646976319462e-02,2.545132600253326507e-02,-2.552272633269695584e-02,9.955157161913955402e-03,2.023470699787139893e-01
3.244620242714158498e-01,3.426325154824787222e-02,5.837534921978737579e-02,4.858157719155788840e-04,2.532297360853103235e-04,1.176896824321837327e-03,2.789345383644104004e-01
3.259760599213551435e-01,4.265743412761183184e-02,5.176557905674250559e-02,2.513455537907301109e-03,-4.573555603000288138e-04,4.088951222815374181e-03,2.790011465549468994e-01
3.294892714725283778e-01,4.111007446684340760e-02,5.786572567584608029e-02,7.147910675565583884e-03,1.810063467396453782e-03,5.872851928268960943e-03,2.808521091938018799e-01
3.170355282795037644e-01,5.424838570380462188e-02,3.780397432046035677e-02,3.100958498163785952e-04,-4.085175148819570300e-03,5.030026955947708087e-03,2.716158032417297363e-01
3.325170138589687019e-01,6.257399171781431735e-02,6.235394481395543920e-02,-2.861771232056513369e-04,-8.900941279038303419e-04,6.614493008968381420e-05,2.700580060482025146e-01
2.606697389194956860e-01,4.905333501206922409e-02,4.576793301929518720e-02,2.299856785191172967e-02,-1.931035959951687281e-02,1.113610479991764338e-02,2.203747928142547607e-01
3.174081141242054982e-01,3.949125874152954740e-02,5.376069061460415910e-02,6.397520928314136789e-03,-2.475030527816582133e-03,6.639654059467856896e-03,2.715678513050079346e-01
2.540531342753703514e-01,6.433820533537705499e-02,3.525182440105396886e-02,9.036673679996023306e-03,-4.760749327573788464e-02,8.607338646157057516e-03,2.227612137794494629e-01
2.768524979701278976e-01,5.305306450099268878e-02,5.974773307455528981e-02,3.258705411475656955e-02,-3.211338009234086105e-02,1.137695717986609949e-02,2.351607978343963623e-01
2.964195181696664960e-01,4.942933209169142472e-02,6.528392515745476410e-02,1.298114579951423382e-02,-3.105514394838171030e-03,1.104452581393099327e-02,2.413296550512313843e-01
2.670434594682743468e-01,6.245444702844815676e-02,4.729375168372107474e-02,1.185631766402906948e-02,-1.646948810881128725e-02,1.148588706981778194e-02,2.163780182600021362e-01
1.876204874637988351e-01,6.880775944037910430e-02,6.587695152010020205e-02,1.992185168912910878e-02,-2.007012346897067701e-02,1.260681207995518679e-02,1.317161172628402710e-01
2.394333710114680547e-01,5.874031922861449456e-02,5.944151217547708616e-02,2.970261156748503495e-02,-2.646831136627123340e-02,1.362862280384551962e-02,1.944979131221771240e-01
2.241558313474112385e-01,4.728980075524549798e-02,5.944494122329830460e-02,4.735522740526579982e-02,-2.716590756702991910e-02,9.177404446182139963e-03,1.961471289396286011e-01
2.573829073615810925e-01,5.813351474426312754e-02,2.776327597851284412e-02,-1.260436793884824221e-02,-4.845116772071167421e-02,-6.438151249963247613e-03,2.330610007047653198e-01
2.624996725431928413e-01,6.372368219175897353e-02,5.888849470733756308e-02,1.573770910144369969e-02,-2.708424877277327419e-02,1.008749858019448824e-02,2.091539204120635986e-01
2.357397371865862512e-01,7.863763877801133173e-02,6.778616679274088175e-02,3.320759122173840699e-02,-2.976413100512818183e-02,1.366948055317561417e-02,1.817419081926345825e-01
3.819090307236117088e-01,5.772017823802001735e-02,6.259946921316952850e-02,4.537926195864792206e-02,3.091160674451724072e-02,-4.123743256612370268e-03,3.356126248836517334e-01
3.890449523106463969e-01,6.758620842299269127e-02,6.197188397755262756e-02,1.782093120961758884e-02,5.400246560154974007e-02,-2.883875740100845780e-03,3.389668464660644531e-01
3.406805124171364829e-01,5.804766119433178717e-02,6.013529505555936794e-02,4.884114555313964545e-05,-2.083321258601959682e-03,-4.217666053532714843e-04,2.816189229488372803e-01
4.842721485331534237e-01,6.251247567453990794e-02,6.043638953495289456e-02,2.103730525069539767e-03,6.444032412512072823e-03,-1.103807946850648633e-02,4.233964085578918457e-01
5.361415191154861315e-01,7.984384431636656898e-02,7.057410054192209126e-02,3.758706782369128363e-02,1.602955669804532676e-02,-1.324483384225250485e-02,4.669676125049591064e-01
3.477512621699035411e-01,5.530308355051812008e-02,4.865738578872759457e-02,3.822421139198009347e-03,1.697734153605819085e-02,-2.745605938157351204e-03,2.973966300487518311e-01
4.963725237152817327e-01,6.748822188068645533e-02,7.253319282383280386e-02,-9.458336587234124956e-04,2.195640926469950849e-02,-1.148849287636760468e-02,4.285421669483184814e-01
5.937592452799302922e-01,8.932108204982130983e-02,8.650124380361007281e-02,-2.448658627667623863e-02,3.333393049998556457e-02,-7.763856410733530923e-03,5.110785961151123047e-01
3.177949100118625525e-01,5.082083922103526608e-02,3.754262389475250539e-02,-3.562220974848984579e-03,-5.489773558301682538e-03,-6.609338529376765706e-03,2.743281424045562744e-01
3.234371631758812815e-01,4.455357308837142039e-02,4.660645339520370911e-02,-1.290881907851256644e-03,-4.070494587586619140e-03,-7.340170632972201591e-03,2.782518565654754639e-01
3.340865656021917429e-01,6.044386732240702997e-02,6.487673122285683713e-02,2.316329865598604730e-03,1.529076487931993510e-03,6.395043043295895726e-04,2.714982330799102783e-01
3.063978617414141459e-01,4.529000125832448320e-02,5.165563566222486358e-02,-2.925786455972573946e-02,-1.904807467141809638e-02,-6.222209303918107941e-03,2.651950716972351074e-01
3.114638236955765693e-01,4.342102376367454331e-02,4.427136047610628899e-02,-1.275634636556420565e-02,-9.661197617312905495e-03,-1.008288457372860832e-02,2.696162462234497070e-01
3.153098862510355094e-01,5.418349484516042647e-02,3.786476693707983843e-02,-3.105873654101254377e-03,-6.107676185727256742e-03,-5.844650811486825498e-03,2.701071500778198242e-01
1.967602812226193487e-01,4.622038731887067459e-02,4.676536561519994278e-02,-7.179555545032138830e-02,-2.581685328955780206e-02,2.335391204968886945e-03,2.001504749059677124e-01
3.024138962809423403e-01,6.571017212331568824e-02,4.978970209461620888e-02,6.934190991857103192e-03,-1.296679241867027856e-02,1.121573860363109937e-02,2.471367865800857544e-01
3.201106465408113388e-01,5.552613704218314905e-02,3.775087312012334606e-02,-4.641889954469155359e-03,-5.957190177184011615e-03,-5.744326250776084046e-03,2.743976712226867676e-01
3.260404244099242010e-01,5.979670214646536086e-02,4.668298527852753066e-02,-3.058568792326020122e-02,4.335620500137232769e-02,1.025577137477540722e-02,2.886354327201843262e-01
2.862613942005541867e-01,4.797585883949298524e-02,6.366898295056154511e-02,-2.016680638236146086e-02,5.529544276857739811e-03,1.037786024666717891e-02,2.343538999557495117e-01
2.488413078392767708e-01,5.492427497595329944e-02,5.362629727060280738e-02,-2.620579367135499396e-02,3.321648009189642065e-02,1.240305756273133581e-02,2.090190052986145020e-01
2.453868828588328388e-01,4.846431319039248148e-02,3.611547860521520381e-02,-2.847964303963078717e-02,2.947749751503731322e-02,6.817927370263371714e-03,2.157365232706069946e-01
2.143585615352511242e-01,5.491549265907162691e-02,6.033738918197884687e-02,-5.506780946894742484e-02,2.437669422385226742e-02,-8.735451075327054903e-04,1.883330941200256348e-01
2.500068755347507610e-01,5.986587557611482147e-02,6.351252276573390865e-02,-2.722666706972742823e-02,3.147685487902678048e-02,1.657464309223209697e-02,2.037005871534347534e-01
2.842001145397789474e-01,4.166387500159091095e-02,5.020669001027325273e-02,-1.422419116776220752e-02,-1.411315888244121450e-02,-1.308366180759477568e-02,2.419564872980117798e-01
2.812023576448541284e-01,4.716299634033134514e-02,5.191896067863958908e-02,-1.239163530113732495e-02,-1.307536710575955829e-02,-1.105973783669132390e-02,2.345729470252990723e-01
3.398699670156450914e-01,5.633923371781891787e-02,4.347354327061646317e-02,3.302094069431104305e-03,1.168545955879246763e-02,-4.938645809608081284e-03,2.910645306110382080e-01
3.069710961423582907e-01,5.727487495761231229e-02,3.116327841677341004e-02,5.916225119002912342e-03,-1.408667354757623183e-02,4.404174869081009698e-03,2.651574611663818359e-01
3.289614016024649534e-01,5.433447459718974970e-02,4.146748581893507091e-02,5.156688323252334172e-03,-9.635949974571404036e-03,4.984040363379326107e-03,2.820495963096618652e-01
3.220219993611987963e-01,5.991870651659553237e-02,3.119235571885872749e-02,1.540517543976133597e-03,-1.193949114514516671e-02,2.016833622356576424e-03,2.783874869346618652e-01
3.284088584747275608e-01,6.039365755645259570e-02,3.657587836863160358e-02,6.349565348628127825e-03,-7.840733563451812022e-03,1.218777367540778075e-03,2.812344133853912354e-01
3.242728756872443885e-01,5.697442296237247017e-02,3.828604891863350568e-02,4.153933965271522713e-03,-3.033472489314950268e-03,1.510227557160492059e-03,2.772711813449859619e-01
3.071193011368172909e-01,3.229600798556685193e-02,5.673820646125624090e-02,1.078087025717529117e-02,1.298448275940447148e-03,-6.448909549248615838e-04,2.641268074512481689e-01
2.884789320410893199e-01,4.048378674139029021e-02,6.015665893407572129e-02,2.295244082213634962e-02,2.558694259948117097e-02,-9.612316159593988288e-03,2.466405183076858521e-01
3.198187329244779886e-01,4.641387070994498765e-02,5.436962074403806078e-02,8.301204906625461732e-03,1.159982967349364397e-03,-6.739791851478927481e-03,2.701581120491027832e-01
3.145480357459631282e-01,4.511934120783692159e-02,6.302659424377650421e-02,1.245620311477007615e-02,-1.029542831704557482e-03,2.957585832108880486e-03,2.618829011917114258e-01
3.326857460557525181e-01,4.461876482776683250e-02,5.657877832885492564e-02,2.856183202922779607e-02,8.742604902657239926e-03,-8.997652049339539479e-03,2.874018847942352295e-01
3.331524697905074994e-01,5.426709013431500750e-02,4.998997222532330920e-02,8.428949927395961057e-04,1.958058421701034269e-03,9.751807016154069108e-05,2.810726463794708252e-01
3.211285695309852306e-01,4.287183978819303354e-02,5.473688489988144668e-02,2.755819733088413562e-02,1.384350053320430873e-02,-9.722961163826289790e-03,2.782138586044311523e-01
3.147908949776294651e-01,5.715177366204833576e-02,3.427556023053054957e-02,-1.060818832433575108e-04,1.969734241568160335e-04,-3.131602722956005648e-03,2.698603570461273193e-01
3.112617139144305822e-01,4.017105771075804577e-02,6.937291532803112337e-02,1.334368619241360632e-02,4.194536814547727456e-03,-3.510090604236014520e-03,2.589410245418548584e-01
3.806146735808820791e-01,6.520119778356821272e-02,7.072120558165130577e-02,-6.469320556038035686e-02,-8.371583309924086891e-02,-1.418762435705500603e-03,3.624385893344879150e-01
2.844347432637698292e-01,5.423136885869490886e-02,7.023588417277885909e-02,2.691841039692041693e-02,-4.600222813319497419e-04,4.340739530350842812e-03,2.275882363319396973e-01
2.928264294691280134e-01,3.841449929624786430e-02,5.807501952352248087e-02,9.617520911054224311e-03,-5.530570622881953759e-03,5.868051505108514906e-03,2.461354285478591919e-01
2.886542361353999775e-01,3.893854768925529564e-02,6.151598052742790479e-02,1.150456755778946766e-02,3.085996818804402457e-03,3.517174748781369455e-03,2.401925772428512573e-01
3.278506002277062903e-01,4.044934235874822481e-02,5.497605579796158159e-02,1.431144077313712543e-02,2.769470988737243559e-03,4.416357060506572937e-03,2.816584706306457520e-01
3.366969143134223574e-01,4.208828345683854333e-02,6.410027926111852570e-02,8.033045439748033936e-03,5.170419222765528129e-03,-3.158580660419914310e-03,2.847763597965240479e-01
3.286846423716237586e-01,3.548605958807532490e-02,5.688031068902546505e-02,9.342376555344058392e-03,-5.382115212435376397e-03,2.770509893578678058e-03,2.837642133235931396e-01
3.333575037945745168e-01,4.044826901227153992e-02,5.992272498392639535e-02,2.276595541063900028e-03,2.701118278110787186e-03,6.238727761853070332e-04,2.837418317794799805e-01
3.376013933152283153e-01,4.049698162402452783e-02,6.234467318984122930e-02,5.151531766502193306e-03,7.275488851097369758e-03,-1.893524971582476093e-03,2.872394025325775146e-01
3.418047150941755374e-01,5.879577834435908978e-02,6.107409922945129799e-02,-2.792847260316061453e-03,-3.770248484111585804e-03,6.104680770716907961e-04,2.819958031177520752e-01
3.590844969273494502e-01,5.780536579773690176e-02,5.892965146737728921e-02,2.311709279625247335e-03,4.032277169054613968e-03,1.185095735887874884e-03,3.008333146572113037e-01
3.373586556890456611e-01,4.902101808696672502e-02,4.528056303724430076e-02,-1.088703646966869727e-03,-2.544806521820875940e-04,-1.077509595617757521e-03,2.902384102344512939e-01
3.461634300376649209e-01,5.848551722275444065e-02,5.326905413647500809e-02,3.357542848914550019e-03,1.288310389387452466e-02,-1.093688064454895409e-03,2.912417948246002197e-01
3.591905551166515442e-01,7.058493637315439717e-02,4.570739024827417951e-02,-4.571771112819805229e-03,1.307137031493851680e-02,-5.804518736421421937e-03,3.029327690601348877e-01
3.383152859653093536e-01,6.768652486275143765e-02,5.438391717353580068e-02,3.036588947477204987e-03,3.673056228434902482e-02,-6.375449314398031093e-03,2.849806249141693115e-01
3.551907180009785669e-01,6.306413153287840356e-02,6.599492457611948193e-02,5.933801570321048900e-03,5.331548679477727745e-03,-4.267810624136911778e-03,2.910943329334259033e-01
3.845023946509792401e-01,6.506084313956070342e-02,5.340616565026658213e-02,6.806447959825176128e-03,4.138259375115341948e-02,1.717260484357240914e-03,3.334473073482513428e-01
3.256762153654993996e-01,5.841620596741409210e-02,4.546782653666357754e-02,-3.482037669059705881e-02,-3.066784252380802198e-02,-1.138746748362024983e-02,2.861889302730560303e-01
3.246296634727767749e-01,5.090375791986916088e-02,4.381506250140179692e-02,-1.758166070620243229e-02,-3.125901992660792134e-02,-1.068244172642961176e-02,2.848114371299743652e-01
3.170650323143489602e-01,5.153097677049936487e-02,3.492497449240999918e-02,-3.896383162996975950e-03,-4.365030341115374440e-03,-3.540645093802986029e-03,2.744701504707336426e-01
3.459778373545493446e-01,6.320254614804987625e-02,5.865762948436405166e-02,2.208584132538587725e-03,-1.861906153205641510e-03,-2.423275182469315607e-03,2.851497232913970947e-01
3.255166738442597518e-01,5.218713739154423603e-02,3.999918251009881853e-02,-1.424059376368646407e-03,-2.203362401283667749e-04,-1.301080005582557668e-03,2.796430289745330811e-01
3.193227670175644017e-01,5.568858512061818089e-02,3.647133661778328984e-02,-1.773581146180102080e-03,-3.563697888785500711e-03,-2.340825760478046792e-03,2.738659977912902832e-01
3.072843645220493247e-01,5.483837489869081150e-02,3.046727085852926620e-02,-3.778510876807288348e-03,-5.839561458024123894e-03,-4.928494856748569936e-03,2.658821642398834229e-01
3.015532520086195989e-01,6.329359081003810283e-02,2.962227826829806621e-02,-1.998653161455547691e-03,-5.631527324187421586e-03,-1.613038004007203438e-03,2.569802999496459961e-01
3.220916144402502512e-01,6.285482491672247929e-02,3.288546581256743262e-02,-2.707362305581553167e-03,-1.000781440847108190e-02,-4.325128978941394225e-03,2.761333286762237549e-01
3.110855600002373489e-01,6.093585344078600308e-02,3.358984171372500493e-02,-4.982057151914360237e-03,-2.517481212938651319e-02,-7.796241151382395963e-03,2.689263820648193359e-01
3.025379143886711697e-01,4.131209236475448521e-02,4.099774910565268105e-02,-1.251283970224284503e-02,-1.462580243772142186e-02,-9.816821026529578761e-03,2.640486955642700195e-01
3.195110021976156345e-01,5.863686337760856682e-02,3.402278476903816684e-02,-2.400292269611630381e-03,-3.474588595975938114e-03,-2.948126285574896761e-03,2.741567492485046387e-01
3.323978925360530079e-01,4.905523012606548272e-02,5.230880416205578587e-02,-6.232609188558966900e-04,-6.119018305156805147e-04,-3.923225622373472873e-03,2.818159759044647217e-01
3.205885717509261434e-01,5.041742218176922807e-02,4.618153562300253423e-02,-5.998620403952888147e-03,-9.255854314992434037e-03,-9.583656682299242571e-03,2.734872996807098389e-01
3.297924546185566075e-01,4.418726147896949452e-02,5.623431655856156453e-02,-7.900742016353125979e-03,-7.520607981104054885e-04,-4.294157274246527232e-03,2.802124917507171631e-01
3.160607424175043700e-01,3.735972192855689655e-02,4.722444163281323826e-02,-5.308326455114646854e-03,-4.771625677628988337e-03,-5.408910389462894507e-03,2.743408083915710449e-01
2.939133945488633382e-01,5.399315902371557008e-02,4.019812043352746778e-02,-3.413708518347811915e-02,-5.335206070368458259e-02,-1.244910654074518792e-02,2.712231874465942383e-01
2.259801172505742639e-01,4.426196309610295337e-02,4.672012751909419143e-02,7.092889275504409008e-02,4.012303756238456975e-02,2.287576569890096851e-03,2.291698753833770752e-01
3.269392172591306656e-01,5.230592820322137182e-02,3.773988797501900971e-02,-2.431959895672536603e-03,-4.213552420733381043e-03,-5.246797807400239641e-03,2.824704051017761230e-01
4.392835200723205769e-01,6.129718109748014121e-02,6.020336294318387460e-02,5.641026657288038260e-02,1.956310412822502218e-02,-1.396559777122273298e-02,3.931512832641601562e-01
3.207606688480507673e-01,7.251363161571765248e-02,4.961390249686227494e-02,2.711512106983395010e-02,-3.626874766259934046e-02,9.826145971447852387e-03,2.725387811660766602e-01
2.842467159347529804e-01,6.513399779110710941e-02,3.330375490740365707e-02,-2.604524480642251682e-03,-4.767575025396664223e-02,-5.531316422845269747e-03,2.508565783500671387e-01
3.081166592328032361e-01,6.317620066711161775e-02,3.128187382177428921e-02,-3.301614943875658646e-03,-1.894393558724953922e-02,-1.367861011778833931e-03,2.644621431827545166e-01
3.062434747589232176e-01,6.121679590794501524e-02,2.843108358648861744e-02,2.438069065029711824e-03,-7.149825921230926022e-03,2.515625823995360291e-04,2.632825970649719238e-01
3.435097697589071242e-01,5.892236070826681327e-02,5.745249518902102726e-02,5.120201522534206448e-03,-2.059621580321716657e-03,1.261802203789311183e-03,2.854936122894287109e-01
2.850970002247179558e-01,4.814770765723228041e-02,4.538883366769201622e-02,-1.001506284497212518e-02,-1.083637571933732634e-02,-1.026328216363744245e-02,2.403653115034103394e-01
2.751493827893797262e-01,5.957055780644776588e-02,4.553248279136580534e-02,-1.725239812698892844e-02,-1.948884680911984121e-02,-9.466729517899903634e-03,2.280325591564178467e-01
3.187510841567929853e-01,3.946774332735696056e-02,5.852627242998696688e-02,6.396138043371064549e-03,3.872673147404708319e-03,-5.963217802531181090e-03,2.707657516002655029e-01
3.192903713582315173e-01,3.446772846424486780e-02,6.155008868843561687e-02,-8.857771124135471394e-03,7.217818067884647099e-04,-4.626341709692981426e-03,2.728458940982818604e-01
2.543461072497181785e-01,4.356884660715676372e-02,5.922352958415823265e-02,-2.090489222004413353e-02,-2.100888264292573304e-02,-9.557035533819134912e-03,2.104320377111434937e-01
3.104400303788936721e-01,4.641386282924288287e-02,5.559081303305245247e-02,-1.183265425400496090e-02,-1.134925291635648960e-02,-1.254219876133085346e-02,2.620103955268859863e-01
3.440540692336774842e-01,5.710907346744478752e-02,5.446340456309925471e-02,9.074955758821948854e-03,9.636995002527393855e-03,-2.345097759913946853e-03,2.892157733440399170e-01
3.416265525960141547e-01,5.115135681516201627e-02,5.328168473771938141e-02,7.560924787791071210e-03,5.906976450256798405e-03,-3.875362075591206722e-03,2.899703383445739746e-01
3.759891978859752348e-01,5.096208480774754024e-02,5.880758790940299185e-02,2.089624845065480088e-02,1.539439488158318887e-02,-7.782212592289909983e-03,3.245871067047119141e-01
3.362594109438983292e-01,5.529029272074219292e-02,5.420829953630287856e-02,-2.679216607348414506e-03,-1.238848696127663402e-03,-1.773293344763474501e-03,2.815748453140258789e-01
3.378672049010652545e-01,5.671508020981322340e-02,5.654406771515027574e-02,2.252951645478223821e-03,1.269406947583846942e-03,-1.097545928763850884e-03,2.812797725200653076e-01
3.194368273628389598e-01,5.982475032378013757e-02,3.339655222675202983e-02,-4.706788740177760499e-04,-4.420974318814826359e-03,9.233909524431782069e-04,2.738974690437316895e-01
2.808455256837331104e-01,5.746305551374970844e-02,2.528371791065091301e-02,-5.931906248366318208e-04,-2.339908221856137199e-02,3.052605025852956613e-04,2.444737702608108521e-01
3.285817737788599979e-01,6.183881151702053103e-02,3.693675335472437760e-02,-6.395767709841623534e-04,-7.694073793110425483e-03,1.048514545726941891e-03,2.803506553173065186e-01
3.266495155619126844e-01,6.199243954419345060e-02,4.012751165060590708e-02,8.013751162052258929e-04,-5.131419499934846903e-03,1.456809530649321675e-03,2.763972580432891846e-01
3.379198302485358907e-01,5.885002823557954066e-02,4.207423695767972815e-02,3.783301227063928188e-03,-2.019128037912961207e-03,1.184749603227199443e-03,2.879277467727661133e-01
3.085150913848067611e-01,6.445419739336585851e-02,4.093903126339004661e-02,-7.494102159693470568e-04,-2.046344301472881669e-02,-6.941398269762132328e-05,2.590671181678771973e-01
3.308654584958345968e-01,6.296383264659771717e-02,6.361643766652323728e-02,6.255006045099821901e-04,4.377842723605195898e-04,-4.322605922480625071e-04,2.675802409648895264e-01
3.144874575968086838e-01,6.438215107895634004e-02,3.460717851280861734e-02,-1.836482173895824565e-03,-1.543755155688223378e-02,2.133629194058235090e-04,2.676028907299041748e-01
3.488823260941452675e-01,6.192695562103810170e-02,6.060460947144409583e-02,3.564297408167102672e-03,-8.731639969560995858e-05,-8.726828806054383455e-04,2.876890897750854492e-01
3.318423199894402487e-01,5.449882579647316594e-02,5.367008665381971244e-02,-1.524720124767270217e-04,-9.017767051818974342e-04,-2.312515149183909922e-04,2.777636051177978516e-01
3.153619863780021682e-01,5.559939978108359437e-02,3.399736630866752318e-02,1.795434723515788834e-04,-1.213448606407338624e-03,-1.016729958837472815e-03,2.712236344814300537e-01
2.786502040289338122e-01,5.378832256582298521e-02,3.201817778992850638e-02,-2.212767403216171422e-02,-4.136253793461492495e-02,-9.310469783167168306e-03,2.505865395069122314e-01
3.400625744498354530e-01,6.223084654734142851e-02,6.293246366187793539e-02,-2.119352113561606427e-03,-2.591262700288890670e-03,1.518038563544853127e-03,2.775546014308929443e-01
3.934050041597830782e-01,6.347332281665042653e-02,5.784619792649023373e-02,-3.413802065394223526e-03,-1.353231344510931466e-02,-3.302165706234594378e-03,3.337067365646362305e-01
3.829736421000458080e-01,5.718239974236076495e-02,5.902342413935496301e-02,-2.171511582836149409e-02,-6.461218119707058845e-03,-4.573185923795968118e-03,3.273318707942962646e-01
3.370156938306079208e-01,6.468798643937836990e-02,5.796007682537958339e-02,-7.105064721098418518e-04,-1.208645787381864732e-03,1.428138429529015241e-03,2.757750153541564941e-01
3.326956427454188514e-01,5.108327444800118966e-02,4.603976535315207341e-02,-1.282726611206399733e-02,-1.569783187454259349e-02,-1.097529578728506996e-02,2.869591116905212402e-01
3.324677406015276171e-01,5.677128540606021789e-02,5.684902863410841445e-02,5.732973406567476666e-04,-3.567962085016171121e-04,-4.375563182533799989e-04,2.756611108779907227e-01
3.364879611150073946e-01,5.463234168567701610e-02,5.677841257269729269e-02,-4.344532428804426553e-04,2.383489821035012141e-04,-1.443995387482013056e-03,2.808011770248413086e-01
3.317103843815851771e-01,5.929941414502808150e-02,5.992127524628053370e-02,-8.524788161918205563e-05,-2.476427696998731312e-04,5.969022760716138779e-04,2.721029222011566162e-01
2.992925516970112998e-01,5.187570388248993747e-02,5.488246011849601258e-02,2.913964797631710124e-02,4.952683060384258096e-02,-1.075715243275054966e-02,2.659575939178466797e-01
3.326700328578602872e-01,4.463229074968935728e-02,4.905906897522643861e-02,-1.581146400456300461e-04,2.132371353351238119e-03,1.019743578103930433e-03,2.858795225620269775e-01
3.363116777807987345e-01,5.798745747772775239e-02,5.389021406882815723e-02,7.767032669308405026e-04,-6.721999263701137518e-03,-2.013119934715556537e-03,2.806617915630340576e-01
3.174082901170590665e-01,5.916406737808346805e-02,4.793971247312972528e-02,-3.199335988632674623e-04,1.784467526902058093e-02,9.210206594029877666e-03,2.663170695304870605e-01
3.301132247909325801e-01,5.464876575412842830e-02,3.873457444999887922e-02,-2.315193863903017811e-03,8.727232037504013482e-03,5.764783809543677640e-03,2.843624353408813477e-01
3.230509098740766971e-01,5.513306997036744594e-02,4.083643211273133011e-02,-4.330466147561076035e-03,6.299449283808593314e-03,7.344374662004531790e-03,2.759561836719512939e-01
3.357368373973195763e-01,5.587537191621055888e-02,5.268014822798146313e-02,2.194546300538458504e-04,6.936483606755479642e-04,3.341106662700640394e-03,2.815349698066711426e-01
3.251832114372965599e-01,4.528459035739244853e-02,4.404414864071805324e-02,-9.358887949330976438e-03,1.738634288563448149e-02,7.321820928586990004e-03,2.828823626041412354e-01
3.177214830072669360e-01,4.588663245632197685e-02,5.336743983289658766e-02,-3.522840209406041725e-03,6.977430079573376277e-03,5.386959294686630324e-03,2.686762809753417969e-01
3.282176915198359302e-01,5.195640214304794724e-02,5.109322316000323994e-02,-6.725666283040979479e-03,8.543760925053829614e-03,4.377157870458709028e-03,2.774376869201660156e-01
3.338712024235035991e-01,5.422650211756070704e-02,5.449340828620886923e-02,9.853548052489095703e-04,1.069550614304173777e-03,1.422505420813088275e-03,2.795335650444030762e-01
3.336908896681335390e-01,5.502011067632010810e-02,4.195788915220381721e-02,7.585265442582434349e-04,1.060439786046678311e-03,1.090554848112511950e-03,2.854413390159606934e-01
3.270759637498233396e-01,5.612124469367826829e-02,3.615324361087221550e-02,-2.119352426673511754e-03,1.130070151931578809e-02,5.150822180910716308e-03,2.823150455951690674e-01
3.315671186885839061e-01,5.069416744545328368e-02,4.987031915366260670e-02,-3.687454932585567963e-03,1.443337734599366628e-03,3.412650211722100067e-03,2.814314663410186768e-01
3.312009046850711291e-01,5.754921084242460572e-02,4.533427162745279348e-02,2.203837140402362203e-03,2.646641267672842149e-03,3.278044084526341578e-03,2.800801992416381836e-01
3.235520717233736354e-01,5.578551037865718543e-02,3.824133223810100013e-02,-1.930300673656905027e-03,8.003000681554451462e-03,5.853353964746260685e-03,2.775078117847442627e-01
3.097346745037409810e-01,3.815013641344563999e-02,7.123098135631493466e-02,-4.493122807740172753e-02,1.756716785691229705e-03,4.598123497821181814e-03,2.683233022689819336e-01
3.401308966916761767e-01,5.766775551926087151e-02,6.164315293498565107e-02,-1.413173176528149770e-02,1.184824203863406311e-02,5.599179582206461996e-03,2.824759185314178467e-01
3.346574378924972448e-01,5.061427384478034419e-02,6.006123394879592237e-02,-3.191037586136712123e-02,8.608300624699517095e-03,6.685445805302922366e-03,2.854779064655303955e-01
3.156802769945841192e-01,6.796514702601261226e-02,3.537721764385265422e-02,1.528535215627725014e-03,-2.646815221536370083e-02,-7.447055909443345452e-03,2.697635293006896973e-01
3.113626940303914070e-01,5.826646262420330513e-02,3.640767025521657319e-02,-4.261921841808839762e-03,-9.343720052942174753e-03,-5.952085512863206952e-03,2.655006051063537598e-01
3.402795001495759752e-01,5.551040196203607668e-02,4.607869238514145094e-02,-1.087097768269099270e-02,-1.319828803061234672e-02,-7.101547819800484163e-03,2.913703322410583496e-01
2.737071233886106403e-01,6.014669874035713515e-02,4.452059281863865459e-02,-2.140857664782460160e-02,-5.412247150921594557e-02,-1.129226872284059928e-02,2.444066256284713745e-01
3.380546627637058821e-01,6.126905162911694402e-02,4.574030605462080235e-02,-6.822150694033263067e-03,-2.373296346284466812e-02,-2.539666061328633029e-03,2.880942225456237793e-01
3.149304060378002035e-01,5.986876863376347502e-02,2.927167011957523823e-02,2.922727200831976881e-03,-4.895548527717504678e-03,-9.784934891099687042e-06,2.718350589275360107e-01
2.962553936402270160e-01,5.377991285721535342e-02,3.313937963602661685e-02,-1.635979403399149060e-02,-2.433244692900903006e-02,-9.648846956606496258e-03,2.590050995349884033e-01
3.210656177001969258e-01,5.918178692076465908e-02,3.475579234838326037e-02,-3.300183340220638056e-03,-8.240542389553431185e-03,-5.917863169119211460e-03,2.755322158336639404e-01
3.320553457909150019e-01,5.174689086228420609e-02,4.826879274314112289e-02,-9.162402372902951836e-04,-1.518886683528892665e-03,-5.308170809311949997e-03,2.822301089763641357e-01
3.451047182295271520e-01,6.225657135478726567e-02,5.382555190876105178e-02,-2.897521644383678485e-02,-4.294302191279358860e-02,-6.939567446239616223e-03,3.010885715484619141e-01
3.365292547725504124e-01,5.616914777411340098e-02,3.632066832551918145e-02,-3.714280001651787139e-03,-1.788393034756482688e-02,-5.506714318733657750e-03,2.926642000675201416e-01
3.334634133045709659e-01,5.715392876546789014e-02,4.690061184152832796e-02,-6.834112243244349835e-03,-1.233957927079395306e-02,-2.829137090039564144e-03,2.826766371726989746e-01
2.956075856760911336e-01,2.939436846738825715e-02,5.741730832915627192e-02,-2.120011132229259257e-02,4.127552444391877073e-03,-4.466227937038365001e-03,2.562302947044372559e-01
2.712822850235969696e-01,2.921193947645803202e-02,5.970960743548107269e-02,-2.744121744576433902e-02,-2.633637204458074690e-04,-3.583790429090067189e-03,2.333310544490814209e-01
3.019763014175971816e-01,3.252280168454894926e-02,6.337343012990899471e-02,-4.513881002873667420e-02,-1.028560205953229188e-02,-1.270525095356372751e-02,2.686230242252349854e-01
2.779226629477874466e-01,3.436753697248132178e-02,6.184521080898416900e-02,-1.842536295808277699e-02,-1.967487205284830856e-02,-7.093877265963848336e-03,2.360350489616394043e-01
3.466048553660313614e-01,5.094899635655500414e-02,5.767644550033415585e-02,8.275672357844923374e-03,-2.214670822209624350e-03,-7.042053685741012960e-03,2.929805219173431396e-01
3.478329818717803001e-01,5.066458808579692163e-02,5.060416470809459000e-02,2.353735765730519385e-03,8.111197990625285473e-03,-7.039499370053511548e-03,2.978081107139587402e-01
3.368207736127997176e-01,5.444212609842352668e-02,5.473129724568973065e-02,-5.014747034924757702e-04,8.685820616228514743e-05,-9.010874873842414324e-04,2.822398543357849121e-01
3.391662271840754084e-01,6.079245951930581371e-02,6.245251049894764983e-02,-2.552812104252042986e-03,-8.908717801663752984e-04,1.437431609205378500e-03,2.775981426239013672e-01
3.662181024497639381e-01,5.740775539098386115e-02,5.618881114681278932e-02,-1.205239490040274294e-02,2.165078785075673362e-02,5.368093325724901908e-03,3.125223815441131592e-01
3.296558361808736848e-01,5.363059171950411430e-02,3.596651108733731061e-02,6.167630133784188055e-04,1.821609327402644784e-03,1.241115656258710885e-03,2.852953076362609863e-01
3.282250481321105084e-01,5.117553076350118968e-02,3.868136603205653279e-02,-7.671826345395906725e-05,1.966302372561727358e-05,2.755380423912918205e-03,2.835433483123779297e-01
3.990577120247893461e-01,6.604415357750212379e-02,6.897825341721637582e-02,-5.678893909178779967e-03,4.248545538932351276e-03,-3.650513073524077918e-05,3.317837417125701904e-01
2.993818290660810177e-01,4.589140535167493540e-02,5.244230649632357355e-02,2.140201471825117774e-02,1.783234323299266733e-02,-8.326598326191711821e-03,2.552955746650695801e-01
3.716678346065908078e-01,6.294095508062300115e-02,6.176737651856339939e-02,1.847521809049731956e-02,2.157429250003477586e-02,-2.335599239480846880e-03,3.132294714450836182e-01
3.332743131982147666e-01,5.505470448290056273e-02,5.999755264445499892e-02,6.198307037456466002e-03,-2.403555502549710541e-03,-1.502932077498042769e-04,2.760218083858489990e-01
3.713164772477527409e-01,6.136704377294527335e-02,6.661548466094416310e-02,1.890368677289831420e-02,-4.431373788036175980e-03,5.571980817894269487e-03,3.093437254428863525e-01
3.332045259470914900e-01,4.888231367735133837e-02,5.562400651747041735e-02,4.275513290477584577e-03,1.265913576017075421e-03,3.236856667133993209e-03,2.811740338802337646e-01
3.307673553043723458e-01,5.318331074373096323e-02,6.428221184371611663e-02,2.950414222696393779e-02,-6.932034305767335175e-03,1.425711654700828092e-02,2.783175408840179443e-01
2.585236632163485648e-01,3.918844478835033229e-02,5.646702846212424409e-02,-6.899998719421088222e-02,-2.221464679350827059e-02,-1.250280059990268276e-02,2.466761320829391479e-01
2.536393013670455998e-01,3.959844557398502218e-02,6.980005764058103135e-02,-2.927788228893731665e-02,-9.608171480707349129e-04,-1.962451423340221424e-03,2.069955319166183472e-01
2.553276980205956281e-01,2.955627337178767799e-02,6.561323448930241053e-02,-3.175795364870295789e-02,-3.329418263884241069e-03,-5.940438904217053805e-03,2.174788117408752441e-01
2.573149457924925887e-01,3.866671126321907792e-02,6.880218088375301966e-02,-4.978588676946132940e-02,-1.197002677199729068e-02,-2.957900966766974921e-03,2.236473262310028076e-01
2.324172443970641821e-01,5.415812421389550047e-02,4.149332695576875285e-02,-1.509856237365907183e-02,-4.209192012380470749e-02,-1.009225180705044383e-02,2.012435793876647949e-01
2.852319173729412904e-01,4.869289727347421437e-02,4.258895262480334731e-02,-1.596792008520108580e-02,-2.333741106506052182e-02,-1.223843701578012505e-02,2.455197572708129883e-01
2.927347145060509304e-01,4.921433289131901812e-02,4.942797689750311196e-02,-4.708120836480382022e-03,-4.492179475159738603e-03,-9.305898418761513260e-03,2.442069500684738159e-01
2.866971724923159104e-01,5.708412068810800322e-02,3.622393707243427852e-02,-7.320507648453647084e-03,-1.831870193563470486e-02,-1.061083897959804075e-02,2.438284903764724731e-01
3.222581500425978351e-01,3.685900889018849103e-02,6.039760032798877076e-02,-2.690514568556973823e-02,-4.311456973906883060e-03,-9.354501087912638416e-03,2.788884937763214111e-01
3.376600468241572339e-01,5.490881988046295015e-02,5.682253597106756704e-02,-1.042807389254216295e-03,-2.043156769767765554e-03,-8.713847217735385103e-04,2.818312942981719971e-01
2.830048666365740928e-01,6.731737472314663906e-02,4.123251596802257612e-02,2.757502606504824011e-03,-2.182676152263451127e-03,-1.467141109088538264e-03,2.299374938011169434e-01
2.989867497061129420e-01,5.949453410808849818e-02,3.231237202671179143e-02,7.141305642481015140e-03,-2.122871920166165272e-02,9.365682883503790917e-04,2.571243047714233398e-01
3.154214162882247319e-01,5.392671700103901511e-02,4.173759550175042132e-02,-5.493997326273970978e-03,-1.719413932663082720e-02,-7.332402212207941340e-03,2.699151635169982910e-01
3.049137169093492084e-01,7.175174273353349119e-02,3.535620203351888535e-02,-1.813937745144567851e-03,-2.495984774464898165e-02,2.284582813988481119e-04,2.570101320743560791e-01
3.349086462606559178e-01,6.226790771301485283e-02,6.515038608079910809e-02,-1.314522277554169144e-03,2.169468490249828064e-03,-9.888177788295029677e-04,2.712519764900207520e-01
2.615440293476447575e-01,4.935889921591310459e-02,4.139736793630395539e-02,-3.096037366022149837e-02,-4.944872405886327482e-02,-1.156329371518802045e-02,2.395569384098052979e-01
3.416886350143216178e-01,7.275104894680420320e-02,6.104065762590578370e-02,-1.456176491006247811e-03,-8.643468558822719507e-04,1.542081239443152856e-03,2.750084698200225830e-01
3.385507729518312248e-01,6.289800380129849378e-02,5.839324228779510517e-02,1.762708039934953981e-03,7.110259987460545040e-04,-1.087245010529934485e-03,2.779583930969238281e-01
2.764284568110997320e-01,4.639676857793789688e-02,4.837848198282734824e-02,-1.169730309618850078e-02,-2.856321153741314678e-02,-1.241989206331259310e-02,2.361852228641510010e-01
2.806900746633870236e-01,5.757222992235071224e-02,4.825140381696949032e-02,-1.239925625379254340e-02,-1.261861526097027980e-02,-9.953519746068071120e-03,2.306170463562011719e-01
3.144643492159490128e-01,4.260731635693504327e-02,6.131391094391960839e-02,1.122420195541984529e-02,-1.145294840654094990e-03,6.882093275592528550e-03,2.639974057674407959e-01
3.202249116514681582e-01,4.625089522888879701e-02,5.331241812444119377e-02,5.684950758304327563e-03,-6.674538810011216997e-04,8.875163612490848120e-03,2.711301445960998535e-01
3.200177549560961898e-01,4.193817754741668846e-02,4.980734623944998996e-02,7.175342869842559444e-03,-8.884979638789022860e-04,4.355930529885695263e-03,2.746191322803497314e-01
3.348825425066958017e-01,5.563560562826004585e-02,5.697850943874190055e-02,1.342104172841441677e-03,8.424816740973109161e-04,-5.634801083166655249e-04,2.785931527614593506e-01
3.282438030365466552e-01,5.108623495678107918e-02,4.915292257060580039e-02,1.491935334216072792e-03,-4.946029980112798654e-04,4.454037917128024666e-03,2.782495617866516113e-01
3.627909770356704811e-01,5.827108283936464905e-02,5.951530993396607350e-02,8.929074330276060359e-03,-1.009582579903045042e-02,9.169918216009897462e-04,3.047991394996643066e-01
3.231325881807290967e-01,4.688536049774391645e-02,4.556672309213377625e-02,3.340979923688201878e-03,-5.066256485043320497e-03,7.125271750022334899e-03,2.773829996585845947e-01
3.295112667757431613e-01,5.011805082672830813e-02,4.448961579359891894e-02,5.463422752155036068e-03,-3.991398446962846243e-03,6.450471053821169032e-03,2.827135622501373291e-01
2.607734760018411979e-01,5.683051068805151929e-02,5.494623665021067249e-02,2.393248749910747986e-02,-1.769964912449866618e-02,1.681643615529605437e-02,2.132769823074340820e-01
3.432993047607015846e-01,6.280776615795581608e-02,6.480042020526344260e-02,7.044998245110042738e-03,-2.947005208144708437e-03,-2.611039233168251095e-03,2.798498868942260742e-01
3.505536497619510250e-01,5.817223754429781679e-02,6.251446404364195686e-02,2.902665552439091107e-02,-2.229091981996558086e-02,5.242188043809326882e-03,2.972152233123779297e-01
2.920150339164184761e-01,3.492981682518501996e-02,5.291778237170415011e-02,-3.299168752280885047e-02,8.815867306416297301e-04,4.426460849189388955e-04,2.550690174102783203e-01
3.330312673950874824e-01,4.236119357218795511e-02,6.051104851380899319e-02,-1.439870039450976379e-02,1.171547857818439065e-02,7.204824015240814117e-03,2.841343879699707031e-01
3.239177077669076477e-01,4.387598422732490178e-02,5.384149147953962156e-02,-1.921303252096695502e-02,5.561012309177500168e-03,4.051842361548629520e-03,2.774551808834075928e-01
3.148212037620807813e-01,3.725173715283454368e-02,6.447345582748896520e-02,-4.717389487409424237e-02,3.828747486786180775e-03,1.646832295046463590e-03,2.774133384227752686e-01
3.299717396353304966e-01,4.853686769776018040e-02,4.852630448673772579e-02,2.085814184734548909e-03,-5.412715861669411188e-04,2.999302072893101842e-03,2.815128266811370850e-01
1.807261940352168916e-01,5.534248064533014988e-02,5.110914124822861504e-02,-3.336035684759732639e-03,-7.204607633453444238e-02,2.092810958141054739e-04,1.785363256931304932e-01
1.704986900991042331e-01,4.818355184995702645e-02,4.370889806387091847e-02,-1.939487954711231060e-02,-5.622889827278001323e-02,4.340791712033201591e-03,1.618592292070388794e-01
1.491984620960528085e-01,5.330181658784417797e-02,4.390764134430793358e-02,-2.450241596324048005e-02,-5.741928662295153751e-02,-2.005160656607268583e-04,1.479102373123168945e-01
2.590735220809133321e-01,7.461525926281067922e-02,4.695625215130640184e-02,-4.601303298268129977e-03,-2.537291350608610399e-02,-1.092891052082037165e-03,2.046710997819900513e-01
2.153498426516334552e-01,6.715656620703247537e-02,5.629859350932140544e-02,-4.299900124506486881e-04,-4.586963041049062044e-03,3.816244817903880360e-03,1.542581915855407715e-01
1.520085505351783661e-01,5.305246778176548467e-02,5.676766161981648684e-02,-2.926881897831549312e-02,-7.282939252215099579e-02,-3.264716030659186100e-03,1.671908944845199585e-01
2.117914613710593918e-01,6.667191197007492354e-02,4.498854566955447221e-02,-9.211783604358300681e-03,-4.268426834988640201e-02,-4.789319629882696563e-03,1.745444238185882568e-01
3.098347169170696525e-01,3.325532125807453832e-02,6.057908703666460559e-02,-6.531075367344279896e-03,-1.494138160272712309e-03,-4.493810218090451940e-03,2.643497884273529053e-01
2.849746740381917665e-01,3.672013219256858862e-02,6.108622561353686808e-02,-1.533424206316940340e-02,-2.646879493287652031e-03,-9.192442248528127219e-03,2.390710562467575073e-01
3.270097895379281971e-01,5.331721125625728253e-02,4.107033810470195334e-02,-2.003448489579679435e-03,5.415561300662613022e-03,5.952418313689548414e-03,2.803851068019866943e-01
3.204513422209672724e-01,4.266401549219282774e-02,5.524669790345866638e-02,-8.151087051737598149e-03,-2.760412846031759689e-03,-8.872131318635817498e-03,2.725566625595092773e-01
3.157050543595749659e-01,3.873937434125740431e-02,5.281655098409694660e-02,-2.824788695443518696e-03,-2.647797358115120802e-03,-4.672725500318695296e-03,2.704066038131713867e-01
3.163024128382108113e-01,3.342810853388097914e-02,5.201853463602737482e-02,-3.951139777725060781e-03,-4.188693279356592823e-03,-6.309429250698796871e-03,2.744514942169189453e-01
3.082291688909517546e-01,4.426307887276205444e-02,5.461585072961872012e-02,-3.098440821526843997e-02,-1.657139441601111415e-02,-1.136701473698575882e-02,2.667284309864044189e-01
3.135907084595386807e-01,4.740062402949876685e-02,5.125547707302229028e-02,1.544219187167279392e-02,2.550407849981743691e-02,-9.044711275135239661e-03,2.697370350360870361e-01
3.587624640484028404e-01,6.371280974665716190e-02,5.933930247667135172e-02,9.127313045005273559e-03,2.053037835162817119e-03,9.374176661212276895e-04,2.977062761783599854e-01
4.120010219994509892e-01,6.708613021514221730e-02,6.642171355677876921e-02,1.211241447630586991e-02,2.183527724190872845e-03,1.315888764065257979e-03,3.459126055240631104e-01
4.368766882230184501e-01,5.524335804954964846e-02,2.631289635413316952e-02,5.794168530510469470e-03,-5.420807326750899657e-02,-1.518824932571155931e-02,4.088155031204223633e-01
3.410375558008953423e-01,6.155561603104907353e-02,6.367503521016863732e-02,1.852206439787667126e-03,-1.849374144612207825e-03,1.832060880924848794e-04,2.784653604030609131e-01
5.538049110380824924e-01,8.537185083315659839e-02,6.973803871412864730e-02,1.230140008834225071e-02,7.651842238714731854e-03,-2.228706343546004234e-02,4.786617755889892578e-01
3.694449450630775122e-01,6.587998589571687769e-02,6.302657744616635416e-02,1.618618509548083728e-02,-2.258733956128492534e-03,6.399779619234951047e-03,3.065129220485687256e-01
3.867152409329842611e-01,5.650775700176553784e-02,6.358669693718844995e-02,2.681787404547925080e-02,1.369403092952905902e-02,-3.815823155506975440e-04,3.308627903461456299e-01
5.377475548834147467e-01,8.149342258980918352e-02,6.463445503204265363e-02,-1.120724551917393931e-02,1.181751726733767764e-02,-1.527360969680094729e-02,4.665186405181884766e-01
3.018587392278332393e-01,3.367334900230838091e-02,6.262700862463335683e-02,-1.055189317528800082e-02,3.338696414214440463e-03,3.805151157012803148e-04,2.556651532649993896e-01
3.138929484685529792e-01,5.147345599280385431e-02,3.848164622409470936e-02,-4.812326999272077861e-03,-1.581389700949361113e-02,-8.993517597888722390e-03,2.711170315742492676e-01
3.561352746862401775e-01,4.900099717932919485e-02,6.606948877149947108e-02,-3.471026683275212771e-02,-2.887221726543048525e-03,-7.322811018916941181e-03,3.052552342414855957e-01
3.346576371525807891e-01,5.527403621716997506e-02,5.489327826638856767e-02,-4.436333684168542769e-03,-4.012967115862977295e-03,-2.566807050466811662e-03,2.798014283180236816e-01
3.294135014472864831e-01,3.765117029297973539e-02,5.900476015284750186e-02,-1.354089932044583340e-02,-1.782488368488814806e-03,-5.710348731828198375e-03,2.828577160835266113e-01
3.351306669357486667e-01,4.625636889909098826e-02,5.455159346385801689e-02,-9.703037359382458982e-03,-7.290842085750268500e-03,-6.030999031275076708e-03,2.857830226421356201e-01
3.846703566193648838e-01,6.018531999674366084e-02,5.980470745975778601e-02,-9.863329746330775499e-03,-1.994222001239009251e-02,-5.649174907316765852e-03,3.271006941795349121e-01
3.339514749464576604e-01,5.866450052576517582e-02,5.605371472013478962e-02,-1.581031690419883694e-03,1.195876850419393123e-03,7.872961986180816631e-04,2.766262888908386230e-01
3.341580515256782347e-01,5.884389440006529415e-02,5.534776114966766247e-02,1.386644725291344589e-03,3.448105875240740047e-03,2.799482437500245289e-04,2.771539688110351562e-01
3.275548860881506985e-01,5.404964928505159860e-02,4.434993322474055366e-02,2.550860576378461190e-04,2.436019010562255702e-03,5.034212574319304502e-03,2.786505818367004395e-01
3.596238818422642369e-01,5.591962813045686653e-02,5.302849415261139121e-02,-1.297841830471099453e-02,1.968338794234420278e-02,5.142135858059729107e-03,3.080091476440429688e-01
2.902213820460854965e-01,4.337978107187721866e-02,5.650023058092078221e-02,-2.786570545637369681e-02,1.966610851150392414e-02,9.936604906632423573e-03,2.482946217060089111e-01
3.374083079890163317e-01,5.267574215107387325e-02,4.210321726968217770e-02,8.029512608124962647e-04,-1.344449393022653649e-04,-1.312887446690127373e-03,2.901756465435028076e-01
3.364256330891536861e-01,5.314916639823569211e-02,5.683335331889008413e-02,-3.842312207240724652e-03,2.080561173569663285e-03,1.299722864851457060e-03,2.815631926059722900e-01
3.328626201707562959e-01,5.035837127349840348e-02,5.573713038388210250e-02,-1.050833408266988941e-02,1.921329709206620997e-03,3.127106866091093097e-03,2.805169224739074707e-01
3.308669012689012257e-01,6.467351269597021446e-02,3.890740613140759863e-02,1.364658024286228340e-03,1.319770394735064918e-02,2.886576237912780261e-03,2.809531986713409424e-01
3.233592801204323575e-01,5.950219051333605069e-02,4.786768350033164532e-02,-2.885002499443574397e-03,1.790562206569187506e-02,5.771759101163115649e-03,2.718685567378997803e-01
2.125508615109010790e-01,4.437062623424009589e-02,6.475715951736435438e-02,-3.953290247256292800e-02,4.697349337819197931e-03,4.622052748332369787e-03,1.734659224748611450e-01
3.097890017627926706e-01,6.156725414718071387e-02,3.505074468078821226e-02,-1.678950272265855711e-03,9.511906724065368954e-03,3.243632178429125407e-03,2.630790472030639648e-01
2.625153839302128422e-01,6.298400660997838241e-02,4.517809729279313735e-02,3.227579086758722987e-04,4.000544690470164699e-02,1.234759239145826436e-02,2.212276309728622437e-01
3.340836568621851077e-01,5.841832327659354784e-02,3.846808294785701576e-02,6.321563718944341222e-04,1.434566349923588162e-02,2.446765446215100510e-03,2.872725725173950195e-01
3.379068616740935616e-01,5.933791368118569720e-02,6.263231578550507161e-02,-1.221280324245721570e-03,-8.899256381198407829e-04,1.052215329998728655e-03,2.769547998905181885e-01
3.435799852262686471e-01,6.634375860819952120e-02,5.865387317453235605e-02,-1.045888160039916675e-03,-1.851333319025175780e-03,1.414028628735852344e-03,2.811948359012603760e-01
3.432211726271704455e-01,6.721982279988365783e-02,5.635151497797231956e-02,-1.685336886893692933e-04,-1.391721655103406370e-04,1.900705336487981288e-03,2.816123366355895996e-01
3.478455115485682425e-01,6.142059710681764539e-02,5.918712279954843614e-02,-5.687865645536477853e-03,-2.774977908017243512e-03,2.345438273844695654e-05,2.877570092678070068e-01
3.814182425375776120e-01,6.875770777555370583e-02,6.345594196115202090e-02,-1.237713457702472285e-02,4.150232356157014697e-03,2.047204020436196523e-03,3.161743283271789551e-01
4.025943324591350070e-01,6.164152557348975825e-02,6.524478967723119915e-02,-4.149292054616683309e-03,-5.949023482604791531e-03,-4.165217069175312752e-03,3.394747674465179443e-01
3.888315876197416809e-01,6.232021536844269127e-02,6.989729995064365708e-02,-1.566048352654780818e-03,4.795737180582662976e-03,-9.184912257024572787e-04,3.229117095470428467e-01
3.540632307789555178e-01,6.707877610763449128e-02,6.158640711652350885e-02,4.401183492840855284e-03,-3.002882600570362659e-03,2.094664636689967825e-04,2.899168133735656738e-01
2.997387041371620819e-01,3.752738319686403645e-02,6.959287104214489927e-02,-9.556729183283799514e-03,-1.604685861245717547e-03,-4.715440148436206465e-03,2.484420686960220337e-01
2.471520194418109495e-01,4.305549491929361317e-02,6.528054975340760735e-02,-1.593730676138910285e-02,1.915073384370283207e-03,5.591680931181860917e-04,1.959265768527984619e-01
2.782528472769962291e-01,2.895554832705848902e-02,5.886839088573125878e-02,-9.999197392039055332e-03,8.634113192791668164e-04,-1.302481507238091021e-03,2.364191412925720215e-01
2.793203519805317891e-01,3.311261501087747749e-02,6.579657567824917508e-02,-7.442636039645393609e-03,-1.719418156232683159e-03,-4.781317986971348605e-03,2.321272939443588257e-01
3.190314577584566491e-01,4.792039778061096822e-02,5.379544171832302546e-02,-4.929017747807790117e-02,-3.191609795296652952e-02,-8.081407053483690220e-03,2.871991395950317383e-01
3.006983586196987912e-01,3.840331177262454321e-02,7.026026942652505158e-02,-1.215885018698294011e-02,2.638252492069992176e-03,4.666809876529729069e-03,2.489726245403289795e-01
2.420466481795890967e-01,4.236805810946052409e-02,6.430126489822390878e-02,-1.829660094665933046e-02,2.536862954440374362e-03,6.743503715980153721e-04,1.923485994338989258e-01
2.621573371656800155e-01,3.564523853404724663e-02,6.434178142897528652e-02,-7.161689427729020507e-02,-4.823740939688537892e-04,-1.516159487197445361e-03,2.470336854457855225e-01
3.214190796331887201e-01,4.836064871849631019e-02,4.691647616079983041e-02,-7.033897912166405019e-04,2.569773100926493747e-03,8.156005454478594541e-03,2.741864323616027832e-01
3.177359895759629405e-01,4.297115634795935224e-02,4.492582962038435546e-02,-3.837204921856785661e-03,1.332952043944315729e-03,6.665563954286747930e-03,2.741263508796691895e-01
3.183397767305571890e-01,4.067381822639597189e-02,4.855599467830794269e-02,-4.252782292170005293e-03,2.619976640421161837e-03,3.983125670115363059e-03,2.740334868431091309e-01
3.027526655671434197e-01,5.456638143736546043e-02,4.272359596352348632e-02,-1.111171619585963298e-02,3.105177902954848329e-02,7.549407198772287858e-03,2.609787881374359131e-01
3.156314171484307929e-01,5.886242566031077428e-02,3.577002704130449739e-02,-2.108699523178261901e-03,5.816792202424137664e-03,4.722927801104090210e-03,2.693970203399658203e-01
3.024695892743017867e-01,4.378266174644963871e-02,4.411313772292631274e-02,-2.137260916905709199e-02,2.664651691215117260e-02,9.916716450861409737e-03,2.657612562179565430e-01
3.097719419653031103e-01,6.043450258858214241e-02,3.500275466763864973e-02,9.458201489423648917e-05,-1.120014360651906855e-02,-3.913919883473352714e-03,2.637789547443389893e-01
3.462747161669313956e-01,6.185654409842912538e-02,5.839920418417414438e-02,2.282129439552326269e-04,3.319299285742920592e-03,5.770967469530512020e-04,2.862222790718078613e-01
3.313717565351627092e-01,5.025387282248849896e-02,4.738288630653245126e-02,-2.949219684431271526e-03,3.321491535627748518e-03,2.718792294231359586e-03,2.827082574367523193e-01
3.361717162767431377e-01,4.692328288071327680e-02,5.350850473330502621e-02,7.404597166394203712e-03,-3.896171888681975587e-03,4.858673742992494771e-03,2.865032255649566650e-01
2.268193665739142995e-01,5.446039805280955548e-02,2.937747958426237260e-02,2.522113546503505430e-02,-4.624258984132603029e-02,9.299735992418001890e-03,2.079493552446365356e-01
3.118066685224580303e-01,4.679294531374134092e-02,4.113991557692907308e-02,1.801453170594295369e-02,-3.512471086020804018e-02,8.913555853463234202e-03,2.769034504890441895e-01
3.162942379499745771e-01,5.301336616479056241e-02,4.492293845249030471e-02,2.347232502609104474e-02,-3.271277595532978005e-02,1.184853247282824026e-02,2.771221995353698730e-01
2.897454046271191741e-01,3.929637508074172725e-02,6.295961441020350713e-02,1.134652739933519373e-02,-4.782836206265368879e-03,7.786729956355744643e-03,2.408214807510375977e-01
3.423468099898937522e-01,5.436432378094206708e-02,5.606849892212210917e-02,4.473601891894464326e-03,1.053027105070296690e-02,-5.130203918240175583e-03,2.879543304443359375e-01
3.227582266017406942e-01,4.088560309885906630e-02,5.793859955282182339e-02,7.882326517800840662e-03,4.417275301590918059e-03,-5.648035940130952288e-03,2.743662595748901367e-01
3.388137590272409794e-01,5.037229805321027931e-02,5.229169339935334226e-02,-1.039580850917398471e-05,-2.290970091227521443e-03,-5.361529631486497936e-03,2.876638770103454590e-01
1.914413813418995580e-01,3.990716859026024327e-02,2.920897786305805266e-02,7.183542886103810865e-02,2.373511148453257003e-02,-2.770185704061221312e-03,2.046760469675064087e-01
3.690985085158239309e-01,7.575907703788659076e-02,7.036806322650371315e-02,7.879149014441352850e-02,6.011690528775100184e-02,7.810251844126334629e-04,3.422378301620483398e-01
3.328503372725676313e-01,5.455281119495261621e-02,4.479308079476174154e-02,-1.096377769227079382e-04,-3.028636024512675333e-04,-3.483017788447373073e-03,2.833682894706726074e-01
3.151645280611876654e-01,4.836774151482085837e-02,5.192302188129212237e-02,9.524187311971009720e-03,3.923096700258952435e-03,-7.738637002181118600e-03,2.659747898578643799e-01
3.141549425350113056e-01,5.648704768067995541e-02,5.280023176120361705e-02,4.019937407451633360e-02,3.343279717929859701e-02,-5.096731344024918973e-03,2.750190198421478271e-01
3.007376240577605553e-01,4.535573179921209563e-02,5.008792018186461470e-02,5.023541652410692948e-02,3.817152825012322392e-02,-6.830775132170382145e-03,2.758908271789550781e-01
3.305934792260293298e-01,5.062126097146180115e-02,4.524232914294766539e-02,-6.349698883662129338e-04,2.182167794845244358e-03,-2.813770547260311880e-03,2.827694714069366455e-01
3.366511905048420461e-01,5.449384324760812859e-02,5.435557919448169573e-02,-5.602078540576999532e-04,1.531922072257252334e-04,-9.915200908694561319e-04,2.822335362434387207e-01
3.398474541692861894e-01,4.931672253385269156e-02,4.956150106259978039e-02,8.134166703932807843e-03,7.932999355923701576e-03,-6.542736162767322575e-03,2.912949919700622559e-01
3.329272577338557859e-01,4.691609382077510659e-02,4.730265294319190017e-02,7.170350320604746992e-04,1.464578694034796664e-04,-7.166757188423775009e-03,2.860903143882751465e-01
3.317630092368373251e-01,4.935688413701991295e-02,5.182440265043915251e-02,-4.813170813591506310e-05,-8.340250279923460558e-05,-4.856724713908695812e-03,2.813063263893127441e-01
3.362520138457054664e-01,4.583845665452825069e-02,5.092223828954686726e-02,8.853028547080431937e-04,-2.085933296341696726e-03,-3.445249489180652637e-03,2.879939079284667969e-01
2.666352874624597913e-01,5.525335692455649039e-02,3.886898283791409558e-02,-2.332125102505958406e-02,-4.837361165619129266e-02,-1.411600585636581945e-02,2.401324063539505005e-01
3.066656587821087188e-01,3.299908988431653201e-02,5.927434622900965011e-02,-6.054756628836862470e-03,-4.848060707186540295e-05,-4.519036618351551099e-03,2.618480026721954346e-01
3.344551551635120967e-01,5.059760635978222121e-02,5.516736047438143553e-02,-1.772221298707961704e-02,-2.264806981450211837e-02,-9.032154876573168789e-03,2.863993942737579346e-01
3.262006082547724839e-01,5.313993331837903178e-02,4.125463520851360699e-02,-2.168785920864787532e-03,-5.739925686133309779e-03,-5.650070186696169901e-03,2.795666754245758057e-01
3.093429689443885078e-01,3.232260838915690382e-02,5.707702657776314581e-02,-8.319740597433086457e-03,-6.537877106813904174e-03,-5.326118208572220604e-03,2.663016617298126221e-01
3.081315718365979506e-01,3.476019103288474632e-02,5.686380583668307342e-02,-1.201889017128530794e-02,-1.380286655742832746e-03,-5.458838568402733446e-03,2.640198171138763428e-01
3.109071780178274680e-01,3.778518483944159900e-02,5.255850129506360602e-02,-1.865854286458759267e-02,-6.961316080995847561e-03,-9.398336134001971168e-03,2.687633633613586426e-01
2.862710092401190565e-01,3.468659645724943286e-02,5.348786920225812036e-02,-2.003418757706897091e-02,-3.335815601154482057e-02,-1.088505259453183098e-02,2.526181936264038086e-01
3.165789346330180054e-01,3.201185023791010276e-02,6.031205405810868836e-02,-3.448740163043659355e-03,-1.941946750128171768e-03,-1.549937331958045183e-03,2.716251611709594727e-01
2.609560305945831660e-01,4.241302538755514773e-02,6.688220833866835580e-02,-2.293077484564303228e-02,-3.502236181991398665e-03,1.292232144957961037e-04,2.112499177455902100e-01
2.986826407293923236e-01,2.852132052480779723e-02,6.233735050337976813e-02,-1.089172104222076339e-02,-1.611020956842822540e-03,-1.279182497836521808e-04,2.556532919406890869e-01
3.027836930608651667e-01,3.199783982392731541e-02,6.595635900749804992e-02,-1.732850013532746467e-02,-1.722330149557399503e-04,-3.970821083441801458e-03,2.573536336421966553e-01
2.785685660671206598e-01,3.432467342970542401e-02,5.718972844956178581e-02,-1.925930554684020940e-02,7.315293187029682162e-03,6.529560182592088376e-03,2.366314679384231567e-01
3.164937623109931875e-01,3.905128997455102613e-02,7.195185701189782401e-02,-4.626753578408487194e-02,1.998327963601554715e-03,-4.882571039899238474e-04,2.745241522789001465e-01
2.740975986911666773e-01,3.386317494554992591e-02,6.012738330280358034e-02,-3.539936230726803412e-02,-1.819902637542124280e-02,-8.628923091541756962e-03,2.388915121555328369e-01
3.142424294450565370e-01,3.278731876724426397e-02,5.940344086062324114e-02,-2.308490030951015903e-02,-2.654751475938696339e-03,-3.072195263301504518e-03,2.721807360649108887e-01
3.173731765863079257e-01,3.900274063230026178e-02,5.785339231351187272e-02,-2.355021716426458980e-02,5.133594746993191483e-04,-1.714029614637683141e-03,2.725278437137603760e-01
3.330631673954610461e-01,5.052988876226099935e-02,4.790148632396067085e-02,6.212739400800288900e-04,7.145229900275638230e-04,9.864609520571802556e-04,2.838664948940277100e-01
3.121781892553543436e-01,5.889583586199173548e-02,2.685688561385964068e-02,-8.026893710099236145e-04,-2.024508074058431212e-03,-2.863256589185566334e-04,2.707541584968566895e-01
3.293317617005460107e-01,5.355624038580598933e-02,4.443456246972005141e-02,2.055445425249441058e-03,-2.601187518775590225e-03,3.320618909840526711e-03,2.805653810501098633e-01
3.309846972662949804e-01,4.038502996560446034e-02,5.024172169171965685e-02,1.494158851032058831e-03,-1.705631181848845865e-03,1.448502566222025596e-03,2.858368158340454102e-01
3.343216065970030515e-01,4.509528317459504665e-02,5.513828920898534991e-02,1.869678128284492672e-03,1.608537600121045467e-03,-6.021494804554195467e-03,2.845611572265625000e-01
3.182584773009168311e-01,4.538966389491955189e-02,5.261081570291248344e-02,9.689212135706997287e-04,2.805757809601518290e-04,-5.725493498669543060e-03,2.695190310478210449e-01
2.978464199388867195e-01,3.932446406791599569e-02,5.124395868381771690e-02,-6.166508174357337828e-03,2.156689782480294363e-03,7.894040249283392277e-03,2.533953487873077393e-01
3.129756958151085344e-01,2.772134549795646219e-02,6.078067410489855493e-02,-2.515269665957457247e-03,1.213748076825466081e-03,8.365913180933222718e-05,2.702888548374176025e-01
2.903448641796180230e-01,4.973393417726358623e-02,3.624326022779884859e-02,-2.207222708307467196e-02,-2.677537017196325933e-02,-5.096666677178060718e-03,2.549742460250854492e-01
3.286165960289928467e-01,3.970672422291901538e-02,5.911775310658873295e-02,-2.543371679829259727e-03,4.073420151349110016e-04,-6.612219281912891595e-04,2.797478735446929932e-01
3.156593495985310360e-01,5.939307544607946854e-02,3.072138448617785234e-02,-9.067780284669631728e-04,-9.385456155273787888e-04,-1.162767805121512959e-03,2.717558145523071289e-01
3.076880641325630550e-01,5.852635049624678454e-02,3.183518356215769840e-02,-2.555158138622378415e-03,-3.615249211899536179e-03,-3.941697955135695444e-03,2.637229561805725098e-01
3.198322637271144853e-01,5.283536714788231170e-02,3.398699096613805315e-02,-1.000984257393277817e-03,-7.226347887755796761e-04,-1.287917825311711301e-03,2.769198715686798096e-01
3.152976069208330845e-01,5.471422611439594186e-02,3.049769814937820789e-02,-9.666285222921435372e-04,-1.595832427486509018e-03,-1.170208597750138071e-03,2.735235095024108887e-01
3.138205699366010681e-01,2.946144344878867671e-02,5.934862411518142256e-02,-5.097014216015837568e-03,-1.605257907708235740e-03,-2.266131666575385822e-03,2.708426415920257568e-01
3.159916294732334485e-01,3.062986787174254433e-02,5.936777379799625110e-02,-1.331281147896592239e-03,-1.306043988656725285e-03,-1.495910249100255215e-03,2.721647620201110840e-01
3.132609393989623237e-01,2.866348469323708181e-02,6.206356004491600520e-02,-1.186210260976513662e-03,1.440108084939296809e-04,-4.188481656730406468e-04,2.694633603096008301e-01
3.049753802689397220e-01,2.833892768844901988e-02,6.093406637567641559e-02,-5.287333216635802143e-03,-4.101034834869545604e-04,-1.855298147813468730e-03,2.620455324649810791e-01
3.208022521250892822e-01,5.558873201014852272e-02,3.472418661993430244e-02,1.170030841876647243e-03,-7.163545195126859010e-04,1.800403608948990090e-03,2.762652039527893066e-01
3.193915092451705129e-01,5.763569983005750741e-02,3.343794837635910566e-02,1.143838643700763368e-03,-1.954762912881844469e-04,8.527600697080279114e-04,2.746666371822357178e-01
3.203421053115901307e-01,6.074439528654389242e-02,3.540865240267378200e-02,1.157463567852080530e-03,-4.212189311751528102e-03,3.137592728788006317e-03,2.733070552349090576e-01
3.185856223509743179e-01,5.893529182652849918e-02,2.967292769594978563e-02,1.679725777504518635e-03,-1.556663992375998231e-03,1.139703828559402235e-03,2.754853665828704834e-01
3.433766898569409198e-01,6.175948652371533731e-02,7.272692542692243967e-02,1.129634303823681132e-04,3.893647724399511485e-04,-1.855551917286279041e-03,2.763163745403289795e-01
3.464832758913526378e-01,5.874984637300022239e-02,7.143688864780717296e-02,1.801985196320852458e-03,-3.742410207072983811e-05,-2.205494838516625989e-04,2.816219031810760498e-01
3.576235558343652254e-01,6.066953385037765489e-02,7.402659766469500691e-02,1.261399904329969757e-04,-3.070087266519584603e-03,-9.046585644840439238e-05,2.905546724796295166e-01
3.438656448813241506e-01,6.157051744861498366e-02,7.372451494601725552e-02,-8.095477576479981384e-04,-8.761038506205661228e-03,-3.644736035440277865e-03,2.769103348255157471e-01
3.825180274914877776e-01,6.435802080008913573e-02,6.706167163731788228e-02,1.535706346068298764e-03,5.524526499115398840e-04,-7.042039055648214056e-04,3.168317973613739014e-01
3.092855761844578444e-01,3.296097218607799140e-02,6.075416965840337025e-02,-4.523840613600497128e-03,-6.645581936908395064e-04,-4.598293459641901622e-03,2.637687623500823975e-01
3.101931617614148706e-01,3.004740892290583276e-02,6.072166696769400185e-02,-5.490607221576110321e-04,-6.603127042021709439e-05,-1.458235914186565424e-03,2.661514282226562500e-01
3.103341803964253520e-01,5.983473304513352298e-02,2.724633812909800501e-02,9.177772458764550927e-04,-2.017934859283605515e-03,7.494961635957675698e-05,2.683097422122955322e-01
3.098378908517341324e-01,2.786579384105519752e-02,5.976093961401091059e-02,-3.028852183588905101e-04,-1.249410939836154816e-04,-4.797425416630567629e-04,2.674565911293029785e-01
3.267021894747932365e-01,4.657018334886638133e-02,4.637424610314676288e-02,-4.738287217843633464e-02,-4.734462333420783042e-02,-9.754843279944205858e-03,3.037668466567993164e-01
3.745891405610916047e-01,6.300775727257638958e-02,6.174654580332611387e-02,-1.566779035267551815e-02,-7.207915463540492951e-03,-9.612472667418196391e-04,3.136440515518188477e-01
3.461880761046109978e-01,6.088732813560507329e-02,6.587067472539984148e-02,3.651928883169864529e-04,2.654513068416461028e-04,1.108966903827319920e-03,2.828496098518371582e-01
3.744500876720794902e-01,6.669624283191340208e-02,6.651407982405928287e-02,-1.362946818911570795e-03,-1.645957912378493749e-04,1.236104099431283541e-03,3.078615963459014893e-01
3.464594367916868922e-01,5.683168478598640827e-02,6.818334388957915382e-02,-4.188188535165348475e-03,-3.517174472554022036e-03,2.038416484313129023e-03,2.843018472194671631e-01
3.532483701435134016e-01,6.243157371214538842e-02,5.997490301114656586e-02,-8.802361066838784373e-03,-8.280899692715022048e-03,-1.271612113498514062e-03,2.928103506565093994e-01
3.212128213021447354e-01,6.220222991099844112e-02,4.795462748143522469e-02,1.293207828446076881e-02,-2.324114888505598997e-02,1.363910533516080568e-02,2.714037597179412842e-01
2.438042351589872203e-01,6.310388279009372658e-02,4.391008049128562740e-02,4.580860636956073095e-02,-6.749683536511424942e-02,3.155867304581346823e-03,2.376593798398971558e-01
1.535614381415577046e-01,5.879588246677662500e-02,5.235731605003379752e-02,2.849324740017124616e-02,-5.716795518899962791e-02,7.955239951670863008e-03,1.485331505537033081e-01
1.559724934514412908e-01,6.996077690931760962e-02,5.110685997892495946e-02,2.234402722779039313e-02,-4.924276395663514105e-02,2.789965055283533980e-03,1.347991526126861572e-01
3.114394554034411455e-01,3.365120043308593434e-02,5.784248368781941263e-02,-2.491014090507040132e-02,-6.799141096680733597e-03,-3.968108489858620386e-03,2.703311741352081299e-01
1.684664895471515988e-01,6.307829434001303859e-02,4.804473572628931849e-02,5.588863442700681139e-02,-3.858148449292351373e-02,-2.727820814506766445e-03,1.636324375867843628e-01
2.265111362061314471e-01,5.133135414118878553e-02,4.911897731261059830e-02,2.778028286325666743e-02,-2.659003609871107496e-02,7.133662970629239992e-03,1.888634562492370605e-01
3.145446670701033676e-01,5.822438000050310369e-02,2.967438330322173801e-02,-2.077507639734322079e-03,-4.461517262988444303e-03,-2.261885737974963628e-03,2.718844413757324219e-01
3.043063351050122600e-01,6.051588471975075101e-02,2.856463410390579216e-02,-4.579016727487603242e-04,-3.784267482697782799e-03,-1.784546869422946967e-03,2.613373696804046631e-01
3.297943896468419345e-01,4.498886284579012296e-02,3.999495845851086528e-02,1.733524608629483793e-04,-2.598491003758168555e-04,2.808653213172292683e-03,2.873767018318176270e-01
3.313033250237270577e-01,5.336331944866144761e-02,5.309680445177364372e-02,-7.773104639861358857e-04,-6.568215518825793820e-04,4.510409092997295656e-05,2.780789434909820557e-01
3.160351300680009912e-01,5.864592718491805357e-02,2.999913554510598435e-02,-1.445654484262450445e-03,-4.489396140173775029e-03,-2.314430656966670868e-03,2.729945480823516846e-01
3.404003252791145129e-01,6.071200600043710760e-02,5.791138095885305093e-02,-1.703856342532695254e-03,6.742134414126347739e-05,-5.370092655203468875e-04,2.811161577701568604e-01
3.469583316588175648e-01,7.175745805952267464e-02,5.873111653258090981e-02,1.009657121690502903e-03,2.563932752698009927e-03,-2.142188396808638901e-05,2.819802165031433105e-01
3.474298538315448437e-01,4.696796202574247958e-02,5.459782908815102864e-02,1.867415802713238634e-02,-1.453615472115842196e-03,3.259726317172354903e-03,2.985422313213348389e-01
3.379672560885162436e-01,3.967178861134731949e-02,5.932755130619930817e-02,-9.269978818573738422e-04,1.613866970292390747e-03,6.467025170513201375e-04,2.889895439147949219e-01
3.420536838813896807e-01,6.213035662199727083e-02,6.148643086816350800e-02,1.449265618421552784e-02,3.409590354261933260e-03,-3.602431504359181712e-04,2.814304828643798828e-01
3.578376374276626137e-01,5.141383545756485207e-02,6.335534525242034198e-02,9.914307186660748297e-03,-1.471103063363698050e-03,-2.009550594194484498e-04,3.011319935321807861e-01
3.421272945684895039e-01,6.962713603443314303e-02,5.950986245353070969e-02,4.402666693570002170e-03,4.380030108822066844e-03,3.989515486545248436e-04,2.779061496257781982e-01
3.276618278950261809e-01,3.484388722740694444e-02,5.803185900935974029e-02,-4.953691430223114596e-03,-2.480580880170909271e-03,-2.422563151549418387e-03,2.821344733238220215e-01
3.202093310105915691e-01,6.005371291390583510e-02,3.183587426390352415e-02,9.170394822112969612e-04,-3.678629092942412113e-03,1.597162677454684425e-04,2.754295170307159424e-01
3.442181256481002261e-01,5.711561132494760717e-02,5.927354027648631951e-02,-3.084767835409900957e-03,1.646694663216638705e-03,1.830113251338767039e-04,2.860939502716064453e-01
3.469560980836560171e-01,6.442968169458591909e-02,6.792110606413329088e-02,7.388180571576862497e-03,-3.866836450857585872e-03,-3.295390101445599788e-03,2.812261283397674561e-01
3.666303005187602215e-01,6.521017660317993125e-02,6.591769536314499855e-02,5.005881097982515550e-03,4.512121257383717651e-03,-1.287752875913286644e-03,3.013014495372772217e-01
3.214915347172356275e-01,5.162070222159619026e-02,3.599944811018392088e-02,1.887632423837999184e-03,-3.185562907316742860e-03,1.217131306022996426e-03,2.780927717685699463e-01
3.411252013278797124e-01,6.257420716537200056e-02,7.184423027217684554e-02,-2.271940154640872389e-04,-2.885383458883779978e-03,-4.729250133145781673e-03,2.742018401622772217e-01
3.321198763964787748e-01,4.212126473199297172e-02,5.000277432398776700e-02,-2.693365499538085783e-04,2.373521306371207502e-04,8.584603363631593482e-04,2.861438095569610596e-01
3.433557783545641007e-01,6.029028318514868812e-02,7.063190229722358937e-02,2.105514419568021935e-04,-3.210418168405525241e-03,-3.419309705254558896e-03,2.781578600406646729e-01
3.393321739083584587e-01,6.031826675704235474e-02,6.133465614245967035e-02,4.182078909671374349e-03,-4.038988211536386988e-05,-1.206222251757860936e-03,2.786091268062591553e-01
3.572039102829531743e-01,5.462194237871760560e-02,5.882934972248002325e-02,9.007565724139847407e-03,-5.343142770538687747e-02,1.536958161570216135e-03,3.148264884948730469e-01
4.962800236001231324e-01,8.558293568533270612e-02,7.566110850275187261e-02,3.710640022521698167e-02,-1.217041078515449816e-04,2.071690650408144173e-03,4.207005798816680908e-01
2.387388970645006880e-01,4.118225452239050732e-02,5.996930358823528151e-02,2.820599127922463010e-03,-3.738455432383804011e-03,2.405355143023667208e-03,1.890852302312850952e-01
3.619280829938386623e-01,6.310103060271335385e-02,5.860863751001504918e-02,5.290031564761075306e-03,9.130043706355728261e-03,-2.238503505162799806e-03,3.016774654388427734e-01
4.057795337864628094e-01,6.207156045783765452e-02,6.018040066585231274e-02,-3.351037367702307691e-03,1.072316619382584308e-03,6.573681810784896308e-03,3.448992967605590820e-01
3.360395475859140335e-01,5.688255948118621508e-02,6.091097131243672358e-02,4.957160919029808804e-04,2.329736102894860821e-03,-6.872815692234586060e-04,2.771979868412017822e-01
2.238217874621113435e-01,4.454253246408756278e-02,4.187762212041357818e-02,-4.420208122223553970e-02,-2.931369455585745160e-02,-1.391697249624147814e-02,2.040742784738540649e-01
3.202158333836108151e-01,4.623238711768190567e-02,4.165279003034087768e-02,-1.299858636512327527e-03,7.173229051127760162e-05,-5.013615935886497552e-03,2.764473259449005127e-01
3.361948551175355515e-01,4.983889316180259432e-02,5.428633255892509335e-02,-1.137402685296148679e-02,-8.140191022070947247e-03,-5.580093531281491402e-03,2.853528857231140137e-01
2.995252451053548315e-01,6.202356285459588447e-02,4.833785293686737594e-02,-6.162991727398687419e-02,-6.538666642760322667e-02,-5.171262589750017305e-03,2.900792062282562256e-01
2.417506049250494060e-01,4.445082047072289322e-02,4.740372696390400542e-02,-4.716725280239565665e-02,-8.405843008798950799e-02,-3.214130626445241105e-03,2.574024498462677002e-01
3.354361456876466252e-01,5.386266558217035760e-02,5.645167485090954451e-02,-1.654823791734234958e-03,-1.689590244382430074e-04,-4.784378321881719567e-04,2.803039848804473877e-01
3.146710224402076150e-01,2.817029156086839348e-02,6.166291966526775414e-02,-2.009207223078114408e-03,1.992655896893572238e-04,-1.226569585708789628e-04,2.713319659233093262e-01
3.400962648239897468e-01,4.910050915647760916e-02,4.795302228970782510e-02,1.989445375210946627e-04,-8.006070944961801955e-05,-5.446300977272841050e-04,2.915729582309722900e-01
3.355494645231881234e-01,4.365418807960566583e-02,5.554778732939494312e-02,5.002691710658468786e-03,3.163586682309920285e-03,9.482658334271158425e-04,2.863222360610961914e-01
2.577426208781211092e-01,5.285246625495779171e-02,4.213279415773232839e-02,-8.523244649920559343e-03,-1.141571056948791421e-02,-1.055181523740124534e-02,2.126832306385040283e-01
3.482668981257870944e-01,7.690872613301463767e-02,6.192712140988679281e-02,1.319794987374382615e-04,1.156958028735615888e-04,-6.333198729006091557e-03,2.793662548065185547e-01
3.850352836938640833e-01,7.522051456452373552e-02,6.703690667714375107e-02,3.079881600963220618e-03,4.098763981463724587e-03,-5.745081558283107216e-03,3.142696917057037354e-01
2.797560272753988331e-01,4.934316665878074604e-02,6.209230379392380317e-02,-1.250199469798256476e-02,-1.222166747666631609e-02,-9.447807352852544832e-03,2.269357889890670776e-01
3.610514800839627059e-01,7.621718582557403254e-02,6.082797409827468693e-02,4.989868211676401835e-03,-2.978413459978275155e-03,-3.934084889372227792e-03,2.930845022201538086e-01
3.341351330937506470e-01,5.817672274717546055e-02,6.254263578470434237e-02,5.750610645793910718e-04,1.629185577760461009e-03,-3.869820145272320809e-04,2.738187313079833984e-01
3.454089327261332665e-01,6.685011974445234650e-02,5.994290732135743038e-02,-1.764275245223042004e-03,-2.194128671016483748e-03,1.250407322525359322e-04,2.821180820465087891e-01
4.966354848086418916e-01,6.613859472477423562e-02,7.508280456461072228e-02,-4.200146535742826231e-02,2.989316733427214903e-03,5.748811810241366560e-03,4.324065744876861572e-01
3.829505139306471628e-01,7.080044582566616396e-02,6.887092802871522257e-02,7.564963374964955856e-03,6.032044654791210263e-03,-2.490950772472978834e-03,3.135971128940582275e-01
3.383997771612223815e-01,5.559563929170828478e-02,5.789749980264596863e-02,7.467784025595646143e-03,-1.461816125119940997e-03,2.296641755083864665e-03,2.819965183734893799e-01
3.672346131803095881e-01,6.966921462448476265e-02,6.466942664483937842e-02,-6.883924604241219158e-04,1.873446555854479164e-03,-2.221282425599956957e-03,3.001410961151123047e-01
3.337376030895720103e-01,6.083648146001637003e-02,5.955054403638639082e-02,1.438178777454943548e-03,-9.328720975593900731e-05,7.337668366347203323e-04,2.735607028007507324e-01
5.558799598522121688e-01,7.558625918841402336e-02,7.896922027298272639e-02,3.578278611900426870e-02,1.105185501102915607e-02,-1.000850619493404148e-02,4.832978844642639160e-01
3.789704145388071987e-01,7.332035380902846011e-02,6.178816501709269438e-02,-8.013844569784380270e-03,6.394539276844243142e-03,3.077351786498342887e-03,3.121273815631866455e-01
3.427864475644705200e-01,5.713203138214069388e-02,7.465766481137173227e-02,-1.373994616103796145e-03,1.597871838595906098e-03,8.707134900261895034e-04,2.773353755474090576e-01
3.516194814341804253e-01,6.314541484359484369e-02,7.147814001067648304e-02,-2.669646254476501415e-03,-5.562478233623636102e-03,1.797416224030760771e-03,2.846170067787170410e-01
3.324665209942395672e-01,5.141052220806321960e-02,4.160763134498562943e-02,1.671764686544116108e-04,1.737800283986199422e-03,-3.782998522569968290e-03,2.861744463443756104e-01
3.527972538128540392e-01,5.831931601903257711e-02,7.096128804382612065e-02,3.693194976419941766e-03,4.927590381625937370e-03,-1.644159346250676857e-03,2.885760962963104248e-01
3.547465767663331437e-01,5.784076674363773651e-02,6.800424233814199304e-02,2.952335892510858564e-03,8.636681347124175109e-03,-1.125041972688343300e-03,2.923909723758697510e-01
3.159278064862419688e-01,5.780524435492945257e-02,2.964690288669960538e-02,-8.859399399429778376e-05,-1.185541232679684356e-03,2.360792335880077236e-03,2.733302116394042969e-01
3.701414519277366200e-01,5.969938098760906031e-02,7.448346069420382076e-02,-4.280170930952981179e-03,1.971835274274933835e-03,1.105268505147226311e-03,3.034362196922302246e-01
3.375430093809734799e-01,5.545645630140284832e-02,5.072269507799530286e-02,2.770772092198980126e-03,2.131032290188991912e-03,3.244633895371962142e-03,2.846028804779052734e-01
3.259359987964248195e-01,5.805389069721070272e-02,3.789435184634194764e-02,1.830632720518359392e-03,2.116205580930961231e-03,4.776011283396676931e-03,2.786746025085449219e-01
3.422639123276491890e-01,6.975348302862065253e-02,6.232899338672731604e-02,3.035292216847098202e-03,4.557368264698915357e-04,-1.355288926723043639e-03,2.763586044311523438e-01
3.193929278377626302e-01,5.653969127198422984e-02,3.735090085446751695e-02,-3.286732635617819771e-03,9.222140204938831728e-03,6.634293640336018025e-03,2.737215161323547363e-01
3.247652494378950316e-01,5.269474602492467408e-02,3.978770405633140494e-02,-2.089314359116255064e-03,6.540692760499783667e-03,6.016794971436567260e-03,2.791963815689086914e-01
3.422902004084242833e-01,5.594965428093549853e-02,5.700825516257489178e-02,1.473645016785345672e-03,-9.272550128279705497e-04,-1.170437521971808958e-03,2.858358025550842285e-01
3.323288785284737590e-01,6.197971036615525231e-02,6.134136892031183397e-02,-1.845467353876544491e-04,7.827563743705825467e-06,2.110375131476925125e-06,2.706691026687622070e-01
3.320473804259269635e-01,5.731918680699690793e-02,3.315402604964987066e-02,4.119932595507196592e-04,3.291531908125663094e-03,8.461911630176867415e-04,2.876344025135040283e-01
3.245549493766848315e-01,5.026283671985480594e-02,3.930005881094597586e-02,-5.894022743926798482e-04,1.264397664388168616e-03,4.897255551634842503e-03,2.800734341144561768e-01
3.053930238318467993e-01,3.637112204016430816e-02,6.177329009983657804e-02,1.969401258434898879e-03,4.457296172010439769e-04,2.900878729957142438e-03,2.573359608650207520e-01
3.333461151616732288e-01,5.233454516229914255e-02,4.119997804816796783e-02,-8.686480191469027811e-04,-5.912206571434910386e-04,-1.281675376255330626e-03,2.867554128170013428e-01
3.243290816140033117e-01,4.910884835810763738e-02,4.201762705684454480e-02,-1.811846729067627870e-03,2.567629496260240892e-03,4.464001342343306040e-03,2.789937555789947510e-01
3.198785729696219660e-01,5.668111499671177334e-02,3.624692748400808184e-02,1.272051077382840107e-03,1.294312521421214302e-03,5.019312183177482463e-03,2.741425633430480957e-01
3.169098493891923662e-01,5.330237145478640415e-02,3.960109638371288321e-02,-5.314492232527965937e-04,6.505505287899985070e-04,5.413799504460035765e-03,2.708845436573028564e-01
3.647261981065684777e-01,5.261332682457660337e-02,6.966056155309459375e-02,-2.357376729449485106e-02,7.887574284560444626e-02,7.409910631755086199e-03,3.359768390655517578e-01
3.169849175297867472e-01,4.048744899233194805e-02,4.811790544630421829e-02,2.610073533556120807e-04,7.935012740073825975e-04,-6.445873509383879228e-03,2.729945182800292969e-01
2.999979941499867353e-01,5.307870289564671495e-02,4.784881512867009135e-02,-3.347942346814925668e-02,4.211981609018666806e-02,4.139772847555216011e-03,2.665034830570220947e-01
3.317221655040254458e-01,4.673012398544793000e-02,4.206936248126919020e-02,3.916992182832981935e-04,-4.705829933761397979e-04,7.126180450911421237e-04,2.873553931713104248e-01
3.177304742752416478e-01,5.930207696392990335e-02,4.102286597387123923e-02,8.075760543321345566e-04,1.976726189973468210e-03,7.695934208493629240e-03,2.683926224708557129e-01
3.241215291831650580e-01,4.704982784516727190e-02,4.348881090693246243e-02,1.235804995417261491e-03,-3.505716528966738876e-04,5.110290174308450457e-03,2.790185809135437012e-01
3.330126482786348041e-01,4.366150401410263948e-02,4.809264426569019590e-02,-2.991374834519239245e-02,3.032665436823865981e-02,6.589522666384853983e-03,2.967076897621154785e-01
2.901784412667890445e-01,5.015403042206817430e-02,3.166900881406131685e-02,-3.772104855975344506e-03,6.361060081931748690e-03,5.589337109422775306e-03,2.502959668636322021e-01
2.934525534149975967e-01,6.153151961566881434e-02,5.221186805749736259e-02,-2.576951153341281581e-02,4.332652729056054447e-02,1.068421983402433571e-02,2.529858946800231934e-01
3.424351016938828041e-01,5.668576055817133030e-02,5.200397661736325117e-02,8.430856698206197963e-04,-3.257177674057889789e-03,-3.058839433945691275e-03,2.882263958454132080e-01
3.725560612035380137e-01,6.325446901361976570e-02,6.272184518526213726e-02,-8.353387120051444792e-03,2.716275548699244660e-02,1.004016055561615314e-02,3.139390051364898682e-01
3.295968434645222267e-01,4.690377085247182665e-02,4.524766451571224368e-02,-1.478068333444844569e-03,-1.515668394023078939e-04,-1.121697061229363652e-03,2.835430800914764404e-01
3.282717303419891985e-01,4.386958967811267762e-02,4.309671098775595677e-02,-2.016557247772989610e-04,3.026675115427021937e-04,-3.008520281757407107e-04,2.847905457019805908e-01
3.246864228637857397e-01,5.809908608036347399e-02,4.050753129890605209e-02,-2.409175244905403194e-03,-2.446756677981737609e-03,-2.130995832022905111e-03,2.758930027484893799e-01
3.045673654606400049e-01,4.584469210453329113e-02,4.731442463746327043e-02,-4.584840439682659821e-04,-3.635360825380207130e-04,-8.462812714201652792e-03,2.584089934825897217e-01
3.295648963115298535e-01,4.598438738014622162e-02,4.634964659422313726e-02,4.862940064157721186e-04,2.012660007222822199e-05,-1.772313263767287279e-04,2.833994626998901367e-01
3.287170176388107823e-01,4.480231022133357444e-02,4.305497981512823591e-02,-3.718705315400731891e-04,-6.619060070565650506e-04,-1.603769311602468335e-03,2.848089635372161865e-01
2.815650244374359179e-01,6.290878536982177915e-02,4.243962464232287068e-02,6.492569566578043280e-03,-8.725988120827256680e-03,5.989343425201670151e-03,2.305813431739807129e-01
3.344070398742027272e-01,5.745294671407565057e-02,6.124026829865346355e-02,-4.931345806382804019e-04,1.933153879776444792e-03,-3.073869071117211744e-04,2.751021981239318848e-01
3.228677122801366095e-01,5.101468893892265044e-02,4.177533126214567905e-02,9.713269524108796580e-04,3.431180041621120650e-04,-5.794244158340474890e-03,2.767762243747711182e-01
3.368222034217773775e-01,5.693146829793416241e-02,6.061499901910430421e-02,4.576864373316264986e-03,-1.204099095097363806e-02,4.656467088142517662e-04,2.789621055126190186e-01
3.403480788451392347e-01,6.187175990706340889e-02,6.503563746284608815e-02,-1.056524565960308875e-03,-4.961448179770494961e-04,-1.471638880497279410e-03,2.769270539283752441e-01
3.512812205338406990e-01,6.386851006971951128e-02,5.789918179561295841e-02,-8.089737307561241722e-03,-3.237629063811351716e-03,7.542208805045653086e-04,2.908381819725036621e-01
2.328629045124413488e-01,6.302948946280775844e-02,6.322234232188828074e-02,5.964252191510026335e-02,-5.657837689334166420e-02,-3.134525886334482356e-03,2.216194421052932739e-01
3.344744229776316913e-01,6.052976270592902441e-02,6.431467298115649267e-02,1.064717635749221894e-03,-5.145313287795314156e-04,-9.387860261321448897e-04,2.720845043659210205e-01
3.411864213137136836e-01,6.218656872443387162e-02,6.678164984429005302e-02,1.669759659438944466e-03,1.516842679791396585e-03,-3.534233093849337929e-03,2.768262028694152832e-01
3.412398111981864712e-01,6.319275247667134610e-02,6.644287150691537136e-02,-1.411644937880764897e-03,2.086533419632575874e-03,-2.376050676381016944e-03,2.765013873577117920e-01
3.646203815041471064e-01,6.605673664126594791e-02,6.923984688834099177e-02,2.390190007833809926e-03,1.165187979474689717e-02,-5.391684837707115367e-03,2.978450357913970947e-01
2.233223812875330672e-01,7.439915321199716547e-02,5.124720388494347079e-02,8.474588881162212206e-02,3.573651081868992226e-03,2.414641071590902942e-04,2.185087800025939941e-01
3.238260953079960536e-01,3.478987552028256491e-02,6.227775980586743032e-02,1.754136573159640244e-04,-5.390949538698190543e-05,-2.110385006728074039e-03,2.763439714908599854e-01
3.157523695664039010e-01,2.832509354124185252e-02,6.074529383268509330e-02,-2.614058437507537410e-03,6.351478662438486472e-04,-1.211585348026053771e-03,2.727144658565521240e-01
3.165021218274495229e-01,6.250036999117328240e-02,3.075173572337674965e-02,7.398496363288950637e-04,4.314910139969077277e-07,9.462061831778380240e-04,2.712810337543487549e-01
3.286073649400245156e-01,5.162780215718409949e-02,3.925165766707393311e-02,2.602277563587367917e-04,3.913784648546069346e-05,2.494940348144549392e-03,2.834037244319915771e-01
3.325746702906547392e-01,4.882553455961693989e-02,4.569405361834061319e-02,-4.401982127959843272e-04,9.619071474295065550e-04,2.269437475902975464e-03,2.853607237339019775e-01
3.314773252206568710e-01,5.006930611649622331e-02,4.143476800315151753e-02,-1.401422432979021709e-04,-3.230575250892853329e-04,8.543674825544648934e-04,2.858276069164276123e-01
3.391384954398620200e-01,4.551784012118793854e-02,4.545293274232162228e-02,-3.511749416279428236e-04,-6.422779321482228847e-04,-1.280491741832624980e-03,2.936642169952392578e-01
2.427985631186733162e-01,6.939414878919496210e-02,5.642337453208474962e-02,-1.215158394585795065e-03,-3.168351338354111462e-03,1.821957661620537570e-03,1.803635954856872559e-01
3.330382208320715187e-01,5.680239775904215305e-02,3.759355285891498311e-02,1.124226619072418417e-03,7.579656513602272411e-04,-1.136330162773231157e-03,2.863402962684631348e-01
3.348095663808300926e-01,6.031356059163843486e-02,6.343414417244287729e-02,-1.936766249053643299e-03,1.177917632596073945e-03,6.743353470133592103e-04,2.729798257350921631e-01
3.315834772822895404e-01,4.789609336255438998e-02,4.227876913714351259e-02,8.202330385307715014e-05,-1.425609388653782542e-04,1.661257778573347037e-03,2.865519225597381592e-01
3.774491932216769152e-01,4.468229932712813879e-02,6.360264312308210044e-02,5.481009830970171026e-02,5.600476499209382231e-03,6.225731381512534211e-03,3.376663029193878174e-01
2.975692432246367924e-01,3.854728594172000811e-02,4.816175188270616081e-02,-4.711887036578670321e-03,-8.057812959821251259e-03,-8.655795357596194825e-03,2.553049325942993164e-01
3.288140270123119380e-01,4.449735071792275398e-02,4.600795123733580905e-02,-3.326239761323766331e-04,-2.549299216634353347e-04,-2.807116867577985815e-04,2.835657298564910889e-01
3.278359341528124804e-01,4.889657523371143677e-02,4.032009164165077653e-02,1.284366889381413461e-03,-1.077762792952003225e-03,1.887151003833306391e-03,2.833587229251861572e-01
3.223086117503722869e-01,5.723503446229219471e-02,4.048275382251161070e-02,3.203082174328276532e-03,-1.741641893312395346e-03,5.223073920384314721e-03,2.740564644336700439e-01
3.342377313634921077e-01,5.567270727140910536e-02,5.906242552871864004e-02,2.017760803104205324e-05,6.341343467617876432e-04,-3.385933100940152329e-04,2.768885195255279541e-01
3.129243417532406868e-01,5.369132049276072183e-02,3.283747413689892813e-02,9.480002543190768150e-04,-4.551418187091312711e-03,3.259035389804369309e-03,2.704428732395172119e-01
3.401997810044831705e-01,5.205393392537734087e-02,5.430772041036194264e-02,-1.974279272839235544e-02,1.744026425161367133e-02,1.178091973471927581e-02,2.913449406623840332e-01
3.316971016111666670e-01,4.525832945167659882e-02,4.330445457156573141e-02,4.335960651832660795e-04,-5.081924415886226315e-04,6.401556992200822241e-04,2.874251604080200195e-01
3.101114289764390630e-01,2.808922806541899742e-02,6.054326039324206543e-02,-8.322650878099894514e-05,4.357270274899399144e-04,-4.308895213910231845e-04,2.672792077064514160e-01
3.229198794948522355e-01,5.220874110134952895e-02,4.246117410149780058e-02,1.921921552776398702e-03,-7.847740330941302108e-04,3.319079536779629813e-03,2.757975459098815918e-01
3.190820467167984065e-01,5.199344013202804315e-02,3.921809568465563223e-02,6.952254270119850692e-04,-2.783851576399306704e-03,4.219808956181971514e-03,2.738426625728607178e-01
3.370935496498510542e-01,5.413747599737085692e-02,6.100430090356735724e-02,9.705160562265891834e-04,2.299731378696096354e-03,-3.088168128141736664e-05,2.796193361282348633e-01
3.665847399039866561e-01,5.092263136426536385e-02,5.894667982059258182e-02,8.728191177565189710e-03,-3.030011115305373311e-03,-5.022078654405359244e-04,3.121392428874969482e-01
3.251752714045562653e-01,5.057612682499376677e-02,3.710783480844032090e-02,-2.220050343355978520e-03,4.006181312216655459e-03,4.095389917897092162e-03,2.817760109901428223e-01
3.392789636924167240e-01,4.751427461717412648e-02,5.905607095789398853e-02,2.008781300593352401e-02,1.100131451466859863e-05,2.764471694567015130e-03,2.883155345916748047e-01
3.632286667013747694e-01,5.554147781110914395e-02,6.342442335818190835e-02,1.063239717694178417e-02,-3.452119979532979922e-03,3.453814322087295566e-03,3.044975399971008301e-01
3.316303614826028312e-01,6.058765263841735249e-02,3.592207801489745445e-02,6.944231720810138285e-04,3.411899946397651574e-03,9.947945342646559701e-04,2.842486500740051270e-01
3.350858375877799888e-01,5.367507814101059316e-02,5.470484294066584041e-02,8.694931688619180919e-04,8.418966279991050477e-04,2.585977620363125173e-03,2.809408307075500488e-01
2.287415003345790732e-01,6.051936022714837771e-02,7.596144342801697258e-02,-3.424621068071654305e-03,8.533108143099250734e-04,3.915500131075900711e-03,1.613158583641052246e-01
3.360648641795411784e-01,5.476831032113192721e-02,5.916167155099047448e-02,-7.373328443167439551e-04,6.345609637591856800e-04,1.323514690341029377e-03,2.791402935981750488e-01
3.328723073506238417e-01,4.481422391473167954e-02,4.749446818481539712e-02,1.579415323227229950e-04,4.424846848468534221e-04,2.409953706933617816e-04,2.867288291454315186e-01
3.335497143245785834e-01,4.856934846410901341e-02,5.189214745550499441e-02,1.619946636883905352e-04,8.445525296239499895e-04,-1.106042078860398713e-04,2.833375632762908936e-01
3.330769506779248657e-01,4.395734391343948666e-02,4.870597282573144171e-02,8.806266115420504194e-04,1.720413452590934791e-04,1.409020787898839248e-03,2.867893874645233154e-01
3.350468849333931298e-01,6.299184880403420339e-02,5.762153572396558343e-02,6.048199389296346007e-04,-4.351085401504649060e-04,-1.665549603509098979e-04,2.747827470302581787e-01
3.343720850710322212e-01,5.944967162497383217e-02,5.348483416044168270e-02,1.536760288390149947e-03,-4.428647933909133044e-04,7.430194260364231902e-04,2.779696285724639893e-01
3.279708021707413712e-01,4.527045874941382220e-02,4.607194798011929326e-02,6.004021993633928619e-04,-2.717042130015959612e-04,2.362452895913095142e-03,2.823324203491210938e-01
3.336009593946903107e-01,6.039554672546204594e-02,5.796246049065195693e-02,3.645114437395705672e-04,9.388431061211150114e-04,-4.097431207264676245e-04,2.744365036487579346e-01
3.466592867056632610e-01,7.533758615783239798e-02,5.905979550158284297e-02,-8.838412655792685481e-04,1.606776767809405763e-03,-5.823489859543184077e-04,2.798357605934143066e-01
3.338889778720368628e-01,5.705464153622739898e-02,5.375562347817459952e-02,6.148127790978272222e-04,-5.628097970760966929e-04,1.375261723524074764e-04,2.785023450851440430e-01
3.198684832862622729e-01,3.200935972456746270e-02,5.618319995047728332e-02,-2.401331461420209805e-03,-3.102596693655659821e-03,-2.197612556397479135e-03,2.766753733158111572e-01
3.265352401818732431e-01,4.274624191031634046e-02,5.642805888884468157e-02,-2.209148195570469729e-03,-8.147441284488356108e-04,-1.258786636191545861e-03,2.772400081157684326e-01
3.312921143522569167e-01,5.230286062193983954e-02,5.125328476285515023e-02,1.351947537376704638e-02,3.596931715148189712e-02,-3.491131824544606820e-03,2.873938083648681641e-01
3.271824839838013976e-01,4.300771072352038704e-02,5.307840934119445464e-02,-9.570469743045135038e-04,-4.265141903977206529e-03,-2.026229379240748665e-03,2.794002890586853027e-01
3.303867661727997729e-01,4.327027081309484102e-02,5.383486052865604776e-02,-1.051889781058645140e-03,-1.891770649152846361e-03,-2.883299730608575567e-03,2.820518016815185547e-01
3.220175456821981474e-01,3.688845133497116457e-02,5.494355371994640025e-02,-1.531073083760379908e-03,-1.506307913213049150e-03,-1.957397425722652920e-03,2.765897512435913086e-01
3.320356987204851063e-01,4.965373824793209434e-02,4.040011571620007180e-02,3.004788010852539777e-04,8.651837200174870932e-04,1.151583618578962218e-03,2.871319353580474854e-01
9.604549691953676027e-02,6.429812869125191288e-02,6.196985657133911168e-02,4.414858073708757824e-02,8.092744197745190687e-03,7.323465633766324499e-03,8.539263159036636353e-02
1.457277911087953015e-01,6.534666638473222988e-02,7.132313550585804574e-02,-1.480244934114737301e-02,8.971072611024160162e-03,7.223956426410045421e-03,8.409389108419418335e-02
1.623318305359329750e-01,7.373497844099372034e-02,7.567909492821839335e-02,1.080777436663704974e-02,1.786552667049476698e-02,2.562525021201628086e-03,9.491360932588577271e-02
1.816452978445110555e-01,7.364989651765344036e-02,6.714537598766492921e-02,5.909689828351323386e-03,1.385642134280286840e-02,-8.893152531296339043e-04,1.144155636429786682e-01
3.278308358489582242e-01,4.385952848682075911e-02,4.142816571978118201e-02,-2.690859154134468299e-04,-1.983119424573350799e-04,-1.163176136721857500e-03,2.852024734020233154e-01
3.284691120074524906e-01,4.455535378233729804e-02,4.361851401003874473e-02,-1.045557094964749082e-03,-2.665729313454017011e-04,-1.700291928388044651e-03,2.844047248363494873e-01
3.277937261541232772e-01,4.183186768767105379e-02,4.283651794613106689e-02,-3.794972687409641225e-04,-5.305119778161366574e-04,-1.029815937539631547e-03,2.854686677455902100e-01
3.471569997697933063e-01,7.164542477551670563e-02,7.125703136286029582e-02,5.649546976530081532e-02,-8.387400061586987310e-02,-3.238538540148163183e-03,3.266879320144653320e-01
3.269158199714653490e-01,4.169928722548506272e-02,4.267789571623464839e-02,-1.696825364620574135e-05,-4.136001376727003586e-04,-1.151634353837696027e-03,2.847363650798797607e-01
3.249216894686404178e-01,5.764538232023355691e-02,3.390179353366809534e-02,3.807941848117839321e-04,1.097018058551044064e-04,-2.078071870898245792e-03,2.799283862113952637e-01
3.306518426593557658e-01,5.710817099532056185e-02,3.612986963137682084e-02,1.361375470418860504e-03,1.575765887309265364e-03,-2.285370084461020319e-03,2.846636474132537842e-01
3.248078255230053557e-01,5.666529863986417836e-02,3.647100745110692932e-02,-3.307998128660640663e-04,4.143346170701129455e-03,-3.607811633258026143e-03,2.789517045021057129e-01
3.307304742117982421e-01,5.333081447329809932e-02,3.887022107772927781e-02,1.340766827928665530e-04,3.485144622438616406e-04,-2.389165887893731580e-03,2.849361002445220947e-01
3.289935329153960142e-01,4.621431198276391983e-02,4.636949692429975789e-02,1.239840611286071649e-04,1.100947493199201221e-03,1.482359516121661619e-03,2.827198207378387451e-01
3.167494837090022997e-01,3.245411755528072872e-02,6.065170595673323450e-02,5.811946111482176915e-03,6.133348222542526346e-04,-9.592069010476645318e-04,2.714917063713073730e-01
2.988714840944791118e-01,4.103738982467557139e-02,5.860886699321231352e-02,-6.301901176934053724e-03,1.321595835104362026e-03,8.415045429105653257e-03,2.501868605613708496e-01
3.329244543994155370e-01,5.267483820416266060e-02,4.786801139047371090e-02,-2.258009568276098599e-04,1.410261809159329114e-04,2.460878055598545843e-04,2.826843857765197754e-01
3.263544189958028086e-01,5.306794888634475127e-02,3.571429963822696230e-02,5.749262529201559736e-04,1.368036791451572240e-04,1.193541972336414729e-03,2.823729515075683594e-01
3.332225761250104945e-01,4.863196082983764490e-02,4.349112513496355970e-02,3.959895300964308548e-04,5.687400642779772341e-04,1.832848876683917288e-03,2.872155904769897461e-01
3.332354877229899981e-01,5.081032781565508749e-02,4.817941642825329662e-02,6.836763835115375549e-04,-3.911395504541742091e-06,2.220643956822735473e-04,2.837525010108947754e-01
3.379106508971894685e-01,6.865555158989841700e-02,6.370580749169657553e-02,3.260169753068826635e-04,-4.408012728535210239e-04,-2.613859905167625376e-03,2.718031406402587891e-01
2.851274203756017922e-01,5.518111004269665720e-02,3.202709799093847454e-02,-6.509909413448553527e-03,1.761715654945676668e-02,6.280377620569258489e-03,2.447695881128311157e-01
3.323145404201262032e-01,6.431185133299276158e-02,6.406135280799518661e-02,3.750123821738136800e-04,5.031740265652149841e-04,-1.148057559776427105e-03,2.681376039981842041e-01
3.365222337932672891e-01,6.572066651091637568e-02,6.385041761281838590e-02,-7.193312332601131849e-04,9.810049721928851708e-04,-1.662314298268176456e-03,2.717649340629577637e-01
3.352283486098929788e-01,5.607323913006502514e-02,6.225737055702490474e-02,1.224238467381842535e-03,1.455512625895873709e-03,-1.343035769153697132e-03,2.761444449424743652e-01
3.588750275069432227e-01,6.960106782367972422e-02,6.401665388603168527e-02,4.439565282189023368e-03,-3.692567995731359243e-03,-6.253073456258472461e-03,2.924779951572418213e-01
3.264215756151459535e-01,3.445457847219521308e-02,5.942976940653606210e-02,8.609836820404078274e-04,1.207696077217394011e-03,-1.089404574776750480e-03,2.803332209587097168e-01
3.459695684371273394e-01,6.929327608006326245e-02,6.179673997532159069e-02,9.637162615428879198e-03,-5.339213500588752513e-03,-4.640204873749938057e-03,2.812629044055938721e-01
3.466987743135479527e-01,7.312451924040434814e-02,6.036376654413833087e-02,2.086524996808608937e-03,1.352657196001722829e-03,-7.721855565639003209e-04,2.802089750766754150e-01
3.528720202243497139e-01,7.269480500712129090e-02,5.838631355297185799e-02,1.857308389341555746e-03,3.792972940184562939e-04,-4.765661325819483537e-05,2.876172959804534912e-01
3.514734080656941595e-01,6.322961254580533597e-02,6.016506766691409602e-02,-1.114358872532559067e-02,2.548433267452811322e-03,-6.861426515784427218e-04,2.904662489891052246e-01
3.531671607265349788e-01,6.619309884967922164e-02,5.673212865229218527e-02,-1.219333813927757533e-02,2.208224634319223400e-03,9.552155006500624582e-04,2.926124930381774902e-01
3.119976733817729775e-01,6.121310116578367044e-02,3.498120289433867547e-02,-2.317006738021300521e-04,1.391877222497642837e-03,1.266533723491786688e-03,2.648968696594238281e-01
2.551790049331430499e-01,4.465044257567989117e-02,6.389418765445414872e-02,-1.927633933679016864e-02,-6.776248008321211248e-03,-1.976577022542908273e-03,2.047081887722015381e-01
3.394222429615608161e-01,4.717553173944070977e-02,4.663119447242351778e-02,-4.756278373113194597e-04,-3.636497661578633493e-04,-2.969187793928138161e-04,2.925215363502502441e-01
3.389133799338187591e-01,4.670368968036517354e-02,4.815193777039504519e-02,-2.223190552608673834e-06,-5.600121080979124209e-05,-1.287838181128582535e-03,2.914968132972717285e-01
1.604587462854348834e-01,6.850761241492575593e-02,6.719273889134544375e-02,-3.056851556781148282e-03,-2.459386800661114703e-02,-1.237819119883537588e-03,1.021021455526351929e-01
3.129012389076396006e-01,6.817283544860691658e-02,3.615805753408816992e-02,-1.759602965090570695e-03,1.494952555006937023e-03,3.781281333584865945e-03,2.623180449008941650e-01
1.682884085721848000e-01,6.570151049486572248e-02,5.020965750788778520e-02,-1.357884591503244649e-02,-2.947153212335928280e-02,-4.770633012090695450e-03,1.248217746615409851e-01
3.220364757131284894e-01,6.025531808383839671e-02,3.391936921935784222e-02,-1.503082318067511063e-04,8.169998433989097411e-04,-5.395103761563418499e-04,2.758988142013549805e-01
2.041358260035407157e-01,7.365853706840562454e-02,6.186839801159176727e-02,-5.215760528196853284e-03,-1.772460141365638300e-02,-2.533019301136561936e-03,1.405169814825057983e-01
1.973645441717890581e-01,5.604413987967417354e-02,6.388241811162138906e-02,-2.043014084759035495e-02,-9.025370561120411861e-03,-9.778768098728525537e-03,1.439048349857330322e-01
2.267111535081472451e-01,5.370946106541717169e-02,5.468493983028704930e-02,-1.134751346607384623e-02,-1.164533014493476272e-02,-9.042620230535616116e-03,1.754999309778213501e-01
3.957269670062311118e-01,4.863979553531200262e-02,4.532273665566660670e-02,-7.270530399038431513e-03,4.754811501065131507e-03,-1.060018201248509595e-02,3.495644629001617432e-01
3.124001468252050051e-01,5.568068605987325226e-02,3.719881615961184718e-02,9.275652900655964204e-04,4.228669203479722659e-03,4.920059787974985673e-03,2.666832506656646729e-01
3.253500335803323207e-01,6.028471510605779016e-02,3.207610987692470494e-02,7.281216007229710180e-04,1.813987940941658118e-03,9.153096519298519005e-04,2.802613973617553711e-01
3.225089987046561579e-01,5.931825055369283062e-02,3.041133113667422727e-02,2.656909952384955238e-04,-5.675068383545573900e-04,1.275798616740053855e-03,2.787814140319824219e-01
3.273529016960595728e-01,5.710219062277863133e-02,3.540981366011392018e-02,-1.510745139451811830e-04,8.327092803790948862e-04,1.816635503304349841e-03,2.817453444004058838e-01
3.309184834407579157e-01,4.507330561718428386e-02,4.719598202831676304e-02,1.558768574991188432e-03,7.678636041804323860e-04,7.555256398678898483e-04,2.848086953163146973e-01
3.245377436845638952e-01,5.736311364081903008e-02,3.341862174688914333e-02,1.930404928311362607e-04,5.267097447987341766e-04,9.859466147282822980e-04,2.799229323863983154e-01
3.132704775982889100e-01,5.553591364254628626e-02,3.902300329563265779e-02,1.777025594166093715e-03,-3.919295572718121783e-03,5.332927372427935173e-03,2.666394710540771484e-01
3.291515484191750440e-01,4.849125637429907432e-02,4.565696706691133033e-02,3.558620277970074228e-03,-2.044193681924128415e-03,3.294139055371024787e-03,2.822353541851043701e-01
3.273197507239871129e-01,5.279426984168403281e-02,4.204718116875912071e-02,2.581404684493402314e-03,1.688751444362433188e-03,8.528928798739925186e-04,2.801085710525512695e-01
3.291036685690603703e-01,5.399636838101876113e-02,4.633262581281007153e-02,1.999062409815967421e-03,-6.115887855008374837e-04,2.781042266460085829e-03,2.790831923484802246e-01
3.288985526902874490e-01,5.630027143955122770e-02,3.611304946614748990e-02,-4.572507663623107707e-04,-2.480745986299185682e-04,-8.596666892315116314e-04,2.832373082637786865e-01
3.217389229942679285e-01,5.778235026462594237e-02,4.305336915164509337e-02,-9.052635512100209688e-05,8.906585062776133750e-04,-4.507703086856460449e-03,2.717373669147491455e-01
3.194080400693691812e-01,3.489305206609745469e-02,5.211403896701696792e-02,4.607279443061976579e-03,-3.326057829385831383e-04,4.056990190210022114e-03,2.765123844146728516e-01
3.370939827066530281e-01,5.383553882295656623e-02,4.568949782183834296e-02,-7.364090844438356482e-04,5.374522355473894310e-04,-8.755940827321966827e-04,2.874263823032379150e-01
3.166436000259192918e-01,5.960579238828873916e-02,3.336310941266724950e-02,2.223571926942463466e-03,-4.321920073898035189e-03,7.148224617411099140e-04,2.712468802928924561e-01
2.748997407997774145e-01,5.582131614533396291e-02,3.156152655085522896e-02,5.964463304277550781e-03,-2.314239547061586882e-02,6.880569212193481977e-03,2.361231744289398193e-01
3.387809004696319404e-01,4.727441345408804618e-02,4.762186755779106162e-02,-3.409187300250692628e-04,-6.579578727875251163e-04,-4.420936369211899536e-04,2.913367450237274170e-01
3.169335763445562115e-01,5.603264522607882825e-02,3.452047308812986048e-02,1.106946436789811280e-03,-5.470240615226329428e-03,8.241374035748845169e-04,2.724703550338745117e-01
3.156449220962258551e-01,7.090905696363762611e-02,4.765270238109606260e-02,2.585061851143991007e-02,-3.451203502195736988e-02,1.034050984480549239e-02,2.683783769607543945e-01
2.205556012029776525e-01,5.782620735050121585e-02,5.043784275729131655e-02,2.829851244777215752e-02,-7.365916145360311418e-02,4.287079542468466044e-03,2.155743986368179321e-01
2.741640545817493058e-01,6.047171507856265171e-02,3.944239375278629778e-02,3.854417029835809777e-02,-3.782325940870412406e-02,1.048392748059683369e-02,2.442927509546279907e-01
2.968589198330361389e-01,5.740856393529203405e-02,4.500402492771853058e-02,1.385291646959586724e-02,-2.448114885708174010e-02,7.737613139996850006e-03,2.510257363319396973e-01
3.316861078883379110e-01,5.951731485167154057e-02,3.480178106808372307e-02,1.116754629892703935e-03,4.252365654575891891e-03,-2.027072489846863147e-03,2.854537069797515869e-01
4.207756502808380206e-01,5.578160618698688178e-02,5.681815192397358938e-02,1.175674667476772281e-02,2.620075194960996834e-02,-1.283887983956944617e-02,3.685268163681030273e-01
3.514400937560133165e-01,5.534800811738264936e-02,6.315461865426269528e-02,2.127555053032314722e-02,-1.972744938263659709e-02,9.742921145054530760e-03,2.970357239246368408e-01
2.983424343246894317e-01,6.757294396949835302e-02,4.474575768631651462e-02,1.649945147623326988e-02,-2.492655414533716252e-02,9.700951475952237016e-03,2.490109950304031372e-01
3.334936268399160131e-01,6.045675733038655131e-02,6.230307443778379528e-02,-1.053286770537850388e-03,8.394910730574737428e-04,-6.108693230529834209e-05,2.721284329891204834e-01
3.327814619564312126e-01,6.453843265965712728e-02,6.477522759449137746e-02,1.565484639682473186e-04,5.039355191362273386e-04,-1.501810126596877419e-03,2.681388854980468750e-01
3.324261005280539916e-01,6.392491368512059902e-02,6.407622663207029889e-02,-2.375141590959219595e-04,1.788797601140103283e-05,-5.867839637379128879e-05,2.684259116649627686e-01
3.398953679678259343e-01,4.784387189942693186e-02,4.940968382724024444e-02,-3.652086541555072188e-04,3.741094046282521473e-04,-4.817815882554408059e-04,2.912743389606475830e-01
3.344217728073005658e-01,6.291291266272890093e-02,6.594359759222177819e-02,2.166383625559005119e-04,1.093841980291039605e-04,-5.711706029053080296e-05,2.700066268444061279e-01
3.209292931273569627e-01,3.064056272911282186e-02,5.940474155280908719e-02,-3.798337389715255121e-04,-5.081899024556974474e-04,2.108596062184899932e-03,2.770551443099975586e-01
3.268291073202379549e-01,3.629327488621607312e-02,5.615748744834646311e-02,8.101565388657045808e-04,-3.925743247682549585e-04,1.996285659566106145e-03,2.811561524868011475e-01
3.257279207017932388e-01,3.382636399797682436e-02,5.759111571547292918e-02,1.454163482462973288e-03,9.883923668344762127e-06,1.113981858712234782e-03,2.807924151420593262e-01
3.359541999836458404e-01,5.346724542229851218e-02,4.244628741270517480e-02,8.520842605797227529e-04,-6.741404395293692196e-04,-4.171843990251337259e-03,2.882522642612457275e-01
2.997437294218678883e-01,5.801251246969128805e-02,4.824589944456293689e-02,6.424384184299767068e-05,2.022849195720277399e-03,-6.637472255650112354e-03,2.470520585775375366e-01
3.310266024177819233e-01,5.416301271270976270e-02,4.153457993230305623e-02,5.041847319424551686e-05,3.388946482850458829e-04,-4.008673363014904518e-03,2.834745943546295166e-01
3.072558612394706845e-01,3.887193348496444101e-02,6.803727352675471851e-02,1.571111289829480243e-02,4.145292791672998065e-03,3.354281265568867000e-03,2.566687762737274170e-01
3.364349912282554866e-01,5.094381578525718213e-02,4.497692279235684931e-02,-1.157025246970295454e-03,-4.597234892936463333e-04,-1.284005666964757033e-03,2.885375320911407471e-01
3.362995273895930670e-01,5.284831258947669808e-02,4.368671423019664102e-02,-5.333687456953131083e-04,-1.031894486337385725e-03,-5.555160935990709160e-04,2.881498932838439941e-01
3.333563901303592258e-01,6.515180675900637819e-02,6.262149290585299066e-02,-7.995441552537811995e-04,-1.635953652582613485e-03,1.257699080207650994e-03,2.695059180259704590e-01
3.323071068539933948e-01,6.163577868601625986e-02,3.827092938025314361e-02,1.934616797649092940e-03,3.432150309126115462e-03,-3.740861740734111474e-03,2.832342386245727539e-01
3.368495776831556543e-01,5.279262460947671542e-02,5.397473103500588509e-02,-1.399990341206010106e-03,-1.456682787060377751e-03,-3.128677989434858978e-04,2.834898531436920166e-01
3.246435224750244819e-01,5.689467130459088806e-02,3.678948650210478455e-02,4.857627879399755702e-04,2.583966010115991419e-03,-3.456926542395784025e-03,2.784481942653656006e-01
3.290560229213184140e-01,5.898192588818786108e-02,3.490421302034249496e-02,1.806172751137025178e-03,1.356587648318736830e-03,-1.050298588418112486e-03,2.829154133796691895e-01
3.385071680774078828e-01,5.035376321364008756e-02,5.384109639089199040e-02,6.350362043601465341e-03,5.202006073382014345e-03,-3.743422424278649695e-03,2.868516445159912109e-01
3.375300640931282459e-01,5.642981585465627059e-02,5.721048404985315528e-02,2.688716335741085390e-03,-2.332498799513872331e-03,4.241906047150768031e-04,2.807793915271759033e-01
3.190513375677808128e-01,5.042276978560353284e-02,5.192569410777651828e-02,1.293539997964343559e-03,2.810814091092812567e-04,-6.568431081091573136e-03,2.681315541267395020e-01
3.534841899198337689e-01,7.032198056917705886e-02,6.601467643913341843e-02,-5.525883434306696172e-03,-2.080358793943228903e-03,3.173070701281437492e-03,2.855763435363769531e-01
3.357947464644176483e-01,6.531849527215538576e-02,6.221128467809577955e-02,-1.080865750749551149e-03,-9.432152670603865694e-04,1.534892216145660121e-03,2.720674872398376465e-01
3.380329398413344233e-01,6.088221953262923369e-02,5.785368380960738410e-02,-8.683413115400399809e-04,-1.083106572150051424e-03,3.088506341983623905e-04,2.786882221698760986e-01
3.151598215163167183e-01,3.949960217796361084e-02,5.244315022493480083e-02,1.664891658920999301e-03,1.067382314597013987e-03,6.624843613161677733e-03,2.696877121925354004e-01
3.368808101550272438e-01,6.670798734934137164e-02,5.980583643001533001e-02,8.704582528757721406e-04,-2.025060906994248771e-03,2.686426240823242429e-03,2.737553417682647705e-01
3.384815868927808502e-01,5.843499180787650737e-02,5.732588190470397360e-02,1.520612707763685241e-04,1.130254401421744610e-03,-1.871671664081437129e-04,2.806099355220794678e-01
3.374765963817129011e-01,6.606424734231101936e-02,6.053419669283253979e-02,-6.477580184184646844e-04,-1.330776545013410148e-03,3.562770469058718233e-04,2.742318809032440186e-01
3.207965552966994816e-01,5.569822859898448941e-02,5.452601081602602429e-02,-5.738292318227831978e-03,6.560257110964674843e-03,3.253823355283822199e-03,2.661745846271514893e-01
3.299887110040750637e-01,5.560770397396606890e-02,5.554137693606239767e-02,-1.783718609669164568e-02,1.782979570421579230e-02,8.990381353160409317e-03,2.783052623271942139e-01
3.378157299454512819e-01,4.788359159335880966e-02,4.959419393637504170e-02,-3.943190303362462275e-04,-9.759661955613216529e-05,-3.836679076480172088e-04,2.890822589397430420e-01
3.506160405173539552e-01,6.187977093569446696e-02,5.849014982759372094e-02,-9.083729344906234021e-04,8.037827612130692481e-03,-1.736693214217382422e-03,2.907992005348205566e-01
3.578829606132853947e-01,6.151305538252996308e-02,5.751666664270148333e-02,-6.808958416339018320e-03,3.310940799419963276e-02,3.849084310028949574e-03,3.041508495807647705e-01
3.399344128473721360e-01,4.904409850241157887e-02,4.856199039088372749e-02,3.177888166468420018e-04,-2.752570045615881380e-04,-5.377193969522104473e-04,2.911340594291687012e-01
3.887550413837332908e-01,2.770222590068507906e-02,5.151096922151636448e-02,-3.489037542594172064e-02,5.351425814898566093e-03,-6.645013574781155792e-03,3.552466332912445068e-01
3.379005047876467716e-01,5.153162817494486014e-02,5.535059661730483416e-02,-6.144240769206009249e-03,5.410363445686453519e-03,3.503902693189186752e-03,2.848964631557464600e-01
3.340538081299729845e-01,5.569597896359877731e-02,5.557884770878304681e-02,-5.310994932053148915e-05,1.240018140574282966e-03,-1.210683141154058733e-04,2.784247994422912598e-01
3.347125323176480816e-01,4.892005409866491406e-02,5.516767360145649612e-02,-2.418698216139388880e-03,5.472989417367664020e-03,1.853393903068633383e-03,2.829285562038421631e-01
3.216928028935576722e-01,4.158878057835101172e-02,5.305807243387365701e-02,4.972938099299046080e-04,5.486057982161531514e-05,3.378129062604192778e-03,2.746128141880035400e-01
3.390590142150189945e-01,4.903855300614740065e-02,4.721407203168023758e-02,1.914828541159126608e-04,1.105806207791666391e-04,-1.248531021235171163e-03,2.909452915191650391e-01
3.184007936804625349e-01,5.838091917132430531e-02,3.174785696319072648e-02,5.552121900630879042e-04,5.144565662633333002e-03,1.698423150579959429e-03,2.744699716567993164e-01
3.247067034085268644e-01,5.945388340019583384e-02,3.324727619800298128e-02,-3.099042235000669843e-04,5.978520804505553510e-04,1.022858044923188403e-03,2.792878746986389160e-01
3.226319797566060132e-01,5.946058457220561311e-02,3.384154229170767414e-02,7.626095941256840101e-04,7.045105661449304040e-04,1.756706499097496644e-03,2.768938541412353516e-01
3.253329901864843721e-01,5.950261677971827035e-02,3.267269643880153784e-02,5.879429808821203218e-05,1.249700149104849200e-03,9.705402557333661119e-04,2.802237570285797119e-01
3.667151070295254223e-01,6.924039619737643037e-02,6.220423175609145205e-02,-9.433125167797987154e-02,-6.043942284719206609e-02,-1.047908392478115718e-03,3.581773340702056885e-01
3.253591723420884430e-01,6.172352722019530669e-02,3.262368843903425131e-02,2.761696948787898623e-04,1.607449695069516861e-03,-1.454310583485299302e-04,2.793391346931457520e-01
3.212476409169595648e-01,5.713670419709267201e-02,3.898906572116496438e-02,-1.059465760614402945e-03,3.441766868968074329e-03,4.939285185852988237e-03,2.738412022590637207e-01
3.251750846865519851e-01,4.956884269935725451e-02,3.831756655174986537e-02,-1.587037804611162546e-03,3.788252662608248417e-03,4.929021003988258952e-03,2.816199660301208496e-01
1.859425701724004565e-01,4.286801925476664554e-02,4.757705030953286035e-02,-1.168763078301140058e-03,7.318188174599385420e-02,2.623644735432938569e-03,1.895000636577606201e-01
3.193138901339981350e-01,5.297583855567745970e-02,3.632965004012667087e-02,-1.185164950401044809e-03,2.656702389185674508e-03,4.057768168159973585e-03,2.751751244068145752e-01
3.310854102341497796e-01,6.358274351461204454e-02,6.488777563957570660e-02,-1.998660151216577173e-05,-2.385029624302335187e-04,1.325085175572917142e-04,2.668529748916625977e-01
3.266091241244108989e-01,5.137144313297026255e-02,3.921010080981873758e-02,-1.596460522492031695e-04,6.495762097476594698e-04,1.603672481375845865e-03,2.815315127372741699e-01
3.266177939013045206e-01,5.341656709378962697e-02,3.724482882916535509e-02,4.958687906973811626e-04,-1.580792120491068592e-04,1.130938299059016869e-03,2.816437780857086182e-01
2.762394964907489703e-01,5.420467177720160457e-02,3.988431993038868417e-02,1.554783496613783463e-02,3.627923760911552775e-02,-3.976819504947447063e-03,2.395941466093063354e-01
3.745238293274755215e-01,6.135785954110543894e-02,6.169434252035688182e-02,4.712577238670861632e-03,3.661455026240361104e-03,-2.529445590662561787e-03,3.131991326808929443e-01
3.321701606912311755e-01,4.083888686704384430e-02,5.490345830439677388e-02,2.960840885514847819e-03,8.054117220659949040e-04,1.942962746991019722e-03,2.846293151378631592e-01
3.524521710001461416e-01,6.089110133399602831e-02,5.937417609441725252e-02,2.519836566109228630e-03,2.357547525643602631e-03,-2.426361393019079121e-04,2.923838794231414795e-01
3.650905816389536929e-01,6.379050350051326812e-02,6.835430221394697692e-02,5.265910961755070931e-03,-2.756907907526513855e-03,6.407432310868829337e-05,2.992214858531951904e-01
3.328815462561149907e-01,5.430132111127590477e-02,5.623793622635457623e-02,-1.836143129074882660e-03,-1.031774529262138949e-03,1.296477415855417682e-04,2.776410281658172607e-01
3.436094459491519371e-01,6.157921372806479665e-02,6.690671858203797728e-02,2.056198144663012439e-03,-7.801475463803976551e-03,-1.216034929790877896e-04,2.797538936138153076e-01
3.115141700881805531e-01,6.180577808428357189e-02,3.839267574224802804e-02,-2.475626847996642934e-04,1.656463122726414047e-03,-2.565948835538916020e-03,2.622538208961486816e-01
3.448838941076070586e-01,5.716241211927482191e-02,5.079260630893213391e-02,2.805465952219237183e-02,3.270688962526198396e-02,-2.553114711227596340e-03,3.004112541675567627e-01
3.232489815822093271e-01,4.373776686277756898e-02,5.136620617398454658e-02,1.489612371498572974e-03,7.615013625039712165e-04,6.582660476764254538e-03,2.760269343852996826e-01
3.370301172333941553e-01,6.642425866642122367e-02,6.145903068648220224e-02,1.638474890956172561e-03,-7.908608634574355433e-04,3.240978949209993853e-03,2.731981873512268066e-01
3.636310966874241046e-01,6.390218769939655374e-02,6.460237553867949345e-02,-4.392973364060944255e-03,2.386262977177306625e-03,2.612319192312775179e-03,2.995387911796569824e-01
3.561408891921920006e-01,6.944014568893000505e-02,5.928879357575789211e-02,1.362957572948054596e-03,8.613423972446869817e-03,-2.481008699181083080e-03,2.923309504985809326e-01
2.757695146960462140e-01,4.069735199095607381e-02,6.298956953078357901e-02,-2.236211894464220674e-03,-5.746674974278101564e-04,-5.386811029077003855e-03,2.249858528375625610e-01
2.950322031033775216e-01,6.256007141909435132e-02,5.166381102003568537e-02,-9.878933647247149438e-04,1.417390433443992430e-03,1.067054653002360610e-02,2.388422787189483643e-01
3.432667868233654218e-01,7.262068137730100237e-02,5.778859603699561254e-02,2.940818570434858194e-03,8.909551309720403116e-04,2.706160818464798420e-04,2.784099578857421875e-01
3.328540609034962294e-01,5.209565613637624770e-02,4.371113499016850146e-02,2.128218583132458904e-04,2.135679623028554665e-04,-3.532374777537746445e-03,2.851093113422393799e-01
3.449726497020725868e-01,6.820238338347653362e-02,5.901835179590560199e-02,8.032780728947562466e-04,-8.578191284429338139e-04,2.292468095907951049e-03,2.815100550651550293e-01
2.110581079623262135e-01,6.380453113317881286e-02,6.315475991892353924e-02,-2.211879932586520089e-03,1.691197580466002491e-03,2.747579701277050746e-03,1.477349847555160522e-01
3.372586036063296433e-01,5.800005451517023514e-02,5.319559787211562696e-02,-2.863379237199650536e-04,2.963202073725151701e-03,-3.902411540275435879e-04,2.817395031452178955e-01
3.218059316666619374e-01,3.761551150367314911e-02,6.030121478293218318e-02,4.020161626507246649e-03,2.180641716605276510e-03,-2.086693417583726420e-03,2.736925184726715088e-01
3.304625671015042343e-01,5.855999663689000212e-02,3.528615912082436190e-02,-4.491594395612892501e-04,3.691299972133024569e-03,1.503133503459532774e-03,2.843398749828338623e-01
3.353542008945340491e-01,5.438952570261774977e-02,4.222921724132203125e-02,-5.056705650534716254e-04,1.374218190788524920e-03,-1.592221770427467483e-03,2.872623801231384277e-01
3.231927490968499739e-01,3.443458968702534095e-02,5.556571418243215488e-02,1.454634620885100500e-03,2.423425926381718454e-04,1.558511277714855940e-03,2.788186371326446533e-01
3.306999277106799084e-01,4.903004042253494843e-02,4.850218243552617547e-02,5.896875029614604379e-04,5.475768157908402932e-04,-2.780925657170152995e-03,2.819787859916687012e-01
3.464560955181780200e-01,7.177576432503408876e-02,6.001739810552420007e-02,1.077534720390956957e-03,2.274156756809626520e-03,1.353183711974771447e-03,2.807878553867340088e-01
3.458364250629072378e-01,5.956031747613702021e-02,6.314886396939425883e-02,-2.167224873774372881e-03,-1.794816407941635193e-03,7.116292681219695861e-04,2.845432162284851074e-01
3.363887396981725120e-01,5.409813962945266008e-02,5.245942731129288328e-02,-1.479349365551021122e-03,-1.068707993058075128e-03,-7.443972643783155672e-05,2.831311821937561035e-01
3.453087243321893984e-01,5.861165955713810993e-02,5.753917912786112032e-02,-1.996782462118316601e-03,5.230886199555855151e-05,-3.791333548843681795e-04,2.872563898563385010e-01
3.364489207373240753e-01,5.346218151810711028e-02,5.364431419954834857e-02,-5.401033083306255736e-04,-7.153054790102818077e-04,-1.578729986806608421e-05,2.828999757766723633e-01
3.494793937923107441e-01,6.982401779127783703e-02,6.967580773709025621e-02,6.984072087746355517e-02,7.656819867565015092e-02,-8.011700296909866773e-04,3.323729336261749268e-01
2.338219345642337244e-01,3.879732704770744167e-02,5.867325658271131672e-02,3.025405034669989210e-02,-2.263234990821804440e-05,8.284839762859810483e-03,1.936625838279724121e-01
3.200135772723115002e-01,3.771859225797846715e-02,6.070097928390612296e-02,2.056183911093367039e-03,-5.939729050686581597e-04,-5.035081106480980562e-03,2.716995179653167725e-01
1.492950326113097193e-01,6.721228616634883357e-02,5.646849167530305913e-02,5.174141299215202078e-02,-6.786115880651831522e-02,5.735115245185820262e-03,1.722802817821502686e-01
1.548623206205352321e-01,5.491172591488054783e-02,5.015259936019954984e-02,6.046211822293660887e-02,2.121546288212732001e-02,3.362503522744540122e-03,1.511279493570327759e-01
3.395987878904539459e-01,4.738082108834407169e-02,4.777485424898242350e-02,-2.570744385691413022e-05,-1.743050746879323853e-04,2.170515244172634390e-09,2.920213043689727783e-01
1.872032612126643403e-01,6.068217032671460037e-02,5.841151023876882398e-02,4.583937274655918576e-02,5.978424875191686028e-03,3.826520028945880770e-03,1.508473604917526245e-01
2.808938315495870253e-01,4.633468578349488054e-02,5.646782999385421831e-02,3.393802651486511890e-03,5.483040260387985051e-04,-7.659469143612878880e-03,2.301202118396759033e-01
2.866337741615791468e-01,7.115941852173385263e-02,5.911461828082111014e-02,9.375221462183619403e-02,-1.808444827398379348e-02,-1.009518369431676324e-04,2.766210734844207764e-01
2.843562623039009862e-01,6.523659918115211342e-02,7.424583343153089154e-02,4.860754264944538994e-02,6.774245133301369862e-03,3.769670414865366592e-03,2.310603260993957520e-01
1.937782480189850776e-01,6.453073722314479899e-02,6.944938017301424682e-02,3.525143444431343143e-02,-2.939337635818485561e-02,1.403021334225959885e-02,1.516701430082321167e-01
1.997642126509977523e-01,6.091458028542185571e-02,6.248653388346407656e-02,3.122070945299598374e-02,-2.145176844963343418e-02,1.836939855983763664e-02,1.561424434185028076e-01
3.195174178110922192e-01,4.185133352368372583e-02,5.239502919101718392e-02,-7.032130096120417983e-04,2.483391944354217920e-04,6.796813541827694330e-03,2.728044390678405762e-01
2.858038698495614094e-01,6.696694531907164405e-02,3.628768592898605483e-02,-7.763439782479907274e-04,1.137704105965449408e-02,7.110996684359535908e-04,2.365083694458007812e-01
2.829109395322315645e-01,3.411706096524336207e-02,4.638379108423626440e-02,-1.401048409523189715e-02,-1.435490982961964805e-02,-9.845591091315027479e-03,2.459570169448852539e-01
2.416879545977296539e-01,5.810047953059684078e-02,4.994190845638597775e-02,-6.417505651894318472e-03,2.005223814271824001e-02,7.646795261412827650e-03,1.917654424905776978e-01
2.981020547523938191e-01,6.321175657110988944e-02,3.823635689449716990e-02,3.765413320389701321e-03,9.134976139819273727e-03,2.896916541562896338e-03,2.489613592624664307e-01
2.783813166360433744e-01,7.286712866039965486e-02,4.391514770289633995e-02,-2.636154499605408621e-03,3.448566054455863561e-02,1.096214179100605916e-02,2.301596850156784058e-01
3.155310223940979708e-01,3.500320251587038523e-02,5.348856656222862604e-02,-6.593723501066129679e-03,4.833679854619712252e-03,3.629503309042716400e-03,2.721983790397644043e-01
3.153663840124804052e-01,6.115941377164675619e-02,3.672283688609347119e-02,6.985822258712488970e-03,1.436859662662385607e-02,-2.564130295430635652e-03,2.687299251556396484e-01
3.316229092974815051e-01,4.398992656394240530e-02,5.548206862781693283e-02,5.051212932768590468e-04,1.348216284677200387e-03,1.227860603550000231e-03,2.820816040039062500e-01
2.956556038207589499e-01,6.354965591401454117e-02,3.801669522299651327e-02,-3.144137679362398342e-03,9.186545929779750541e-03,4.422618909970137124e-03,2.465623021125793457e-01
2.404829837380784985e-01,5.783954415200041888e-02,4.973307404489937800e-02,-2.735016284261173897e-03,1.831414994140833502e-02,7.654494015017207498e-03,1.900246590375900269e-01
3.340230594669029718e-01,5.885367103642692721e-02,5.699990373998717330e-02,-1.539530188090784159e-03,1.484182788999763433e-03,7.042481324659936696e-04,2.761284708976745605e-01
3.327337397230087368e-01,5.590846264418160294e-02,5.557522310834946133e-02,-9.670177654874231518e-04,9.362433031623856178e-04,-5.277176373933334559e-04,2.770033776760101318e-01
3.337980287961538339e-01,5.472353534780215190e-02,5.395426163565572586e-02,-7.781649669311468303e-04,1.004569948031398471e-03,5.190308335645146907e-04,2.794700264930725098e-01
3.348091327371759407e-01,6.342791299882356848e-02,5.725342194419651143e-02,1.392226557064309709e-03,1.131702902451708903e-03,1.742526645497972828e-04,2.745383083820343018e-01
2.936934277221188161e-01,4.928434186981316134e-02,6.802342893490406772e-02,-2.012399987237707601e-03,-2.154552842569283286e-04,1.100849268318222600e-02,2.363954335451126099e-01
3.428506896607055321e-01,4.854854428899063601e-02,5.237890072657588880e-02,9.441686324009108955e-03,-5.120709444367629697e-03,5.618796892383535677e-03,2.931585907936096191e-01
3.328189180904549960e-01,6.115273418216218837e-02,5.696461912668575323e-02,-1.109035633932695152e-03,-1.142926116966935785e-04,-2.869543151755221935e-06,2.737910747528076172e-01
3.437885213481856050e-01,6.260794579352943479e-02,5.480506016610328657e-02,2.038788260915258294e-03,1.098581333536197309e-02,4.881984330406170542e-04,2.858192920684814453e-01
3.327243889269210775e-01,4.940456041487326089e-02,5.545194099259059817e-02,-6.017138800915795057e-04,2.093058714970096653e-03,1.164084425212768984e-03,2.803776860237121582e-01
3.400062846598147503e-01,5.961507802417896629e-02,6.677778304223666583e-02,1.680265077993696584e-03,3.586588240824931540e-03,-4.048496538952119973e-04,2.769652009010314941e-01
3.040778633527073671e-01,5.296374921829874460e-02,4.381696947295123101e-02,-5.833306149094795445e-03,2.236893330274049990e-02,1.130509055970217898e-02,2.596641182899475098e-01
3.285523206098427407e-01,4.757948633112250858e-02,4.332127218325530771e-02,2.857941404671344304e-03,-2.688817319229177411e-03,2.269966453068069604e-03,2.832348048686981201e-01
3.370115397807222912e-01,5.441089570940202402e-02,6.017140849725792495e-02,1.365157424592492222e-04,5.901479159469525749e-04,-1.033106886434071109e-03,2.797725498676300049e-01
3.368798621356953737e-01,5.318000282565144010e-02,5.416727141610552798e-02,1.281501834602735874e-03,1.399868890530530470e-03,1.873276090054345599e-03,2.832451760768890381e-01
3.343848490398820816e-01,4.771865755867019110e-02,5.289469155960849212e-02,4.366267154813696975e-04,3.319739466467543131e-04,1.084183659214671197e-03,2.841213345527648926e-01
3.221394178735236258e-01,3.084689462778002211e-02,5.815976628575983409e-02,6.380342443525500833e-03,-2.830953882776213008e-03,2.170729759706036942e-03,2.789293825626373291e-01
3.134223834190894564e-01,2.907961750025934988e-02,5.793204424965482657e-02,6.542438841526487629e-03,-7.463087852648544410e-04,2.606336075433474900e-03,2.713480293750762939e-01
3.123426896941826625e-01,3.024162267022513506e-02,6.153814212126378080e-02,7.072865117556667754e-03,-5.022299275656688915e-04,1.125735312739856685e-03,2.681162655353546143e-01
2.681093398276707673e-01,6.940343457559941531e-02,4.678290069501198079e-02,-2.364938148436996658e-03,2.864245699124036079e-03,4.979430610531503792e-03,2.112021148204803467e-01
2.425523721304206348e-01,5.755597351784100257e-02,6.778272600444694429e-02,-3.422935179353828010e-03,1.746568002472538876e-03,9.442804377343627653e-03,1.809644848108291626e-01
3.213367787914634399e-01,3.090613907912223568e-02,6.145198169693477652e-02,9.016748365353790672e-05,4.928523073281316971e-04,-3.165773542130861777e-04,2.764283120632171631e-01
2.746107198309089004e-01,5.987695873694849624e-02,3.674051189739689638e-02,1.621717812959918778e-02,3.191716464664372255e-02,-8.714623872804163479e-03,2.359809279441833496e-01
3.313812933829491936e-01,4.142415727456805197e-02,5.127823237775107346e-02,2.717767021230022353e-03,-2.504391641105797726e-05,4.131571107549879274e-03,2.852864563465118408e-01
3.328371412319084399e-01,4.427101845876278696e-02,4.772208362496314915e-02,-4.321576729590218577e-04,-1.480471369354515311e-04,1.440533792213073488e-04,2.868573665618896484e-01
3.339876448028394895e-01,4.334697391327957394e-02,4.770249621106256721e-02,-2.885137377791862755e-04,-5.983203269448059223e-04,4.865809936345549184e-04,2.884911000728607178e-01
2.815803047625416999e-01,6.456178491247958895e-02,4.614918014072857955e-02,-2.846794755409357068e-04,1.544060491087545289e-03,-4.350172589205159729e-03,2.269275337457656860e-01
3.262994525392326484e-01,6.091865901350672352e-02,3.534349759057525686e-02,-7.469752315597316585e-04,-6.205138347305792432e-03,-1.695655161362012199e-03,2.792741060256958008e-01
1.756614790834727935e-01,6.707954527724109550e-02,7.388654179423370660e-02,-4.304307306559528035e-03,1.433122263519104539e-03,1.437545011183670668e-03,1.056654974818229675e-01
3.319497947496529711e-01,4.251420063842553665e-02,4.711104300518002830e-02,1.312238850769535138e-04,2.045121175289577942e-04,1.016558501999656559e-03,2.871704697608947754e-01
3.151340952896619640e-01,3.506252829836657703e-02,5.675139479854440783e-02,7.095643003442336262e-04,-2.161650068068448772e-05,5.064497818854484489e-03,2.700268626213073730e-01
3.332421749658040500e-01,4.369621268954924920e-02,4.682748420406057654e-02,2.839902943477253081e-04,-1.519033931489449304e-04,-2.089247494028319977e-08,2.879936397075653076e-01
3.277787294191500944e-01,5.906082280915057880e-02,3.954280186947134457e-02,8.890428844337975103e-04,1.732168493995857967e-03,6.473583305206472059e-04,2.790120840072631836e-01
3.320605537205234548e-01,4.418267132373415729e-02,4.495551624108384825e-02,4.194488779371882258e-04,-2.779427642615260705e-04,1.028274661911022982e-03,2.874990701675415039e-01
3.663345053520676298e-01,6.264384290783038545e-02,5.536822492780367477e-02,1.975740558782364265e-03,-2.005245368880008427e-02,3.430293676812980284e-03,3.094249665737152100e-01
3.485479895568150965e-01,5.590292491363191285e-02,5.856499959975289271e-02,4.486767680038779532e-04,-1.130979766204976388e-02,-1.106335785157552647e-03,2.919883430004119873e-01
5.126408290180967109e-01,9.649741309690218483e-02,7.779638040879879868e-02,3.439749622581764199e-02,-4.900010170968432943e-02,7.543497996933355015e-04,4.382484257221221924e-01
2.982680645331277081e-01,5.483298329616186073e-02,4.889625580658546466e-02,2.318030377458931215e-02,-8.821131901062717606e-02,1.164735724180623964e-03,2.927470803260803223e-01
4.173691604417809620e-01,7.975180910459701844e-02,6.772726848505199182e-02,4.171833043486853493e-02,-7.832768806459868005e-02,-1.286177393303103954e-03,3.765921592712402344e-01
3.682211375197873005e-01,6.043453028464278176e-02,5.070031320820118925e-02,7.227307312662325373e-03,-2.549291207985386609e-02,-7.172823076650993107e-04,3.161191642284393311e-01
3.533667348475173497e-01,5.470579140272772978e-02,5.410783175695349501e-02,-5.806623864372121961e-03,-1.672793879865281177e-02,-2.421734846920811299e-03,3.005586862564086914e-01
3.563039654943431778e-01,6.635633955533000450e-02,6.211185437810755328e-02,-8.687390368369674043e-02,-4.510872990819111278e-02,-5.816626613794112846e-03,3.378837704658508301e-01
3.476332248377135281e-01,5.452638917257994489e-02,5.265268599404120120e-02,1.140944670778367039e-02,-1.662294971120800366e-02,3.457308393997311421e-03,2.961750626564025879e-01
3.368300540451473757e-01,5.671017797722786857e-02,5.618777251196242772e-02,-3.126711324101285206e-03,-1.759607624910852937e-03,4.493134458493024499e-05,2.804503142833709717e-01
3.586929563074210958e-01,5.099328841563238734e-02,5.077568757545604383e-02,-1.937026872578889031e-02,-6.918709507614720366e-02,-8.667429228659396037e-03,3.323516845703125000e-01
3.395713440638223890e-01,4.614700660392995202e-02,5.923631889751382329e-02,-1.476525404747709019e-02,2.239380433033518348e-03,-3.025193672703152536e-03,2.883140444755554199e-01
3.450950505021593839e-01,5.927967564121101873e-02,4.707525345469729117e-02,-2.893123976392040358e-02,-4.439444697218575264e-02,-4.238335234824847260e-03,3.062762320041656494e-01
3.797359532020049278e-01,5.764430507004132676e-02,5.445392893097646125e-02,-1.193682361185310209e-02,-7.507421426187445811e-03,-6.938584092048556522e-03,3.248411715030670166e-01
3.519877730382021674e-01,6.649391999346826454e-02,6.340650974525738337e-02,-2.587423894684053993e-03,-1.953774180843882973e-03,3.223116850441016049e-03,2.871592044830322266e-01
3.658705841360838651e-01,6.230403943172187209e-02,6.220545335975810608e-02,-5.301369674742995204e-03,-1.050943639991945046e-02,-1.591363386818269625e-03,3.043120801448822021e-01
3.315545540484101661e-01,4.933333069127875115e-02,4.009648939240414989e-02,-4.268723901590977532e-02,-4.882534686477340430e-02,-9.550617964784484035e-03,3.085983693599700928e-01
3.260375393278744371e-01,5.807560936419507713e-02,3.512402850444906743e-02,1.196770677438008463e-03,6.440733312455820684e-04,-1.387944397301159099e-03,2.801639437675476074e-01
3.218782141175137168e-01,6.052027210179423966e-02,3.114388487219181545e-02,1.744916325377748238e-04,-5.455966660682229683e-05,-5.367885831731508944e-04,2.772177159786224365e-01
3.259536191908736225e-01,5.991417508938882974e-02,3.270383843639880495e-02,3.756800745712076019e-05,5.011715995833773002e-03,-9.876872212120101947e-04,2.807751595973968506e-01
3.351572702228843292e-01,5.560637056096010000e-02,5.390726644239131338e-02,-2.092913992914274899e-04,-1.643490016002605329e-03,-8.797098132891777601e-04,2.804231345653533936e-01
3.313296199484857540e-01,5.722540872719736327e-02,5.763212506194093088e-02,4.991997002559801300e-04,4.340334876164754735e-04,-1.005115991021169697e-04,2.739035189151763916e-01
3.152023194009471174e-01,3.576103216645104554e-02,5.916660354528850696e-02,-9.645930565847282890e-07,2.425351778853356336e-04,2.881031568218531298e-03,2.685513794422149658e-01
3.332837172870412590e-01,4.840250756228214879e-02,4.552591038689156322e-02,-3.191430048546471513e-04,8.618542187238513192e-04,4.114171652112099688e-04,2.863356471061706543e-01
3.162699298144070470e-01,6.058898813699965802e-02,3.189616463583830330e-02,-3.412297234938182090e-04,6.756174579031414169e-03,-1.925299421909334834e-03,2.714417874813079834e-01
3.296500989111101898e-01,3.948758751988755422e-02,5.197835644991020965e-02,6.855030514725636917e-04,-5.163879457849710527e-04,1.695685963057821368e-03,2.841421961784362793e-01
3.290498298733782745e-01,4.156656091475167958e-02,4.648381785241381681e-02,2.720315903013544208e-03,-1.315955963935556321e-03,3.070057925894824954e-03,2.851540744304656982e-01
3.439443808671325264e-01,6.625747059598673105e-02,5.770110473498969716e-02,-2.554883228380231807e-03,-1.152070165059611724e-04,2.473519628842216667e-04,2.820975482463836670e-01
3.324668171853570886e-01,4.253207986495910475e-02,4.871224204208850217e-02,2.597930079021996009e-03,6.583331403191600324e-04,3.068343320280810839e-03,2.869813442230224609e-01
3.264617592803790158e-01,4.149552277808951639e-02,4.759381825587151449e-02,2.631045420260992498e-03,-5.328358894758279023e-04,3.456591349779409607e-03,2.820684313774108887e-01
2.988740897849596623e-01,3.153421270741348093e-02,6.140859604558393525e-02,-1.288008862417596096e-03,5.629646833777648572e-04,-3.229799934427714995e-04,2.537374794483184814e-01
3.268492213067086816e-01,3.236543394725091560e-02,6.089112655868365864e-02,4.602706152309668161e-03,1.628037810028039366e-03,-1.793632605987898398e-03,2.814519703388214111e-01
2.917996078326627885e-01,4.297853844048109273e-02,5.793297469261225741e-02,-6.941754346556790710e-04,2.690309814953725266e-03,5.882613941782238211e-03,2.419536262750625610e-01
3.024268028062016556e-01,2.759921746212459781e-02,5.927909355825135285e-02,-9.984476119262588462e-03,8.664552804264081393e-04,7.189423731282992835e-04,2.610175907611846924e-01
3.144476215107838701e-01,2.988884261970041478e-02,6.020083397532008385e-02,6.348427054416142835e-03,9.196468131368995937e-04,-1.257606600388602638e-03,2.709154188632965088e-01
3.159981763845602920e-01,3.114364911887540499e-02,6.030707367749894854e-02,7.374834359235337040e-03,-6.314642479518590610e-05,-2.104863772364528891e-03,2.717751562595367432e-01
3.261231166338628418e-01,3.418590249940102466e-02,5.778333550547529174e-02,2.838813666832312927e-04,3.918684459528779473e-04,-1.959259951821648062e-03,2.809046506881713867e-01
3.175070569142058874e-01,4.884514066601126914e-02,3.751778228076985133e-02,-1.872173021742704893e-04,-1.176786023899795532e-03,-6.674508031036581295e-03,2.747520208358764648e-01
3.345743079255267816e-01,6.321577345734635811e-02,6.190812769747112976e-02,1.894374350694860893e-04,5.205611775703257449e-04,-1.304558139553639844e-03,2.720257937908172607e-01
3.355710437057127793e-01,6.356193723362135728e-02,6.310988821022511797e-02,1.496782451384789242e-03,-4.745045578367460297e-04,-1.932566503677137035e-03,2.722695767879486084e-01
3.786879323721283885e-01,8.532634009091011329e-02,7.458526374337523523e-02,1.012372353773502015e-01,-3.548352517726227617e-02,6.535530221545097487e-04,3.519273698329925537e-01
3.198597193025397578e-01,3.398878198380933524e-02,5.097864677862656846e-02,3.163522235765937644e-07,2.058199328169202673e-04,-1.722102588129519139e-03,2.777822315692901611e-01
3.330722310183388268e-01,6.116269893532301494e-02,6.142489944118141587e-02,-2.961320708705147552e-04,6.630981621573210855e-04,-7.226310429497396310e-04,2.717843055725097656e-01
2.773624073755150965e-01,5.964601938882953258e-02,4.121741781378066016e-02,4.314711580456514171e-03,-2.611866751875906167e-02,1.002083679144817607e-02,2.327142059803009033e-01
3.396205884843495060e-01,5.589825379892501833e-02,6.031311633310286469e-02,-2.102157667670538545e-03,3.588195498541852085e-03,1.290509314333359919e-03,2.816418707370758057e-01
3.150611273202792439e-01,3.035432723495269658e-02,5.474416372284253429e-02,-1.604084754710955168e-03,-1.461158592949543793e-03,-1.572941910266640502e-03,2.733686566352844238e-01
3.326140724941571980e-01,6.346970656968474456e-02,6.469724849848658421e-02,7.134117015678316650e-04,1.569571712948261916e-04,-1.249580541957012389e-03,2.685444056987762451e-01
3.345283333242755619e-01,6.206914274267423537e-02,6.128749485890395976e-02,5.801647017437113005e-04,9.279043017069109854e-04,-1.318230541550493564e-03,2.728669941425323486e-01
3.415617971929108543e-01,6.115322099017762858e-02,7.054036309496930501e-02,1.804238462790762202e-03,-1.213260364015403834e-03,-8.390839477337279926e-04,2.758643627166748047e-01
2.160975563225619456e-01,7.843649665442858909e-02,6.664067288666650213e-02,-1.915234265913124670e-03,-1.879075264171311741e-04,3.648949914306023976e-03,1.440992355346679688e-01
3.409212058199929674e-01,6.076740399672882209e-02,7.005495590770485781e-02,7.071104979653874013e-05,2.218245924625889074e-03,-1.806376146090223631e-03,2.756719589233398438e-01
2.063790779202085979e-01,4.498851301795230018e-02,7.082298940620984640e-02,5.128046336985035702e-02,1.418564877093246926e-02,2.389264088407461791e-03,1.762236505746841431e-01
3.542558428162497774e-01,5.892776127538668085e-02,5.937736561013111369e-02,-8.968543568169692892e-02,-4.450137680778289834e-02,-4.124673830867664308e-03,3.423575460910797119e-01
3.359854136455428519e-01,6.371238423238018145e-02,6.701515588925002764e-02,-2.858700875450990715e-04,1.505979161186302324e-03,-1.921342168759400480e-03,2.706702351570129395e-01
3.356391700905096975e-01,6.399327393081410964e-02,6.831559255820261745e-02,-6.930448552376222314e-04,9.730881410098661012e-04,-1.572101275047138721e-03,2.695324420928955078e-01
3.392413399511113314e-01,5.890415748994286271e-02,5.580560416417644498e-02,2.867839161419508901e-03,6.535311125878276797e-03,-9.017571729196380195e-04,2.821744382381439209e-01
3.354366656875380492e-01,6.292384752988577912e-02,6.630656065408541133e-02,8.577845796702908247e-04,-2.948582206524815851e-04,-5.111191672863646483e-04,2.708432972431182861e-01
2.522031029782913492e-01,5.555393873758188161e-02,6.973355201275868720e-02,2.507329415320679739e-02,-6.346647111812539228e-05,-2.755798212380319769e-03,1.949162632226943970e-01
3.523347569147786684e-01,5.919212188347451609e-02,7.109183485153160176e-02,-3.108630465094090983e-04,2.683487158562355111e-03,-2.522474008948853079e-04,2.874160408973693848e-01
4.103390428350032759e-01,4.679033952783798189e-02,5.660554238228882040e-02,-2.013365864443515934e-03,-7.190914883430514146e-03,-1.023284691736064608e-02,3.594121932983398438e-01
3.343481181450530526e-01,4.133756892181283948e-02,5.728858654025899277e-02,1.169607539554540611e-03,-2.018187719853072070e-04,-1.144663836085310768e-03,2.853838801383972168e-01
3.365656374297656406e-01,5.214471890552252464e-02,5.506744872953180103e-02,-6.809676087634990160e-04,-8.663877888504952721e-04,-2.283794161289527376e-04,2.829775810241699219e-01
3.474090093794665046e-01,2.760948046280603529e-02,4.245562030632402117e-02,-5.293899799065972245e-02,-1.707414829413895704e-02,-1.231486786648693967e-02,3.278437256813049316e-01
3.526209301415268449e-01,6.107677945542087927e-02,6.210738196584457416e-02,-1.149124042392277254e-03,4.769393062715024173e-04,1.175742304896739603e-03,2.910453081130981445e-01
3.391051223770251699e-01,5.509815600537230906e-02,4.643255923745026603e-02,5.222732529592798330e-03,5.174898264136479874e-03,-7.024077293409473031e-03,2.889746129512786865e-01
3.167640496603818523e-01,3.709770266383190240e-02,5.133773572367839044e-02,-3.948689646794550229e-03,4.306192947003355102e-04,4.091741623839059705e-03,2.730039358139038086e-01
3.291561416363768533e-01,3.786392275862121570e-02,5.658069101280506497e-02,5.026412038088628673e-04,-2.025444026653753582e-04,-6.398186549290491498e-04,2.824031412601470947e-01
4.146661638598477806e-01,6.935349188720592306e-02,7.522711062576684093e-02,2.926181414199899994e-03,9.259075966985575237e-03,-2.171794380650432673e-04,3.428266644477844238e-01
3.092718758677845958e-01,3.632431550434375711e-02,6.125558032658243168e-02,1.743069788481585230e-03,-8.249277954269884205e-04,5.166011679402668323e-04,2.613981068134307861e-01
3.710761570403708909e-01,5.833014600334893163e-02,5.534467080713897924e-02,-1.377128183618546789e-02,1.944671025455095223e-02,5.181294221628954255e-03,3.170751929283142090e-01
4.126199839844970629e-01,7.235153998272128573e-02,7.757643268295898176e-02,6.573849662736172030e-03,8.690508745301530127e-03,4.212560743867809973e-03,3.382920324802398682e-01
3.402804943308248009e-01,5.594584706095995230e-02,6.215905958602159498e-02,-6.363996470356304488e-03,-6.758813469183166077e-03,-1.617257882618721582e-03,2.817526459693908691e-01
3.648381794641281095e-01,5.789377462862138612e-02,6.402841551292583200e-02,-2.090112438623919610e-03,-1.227528134256197388e-03,-9.978333105728914593e-04,3.039574325084686279e-01
2.729562551885436061e-01,5.633916432818701636e-02,4.632035670531961524e-02,1.557094812298494063e-03,1.403282405166393285e-02,-7.793853254356335365e-03,2.235483229160308838e-01
2.902412884377167934e-01,4.608151680125176231e-02,6.219280765624020380e-02,1.474602648235516511e-02,3.411002906303243175e-03,-9.510007302776190413e-03,2.385338544845581055e-01
2.740811695858850205e-01,4.824749149908501289e-02,5.163669004940651952e-02,1.651179923282456927e-02,6.199950620802171901e-03,-1.259747871914332004e-02,2.272801548242568970e-01
3.154131581188996947e-01,3.881855452631197134e-02,5.334105484261428276e-02,1.084821172752948801e-02,5.123841875756288307e-03,-5.613837422627767845e-03,2.706011533737182617e-01
3.367013187676183850e-01,5.712190140250310300e-02,4.341204861365997869e-02,1.504543842451439885e-03,-2.270045905283263766e-03,-2.087295771010291498e-03,2.867419123649597168e-01
3.452423825639204802e-01,6.133572610427003025e-02,5.843987036449499461e-02,2.647823909047300212e-03,3.224270814372667392e-03,-2.347554743512056787e-04,2.854573726654052734e-01
2.475498826441103473e-01,5.509863923625613058e-02,5.054439551127366814e-02,1.264512160206755602e-03,2.119214526696962253e-02,-4.555154961748328173e-03,1.983659714460372925e-01
4.144535427500178892e-01,6.302087789935134632e-02,4.519810327236647995e-02,-1.617490505043278626e-02,-2.805494038803517040e-02,-3.568108434770173379e-03,3.650621771812438965e-01
2.713018018826954814e-01,4.262596768961675331e-02,7.230149953916341354e-02,-3.107968374479317362e-03,1.431275930196155644e-03,2.087131013966384355e-03,2.154887169599533081e-01
3.378311350931346158e-01,5.142343178926028768e-02,5.606434033498565450e-02,-3.990913626133663593e-03,1.918268618622416630e-03,9.896384959788104719e-04,2.842243313789367676e-01
3.225111221700190933e-01,4.923563556643516248e-02,4.748572526913094616e-02,7.655953844958715906e-03,1.185620233537562282e-02,-9.643675444665525745e-03,2.757486402988433838e-01
3.258949996383506686e-01,6.149715577678192824e-02,3.283193742168635798e-02,1.006083711475556919e-03,1.191680829676849442e-03,-3.437290392311995895e-04,2.798474431037902832e-01
3.260000939501899175e-01,5.990562131377821786e-02,3.276196306062688357e-02,7.462408514708181802e-05,8.746681410443423246e-03,3.367076075150116695e-03,2.811216115951538086e-01
3.251340192515458360e-01,6.022180031278422108e-02,3.291743048706659291e-02,9.821297046135048193e-05,8.475510228185613101e-03,3.069961631886706545e-03,2.800019383430480957e-01
3.256576780254799575e-01,5.990125741139411264e-02,3.189691978991135435e-02,5.168694952951869044e-04,1.434703833810808439e-03,3.835282232176272211e-04,2.808210551738739014e-01
3.329136157564724918e-01,4.992096726293883402e-02,4.477985151569692512e-02,4.553317167045776927e-05,1.021704519369179623e-03,2.299176112361403165e-03,2.856311798095703125e-01
3.102129166469114185e-01,2.836036737030175892e-02,6.172928977971116338e-02,-6.297345845691503137e-04,-3.636481139070525442e-05,-1.096607416247110875e-03,2.667471170425415039e-01
3.264556787186095876e-01,3.360216478761911263e-02,6.231597746164471707e-02,-8.603470498012770126e-03,1.689139027014897789e-03,5.026253928367910165e-04,2.800180315971374512e-01
6.706381951504419847e-02,5.765184589167611506e-02,5.642815761012817677e-02,-3.082841523420849772e-02,-2.238071444867981326e-03,-4.200972751499847460e-04,5.448238179087638855e-02
3.236285936678423569e-01,4.949351673011351260e-02,4.574711367202087542e-02,-6.010123167589990524e-03,-3.896107061301738641e-03,-3.881709142946301178e-03,2.763877809047698975e-01
3.176247017304862919e-01,3.490745418886941065e-02,6.356797824233785532e-02,-4.047880601386084388e-03,2.461313181185200219e-03,3.664705118610495863e-03,2.697318494319915771e-01
2.701128387447171431e-01,4.040925908127170063e-02,6.440157175189636929e-02,-3.202466728847990808e-03,-3.943292668647265230e-05,-1.121911623774908204e-03,2.187756747007369995e-01
3.126056437063296500e-01,2.963871376163167148e-02,6.047127574904472003e-02,3.737104715334494781e-05,9.356424243531362732e-04,1.696799878478399319e-03,2.689007222652435303e-01
3.211609843558613786e-01,3.577631902523283058e-02,5.586912940915474135e-02,-9.968111948725360844e-04,1.522586364549483951e-03,1.866047974885504373e-03,2.759245038032531738e-01
3.161777359923636510e-01,3.145913753755161246e-02,5.720540697512112305e-02,-2.173906717697941197e-03,9.699398156589124397e-04,7.517002395600634124e-04,2.727926075458526611e-01
3.340697187022440007e-01,5.961168926899951259e-02,5.922784901464284157e-02,-1.634122573701922562e-03,-9.556751919079014765e-04,-2.513163487541933481e-04,2.746700644493103027e-01
3.327257595982237026e-01,6.137139970960817092e-02,6.062652496713460959e-02,-4.311143223453633663e-04,-9.624344589783051995e-04,5.301479210920892297e-04,2.717352509498596191e-01
3.447804268382840265e-01,6.260961321045931116e-02,5.592381860108676384e-02,-4.687110335714821802e-03,2.167611435071761447e-03,1.396639668873539538e-03,2.857227027416229248e-01
3.327896317657574321e-01,6.098298541371915960e-02,6.176463715851279734e-02,-1.007225521368466025e-03,-1.299834934640491015e-04,1.051965119808969578e-03,2.714284658432006836e-01
3.209475888125660203e-01,4.380046793578815101e-02,5.138318744310861608e-02,-6.819412869975195355e-04,1.568584278849967893e-03,5.979507863493068939e-03,2.736467421054840088e-01
1.714666358623308240e-01,6.027963804558716249e-02,6.227807878958058901e-02,2.244578306110675200e-02,-9.364899296409301931e-04,2.429238105781413373e-03,1.169449239969253540e-01
2.669054766567366399e-01,6.195353770897255030e-02,6.343803952088453157e-02,-6.617210803236991956e-02,-1.029489501205363144e-01,5.858612320372012794e-03,2.945130169391632080e-01
3.340493168595731754e-01,5.874718038796662711e-02,5.955734372247786790e-02,-1.099652073774468530e-03,-9.415973846542115494e-04,2.878849369531806470e-04,2.749098241329193115e-01
9.987966054175065334e-02,5.552400160696412124e-02,5.240404200525065198e-02,-2.293209041023904632e-02,-4.456499451015800278e-02,7.727714148072061667e-03,9.914866834878921509e-02
3.489925986041916839e-01,8.004381174022522083e-02,7.114802871602900203e-02,1.019602858702710196e-01,-3.073678995160639832e-02,-1.349179900132323055e-04,3.298895359039306641e-01
3.512354105884315514e-01,6.043923224509600844e-02,6.939549287286637946e-02,7.037543193497696218e-04,-1.588804427165114346e-03,2.070493046648363197e-03,2.864613533020019531e-01
3.466527656001677782e-01,5.701590471891518352e-02,5.706584636103266550e-02,1.429463846398293641e-03,-6.694072858098749088e-04,-3.346247017505176130e-04,2.896253764629364014e-01
3.426683751277961321e-01,5.863151436900206070e-02,6.724858401385153117e-02,1.111211405682926458e-03,3.771104037737758614e-03,5.811583284369211278e-04,2.799125015735626221e-01
3.594259691436811899e-01,6.019588571382009090e-02,6.387605309396272857e-02,1.981488390100193033e-03,8.976221778921622887e-03,-1.349114841648989434e-03,2.978421151638031006e-01
3.422447603305581731e-01,5.735527020947994714e-02,6.483963811724811899e-02,1.406887458649056562e-03,6.006928148329162241e-03,3.830956296299875964e-04,2.814257442951202393e-01
3.524433867901364814e-01,6.206422825807333954e-02,7.558532228793568564e-02,9.125363355852830110e-04,-2.922855048972690297e-03,5.955107339302933254e-04,2.839116454124450684e-01
1.083630589400571137e-01,5.940897829593171087e-02,7.209832221786405260e-02,-9.609533219641136839e-03,6.235069924818149867e-02,6.578454797242895037e-03,1.183470040559768677e-01
3.279881456167929588e-01,6.153473592979498419e-02,3.292203962307178877e-02,-1.532945787373441371e-03,-7.436755180725749224e-03,-5.504423238565733399e-04,2.821594178676605225e-01
3.356825090697154734e-01,5.711368208867174945e-02,3.648004199053289653e-02,-4.985437792129917764e-03,-1.793586641392269643e-02,-6.037714413824939175e-03,2.914159297943115234e-01
2.230823049157729387e-01,6.171664404585971292e-02,6.969329949608304986e-02,1.219119330286970102e-02,7.864171202463443242e-03,5.452961676848847028e-03,1.597997546195983887e-01
2.261890363184557162e-01,5.862756428848941298e-02,4.640056497663602730e-02,3.955854850099937287e-02,-5.858827615590982835e-02,4.978625529501986939e-03,2.129363119602203369e-01
3.193036383805721856e-01,5.961275655452763500e-02,2.995487401802734984e-02,-1.604712607386748644e-03,-4.590581323155700812e-03,-4.788248833113593135e-04,2.758486270904541016e-01
3.187848141414441061e-01,5.938963876698409583e-02,3.203366031357213206e-02,-1.988661506515149776e-03,-2.912392311889804106e-03,-1.498615566785557306e-03,2.741792500019073486e-01
3.302959086279885770e-01,3.511158629166656608e-02,5.901834414124705608e-02,3.239233360093091846e-03,1.294783232233381919e-03,1.483732008400964362e-03,2.840625345706939697e-01
3.143273351783703040e-01,6.263053926907234670e-02,3.149619640098576256e-02,-8.526533461833455362e-04,-2.512314090782337764e-02,-4.620239981764885477e-03,2.722439765930175781e-01
3.290189332999809979e-01,5.712594973768758688e-02,4.143734654323361077e-02,-2.644547296551992728e-03,-9.828541742077179320e-04,-1.622991064592264323e-03,2.801237702369689941e-01
3.380950514165667053e-01,4.839721563662290060e-02,4.924505243182880632e-02,-7.368530543363524619e-04,-3.859805867420833736e-04,-1.294255878623229363e-04,2.892785370349884033e-01
3.378757263528902044e-01,4.976331687297416706e-02,4.803130597391958023e-02,-4.341337243537268060e-04,-2.161605737434140427e-04,-6.623767111003553594e-04,2.889858186244964600e-01
3.380692600751201149e-01,4.885526104503550016e-02,4.905362114493030945e-02,-4.764513578737348469e-04,-6.524341007115878541e-04,-1.877105131514927915e-04,2.891184389591217041e-01
2.835056077282024911e-01,5.109269478452455049e-02,7.378813977515601141e-02,2.571429439866441090e-03,-2.772307422591542385e-03,1.918874357491057690e-03,2.220587134361267090e-01
3.364055659218886385e-01,5.351869198969641528e-02,5.361371375375229009e-02,-7.481288652753212594e-04,-5.228427602059247193e-04,-2.546419308461980786e-05,2.828437983989715576e-01
3.148391004856426756e-01,2.890385926645500092e-02,6.142346828175677953e-02,-1.536660387069139350e-03,-4.513887025435091489e-04,2.087500911477022656e-04,2.711564302444458008e-01
3.064795068553443080e-01,3.563278401798694595e-02,5.737393027388568156e-02,2.074521410143359990e-03,2.178883385407211302e-03,4.666332674631785797e-03,2.608343958854675293e-01
3.204902753133200277e-01,3.267646935090214033e-02,6.769919890255240991e-02,-1.022161985031261495e-02,7.390401882817516791e-04,-9.663855561816667465e-04,2.725825309753417969e-01
2.322015185398070281e-01,5.083795196304627395e-02,3.188151639671395199e-02,-2.519460527222998694e-02,3.938252056530150425e-02,-1.706506226238888079e-03,2.079809755086898804e-01
3.222749843709794559e-01,3.189590254564411698e-02,6.129059950543136459e-02,2.034485165579657997e-03,1.346390426362465559e-03,-5.106088347041915767e-04,2.768882215023040771e-01
3.102354213051810028e-01,3.775767012142948464e-02,5.660155520592156930e-02,-7.125425163468665588e-04,-3.742273012986687200e-04,-5.019518869850993041e-03,2.637085616588592529e-01
1.472723458480694747e-01,5.490415995781039449e-02,6.704561197417055474e-02,-1.797977289275608584e-02,5.705178220302006657e-03,2.267769291769181940e-03,9.295539557933807373e-02
3.159346314582375803e-01,5.677447972063702497e-02,2.873586478257693366e-02,-1.365501748557355075e-03,-1.653201795871877926e-03,-1.907223695961774530e-03,2.743015587329864502e-01
3.349196926708714606e-01,4.115870040323414691e-02,5.705286424233027565e-02,-9.150877428739604552e-04,-1.824896622680457765e-04,-1.256950104222681218e-03,2.861580252647399902e-01
3.765415141061360105e-01,6.256320619109534409e-02,6.315259036926818004e-02,7.972518860222133758e-05,1.176581723852476584e-05,-6.922478607633221655e-04,3.136863410472869873e-01
2.765494841879167498e-01,4.219995132905669799e-02,6.813165253719848102e-02,-2.193731729100072830e-03,-1.333808653495011929e-05,-3.278812639217864710e-03,2.226247191429138184e-01
3.297364781638718600e-01,4.298820855038962274e-02,5.355449131071113311e-02,-2.240728096343384216e-03,-9.733185971035762532e-04,-1.410618622259205085e-03,2.816562354564666748e-01
3.517097747803313301e-01,5.716167008235560620e-02,5.261756099355231753e-02,-1.040027990229544334e-02,9.779870096074316441e-03,3.338026736398369814e-03,2.979304492473602295e-01
3.180609504874817306e-01,5.560915035253979899e-02,3.836985391803628132e-02,2.735798667369556975e-03,1.012148089093786903e-02,2.787713820417278207e-03,2.721318304538726807e-01
3.102565210150755037e-01,2.974989328478569450e-02,6.065583619056118259e-02,-8.492079851978948796e-04,1.517270879068766760e-04,-9.962859310907860345e-04,2.664113938808441162e-01
3.160489138106591378e-01,5.946003777011915625e-02,4.660092966780343682e-02,1.748150857531077578e-03,6.436985020635226269e-03,-3.258596954106266104e-03,2.635678946971893311e-01
3.436458136886105241e-01,5.979855671670568362e-02,4.833125358459568199e-02,-6.877815890127736941e-03,1.374598184060740746e-02,3.311895817984960612e-03,2.910281717777252197e-01
3.314330470657963490e-01,6.433253657697371453e-02,5.285266623121938345e-02,6.904561035701204177e-03,4.311171066552496600e-02,2.352892395300170292e-03,2.833306193351745605e-01
3.450193617246453681e-01,6.731809868147625719e-02,5.954073240045947013e-02,-1.755212643717681291e-03,1.841710500965068609e-02,-5.034031543215785297e-03,2.836214005947113037e-01
2.001935827160924442e-01,6.020410580922961469e-02,6.641775588939952124e-02,-1.651304280302741748e-02,-5.407505395940599702e-03,-2.527309877149338992e-03,1.403237134218215942e-01
3.354469475257417233e-01,4.376554138544187789e-02,5.555479753969036483e-02,-7.834511010947660045e-03,1.569536672655078837e-03,1.212491782824180265e-03,2.863114774227142334e-01
3.154696797983982393e-01,3.426772751285817042e-02,5.615274701263377188e-02,-1.088426149194755919e-03,1.060972659103257248e-05,-1.209117004841491795e-03,2.709378600120544434e-01
2.511847069555446232e-01,5.222939854555537498e-02,5.463078533245940838e-02,-1.222275044260244699e-02,-1.181883405375126414e-02,-1.058871557465617536e-02,2.007855027914047241e-01
3.282959427962258148e-01,3.960740534292246651e-02,5.875843726610760487e-02,-2.279761494846969765e-03,-4.787847948865094592e-03,1.078463838159473241e-04,2.797562181949615479e-01
2.537848635406630415e-01,5.476819049138620388e-02,5.588216537297406583e-02,-1.042460568054444370e-02,-1.284932715581083192e-02,-1.158206900813455245e-02,2.015215754508972168e-01
3.583963031820660006e-01,6.748628697084244066e-02,6.790395534573208380e-02,-5.420436783814125414e-02,-9.023542033871449763e-02,-2.925696225562035395e-03,3.431830704212188721e-01
2.303917984481030912e-01,5.750838146036826165e-02,7.073529370713273201e-02,-3.002966130424691155e-03,-3.395587106030396960e-03,-1.696801564150998221e-03,1.668747812509536743e-01
1.783788763904312347e-01,5.569084817651391572e-02,6.228274098391262809e-02,-2.410907730972787488e-02,-9.487323010071638599e-03,-2.622562236806028502e-03,1.277554780244827271e-01
2.634567004555306013e-01,4.380719347237230221e-02,6.197742194077664191e-02,-1.849006801046900600e-02,-9.351090692923249431e-03,-8.788273357591453935e-03,2.147199511528015137e-01
2.353938989851437902e-01,5.644902210772116680e-02,5.547107792852485481e-02,-3.578511920032494999e-03,-1.959616501814185219e-03,-6.917664051792921966e-03,1.799742281436920166e-01
2.613135191240209543e-01,4.094195067155645407e-02,5.436147985395982374e-02,-1.950154714666223199e-02,-1.160338087262723084e-02,-1.105999551048067811e-02,2.183992862701416016e-01
2.571860168291707494e-01,4.042044552459647666e-02,5.356838076198854048e-02,-1.558574893018069285e-02,-1.042868460837195234e-02,-1.119463088212948459e-02,2.138717770576477051e-01
3.320762225463604889e-01,4.946193412582619575e-02,4.746972254994293039e-02,1.014623860581602595e-03,-6.338906048787145168e-04,1.069865266373980087e-03,2.836292684078216553e-01
2.064762665784494189e-01,7.220393136384602173e-02,7.184414350040001229e-02,1.915222566979064671e-03,-8.465541221034735312e-05,1.657507723114075250e-03,1.345242261886596680e-01
3.315494580139801695e-01,6.090058024688475846e-02,6.020995481406621330e-02,8.972028461679292834e-04,-1.771365825641461401e-04,3.744188580185178945e-04,2.710002660751342773e-01
3.331598626693612064e-01,5.112754287557329247e-02,4.811719923969892676e-02,1.045843889250939535e-04,6.944984155081571683e-04,2.443680818227742663e-03,2.835836708545684814e-01
3.341381165978878354e-01,5.542327586684393792e-02,5.231403439966937630e-02,-1.323136755984227514e-04,1.475092475415076777e-04,1.691149977850668791e-03,2.802979052066802979e-01
3.343085213232211972e-01,5.694777321294666739e-02,5.715429066940161396e-02,6.266478184150308739e-04,-7.242710909399254762e-04,1.033367799626524813e-03,2.772682905197143555e-01
3.425154611989278397e-01,4.494334370706457027e-02,6.345334409494689243e-02,-2.885528804273211970e-02,3.515496139084143407e-03,-2.372539577722379382e-03,2.931476831436157227e-01
3.298224027018913374e-01,3.974482769995046905e-02,6.609231470702317535e-02,-4.835274849822520510e-02,-1.501645514115895925e-03,-1.887574665231427822e-03,2.902202606201171875e-01
3.332851893122565912e-01,5.325778603714950710e-02,5.101429262416007360e-02,-1.007380788468607022e-03,1.878224956241099277e-04,3.514638247685241399e-04,2.811621129512786865e-01
3.213954520130857806e-01,4.925210604727819907e-02,4.902236173271426467e-02,3.624304724084694701e-02,-2.712609056552450770e-02,1.490439336767697756e-02,2.844980657100677490e-01
2.428502607894384158e-01,6.375965806273528602e-02,7.058026782953585876e-02,2.040546650361652406e-03,-1.853103334438892203e-03,3.803909129199526794e-03,1.759677827358245850e-01
3.218467719792483250e-01,5.499406191631860119e-02,3.497764062914346384e-02,1.853533871444220478e-03,-1.340476161435215190e-03,2.100301503145848934e-03,2.774552106857299805e-01
3.262872597564236421e-01,4.938615916289311458e-02,4.039011513211994420e-02,-5.897398815258447649e-05,1.900834514444714755e-04,2.376919682944432684e-03,2.815372645854949951e-01
3.218566505670774069e-01,5.203266325088710953e-02,3.742746749088154967e-02,1.922021571223103860e-03,-1.020959240305258650e-03,1.178503882047554152e-03,2.774482071399688721e-01
3.338582373849986462e-01,5.826406634333522461e-02,5.208487496003826045e-02,1.325036952644097861e-03,4.481283255368401740e-03,1.987066586162156579e-03,2.788738608360290527e-01
3.384706241354480394e-01,5.527108863913667014e-02,4.504705263400440862e-02,1.597209825369649405e-03,2.295926065803708619e-03,2.187458536965176514e-03,2.885130345821380615e-01
5.005508476996520795e-01,8.472607386364644499e-02,6.233516456542909090e-02,6.572727437511347026e-02,1.762150778132427764e-02,-1.044703389470253742e-02,4.437808990478515625e-01
2.861090008130628415e-01,5.415731570318464694e-02,2.957100790310535077e-02,-6.410797023023780128e-03,-1.323367479767915966e-02,-7.430369087354097082e-03,2.468263059854507446e-01
3.341001206477671737e-01,5.639184810686348470e-02,5.664423692405491650e-02,2.792691797768434353e-04,2.519932922135782564e-03,3.217447388076834572e-03,2.776728272438049316e-01
3.296811547600287939e-01,5.647643217751915912e-02,5.219474619627419154e-02,-5.710452139042575389e-04,4.045418952160088682e-04,1.372273346773877651e-04,2.753733098506927490e-01
3.242828967537347840e-01,4.014833433447211053e-02,5.130618097218002382e-02,-9.330893625970259828e-04,-1.758806642329915513e-03,-1.167531964832055477e-03,2.787518501281738281e-01
3.166998303330806896e-01,3.487328131936923148e-02,4.979313243569208347e-02,-6.434381283782493032e-04,-1.350976036686782344e-03,-2.424700272801842867e-03,2.747150361537933350e-01
3.221754059981766227e-01,3.749600701488317589e-02,4.665229731103823219e-02,-1.541835639546059421e-03,-1.331631329143935635e-03,-3.677480805198710123e-03,2.803080677986145020e-01
2.743426944561762615e-01,5.852418473957107792e-02,4.093288068958997328e-02,1.997062325025665314e-04,-3.562588325692369988e-03,5.004952084877571997e-03,2.253818064928054810e-01
3.147156791187637470e-01,5.212370689898493392e-02,4.510742115275317987e-02,2.769729601632391763e-04,-5.525790739095766835e-04,7.049451246440878102e-03,2.664515376091003418e-01
2.750907056931606309e-01,3.532092188604446514e-02,5.808092039577122945e-02,-1.347343775687394329e-02,-7.189409413095782311e-03,-9.423853221575777955e-03,2.313363254070281982e-01
3.235398253224915921e-01,4.104167838061444085e-02,4.777755709352253521e-02,-3.424856389825215830e-04,-4.679685064694107653e-04,-2.699442175193523998e-03,2.792321145534515381e-01
3.168097733066788102e-01,4.233108558735487748e-02,4.682023809948439308e-02,-4.748908573107848106e-03,-9.573931031678042285e-04,-7.289144358335982420e-03,2.726835608482360840e-01
3.327896296964955036e-01,6.357880224074669018e-02,4.206291189500624417e-02,3.973280518836296883e-03,8.356112520638336871e-03,-4.543494031157884784e-03,2.811556160449981689e-01
3.305303191241321659e-01,4.232693823605589156e-02,4.677719499413533766e-02,5.009381151059904202e-04,1.745422528405759740e-04,4.239591184906016733e-04,2.860066294670104980e-01
3.301156284532533181e-01,4.370135084917958768e-02,4.559553758371910626e-02,-3.693857062467575969e-04,-6.182425987085658726e-05,8.558618570307227266e-04,2.854764759540557861e-01
3.335393807576372271e-01,5.680942122600719790e-02,5.408053103301733999e-02,1.160046060506431326e-03,-4.666048713111315555e-04,4.213335854858335614e-04,2.781138420104980469e-01
3.317960167275570971e-01,4.002174034736349917e-02,5.223819503657135821e-02,4.188154534607103734e-03,2.345848426597263415e-04,-4.075470605616871196e-03,2.860413193702697754e-01
3.325384944234091034e-01,4.283206797730046422e-02,4.765646529731165648e-02,2.554107199680207170e-04,-8.284457065747892653e-04,6.516289456553510254e-04,2.873307466506958008e-01
3.303018912138235841e-01,4.977812042299036011e-02,4.205033866614342475e-02,2.670578292649995657e-03,1.763829484108090273e-04,4.123707595141961647e-03,2.845938205718994141e-01
3.098411000552337979e-01,3.418548856904291000e-02,5.676526585383212531e-02,-1.495596112691296477e-03,-1.581609590018461051e-04,-6.084783231332240548e-03,2.653101682662963867e-01
3.303400530130533586e-01,4.975462614870077016e-02,4.194040243901098197e-02,2.731852352920738965e-03,-8.443318211806631049e-04,1.414099538410960389e-03,2.846266329288482666e-01
2.919707483636013734e-01,4.622763186100925514e-02,5.651814810522147459e-02,-1.759818604366174093e-03,-8.193552324238122025e-04,-8.014743028175603731e-03,2.411861568689346313e-01
3.324264973982786753e-01,4.759504957337773456e-02,4.485306881371863008e-02,1.617183650151274299e-03,3.556438511746442188e-04,1.063105054720174525e-03,2.862325906753540039e-01
3.306483375988906737e-01,4.720706910367623854e-02,4.551370405549516607e-02,2.137757799892031955e-04,-4.843074273233790032e-04,4.261004953161144615e-04,2.842941582202911377e-01
3.275089997932856267e-01,4.974990768834537669e-02,4.106780355796417481e-02,1.275485269171447748e-03,-4.562226244424084226e-04,1.206152908042455296e-03,2.822178006172180176e-01
3.272369572476706567e-01,4.173530689761571766e-02,4.790829892563602810e-02,-8.539980756927600209e-04,-1.450578935277418774e-03,-2.647804746940295335e-03,2.825180292129516602e-01
3.263113776654117393e-01,4.224885545432488509e-02,4.566445285037001867e-02,-4.054766414102524310e-04,-2.509968671790236512e-04,-4.535840930922843553e-04,2.823725044727325439e-01
3.301596437620688551e-01,4.654739451148640073e-02,4.575597460514001236e-02,-1.167359256192023652e-04,5.197252952689632123e-04,-2.475790872078183279e-04,2.840106189250946045e-01
3.308259128461528698e-01,4.880355384098805649e-02,4.680232166156508833e-02,-4.328317671750556367e-04,-1.262172637637546703e-03,-7.355264736811962818e-04,2.830405831336975098e-01
3.272081985226653611e-01,4.158869099120385271e-02,4.343101777943242370e-02,-1.295117416190332612e-04,6.783490657631831679e-05,-8.652540136579810843e-04,2.847068607807159424e-01
3.275677493879256552e-01,4.151081221720163972e-02,4.397113226313155432e-02,-6.846967967512917249e-04,-1.545527689675763429e-03,-1.757924153807707357e-03,2.848660647869110107e-01
2.409342472850762029e-01,7.245782965230676553e-02,5.672108430861814987e-02,-2.156900123012277671e-03,-4.354647287815487273e-03,-2.759807571361785113e-03,1.771353036165237427e-01
3.269232674349410450e-01,4.221793138467436202e-02,4.598118829706619726e-02,-2.277575217902093557e-04,1.028486562930913837e-05,-1.112517797929201161e-03,2.828493118286132812e-01
3.286685806686654443e-01,4.353935051519346178e-02,4.292355607707121212e-02,-1.213524234577478703e-04,4.362959478800659515e-04,-2.356431789428704295e-04,2.854389846324920654e-01
3.272986013039292930e-01,4.319476810489515650e-02,4.157989256648091103e-02,-1.966827739926643379e-04,-2.545498490165677891e-04,-9.071452248603281004e-04,2.849195897579193115e-01
3.366931680831052875e-01,5.297434250074135875e-02,5.744044085132037070e-02,-5.491377392841540091e-03,1.490580244700894018e-04,-3.541930076879558700e-03,2.817398905754089355e-01
3.286714868477932372e-01,4.168804628321173822e-02,4.282323220842948475e-02,2.553259930028812966e-04,2.041821050128080376e-04,-5.558948161272399269e-04,2.864197194576263428e-01
3.380429236071613719e-01,6.414465672718754063e-02,5.933769378970375763e-02,1.550149127791383393e-03,-8.485958552244243216e-04,1.068348977996849301e-03,2.763562500476837158e-01
3.416416824049747225e-01,5.841030672035930904e-02,5.539878134954306921e-02,-6.369430442762950145e-03,1.721063400904085643e-03,4.210499624442929365e-04,2.849792540073394775e-01
3.291378259912193238e-01,4.297666194457869238e-02,4.203869938526419436e-02,3.993524021501064844e-08,-1.616064772128526870e-04,-4.397553766389099544e-04,2.866324484348297119e-01
3.256088290911828276e-01,3.983536115349350926e-02,5.139124963620739228e-02,2.740568534019383160e-04,-1.232589681264701417e-03,-1.069816321832483316e-03,2.801889777183532715e-01
3.238093615781761359e-01,5.569383489481055660e-02,3.952851391301522022e-02,4.148939794360406372e-03,-1.041264832958163243e-03,2.829096556674465766e-03,2.766953706741333008e-01
2.322574119505738111e-01,5.977833957063025810e-02,3.324535524765954986e-02,-1.110724000645423731e-02,-3.872053817097245026e-02,-3.340931169886063442e-04,1.997440904378890991e-01
2.431985124932899978e-01,7.460350082189841359e-02,5.453303647415677635e-02,8.112130342178541093e-04,-4.249558989802451441e-03,2.885966234355758549e-03,1.796998083591461182e-01
3.164392444243144809e-01,6.433401126577087403e-02,3.045521679316237629e-02,2.376699666294340360e-03,-1.038020318720317067e-02,2.069899942842485987e-03,2.712911367416381836e-01
2.780536872810689397e-01,6.879937996750051799e-02,4.208694885061795010e-02,3.237247904734426654e-03,-1.666623301859350079e-02,-3.298757649003573899e-04,2.257336229085922241e-01
3.116596379541939354e-01,5.790695927849871805e-02,2.905248663119876229e-02,1.301784183682411136e-03,-5.769798032931675860e-04,1.914747788552347615e-03,2.693733274936676025e-01
3.427698195485423538e-01,5.537981919094958627e-02,6.457297100602275852e-02,-1.831268516041868353e-03,3.859914768669343334e-03,9.743247332644502890e-04,2.830072641372680664e-01
3.040936580737449990e-01,6.129692330216499063e-02,3.085355513643457670e-02,2.291839480883766343e-03,-6.562481104643148530e-03,2.276639922190851466e-03,2.596711516380310059e-01
3.355336872559059325e-01,5.953474999855484784e-02,5.833600080995440806e-02,1.131035934290178279e-03,-2.111478777887349119e-03,6.130451311303832679e-05,2.766313850879669189e-01
2.911737665268254727e-01,5.630489075490290041e-02,4.576766839988169466e-02,-1.127155483898525760e-03,-1.886327793488042342e-03,-8.076388175978797823e-03,2.407477051019668579e-01
3.025146718564938331e-01,4.884969224321644710e-02,4.862402241323067476e-02,-8.582889219024777711e-04,-7.573409343868837398e-04,-7.228277191518380981e-03,2.540942728519439697e-01
3.082828792143813557e-01,5.415262810631364665e-02,3.612250183236122292e-02,4.123542640369884729e-03,-7.906266658020563720e-03,6.075249253423646231e-03,2.642697989940643311e-01
3.025186982281801717e-01,5.419897384160211884e-02,4.037186185290908558e-02,3.004501344355438829e-03,-3.744184516702681303e-03,8.208975116794376553e-03,2.560443580150604248e-01
3.199224880088371581e-01,5.641845102976279780e-02,3.087141567319647006e-02,5.693485453936639445e-04,-2.287860778906724343e-03,-1.465868980495770675e-03,2.772037088871002197e-01
2.841386365233986577e-01,5.847670337931422380e-02,3.349911777749980946e-02,2.939565366618141656e-04,-1.390543679884357828e-02,4.749537012972548239e-03,2.404822111129760742e-01
3.262835154760855838e-01,4.158642650240364225e-02,4.070965478507605761e-02,-1.191215092786712801e-03,-1.476951158096453682e-03,-3.114543466127067933e-03,2.852064371109008789e-01
3.162730923676430606e-01,3.043451040622684178e-02,6.117323030981991483e-02,-1.607325192024108146e-03,8.417864252136355360e-04,1.034501466839218495e-03,2.718001902103424072e-01
3.117065621493630978e-01,3.032810571001320898e-02,6.465847909411860661e-02,-5.887134018642237523e-03,-1.335225472519500304e-03,-2.714604599412003666e-04,2.660866975784301758e-01
3.060092556897298088e-01,2.886139657517231005e-02,6.101231732373774141e-02,-3.957280239580513934e-03,-1.099157878332099049e-04,-1.565712676169861125e-03,2.626564800739288330e-01
3.139734261482959310e-01,5.512561596479308157e-02,2.901381423266748139e-02,-1.222676978467400434e-04,2.905531985213191020e-04,-8.690736067851774884e-04,2.728471457958221436e-01
3.123688166276095135e-01,2.734050576274391076e-02,6.013488372351319389e-02,-3.038081958680785566e-03,7.717922727060379945e-05,-1.326531687902891105e-04,2.701796591281890869e-01
4.076315213378187696e-01,6.513324443042357859e-02,6.611038660994705829e-02,5.224604844208060109e-03,2.278510654358115086e-03,1.810943952989268633e-03,3.421675860881805420e-01
2.951967431888087856e-01,6.121388644319387951e-02,3.530229105811193147e-02,4.204980792938854857e-03,-2.075653126781095825e-03,3.455571119585686569e-03,2.481613457202911377e-01
3.266073117601514531e-01,3.370406450065246973e-02,5.809837705339201963e-02,1.375792082200779200e-03,4.677825881176434809e-04,1.158072938144468584e-03,2.815183401107788086e-01
3.395447097290763550e-01,6.117383171294331345e-02,5.982748305688086188e-02,7.628485822639214297e-04,8.573937065964104196e-03,-4.607717710936381703e-04,2.794456481933593750e-01
3.186013709255472448e-01,5.353454115494257759e-02,3.411208159468541445e-02,-2.700838910819262665e-05,-4.786574575609374980e-04,-2.512226866019337188e-03,2.753280401229858398e-01
3.502712990180024688e-01,6.059843039354979866e-02,5.626897084007931316e-02,-6.001400538815236565e-05,3.757034230845151938e-04,5.065179764350826396e-05,2.918624281883239746e-01
3.901028365995051761e-01,7.705771519161740135e-02,6.291520429509729617e-02,1.027675246484668556e-02,2.038158575380110207e-02,6.279490716427240000e-03,3.229641914367675781e-01
3.699135502852808899e-01,6.744890531443165083e-02,7.447691642499329467e-02,3.363852242939688406e-03,-8.436976156546963437e-03,-1.609825373684821643e-03,2.994391322135925293e-01
3.259474311858092666e-01,3.969852747567005624e-02,5.142741590668144236e-02,7.128492233670677804e-04,-7.948516180979695728e-04,1.763938840778367118e-03,2.805911302566528320e-01
4.432561678699826757e-01,6.335419163162722689e-02,6.165370417120702440e-02,-3.903181979572320492e-02,3.223363545076715631e-02,2.750583401934536022e-03,3.907487690448760986e-01
3.251634842432986616e-01,3.461119577437057893e-02,5.291593141027059466e-02,-3.403964687008360890e-04,1.728933980684594610e-04,1.094578825684993165e-03,2.818532288074493408e-01
1.969415101592174866e-01,7.342334803649050445e-02,7.059117614279961095e-02,-1.168836562016311231e-03,-1.039238976833052001e-03,-6.586789829405567459e-04,1.249928921461105347e-01
3.799444851432410286e-01,6.243585723350952854e-02,6.712305594850931367e-02,4.889170357761003956e-03,1.037350615477297157e-02,-1.084286121257517759e-03,3.158220052719116211e-01
3.629636849143887400e-01,6.473970933766762248e-02,6.554092477141282291e-02,9.064091505101542004e-03,-1.125738460294902496e-03,-4.216994877482597819e-03,2.983334660530090332e-01
4.547151744943511709e-01,5.596887647106965624e-02,5.062890907809450280e-02,9.140149175211473992e-03,4.918841297905669069e-02,-1.663531497184750352e-02,4.116986095905303955e-01
3.064925835917850505e-01,5.386470611091702387e-02,4.716204997972404944e-02,-3.373262686574592106e-02,4.139834073534639364e-02,4.551813693456175335e-03,2.723533511161804199e-01
3.302311549769519905e-01,4.541680203002430860e-02,4.543910753745902809e-02,4.394977507973183697e-04,-1.479426864549436430e-03,2.328768281665365668e-03,2.848443090915679932e-01
3.315758122466971880e-01,4.229280222700466940e-02,4.751770344241401656e-02,-5.704176699864393717e-05,-3.513435121581845694e-04,1.534044309104482928e-03,2.867192327976226807e-01
3.171626670366918810e-01,4.613812160327974976e-02,4.421535047404329122e-02,1.673575424224571116e-03,-1.214215390564917256e-03,5.824104373676600166e-03,2.722015976905822754e-01
3.321434230889642736e-01,4.286544508548148502e-02,5.021205824626935599e-02,7.177751480014378516e-03,-1.633126344862949114e-03,6.775921372160281612e-03,2.862006425857543945e-01
2.844457627151075196e-01,3.316376792584270483e-02,6.131566738803780059e-02,1.373193982212495001e-02,-5.724187915973617639e-03,6.532140951928583350e-03,2.401106208562850952e-01
3.202160259456341418e-01,3.828120909935951721e-02,5.069785392783734967e-02,-1.125237670197553773e-03,3.802663012752047970e-05,-8.655584095311481384e-04,2.759470641613006592e-01
2.974961712080421150e-01,5.565903470030468536e-02,5.502670255844774316e-02,1.386408106500695327e-02,-6.285138603182821408e-03,1.197614708750264698e-02,2.444666773080825806e-01
3.199465532782713728e-01,4.132717012722952887e-02,5.241947600924651285e-02,5.559049757082430536e-03,-1.718655681234166873e-03,5.860701803396866673e-03,2.736163139343261719e-01
3.266185586251330042e-01,4.400728260547442927e-02,4.320083937854558853e-02,-2.756771754986176966e-04,-4.646868940509702632e-04,-1.546371338204307385e-03,2.830295860767364502e-01
3.247460302836157053e-01,3.702409265672922112e-02,5.233629979383393194e-02,2.409387052843580453e-03,-1.289822862825958398e-03,4.512518537293408634e-03,2.805284559726715088e-01
3.040408882344474151e-01,4.328300806311029258e-02,5.018783135543834761e-02,4.841509515976917359e-03,-1.775661116273540702e-03,8.692707763070045557e-03,2.579696178436279297e-01
2.566931296727426037e-01,6.553349483581470680e-02,3.821644722813709316e-02,4.149954383533646651e-03,-1.541011251956747596e-02,2.445087682085242701e-05,2.080245763063430786e-01
3.101840439588235965e-01,5.752107903224702723e-02,3.321408814873477722e-02,1.829967626656545826e-04,-4.295881531596086253e-03,3.600282097895513966e-03,2.658293247222900391e-01
3.197500001774304934e-01,5.494613772190466705e-02,3.411454712830726266e-02,2.089586964347776594e-03,-4.350501473953186267e-03,3.140843948832857269e-03,2.759905755519866943e-01
3.096883437591316790e-01,6.229906629768965087e-02,2.881175431713631219e-02,-4.714645816498597847e-04,-1.066617800480248231e-03,-1.433942903714014328e-03,2.657395303249359131e-01
3.284103105630160613e-01,5.116396848031060096e-02,4.519365053206848837e-02,-1.281768131220252516e-03,-2.345925584968903185e-03,-8.135725754657279494e-04,2.803209722042083740e-01
2.908721028682008103e-01,5.787950169294533986e-02,4.168249238826562952e-02,-6.359979494744406013e-04,-2.756632878279766368e-03,-8.871203520463640316e-03,2.420367449522018433e-01
3.171831989267243079e-01,5.744381197622928925e-02,3.149371072889076140e-02,-1.853289291788606287e-04,-2.901943475174019742e-04,7.441519192831529345e-04,2.736425399780273438e-01
3.095039542547016742e-01,6.226262824688484632e-02,2.978190887794610053e-02,2.158793725350783774e-03,-3.613896015913679351e-03,-1.772365961628092831e-03,2.650970220565795898e-01
3.174789652464465317e-01,6.056777300718695078e-02,3.624019339041521792e-02,3.372964898331799570e-03,-1.153730834096109922e-02,2.660461102862323943e-03,2.707395553588867188e-01
3.213971985417245492e-01,4.889897246130939235e-02,3.352454776985573648e-02,-2.296909568256882929e-04,-7.499298332471922551e-04,-2.800546608589290620e-03,2.805468440055847168e-01
3.360708771013671825e-01,4.626463924797004357e-02,5.867097227508084878e-02,-5.808369982150902132e-03,-1.047968458065754848e-03,-1.201997222549847045e-03,2.839981913566589355e-01
3.323867769607067313e-01,5.693949465667709486e-02,5.814895945670918442e-02,4.269387063083164915e-04,-5.499734422471763131e-04,-8.763407935273003760e-04,2.748513817787170410e-01
3.120554308194242177e-01,5.943734486847977727e-02,2.865704585326507570e-02,-9.155692678750547951e-04,-2.546485540808334121e-03,-1.086624630682771209e-03,2.693779766559600830e-01
3.124896289931075044e-01,6.447902134206578983e-02,3.296976943496482404e-02,1.209056482169654917e-03,-3.148731775833028823e-02,4.758392746645805256e-03,2.708567678928375244e-01
3.339879712946076662e-01,6.539364903163960574e-02,6.265583099382242283e-02,-6.379318932166273999e-04,-1.132792806537511344e-03,1.702821973686159890e-03,2.699991464614868164e-01
3.112103749340766612e-01,6.071639667636136162e-02,3.158512545039612873e-02,7.548513776595546301e-03,-6.677900700940262065e-03,2.020413134311378409e-03,2.668521106243133545e-01
3.173896684194028595e-01,6.132708321184623945e-02,2.807648959885399031e-02,4.029758863106788986e-04,-2.289755017843387880e-03,3.018845497489415109e-05,2.742336690425872803e-01
3.663652410432010065e-01,5.461379897773838143e-02,5.342913611350848246e-02,4.084246469860011025e-02,6.066284618962042990e-02,-6.085010834233134033e-03,3.372165858745574951e-01
3.245965338791604871e-01,5.932240813794067980e-02,3.284839543645132198e-02,-3.803917661906436429e-04,3.534274976361437455e-03,1.520635734674302946e-03,2.795334458351135254e-01
3.280710930526323232e-01,5.614416822995593748e-02,3.600453531361770543e-02,-1.503110371431106568e-03,1.077195058782690583e-02,5.324226343814812169e-03,2.833130657672882080e-01
2.950405021317497045e-01,5.851161010433492127e-02,3.401981540532515724e-02,7.875941903091797326e-04,6.311271701627332864e-03,5.416893333417571212e-03,2.500963211059570312e-01
3.201611174714516506e-01,6.232032977495549630e-02,3.608449941695773822e-02,-2.053359256977331168e-03,7.855055511566678668e-04,4.434095028325336744e-03,2.720447480678558350e-01
3.275782529044950486e-01,5.605828223570864799e-02,3.468596176399636744e-02,-4.883240457925604536e-05,1.191339232527097213e-03,1.660428786579205016e-03,2.828346192836761475e-01
3.254795222469908378e-01,5.622245785993500167e-02,3.625876749094499030e-02,1.905960665781912457e-04,6.954934046027918529e-04,2.215310065662102340e-03,2.798027098178863525e-01
3.693371900292926613e-01,6.060406074418900335e-02,7.303981987709692869e-02,-3.625170716842976079e-03,4.408081679891337999e-03,-1.829004153007390788e-03,3.028848171234130859e-01
4.051863206381803861e-01,6.737545353251873925e-02,7.894184654933902867e-02,5.150655155988539437e-03,2.371052733860553284e-03,-4.903187711679961097e-04,3.323249816894531250e-01
2.758697756720307481e-01,6.440974632183155135e-02,4.805287686557328797e-02,1.117093081170447743e-03,-2.322485756916097075e-03,9.113460989707965199e-03,2.207052409648895264e-01
4.235879336272778684e-01,7.009229097309717382e-02,6.903828183386048756e-02,-1.013562949734589120e-03,-1.425447028241810105e-02,-2.134290915746211992e-03,3.549073040485382080e-01
3.926947426421439902e-01,6.261255630563954122e-02,4.046933480466037569e-02,3.269759265098460231e-04,-1.548059940828464855e-02,5.811661457513286021e-03,3.428910076618194580e-01
2.902510544687638139e-01,7.476025749920892083e-02,4.682967056058262578e-02,3.174202652491858387e-03,-1.741212923415323818e-03,4.193527637948037991e-03,2.309269756078720093e-01
3.213098895007525657e-01,3.553755880944854673e-02,5.573813685241899019e-02,-5.869359722864038583e-04,-1.766208693072224408e-03,-9.608717068158943025e-04,2.762503921985626221e-01
5.119202114430825290e-01,7.691529577046601895e-02,5.995797948979716963e-02,-1.748694125530574767e-02,3.222015461695951904e-02,-4.238640421682825926e-03,4.483068585395812988e-01
3.381217734755171955e-01,5.055375164935266286e-02,5.073364607869908227e-02,-3.532577845982477500e-04,2.907137387082738380e-05,-1.478907754834704515e-03,2.874901890754699707e-01
3.367384951594786235e-01,4.727151709050499140e-02,4.907839772693439739e-02,9.707096208921383142e-04,-8.249919136733299902e-04,-3.737375242825173409e-03,2.886488139629364014e-01
3.379171546152479610e-01,4.821311156246162188e-02,4.506340940029848752e-02,-3.513789415086794599e-04,1.363772323299468434e-03,-2.898026840285732215e-03,2.913451194763183594e-01
3.389614645118798064e-01,4.733631287355789807e-02,4.803289672498738117e-02,-6.361169159779464250e-04,-2.713238011204391559e-04,-5.304470742487242194e-04,2.912814021110534668e-01
3.386272997097063420e-01,4.866979305790654353e-02,4.606273160926549481e-02,-2.053440145647609551e-04,-4.607598632762691386e-04,-1.620872688426206430e-03,2.912846207618713379e-01
3.170592769871216632e-01,5.534423788152850743e-02,3.151633941302928177e-02,-9.359934482099932984e-04,-1.799171589690152031e-04,-1.039086467746470942e-03,2.744168639183044434e-01
3.226728921883657564e-01,4.500827345626441656e-02,4.483947732970582079e-02,-2.786150411804600444e-04,3.825994915445238482e-04,4.116852095057144285e-03,2.778417766094207764e-01
3.147470535988117213e-01,3.651226881972322036e-02,5.126827736302905225e-02,-2.133063686617051556e-03,-2.183503325779280989e-03,-4.829402993184754925e-03,2.713385820388793945e-01
2.660198384272276506e-01,6.864079796581024073e-02,5.771564421952689317e-02,8.374800896733439843e-04,-2.564076701213921766e-03,9.131401487388895663e-03,2.037307471036911011e-01
3.188878017718076441e-01,3.781713032720339374e-02,4.955863915024243116e-02,-2.967336830912328089e-04,-5.201106152346026898e-04,-4.335508845527980167e-03,2.754920423030853271e-01
3.199909068557038605e-01,3.434855488592471195e-02,5.333061070841686735e-02,-8.593746707164087251e-04,-1.262356827924432639e-03,-1.706595160889639706e-03,2.766686081886291504e-01
2.606541258718438892e-01,5.161073708875948962e-02,5.571451364171924048e-02,3.330833549469720128e-02,1.007432654387672016e-01,-3.260836723378707225e-03,2.768861949443817139e-01
3.304139611487293404e-01,4.047432019797612968e-02,5.453075323741739255e-02,2.996289380826752148e-03,6.007710029060086431e-05,1.944611890747192972e-03,2.832407951354980469e-01
3.426189479348470401e-01,5.690218045220463150e-02,6.057438798953600212e-02,2.408284690758129634e-03,9.493461748593725116e-03,-1.508746259902194646e-03,2.844168543815612793e-01
3.259497963408115595e-01,4.029546025214618410e-02,5.427959894624742598e-02,-5.459931619026364138e-04,1.714012379025592326e-04,3.267660034155312615e-03,2.789844870567321777e-01
3.850530395268182415e-01,6.531818350883589197e-02,7.392911872131140150e-02,4.392001811155658679e-03,-8.726907710883335598e-03,4.333012185390006099e-03,3.160600960254669189e-01
3.323184671884538144e-01,4.148695672172861282e-02,4.929471963474575669e-02,1.067135909860743477e-03,3.945937059284210192e-04,1.132947163903858185e-03,2.870207726955413818e-01
4.864715148804851785e-01,8.782231141265431362e-02,7.093722636693386430e-02,2.553980304381198510e-02,-4.113181466134334385e-02,4.808528531672014747e-04,4.158972799777984619e-01
3.449233749897096524e-01,5.806902870478282408e-02,7.556059671392703625e-02,3.525136678623818709e-04,8.509549275487433362e-04,-2.929175315743903687e-04,2.785258293151855469e-01
3.555222631939823907e-01,5.926894831068860170e-02,7.337910314861972871e-02,8.926730172389221729e-04,-8.967041400385023994e-04,1.785410894578569720e-04,2.894647419452667236e-01
3.484465040153827964e-01,5.851548531825015442e-02,7.089986953121590885e-02,3.640497760270974240e-04,1.533890041445841760e-03,3.655773728214703239e-05,2.839545905590057373e-01
3.495992003590069896e-01,5.993530198086079175e-02,7.708495780917190565e-02,2.723934865546534523e-03,-6.960718160743646979e-04,1.601342118008871403e-04,2.815234363079071045e-01
3.266271526142011106e-01,4.588470245015101312e-02,4.198087615223076996e-02,-2.335371101732722763e-04,-1.041225350638224408e-03,-5.897216070363221155e-04,2.827224731445312500e-01
3.624294551170051948e-01,6.012555027429171417e-02,6.526137059044211097e-02,-6.782183780877799060e-04,6.595556713666652499e-03,-1.129095012288771661e-03,2.999952733516693115e-01
3.216058841179763594e-01,4.469778783344703632e-02,4.444936376348215812e-02,-3.181898994642533762e-04,-6.427451057088536847e-04,-3.302833377175848958e-03,2.770942449569702148e-01
3.396568777226205427e-01,5.578562682653454008e-02,6.262222074968994134e-02,1.721401652836409722e-03,7.645265480532681401e-02,1.805638140782816342e-02,3.117866814136505127e-01
3.354476741326565259e-01,4.668813080057866716e-02,6.666366469643474069e-02,-1.803205208713876129e-02,1.281876374642385366e-02,4.621646499644399726e-03,2.820380628108978271e-01
3.381319727631061367e-01,5.895677404695548462e-02,5.656992011287620414e-02,-1.350682280194383245e-02,4.207869619666012445e-03,9.302647864008431900e-04,2.814495563507080078e-01
3.276193649490334314e-01,4.148794973921419993e-02,4.118690383948331313e-02,3.623168351916138851e-05,1.082419417659850300e-04,-1.044578626354362690e-03,2.862878441810607910e-01
3.273023614696506378e-01,3.368480340206757295e-02,6.116678667248229284e-02,-6.162697636419339937e-03,-8.684770610122978475e-04,-6.522882823620745852e-04,2.810957431793212891e-01
3.801662684841250472e-01,7.018458221047790824e-02,6.187565454406662724e-02,6.711471367504074151e-03,5.906866483033428560e-03,-1.956806306892912295e-03,3.146181702613830566e-01
3.381491300669281497e-01,5.063417236553034717e-02,5.431335139885887231e-02,-1.986703356291182054e-02,2.552268620670638481e-03,7.485957656562987903e-04,2.877948582172393799e-01
3.398638222123479546e-01,5.071461702041457631e-02,5.175714215969308418e-02,1.147211759734234268e-03,1.155429798032578089e-03,-4.258349554101836278e-03,2.887373566627502441e-01
3.322184798511663706e-01,4.253666085210686121e-02,4.731893458340381831e-02,4.025476974095111701e-04,-4.528481260839630385e-04,1.208767332040453207e-03,2.873300909996032715e-01
3.643381943222546160e-01,4.618301047572588580e-02,6.520863870220038050e-02,-2.281596534112021943e-02,1.114039608830957873e-02,8.316628127261559535e-04,3.121981620788574219e-01
3.400900630860759222e-01,5.986290538239087688e-02,5.787967906612442870e-02,-1.249437931076630148e-02,5.677781418446254010e-03,1.334680004129659920e-03,2.822363078594207764e-01
3.333976214788775816e-01,4.332613755323853899e-02,4.861015125191947561e-02,6.000915446248541920e-04,2.497365874907231387e-04,9.404002132035993965e-04,2.874727249145507812e-01
3.312437656621409765e-01,4.612077949447293546e-02,4.941290032776031460e-02,6.602532158855724080e-04,7.993404799969225805e-05,1.994533196054230299e-03,2.835146486759185791e-01
3.181913397981005476e-01,5.024849652808978384e-02,4.219264592099905564e-02,-1.081322562614161950e-04,-5.579534993364432087e-05,-4.785803464596377794e-03,2.721865773200988770e-01
3.320428716244831491e-01,4.470775708460783537e-02,4.538015309676074471e-02,5.548404781640126375e-04,-3.268327722091805962e-04,1.365612267341488779e-03,2.870114147663116455e-01
3.321314221775970577e-01,4.269202963644758153e-02,4.473787429932014892e-02,-3.311612641522115614e-04,4.716225224066290691e-04,3.759651022391826921e-04,2.884243726730346680e-01
3.332988655190313176e-01,4.388435588086783690e-02,4.708794795024992541e-02,6.209489900804942251e-04,-1.907422475228771087e-08,-5.452839623363574966e-05,2.878281176090240479e-01
3.293212418591944801e-01,4.378493187780997664e-02,4.498473778870056006e-02,1.578269824235877666e-03,-1.945230373445382957e-03,2.583048025998912339e-03,2.850064635276794434e-01
3.306802048881439804e-01,5.780535153523395919e-02,5.308599663974995775e-02,8.481716835795967413e-03,2.479218522852350004e-02,-4.975320186311031796e-03,2.791143059730529785e-01
3.352461299947362416e-01,5.961735592592319610e-02,6.207105696898045089e-02,-2.404191581750948162e-03,1.238920133638625899e-03,4.067601031408741392e-04,2.744510471820831299e-01
3.336709505037989132e-01,5.457278438347802629e-02,5.587123754459977221e-02,-6.434703575406270054e-05,-1.166815366452017902e-03,-2.078321870636084222e-03,2.784818410873413086e-01
3.216734346424821034e-01,3.455351926900461501e-02,5.563324917359327437e-02,-4.086327576769631029e-03,1.401572514261840161e-03,3.739757262082649657e-03,2.773585021495819092e-01
3.008389569992809820e-01,6.105149354562094954e-02,3.367266392499529415e-02,3.725880955345680810e-04,-1.474608973473235047e-03,-3.317771495089744116e-03,2.546619176864624023e-01
3.232012641448598900e-01,4.020138646016091499e-02,4.919282996858879986e-02,-2.575648052288723091e-03,2.449433327371437676e-03,4.120407109403684438e-03,2.787723839282989502e-01
3.272156479947362362e-01,4.132931440900199094e-02,4.920300525440277073e-02,-7.231579869140097048e-04,1.475691440906452302e-03,1.879433401362432020e-03,2.820650935173034668e-01
3.207600392933320776e-01,4.019314549910166234e-02,5.234116857553849922e-02,-1.004254781279930505e-03,7.038332881571387296e-04,4.533276866921941498e-03,2.748148143291473389e-01
3.039402804464398367e-01,5.525011313668484747e-02,4.527386304342817525e-02,2.506366871688211692e-02,1.723828572505889389e-02,-6.844575666398706494e-03,2.595070302486419678e-01
1.653139956670737765e-01,6.987167389998863443e-02,5.980150849836605997e-02,2.488582459757664699e-03,-4.901490315146273674e-02,1.702756091837330640e-03,1.319334059953689575e-01
3.190669368953434892e-01,5.513981006020608755e-02,3.446967531616067226e-02,1.883822320214371135e-03,-1.065478840732688023e-03,2.159092940741596644e-03,2.748967707157135010e-01
1.212279506243850169e-01,6.661885558002471341e-02,6.462949660787829786e-02,1.042199824840555830e-02,-3.443161907582122788e-02,6.231346018918549473e-03,8.422410488128662109e-02
2.868415503447943604e-01,6.047535824081605449e-02,3.195003985176229910e-02,8.007386693138452902e-04,-3.043592554091866052e-03,-8.554034783389815656e-05,2.419550567865371704e-01
3.374481867216584385e-01,6.091711343609093610e-02,6.639500439660772635e-02,1.103728648257690150e-04,-2.745451356041171361e-04,8.053013090971261698e-04,2.738372683525085449e-01
1.125205682061668211e-01,6.048699717987070235e-02,4.680395179127341820e-02,1.397258416808496231e-02,-4.322773954785768397e-02,1.121191908104642899e-02,1.008733287453651428e-01
3.233786811857087828e-01,3.223196755587355578e-02,5.950974929552416137e-02,1.422698254033123548e-03,4.411815824638385845e-05,8.003602696283363283e-04,2.785258591175079346e-01
2.756246515549312659e-01,5.121385068526468354e-02,5.336628309052623975e-02,1.857894297103983988e-02,-1.800216623875782601e-02,1.245144372116972938e-02,2.288114726543426514e-01
3.170259174164666849e-01,5.259338355235350371e-02,3.310375018699796001e-02,-1.454071021289917234e-03,-8.319500887671182508e-04,-1.372089024745652090e-03,2.747219800949096680e-01
1.132558177227790397e-01,5.358869127742398042e-02,6.049983262894435831e-02,2.708426739421767801e-02,-3.706321804282782656e-02,9.454753159513294702e-03,9.892147034406661987e-02
3.228090006136031254e-01,5.290945834155220961e-02,4.079858701542687927e-02,1.515288675185963506e-04,4.155797919891196447e-04,3.196471691801984396e-03,2.762107849121093750e-01
3.076170391959234252e-01,6.318557850970274448e-02,3.187740017910915824e-02,2.840882343649214856e-03,-3.231145363253212083e-02,5.271066206816305000e-03,2.676178216934204102e-01
3.406696523293696321e-01,6.836002808617532012e-02,6.116231014949370659e-02,8.915645864613624006e-04,1.256270828989083845e-03,-1.252459232250921007e-03,2.760003209114074707e-01
2.316265408608369769e-01,7.068943393866768121e-02,5.977035016403892120e-02,1.314699133450718954e-02,-4.412272561912505831e-02,1.089926856899336126e-02,1.857218891382217407e-01
3.158470692428290705e-01,4.154630467609285449e-02,5.628417227678229884e-02,5.773421207960554961e-03,-2.238819395538440074e-03,6.325581115284801929e-03,2.676762640476226807e-01
3.097334872000223061e-01,6.150978324128486552e-02,2.827923680327110167e-02,6.294342161242752736e-04,-6.840749551140511186e-04,-2.019931707354851596e-05,2.664028406143188477e-01
3.091039632546200844e-01,3.385024024040227120e-02,5.213510604821453009e-02,-6.228689281119993530e-03,-2.537260649976945913e-03,-4.366108856412182111e-03,2.669435441493988037e-01
3.321935636517575063e-01,4.281161236374025902e-02,4.832120253773110330e-02,1.156023014254237602e-04,3.510889460821763563e-04,1.001366973241150492e-03,2.866728305816650391e-01
3.323049824734312097e-01,4.561796358223768610e-02,4.684396441106766784e-02,1.152015966133956631e-03,-1.105975771274677081e-03,5.647180189889988190e-04,2.860910296440124512e-01
3.234483497421042908e-01,3.460072507674065434e-02,5.632135184991678145e-02,3.529130196113529610e-03,5.632337503184373789e-04,4.161427444567372159e-03,2.787849605083465576e-01
3.425059786264667006e-01,5.981312179562776887e-02,6.946742763919516728e-02,3.725915651814865970e-04,1.485429865390614987e-03,8.529352620766118007e-04,2.780080437660217285e-01
3.295224490324963895e-01,3.640438073787054252e-02,5.397160239656732805e-02,1.974413705456677399e-03,6.620622092664398342e-04,1.597687436115993558e-03,2.847774624824523926e-01
3.281759501720058481e-01,4.010380225068925497e-02,5.175390062752642517e-02,3.846463297905998208e-04,2.806916120812387883e-04,2.385123948956497427e-03,2.824587821960449219e-01
2.857397186883954276e-01,3.538069204170722626e-02,6.779122252862987419e-02,-1.136185872495651741e-02,1.317474830233031423e-04,4.812352179318965702e-03,2.367965728044509888e-01
3.322761346733210663e-01,4.219594622584087185e-02,4.656100596184906126e-02,-3.428484479929924558e-04,4.960808952229358009e-04,7.832689932710274350e-04,2.879275679588317871e-01
2.912283009681250201e-01,3.643923957855120521e-02,6.113044732306223417e-02,-1.152543917275733812e-02,6.023611320307532997e-03,6.640739596841512514e-03,2.446951717138290405e-01
3.297972314152157192e-01,4.217168345568894638e-02,4.826168984811916862e-02,-3.181244709078541932e-04,2.876856437655816762e-04,1.838288496804023038e-03,2.846481800079345703e-01
3.070241511242216004e-01,2.915757002203445136e-02,5.967949236870030705e-02,-3.978369126241771206e-03,1.010183872776555239e-03,1.070842448850451833e-03,2.640348076820373535e-01
3.141237829783786739e-01,3.345566883513517720e-02,5.799725502930963561e-02,-3.880960239658666749e-03,2.095370708976795285e-03,4.263287003687910373e-03,2.694470584392547607e-01
3.031669572329841467e-01,3.256701293172883926e-02,6.196965198125939378e-02,-6.068716821033098537e-04,1.166801774826282424e-03,2.710909991331438874e-03,2.572153210639953613e-01
3.246865620481955150e-01,3.214709100870981329e-02,5.970142803471861770e-02,1.418225707211478353e-03,-4.180862995876934336e-04,1.016200435109785097e-03,2.797990441322326660e-01
2.942476275923772144e-01,3.964354665099220631e-02,5.721541889571232775e-02,-4.609951377581691760e-03,2.735890029080255068e-03,7.578615075853638826e-03,2.468129992485046387e-01
3.313758038473576528e-01,4.812596104172056632e-02,5.324268058579695317e-02,-3.996192024301742233e-04,-1.547472085676704920e-03,-6.985158049671730263e-04,2.807427048683166504e-01
3.119021198582949683e-01,4.953828726001013871e-02,4.033273854737119690e-02,-1.345262720131909506e-02,-1.594350023984801579e-02,-7.365224988621824238e-03,2.698202431201934814e-01
3.313642462995835536e-01,5.825239872829025833e-02,5.610964206332612336e-02,-1.706393022703810787e-04,-4.042622048623519221e-04,-3.424742370379704162e-04,2.741912007331848145e-01
3.327726747384494033e-01,5.807437431598903854e-02,5.708433812520691264e-02,-4.708328497032114048e-04,-2.024151278941110303e-03,-2.174494829351473145e-04,2.752184569835662842e-01
3.347668398684262026e-01,5.378735046693947086e-02,5.610299595750591062e-02,-5.227111993114100718e-04,3.291819030383491811e-04,-1.386797564640142094e-03,2.798412144184112549e-01
3.314217468897980856e-01,5.428215641944802994e-02,5.489617096822833886e-02,-7.988401744457441882e-04,7.133333239021869140e-05,1.396109516848200881e-04,2.768366932868957520e-01
3.346908740374975322e-01,4.969115609840786540e-02,5.554241620434485771e-02,-3.092587838330033371e-03,-9.125060978022608588e-04,-4.898646504167666373e-03,2.823024094104766846e-01
1.389554522150818761e-01,6.544133955418221515e-02,6.411374344322998131e-02,4.247489262933547283e-02,3.119373078089678064e-02,1.324747225109632141e-03,1.176454201340675354e-01
3.289513394853373351e-01,4.269244703186542145e-02,5.827867856795333756e-02,-1.186462722698056714e-02,-1.664281854146755805e-03,-5.061974986937159936e-03,2.797014117240905762e-01
2.850638090901420618e-01,5.233712602492270050e-02,4.427605807587774167e-02,-5.375513763242739662e-02,-6.630888584529431862e-02,-4.942836346760209019e-03,2.793482840061187744e-01
3.119932685342952094e-01,3.062186009134015841e-02,6.438040572757791624e-02,-4.904453708619489066e-03,-1.052751899353147284e-03,-1.125471314989966469e-03,2.662519514560699463e-01
2.556910435777625112e-01,3.904742778971155570e-02,4.307217406816965521e-02,-7.318149580140011212e-02,-6.317951760979421960e-02,1.718995445789566357e-03,2.722666561603546143e-01
2.440092077865474163e-01,4.578542448705368029e-02,6.378053971720687443e-02,-4.648744987352317753e-02,-2.616649670498643818e-02,-7.798047263644717828e-03,2.115872502326965332e-01
3.521622360298750642e-01,5.828245153605945972e-02,5.638449479001264586e-02,-1.515653799082055699e-02,-5.786479478677114194e-03,-1.618201947272414256e-03,2.961826622486114502e-01
3.568274522746289756e-01,7.089088093845781480e-02,5.952932682605718839e-02,2.946053253482907967e-03,1.374955561387941746e-03,-1.574437510131064923e-03,2.918503582477569580e-01
3.476818632913200036e-01,7.355442602217965309e-02,5.984091087807917597e-02,-2.393096456091669579e-03,-4.610819989897462119e-03,-1.909387249224651570e-03,2.813984155654907227e-01
3.101611789803174757e-01,6.358250093081059540e-02,3.002542339570681007e-02,2.856168178829555731e-04,-9.378056054125826933e-04,1.167343953889316867e-03,2.649689614772796631e-01
3.563257162651181087e-01,7.737800231584726629e-02,6.012806362794163861e-02,4.854546188147147549e-03,2.756108487465137001e-03,3.590984145782570016e-04,2.881233990192413330e-01
3.244535417754828566e-01,5.306052852033829592e-02,3.468339082272077489e-02,-1.503676515059252207e-03,-1.798091322428562074e-03,-1.573356094676965850e-03,2.810751199722290039e-01
3.784117276148007414e-01,6.076245447652707521e-02,6.300219384090323393e-02,-8.031067276389408996e-03,7.308438384392325696e-03,2.314564483793676852e-03,3.171189427375793457e-01
3.429092251381757883e-01,7.392900924947796992e-02,6.007581469396483520e-02,-3.351346148523863620e-03,-1.114247063246440487e-03,-4.049500011567211746e-03,2.763243019580841064e-01
3.118464049241408409e-01,6.016609536714920270e-02,3.015378005300764497e-02,3.887854160317604185e-04,-6.517656517596468000e-04,-7.695707968510453459e-04,2.679565846920013428e-01
3.477884660098571334e-01,5.928193242516568984e-02,5.993585443071951235e-02,-1.886697148846253795e-03,2.751900342417704700e-03,-4.901069870007541572e-04,2.882393300533294678e-01
3.171502026928509910e-01,5.901906498142657498e-02,3.527749733733970272e-02,-1.899058999398517303e-04,9.495408612701335734e-05,3.079129338583458473e-03,2.708364129066467285e-01
3.153144037212749495e-01,3.392358793309377396e-02,5.962712972114762866e-02,4.215369167748652703e-03,-7.804810589138028425e-04,3.991961654119072743e-03,2.696509957313537598e-01
3.529663919510601655e-01,6.803992271236727896e-02,6.071790153768336085e-02,1.059848327615888581e-03,1.557276152129135260e-03,1.835349940598469129e-03,2.886930704116821289e-01
3.381621885937123873e-01,6.304607042232464320e-02,5.929566604563137056e-02,7.172102402817401691e-04,-9.949103454877535318e-04,1.198489375664822096e-04,2.770185768604278564e-01
3.310209696664739853e-01,5.030259857576442617e-02,5.055032267135949053e-02,7.842761661839615407e-04,1.057493159151747832e-03,5.088188396500661296e-04,2.806052267551422119e-01
3.329277085501420874e-01,5.706278375356839405e-02,5.443008558998996271e-02,-5.396904619491306454e-04,2.918259904943849327e-03,-4.925125368934467644e-04,2.772396206855773926e-01
3.347119972159033896e-01,6.041271064996529827e-02,5.722596792298459412e-02,7.633401971631268009e-04,-4.014939353447996595e-04,3.276759321221592801e-04,2.759110927581787109e-01
3.328399341655052801e-01,4.795275965957110365e-02,5.161988481792489925e-02,1.256522726671207028e-04,5.450152005681050240e-04,-5.470756617377663679e-07,2.830730974674224854e-01
3.315053019480224128e-01,4.985360765764194901e-02,5.260538230693463657e-02,-2.049002357146006200e-03,1.965658247400324521e-03,2.775204880856588490e-03,2.803702950477600098e-01
3.344059214865403029e-01,5.896741665228047435e-02,5.424153205823536994e-02,1.740843573647245105e-03,8.532285699007677825e-04,-8.905360245411870481e-04,2.778561711311340332e-01
2.888734410038737987e-01,3.150401606662278642e-02,5.665419977281101194e-02,-1.232872914369124301e-02,-5.413577030380399731e-03,-5.515308117249587659e-03,2.470502704381942749e-01
3.324282843762618178e-01,4.391115391250631494e-02,4.784617836861497497e-02,1.277597609744041444e-04,-2.566300218354121822e-05,3.753618651720029955e-04,2.865706980228424072e-01
3.230144783610283676e-01,3.186009036052328547e-02,5.715768684388801424e-02,-4.847425098213441869e-04,3.393941626837154810e-04,1.045764934760067769e-03,2.793737053871154785e-01
3.230006248982349448e-01,3.579358005624631855e-02,4.949908836843423809e-02,-5.961263126689070324e-04,-1.738392432796896474e-03,-2.268567577654100748e-03,2.806510031223297119e-01
3.274307662054928847e-01,4.213194865475598794e-02,4.676315069863480611e-02,-3.927304784016170838e-04,3.968286194098216138e-04,-1.488087302800133625e-03,2.830250263214111328e-01
3.271012213328964302e-01,4.124157911142167787e-02,5.397695614107098083e-02,-4.576485287176000789e-03,-2.654024756023217607e-03,-5.516208449433675047e-03,2.800225913524627686e-01
3.220071496297809421e-01,5.199526246916909289e-02,3.454615002137693958e-02,4.990006481339577310e-05,1.530233699010127976e-03,9.827243449318631609e-04,2.791635394096374512e-01
3.384787584478483602e-01,5.667549882515678095e-02,5.835519800627574083e-02,1.070334808889108298e-03,-2.226208759379207872e-03,5.308325516464037575e-04,2.810012400150299072e-01
3.038273052859326584e-01,3.336814363642533199e-02,5.997382048109518859e-02,-5.336607975473776780e-04,-2.098208218622254855e-04,-5.126936742989036955e-03,2.583410739898681641e-01
3.099485059762451256e-01,3.188443921379768842e-02,5.552138596450428842e-02,-4.729474172981610811e-03,-7.725871740416834438e-04,-3.982436478841216466e-03,2.672493457794189453e-01
2.954658560742524642e-01,3.787833994776804158e-02,5.202428002962167231e-02,-1.006621651257404854e-02,3.120020195381823771e-05,-9.041560553566481417e-03,2.519064545631408691e-01
3.285631030909291761e-01,4.586754987809936457e-02,4.019153440413403278e-02,-3.462452223314861101e-05,1.202917013483963040e-03,7.600798645512313713e-04,2.855865061283111572e-01
3.271956754514008248e-01,5.159933691797968791e-02,3.733070267703604561e-02,-4.295442949222320005e-04,-1.219526350766327299e-03,-1.380339418215609237e-03,2.830195128917694092e-01
2.546384055972078508e-01,7.236682397051820426e-02,7.531553521837744403e-02,1.545503778413308271e-02,6.076570381891568604e-03,-2.318741027666615991e-03,1.831328421831130981e-01
2.129830327675928947e-01,6.669843744781678296e-02,6.790523470970895314e-02,3.479821456740978284e-04,-1.349001007145629854e-03,2.928282166164583762e-03,1.457931846380233765e-01
1.544735602299928401e-01,7.608079624261170071e-02,7.244052606311393583e-02,1.090478500927379024e-02,2.308235691703913392e-02,6.248958831240066999e-03,9.228393435478210449e-02
3.320329338038393585e-01,4.313976933926361168e-02,4.686719379294118637e-02,-4.831584722752846599e-04,3.214286044521579358e-04,6.481190819166927821e-04,2.870515584945678711e-01
1.636662234305402142e-01,7.809371338287707243e-02,7.637605144762335541e-02,-2.455367833920110016e-03,6.517983347218626877e-03,6.741162561015710646e-03,8.805940300226211548e-02
1.875894638226037192e-01,7.225124584776304593e-02,7.231642389343197197e-02,7.261993029321334430e-04,7.550653297957733191e-03,-4.997446370732450469e-05,1.160517930984497070e-01
1.917444170605232534e-01,7.914890814044307776e-02,7.671285832263376181e-02,-6.529317761519242390e-03,-1.644654412304631414e-04,3.476265328282580891e-03,1.145521774888038635e-01
3.382027142238743789e-01,5.340254079316333891e-02,5.177041704098009345e-02,2.631669758329621320e-04,-1.236742180802236069e-04,-8.003034847337661857e-04,2.856235504150390625e-01
2.195224687572122080e-01,6.511252500978848001e-02,6.900071876546608196e-02,-1.154925248643198050e-03,2.195265395887089840e-02,-2.401831478170222706e-03,1.572394222021102905e-01
3.373787965696005697e-01,6.198715521437517251e-02,5.874984680183863162e-02,3.969142414996421715e-04,-2.066991574420697433e-03,1.245982549175160287e-03,2.770568728446960449e-01
3.966401491534954360e-01,4.276531193430152533e-02,5.325265270323963074e-02,-1.058097737037226637e-03,3.892060205670204529e-03,-1.059230135006900692e-02,3.493015468120574951e-01
3.332230216302103365e-01,4.298278428729185308e-02,4.644802274075952864e-02,1.704601062249882148e-03,2.794143448807870876e-04,-6.484147828661502265e-03,2.887572348117828369e-01
3.303070551861392867e-01,6.256165563809190644e-02,6.172261091727344884e-02,-1.648619882089199533e-05,-6.128291428354753915e-04,5.379805453404642697e-04,2.681696414947509766e-01
3.512570914920325471e-01,6.725576865925611547e-02,6.410923185468218877e-02,-2.531610918113649453e-03,-2.971945894508840839e-03,2.264900550376694119e-03,2.856945693492889404e-01
3.135828546645395010e-01,5.658643601064206052e-02,3.853037324957414578e-02,1.167330184080248500e-03,-1.473690061285627770e-03,-6.939002879696401331e-03,2.667743861675262451e-01
3.471225340904754986e-01,6.293521006538833895e-02,6.387223321133222997e-02,-5.803992083712575072e-03,-1.818404613323915337e-03,1.083121842876565459e-03,2.839216887950897217e-01
3.392431360182475153e-01,5.936820767462852588e-02,5.721125915648740679e-02,4.622268752999445472e-03,6.469904940092411315e-03,-3.379174839659931733e-04,2.812975645065307617e-01
3.452706163610447243e-01,7.053624106289989315e-02,5.980698426122542377e-02,2.318342543356929041e-03,3.008370360156919273e-03,1.580326340580533780e-03,2.803436517715454102e-01
3.163111808331321440e-01,6.043016705970995217e-02,3.026100087644337244e-02,-5.202527021417945952e-04,-1.039840607294575297e-03,-8.920909439021900301e-04,2.722341418266296387e-01
3.341516658279147789e-01,5.740539934168882585e-02,5.996513330005812104e-02,-7.916327011438077394e-04,-9.847284975813318589e-04,1.906137552571850657e-04,2.754842042922973633e-01
3.375029243442702609e-01,4.910378622127381520e-02,5.061548534369822439e-02,7.473891640388498825e-05,-7.217093294507939683e-04,-1.164253784666727720e-03,2.876560688018798828e-01
3.745112971724851025e-01,6.140613693663651840e-02,6.581236698271976382e-02,1.917887258985225473e-03,2.378981223955192563e-03,1.683678610105543427e-03,3.109841942787170410e-01
2.067244870653948130e-01,5.523355814883283005e-02,6.642944447707420375e-02,-2.214221834215818543e-02,4.874261679132543996e-03,8.211524816993508863e-03,1.520630419254302979e-01
3.318179312881981424e-01,5.451581898697803463e-02,5.652377493984128698e-02,-3.180974373683702946e-04,9.661065258390433112e-04,7.504269811084241047e-04,2.763122916221618652e-01
3.248329043027780028e-01,5.709673147933115589e-02,3.418524174568156326e-02,-2.357622199903227150e-05,-2.590768771647078070e-03,-1.383031055466229760e-03,2.799423336982727051e-01
3.390992226377339547e-01,5.384719360102011021e-02,5.569333115229345432e-02,1.350308341563212760e-03,-1.716933393814500238e-03,-2.501683054824930825e-04,2.843589484691619873e-01
3.343157202686927731e-01,6.216929958681821633e-02,5.850532047469367281e-02,2.042242620954444975e-04,-1.611501020126606103e-03,4.816171054774997747e-04,2.740125060081481934e-01
1.647416550065499696e-01,5.075312896447062294e-02,5.997285154836950322e-02,-7.170186963436006589e-02,6.274685993951055474e-02,-6.883083871936258348e-03,1.985058039426803589e-01
3.310047028160833515e-01,4.775990203745357487e-02,4.421877834418405651e-02,-4.470124556515687715e-05,-3.766553298604269416e-04,5.164071112573115005e-04,2.850340306758880615e-01
3.123698906958898291e-01,4.010383555162121139e-02,6.049428376995207024e-02,-1.435144052346535269e-03,-6.875979300815305336e-04,6.357755790717001081e-03,2.629102766513824463e-01
3.233797739446218067e-01,3.221996810196348093e-02,6.161624898377432435e-02,1.741889681950767712e-04,3.455841628599456527e-04,-4.413560947419183653e-04,2.776331901550292969e-01
3.119954015616809295e-01,4.297562858111318718e-02,5.419660556213416747e-02,4.743011343819274043e-04,1.125702784331196254e-03,6.811393715506802032e-03,2.638608515262603760e-01
3.365457595479676156e-01,5.390237964184853292e-02,5.449362944967214850e-02,-6.789668197540587192e-04,-4.583245716452826759e-04,3.649155759101075790e-04,2.823524773120880127e-01
3.301863124016196083e-01,5.020920854164738489e-02,4.276942626310391293e-02,1.084089515724518803e-04,1.354229140002375341e-04,-5.644309951056643293e-03,2.839386463165283203e-01
2.623082378188852926e-01,3.885976457828189956e-02,5.532965896280946094e-02,-3.515267495707034145e-02,3.096149305917499095e-02,6.767034566124688691e-03,2.307393699884414673e-01
1.945569471277025508e-01,6.261015107998188500e-02,6.861846896950007935e-02,5.867208960010161095e-02,2.317685393261795929e-02,5.497606987465074486e-03,1.693596541881561279e-01
2.693375024202812051e-01,3.453621032465208074e-02,4.726000094447531386e-02,-3.272676963139720813e-02,-3.199560149010070159e-02,-1.414637714426270933e-02,2.432912290096282959e-01
1.661341655766992997e-01,3.935108191639861280e-02,5.054101523134989227e-02,-8.377845576643480618e-02,8.371268631800637700e-04,-1.653151354161814298e-03,1.893337219953536987e-01
3.126394455826095875e-01,3.572236807297660133e-02,5.336028596922477718e-02,-6.164113129041755290e-03,3.030057708634251168e-03,5.090033416646611193e-03,2.689408361911773682e-01
2.384841227254836382e-01,5.926764327336670607e-02,5.228111550194679269e-02,-9.739216109389846332e-02,-3.069934392703712461e-02,4.961147088262684440e-03,2.545119822025299072e-01
2.703083501944416600e-01,3.349098129348811181e-02,7.000354775953615549e-02,-3.115646054787126959e-02,-6.028980968483059998e-03,5.430259341208807300e-04,2.275762110948562622e-01
3.324029701207366072e-01,6.046872640149403288e-02,5.917528335575913956e-02,-9.044438071154490741e-05,-1.196009891263072940e-03,1.595094304819885233e-04,2.725913226604461670e-01
3.394423424222794416e-01,4.835749865029365102e-02,4.688792400979927000e-02,-2.015143123488872287e-04,1.630244684516940512e-04,-9.629969817883760009e-04,2.918275296688079834e-01
2.544049846492806854e-01,5.664468458461237310e-02,6.518413137708731209e-02,1.675013276612425522e-02,1.140604212090676542e-02,-2.176107231987114456e-03,1.968235075473785400e-01
3.381574396758564305e-01,5.135273914116761373e-02,5.052412166182447539e-02,-1.309303561407044276e-03,-3.765121949811160132e-04,-1.091396812752575213e-03,2.872358262538909912e-01
3.379634752295465061e-01,5.347230808351839670e-02,4.845163596842987086e-02,-5.074289168534743075e-04,-1.647490138433036779e-04,-9.800240444370600639e-04,2.870409488677978516e-01
3.377441895301327990e-01,4.918145092974285371e-02,5.077340575216829355e-02,-1.422013186695452033e-03,-1.156884144662825506e-04,-1.043559028080413972e-03,2.877863645553588867e-01
3.364267407058210702e-01,6.381049230172848585e-02,5.874411629122924805e-02,1.040946852401238411e-03,-1.771443572436713848e-03,9.920353154236870048e-04,2.752127945423126221e-01
3.074830534801367699e-01,3.649080002105663245e-02,6.340087548464841405e-02,1.392747690682332893e-03,1.665050124615403504e-04,-4.929419643092120126e-04,2.586023211479187012e-01
3.399633637813244680e-01,4.785161529610737485e-02,4.799706029045998357e-02,1.243381928864554121e-04,-9.087781984552885175e-09,-1.295180063269743879e-04,2.920392155647277832e-01
3.372521057020440027e-01,5.153999859558537622e-02,5.107016330943171811e-02,-1.145239006652812135e-03,-1.670731258296446467e-03,-1.552477995413896299e-03,2.859814763069152832e-01
3.370234993854327454e-01,5.376235197019117729e-02,5.397040250591823851e-02,-7.460480626828616376e-04,-1.071131524076453147e-03,-1.673104535465120830e-04,2.831663489341735840e-01
3.381682182442892204e-01,4.943005874766941143e-02,5.033232029275024055e-02,1.564978074814692382e-04,-9.211450024058109604e-04,-1.317421905056634715e-03,2.883016467094421387e-01
3.138289667056880505e-01,3.723782033933933922e-02,5.390511651283970418e-02,-1.814924167590572027e-02,-1.503722098220598540e-02,-4.543908814199746835e-03,2.718435525894165039e-01
3.125239232153383950e-01,3.696185870887865044e-02,5.114797171363345829e-02,-2.326764009647679186e-04,-1.743160500213864579e-03,-5.913806327149190301e-03,2.689623534679412842e-01
2.997041866928085163e-01,2.994775643726069192e-02,5.721122444591424105e-02,-1.112877290795899303e-02,-3.283146633322524006e-03,-5.050283872972085274e-03,2.581428587436676025e-01
2.400895053059355633e-01,4.563235365703004198e-02,6.670947497180149122e-02,3.530792115925654538e-03,-2.323799253727390317e-03,6.016817826412442644e-03,1.852604597806930542e-01
3.320663988661302080e-01,6.388211211081114282e-02,6.423621755182849780e-02,7.832491205791003561e-05,3.255627141325633574e-05,-1.592609583490018710e-04,2.680076062679290771e-01
3.322345348632610995e-01,6.020958856828814709e-02,6.152386915427579539e-02,-4.790697177096346604e-04,1.017988310682839317e-03,2.128765847762469836e-04,2.713774442672729492e-01
3.325725318458474522e-01,6.358839951563612092e-02,6.360130462711507948e-02,9.146621368695425063e-04,-1.189576667867012348e-05,-1.534753801423930936e-03,2.689954936504364014e-01
3.320238718296537606e-01,6.102105824795320266e-02,6.199987509829557597e-02,5.057908284457558512e-05,-3.109017281237876464e-04,-3.175622111835936902e-04,2.705158293247222900e-01
3.001036995117171147e-01,6.098596839677876413e-02,4.838147339274870284e-02,-3.508075731570281497e-04,2.099491460178869173e-03,-5.664752225326215480e-03,2.458861172199249268e-01
3.328799656333535362e-01,6.004354870040684578e-02,6.254677889641709065e-02,-6.828875225391639256e-04,8.695051940673548686e-04,-2.096425114061283110e-04,2.716004550457000732e-01
3.367309294051069601e-01,5.509460301473777244e-02,5.447256929429084016e-02,-1.228900188390556411e-03,3.330711158783459776e-04,-1.012687682371214400e-03,2.819619476795196533e-01
3.618704829903854892e-01,3.766124704286658020e-02,6.811693495294235401e-02,-3.536245770653291542e-02,-4.433994594826048269e-02,-1.197511506344402666e-03,3.252984285354614258e-01
3.324664086713794431e-01,6.340152366970856768e-02,6.565418519159282873e-02,-1.311455961508598434e-04,1.074865311045674368e-04,-1.468169340806038193e-03,2.679578959941864014e-01
3.353614382257750215e-01,4.708705015074048095e-02,5.029218417543336594e-02,1.486006760189778749e-03,4.051783265694316690e-04,-4.151525076191025371e-03,2.867878377437591553e-01
3.305505609778562892e-01,6.254698445925943595e-02,6.203128708928737356e-02,-5.620880092211780503e-04,-4.790139803345037093e-05,3.409319632557651831e-04,2.682642340660095215e-01
3.364163561301506400e-01,5.086806527237842934e-02,5.136097417985655000e-02,-1.118507662836821593e-03,-1.602619780800998081e-03,-9.474327576496792197e-04,2.853269577026367188e-01
3.333340117702607852e-01,4.583262467847712407e-02,5.077876998275145104e-02,1.375538071798039020e-03,-9.623223826892392859e-05,-2.889445839394778545e-03,2.851144373416900635e-01
3.364713185585902488e-01,4.643822948797202144e-02,5.159262693846257408e-02,6.533584265625273129e-04,-1.002036911590306265e-03,-1.430882556731347946e-03,2.875086963176727295e-01
3.380039383782750817e-01,4.794665894851218857e-02,5.049449565347523261e-02,9.879036223623763606e-05,3.960882640605134790e-04,-6.920406284901841254e-05,2.887926697731018066e-01
3.345842852731937267e-01,5.954406669404881114e-02,6.224935596294084439e-02,-1.608274285727925076e-03,5.817811801917667459e-04,2.268441867468503498e-04,2.737139165401458740e-01
3.307079515070666109e-01,5.214559121131538688e-02,4.549743169088966976e-02,-2.984159553959172813e-04,-5.788027489340175644e-04,-4.206830123128819585e-03,2.820416390895843506e-01
3.215259217464224717e-01,4.191192168860989609e-02,4.871860482471891685e-02,2.111249273082359962e-02,2.690688424568588727e-02,-1.018439057867712508e-02,2.831031382083892822e-01
3.099447366715334384e-01,5.531188208435666720e-02,3.662889111352457538e-02,1.381971067502235466e-02,-4.527965232821084401e-02,-6.922596796268521216e-03,2.771492600440979004e-01
3.292838108978268785e-01,6.326990197678870886e-02,4.026860435170334651e-02,5.880098812191912085e-03,-1.493866496378053708e-02,5.471205578910914684e-03,2.797751724720001221e-01
3.215568007231052183e-01,5.918586456556450270e-02,4.491964295699363285e-02,1.085624087436653194e-02,-1.784273670346970750e-02,6.299742097719058208e-03,2.724202573299407959e-01
3.255123268109509360e-01,6.240923004543923180e-02,3.385256487483567778e-02,7.122762594833613068e-04,-1.755744264780778260e-02,-2.479473914802634519e-03,2.801728546619415283e-01
3.325447176838958185e-01,5.906580074515926926e-02,4.723170044523282429e-02,3.108462754626186396e-03,-1.363286618315068081e-02,1.215015687543106711e-03,2.806387841701507568e-01
3.111754729262212749e-01,6.571728297460532886e-02,3.233462067376757787e-02,6.248279316413576576e-03,-1.477063716169864718e-02,3.300152389146559367e-03,2.652592658996582031e-01
3.221203829984130573e-01,6.443908085370339545e-02,3.448440625690508965e-02,1.422210450537048088e-02,-4.782920318126358122e-02,3.753857975277209019e-03,2.872762978076934814e-01
3.077337141923754960e-01,5.885518447299581402e-02,3.017220172757922869e-02,-3.700079060509825555e-04,-1.720717614155267347e-02,-2.463887770279774968e-03,2.660990357398986816e-01
3.943142422228083088e-01,5.515803227358867522e-02,3.729175888297774077e-02,1.084110303546489441e-02,4.358660633643601096e-02,-1.398852843119465644e-03,3.570201992988586426e-01
4.035079413922896818e-01,6.242709420313831414e-02,6.919769631948244348e-02,9.325603879179300559e-03,1.222053010476052866e-02,-2.775719292728724349e-03,3.388284146785736084e-01
4.060547896709978399e-01,6.600903809832557589e-02,7.245313117059022645e-02,6.375346893616206691e-03,1.025992650969700937e-02,-8.174427272347239764e-04,3.375220000743865967e-01
3.399186643951288556e-01,6.062659055064165137e-02,5.808611866181091765e-02,-4.664691910272140106e-03,6.706429661876789567e-04,-3.034685355741854667e-04,2.806901335716247559e-01
3.639410162894771705e-01,5.724651274065678530e-02,5.963826477770001189e-02,5.620571907732704745e-04,3.775662786877034393e-03,-2.128575403003225147e-03,3.055994212627410889e-01
3.559876574853804154e-01,5.306797426952966634e-02,5.938054604547993165e-02,3.639410859191112395e-03,8.171234330812694735e-02,5.685803992943289781e-03,3.317460119724273682e-01
3.319214715681610417e-01,5.595980062541774935e-02,5.437515077140138431e-02,3.813258568555810213e-04,-3.393683759813022924e-04,-5.935152203768329646e-04,2.767607271671295166e-01
4.929897697775936782e-01,8.033251500137789103e-02,6.562897394438513277e-02,3.891516895398407921e-02,6.011110304162847057e-02,-1.122563076070392553e-02,4.385555684566497803e-01
3.319664935467815381e-01,6.129975431103218408e-02,6.022757454507836339e-02,9.404643713287908630e-04,-6.015282221982776178e-04,2.586302472415007462e-04,2.712116837501525879e-01
3.328999761201696939e-01,5.434425186168052868e-02,5.643943714509329357e-02,-7.701792146627634353e-04,1.095825305554948238e-03,5.948607959720006661e-05,2.775237858295440674e-01
3.473358258720501968e-01,5.597162294787656756e-02,6.799601816262546006e-02,4.366746015286091312e-03,5.194044973188221941e-03,-2.314889031897679743e-04,2.857840359210968018e-01
3.982865693343171642e-01,6.357003578553468981e-02,7.682907596741188339e-02,-1.388756893671968563e-03,1.708820476721341114e-04,-1.704105395617133483e-03,3.283101022243499756e-01
4.022743602377989447e-01,3.203174312948012248e-02,5.925121872223199082e-02,-3.299587160611672232e-02,-2.696154168556470949e-03,-7.412443582707459871e-03,3.622092008590698242e-01
3.226676424002434262e-01,3.814975086953154015e-02,5.542862442988570615e-02,-4.447066145901017349e-03,2.650252229968808396e-03,5.014604962809122123e-03,2.765658795833587646e-01
3.583106335007042453e-01,7.572348260952072030e-02,6.406187560853647545e-02,-1.213254787815632374e-03,-1.981508425762432569e-03,5.438078364169419282e-03,2.887764275074005127e-01
3.989392397901533882e-01,4.953243271174517792e-02,5.737956401780974769e-02,1.746543654844762497e-02,-1.954160364973383905e-03,-3.084004913661466795e-03,3.469293415546417236e-01
4.079857776674119529e-01,3.759420997988299762e-02,5.672467285099001832e-02,6.097242114589312284e-02,2.551014841896289548e-02,-1.700022244372081633e-03,3.789248168468475342e-01
1.396098281125295881e-01,5.245357331910045773e-02,5.079524188171608695e-02,-6.277023023299581339e-02,-1.210013232567615747e-02,8.952632738840832563e-03,1.422796249389648438e-01
3.195715769161897590e-01,3.114924247134814861e-02,6.238520334884815888e-02,-9.077239075767462584e-03,-1.153819242848013555e-03,4.730347811827258176e-04,2.746012210845947266e-01
2.952061479448755965e-01,3.482061181742500400e-02,6.071407497627410998e-02,-1.650217443373945894e-02,1.629750465026299057e-03,6.787339499713078081e-03,2.503836154937744141e-01
3.143941927856278573e-01,2.782603242515457875e-02,5.945904829626930121e-02,-2.482519769345592313e-03,-3.112008182254219621e-04,-1.106407418936378650e-03,2.721753120422363281e-01
2.438155816660304565e-01,4.204672095259354148e-02,6.256414634134574437e-02,-1.500221655524865486e-02,-3.529157587957486731e-03,-1.825574638011315167e-03,1.942020207643508911e-01
3.316925974053001602e-01,4.838618913344808203e-02,5.078558284425117864e-02,-2.968209640943466677e-04,5.962171822040081889e-04,3.939361991958788170e-04,2.821175456047058105e-01
2.436024721579534980e-01,4.892123658243462125e-02,7.043302493729983182e-02,-1.805484649024341470e-02,2.682101707308012176e-03,4.912424405614313275e-03,1.877432018518447876e-01
3.191718456357912626e-01,3.405134734802131580e-02,5.715024235753358994e-02,3.834742463126200943e-03,-5.343780088000492975e-04,4.113960369691225388e-03,2.744759321212768555e-01
2.448019461455415990e-01,4.090180844224375334e-02,5.599304421575948543e-02,-1.663294401164525788e-02,5.790712042420341488e-03,1.049352576798217619e-02,1.999670267105102539e-01
2.940904293750266074e-01,3.622583196497723701e-02,6.584870661131857206e-02,-2.922090645033658882e-02,1.600666856349556438e-02,3.718588768565754109e-03,2.512064576148986816e-01
2.403050866569965138e-01,4.246190122499579611e-02,6.757589672531075231e-02,-1.591129748183045187e-02,-3.458260148291073216e-04,1.994044444870438006e-04,1.885841786861419678e-01
3.387276196030016839e-01,5.827754918454480793e-02,7.055309293655227798e-02,-6.072144212293357178e-04,-1.994288551325790887e-03,-5.629328891293490685e-04,2.745437026023864746e-01
3.272490865751517264e-01,4.776210837526510822e-02,4.156253752871350016e-02,-9.370688212394676997e-04,-9.200248423138650050e-04,-6.825447383946427280e-04,2.826493978500366211e-01
3.505247257262685268e-01,5.873553891762590962e-02,7.199405094442376529e-02,5.119203849015425793e-03,-4.168090204181212899e-03,-1.948955497324825952e-04,2.856201529502868652e-01
3.311050222227642781e-01,4.701359797668476503e-02,4.721818501693481052e-02,-7.467287235110755921e-04,-3.666544395417068000e-04,2.756097040607173978e-04,2.839932441711425781e-01
3.704548367188844060e-01,6.192287198457088748e-02,6.181975291390727489e-02,-5.620445710780864329e-02,-8.678063541827761573e-02,-1.183802527842481170e-03,3.567877113819122314e-01
3.585337495306485378e-01,5.862604626617455572e-02,5.907500964142325950e-02,1.093284407185081235e-02,-5.272905827070124840e-02,1.642789179597779108e-03,3.138756453990936279e-01
3.245106768228508409e-01,5.135596224667156318e-02,3.684631228425172544e-02,-1.454374307097208371e-03,-1.756793398299848381e-03,-1.328179797278811625e-03,2.807281613349914551e-01
3.952363407795255190e-01,6.610036899192736626e-02,6.770060893246099276e-02,-7.391223882304005614e-04,-3.054011367860885121e-03,-9.849994552215161556e-04,3.283883035182952881e-01
3.268214343408402112e-01,4.137715156139790129e-02,4.589107769044610541e-02,4.648093056050653436e-04,-4.584057498703858371e-04,-1.041421079346648666e-03,2.832222878932952881e-01
3.298743387828693141e-01,4.434887179450619499e-02,4.454854300492797070e-02,-3.771433587058794839e-04,-4.177577726580108605e-04,-2.270383049672583867e-04,2.854276299476623535e-01
3.299022224690969507e-01,4.616160415937595185e-02,4.653970946137978015e-02,6.744238128739502838e-04,-2.997011947615505108e-04,-3.183655426865262292e-04,2.835551798343658447e-01
3.973253015316386971e-01,6.146379178422720080e-02,6.421378109749087404e-02,9.359480644393411777e-03,-2.113171150465729953e-02,4.480305897755155337e-03,3.369711637496948242e-01
3.610584934775834531e-01,5.895089435666681088e-02,7.013281837694586296e-02,1.242091416940806041e-02,-1.136736721358101460e-03,-1.317175298395491332e-03,2.974690198898315430e-01
3.437469533169863478e-01,5.846189681323650522e-02,5.624906956367586863e-02,-1.907559766379007858e-03,1.346191120042276304e-03,1.219227858890806378e-03,2.864342033863067627e-01
3.345102651678663053e-01,5.375571244813311111e-02,5.563360282717015604e-02,-6.407920290183169920e-04,1.462213734142176922e-03,2.876409136726474454e-04,2.798344492912292480e-01
3.337316141153409133e-01,5.234403663803821605e-02,5.185995594971898326e-02,2.501182265512735727e-03,-2.972336075265098309e-03,3.841599813503480520e-03,2.817888557910919189e-01
3.246222793690172193e-01,4.089801819599264698e-02,4.440692502612843262e-02,3.925183615143962843e-04,1.762479001423701282e-04,-4.168002301076443802e-03,2.820795476436614990e-01
3.319468024693555952e-01,4.715304002748964274e-02,5.211347831690442411e-02,2.774215756596233487e-04,1.426305150801160512e-03,1.216903795447492245e-03,2.823653221130371094e-01
3.335123586616504654e-01,5.390917403973340127e-02,5.708889915697243356e-02,-3.965182544115931928e-04,1.276827573511930998e-03,-5.322200427109825881e-05,2.780366241931915283e-01
3.334819757684149288e-01,5.200574605945842976e-02,5.416532284281869170e-02,5.996318826398856511e-04,-8.264784998693816293e-04,5.296759165685767465e-04,2.804097533226013184e-01
3.207052451572116603e-01,6.203783686102674888e-02,2.909415914631548195e-02,1.803379319617780079e-03,-3.239818939769648597e-03,-6.005834027364399200e-04,2.766909897327423096e-01
3.959280875717721138e-01,5.332953556890558666e-02,2.205075301248138331e-02,7.770727622633187039e-03,-6.100094708108237326e-03,4.310357819850987133e-04,3.596686422824859619e-01
3.291674907016396978e-01,4.226102414938726071e-02,4.302509629339869301e-02,-1.410160940116198251e-04,3.229652028421717445e-08,-4.075757343232546824e-04,2.865261733531951904e-01
3.263903844334414828e-01,5.123004726286793653e-02,4.313828514463315111e-02,-1.460087849663144893e-02,-8.607439427729272896e-02,-5.364282964731654536e-03,3.177381157875061035e-01
3.244815700215861742e-01,3.519153804964429699e-02,5.609562477000136493e-02,3.162704267643685332e-04,-2.780960000663925991e-05,2.276628579749983856e-03,2.794534265995025635e-01
3.746168751068941205e-01,6.538607423434157628e-02,6.006400963386290814e-02,-1.253089570880091663e-03,-9.161326137582236420e-03,-2.078360358951468392e-03,3.123575150966644287e-01
3.422016112099362517e-01,5.606508806597777783e-02,5.886414402586442884e-02,-2.300352276640217110e-03,4.273118789768773178e-03,2.912271148298602695e-03,2.849160134792327881e-01
4.932413356339529487e-01,6.538003819044532761e-02,7.674905150624114492e-02,-4.216950728910736496e-02,-1.831494839379145187e-02,-1.383875148885577340e-02,4.304019510746002197e-01
3.592852978930510810e-01,6.112740120222351359e-02,6.215384936646253800e-02,6.544159191607009686e-03,-9.787690181120564659e-03,3.429977737368992540e-03,2.984029352664947510e-01
3.266578682154999136e-01,4.117102918657440658e-02,5.237764704238406788e-02,-2.484820494067372949e-03,2.229865627734990002e-03,1.515912377881525885e-03,2.801237404346466064e-01
3.313234796786433956e-01,4.962384672057112978e-02,4.820934396318317383e-02,-4.750012858059742796e-04,-7.394742295046657617e-04,-1.610244793536702319e-03,2.824274301528930664e-01
3.725556351940608191e-01,6.326608661806119860e-02,7.016548476809425505e-02,1.935760231213954144e-03,1.589303985066492161e-03,3.681047029957312897e-03,3.059954047203063965e-01
3.374788363820798720e-01,4.460120072184864393e-02,4.861153455213913788e-02,-1.102901423191308700e-03,-1.207565737366590166e-03,-2.004073020040112677e-03,2.909277081489562988e-01
2.715382373461408538e-01,5.584798761624673591e-02,4.638107872497566897e-02,-1.441703559221467652e-03,-9.579397599853567771e-03,-9.821792272909357635e-03,2.218665331602096558e-01
3.212327864431988589e-01,4.258907569862178943e-02,4.865185549506487184e-02,-1.135302222666871412e-02,-6.306752579887566455e-03,-9.481720554586084426e-03,2.770657539367675781e-01
2.846063487465083086e-01,5.690067622992514562e-02,3.495629918632918443e-02,-5.649085502823120684e-03,-6.731136701775393416e-03,-8.177504241203685867e-03,2.403342723846435547e-01
2.945320368181943982e-01,4.503175872449198536e-02,4.879707212122084969e-02,-1.197009530698601781e-03,-3.014010822397726001e-03,-9.248697555004493920e-03,2.482202351093292236e-01
4.053966866655411283e-01,5.907229974577804521e-02,6.331190815721057796e-02,-3.512478312484017262e-02,4.130846043415432878e-02,5.940901405582026465e-03,3.569545745849609375e-01
3.327909997006174847e-01,6.238550081884172704e-02,6.062553840194513655e-02,2.041805390747856920e-04,-1.370214989260752116e-03,4.815173150919275840e-04,2.713016569614410400e-01
3.103272134527479409e-01,3.710988005164209125e-02,6.993979919541379320e-02,1.725262218915499203e-03,-7.341833280970683001e-04,3.446875960101198916e-03,2.584608197212219238e-01
3.350214953488652725e-01,4.126404558108057175e-02,5.645625611931118226e-02,1.169678031939858044e-03,-2.729112778209659700e-04,-1.144732831309542556e-03,2.864780426025390625e-01
3.226179745624446760e-01,3.075494037896771282e-02,5.951105435025286217e-02,2.455284029522662378e-03,6.936045150140456332e-04,4.251736467898877513e-04,2.786362767219543457e-01
3.456181173189207811e-01,6.429241972387780835e-02,6.468787089924499245e-02,1.826450600034122294e-03,1.562988563313853427e-03,-2.311718819574480263e-03,2.811875343322753906e-01
3.738059810220909496e-01,6.437794615467835879e-02,6.660778896899750834e-02,2.189161985748495649e-03,-2.629342557374517424e-03,8.871670942733131263e-04,3.083799481391906738e-01
3.343765577858172078e-01,6.241514844354520419e-02,6.552184316277022413e-02,5.591348728113021589e-04,2.518813235027097240e-04,-4.048129589732924307e-04,2.704244554042816162e-01
3.110094657164524379e-01,3.776868431102452239e-02,5.059531862610512631e-02,-7.587272646144679802e-04,4.470315696363737928e-04,4.080533397546532923e-03,2.671564519405364990e-01
3.347809329201820727e-01,6.471098476997372284e-02,6.233597277379308854e-02,-1.172064703768427708e-04,5.292057631144128464e-04,-4.588865511493303681e-04,2.712680399417877197e-01
3.328555057553259644e-01,6.481524475760074011e-02,6.116404351754467505e-02,1.226649560200725447e-04,-2.423518052461564004e-04,9.330775188813681406e-04,2.698896229267120361e-01
3.551576406183200030e-01,6.626186937407836652e-02,6.122859959824678011e-02,3.612281729854491686e-03,1.604941476742321321e-03,-2.220772645358730629e-03,2.915507853031158447e-01
3.443749103286257718e-01,6.320284644198895241e-02,6.050619809734218701e-02,-2.768780674819700319e-03,3.994334230587942396e-03,-1.142968112249848154e-03,2.826623618602752686e-01
3.356298142602636148e-01,6.281975688361181309e-02,6.436979353343091903e-02,2.436000947060617660e-03,-1.491630699454591768e-03,-1.448438691187059002e-03,2.720949053764343262e-01
3.311961694454517158e-01,6.459856918956242977e-02,6.139244763416924766e-02,1.422882958723543304e-04,-7.278252941294337860e-04,9.274467055614588236e-04,2.682229280471801758e-01
3.234733016195662225e-01,3.851391365076038686e-02,5.175696445673802493e-02,1.128189904472305140e-03,1.640909761153814530e-03,9.489559304089407793e-04,2.786002457141876221e-01
3.082685263918506502e-01,4.536934652517282673e-02,4.936401640292061022e-02,7.237481462882371791e-03,-1.050608584564181750e-03,8.561411309219566293e-03,2.616526186466217041e-01
3.362658980496755490e-01,5.492254622866403480e-02,5.434904796628044210e-02,3.060822247277845054e-04,-2.205494989884422379e-03,-6.636367809316984310e-04,2.816592752933502197e-01
3.350692714395144267e-01,6.129131380465947798e-02,6.103352244603663102e-02,1.501392394521330149e-03,-5.554073929366557102e-04,3.961164719099630112e-05,2.739209830760955811e-01
3.313596977296385804e-01,5.444827413482879186e-02,4.414648966091644366e-02,-1.218501291316839447e-03,-6.179842586471808461e-04,-1.699511938813166867e-03,2.822286486625671387e-01
3.373722191578002461e-01,4.926757365968083280e-02,5.855998417484481466e-02,3.486197568905233159e-03,-3.443693496151674599e-04,-7.833041814277778240e-04,2.836408019065856934e-01
3.316329716136837691e-01,5.919369297695109555e-02,5.728520130057594695e-02,-7.239219752942140790e-04,-4.731266677940579356e-04,-5.027527506596206179e-05,2.734026312828063965e-01
3.498292186182067054e-01,6.008403979557212782e-02,5.803258060395298512e-02,2.540540981303590889e-03,8.144874932622805236e-03,1.902105865217687498e-03,2.911702394485473633e-01
3.305986307056371087e-01,4.456550667012267042e-02,5.108174738254789293e-02,-1.059213558018036331e-03,-1.171070590653218630e-04,-3.540220021210653740e-04,2.828379869461059570e-01
3.384578079605808365e-01,6.848245978657006849e-02,5.957397578689682671e-02,1.640075651490337759e-03,-1.657020253999963357e-03,7.072758574297791350e-04,2.745704352855682373e-01
3.071100164104835217e-01,4.786266604497907418e-02,4.056319193256130440e-02,-1.029301047558308898e-03,-2.512408731105483708e-03,-7.283579550135158877e-03,2.633174955844879150e-01
3.350442292470819927e-01,6.057815960106111008e-02,6.114312290570328434e-02,2.732965685484030393e-04,2.080473258685674228e-03,9.500204979963110599e-04,2.742130458354949951e-01
3.017042186997102027e-01,7.009262937931541593e-02,3.455289491988997042e-02,-3.339492707945534121e-03,-1.464496745895239004e-02,-4.578656281213590133e-03,2.527413368225097656e-01
3.173399126083091826e-01,5.195677422186127659e-02,3.626386560510802548e-02,-2.569483777871628665e-03,-5.051627575981640361e-03,-4.549362966174540918e-03,2.738568186759948730e-01
3.238969958746819033e-01,5.334025528319100151e-02,3.730177371861392865e-02,-1.570285060526029758e-03,-2.900441859847816342e-03,-3.962015508640301907e-03,2.790649235248565674e-01
3.087077853766665436e-01,5.546546558692604101e-02,3.065837241214716680e-02,-5.425165516934923708e-04,-5.085910631991071365e-03,-3.956930906365771494e-03,2.667484283447265625e-01
2.962869289537272133e-01,5.349804771447302931e-02,3.649460937498591462e-02,-3.598904624348261343e-04,-9.644119064488795856e-03,-8.698012629003258958e-03,2.527255117893218994e-01
3.304466835287631632e-01,4.540885204428231348e-02,4.490775143547408310e-02,-9.753722829143805198e-05,3.757749718462853562e-04,1.632694373073275687e-03,2.853035330772399902e-01
4.307158092839203922e-01,7.532826658332224257e-02,6.591387420344362036e-02,-1.781775877623691801e-02,-8.693173104280882413e-02,-6.340667297477516062e-03,3.917640745639801025e-01
2.134675820321110529e-01,4.994144729220375417e-02,6.164721496893386249e-02,-3.814684314119737643e-03,-1.629192202343661758e-02,-4.903805143479413910e-03,1.608592569828033447e-01
3.272217700856041023e-01,3.880367341285195781e-02,5.191447860866349462e-02,-1.269714584747545002e-03,-5.567854053412919606e-04,-1.555994360840272372e-03,2.821143865585327148e-01
3.580562089883365662e-01,4.776562771239439842e-02,6.535360034076391489e-02,1.046031503275419126e-02,3.469080332602557078e-04,-2.714990163087261169e-03,3.024614453315734863e-01
3.605528705852790172e-01,6.363529263128772651e-02,6.214683743753840472e-02,8.107768479602170397e-02,1.220624798786214271e-02,-3.740341420221208741e-04,3.298065960407257080e-01
3.436308789310615897e-01,5.951306283334850677e-02,5.728195680632681974e-02,4.951753708637998685e-03,-3.605327553875225491e-04,7.734345813130369136e-04,2.853726446628570557e-01
4.023142321270445354e-01,7.549379300516574631e-02,6.369631609752278434e-02,-5.361891205826765927e-03,-5.201668104030190715e-04,-8.780735877252063325e-04,3.330102264881134033e-01
3.758738458569313989e-01,7.102409178560643854e-02,6.179101440459269790e-02,5.297497329048934771e-03,-2.004539865135425598e-03,-1.059216724880695159e-03,3.097304105758666992e-01
3.486652649101106838e-01,6.277194647605532918e-02,5.954059533775092616e-02,1.730027193363423491e-02,2.190086249565715692e-03,9.622393878213820377e-04,2.891095280647277832e-01
3.402207702912970477e-01,6.101576919010862077e-02,5.829673528753234746e-02,5.959513547080834894e-04,5.963497448866108240e-03,-2.322031165227001794e-03,2.807951569557189941e-01
3.326750869055724591e-01,6.201535388908650803e-02,6.038220284936432480e-02,3.792383438170585943e-04,-5.139110379946688597e-04,1.270352697438210086e-04,2.714823484420776367e-01
4.307920588868267009e-01,5.662690760437361082e-02,8.143915405123036688e-02,8.306711598776508887e-02,2.106844579769806200e-02,3.057933677820096584e-03,3.916522264480590820e-01
3.286762171348893702e-01,4.283507356246789299e-02,4.171932145456164198e-02,1.554628697089026161e-04,1.066493112189095046e-04,-5.691878142039527100e-04,2.864025235176086426e-01
1.671673789948116551e-01,6.914232310737372655e-02,6.059563328355640349e-02,4.631602734236328275e-03,1.473205584428264638e-02,-1.099312774559131454e-04,1.059964075684547424e-01
1.020317574370051411e-01,6.153345182468669683e-02,6.646199281671259784e-02,-8.263717315411912151e-03,4.102928488632679067e-03,4.037009096434149118e-03,4.206028208136558533e-02
3.581699268284856963e-01,5.887733811997378219e-02,6.365786368212443536e-02,-5.977291703219157412e-03,-5.546767356601103004e-03,-2.259900635960425397e-03,2.972926795482635498e-01
1.552625399553816399e-01,7.001458621008681271e-02,7.414495980954269316e-02,-1.046167351029242236e-02,2.424278400455565780e-02,5.407393488365566658e-03,9.545347094535827637e-02
1.640356283092020417e-01,6.950772392634951835e-02,6.138036889987899536e-02,-6.972768449355835375e-03,1.148609556198609653e-02,6.368859502726903661e-03,1.021429225802421570e-01
3.520343420004917179e-01,6.047288754295604418e-02,5.353242668598369447e-02,-5.921101142737788398e-03,2.919056080783744359e-02,5.396498980164299991e-03,2.997142672538757324e-01
3.600708646708676852e-01,6.121104020603657103e-02,6.162081743143767165e-02,-4.317798728221996021e-03,6.026728634123469305e-03,-5.125941653379905913e-04,2.989324033260345459e-01
3.716229231637163677e-01,5.890828635967569615e-02,5.857247854633448880e-02,-8.224661250151374739e-03,4.415402776251974720e-02,2.153744373133867525e-03,3.224300742149353027e-01
3.725573309655803578e-01,6.338447698131913222e-02,5.930426500476436436e-02,4.119082173426850610e-03,2.754582385910369149e-02,-9.149667966302037735e-04,3.149535357952117920e-01
3.438484958867321639e-01,5.882246053282894072e-02,4.861855391368516410e-02,-1.206547252909923561e-03,3.793290655720959331e-02,1.186564689116848198e-03,2.976199686527252197e-01
3.351502206069754131e-01,4.544074568485410859e-02,5.338105030662612660e-02,4.153709650607603928e-04,-1.071794411243075880e-03,-8.883567979760442681e-04,2.858331203460693359e-01
3.366031241313912625e-01,4.570402384599654699e-02,5.351684331269355999e-02,4.151718504670168924e-04,-5.224121980766167255e-04,-8.879307903469687430e-04,2.870788872241973877e-01
3.363578936989471968e-01,5.358345249770862795e-02,5.650129419114548190e-02,1.421584855601975162e-03,-2.362813081838569407e-03,-2.811802280576069396e-04,2.813678383827209473e-01
3.195513242601332182e-01,3.388122751880737193e-02,5.546462397669613131e-02,4.090776738809840524e-03,-8.011349517605811585e-04,4.111112890150194973e-03,2.756997346878051758e-01
2.482257461050200731e-01,6.520529444134505470e-02,6.274268713037446654e-02,-8.569875596655426864e-02,-3.788717329561114289e-02,-1.679283749127984853e-03,2.455623447895050049e-01
5.192767481467378543e-01,7.795833120540596184e-02,7.917035193404586835e-02,-2.168258275980709457e-02,-1.509120241685268232e-02,-1.207232156918720302e-02,4.435756802558898926e-01
2.702822884452284469e-01,5.071436642189335042e-02,4.696732634329001121e-02,6.724926908512664225e-02,-6.041356326438959701e-02,5.261495391871939126e-03,2.713792324066162109e-01
3.346120382468548149e-01,6.369578629628223909e-02,5.955346235793784748e-02,1.153657225133502976e-03,-2.099362694277789789e-03,9.293308939371579345e-04,2.730472683906555176e-01
3.330119106912913240e-01,6.716819328971064540e-02,6.015872966453475468e-02,-4.331188442258346078e-04,-2.289934772114147338e-03,1.494756656780377342e-03,2.694595158100128174e-01
4.592677004156846543e-01,6.633431090980976275e-02,7.833063931448114303e-02,7.156049408496349684e-02,4.134374390304591806e-02,-4.458337985995585243e-03,4.127675592899322510e-01
2.569809298751196680e-01,4.732792724487228098e-02,6.436710011148999433e-02,-5.404926744765915086e-02,-1.291312046909877387e-02,-6.805228682719676771e-03,2.237756699323654175e-01
2.478980454227389663e-01,3.918201776039205442e-02,4.750352210973897427e-02,-7.907708130892476817e-02,-3.767567490129640484e-02,-8.546505586369176552e-03,2.552094161510467529e-01
3.235287197441374940e-01,3.547669077084422695e-02,5.812038201859072439e-02,2.037496366405051559e-04,3.632878745749150992e-04,2.460734879404511462e-03,2.774578034877777100e-01
2.527718493703225988e-01,3.654658818780494312e-02,3.891328607101171566e-02,-7.838866706863706346e-02,-4.013756948986114959e-02,-5.298109240687340349e-03,2.638159394264221191e-01
4.101401068152307761e-01,7.648496159391873772e-02,6.469254883509290011e-02,-4.501220976464284976e-04,7.583464183022104246e-03,1.615903384636311647e-03,3.399711549282073975e-01
3.339539512979846636e-01,5.472149272730740532e-02,5.737945769644405003e-02,-2.298165152398173958e-03,-6.318613825650210578e-04,-2.182017644209057860e-04,2.779439389705657959e-01
3.375386814828383875e-01,5.059114439153737652e-02,5.955022270565643594e-02,-5.386102025500402388e-03,2.511120284323160434e-03,1.039976217409338029e-04,2.827619910240173340e-01
3.369062558177811084e-01,6.804413570462938821e-02,5.870468962964242587e-02,1.303434415139023651e-03,-3.094042307836990680e-03,1.320981670885346560e-03,2.737227380275726318e-01
3.526983528455647776e-01,7.649765297031550781e-02,5.914315141236417550e-02,3.233425806425060684e-03,1.113548270882840042e-03,-1.048286561044923463e-03,2.853413820266723633e-01
3.468564935876824462e-01,7.738926824901540269e-02,6.051060595189475255e-02,-2.054382716238396279e-03,1.970912915393395210e-03,-6.760813753045593830e-04,2.783368527889251709e-01
3.472575579630423070e-01,6.878453788166775940e-02,6.127134075125498236e-02,-1.170245812050350914e-04,3.586025408283608482e-04,-2.949897298704080937e-03,2.823516130447387695e-01
3.391700570089437594e-01,4.982135211232227578e-02,6.112908379997945840e-02,3.162983218444769939e-03,1.638527595978102889e-03,7.681770849458618555e-04,2.839339673519134521e-01
3.328380501295985505e-01,5.892605971188792646e-02,5.420802904787130894e-02,4.908304258636585074e-04,1.395121050133671554e-03,-1.083856818562368941e-03,2.763194739818572998e-01
3.345439222316654027e-01,5.484317865758353561e-02,5.750255706813663104e-02,-2.250577379218154841e-03,-3.340835898069974073e-06,-1.062540262022470671e-04,2.784079313278198242e-01
3.478228296834982580e-01,6.166095430665582966e-02,5.966198011329276740e-02,-3.459833801114219499e-03,3.103582620517667760e-03,2.518619101341592822e-03,2.873125076293945312e-01
2.383546618017763907e-01,5.175652063956347193e-02,6.219344307456087934e-02,2.238367144308433393e-02,6.886383236323964131e-03,-1.404248968327742510e-03,1.860955506563186646e-01
3.329777658411059993e-01,5.756762634158520131e-02,5.678819432497829445e-02,-5.142138558912240148e-04,3.093475320047626900e-04,-8.629485911371029098e-04,2.758066952228546143e-01
3.458751080007900769e-01,4.948149882218458306e-02,6.037207678761112584e-02,-6.478043308661139699e-02,-1.046403663446920408e-02,-3.366516026358740664e-03,3.125570118427276611e-01
3.692611111927902035e-01,3.162791695628089372e-02,5.597490505238347791e-02,6.238175204483084602e-02,1.167820023110755986e-02,7.729568279561944803e-04,3.441714346408843994e-01
3.305552520950798545e-01,4.245012544788846764e-02,5.277929301232667236e-02,-3.061971012146109342e-03,-1.087617259457071203e-03,-1.464488055468736276e-03,2.831492125988006592e-01
4.040380555648214189e-01,7.517890528250621707e-02,6.463374973913522947e-02,-6.205736238533851416e-03,5.261720898080807750e-03,8.034434912369101296e-04,3.345563411712646484e-01
3.420828440124609737e-01,4.825322651819195785e-02,5.876133298072346023e-02,2.749834793794567016e-03,1.186859596373328937e-03,-7.275850542451196747e-04,2.887683808803558350e-01
3.362655281642463745e-01,4.422008097050565689e-02,6.072062410984392644e-02,-5.009756590558626932e-03,1.170417628728731606e-03,-1.081804454703868754e-03,2.843005657196044922e-01
3.657695410006563397e-01,6.779979503874081215e-02,5.687150835180262987e-02,1.844853909584850341e-04,7.123538026936848157e-03,-2.966337120715278582e-04,3.038326799869537354e-01
3.204121032567325278e-01,3.095763346614389955e-02,5.466151594130998215e-02,-3.011392968634905680e-03,-2.345031735155947428e-03,-1.910336108285197974e-03,2.784586548805236816e-01
2.701473692633953316e-01,6.398864251978633733e-02,5.264833779786415313e-02,-9.500308601200212200e-02,-4.966456031416026373e-02,4.890891418380513035e-03,2.819860875606536865e-01
3.359637836624952412e-01,4.594326055713796042e-02,5.622069782124786141e-02,-4.398768572417661830e-03,-1.356813671468119124e-04,-1.340545996429799410e-03,2.851321697235107422e-01
3.568853427071332352e-01,7.397510249629260515e-02,6.099825507871692309e-02,7.645153707468817922e-03,9.889108188635316321e-04,-4.626635266041534758e-03,2.900351285934448242e-01
3.529995092158382808e-01,7.366356167197628257e-02,6.049198908731000246e-02,-1.199750771503468611e-03,-1.061184641253361564e-03,6.332944166660277015e-04,2.861647307872772217e-01
3.410016009180348306e-01,6.983003262554074442e-02,5.721309294069264195e-02,-1.976612222615157198e-03,3.167377750598926629e-03,2.880911406895524975e-03,2.778151929378509521e-01
3.525625678484181624e-01,7.155488998644862764e-02,6.163805548992731809e-02,-2.462191690995890574e-03,-1.334901844901061757e-03,3.007876050189382203e-04,2.861366271972656250e-01
3.160624026807311027e-01,2.822805207755137158e-02,6.087632242888642298e-02,-2.207054592219609250e-03,3.982410007641913065e-04,5.787912762063078985e-06,2.730060815811157227e-01
3.556699440514614619e-01,7.119229968336077130e-02,6.078442616714781199e-02,1.440416676518435374e-03,-4.106491191070855951e-04,2.736368940452530395e-03,2.898721396923065186e-01
2.866848153487953077e-01,4.763674875015365406e-02,4.848072149563770195e-02,-1.110805969886371862e-02,-8.817712121769143499e-03,-1.069425806389143717e-02,2.406022995710372925e-01
3.171332876125245170e-01,3.517163444092132052e-02,5.514804952552131156e-02,-1.128821000471112636e-03,-8.840541232882189382e-04,-2.959215758205654793e-03,2.725826203823089600e-01
2.867465686160477478e-01,5.837235706547244662e-02,4.773663467559688400e-02,-8.515069989410524107e-03,-1.088864748705033018e-02,-1.049338900655352735e-02,2.357973009347915649e-01
2.520413259742575462e-01,5.496851952542396863e-02,4.079285504653293315e-02,-1.421013720928679218e-02,-1.710365826567585706e-02,-9.732625962754388321e-03,2.088057398796081543e-01
2.791824152640998147e-01,4.638374192816249741e-02,4.713151619675338966e-02,-9.959399515722314536e-03,-8.324349007968287473e-03,-1.063060858867187659e-02,2.342353165149688721e-01
3.482892208370075293e-01,6.151391225687900810e-02,7.274724331950842282e-02,2.051727798320621132e-03,-5.013516715805546760e-03,-2.407465454602644717e-03,2.815141975879669189e-01
3.464534356461326237e-01,5.631231877480402659e-02,6.058096236771626231e-02,3.419192010820964502e-03,1.716000932170045875e-03,3.303079332926025504e-04,2.881073057651519775e-01
3.047426826667222199e-01,3.677519669291005877e-02,5.671599378220104626e-02,-5.358184922550500613e-04,-1.408456205660575905e-04,-7.062124358650100422e-03,2.588653564453125000e-01
3.069539129531307919e-01,3.539704880259172959e-02,5.978520582652051274e-02,1.370555130935081217e-03,-1.711374755281189414e-04,-1.958719596467043550e-03,2.602544426918029785e-01
3.201304559903871971e-01,4.257745322693699819e-02,5.671777163655054854e-02,1.093392782784235974e-03,2.598858758147848001e-04,-4.756648532221392431e-03,2.708922326564788818e-01
3.962973312717019692e-01,7.050485984157210673e-02,5.774244197622989405e-02,4.054292791954287878e-02,-7.743454648433879817e-02,7.585556685974371299e-04,3.652160465717315674e-01
3.724140899827476647e-01,6.435987389084581178e-02,6.633374075633838296e-02,-8.676510938042663202e-04,4.639681477184218021e-03,-3.230556925462453946e-03,3.072318136692047119e-01
3.387229443223949144e-01,4.785192002278743084e-02,6.062117747658266054e-02,4.677207457676140108e-03,3.050299948083191621e-03,1.048691247439415128e-03,2.848712801933288574e-01
3.335288713417761119e-01,3.441319028367949284e-02,5.691586419137829866e-02,2.529832215825216727e-03,-4.519472020440968543e-04,-4.938797651599693668e-04,2.885588407516479492e-01
3.222028397832004676e-01,3.195902519204318892e-02,6.130556204529742648e-02,3.493357915663205829e-06,1.399040025310712559e-03,-1.044557895650498450e-04,2.767506837844848633e-01
3.790863270460683720e-01,6.043100849287055820e-02,6.696970813363808950e-02,7.124360342313035277e-03,-8.130687110551649589e-04,3.600068209609170403e-03,3.157427906990051270e-01
3.445692025597510977e-01,6.821167875977331152e-02,5.754523501691913290e-02,1.791835946360518031e-03,-9.003774054539825651e-05,5.340863844166674661e-04,2.818607985973358154e-01
3.162773923959151245e-01,4.955137223155280102e-02,5.818260124322451043e-02,3.059033494364769151e-02,-3.163370123916040000e-02,4.725497474920467046e-03,2.734802961349487305e-01
3.395078964499810836e-01,6.097712139203986803e-02,5.120986035021295180e-02,3.656618484056580777e-03,-1.728435360346344818e-02,1.011228111911462169e-03,2.851924002170562744e-01
3.351508442915202002e-01,5.614081708618234856e-02,5.039023510241107118e-02,6.643064484582935367e-04,-1.641419509818974228e-03,-4.186730738106325136e-04,2.819469273090362549e-01
3.382657810229601769e-01,4.677634724219696671e-02,5.605979513811669424e-02,4.711935321609829475e-03,1.241115652702472682e-03,4.032169806915157574e-04,2.870852947235107422e-01
2.157287199377969089e-01,6.376555050289908766e-02,6.507265064057898840e-02,-2.442069407280785323e-03,2.913682168669768854e-02,-1.123048473340894880e-03,1.595757454633712769e-01
2.928335193734222242e-01,5.048148085275237784e-02,5.382410562883538363e-02,1.283073615278080898e-03,-5.492639136830390449e-03,8.983165246070913199e-03,2.413982748985290527e-01
1.522136922529074565e-01,6.617610571283159826e-02,5.539744382901849035e-02,3.933633630940609749e-02,3.170960318724991289e-02,-2.684466902089101704e-03,1.269888728857040405e-01
3.380903032991774415e-01,6.070308788590549065e-02,5.977754902072016097e-02,-4.634446740401676999e-03,6.486707115823698048e-04,-3.310103437970517170e-04,2.779699265956878662e-01
2.859041804013967569e-01,4.516571512484418571e-02,6.378293118994901589e-02,-2.853902882179749998e-03,-1.271533315231300303e-03,7.210917073696492333e-03,2.323897778987884521e-01
2.559824378297117509e-01,5.750049979528085164e-02,7.301241812838867029e-02,1.632985571800724817e-02,7.267008447306951176e-03,-9.686617451855445652e-04,1.936958879232406616e-01
2.556202231617092924e-01,5.310185343060119800e-02,7.094219233007718894e-02,3.762696975947099620e-02,-1.509377761052474454e-02,8.617040215178917726e-04,2.065236866474151611e-01
3.306844310230899753e-01,4.578698274660054912e-02,5.008337770354362450e-02,-1.010637641305258457e-03,-1.994104720219633513e-03,-2.462944862918723787e-03,2.828324139118194580e-01
3.426393605132691533e-01,6.843472205489090077e-02,5.997409899168723579e-02,2.703888408875587245e-03,1.241717170554151677e-04,-4.979621135932754249e-04,2.785721421241760254e-01
3.479723000939008992e-01,7.611993941032724198e-02,5.986054148865438407e-02,1.365901815175003223e-04,1.593808141687262344e-03,5.186413275898547892e-04,2.803510427474975586e-01
3.411696829756749594e-01,6.892043545682739747e-02,5.959130421674696532e-02,9.161220997046178342e-04,-7.268930351185119883e-04,8.400982795137987768e-04,2.770428657531738281e-01
2.875307019529506625e-01,4.308424847317114670e-02,5.900845111572440571e-02,1.049916230926096518e-03,8.105532692915553422e-03,-6.593158663671739098e-03,2.375833541154861450e-01
3.469045625059936078e-01,6.326549358260480371e-02,5.958528195501773539e-02,2.128226575129184717e-03,4.332644985583263518e-03,2.227639158926397658e-03,2.856454253196716309e-01
2.529149480743936307e-01,5.030836319556773739e-02,5.518506221668183220e-02,1.662962340199053424e-02,7.925631129802974614e-03,-7.841872150790877780e-03,2.031938135623931885e-01
3.451648213633041196e-01,7.142783596277449409e-02,5.798801130876085619e-02,-4.814914965535073768e-03,5.336955282747509214e-04,-1.435887171928034956e-05,2.808237075805664062e-01
3.359560336849150564e-01,4.333016553214262545e-02,5.689944536500317340e-02,-4.977340670417109217e-03,-3.183448717924831743e-04,-1.697842315938146275e-03,2.862281799316406250e-01
2.872579098315315438e-01,5.795397242927589898e-02,6.983911198961885447e-02,4.009258453926345389e-02,2.662394012315685149e-02,1.709257505985732747e-03,2.386498600244522095e-01
3.137665838933130225e-01,2.976997071202547307e-02,5.934817128328624680e-02,-8.272570951148340568e-04,-1.710688371176455596e-03,-1.066982142387973764e-03,2.704497873783111572e-01
3.337207374417578420e-01,4.616650882401923672e-02,5.889910909549989082e-02,-4.927415007139075015e-03,5.127245753317691295e-05,-7.640373589350019090e-04,2.815365791320800781e-01
3.279555397963692109e-01,5.308111625975801828e-02,3.742249182909097860e-02,-1.781697567098151913e-03,-2.416137617968555293e-03,-2.962893280182057540e-03,2.831230759620666504e-01
3.419009539498751304e-01,6.364106294128688002e-02,6.140877256485431646e-02,-6.356803894901074531e-03,2.131594029660652950e-03,-8.766900588251181270e-04,2.796280980110168457e-01
3.044619844282648313e-01,3.869245402126600397e-02,6.138331572317112794e-02,-6.218176587937074631e-03,-6.322043103688030664e-03,-7.331647535166124253e-03,2.559588551521301270e-01
3.170232144783732831e-01,3.446923269111201726e-02,6.220136424484953852e-02,-5.900434622509103701e-03,3.865285885166259451e-05,-4.541047335929238732e-03,2.700672447681427002e-01
2.993796369557892856e-01,3.325707837152064306e-02,6.305342233199164037e-02,-1.058157581108890889e-02,-9.220285428214895556e-04,-1.247717006619797992e-03,2.532245814800262451e-01
3.365720506735467854e-01,4.394469603324246965e-02,6.161975477795939016e-02,-9.114474446392968610e-03,3.034725551977964474e-03,-4.370321050768407418e-04,2.846899926662445068e-01
2.691502292026994869e-01,2.904299102756617568e-02,5.958544883818906596e-02,-3.717848771707395888e-02,-7.006124544796053615e-03,-3.816918672873438698e-03,2.357722371816635132e-01
3.204178199218761236e-01,3.005848476472457176e-02,6.044015810435018898e-02,-1.261693448322575260e-02,-1.566843948963869129e-03,-3.477785484938805422e-03,2.773647308349609375e-01
3.283078416827994728e-01,3.586869258763410173e-02,6.123226801508263595e-02,-6.325871781174193312e-03,1.088341814111550791e-03,-1.060207433695086647e-03,2.808445096015930176e-01
3.042679527863770272e-01,2.783388979081849457e-02,6.069460368252066473e-02,-4.304532023044453301e-03,-6.131689934544245005e-04,4.559672535042112685e-05,2.616648972034454346e-01
3.149247810880727583e-01,3.021701027821425967e-02,6.082233152212303262e-02,-8.339180934272724362e-04,6.996625811679775498e-04,9.396910646576844654e-04,2.707172632217407227e-01
3.030871715434920732e-01,2.884486607101625910e-02,6.148335523418042847e-02,-4.400371693122232496e-03,-1.163427499582919792e-04,9.213029162775021510e-04,2.595841586589813232e-01
2.460483598732133848e-01,6.213118992363754478e-02,5.583479059862754557e-02,1.042470331237336893e-02,1.191730909794742541e-02,-6.018315666782263727e-03,1.894305646419525146e-01
3.219927151501085771e-01,3.358917426070408274e-02,5.665199626663143528e-02,-3.925515202147872307e-03,1.957049982160302508e-03,5.959071662809268654e-04,2.776974737644195557e-01
1.926654981384291476e-01,7.683635333719518457e-02,7.953591018359784659e-02,1.261964661084874310e-02,-5.173381184436123825e-03,6.817747437385463655e-03,1.175095513463020325e-01
2.477679770546214189e-01,6.742061895241827085e-02,5.906660173383258827e-02,-7.511203401988288293e-03,1.756929528249066841e-02,7.185634095125584264e-03,1.880206912755966187e-01
2.069481945337308670e-01,5.990825963330450449e-02,6.725302824490494991e-02,1.001336186653214826e-02,1.222587418179758162e-02,-1.687654266108011298e-03,1.461248695850372314e-01
3.300948055213424603e-01,3.547756760261057407e-02,6.089915093302944449e-02,1.266723357887004041e-02,4.605415549646508610e-04,-9.425719012079316434e-04,2.836205363273620605e-01
2.922583767647043418e-01,6.716775303284593102e-02,6.444644917590962307e-02,-9.177718225603098690e-02,2.824177699247933104e-02,-4.531866806338071679e-03,2.810859084129333496e-01
1.772349123100999679e-01,6.676856603768363541e-02,6.282127734314441048e-02,4.890694381268829993e-02,1.878635488813448079e-02,-2.454005933523974690e-03,1.445923596620559692e-01
2.438042258682926178e-01,6.029760259445945958e-02,3.413227535521515255e-02,-4.422428134387875777e-03,-1.577553695831465652e-02,-1.120126940450638306e-03,1.999246329069137573e-01
3.303009834689841773e-01,3.247740631124340638e-02,6.104497418509101381e-02,4.145122726601027825e-03,1.606974772283786563e-03,8.421051166498536239e-04,2.847249805927276611e-01
3.321375695049738619e-01,4.316734192874568943e-02,5.224017379242822112e-02,7.604220701737465522e-04,2.212895256452479791e-04,4.657676755169944615e-04,2.845467627048492432e-01
2.001548314963295105e-01,5.225201299496730345e-02,6.857742834988543590e-02,4.089122627425942347e-02,7.720576013208763771e-03,1.803441486092579411e-03,1.578988432884216309e-01
1.833287226019665594e-01,4.249195453127502936e-02,5.997316847207590645e-02,2.481018857880662107e-02,7.718827342568707929e-03,-1.202870429274508282e-03,1.403862833976745605e-01
2.515944214156990988e-01,6.676148025741164560e-02,6.054135680228142635e-02,9.630561662553554711e-03,-2.012854246191490490e-02,9.940982813210997790e-03,1.927220225334167480e-01
1.657405330014695977e-01,5.582333848084705674e-02,6.866806758679970535e-02,1.564156690363073879e-02,-9.260679639165584134e-03,1.416875094345002462e-03,1.087759137153625488e-01
3.345739757602900211e-01,4.917813823256593497e-02,4.119734481030171147e-02,5.042087926729506286e-04,1.626781483482285561e-03,-3.123423168055425216e-03,2.895343303680419922e-01
3.417804494357252754e-01,7.492745808879519576e-02,5.891628868941306552e-02,1.353903255106827640e-03,-8.371097150370020992e-04,4.531653490700670163e-04,2.752230465412139893e-01
3.325238963021937555e-01,4.839617589371390804e-02,4.631346883995592079e-02,9.194021677677450535e-04,4.971849180866424675e-03,-6.419633585923564985e-03,2.855257987976074219e-01
3.285464220271188118e-01,5.834407182151341020e-02,3.704883793433604022e-02,2.148472211804531608e-03,-7.360573276607914120e-03,4.719061575150702869e-04,2.817691862583160400e-01
3.371627094008825543e-01,5.490234290361145630e-02,4.849269924247959218e-02,-1.394130949413971800e-04,-1.283657488156423601e-03,-2.115476572352544514e-03,2.855514287948608398e-01
3.517221395033677256e-01,6.176474583749456959e-02,4.384162605896198273e-02,-3.980028067130733302e-03,-5.799084976398354713e-02,-7.168136913776605029e-03,3.160442411899566650e-01
3.111651006242645012e-01,3.448606586822854092e-02,6.216563922137054166e-02,9.536950665192448634e-03,-2.001839887584268285e-03,1.813998883240481880e-03,2.644878923892974854e-01
3.372849571508206301e-01,5.572378390185392383e-02,4.920563553146427294e-02,-3.503183744531518243e-04,-1.902672835450717722e-03,-1.332296102333379575e-03,2.849052250385284424e-01
3.304134662145941093e-01,3.398691588535876495e-02,6.051783618730353920e-02,3.215316870373196006e-03,6.304381224348812275e-04,1.185361516352142694e-03,2.841558456420898438e-01
3.364048438420231824e-01,5.314233353231281876e-02,4.085746648062628383e-02,1.975004675385460217e-04,1.829251863336979218e-03,-2.339348870847733110e-03,2.896462976932525635e-01
3.369424080515055486e-01,5.416029329475406662e-02,5.124056796270230751e-02,-1.647185297234923101e-03,-1.589068293343496533e-03,-1.411590212606613198e-03,2.842913866043090820e-01
3.368144427789880879e-01,5.355145115850915016e-02,5.221144129753152452e-02,-1.880073313880652706e-03,-1.643080456674154326e-03,-5.433812050357287454e-04,2.839698493480682373e-01
3.170205186681973597e-01,6.021814414321106923e-02,3.615094522767725582e-02,2.062050119251637812e-03,4.187186867263818129e-04,-3.465356145915341607e-03,2.697341442108154297e-01
2.653033568878599424e-01,6.437002399331699654e-02,5.603913258272198716e-02,8.355222628838981360e-04,-2.569173909128738120e-03,7.244124762708057524e-03,2.056620717048645020e-01
3.421628783467386414e-01,6.763325340943159014e-02,5.665858126535751327e-02,2.531954794920580204e-03,6.218092387411365291e-04,-5.809838582067996832e-05,2.802146077156066895e-01
3.320382826299298484e-01,5.565602720710639828e-02,3.851598309895315486e-02,6.943331581933340560e-03,8.064400322701626919e-03,-3.242276866020301143e-03,2.859884798526763916e-01
3.402771588884608844e-01,6.043300573568245737e-02,6.130954373936096935e-02,-7.189873493956879143e-03,1.177317921482056665e-03,-7.358654174923418478e-04,2.796946465969085693e-01
3.847379904154655250e-01,6.032285802344446168e-02,5.981552179899746191e-02,1.153310264863819171e-02,8.603774016429177694e-04,-4.258396656897700243e-06,3.252864480018615723e-01
1.505580791792162920e-01,4.460753382624797758e-02,5.302474097614919002e-02,-7.485591257001888987e-02,-2.536836768950779045e-02,-2.855193833145657726e-03,1.707919836044311523e-01
2.861167737990050197e-01,5.455667899534663579e-02,3.139870682949046088e-02,1.828904783608286235e-03,1.320316483088762594e-02,-3.895706795333418130e-03,2.451476454734802246e-01
3.389977202843920123e-01,5.949217980292699492e-02,5.741157218697340303e-02,-2.751364699759066296e-03,1.584658917898941390e-03,8.346061313346670439e-05,2.806055545806884766e-01
3.278738580277795744e-01,3.496592695623287894e-02,5.742446080416130361e-02,-6.317656200553670512e-03,-4.455715630609085741e-04,-1.732266724598500660e-03,2.825782895088195801e-01
3.378945233643692037e-01,6.247551973426390681e-02,3.678977742934368134e-02,2.319463027124509143e-03,1.561021130822696189e-02,3.542590571600640493e-03,2.904729843139648438e-01
3.150976693198503931e-01,5.933706512482693485e-02,3.046618954904152521e-02,4.454884202278852189e-04,5.905725722682361560e-03,-1.005811497510257502e-03,2.715498208999633789e-01
2.878520339774602865e-01,6.109117050700089979e-02,3.612215202015953142e-02,7.555288315368318981e-04,8.661478118716096214e-03,2.839278530342822376e-03,2.407423853874206543e-01
3.134010937331983548e-01,2.848845934987861983e-02,5.866167649327054534e-02,-4.749642464371869183e-03,-3.175726955008459709e-03,-8.983603700409275444e-04,2.712734043598175049e-01
3.401146061648262497e-01,6.159864439252774049e-02,5.866548531787407761e-02,7.782947058647940366e-04,4.773022359184862220e-04,-2.448064579747585671e-04,2.799988389015197754e-01
3.546439215623233832e-01,6.688249467019292960e-02,6.645730716783997127e-02,-8.969967970952280600e-02,-6.668236591820166093e-02,-1.341416173369355553e-03,3.470047414302825928e-01
2.483092001852365838e-01,4.324560900629294269e-02,4.554973292679924401e-02,-7.772204483065121849e-02,-6.867766490255480805e-02,-1.609289350791327485e-03,2.717787325382232666e-01
2.596442426177991702e-01,4.201226549278114231e-02,5.005221592162265032e-02,-6.311676266010032843e-02,-2.650099625760941532e-02,-3.518008293429148153e-03,2.444867789745330811e-01
3.393254459743465512e-01,6.848120374004315614e-02,6.508594920505476888e-02,-8.809120091535725672e-02,-2.919151728154201209e-02,-3.460114528395277864e-03,3.164810240268707275e-01
3.411264228820449773e-01,4.982019192679455755e-02,5.863782134410458480e-02,-4.449148135034573098e-02,-2.304504112558266454e-02,-9.329830588752271656e-03,3.002686798572540283e-01
3.342381160418972930e-01,5.568315597728427935e-02,5.509246567030028074e-02,6.858855944621739410e-04,-1.220968958266340854e-03,-1.817617137906038689e-03,2.788791060447692871e-01
3.395937319895019346e-01,5.770569081687336455e-02,5.728847645947438005e-02,-1.042311587182031402e-02,-1.284924914194581803e-02,-1.340968979778086462e-03,2.835582494735717773e-01
3.321327612185872580e-01,5.263627164803814928e-02,4.187077085124281395e-02,-5.777037476063223839e-04,-3.160440492511677312e-03,-1.929523661432542246e-03,2.851056754589080811e-01
3.346431535343402097e-01,5.642880985151897677e-02,5.276479730811736713e-02,-1.863169471060713463e-03,-1.220823946367367288e-03,-3.033375727463867404e-03,2.801401615142822266e-01
3.339699926596154667e-01,5.578541585965096639e-02,5.726259454173050767e-02,3.115408416004875037e-04,9.931588099791816612e-04,-5.352461045513586370e-04,2.774563431739807129e-01
3.156750704452744305e-01,2.975313896688031035e-02,5.852277086109046456e-02,-1.271492392694607886e-03,-1.311777339074265492e-03,-1.628787029370986792e-03,2.727107405662536621e-01
3.284013315978935310e-01,5.395111430892586546e-02,4.054991912960709266e-02,-2.148877163160582259e-03,-3.438326690633930482e-03,-3.350038300853968969e-03,2.815376818180084229e-01
3.492134763159464583e-01,5.787079388118741841e-02,5.544173494164923721e-02,3.228338187232940824e-03,1.501414469362422066e-02,-1.697806636194956363e-03,2.937861979007720947e-01
3.509001356538129501e-01,6.033491274363698975e-02,6.898968178989571542e-02,3.483522937373044383e-03,-2.025781851361412728e-03,-3.019871591876667721e-04,2.864214777946472168e-01
3.373708891583167002e-01,5.877948506755736879e-02,5.825515597514117905e-02,4.223887998079193899e-03,6.856365030208016326e-03,-2.768458101102710522e-03,2.792437374591827393e-01
3.632628927385472828e-01,6.147957419625944830e-02,7.203059255168155206e-02,5.397029550174655202e-03,6.112957979713083689e-04,6.604035999460627178e-04,2.967998981475830078e-01
3.498170191676184260e-01,5.848713909505380559e-02,7.233707086588435364e-02,2.709679050040029406e-03,-3.996724058406307678e-03,-1.415704897067904169e-03,2.847911119461059570e-01
3.596410155666664998e-01,5.775069481695532803e-02,7.359030304321678706e-02,2.646399088293309530e-03,-3.024180912292185382e-03,-7.304088933548217493e-04,2.943754196166992188e-01
3.323034161619131677e-01,3.172770763560787965e-02,5.613894507256925182e-02,4.130014500259471429e-03,5.128467263956388049e-04,8.775324040482412489e-04,2.892377972602844238e-01
2.505222712509596050e-01,6.485379129693988332e-02,4.364989049163307822e-02,1.400800427582733331e-03,-2.410368274240499639e-02,-3.359107336224809344e-04,2.015154361724853516e-01
2.567486950461184692e-01,7.681177556581106347e-02,4.475185339554500763e-02,9.637265744969673517e-03,-4.782972689810911782e-02,1.709290994507025587e-03,2.152308970689773560e-01
3.246078933992331272e-01,3.330516410929190707e-02,5.776070135601715783e-02,1.359032899015829915e-03,-3.523670479294293829e-04,1.159357290388932050e-03,2.798952162265777588e-01
2.463564514784855053e-01,7.232430700466629947e-02,6.244651391080151270e-02,8.655613965769878501e-03,-1.653760142119946666e-02,8.371395845339696037e-03,1.826452463865280151e-01
4.780335752135127514e-01,7.933076762358899636e-02,5.176794356765351823e-02,1.488718009726354256e-02,-5.089245210442142758e-02,-9.196583302780053995e-03,4.235584437847137451e-01
2.144355142865890795e-01,6.687664983642666039e-02,4.725265305914382041e-02,2.534852016412933104e-02,-4.438181232038115875e-02,6.695613956954855200e-03,1.817299872636795044e-01
3.378536589762940467e-01,4.397943277737538514e-02,5.673752511144203314e-02,4.505756383814713169e-03,1.949261979435725758e-03,1.768717562333085207e-03,2.878493368625640869e-01
3.333725326259459054e-01,6.351044512028743150e-02,6.167755449433433290e-02,1.043442799407782052e-03,-9.187581287377817076e-04,-9.197120143509767256e-04,2.707985639572143555e-01
5.677778171377964034e-01,8.404273267292627914e-02,9.435723728780889830e-02,2.610548345168968096e-02,4.709140617504007503e-02,-1.480796557299903296e-02,4.883355796337127686e-01
2.030817767573117605e-01,6.059057474119103337e-02,3.675764539013506860e-02,-8.300498117543041177e-03,-4.842250461319973220e-02,-2.060202706503405385e-03,1.775426119565963745e-01
1.779331789493135141e-01,7.068137224193501988e-02,7.161576852101897428e-02,-3.304143520476132082e-03,-9.357991224803990926e-03,-3.177964548594572249e-03,1.083022356033325195e-01
3.162719060396508297e-01,5.690410090000522225e-02,2.958589467774483395e-02,-9.743412898981714822e-05,6.936215032569230648e-04,6.592265081686917577e-04,2.740550637245178223e-01
3.392869056254511628e-01,6.067550225307973000e-02,6.060833239202113865e-02,4.905092619201583889e-03,2.912101409823553404e-03,-4.039716115205966782e-04,2.788209915161132812e-01
2.417307155398440988e-01,6.028589997198854911e-02,6.657999103933115448e-02,5.068459911614690144e-02,-9.551202412819488619e-02,-5.229305439620629027e-03,2.587977349758148193e-01
1.726832673171464216e-01,6.629011936777692848e-02,7.046814211305832409e-02,-7.896369287398282560e-03,-7.508643780555586920e-03,-2.738499731190854967e-03,1.061656251549720764e-01
3.139066253126010508e-01,5.112679234609225631e-02,3.889724745185012267e-02,2.348206184305733849e-04,2.131822744600964613e-05,4.820195795293810183e-03,2.692328989505767822e-01
2.099596752923447163e-01,7.300091310514850163e-02,7.746516141025731883e-02,-1.616056689447986812e-03,1.202285106429648760e-02,3.571742358894852785e-03,1.365502327680587769e-01
1.041203291327199854e-01,6.130641645945313079e-02,5.244362172058306820e-02,-9.542808592261447197e-04,-6.102689881872719324e-02,3.278368593895206163e-04,1.160471141338348389e-01
3.359090167087880330e-01,5.733612712593955107e-02,5.926513542771902343e-02,2.653245044993126234e-03,1.142562557442959375e-03,2.379244605303007764e-06,2.776584923267364502e-01
3.279840613586020859e-01,5.905218436958338535e-02,3.440369372928557545e-02,6.462952620187316539e-04,-6.456372734717528289e-03,-5.879978861258470038e-04,2.822906374931335449e-01
2.687751211288502695e-01,4.970635925171210112e-02,4.868287848520255756e-02,1.175757712494112685e-02,-1.021916380318829524e-02,1.171050773951994028e-02,2.221616655588150024e-01
5.720108659822469299e-01,9.012526628154485242e-02,8.417375617822991929e-02,1.073368464191571357e-02,-2.773232002414849004e-02,-7.002885209667013278e-03,4.877674579620361328e-01
2.038329036346502865e-01,4.078934420455815335e-02,5.393771761152892086e-02,7.228730519624210205e-02,4.223553333775887687e-03,-2.216372853886559424e-03,2.008903622627258301e-01
2.031631995854880079e-01,6.393645913804987813e-02,7.254604456605726059e-02,-1.433390191767277416e-02,-2.785121242916869990e-03,5.889803138282550653e-04,1.374780684709548950e-01
2.075235290941618294e-01,7.004572817119020245e-02,7.440136311269698877e-02,-1.830490615776385679e-02,-2.808426204974120091e-05,1.735642315078683544e-03,1.390487849712371826e-01
6.827263930790591906e-02,3.510135379207372786e-02,3.549728804673797644e-02,-9.421643436702265006e-03,-2.486003163423147061e-02,9.172873750999920028e-03,5.882301926612854004e-02
3.282623000599110274e-01,3.354943613676750203e-02,6.237047821577043627e-02,-8.372401833470188501e-03,2.288063640633753414e-03,-1.502271345038540284e-04,2.818128168582916260e-01
9.316851541759307853e-02,5.687900569677357965e-02,5.381593583498205796e-02,-1.496874031847254295e-02,1.201449561255850569e-02,-5.041368991342964380e-03,5.117566138505935669e-02
1.781920772007333231e-01,7.205347874503377492e-02,7.487838926259780814e-02,2.289064538128596227e-02,1.518861883847014323e-02,6.613021802247132618e-03,1.156234145164489746e-01
3.413136487235146621e-01,6.252067469254692089e-02,5.672295862262470567e-02,-6.372028414373754994e-03,2.466113481095511006e-04,-6.319332590739594382e-04,2.819551229476928711e-01
3.345830199171445640e-01,5.787733416238041717e-02,5.388615347831642033e-02,-8.548905016598563108e-05,-8.117055621081605295e-06,-3.787609690496059251e-05,2.787227630615234375e-01
3.384754116488223330e-01,6.673642140591207195e-02,5.677911704872007359e-02,-3.870754833491545435e-03,-3.271888303852407242e-04,-8.384035087054747060e-04,2.769375145435333252e-01
3.216147264753722590e-01,5.840589569504593681e-02,3.547121973544954676e-02,7.922449525114786534e-04,-1.755854087815968741e-03,1.063963969940582080e-03,2.754197120666503906e-01
1.402675637405875475e-01,7.241072853934153730e-02,7.313244398718850292e-02,-1.587968681103221411e-02,1.145197344422506543e-02,3.735985725262638401e-03,7.581495493650436401e-02
1.803740104992067605e-01,8.007119613714085149e-02,7.344895349264435325e-02,2.600200769428297198e-02,1.268461016510551848e-02,3.690623024356579334e-03,1.154149547219276428e-01
3.305819355322129338e-01,5.311865273493085460e-02,3.870103445966832645e-02,-1.714010218845963090e-05,8.011823189440206092e-04,-1.449074196741508783e-03,2.849602103233337402e-01
1.557241577573370284e-01,6.929023113654345090e-02,6.402051190596334818e-02,5.078707441122615689e-05,-2.700269096681171682e-02,2.342905513799059449e-03,1.007868424057960510e-01
1.546685088886046167e-01,7.820041727253000674e-02,7.252459297774774272e-02,2.170204167646782104e-02,-6.341195211757881187e-03,7.092734127247013118e-03,8.943205326795578003e-02
2.887083608632344811e-01,5.670173516527286794e-02,3.701503598560317021e-02,1.388012297433862882e-02,-2.396450801460521182e-02,-7.615207987753054401e-03,2.475013583898544312e-01
3.723861243462285309e-01,6.490906872667195904e-02,5.845649616441875307e-02,-7.528276993098757287e-03,-1.332248119909713001e-02,-2.328468514195303294e-03,3.119079172611236572e-01
3.293751577228156702e-01,3.280143056582733585e-02,5.811520610295650702e-02,-8.084036498590090394e-03,1.124501983458946848e-03,-8.700876630624909463e-04,2.851166129112243652e-01
3.362870417880015061e-01,5.940612490681310143e-02,5.563494662725146367e-02,1.215851478955202753e-03,1.538293389443977973e-04,-1.307381882138401101e-04,2.787938117980957031e-01
3.506798846450332463e-01,6.089889558704390804e-02,5.817261603559796546e-02,-4.148121563030751635e-03,3.258366638407957094e-03,-3.053542609061541454e-03,2.913450300693511963e-01
3.497401872021894675e-01,6.006590637780975794e-02,6.904078526021274753e-02,-1.942406102351060010e-04,2.536399002401370714e-03,1.167511780195925643e-03,2.853339314460754395e-01
3.372113835316402075e-01,5.889615438813643189e-02,5.757152121996306215e-02,-3.566928126458810897e-03,-1.088585252559179373e-02,-1.304211005624311562e-03,2.796936929225921631e-01
3.194081518101827277e-01,2.865604057393815463e-02,6.146738855811083313e-02,-4.263637785909531706e-03,5.829876420157110821e-04,-3.479214778866301754e-04,2.759154438972473145e-01
3.279197890257594672e-01,4.222241611480491430e-02,5.525388046492064886e-02,-6.281976717646800372e-03,5.420498690434440679e-03,4.660976769634511338e-03,2.798954546451568604e-01
3.171659398047825262e-01,4.578566912299759928e-02,5.584543758575298555e-02,3.841559515543899704e-03,-3.047868680806464607e-03,8.489917720155171210e-03,2.670333385467529297e-01
3.005477021619787914e-01,4.320898722949036153e-02,4.871026585370040463e-02,1.358779395844786353e-02,-5.340480807301262178e-03,9.363182693253032512e-03,2.563985884189605713e-01
3.308201226789680427e-01,4.405431900742304285e-02,5.495865728746922307e-02,3.836050061863314738e-04,4.028536689904937528e-04,9.119194208308017057e-04,2.814781665802001953e-01
3.045422051497410632e-01,4.831699125729248256e-02,4.462295592483389584e-02,-4.973929292788575700e-04,-4.045534303491781555e-04,-8.394650394006398716e-03,2.585036754608154297e-01
3.266546170624750056e-01,4.247041184442866546e-02,5.738204607102763422e-02,1.349715839883191453e-03,7.936766974082859558e-04,2.697549205470260204e-03,2.770822048187255859e-01
3.301484585623641888e-01,3.471358277678833482e-02,5.731000752502368734e-02,3.228982926491739264e-03,6.223319747640202078e-04,1.705904695333388798e-03,2.848820090293884277e-01
3.365558344199027774e-01,5.080332089892582170e-02,5.842172466192703528e-02,1.209635551691368507e-03,4.496938628995704283e-03,2.915560679071466359e-03,2.821809947490692139e-01
3.916928001206188559e-01,4.509970439917121432e-02,6.147693270842785607e-02,-7.352559516049247956e-02,-1.278494345676432255e-02,-5.710269048279408705e-03,3.626637160778045654e-01
3.761270000837318994e-01,6.970039402291952624e-02,6.478163729824702732e-02,2.265347870367960884e-03,7.726824162456156359e-03,2.533464053323730009e-03,3.092611432075500488e-01
3.244922351920411785e-01,4.395836107418829575e-02,5.160727709664086893e-02,1.231806671629054675e-02,-3.142885933018615702e-03,9.004029143409411282e-03,2.781007587909698486e-01
3.407308742194099516e-01,6.008865515013844805e-02,5.686297806684376122e-02,4.552129396301332273e-03,2.065088302730232455e-03,2.597573467576108522e-04,2.824019789695739746e-01
4.050113862297147760e-01,6.787954017399519535e-02,6.595662136731111902e-02,-6.438512323890808672e-03,1.809741007320932399e-03,1.427256964658595853e-03,3.383048176765441895e-01
3.563602234521772161e-01,6.048079148246444936e-02,5.646850380102449996e-02,-1.117603488002541501e-02,-1.316080274762192019e-03,2.177356791045553363e-03,2.985666096210479736e-01
3.761784594195337617e-01,4.529999582942874359e-02,4.889727201175951554e-02,-4.671127208185599927e-02,-8.085061894658509543e-04,-1.775348642391356632e-03,3.389107286930084229e-01
3.359273323583478188e-01,4.714818115938176901e-02,5.705373214898773471e-02,3.137873707429139365e-03,1.837724878606510678e-03,1.163517280474135433e-03,2.840329706668853760e-01
3.542875319353089303e-01,7.288893947606003842e-02,5.902983775429668234e-02,2.708778677161008484e-03,2.029994840618326764e-04,1.579893049652588105e-04,2.886163294315338135e-01
3.032916631891289239e-01,5.699788470576573618e-02,3.572044990694256406e-02,1.085614249241805300e-03,-1.300104149255880935e-03,2.470012556033501956e-03,2.576446533203125000e-01
3.457377920303166263e-01,7.470652076386434526e-02,5.972952002074410904e-02,-6.023116196550593743e-04,1.902828082166899007e-03,-6.197342141794280309e-04,2.788451015949249268e-01
3.736291171467953642e-01,6.788020991168070006e-02,5.743994889832343409e-02,-3.663162036996258242e-03,-1.227401585112334464e-02,-3.057919116853449314e-03,3.119354844093322754e-01
3.265627351032646675e-01,3.649954099456335921e-02,5.587390684878998370e-02,1.683666121931377650e-03,-2.951385021000145796e-04,4.674650329906004237e-03,2.810098826885223389e-01
2.246965570977591531e-01,5.643210568844012759e-02,5.891538026465092948e-02,2.355010319338679547e-02,-2.428426100114319461e-02,1.191662631829809929e-02,1.782140880823135376e-01
3.536169774193069770e-01,5.838345177031671607e-02,6.021895925452189213e-02,-4.614616742669386262e-03,2.697008488981546964e-03,-1.401255726448296171e-03,2.944756150245666504e-01
3.467588629087985930e-01,7.481803986628809966e-02,5.830543277921440559e-02,-2.525495197721548766e-03,-1.812173657182103263e-03,7.335072800120840449e-04,2.806163430213928223e-01
3.318139601422843699e-01,4.630689513838946725e-02,4.850938453170000608e-02,1.056680740526292576e-03,-5.908799145992484330e-04,1.395469084285314064e-03,2.844302058219909668e-01
3.523909055672305168e-01,7.454175126604063728e-02,5.972576471527869801e-02,2.361521001503184402e-03,1.314959805103111008e-03,2.273018339602372233e-04,2.855842113494873047e-01
3.330407455775331593e-01,6.220069526731079879e-02,5.996019955433362636e-02,1.119372375357614554e-03,-8.835610804020835839e-04,-2.088980648898161813e-04,2.719786763191223145e-01
3.423321352958630936e-01,6.807130262097613183e-02,6.007895528641876703e-02,-4.149067374226690641e-03,2.165026375214912542e-03,-1.029908682573137503e-03,2.784667909145355225e-01
3.574500346817761631e-01,7.306113580684110709e-02,6.864587391580624642e-02,8.291479042231950092e-02,-7.391540629095606774e-02,1.434563949638496122e-03,3.452150225639343262e-01
3.533312798737340832e-01,7.318002460245534579e-02,6.323656291011267583e-02,4.572939283060495005e-03,-1.471515778548941090e-03,-5.413893325397034322e-04,2.853758633136749268e-01
3.526224660760943763e-01,7.400631869583555733e-02,5.921807085288563477e-02,2.447738064537268842e-03,1.147843946866459975e-03,5.996919115217405356e-04,2.863370478153228760e-01
3.436556084615470796e-01,6.218758490229195357e-02,6.650690125200610370e-02,-1.310552843578507379e-03,3.013714727418292938e-03,-3.055964984713791834e-03,2.794415354728698730e-01
2.748750616058960317e-01,4.705602373115103099e-02,6.264522427252806891e-02,1.785828066310415907e-02,-3.048559998609777066e-03,9.290429094381784728e-03,2.232411056756973267e-01
3.286537318882979397e-01,6.058382058028044526e-02,3.583272540124794736e-02,2.503360110832705040e-03,-7.505824292172140130e-03,1.633822222828674184e-03,2.816113233566284180e-01
3.468519187944978932e-01,5.948424555175314821e-02,7.063495907582448274e-02,1.172918835298078759e-03,1.903755169583881040e-04,-1.278347493252760458e-03,2.819739282131195068e-01
3.502696088665266938e-01,6.071626628861116759e-02,7.017841585558963480e-02,7.212417379103595405e-05,-9.105792864747316428e-04,-2.313140599173381471e-03,2.849726676940917969e-01
3.580544389638479208e-01,6.416667502692154079e-02,6.751839486687402636e-02,-6.879808519705021483e-03,-6.634667930454365807e-03,-2.870116958462219127e-03,2.927370667457580566e-01
3.411884883237046306e-01,7.404464716113773326e-02,6.001632055767665286e-02,3.128923439316194026e-04,4.669617351709579684e-04,-8.465832425907271648e-04,2.744326889514923096e-01
3.128217996419881963e-01,6.177490860624643143e-02,2.773231541835308178e-02,4.175976921484021167e-05,-1.133197549744445346e-03,1.930362152800342909e-05,2.696916460990905762e-01
3.160453046174763747e-01,5.872058997489978949e-02,3.874258334061060627e-02,-2.061860909693800752e-03,7.061732176140866901e-03,8.437114131877660600e-03,2.685737907886505127e-01
2.990224653663354215e-01,6.670350279179108888e-02,3.399567271820852499e-02,-6.823955830847260387e-04,-1.132125605798195260e-02,-4.180565477745798453e-03,2.511551082134246826e-01
3.064792071718314692e-01,6.383983816329102945e-02,3.092468749438190279e-02,-7.798637931033820109e-04,-6.672249121475573412e-03,-4.869905302115735642e-04,2.609212100505828857e-01
3.323566075566469213e-01,6.658838611358564030e-02,6.215713787807289337e-02,4.466335055810075516e-04,-4.881039456078189206e-04,-1.151017312924130023e-03,2.680211961269378662e-01
3.542876351984654004e-01,5.596252940927246011e-02,6.519851309932118977e-02,1.269560831150803176e-02,-2.924023890005750942e-03,-2.308721317216095258e-04,2.946815192699432373e-01
3.003608050490902404e-01,3.079506679511403999e-02,6.007680899302765554e-02,-1.151164616402307675e-02,2.661699914185317300e-03,3.862352475348546435e-03,2.570861876010894775e-01
2.812294596278714920e-01,6.226084028900692735e-02,3.072215127061779516e-02,-1.373327658906379253e-03,-1.080597682258893112e-02,-3.836735846408517898e-03,2.371667176485061646e-01
3.160472272091533474e-01,3.468046699671145650e-02,5.704025577525892454e-02,2.281864859193264100e-04,-8.095640478476606510e-05,-2.760262138234881313e-03,2.709223926067352295e-01
2.829870746812828131e-01,5.425957499305025800e-02,2.917034834039321234e-02,-2.733506681646775179e-03,-1.013080663604405858e-02,-5.768507061673502218e-03,2.431346923112869263e-01
3.354869648274455551e-01,5.047619938942936313e-02,5.802593528079734442e-02,5.042015506957988127e-03,-9.821661566061846461e-04,-5.064789060264011759e-03,2.815892398357391357e-01
2.241122808348023909e-01,6.189490412379818757e-02,4.414107452894985850e-02,4.293125965071666744e-02,-5.172343219327480562e-02,7.256807090857347355e-03,2.079010754823684692e-01
3.149065736333690468e-01,2.956998009942890526e-02,5.840169187368300652e-02,-6.374750042814167784e-04,-1.005068672275160545e-06,2.630563283279808290e-03,2.721092998981475830e-01
4.365124591797157061e-01,6.452604931225514040e-02,7.404824233647647191e-02,9.053142649187996549e-02,1.687496867258247990e-02,3.328916493538442659e-03,4.004969298839569092e-01
3.320005416052201341e-01,3.923564255427307301e-02,5.622559586565954726e-02,-5.923079480374858312e-03,1.471494688332172351e-03,6.233333397023790769e-04,2.848487198352813721e-01
3.204881595744452083e-01,4.276759449842562621e-02,6.009352401096712537e-02,1.700861139503708278e-02,5.370966891966217108e-05,-5.721574148161390162e-04,2.710830271244049072e-01
3.552407693365173813e-01,5.774014547806577413e-02,6.035511496685762312e-02,4.663093844353508217e-03,1.016046925749948711e-02,-5.094851294374508344e-03,2.969651818275451660e-01
3.231839382059794596e-01,3.595793238138593473e-02,6.298258291330086078e-02,1.005848394519814025e-02,-1.825213871871291969e-03,2.607401862230228264e-03,2.753195166587829590e-01
3.114032720012913646e-01,5.761894445577726842e-02,5.784632721867617733e-02,7.199535339796778177e-02,4.112235190946581659e-02,-2.085047151888836173e-03,2.915218770503997803e-01
1.881830620903109930e-01,7.171680998479239288e-02,6.464207590165831074e-02,1.461802499162991216e-02,-4.446438939260918821e-02,3.514146970820772407e-03,1.450784653425216675e-01
2.687957861506543589e-01,5.212297135023821748e-02,6.168474049471682485e-02,1.258239229471877149e-02,-7.613627230813101686e-03,1.030575804109510468e-02,2.143227458000183105e-01
1.782737775915221590e-01,3.982451247100306929e-02,4.751084836853225468e-02,-5.169441249543498679e-02,5.007736217759034547e-02,-1.157904688994231641e-03,1.835954636335372925e-01
1.853915795428666691e-01,6.165976784769981039e-02,5.347183036760425751e-02,7.392592502975149638e-02,-2.573852145401728242e-02,3.939545947075122345e-03,1.865980029106140137e-01
1.824164888356105685e-01,7.165871435831214220e-02,6.279298432776472816e-02,-5.189326418998684021e-03,-4.996786839181210915e-02,2.713071539296584445e-03,1.446411609649658203e-01
3.130060505120318970e-01,4.886284012295306900e-02,4.096971437173176078e-02,-1.379270741068061774e-04,1.899372979427493781e-04,-6.279797905344906839e-03,2.683976888656616211e-01
2.244541524619338702e-01,5.695563150345532566e-02,7.459436451101858490e-02,5.038558435331065566e-02,1.053107532706672352e-02,5.235861987980151974e-04,1.826528757810592651e-01
2.061520476817501335e-01,6.971825181408236594e-02,7.488358321286235630e-02,1.539542403795873295e-02,1.502785348766039371e-02,-1.263078944626329359e-03,1.390305310487747192e-01
3.321831731999438930e-01,6.360384941224807298e-02,6.363908077115706940e-02,3.479756179207292208e-04,5.621024680834900249e-04,-5.732220694919619572e-04,2.685659825801849365e-01
3.204417358064091115e-01,3.500612742458718285e-02,5.525858134373871910e-02,2.010961982357040738e-06,-1.345768341408923275e-03,-2.516532556480077440e-03,2.759117782115936279e-01
3.176862733613983192e-01,3.168457671158886324e-02,5.162346181792948352e-02,-5.745436989165593651e-03,-4.207884447616859654e-03,-5.415238814154304907e-03,2.770055830478668213e-01
3.262589893715179823e-01,3.563825862301751857e-02,5.286840384422752948e-02,1.255976493200805510e-03,-8.760911469800116693e-04,1.503222903627950699e-03,2.824246287345886230e-01
4.115789899160466891e-01,6.564126205038865736e-02,5.719555466652141706e-02,-5.223709239104038860e-04,-1.132675043116167235e-02,4.484511766225540534e-03,3.508731424808502197e-01
1.096879387575613873e-01,6.189801275749807347e-02,5.918852929690501807e-02,-2.774997441807313357e-03,-1.957624734354840648e-02,1.849478866296574943e-03,6.003129482269287109e-02
2.291777317181112883e-01,4.333032510090209510e-02,6.093686753784260252e-02,2.366552796931306601e-02,1.101135800093936030e-03,4.700170189323479679e-03,1.825573891401290894e-01
3.584427533310872160e-01,6.429496565187525770e-02,7.164639674366547750e-02,5.579481136928373525e-02,-5.259076976354220417e-02,7.391437143233127449e-03,3.197108209133148193e-01
3.300191415691909880e-01,4.635649262646916735e-02,4.924146419751641857e-02,2.356382268627200093e-03,-3.310274826423977631e-03,5.244249561245333500e-03,2.824650406837463379e-01
3.367781221147803095e-01,4.799025625207503642e-02,5.455291847895461788e-02,3.324912129963747409e-03,-1.565771029771502844e-03,1.345318235278786983e-03,2.856435477733612061e-01
3.315132568202579511e-01,4.311337683533811305e-02,5.148447211414168556e-02,2.274849266086671588e-03,-1.499636618916945193e-03,3.580487128639091819e-03,2.844135761260986328e-01
3.304179838716398421e-01,3.769701893750607158e-02,5.745909846206756488e-02,2.758064706745437956e-03,4.181654828494642609e-04,3.164097341232169520e-03,2.834514081478118896e-01
2.305232864442323393e-01,4.973386364599485798e-02,6.728411855170582379e-02,2.604319974841372287e-02,-2.131684650407899423e-03,3.583615235966563410e-04,1.785180419683456421e-01
3.585446694004453816e-01,5.888619963669960988e-02,5.024980256897401687e-02,6.575335844639847507e-03,4.206954985641343792e-02,-1.308524994353482511e-03,3.128931820392608643e-01
2.880073706843934156e-01,3.699636766332763116e-02,6.745090103454588759e-02,1.497067743805057145e-02,1.099139883715775370e-04,2.185752513420032191e-03,2.386971116065979004e-01
4.107994998163231326e-01,7.792641440100248063e-02,7.226485601052634600e-02,-7.558141970774203460e-06,5.973054825334171009e-03,2.084924721063710629e-03,3.359184265136718750e-01
3.153900982664561425e-01,3.072219942625245559e-02,5.487167789585284394e-02,-1.305266795756452073e-03,-1.358106232284975743e-03,-1.520975610792027781e-03,2.734264433383941650e-01
3.425352411361267668e-01,7.232083944969734668e-02,6.176626734581565359e-02,-3.375351026864733487e-03,1.440899091683656586e-03,-5.317861969897076831e-03,2.758703827857971191e-01
3.333445895616537480e-01,5.581101574549716948e-02,5.798143172229645870e-02,9.865160597342670108e-04,3.514820010688915236e-04,-2.232328908496030090e-04,2.764609754085540771e-01
3.352451890974944004e-01,5.719124015818018159e-02,4.748610765466751427e-02,-3.460381867285704412e-04,-6.387890778203571263e-03,-1.263300076691741035e-03,2.832565903663635254e-01
3.501549004043442714e-01,7.243970074104688628e-02,6.162522237201789599e-02,-3.048572145262569053e-04,2.004496519121981221e-03,-2.379979012669683393e-03,2.833290696144104004e-01
3.508997727976534420e-01,7.418678723768924732e-02,6.235057219715474386e-02,-2.096774383918051463e-03,1.641568833703849163e-03,-1.774799439418573224e-03,2.828712165355682373e-01
2.161641233034937715e-01,4.248163489901022466e-02,4.326240516260061730e-02,6.082636776501091497e-02,7.274246037218091987e-02,-1.613606817105386892e-03,2.387726157903671265e-01
3.291131456842802949e-01,4.605571169475566884e-02,4.499219561578078619e-02,4.119019177507916483e-05,8.225587960391116159e-04,2.294805541588868392e-03,2.836221158504486084e-01
3.902436786982262928e-01,2.346153249612342728e-02,5.287953395977561255e-02,-1.301141317490977188e-02,9.749348586707637029e-03,4.318917275945967707e-03,3.541942536830902100e-01
3.332315969315743365e-01,4.846085137224556694e-02,5.355885112831472450e-02,1.266272324418511730e-03,1.422236637626170242e-04,7.452782170544874907e-04,2.822678685188293457e-01
3.824118352118792696e-01,4.368102825371872333e-02,4.535535601278814499e-02,-1.506047838718805112e-02,1.461776697135460518e-02,1.142044562775990958e-02,3.404217660427093506e-01
3.467494277873177655e-01,6.737049259310889937e-02,5.909936311376925988e-02,3.478484462140322975e-03,9.328490746139296227e-03,-6.225436554237327030e-03,2.843332588672637939e-01
3.431629783613805440e-01,7.239076696530738486e-02,6.062756374831002049e-02,-6.570105696430225304e-05,1.126441856667294121e-03,-2.541347639797743221e-03,2.768832147121429443e-01
3.415865918278103708e-01,5.767476599568067963e-02,5.618194648005360448e-02,-3.123547222431848069e-03,-2.049623510501489415e-02,-8.115479313953823971e-04,2.869207561016082764e-01
2.995342805700434985e-01,4.065720972991795912e-02,5.283230394208322800e-02,9.052492716738311587e-03,-5.804434026426030444e-03,8.792212879550263122e-03,2.541506290435791016e-01
3.351560252964441156e-01,5.863938813979679976e-02,5.631590631570922156e-02,-2.176383393587168116e-03,-1.182288038437474185e-04,1.276452958133923244e-04,2.777114212512969971e-01
3.991756507169415547e-01,5.463031700527079537e-02,2.322178790769535706e-02,6.704518269654296744e-03,-2.163625404106394451e-02,-1.907557209738461237e-03,3.634140789508819580e-01
3.478793653532640251e-01,5.906260851795948341e-02,6.492685570686193564e-02,-4.846198767989725546e-04,-6.571282503718272293e-03,2.611920565246174733e-03,2.861931622028350830e-01
3.356676530020230587e-01,6.762797584109801752e-02,6.148420818282837597e-02,1.831831358007257647e-03,-3.316720204641754712e-04,-1.485286781050969068e-03,2.711951434612274170e-01
3.499115181425463961e-01,6.283984562849238842e-02,7.189133824207036283e-02,-2.975234140895932394e-04,2.329851042234387833e-03,6.896224777946683912e-04,2.826864421367645264e-01
3.358249324309872108e-01,5.740361568564689154e-02,4.016654659065238553e-02,2.928142861862335564e-02,-4.915440223875310044e-02,-9.524788163516200758e-04,3.040363490581512451e-01
1.885395574927298257e-01,6.455953783764536991e-02,5.088745880369061753e-02,-6.560483648409974784e-03,-2.535228369033464685e-02,-1.453093798966704131e-03,1.389845460653305054e-01
5.431811229420875353e-01,9.368481989316274072e-02,6.757291239045262743e-02,3.152093842496096060e-02,-2.003306961775308537e-03,-5.462127699527606628e-03,4.664206504821777344e-01
3.324806134855617934e-01,6.261374328227733987e-02,6.341046673008098045e-02,-9.343204110776799111e-04,-7.591144350462510548e-04,1.671205488877674063e-03,2.694930136203765869e-01
3.677747006656705842e-01,7.260551887784121028e-02,5.832250467665135718e-02,9.866152810067307932e-03,-1.113851173227023428e-02,3.650510037894949371e-03,3.037251234054565430e-01
3.485922594014084219e-01,5.929182387309202273e-02,6.438708509407069236e-02,5.718513431143689048e-04,2.958000383107962147e-03,8.914498631282010690e-04,2.868383824825286865e-01
3.481781221548851391e-01,6.155507189088832432e-02,7.425374480876821559e-02,1.726277166355297829e-03,-2.566715642250248005e-03,-1.402387924549520441e-03,2.805510759353637695e-01
3.382950395970821256e-01,6.022816508125423962e-02,6.975169770182537698e-02,-1.880425402284734843e-03,-8.278687917141912180e-04,-3.505388071133230289e-03,2.735200822353363037e-01
3.287813187626415501e-01,4.125926564695489573e-02,4.952129592624070209e-02,-1.876919697435226438e-03,6.650964048796966128e-04,4.014302190180968170e-03,2.835875749588012695e-01
3.482138073525166688e-01,5.837324962575665688e-02,7.490650372594814810e-02,2.977172539311839696e-03,-1.189842688187133998e-03,-1.058131356733879765e-03,2.819983661174774170e-01
3.151421071998643519e-01,5.311175091025252537e-02,4.339147415030827903e-02,-6.263122471661954592e-04,1.246271359159650555e-03,5.558865777421790645e-03,2.672076821327209473e-01
2.101941152033067473e-01,7.058462440453117104e-02,6.003865820920018664e-02,1.570199957434224771e-03,-1.397241709479519166e-02,3.670711288345279190e-03,1.473358422517776489e-01
2.756791665797439506e-01,4.132565273520817650e-02,4.763577975716450086e-02,7.739281743562224924e-02,2.005741123939077178e-02,1.131485608750575772e-03,2.695594131946563721e-01
2.656212199216611003e-01,5.756988224838534285e-02,7.067825403276059570e-02,3.769096746379770740e-02,3.332029278621886220e-02,-1.441681508306064119e-03,2.198380380868911743e-01
3.223591042770805881e-01,4.026921696199968481e-02,6.158550277592207689e-02,1.382911861383059838e-03,5.986053225902322750e-03,-3.475773147874451977e-03,2.723333537578582764e-01
3.005353759521515178e-01,3.257999414272490235e-02,6.340613925847632393e-02,-1.036272473007476044e-03,-1.269601099056704005e-03,-9.822176609111008764e-04,2.539709806442260742e-01
1.932106893860234542e-01,4.932325273371179764e-02,5.206362135973312266e-02,4.238772733075776150e-02,1.599822267782384858e-02,1.684445749948381083e-03,1.627369076013565063e-01
3.332998561454233455e-01,5.054137576908840357e-02,4.229495436720588641e-02,1.837928992106829698e-04,4.602676945252196059e-04,9.937934548712309361e-04,2.869770228862762451e-01
3.325950947442772865e-01,4.620716347432285431e-02,5.457630635372610894e-02,-2.422643724927687255e-03,2.035507870823020666e-03,1.107778980966616332e-03,2.823561429977416992e-01
2.351813796165888593e-01,5.543981498682437614e-02,6.444226329391557206e-02,5.625100168744739254e-02,-6.322181111907646846e-03,4.616046618721105985e-03,2.011127024888992310e-01
3.160543064651061829e-01,4.179683949261378539e-02,7.029146592527606152e-02,2.105158357151886220e-02,-1.356032090116237113e-02,-1.874069455782640921e-03,2.647752463817596436e-01
3.238584413261467176e-01,6.357367283343690056e-02,3.199968218530452324e-02,-2.902812849501558348e-03,-1.031120947171068961e-02,-2.065369793416651015e-03,2.780653536319732666e-01
3.274535011519073002e-01,3.960881177568505163e-02,5.311354403964879678e-02,-2.727974239979479953e-04,2.148282175450389950e-03,1.466570962525531874e-03,2.813719809055328369e-01
1.911105443562425288e-01,4.225785711572042913e-02,5.926023018996746244e-02,4.899689257197150510e-02,-2.002793700072713970e-02,8.218852266561816472e-03,1.688888520002365112e-01
3.034263374215927511e-01,7.074382758774566682e-02,5.248848240178027869e-02,3.190828794867337902e-03,4.582820200061950983e-02,1.218740074498248296e-02,2.559275627136230469e-01
2.864398627519024743e-01,6.882569643811514704e-02,3.616583707824393146e-02,2.757036375181736842e-03,1.220983774730289434e-02,1.935928019821517429e-03,2.366666942834854126e-01
2.425616335487290054e-01,6.224454394625569820e-02,5.416046601096569102e-02,-3.159021726746567577e-03,2.169926991233928765e-02,4.492769204169601988e-03,1.885215342044830322e-01
3.354720755814931121e-01,6.508648269201706971e-02,6.233303336750196932e-02,-7.217676224874432136e-04,1.042810087312683043e-03,-1.002901046800222821e-03,2.717871963977813721e-01
3.081546239575326251e-01,5.960934599604804374e-02,3.723043039088273776e-02,-6.226332966480817473e-03,2.155485354316453300e-02,6.435395654603647334e-03,2.635756433010101318e-01
2.376846786167586267e-01,7.329914528676542695e-02,5.755247635269170048e-02,1.351352571270759279e-02,3.677372536808889980e-02,1.005147198522703816e-02,1.864589750766754150e-01
3.428317994172613847e-01,5.695705213861494698e-02,6.902653954599136110e-02,-7.656688238964462674e-05,-4.292458905581229660e-03,-5.456715276020983769e-05,2.801338732242584229e-01
3.339821214942526595e-01,5.357522572571936370e-02,5.521555141171161085e-02,1.238003242229591743e-03,-1.037003933639867422e-04,7.605481342683908901e-04,2.796017229557037354e-01
3.119649004321908281e-01,7.400236963594129802e-02,4.143177161599488623e-02,-1.610954221839012166e-03,1.245020897023416985e-02,1.728305645050929630e-03,2.567476630210876465e-01
2.481981009491813772e-01,5.762204239034626058e-02,4.985766317656831204e-02,-5.609294420324797449e-03,1.672073118116287893e-02,1.383879719768055412e-02,1.984109431505203247e-01
2.338845724434679418e-01,6.539072267280479633e-02,5.340186710091458788e-02,-1.552619570601630923e-03,2.067026292228846263e-02,3.986932621801889814e-03,1.785795539617538452e-01
2.474400173440306772e-01,6.319673147274842973e-02,4.161426321936684269e-02,-7.700117211500342443e-04,-1.552979878626030603e-02,-4.548737360724806542e-03,1.979272365570068359e-01
3.353109343029918588e-01,6.830202481746933119e-02,6.027923190952477750e-02,-1.573465247235189372e-03,-6.945939802982301460e-04,-1.564129014741485850e-03,2.711392641067504883e-01
1.312111641102775006e-01,5.851069720593482515e-02,6.387810245846274604e-02,8.345463575077184670e-03,-1.727731170827058807e-02,4.781337425362310566e-03,7.808325439691543579e-02
1.905521337058453946e-01,6.894893858099365724e-02,7.684214589046300947e-02,1.010710105486632357e-02,-6.025314201766663637e-03,4.527155755606919636e-03,1.198609992861747742e-01
3.352055550485221747e-01,5.976671736479391428e-02,5.565448843026508940e-02,-8.179760251199060363e-04,-4.096180432072881101e-04,6.645096122491963046e-04,2.775247097015380859e-01
2.061844327582373348e-01,7.695931358601390548e-02,7.012303685610468684e-02,1.265245590298831602e-02,-2.693777520237777834e-03,5.259226947040975680e-03,1.349603086709976196e-01
3.562665329594394414e-01,6.061017455251142827e-02,7.129913063884470159e-02,5.917569980667394206e-04,8.031828183638704474e-03,6.599022633509637288e-05,2.907942235469818115e-01
3.359475436436627493e-01,6.222702331233447015e-02,4.871020642374465637e-02,1.296089556643731594e-03,-7.455255120273345144e-03,-1.236861924518918576e-03,2.810370624065399170e-01
1.895524819185305243e-01,7.387155965425468152e-02,7.184333037582221748e-02,2.525111036352927635e-02,-2.685875299008639444e-02,8.883634503034072358e-03,1.339201480150222778e-01
2.120983367443409207e-01,5.380816544449787409e-02,4.547983723345365437e-02,2.068265733526288355e-02,-4.091099217333596383e-02,1.066456259720530847e-02,1.819040328264236450e-01
2.823042154736275511e-01,5.523256597990446048e-02,6.461121488237471511e-02,3.157417710887409912e-02,-6.089707476920449072e-03,1.090109683324720115e-02,2.301703840494155884e-01
2.069961216045922980e-01,6.217552026056608061e-02,6.999515381776766354e-02,-3.021647958459905111e-04,-3.002067212587784697e-04,1.119179229233565297e-02,1.424009203910827637e-01
2.333996723937740714e-01,6.444200575780667517e-02,5.843697943178643300e-02,1.062590273867452736e-02,-1.490174179619969952e-02,6.096757166959262779e-03,1.752534657716751099e-01
3.367583278237476496e-01,5.511389271376473942e-02,5.795529818346922823e-02,-1.867731833344492070e-04,-4.298578887639132283e-04,-1.800864103952533758e-03,2.802530825138092041e-01
3.313407954634682850e-01,6.466582319449976080e-02,6.373346843970195685e-02,1.568251745659450362e-04,4.595479205940227081e-04,1.009684613798603149e-04,2.671437561511993408e-01
3.334637623917771632e-01,6.144860129526452663e-02,6.308007603155113552e-02,-6.526830762601092692e-04,-4.623154394198733530e-04,1.781680202328236146e-04,2.712068259716033936e-01
3.338005211982641995e-01,5.577654715650361139e-02,5.187426491937953410e-02,4.693708463460265060e-04,4.899913500810440742e-04,1.011501329093735272e-03,2.800034582614898682e-01
3.347317801761928724e-01,5.540022781874048841e-02,5.616958735221784516e-02,-5.393248148946576002e-04,1.035392084219264154e-03,-1.116700086914751422e-03,2.789616882801055908e-01
3.270882258915005503e-01,4.305391662509516770e-02,4.631677772808409643e-02,5.185765982607433303e-04,-5.535657272257942354e-04,1.109592256265366957e-03,2.824265956878662109e-01
3.339167231686885895e-01,6.294240592404606871e-02,6.548781191221914044e-02,-1.655119417114340932e-03,-1.465908015105310807e-03,1.372402700033954412e-03,2.697482705116271973e-01
3.375737271992339528e-01,5.527215117536396494e-02,4.856952947671724918e-02,1.882263838355049783e-03,1.433799500537335028e-03,3.450611555046012319e-03,2.858037352561950684e-01
3.336600457651927587e-01,6.095836355253651806e-02,6.095544072283436143e-02,-1.353876780491166873e-03,-1.161503858790680641e-03,2.150095020609328134e-04,2.727209031581878662e-01
3.337061458912253809e-01,5.313615525927756211e-02,5.107797567599968447e-02,-6.051279652757882372e-04,1.819645048657685029e-04,1.250555867899921835e-03,2.816151678562164307e-01
3.334721831602245334e-01,6.167155023378993739e-02,6.292894811395106924e-02,-8.303039521990852141e-04,-3.735118850113908684e-04,2.908989385819839898e-04,2.711791694164276123e-01
3.334818202941608467e-01,6.172783294757046291e-02,6.295811545198735926e-02,-8.427786427320733747e-04,-8.331136128469703462e-04,1.029383188238903665e-03,2.711545825004577637e-01
3.071276161010165207e-01,4.769236546897710760e-02,4.957244173770936069e-02,-8.231778579228021591e-04,1.785201817066773547e-03,8.995939227311511299e-03,2.589918971061706543e-01
3.321576855798624717e-01,6.288030488474614932e-02,6.287528300041560214e-02,8.026390609793321632e-05,6.711714660564637412e-04,1.670263396928792091e-03,2.692979872226715088e-01
5.444772750704438558e-01,7.170789271183317104e-02,8.213167894428116678e-02,1.167613464281796673e-02,8.511918095771339038e-04,-7.596534749421596233e-03,4.682689309120178223e-01
3.777380698497817546e-01,3.813376460289252812e-02,6.295167343646619618e-02,-6.211307267939723473e-03,-3.567878516646020431e-02,-5.226431232065666295e-03,3.339690864086151123e-01
3.737780517207240916e-01,7.328477406378551551e-02,6.218250644926770487e-02,9.800696877655433806e-03,1.000815407023419520e-02,-1.972128535269248271e-03,3.071741163730621338e-01
3.546961134694948670e-01,7.002383609197901371e-02,5.764380733113565192e-02,-2.493489358191915140e-03,1.419888313158217466e-03,-2.459932610049864101e-03,2.911334335803985596e-01
3.939393183976520052e-01,7.771406776454713172e-02,6.613500833122132327e-02,2.306583682708587216e-03,6.941470375110953515e-03,-4.678653319168277376e-03,3.225217163562774658e-01
3.581288001437396562e-01,5.797027185433829832e-02,6.098155125440671287e-02,-2.101672967382570145e-02,5.593219239895406080e-05,-2.518313586374591891e-04,3.008748292922973633e-01
3.557508229284261914e-01,5.616008709366394902e-02,5.547209727705679216e-02,-2.155216266461263894e-02,2.440647272088013794e-03,5.381103263414671514e-04,3.022803664207458496e-01
3.859861136516092306e-01,6.618426368504672086e-02,5.975230874359638289e-02,1.976606024445462864e-02,5.171241656952617338e-03,1.031848731074180934e-03,3.250031471252441406e-01
3.465693237473890242e-01,7.453729711239429068e-02,5.689903069886506626e-02,-2.839945103204166970e-03,3.516834696870834841e-03,3.454627958083074835e-04,2.813758552074432373e-01
3.338404115081696211e-01,4.484636134010928921e-02,5.110373398754233798e-02,3.113846348421671155e-04,6.969671114175492828e-04,-1.909657578480432165e-04,2.859199643135070801e-01
3.542724736200747460e-01,7.128166982843511801e-02,5.941933951137587377e-02,-6.162130521610123838e-04,1.364299052732843073e-03,-6.850689142940056793e-04,2.891186177730560303e-01
3.529477847305831917e-01,6.685777360577886685e-02,6.023731571433361964e-02,-1.289841728184618237e-02,6.428446156498689211e-04,1.412216696103148639e-03,2.903303205966949463e-01
3.286592253505148387e-01,4.315365104557281062e-02,5.375602165485697526e-02,-8.528235009564859651e-03,-1.844497837594409693e-03,-5.286963910133704939e-03,2.809111177921295166e-01
3.518549295686401734e-01,7.108555161245705412e-02,6.036850603524439307e-02,3.403220845883958567e-04,-2.078217904614387780e-04,-8.799614856203177892e-04,2.862832844257354736e-01
3.358415956897000676e-01,5.074292839210142736e-02,4.251489831270782727e-02,-2.497002419067104813e-04,-2.762279701045218701e-04,-1.795865596805953836e-03,2.893179059028625488e-01
3.347368133002997515e-01,5.302395786850119808e-02,4.357502400415277921e-02,-6.896116493494212603e-04,-9.749245733608702348e-04,-5.704463281765546770e-04,2.865633666515350342e-01
3.334171281301240297e-01,5.494997888103984873e-02,3.927537743458237030e-02,3.411691322268221556e-04,5.187834415079783804e-04,-1.256278979648573412e-03,2.866363525390625000e-01
3.706095806177135410e-01,5.113565575678861996e-02,6.013800089982644648e-02,3.828847012058050198e-02,4.353965525331771752e-02,1.503751780717498682e-02,3.317109048366546631e-01
3.343988862515911431e-01,5.342920061568834367e-02,3.848662155448252797e-02,-7.091336190158468566e-05,1.778370575967490102e-03,-3.521819636617701515e-03,2.888119816780090332e-01
3.380890919865457422e-01,5.654735101395938490e-02,4.980818782376834897e-02,-5.261827455291430162e-04,-7.708392644367013415e-03,-9.639588065273083475e-05,2.852852046489715576e-01
3.311394373279153980e-01,6.385102900455108532e-02,6.478309091276483744e-02,4.370580555116097832e-04,1.892923949902286789e-04,6.989029209149833746e-05,2.668249011039733887e-01
3.159563560660103576e-01,4.997987102474008014e-02,4.447350292523748194e-02,2.963478744933857080e-03,2.414309179563931332e-03,-7.217431622280566332e-03,2.691439688205718994e-01
5.112114756425552020e-01,5.800704889393887287e-02,7.326685938176163981e-02,-5.362589752019228384e-02,-1.525265482581523481e-02,3.316449762786355306e-03,4.561462998390197754e-01
4.800498290852528993e-01,5.285663915954541547e-02,7.820610568664326800e-02,2.618338571146896360e-02,3.350783593990877551e-02,1.052444801291884356e-02,4.219772815704345703e-01
3.318183928920378500e-01,6.396553475993785320e-02,6.014640786381092452e-02,2.888526876551717154e-04,-6.639859848919762086e-04,-3.454779363207649123e-04,2.697862684726715088e-01
3.765390648398252438e-01,6.930817077282101779e-02,5.824215381762837263e-02,-6.286766173043393038e-03,9.469504714802136000e-03,1.098018910877172384e-03,3.135351836681365967e-01
3.499087519682763658e-01,6.891399395629249636e-02,6.025755791912014436e-02,-2.553208477670275249e-03,2.780643449136571427e-03,-1.358316130042942814e-03,2.855060100555419922e-01
3.775716959851389554e-01,6.093357302385138397e-02,6.706988447379957918e-02,6.243134042196078759e-02,-5.154411608506833699e-03,-1.679018611922740347e-03,3.318667411804199219e-01
4.167843186418432322e-01,7.392946874757261311e-02,7.752640216718573174e-02,1.361551845980408029e-02,-2.793894482120863956e-03,-4.203488341583216589e-03,3.419966995716094971e-01
3.833998730813829026e-01,7.135617535000372824e-02,6.667804529548775061e-02,5.038866245608126203e-03,4.370191750822418069e-04,-2.021323565158626712e-03,3.145503699779510498e-01
3.601117974568089908e-01,6.262417585842176837e-02,5.380709714259046539e-02,1.352840083603800000e-03,1.750879457228809652e-02,-2.326458481633068929e-03,3.035473525524139404e-01
3.331279967598691494e-01,5.964488380414235957e-02,5.446299724992986757e-02,-6.879018813735855373e-05,-9.562826083925550068e-04,4.554076096970548454e-04,2.761166393756866455e-01
3.530589456501196377e-01,6.028616750692189497e-02,4.327447196213009273e-02,2.920271030349265527e-03,1.181437885090309316e-02,-1.208274201532826518e-03,3.023814857006072998e-01
3.657954703687116282e-01,5.606071855880197241e-02,6.034896865031622037e-02,9.259169360538258356e-03,1.816405392406518493e-02,-2.336180372018462244e-03,3.096597492694854736e-01
3.869364445376672346e-01,6.416722195340313073e-02,7.434429413448223611e-02,8.479106919265374034e-03,-3.517695192872427167e-03,2.105783501953494355e-03,3.182213306427001953e-01
3.339505065428007291e-01,5.390736573609948568e-02,4.916428223863675284e-02,2.363568869828643927e-04,1.156438612466107645e-03,6.219227555048371979e-04,2.824540138244628906e-01
3.770493067283292588e-01,6.200645657796195753e-02,6.447286299030199896e-02,3.382267639923573332e-03,1.163401807479518576e-04,-4.706615640215175075e-03,3.139775097370147705e-01
3.500073598671751274e-01,5.933335981696398476e-02,6.881393340781112589e-02,-1.058914149540119646e-03,4.964611065180810252e-03,3.314488412514176880e-03,2.862442433834075928e-01
3.483373762697511977e-01,5.420183571643634457e-02,6.338515651213966207e-02,7.313752483581916451e-03,4.306713176399567904e-03,-1.794209916972245699e-03,2.900425493717193604e-01
3.330589384510096451e-01,6.075899909648375952e-02,5.964820455151245704e-02,-9.137854881698197738e-05,8.862823982689614936e-04,5.882123435201815510e-04,2.728632986545562744e-01
3.348874622390844991e-01,5.675135609596815289e-02,4.993531932522680961e-02,1.584913663632951620e-03,1.017084432785948702e-03,7.116549749936980552e-06,2.816248834133148193e-01
3.250922697993269272e-01,4.216039997135269390e-02,5.141090052109743846e-02,2.484543795129091556e-03,-8.263620481027547171e-04,3.870716495258881389e-03,2.785395383834838867e-01
3.322635252343835721e-01,4.783666480008921806e-02,4.418914827068837203e-02,4.802055063841691353e-05,-2.572446109621215576e-04,2.604004198790142483e-04,2.862687706947326660e-01
3.295404054079162925e-01,4.105961061344075291e-02,4.936901203936841509e-02,7.046790309408044366e-04,-5.416365700512926987e-04,1.208668957637146647e-03,2.844290137290954590e-01
3.330465259478139206e-01,4.910020418538663112e-02,5.715778287393367962e-02,-2.374777339929866598e-03,1.067283294954888889e-03,-6.047118028893681265e-04,2.800427675247192383e-01
3.295336622881397393e-01,3.960345942502740968e-02,4.845267624374453852e-02,-5.657789189548846978e-04,3.637447470904026634e-04,1.106362139629009367e-03,2.856172323226928711e-01
3.243683041081323326e-01,3.755093929555269883e-02,5.219556277987461024e-02,-1.693987414661417929e-03,1.258305886703161127e-03,1.213793091451769238e-03,2.798144221305847168e-01
3.331031109160039749e-01,4.788254071210322482e-02,5.043880978250610270e-02,2.918716983636204191e-03,-2.821817357264417604e-03,2.844594064618068043e-03,2.840808331966400146e-01
3.336966372989795815e-01,5.379287911059343896e-02,5.410504211471428571e-02,-5.190143908139118736e-04,1.275814505425618790e-03,7.017428200357423177e-04,2.797606289386749268e-01
3.261104443733653935e-01,6.041886828480007299e-02,3.297379618504044096e-02,6.354371325593784398e-05,1.284659534963706641e-03,-1.748047766846025125e-04,2.804322242736816406e-01
3.338384360401685513e-01,5.727356094706975709e-02,3.919772845974750508e-02,1.113617653990932197e-04,1.845788811075246578e-03,-9.288615990580478604e-04,2.860539257526397705e-01
3.226406683036616707e-01,5.564737774810261939e-02,3.751811434234504639e-02,-1.193881929356433325e-03,-2.053140242394139656e-03,-2.270782572421285554e-03,2.765626013278961182e-01
3.314506840368965923e-01,6.325238834287030820e-02,3.963384500148556255e-02,-1.281396796559834553e-03,-2.401401154737922185e-03,-1.223238479256288057e-03,2.808012366294860840e-01
3.211779522418725108e-01,6.101135731013043739e-02,3.184678057392163752e-02,-6.274744759860124759e-04,-8.917832642456994391e-03,-2.576555251829562750e-03,2.763775587081909180e-01
3.210175436041295960e-01,3.832469733821299018e-02,5.194789123134149755e-02,5.605629053262495319e-04,-5.065791542338598987e-04,1.456518061792521149e-03,2.761480212211608887e-01
3.127139203247281674e-01,5.547896619575333477e-02,3.249803552079262581e-02,-7.550314703780576595e-04,-1.955692096839585590e-03,-4.093570665278610347e-03,2.695791125297546387e-01
3.079773752846858281e-01,5.897966030797738290e-02,3.395850928124310997e-02,-2.688779983722067429e-03,-1.199479336329999264e-02,-5.789121228524612799e-03,2.634577453136444092e-01
3.245794659286431183e-01,5.561080995403426541e-02,3.562383687703540858e-02,-8.511143719642331063e-04,-2.583842320990876497e-03,-2.396611292078056499e-03,2.795691788196563721e-01
3.167169981311845905e-01,6.026338590840146781e-02,3.367385288816809874e-02,-2.337805042813812916e-03,-3.531905396826072116e-03,-3.922231803808113801e-03,2.709140181541442871e-01
3.317741666159140790e-01,4.625742685523741293e-02,4.319622787180929513e-02,3.243812311179304002e-04,-3.922580713539055154e-04,3.028444983508367014e-04,2.870614230632781982e-01
3.023582510283541191e-01,6.481774150538258117e-02,4.067858820311606727e-02,8.686903914033540855e-03,4.684589227653398330e-02,4.338078222637872967e-03,2.638345658779144287e-01
3.092208961979802107e-01,5.780803260470600280e-02,4.969397131651459576e-02,4.443896561526586991e-02,6.899766513915293886e-02,-5.366127239615028389e-04,2.924407720565795898e-01
2.385813498180580083e-01,4.914343264445290849e-02,5.607349346426448999e-02,2.414179959912823165e-02,-1.612222509894956080e-02,7.366603333440400504e-03,1.931657195091247559e-01
3.292556433162913132e-01,4.367733123568255660e-02,4.715811462949824617e-02,-5.852830828887471085e-04,2.643182707822817282e-04,8.715128190706251943e-04,2.838601171970367432e-01
3.324969855339209301e-01,5.656213042622515452e-02,5.675284177058506629e-02,-1.054678578085234278e-03,-1.718507587961501078e-03,7.304779746052017921e-05,2.758616805076599121e-01
3.336208236070399291e-01,6.029787482135530452e-02,5.808900119560556075e-02,-4.752101688534048356e-04,2.008237552743177086e-05,8.109854133298016613e-05,2.744353115558624268e-01
3.381359771622846067e-01,5.339425594019267529e-02,4.833535318207887732e-02,4.232657513572116712e-04,2.396211074360340022e-03,2.746097387580767255e-03,2.873748540878295898e-01
3.351121715280694358e-01,5.776928334614152283e-02,5.446951593928203716e-02,7.529411338299207306e-06,5.308074202268709893e-04,3.243467208405504320e-04,2.790094912052154541e-01
3.349891352325965466e-01,6.265393528830039138e-02,6.206506915899953625e-02,9.227858307598796935e-04,-1.649737105114406840e-03,-1.622024439461325850e-04,2.726499140262603760e-01
3.352003470515797501e-01,6.404447201415568169e-02,6.250940861733580989e-02,1.617298118997917943e-03,-1.674720434427407660e-03,-1.359112509074119008e-03,2.719667553901672363e-01
3.360449218163458762e-01,5.840379909560421134e-02,5.726351301253886084e-02,-1.313293369242743468e-03,6.766636333489447781e-05,-1.127545747537256088e-04,2.782224118709564209e-01
3.393944328420707146e-01,4.735249153792256416e-02,4.745788216323428010e-02,-6.765129355475023049e-04,-5.841723287847954132e-05,-4.766759777132695839e-04,2.919927835464477539e-01
3.345549148438756726e-01,5.872392564351154587e-02,5.783313711822325731e-02,-1.382078565364283218e-05,-6.559146191734397963e-04,1.646204568091181534e-04,2.762799561023712158e-01
3.492859967408118993e-01,6.120761691131096360e-02,7.575321447334106006e-02,3.100612628418282241e-03,-5.581053722795104900e-03,-3.272145545274982026e-03,2.813625037670135498e-01
3.464400483124575048e-01,6.202184121393812533e-02,5.936148845292603393e-02,2.480496190456801375e-04,3.517530824373881707e-03,5.201796049430566478e-04,2.858243584632873535e-01
3.439259499633329220e-01,6.650233961816007233e-02,6.227153435476169563e-02,2.766120940622344559e-05,6.461971760295849446e-04,-2.956238026047853032e-03,2.796121537685394287e-01
2.952615797191290858e-01,4.894259859031081794e-02,4.664816798393425779e-02,1.200774132143126588e-02,7.616298265352067004e-04,-1.059164791947625472e-02,2.490267306566238403e-01
3.355167146676901746e-01,6.821709962597354016e-02,6.209247219412317165e-02,-9.903875799908241559e-04,5.970093677421214927e-04,-1.696796334609481814e-03,2.704373300075531006e-01
3.380429023249773568e-01,4.823517109594199770e-02,4.664476170182473014e-02,-6.569491048301748020e-04,-6.419296130030728489e-04,-1.673259408984869483e-03,2.906250059604644775e-01
3.331091649407095234e-01,6.621093568506736249e-02,6.559225643796386118e-02,7.854254209687192706e-04,1.387346487090625451e-04,-3.014926155847206472e-03,2.672626972198486328e-01
3.399114950746724428e-01,5.907375529024130878e-02,4.783057438660354155e-02,3.133054817963720762e-03,-5.736599341023340855e-03,9.728645931634296576e-05,2.868483066558837891e-01
3.358468966650063336e-01,6.731300434001943889e-02,6.333123592643885580e-02,1.505112212402979826e-03,-1.182969736662816546e-03,-1.988207375285422178e-03,2.705889940261840820e-01
3.372638983198497087e-01,5.613358509952796893e-02,5.514130298289239562e-02,-1.798088046785740199e-03,8.955561732581994970e-04,-4.666520252691753329e-04,2.816504240036010742e-01
3.348636260296510847e-01,6.226267639254019770e-02,6.131416421508459336e-02,-8.856641191028619955e-04,-2.871972604218574676e-04,-2.075903464424432542e-03,2.731048762798309326e-01
3.159963051175747051e-01,3.590793755466537007e-02,6.002843764636399404e-02,8.120184432357980056e-03,1.707374987445172939e-03,-2.813558227986926504e-03,2.692688703536987305e-01
2.951021032631004348e-01,4.086731426604540973e-02,6.240884682322511701e-02,7.194103944324077571e-03,1.609333061502044677e-03,-2.400788896623026313e-03,2.445466965436935425e-01
3.384551273033156171e-01,5.436049817988219957e-02,5.084592292073938924e-02,-5.869674941814729575e-04,1.145462385400843703e-04,-5.493092973325050749e-04,2.858715951442718506e-01
3.240615378152985615e-01,3.617448729825585574e-02,6.135048782211706409e-02,5.991454541817138255e-03,2.294359095497579618e-03,-2.767335266706907101e-03,2.764261066913604736e-01
3.387654307835048506e-01,5.324873207626232285e-02,5.121370812969959496e-02,3.711906872349067066e-04,-1.270536225852372618e-04,-9.862630420634332755e-04,2.865455150604248047e-01
2.842779751656075438e-01,3.234720945525774993e-02,5.924198589417890848e-02,1.374427545106670159e-02,9.688884944637431683e-04,7.143764305218488217e-04,2.408067286014556885e-01
3.242461609387071730e-01,3.334078180999390517e-02,5.906172032795774240e-02,6.055374242655733701e-03,2.769729504099121675e-03,-8.984542036365536109e-04,2.791784107685089111e-01
3.257350029957021276e-01,3.444598723745274926e-02,5.767168753330211006e-02,8.630954811995862836e-04,3.017796893075867706e-04,-1.482994146116038605e-03,2.804147601127624512e-01
3.256123493131468649e-01,3.374848261911927993e-02,5.988155484793961092e-02,5.977073005498234094e-03,1.646743227882883562e-03,-8.056295669650611431e-04,2.799239456653594971e-01
3.331357157842279593e-01,5.504096181815343325e-02,5.846197576137622531e-02,3.813275305518897375e-05,1.323057232056746094e-03,-3.783258645832037435e-04,2.764104008674621582e-01
3.312869372783351918e-01,3.821289090054443005e-02,5.761619596234984764e-02,2.628658052141542682e-03,1.086809551819719038e-03,-3.439413707250888602e-03,2.839754223823547363e-01
3.330500407513579675e-01,3.370065891776202749e-02,6.100940331180416953e-02,3.548258671490281228e-03,1.640496500111000107e-03,-6.586648075055451723e-04,2.867544293403625488e-01
3.334446078542892544e-01,3.863820599645692577e-02,6.398947658179202080e-02,9.272853039704492470e-03,4.860899738590209948e-03,-2.583501674368533004e-03,2.835994660854339600e-01
3.335557663430801512e-01,4.085633610894835732e-02,5.664828801969840066e-02,-6.846739341371444907e-04,3.295937848221186951e-03,6.867513598027904110e-05,2.851912677288055420e-01
3.550850714326013735e-01,5.873081062676346886e-02,7.161790890547563293e-02,2.890701850972078688e-03,2.407318685076059988e-04,-6.879468175343427840e-04,2.901713848114013672e-01
3.403567455035697575e-01,6.023136914821000665e-02,6.192566671638652376e-02,2.387093412807394458e-03,2.354297645553028121e-03,-1.056334437761502097e-03,2.793484330177307129e-01
3.406029774919973052e-01,5.878964437628042550e-02,6.825291823253373802e-02,-1.237094715197023780e-03,2.099505615406057919e-03,4.933144027290216945e-04,2.772363126277923584e-01
3.318211872736488433e-01,3.793464304051882841e-02,5.912878842733598761e-02,-2.007996180587550555e-02,3.761898783012965729e-03,3.956987055270724980e-03,2.861622869968414307e-01
2.368686185182660719e-01,5.854581150313483556e-02,6.526629666286042075e-02,-3.860786502766767186e-03,-2.499925051934927776e-03,-4.825588510784789911e-03,1.754397302865982056e-01
3.363907406654836341e-01,5.717047768418868914e-02,5.522786708485252771e-02,-1.721261837183565716e-03,8.704834907280556509e-04,-4.393681770638545032e-04,2.802175581455230713e-01
3.148123588568717546e-01,5.518182992479143956e-02,2.956529547067920927e-02,7.412439254153634170e-05,-4.697061804263743807e-04,-2.525554655733750018e-03,2.733767926692962646e-01
3.370755808937714315e-01,5.740465804959310470e-02,6.023629965893678717e-02,-3.009872424599947024e-03,-8.162107298318398672e-04,1.098749922023484248e-04,2.783184051513671875e-01
3.220544730186306603e-01,5.011075314624659216e-02,3.821902573369123646e-02,-2.325739767377147131e-04,-8.786720193488852795e-04,-9.714044074253829668e-04,2.780898809432983398e-01
3.198574359048891314e-01,3.611205644077791765e-02,5.710061595077210728e-02,-2.616223692334036875e-03,2.162063767629097532e-03,4.998663248760068078e-04,2.739194333553314209e-01
3.255650718947727396e-01,3.758885887715855689e-02,4.354316066522043172e-02,-2.021336888150032293e-04,-2.013829735984658221e-04,-2.547458684728953066e-03,2.850802838802337646e-01
2.713619690802393514e-01,3.227570641805993512e-02,6.695000792669333900e-02,-2.590242075481567069e-02,1.258654574841976299e-02,4.317515907261967878e-03,2.293869853019714355e-01
3.191735056092439571e-01,3.326067701643885266e-02,5.875043587883982399e-02,-3.793388602723291817e-03,2.950701865050688651e-03,1.526532929669008809e-03,2.741975784301757812e-01
3.059412131138782298e-01,3.245621102833777527e-02,6.128382797314692321e-02,-4.883228771679400809e-03,2.238817663219377137e-03,3.672427652865137629e-03,2.605152428150177002e-01
3.406136802097430305e-01,5.575909146485234780e-02,5.626724376802451355e-02,5.345119650422533279e-03,-9.235989030634722194e-03,2.353655948549351982e-03,2.852295339107513428e-01
3.118372203486019512e-01,6.166829270960322296e-02,2.865749110172970127e-02,5.320011449197751185e-04,-7.938981328522267452e-04,-7.705526271096145401e-04,2.682107388973236084e-01
3.385083755938723127e-01,5.681438873124526612e-02,5.984399030714919465e-02,-7.820847564989699685e-04,1.444550872604247497e-03,-7.084066836412044308e-05,2.802059352397918701e-01
3.239074771889314253e-01,4.684292619706267868e-02,3.780882076892926047e-02,3.375095966686975741e-04,4.715731322914072730e-05,-1.826252283669480263e-03,2.817086577415466309e-01
3.320294707545020652e-01,6.148521990862132469e-02,5.924722552309180656e-02,-3.053293489573401459e-04,8.420736162632543075e-05,1.254635686213583391e-03,2.716794013977050781e-01
3.349253609501293139e-01,5.818333868968142419e-02,6.369146703915058716e-02,-6.080158161731799831e-04,1.400709194875054443e-03,1.057877369503158575e-04,2.740423083305358887e-01
3.333166602432330317e-01,6.208533549543818197e-02,6.428210205325148030e-02,-9.553262515500510199e-04,1.502875152312184220e-03,-1.084701320665878163e-03,2.701637744903564453e-01
3.358258901599714963e-01,6.205540326387293248e-02,6.151670486956373196e-02,-1.761967149198703873e-03,1.141173519936171041e-03,-4.419858055589587762e-04,2.740654349327087402e-01
3.345198411572595232e-01,5.621891802802382598e-02,5.970577880273661431e-02,1.187204562512755423e-03,-2.446639407595572492e-05,5.847455074249543897e-04,2.765834927558898926e-01
3.345604181350857464e-01,6.066748136418381732e-02,6.494996923670538769e-02,1.082809144247410139e-03,-4.830688281622401371e-04,-8.459672208896250453e-04,2.717887163162231445e-01
3.291369307184077719e-01,5.555136485296151283e-02,4.177774330898474664e-02,-8.993952947454465080e-03,-1.192335455517274170e-02,-5.208679193771809275e-03,2.820595800876617432e-01
3.194375980799250558e-01,3.329866851559012964e-02,4.868269890528591215e-02,-3.059282085703729569e-04,1.937643446878023045e-04,-3.034642113550886731e-03,2.788157165050506592e-01
3.358809431285419977e-01,5.710323902079163239e-02,5.924140849111281248e-02,2.393663109995994385e-03,4.325554210056011440e-04,-2.436689916051846812e-04,2.777470648288726807e-01
3.336033183560415116e-01,5.793606047278304638e-02,5.905024072376927058e-02,-2.859831046819145961e-03,1.306420472794410587e-03,-1.554311238820204558e-04,2.751658856868743896e-01
3.347101135438774744e-01,5.763274247948983742e-02,6.002067537524920227e-02,-5.552215916370693621e-04,5.926994934350255035e-04,9.267016066610901681e-05,2.758947908878326416e-01
3.107899875127859701e-01,5.634922549350351861e-02,3.804521811737014703e-02,-3.060873389560293941e-04,-1.096498231009125244e-03,-4.882837913464133442e-03,2.642117440700531006e-01
3.352108044363316663e-01,6.222967400363464685e-02,6.236165276233344990e-02,-5.647863119627689004e-05,-8.496379789826245506e-04,9.155093797056408503e-04,2.729237675666809082e-01
3.391243092832902928e-01,6.071061994167629983e-02,5.891442741210513312e-02,7.081727817055741541e-04,-3.223454730810166886e-03,5.224577744761999031e-04,2.793760597705841064e-01
3.115968322530959789e-01,5.774032359842043438e-02,2.934635510615964116e-02,-2.535118404450153323e-03,-1.020914842132941659e-03,-1.008849726906016096e-03,2.692262828350067139e-01
3.016518071614047170e-01,6.632952954708999649e-02,3.557823287634945264e-02,1.329655349856534918e-03,-1.340827206609127107e-03,-1.073056187985928656e-03,2.521365284919738770e-01
3.343179732561220030e-01,5.240472498108579569e-02,5.525621486230923585e-02,7.692404466403296752e-04,1.416530007655053937e-03,9.532281375713980414e-04,2.805171310901641846e-01
3.350341870382856913e-01,5.519832989885022079e-02,5.877558165642238208e-02,4.239378208492118887e-04,7.472044674227092727e-04,-3.062864291533373392e-04,2.780689895153045654e-01
3.085254444210535629e-01,3.595901397028589130e-02,6.384834574798642359e-02,1.246791413263385233e-03,1.631460007666667589e-03,9.044019695780078230e-04,2.597762048244476318e-01
3.150596278009885065e-01,3.138254787340881424e-02,6.389192791382358738e-02,6.478177017108914873e-03,1.323171959972304279e-03,6.216464228891563143e-04,2.691462337970733643e-01
3.170261863018885573e-01,3.479211398427793644e-02,5.816746355950247471e-02,7.348715006486481946e-03,-2.209817973724299747e-03,1.672139193288726391e-03,2.716435194015502930e-01
2.870878134893702915e-01,3.721187927158058073e-02,5.740559180018708907e-02,8.679424059699040669e-03,-4.216669915583453818e-03,5.933077339938354518e-03,2.412152290344238281e-01
2.886583585764409543e-01,3.846960698864911044e-02,6.198737309606713874e-02,8.740725218460729945e-03,5.720167029633106692e-04,3.552967478494955221e-03,2.398575991392135620e-01
3.328558592566142060e-01,5.393359216041400395e-02,5.083699410762128335e-02,-6.360101946281728489e-04,-1.982856216257903800e-03,-1.514202436910802975e-03,2.805188298225402832e-01
3.351269005531748446e-01,5.537714614186846351e-02,5.517784016625261467e-02,-2.822850700897223410e-04,-2.174794195157510671e-03,-2.018944187121546937e-03,2.798970937728881836e-01
3.311880306835870424e-01,5.260501411370506475e-02,5.169638017622842086e-02,-8.705068898135005003e-04,-6.519177099027352422e-04,-2.169794721448857532e-04,2.790450453758239746e-01
3.309375275803089211e-01,5.740638292766289674e-02,5.835702298005006339e-02,-7.540682503769120110e-04,-5.274957654775906061e-04,2.467261759937406404e-04,2.730620503425598145e-01
3.301737497387753351e-01,5.745670195235422217e-02,5.924340524876242631e-02,-8.111567280007399294e-04,-6.914736207806466799e-05,7.282110779313273911e-04,2.718346714973449707e-01
3.369013239162882423e-01,5.608026940341424849e-02,5.796404359894084812e-02,-1.592056335697355119e-04,-2.873482072123526455e-03,7.457286081474533753e-04,2.799312770366668701e-01
3.017229999891462011e-01,4.540396745668184852e-02,4.516425703412581261e-02,-1.363201588697293253e-03,-1.265222871037586334e-03,-9.394354667138874251e-03,2.569748759269714355e-01
3.383185634737612135e-01,5.609228444204827913e-02,4.774640641785531103e-02,-1.048329188401113664e-04,-7.981018911762593690e-03,-2.722445224614736519e-04,2.868241667747497559e-01
3.319723181390356048e-01,5.244495238035321028e-02,4.945254869423436339e-02,1.610955599899941424e-04,1.220690880903202349e-03,-3.793166219361434124e-04,2.810443639755249023e-01
3.291072153661345756e-01,4.300484105118546063e-02,4.353164681310002504e-02,2.261218694447741166e-05,-4.860695638166068438e-04,-4.218412473888803250e-04,2.858415246009826660e-01
3.416705873218829903e-01,5.882940831223597289e-02,6.151377680966201023e-02,1.209027516088683179e-03,-3.889670029159744517e-03,-1.122892690164635330e-04,2.815970480442047119e-01
3.298250998261132994e-01,4.894184721021192785e-02,4.757921402453198223e-02,9.378130121225472569e-05,-1.263707934592345119e-03,-1.380106774108930253e-03,2.815857529640197754e-01
3.253284506127914755e-01,4.696136428601214996e-02,4.003533120430625980e-02,-4.950408939234800069e-03,-5.477528639192863306e-03,-6.462794631876412309e-03,2.824057638645172119e-01
3.257783328904677589e-01,4.900915189819506079e-02,4.389607749966277506e-02,-6.228869385097944144e-04,-2.371631297107132646e-03,-4.229687310386935108e-03,2.794891297817230225e-01
3.289162632844261358e-01,4.523578859208872427e-02,4.706655657385305780e-02,-1.119855433731155921e-03,-1.872123036030022775e-03,-3.086559734282203621e-03,2.828453183174133301e-01
3.050605415937249765e-01,3.682563571906916078e-02,6.672242390976951265e-02,-2.155623479353182409e-02,-7.894265222736689472e-03,-4.664749529641848760e-03,2.578190565109252930e-01
3.326276077057306324e-01,5.498237868401056883e-02,4.443490327891198854e-02,-1.856068737426148354e-03,-8.777988245925008354e-05,-2.202049913434216914e-03,2.831103801727294922e-01
3.202148681348844228e-01,3.184756185115160398e-02,5.646915954005854443e-02,-1.953242935900653850e-03,9.131579516938263374e-04,-1.602869948214533623e-03,2.769178748130798340e-01
3.308440415946306556e-01,5.400384183323718446e-02,3.752991579458661575e-02,-5.318803718150063518e-05,3.049342304756403298e-03,-3.811922628431444176e-03,2.855591475963592529e-01
3.051656873372801115e-01,5.702317843762824690e-02,3.951252745700294111e-02,2.793410476188879529e-04,8.197330845490534423e-03,-6.064901119030186895e-03,2.579508423805236816e-01
3.297506819676432888e-01,4.737424621350520837e-02,4.636131244351664182e-02,-1.408243540357689144e-03,-8.611321868342279064e-04,-1.925665087233528142e-03,2.829183638095855713e-01
3.313339224332054744e-01,5.452522149206073809e-02,5.631016349510763186e-02,-4.483351243352522815e-04,-9.082148556144053510e-04,-8.794950428789964636e-04,2.759303450584411621e-01
3.144914639886263741e-01,5.888311094608562890e-02,3.824882389185671472e-02,1.923015005369230592e-03,7.954701093510433557e-04,-4.172190338672268281e-03,2.666475474834442139e-01
3.152898905617271264e-01,2.970447310839094412e-02,5.526869448176943700e-02,4.883949634195032053e-04,-1.168357255189323687e-04,-6.669031651193626760e-04,2.737039923667907715e-01
3.343149291628176867e-01,5.490466270417346251e-02,4.533635385854629940e-02,-1.294664402485881487e-03,2.254495327307815423e-04,-3.795668020994727963e-03,2.844003140926361084e-01
3.055689010741076683e-01,5.288005454797913008e-02,4.547194759338410441e-02,4.877139456369286932e-03,1.546170306324838942e-02,-1.115016144315428455e-02,2.587276697158813477e-01
3.343555800819500989e-01,5.385919990407322944e-02,4.050657943976081199e-02,1.049301029022728978e-04,-6.731507715777554541e-05,-1.309558609608856179e-03,2.874144613742828369e-01
3.106942084522922309e-01,5.851440102401560261e-02,3.923637122210910100e-02,1.068161350783086803e-03,3.497696547729283161e-03,-5.285431563842102505e-03,2.625866830348968506e-01
3.311218637809799636e-01,5.100140850168752293e-02,5.113906469854630210e-02,7.429650275189248008e-04,3.296301809970811738e-04,-4.316788378651857297e-05,2.800551950931549072e-01
3.163178905876583569e-01,5.972544707128824015e-02,4.084715634954988461e-02,2.197838503686785124e-03,7.524359716294024523e-03,-3.510361761792047449e-03,2.669483125209808350e-01
2.581679321608950639e-01,5.079673231653487886e-02,3.906128544002358816e-02,2.385333650373332864e-02,-1.835272629060554633e-02,1.181940130491656096e-02,2.207048684358596802e-01
3.139162634499972904e-01,4.866527181738000696e-02,3.458249285727292566e-02,-6.696259536577047963e-03,-9.478443576303804616e-03,-5.898392451995799861e-03,2.734964489936828613e-01
3.276650199827692012e-01,4.882293432310559622e-02,4.434993450686669503e-02,-3.875795876789125700e-04,7.330751310037175385e-06,-1.017038004560732057e-03,2.811115980148315430e-01
3.169997110220550418e-01,5.867201380993951332e-02,2.867909867133695834e-02,2.035555658039177492e-03,-2.474302272608855467e-03,1.253769129598525985e-03,2.746202647686004639e-01
3.319966707205225243e-01,5.872554826724243893e-02,4.922078118977299410e-02,4.947884844113047305e-03,-1.246249240467431829e-03,2.571825826902692826e-03,2.783213555812835693e-01
3.279313104336711859e-01,4.368917059189493524e-02,4.250965983802608428e-02,-3.087453979345284542e-04,-2.185273275919387545e-04,-3.473432718414715993e-04,2.848351299762725830e-01
3.362678307998773208e-01,5.882141581859844093e-02,4.880998933827196407e-02,2.325877253558958184e-03,-3.185160480730065921e-04,4.266779337213499478e-04,2.826153934001922607e-01
3.169881824223345634e-01,5.884901408493624364e-02,2.944560835716289460e-02,2.075420318562801701e-03,-1.009784056137733900e-02,1.825006601464173065e-03,2.746258676052093506e-01
3.073167386933682299e-01,5.838464796345145535e-02,3.275049265131313447e-02,1.150415234566334790e-03,-3.585680119130728663e-03,3.125378544837174345e-03,2.628256082534790039e-01
3.306010191360443384e-01,6.138779835259391970e-02,3.460337399332852337e-02,4.769148202418567982e-03,-6.096813662374320729e-03,1.057852549397822776e-03,2.838784754276275635e-01
3.348337671638925706e-01,6.367987095111828089e-02,4.578527243735334984e-02,3.189389382255644178e-03,-1.334660162980760715e-03,3.059348946705925387e-03,2.806435227394104004e-01
2.512836833121773750e-01,6.875844180736019606e-02,7.562404722410312474e-02,1.309317700667666194e-02,1.124227502667071894e-02,-1.754797916224382168e-03,1.816924661397933960e-01
2.083468073977450818e-01,6.712996257500172814e-02,5.520314709697148048e-02,-5.384103658100037465e-03,-2.203108029478442319e-03,7.876017027441886351e-03,1.485137492418289185e-01
3.304270089312100200e-01,4.765843064735901524e-02,4.899503184971147618e-02,-1.167399799898850236e-03,-6.835783012572595966e-04,-5.577322981299893566e-04,2.821140289306640625e-01
3.280745531652404234e-01,4.221847884071822099e-02,4.292957745571179817e-02,-1.404091904313846474e-05,-3.637189492037474657e-04,-9.833158180470110039e-04,2.855069637298583984e-01
1.965165529472161499e-01,7.330887827079177188e-02,6.308996102641931114e-02,2.593936923964188066e-04,-1.833611450800048948e-02,2.673458936794085531e-03,1.325665414333343506e-01
1.670248947302344911e-01,6.037916169624359813e-02,5.250713877317967487e-02,-1.599139216599789609e-02,-2.768112971932710012e-02,-3.453709608329897426e-03,1.240019798278808594e-01
2.096326904303860428e-01,6.160903083563327998e-02,6.290322960522728990e-02,-2.607229695907349945e-02,-4.579377950116512302e-02,-1.003713028009549021e-02,1.742235422134399414e-01
1.573564941385592331e-01,6.775618831883731263e-02,6.553702807034020306e-02,-8.898946547918553870e-03,-1.842868334432872304e-02,-7.689711064266263217e-04,9.741752594709396362e-02
3.250924066108440424e-01,4.585350084019659822e-02,3.973383735411953332e-02,-7.188280511327843365e-04,-6.118847651913492331e-04,-9.104650557859505708e-04,2.823576331138610840e-01
1.790441824226608469e-01,6.981176639427806585e-02,5.864795837102459997e-02,7.112653505316692167e-03,-2.084803038236330078e-02,1.736032007840172071e-03,1.214106008410453796e-01
3.233140498055484535e-01,5.472222219521391540e-02,3.765795877296483629e-02,-1.257331932890207128e-03,-9.993349049254561262e-04,-3.459233131473742409e-03,2.775963246822357178e-01
2.858653314069977691e-01,3.484717178899396361e-02,5.755927089561993504e-02,-5.344774008574821461e-03,-4.539626579732915918e-03,-7.489007463624052993e-03,2.411235868930816650e-01
3.174753440044039143e-01,3.441900299257201479e-02,6.085549943128444605e-02,-3.354625826266705631e-03,-2.695523574739767513e-03,-4.480401407029402545e-03,2.710213065147399902e-01
3.166551281950702457e-01,3.356305050392614786e-02,5.341116395932733740e-02,-7.597142634660947365e-04,-1.918404718790008923e-03,-1.686602687961854304e-03,2.737472057342529297e-01
2.967594053631639195e-01,3.606610866420043027e-02,5.515961443518270502e-02,-5.339880214708030842e-03,-1.247562202968079429e-03,-7.137184467780031266e-03,2.521726489067077637e-01
3.031320827358728320e-01,3.346463103959471108e-02,5.848171517585183665e-02,-6.824840130987679674e-04,-1.883393835254112752e-03,-5.337689318934007304e-03,2.582587897777557373e-01
2.853449098561055552e-01,3.192852276984237125e-02,5.547192723662681957e-02,-7.402820312652851585e-03,-2.457299808033125681e-03,-5.905373776770811954e-03,2.430946528911590576e-01
3.030582760894488525e-01,2.937635134508896628e-02,6.442937995783719340e-02,-1.026721307772179154e-02,1.206579079878361462e-03,-8.711529539696862695e-04,2.585730552673339844e-01
3.229335437777685058e-01,3.622193893091278649e-02,5.764025160523549018e-02,-8.756172537651938162e-03,-2.494420016488626667e-03,-4.822755974416737153e-03,2.772000432014465332e-01
3.165426555420419730e-01,3.359999669138448442e-02,5.326430605295391640e-02,-3.645459964969328601e-03,-2.021887304459728685e-03,-4.051725108143205273e-03,2.738261222839355469e-01
3.335110766754760814e-01,3.644366432234563691e-02,5.650724747403658432e-02,1.877791901656527184e-03,-1.002421653846635122e-03,-1.131733527197556445e-03,2.875913679599761963e-01
3.358368297176498318e-01,4.344872386674192288e-02,5.810703483378730494e-02,-2.751464398387394594e-02,-9.481896767110675403e-03,-3.136904218518097968e-03,2.898105680942535400e-01
3.469377847715076624e-01,6.673878231873528466e-02,6.058124876669211678e-02,3.491058119815218953e-05,1.900844920756575860e-03,4.649654149682741163e-04,2.833482325077056885e-01
3.488802172457245998e-01,6.894262276316040494e-02,6.246984776821286334e-02,7.529580960458124401e-04,-9.905963643699747852e-04,-1.777408951608731229e-04,2.832378149032592773e-01
3.382298870443616323e-01,5.671841336403134204e-02,5.805866799111579490e-02,1.681142354952407146e-03,-1.907347480427541925e-03,-8.971817485559156454e-04,2.808825671672821045e-01
3.340642508906951358e-01,5.351273400673912939e-02,4.481358736751066274e-02,2.059501131856233264e-02,2.448101301416428718e-02,-9.338794619334117933e-03,2.907876372337341309e-01
3.276038270218477599e-01,5.644799150046019010e-02,4.004727013059473928e-02,9.115277529483640064e-04,2.307478774766109626e-04,-6.397785387777570922e-03,2.799412012100219727e-01
3.308623376013799522e-01,5.661209722450126491e-02,3.847575683874120134e-02,1.233370404025197105e-03,1.653701073762619753e-03,-4.083778535957221893e-03,2.838640809059143066e-01
3.369116262191721445e-01,5.329654891171291264e-02,4.529159221819442638e-02,-1.340715339728700385e-03,2.978705046752908622e-04,-9.308365503841327902e-04,2.877154350280761719e-01
3.146371699236464314e-01,6.018223400854108562e-02,3.677975314634690518e-02,2.648908175400148564e-03,1.311044668169058028e-02,-5.806924553478533604e-03,2.681188583374023438e-01
3.353024613657253905e-01,5.947203252403696072e-02,6.270547612567770046e-02,-1.705991066683655794e-03,2.960303683647231340e-04,1.483099134693775377e-04,2.742445170879364014e-01
2.842138944851931859e-01,6.296573407250918852e-02,3.446585663400285326e-02,8.354224485128727276e-04,1.241025746401773315e-02,-8.473106569727694706e-04,2.377705425024032593e-01
3.660761414507854306e-01,5.989730803092033207e-02,6.437601367557224674e-02,-3.246780915655730383e-03,-2.631247982055497873e-03,4.106652037191604637e-04,3.040512204170227051e-01
3.306188567650257815e-01,5.705070533456790827e-02,3.589209683962768516e-02,1.344210106060277077e-03,1.596351940982781471e-03,-1.249246475811694162e-03,2.847688198089599609e-01
3.371578681247275333e-01,5.382453230802845823e-02,5.536280834982028332e-02,-2.434518722935607310e-03,-2.596026848350660964e-03,-2.343690738748203939e-03,2.826637327671051025e-01
3.358700457015154628e-01,4.170672680117917808e-02,5.463406906439531585e-02,7.902659276151939235e-04,5.693970538318598919e-04,-3.632231336218733064e-03,2.879910469055175781e-01
2.272640897537754889e-01,6.831524045387862842e-02,6.762580844480797770e-02,2.075931885966942649e-03,2.090162164519114053e-03,1.557183695296017771e-03,1.593991965055465698e-01
3.332692687510980245e-01,6.244052536877971182e-02,6.445210367027671972e-02,-3.117309124803912396e-04,-5.251096491671859929e-04,1.060420998632811279e-03,2.698369026184082031e-01
3.344868563795602712e-01,5.597508991803462619e-02,4.685800482999866179e-02,9.271130545742126876e-04,-1.455980410832444401e-03,-9.391478058897275490e-04,2.832008600234985352e-01
3.303137972684733192e-01,4.952759586832677918e-02,4.568455566733743700e-02,-4.113681051112394373e-04,-1.335052882180594834e-03,-1.008611482845571655e-03,2.827430665493011475e-01
3.300330444836825361e-01,3.552072451757366800e-02,5.599107023276073125e-02,1.408913436683028198e-03,9.014291429328772634e-04,-2.522229565526906084e-03,2.848775982856750488e-01
3.300484430911979628e-01,3.542091772852273834e-02,5.588747649291525565e-02,8.111510123839098425e-04,8.878386801684563399e-04,-1.396637859271454172e-03,2.849639356136322021e-01
3.315412963284084524e-01,3.973170097926972955e-02,5.432243694831494218e-02,-8.044485817501799093e-05,-3.367732787464606018e-04,-1.434562418140411305e-03,2.848061621189117432e-01
3.347775304006379016e-01,4.903336303931919715e-02,5.605400343597954915e-02,-7.867268786811241338e-04,-3.074635384359561201e-05,-1.850764477562284391e-03,2.823208272457122803e-01
2.685246466861053727e-01,5.158813697532084463e-02,5.793088019851223847e-02,1.907801400508845474e-02,9.166807683396218862e-03,-7.781481385932932128e-03,2.173737883567810059e-01
3.333485784845890976e-01,5.661607550784934773e-02,5.291368957215150659e-02,1.318802421614075895e-03,-3.744609071005162992e-04,3.439302786864199108e-04,2.786129117012023926e-01
3.332030148135253222e-01,4.608450806890794504e-02,5.356637274667057358e-02,-2.460309102578087884e-03,1.876114096486631092e-03,1.159732823413178694e-03,2.835094034671783447e-01
3.292025923792631925e-01,3.635738228575391418e-02,5.496482461476157044e-02,2.622966591570745961e-03,1.086011657975666364e-03,-4.145690192914467873e-03,2.841323614120483398e-01
2.873414379983728617e-01,3.124853959162636474e-02,5.369949485772845810e-02,1.529895342916303726e-02,1.175523168323094111e-03,-3.222933466773188552e-03,2.471347153186798096e-01
3.239545867087471054e-01,3.291182578371022738e-02,5.976213974943034302e-02,5.401800664739142208e-03,3.390499824335102292e-03,-2.640358190160348607e-03,2.788461446762084961e-01
3.425229927174352484e-01,6.080042359232522287e-02,6.834911075457648921e-02,1.083949961474337280e-03,4.431015085589642098e-03,9.455375709673505312e-04,2.781421542167663574e-01
3.474814866247443179e-01,6.178730396670055469e-02,5.821754791171203369e-02,-8.221950116390311022e-03,2.922822114908240742e-03,2.116155413550363431e-03,2.879160046577453613e-01
3.307733088553194145e-01,4.921599119354475027e-02,4.946572516935683617e-02,1.752130977578216853e-04,-6.507682963234533245e-04,-1.868396457398380272e-03,2.814535498619079590e-01
3.324286939787967077e-01,5.501039804166844849e-02,4.631560714101995435e-02,-1.342642610092077509e-04,-2.195398454858710473e-03,-1.131164772508365260e-03,2.818988263607025146e-01
3.607656109331695005e-01,7.079823192322481917e-02,5.769578315215462272e-02,-1.637086410408879460e-03,2.854863559527717580e-03,-1.617578107315302853e-03,2.968035936355590820e-01
3.893212404047364794e-01,5.933717289531215133e-02,6.779207520098168294e-02,-8.557982989567294863e-03,-9.833535884432955711e-04,1.412660929244866266e-04,3.261804282665252686e-01
3.278413347037845704e-01,3.683477725382343360e-02,5.597358404743983662e-02,-4.104386906855233066e-03,-1.320719271190621972e-03,-1.583009086521929400e-03,2.820370197296142578e-01
3.450931949709132862e-01,6.138848675023896029e-02,5.988880424153196491e-02,-4.266974134130778300e-03,1.722688677128340158e-03,7.772001848132885056e-04,2.845723330974578857e-01
3.295015417080733311e-01,4.518096422307829596e-02,5.013828192399562289e-02,-3.950068022023373732e-03,-1.980696386615036098e-03,-3.807784487499849338e-03,2.820556163787841797e-01
3.461887699236037008e-01,5.397864775320998509e-02,5.789427614232026120e-02,6.744876587193625664e-04,-2.914118599207735777e-04,-3.820972938962693792e-04,2.902756631374359131e-01
3.285952351460050824e-01,5.280163372364246599e-02,4.521984259160771735e-02,-1.437416032680210055e-03,-2.260096696589058204e-03,-9.057275254372369570e-04,2.797044515609741211e-01
3.290596337793851855e-01,4.346389955415488893e-02,4.263889873601833802e-02,6.785977230677573952e-08,-4.643243659475479348e-04,-2.600712612702488278e-04,2.860106229782104492e-01
3.263589521153765771e-01,4.374635736528793839e-02,4.173776955289136559e-02,-3.690404193251619995e-04,-1.812997926282300051e-04,-1.011216410499187488e-03,2.836285233497619629e-01
3.321091965942972735e-01,5.868186498067648471e-02,5.704052549761644275e-02,5.610100717810734055e-04,7.259181801393564323e-04,-3.869015516457116285e-04,2.742570936679840088e-01
3.196949012338142215e-01,4.946780815391231545e-02,3.601231508344303334e-02,-1.782292114021521165e-03,-1.459932237629862342e-03,-1.541115006824037232e-03,2.772414386272430420e-01
3.200729242152043907e-01,3.145438270638145628e-02,6.059341286354077982e-02,-2.593696956326580795e-03,-1.809981726728184144e-03,-1.144666026173779202e-03,2.752700746059417725e-01
3.274736583312753413e-01,4.835188527460677899e-02,4.230296891878881915e-02,-2.534309984283700549e-04,-9.379786375279377869e-04,-9.101040854147298808e-04,2.822042703628540039e-01
3.271231683083584141e-01,5.077070677384665220e-02,3.673747713934101544e-02,-7.138862499802323168e-04,-3.395857174084156334e-03,-1.819480264258021987e-03,2.837107479572296143e-01
3.264646690070990287e-01,3.843968594708548070e-02,4.719878702634980328e-02,-1.118299879047335256e-03,-1.731512073800018118e-03,-1.506268400611796617e-03,2.837812900543212891e-01
3.279906103248258487e-01,4.331866661891198289e-02,4.274519778305151119e-02,-2.816703929405767561e-04,-1.362908697687538842e-04,1.858565148231159779e-08,2.849596142768859863e-01
3.369673291286882644e-01,5.262519802431024629e-02,5.475109232024348571e-02,-8.799263379936057101e-04,-1.027080095777986547e-03,-6.692884325743532698e-04,2.832972109317779541e-01
3.230459281109758773e-01,3.806174471756623712e-02,4.758614560516655212e-02,1.660992346291034825e-04,-2.552304185462761905e-05,-2.158456829421641181e-03,2.803684175014495850e-01
3.241352122090535581e-01,4.083970182615183353e-02,4.502096742713850019e-02,8.633328136315449172e-04,3.998159429500199665e-04,-1.065144728128973855e-03,2.812390625476837158e-01
3.239492271608811480e-01,3.709497295086766622e-02,5.885419206644842971e-02,3.686985860685826257e-03,8.147891669717928725e-05,-3.331964878970565362e-03,2.767511606216430664e-01
3.363804981148728057e-01,5.476161334420255600e-02,3.905783988053299072e-02,7.160542047634910873e-05,1.894765693170036855e-03,-9.757095098730187571e-04,2.898136079311370850e-01
3.241341563823640359e-01,3.654931281224563233e-02,5.604897709591519228e-02,3.822468271581054827e-03,4.319879719934862912e-04,-3.117822238294944669e-03,2.784798443317413330e-01
2.276875211589782511e-01,7.665280059770993026e-02,6.266994527040098406e-02,2.258152807159928555e-03,2.219873917524449892e-03,4.567978008801285971e-04,1.585862934589385986e-01
3.230688402727927011e-01,4.714138423166736036e-02,4.153660107995185702e-02,-2.043570572041171300e-04,-5.703718710307286279e-04,-2.905878348250758286e-03,2.788195013999938965e-01
3.306012600211698516e-01,3.751557127915476630e-02,5.391138629165453944e-02,-7.187760555606740806e-04,-3.117473279688593953e-05,-2.208681266909221820e-03,2.852697968482971191e-01
3.308822344103136137e-01,3.488222971435915587e-02,5.682973054721730810e-02,2.806498671211864887e-04,1.083575053865897236e-03,-2.191027961700624856e-03,2.856910824775695801e-01
3.317809471710666536e-01,3.883272484967337235e-02,5.634773529848516316e-02,-9.702236064190034297e-04,4.077734810716964224e-04,-8.628835290030982151e-04,2.846049964427947998e-01
3.220576497993355991e-01,6.017499051820320022e-02,7.663400247877623361e-02,-2.191019418486222017e-02,8.807518350295112652e-02,5.163539634460713977e-03,2.988895475864410400e-01
3.382326739216575673e-01,5.892098428816783251e-02,5.342691741929311844e-02,3.173439600068957752e-03,-1.049197220903882403e-03,4.051592965191700996e-04,2.821591198444366455e-01
1.796351638543379203e-01,4.785214410858477929e-02,5.184337827980131652e-02,-8.616998715814375154e-02,-3.072696538725972447e-03,-1.033966959244765312e-03,1.978990882635116577e-01
2.931417784781274460e-01,4.193076785783088345e-02,4.465160437552818939e-02,-9.773973011440020842e-03,9.031900031295787834e-03,8.338000024655959491e-03,2.513379156589508057e-01
2.539909476396053911e-01,6.323731107514975192e-02,6.343295285572861375e-02,3.366762884683300715e-03,-1.481916944917681216e-03,8.654838019204151925e-03,1.913504153490066528e-01
3.335451929522948999e-01,5.264014562266677855e-02,5.397403204219428097e-02,-2.070708160086789842e-03,1.176479808034504564e-03,3.264741240624204847e-03,2.803278863430023193e-01
3.197897935060468599e-01,5.659301382294633365e-02,4.832697597026361369e-02,-1.326644037136575803e-03,1.053179479357483316e-02,1.039091471227531795e-02,2.686603963375091553e-01
3.395091300059703832e-01,5.897587246965099728e-02,5.614777726813628689e-02,3.140767153412552448e-04,2.393184931367793242e-03,1.914792105610568318e-04,2.819891273975372314e-01
3.328045477105016636e-01,6.024860136115717246e-02,4.307840352375993942e-02,1.815115235992701250e-03,7.803196120499518657e-04,2.151005143518750374e-03,2.815794646739959717e-01
3.117410876120171315e-01,6.103861034932250851e-02,3.186267777505782939e-02,-8.894855358436879692e-04,8.528321985045191414e-03,1.638995886402887150e-03,2.669196128845214844e-01
2.765812562228155969e-01,4.363449671313787692e-02,6.772404724223310413e-02,9.391873288443981825e-04,2.377054820429823280e-04,2.141958819805707490e-03,2.219222784042358398e-01
1.030471191197409597e-01,4.612516627289627025e-02,4.766854739649435679e-02,2.657047188158525100e-02,4.760991334929953744e-02,1.104526567213887436e-02,1.115289777517318726e-01
3.244782020065373196e-01,5.659156968452558334e-02,3.669666482399254470e-02,3.084664087208181739e-04,1.114052081019084378e-03,2.680986467814892513e-03,2.784137427806854248e-01
3.283089489329923949e-01,5.344280984681143432e-02,3.817126996523562132e-02,-1.436150914656378818e-03,3.181373505375433702e-03,1.413245856158493316e-03,2.828865349292755127e-01
3.305846913536427678e-01,6.023554663460624348e-02,3.961959100271707224e-02,3.395760930135642824e-03,3.315979336284187711e-03,4.084668210046472035e-03,2.814334928989410400e-01
3.125961723553423721e-01,5.833327627734841148e-02,3.515339940025087595e-02,-3.227987355735565875e-03,5.664419695857499625e-03,4.678795420067078693e-03,2.669717073440551758e-01
3.307874020001475568e-01,5.160477250389040871e-02,4.705394429439160864e-02,-1.660923410442472891e-03,-5.252035423349944243e-04,-1.584935075462827600e-03,2.815151810646057129e-01
3.372222552630250725e-01,5.527324871560786168e-02,4.705039234853118646e-02,-5.135344290420411047e-04,7.850151950944969995e-03,-1.765269755888640717e-04,2.864734530448913574e-01
3.318196350618054513e-01,5.060098787094045869e-02,4.656595773745700328e-02,-1.433379599235233949e-03,-1.042396757693729277e-03,-4.415302150168211488e-03,2.833775579929351807e-01
3.320811177461424069e-01,6.445184605078656259e-02,6.191807436569339573e-02,-8.513163258775537006e-06,-2.638824351690604057e-04,-1.059783128965199319e-03,2.689117789268493652e-01
3.285444255760907595e-01,5.720443268163841188e-02,3.868153503209942334e-02,-8.083764626759503682e-04,-4.022794111020538792e-03,-1.544698382785423532e-03,2.811621725559234619e-01
3.416824621029673770e-01,5.939358336005585992e-02,6.897000867134876756e-02,7.832920601016377452e-04,-5.134576641919768496e-04,5.284084611202041542e-04,2.776308059692382812e-01
3.302170908085619860e-01,4.775783149082804546e-02,4.657351463741633835e-02,-8.436002679928451603e-04,-1.122310472709170262e-03,-1.696124418928434069e-03,2.830789685249328613e-01
3.288648943299411487e-01,4.698113753887825372e-02,4.222702618040963252e-02,-2.679857291027960310e-04,-7.185660790186016843e-04,-1.118740725815514691e-03,2.843003273010253906e-01
3.313903510545072040e-01,5.222315875590412271e-02,4.977948771184496912e-02,-3.548802105782341209e-04,7.493877674975307117e-04,-4.769701212172339048e-04,2.804019153118133545e-01
3.198795975488015753e-01,4.940714343596559754e-02,3.559270429953553805e-02,-1.531797909800088455e-03,-1.563925331618363926e-03,-1.319946322677434912e-03,2.776728570461273193e-01
3.295693509630734930e-01,4.799737650742431916e-02,4.883767964448230969e-02,-1.131664241503777804e-03,-2.742954419039930281e-04,-1.441463967811180188e-03,2.811710834503173828e-01
2.449799058285130338e-01,4.433609858803641557e-02,6.993051360084054369e-02,-1.536025071175145008e-02,-3.096505835686172870e-03,-4.968867699867078429e-03,1.912806779146194458e-01
3.242408717869640356e-01,5.637025703936904275e-02,3.189311218027272854e-02,-3.475833243737927415e-04,-3.079478407386157003e-03,-1.446429157866251048e-03,2.809725701808929443e-01
3.191152620176181398e-01,3.159126449934411551e-02,6.363390335812536824e-02,-1.154306266335196340e-02,-3.670644776909613716e-03,2.592956810760496059e-04,2.737226784229278564e-01
3.229858233184600969e-01,3.543904342323603296e-02,5.046982820046859441e-02,-1.433295671694937096e-03,-4.169278906740931149e-04,-1.656927583308043239e-03,2.803603708744049072e-01
2.960945250191758249e-01,3.657950198031925670e-02,7.057865600143625739e-02,-1.089814023666626011e-02,-2.737874172814599820e-03,-2.302751976861893476e-03,2.451028376817703247e-01
3.210616786409806189e-01,3.103943198879888232e-02,6.065733584027917236e-02,-1.532120373913677894e-03,6.490076895528723230e-04,-1.810122174226329490e-03,2.764388024806976318e-01
3.075713458245005194e-01,6.202367393750629621e-02,3.157145342424171053e-02,2.891374817240586776e-03,-5.340386611886442474e-03,2.321421868188483072e-03,2.623457312583923340e-01
2.824914730977930999e-01,3.168724019286919824e-02,6.080110520018013054e-02,-8.303266674081309986e-03,-1.325505736666164581e-04,8.357094657537555678e-04,2.380283176898956299e-01
2.824664523511770109e-01,3.209288969101256606e-02,6.256498450995258420e-02,-1.017933315100356256e-02,-1.150071023961805319e-03,-3.896086454699710169e-03,2.373740226030349731e-01
3.002379544401961864e-01,3.486248672318324748e-02,5.679855166010293333e-02,-2.025342080240402284e-02,3.595940525680835394e-04,2.177952668097343000e-03,2.575446665287017822e-01
3.215581352285701855e-01,3.099194127043264357e-02,6.086306197705604326e-02,-1.190693145540462454e-02,-9.290638980820906199e-04,-3.009495643729124745e-03,2.776626348495483398e-01
3.227930335275362994e-01,3.251707206115221627e-02,6.031764459690325264e-02,-5.962744817222199491e-03,6.770462241964119408e-03,1.683043624690345411e-03,2.778773903846740723e-01
5.263313857146749708e-01,9.368182512203235279e-02,7.292592474982459438e-02,8.866964123646415771e-03,4.674902014283926349e-02,2.546504703995873097e-03,4.510079920291900635e-01
2.998316382032932825e-01,2.811910147772217483e-02,6.207122826703685703e-02,-1.123557809579216193e-02,-8.261764356810774503e-04,-1.419312981487617573e-03,2.571809291839599609e-01
3.071481787526550988e-01,3.228147561173742852e-02,5.884013930796974656e-02,-3.848281574843117388e-03,-2.332294609907971730e-03,-4.484359815788600996e-03,2.628270387649536133e-01
3.157185973559225589e-01,5.379106666924560187e-02,3.419960523504537997e-02,-1.892229205875286049e-03,-5.897831185911290783e-04,-2.107781596926605779e-03,2.722985744476318359e-01
3.292490427326686397e-01,5.556736046035412602e-02,4.424762695752385011e-02,-1.609082229512704808e-03,-3.569410818959376733e-03,-2.810680354090845916e-03,2.796381413936614990e-01
3.240434656802003155e-01,5.013577287642176361e-02,3.610590229089506720e-02,-2.020274468904266398e-03,-3.118648475127229567e-03,-1.819451571987777379e-03,2.812765538692474365e-01
3.403235650671704304e-01,6.017921312040662440e-02,5.911499072009186728e-02,2.985365007873792137e-03,2.265642445471291802e-03,-2.343536759073857494e-04,2.807533144950866699e-01
3.212611399982793214e-01,3.016029743340828406e-02,6.239521089911313767e-02,-5.486139326767443952e-03,1.354777551058645915e-03,2.936555496011508649e-04,2.765704989433288574e-01
2.862065150202808272e-01,3.052538589469770691e-02,5.977435278590889633e-02,-9.877494510092997906e-03,7.902502963780608106e-04,4.066732077401023293e-04,2.429917603731155396e-01
3.356712071279723819e-01,5.753987411908979832e-02,5.643595303246164152e-02,6.686010228828507835e-04,1.152289632725172737e-03,-4.085833554074397669e-04,2.786953747272491455e-01
2.830148737871246434e-01,3.308925011281162176e-02,6.254428600758285550e-02,-7.920220693648631974e-03,-9.463861271200579850e-04,-4.625192679560900799e-03,2.371158003807067871e-01
3.906245724612967818e-01,7.442406338589178938e-02,6.464603095774944241e-02,-1.681553455613660859e-03,-2.173193976213602923e-03,-1.552742632595250456e-03,3.212476968765258789e-01
3.204966708869426140e-01,5.178760677946790680e-02,3.776752515361081475e-02,-1.318004244655243988e-03,-1.682427721988408956e-03,-4.609812584448447562e-03,2.761265933513641357e-01
3.202327549558298680e-01,5.335118331072029318e-02,3.372315671001986648e-02,-6.622886267078725809e-04,-2.358899882801455440e-03,-4.091771691406029775e-03,2.773402631282806396e-01
3.250498341014868564e-01,4.709045581830154092e-02,3.813394188896451764e-02,-4.840750232280468081e-04,-4.005370154997169247e-04,-1.178496688712219430e-03,2.825535833835601807e-01
3.282303299126488882e-01,5.678501737234227520e-02,3.680999395580472622e-02,-5.486604171009308020e-04,-2.719048680776187978e-04,-9.542748262373477097e-04,2.819708287715911865e-01
3.188665014164530076e-01,4.927469485406148209e-02,3.712425912722119858e-02,-7.728000376398300826e-04,-5.029052824872959218e-04,-3.338660571920101794e-03,2.759329974651336670e-01
3.204174193572612017e-01,5.145458048360680714e-02,3.870169264422305966e-02,-9.792359788091719100e-04,-2.024163101142728138e-03,-2.998714761244387818e-03,2.756371498107910156e-01
3.369798183386404355e-01,5.901344947347483827e-02,5.045996058697187203e-02,-1.128111189386799343e-02,-1.741419746025960752e-02,-5.718458629227949307e-03,2.847906351089477539e-01
3.076729161074818197e-01,6.420444898053152827e-02,3.650984564066697691e-02,2.167243302112498334e-03,8.985801929300990401e-04,1.441489902389440523e-03,2.584751248359680176e-01
3.370037800743964085e-01,6.109742364062620279e-02,6.441836299558457990e-02,-1.989145341535044492e-03,-1.190007922489380327e-03,4.480443092794331948e-05,2.742903530597686768e-01
3.111457467099829066e-01,5.966195993763123706e-02,2.760684213899269879e-02,2.694509585572363156e-04,-4.011088788172374156e-04,-5.657209930908075300e-04,2.689509689807891846e-01
3.137387185541938295e-01,5.991231643024233500e-02,3.000463475003266323e-02,3.040760241190628875e-04,-1.261201842669554187e-04,-1.579602491718111153e-03,2.700397670269012451e-01
3.428269149884978217e-01,6.010042644463083061e-02,5.621001855725497875e-02,2.504997543670124671e-03,1.615364470647734320e-03,4.099702727612889309e-04,2.847393155097961426e-01
3.347857741223689287e-01,5.848849400325979719e-02,3.585817764593811352e-02,-1.044033994700210638e-03,-7.357512491023122415e-03,-3.437723007438733824e-03,2.886280119419097900e-01
3.168343169309871254e-01,5.088286068261022033e-02,4.598855829295143971e-02,7.798413720099401682e-03,-5.600230349865580395e-03,9.440119933159175220e-03,2.694432437419891357e-01
3.002751315200434812e-01,5.184074698619668686e-02,3.640160044084400637e-02,1.599937443318044314e-02,-5.894272889150656974e-02,3.427404040925104232e-03,2.775239348411560059e-01
3.364061961294072534e-01,5.898326884876975429e-02,5.499038735581290860e-02,8.115798260168731633e-04,-7.164260075010671380e-05,-5.481672749252406796e-04,2.794459462165832520e-01
3.427468109674283170e-01,6.015738563730149702e-02,6.640216684711147677e-02,7.673430224470087447e-04,3.453409331695107744e-03,6.775208500683537393e-04,2.795889675617218018e-01
2.618629125926382750e-01,6.394850788114135598e-02,6.275529098003730655e-02,1.836418144797827626e-02,-9.893050719663485509e-03,9.142364026556883475e-03,2.023951262235641479e-01
2.784349908899093617e-01,5.383788089353219730e-02,4.423418923587149609e-02,3.087984202410777590e-02,-7.727089629555553008e-02,-2.772641448747311613e-03,2.710888981819152832e-01
3.314445719311237548e-01,5.843327002097423173e-02,4.137455442153555041e-02,9.201821510719424002e-03,-2.537474917789054457e-02,9.339922496012629041e-03,2.862354815006256104e-01
3.526552102437816583e-01,6.755321929459745522e-02,6.252651612395798697e-02,3.810391749213307144e-02,-8.990973445395702979e-02,-4.731794699975051116e-03,3.337899148464202881e-01
3.207954885683615975e-01,4.594215721957653487e-02,5.002616927348284281e-02,1.019816198012084979e-02,-6.392810907981011197e-03,4.369685098298639082e-03,2.737342119216918945e-01
3.162071290052065331e-01,4.129920527116402729e-02,6.005604888480996217e-02,1.224236360262943250e-03,1.560609706378540478e-04,8.015755510875050005e-03,2.663965225219726562e-01
3.285717783438339978e-01,5.549257693003743774e-02,3.741511429237838471e-02,5.423739532188562654e-03,-1.412275663594171615e-02,4.510739727370212393e-03,2.838719189167022705e-01
3.287594368119440835e-01,5.600714458255325046e-02,3.845512130080040725e-02,-1.166986596017569131e-03,-3.948852694123738613e-03,-1.769277930126693420e-03,2.820452153682708740e-01
3.287258799347667626e-01,6.050687586906479398e-02,3.380301996227108585e-02,1.053125974699797461e-03,-6.317138067520733716e-03,-1.163498626780130191e-03,2.827439010143280029e-01
3.331969530976137683e-01,6.679722121703478288e-02,6.211915253933096570e-02,-8.862884965981609716e-04,-1.300570605943702574e-03,1.858407104545414931e-03,2.688024044036865234e-01
2.352929877559446492e-01,5.240807349199849696e-02,5.585443868117367233e-02,-3.135581316776175909e-02,-3.359296325326149857e-02,-1.001507571286214954e-02,1.986565142869949341e-01
1.910545252183115661e-01,7.034569671551346715e-02,7.153328580273780879e-02,-1.202441064971060576e-02,-1.172804165669286483e-02,-8.541936265315529285e-04,1.236012503504753113e-01
3.351202277352146597e-01,5.771238729143016166e-02,5.629001972734268278e-02,-2.972992544937776691e-04,-1.190766210196787063e-03,-1.178058698295527578e-03,2.781373560428619385e-01
3.362263860776578683e-01,5.551273441935980490e-02,5.441058918108740428e-02,-1.704806675985060796e-03,1.076003349448144538e-03,-1.399870778444105724e-03,2.812984585762023926e-01
2.874717028676865849e-01,6.340446052655961118e-02,3.451334719974774590e-02,3.147339053732338865e-04,-3.423006948638816511e-03,1.644937118282089380e-03,2.399123609066009521e-01
3.340981688973579944e-01,5.232016529944105709e-02,5.742058762193262555e-02,8.127666328507919839e-04,1.504177959460070192e-03,-1.093172444198097672e-05,2.792784273624420166e-01
2.939633085214543584e-01,3.949105804024194422e-02,5.159727476564492099e-02,8.724065846598405560e-03,-6.615019426741130908e-03,8.747104351903366160e-03,2.498221993446350098e-01
1.892086732609868649e-01,6.884161712982936332e-02,6.857945634167475490e-02,-5.578309635906089983e-03,-1.535997763951292951e-03,-1.161102212839835611e-03,1.209310889244079590e-01
1.926915642640120718e-01,6.838753335700191449e-02,5.914986436815763970e-02,-1.822876050732853345e-02,-2.153782753445161041e-02,-3.794177898648705936e-03,1.382634788751602173e-01
3.151769998430503650e-01,5.477514941691406791e-02,3.087580700174807902e-02,-1.466902500136685501e-03,-1.263992861701766389e-03,-1.385402080625267301e-03,2.731679677963256836e-01
1.867946326075003993e-01,6.466198821967400479e-02,5.835675883704976447e-02,-1.440504741796872108e-02,-1.888385265808158880e-02,-4.701230406771661312e-03,1.322302222251892090e-01
3.525816129022191769e-01,5.713227977377795253e-02,6.452359500965740291e-02,2.560110748681263676e-02,-1.769641927473612417e-02,8.993646114739054301e-03,2.971692681312561035e-01
3.263988183523628406e-01,4.551450977774290640e-02,4.446751567769609281e-02,6.679843871501340473e-04,-8.917151804522607285e-04,3.179319963018574936e-03,2.814697623252868652e-01
3.207157917452287954e-01,5.946598608895412030e-02,3.095482375911996764e-02,-1.774658782309991231e-03,-2.670915027710233682e-03,-1.338144172877418422e-03,2.766750752925872803e-01
3.201304860531085095e-01,5.422214144566275817e-02,3.075989122110323049e-02,-2.571051851914257867e-03,-3.053818955416418967e-03,-1.439078118913415458e-03,2.784790098667144775e-01
3.206324729671629070e-01,6.091670957696777855e-02,2.883700508203275448e-02,-1.420974436084114436e-04,-4.458357123601357913e-03,-1.307366598341566958e-03,2.772684693336486816e-01
3.064348162683512844e-01,5.074021236717878025e-02,4.469590231887939080e-02,1.005028550838252656e-03,-5.148096361528089158e-03,8.034107467235120786e-03,2.593027949333190918e-01
3.356159124332162014e-01,6.011122088051806811e-02,5.826720913130623014e-02,-1.411212511797020142e-03,-2.303481165954438144e-03,1.629918714051872375e-04,2.764710485935211182e-01
3.004668349473000322e-01,5.957838512075799842e-02,3.709172272007484061e-02,8.042933650601576459e-03,-1.084020851813807113e-02,6.281697825815610488e-03,2.541941106319427490e-01
3.292545491008888048e-01,5.170001569073784387e-02,4.904794422136600496e-02,5.670904624195110579e-03,-4.423404955694692359e-03,8.019176940651882163e-03,2.795134186744689941e-01
3.271273038961165502e-01,5.778563668615165072e-02,3.275574442665837860e-02,6.604294467460074041e-04,1.592559522289483049e-03,1.108603977360275500e-03,2.827112078666687012e-01
2.721342642336579409e-01,4.227936433929872784e-02,7.494534689797807681e-02,-4.344591967860157548e-03,-2.405704830482448264e-03,5.967579084983573329e-04,2.155619710683822632e-01
3.191158318818897999e-01,5.519228483222077264e-02,3.477041316263752846e-02,1.308217137805269936e-04,-1.776472537580120687e-04,2.708359881674280920e-03,2.747447192668914795e-01
3.207990310745801876e-01,5.248288036062301321e-02,3.770932788515019007e-02,-4.306600991616550429e-04,6.645978042460074170e-04,1.402455366866423459e-03,2.760137319564819336e-01
3.281824129458412731e-01,5.331388116683871692e-02,3.907426067340316611e-02,2.430698071812558737e-03,-3.926793918591932591e-04,1.482883134151374849e-03,2.823017537593841553e-01
3.415975793860641652e-01,5.881173722962820816e-02,5.731182907445003805e-02,2.065806205860816480e-02,-1.341828411359462757e-02,6.474185715711625738e-03,2.869501709938049316e-01
3.375863837105482212e-01,5.806349803580976299e-02,6.288674404609390090e-02,2.937664733320390943e-03,-1.604489686794243180e-03,4.717598245447767293e-04,2.772045731544494629e-01
3.508429604997728157e-01,5.203362057599159041e-02,3.533226492005425712e-02,1.252440647276334591e-02,-2.974726943151968089e-02,7.915623894711681582e-03,3.128413856029510498e-01
3.753155838348470330e-01,5.504353914497597811e-02,5.575227242903497971e-02,1.050981306181346733e-02,-1.016158757520588610e-02,4.845870066161280833e-03,3.210284709930419922e-01
3.776284567594452302e-01,5.861127098283192005e-02,6.154749364688648361e-02,8.012259687235564337e-03,8.955216081906063746e-03,1.374944334884367538e-03,3.182494640350341797e-01
3.335961762955861887e-01,4.821610313477805998e-02,4.497060808964718770e-02,-5.037899918893535677e-04,4.193151608387277727e-04,-4.002511344223084626e-05,2.870188355445861816e-01
3.420129859850539189e-01,5.617875109119366273e-02,6.541342212779277521e-02,-9.113363505007345596e-04,3.438069127846934622e-03,2.444727129761644084e-04,2.813983559608459473e-01
3.423613188143770358e-01,5.877313112373816484e-02,6.211811881078678488e-02,-1.504421680603065369e-03,1.468048961037552932e-03,9.573900808129434887e-04,2.819589674472808838e-01
3.449466498376376755e-01,5.833945283018887595e-02,5.775249235949918292e-02,-8.034891630858980891e-04,2.089576331713526112e-03,-1.345127592654835795e-03,2.869367897510528564e-01
3.657688273043385729e-01,6.078546279895016835e-02,5.624995240766435256e-02,1.003333642242787947e-02,1.025439811639509632e-02,-3.608840453918715427e-03,3.083426952362060547e-01
3.227178952412030899e-01,6.682578183995038779e-02,4.324636373235328513e-02,8.550867123584906387e-03,9.530247715769879502e-03,-8.461680117944670593e-03,2.697724699974060059e-01
3.351294522245849561e-01,6.664271968146973091e-02,6.035810370884880927e-02,-2.029435629106823391e-04,-1.898990334583760902e-04,-6.859954623874997158e-04,2.716865837574005127e-01
3.383746371039179079e-01,6.092254945521870246e-02,5.174531307204729980e-02,4.928405850620576432e-04,5.896519243323840483e-03,5.326247661196775599e-04,2.823402285575866699e-01
3.097111444727800311e-01,4.229220696684712899e-02,5.804298649221065198e-02,1.067341897461857557e-02,2.170615922943877011e-03,8.182304767014104627e-03,2.609706223011016846e-01
3.265236483289709613e-01,3.479793178004136900e-02,5.618869628017612861e-02,9.400513311419580543e-04,-3.316977818166684175e-04,1.818796743257586682e-03,2.816631495952606201e-01
3.121329450865740762e-01,3.501195368547427300e-02,5.934172655347197400e-02,8.445487860923771295e-03,-1.716659424177612026e-03,5.012995644741015909e-03,2.663529515266418457e-01
3.232878907657557033e-01,3.334776130637556735e-02,5.756830158739124903e-02,1.410746688048357704e-03,1.548791838711040172e-04,9.114210979191807258e-04,2.786358594894409180e-01
3.293597263404062225e-01,4.023563671034090239e-02,5.837612644126018158e-02,1.138594939598902090e-03,1.815424072832995872e-03,7.170436041029519059e-04,2.805214524269104004e-01
3.450727280494469418e-01,5.900112212744026974e-02,7.589607160986759637e-02,9.042974913777933593e-04,8.965070995003407471e-04,2.750922806401162363e-04,2.780185639858245850e-01
3.488961659949293415e-01,6.029280932644066893e-02,7.026868490040542869e-02,-2.251778585304497240e-05,8.600974695339056678e-04,-1.047341297087474440e-03,2.837566733360290527e-01
5.361106897694132289e-01,7.931173167808019953e-02,7.228443704409684423e-02,1.631029604261168345e-02,2.856901118194325392e-02,2.209175701781507933e-02,4.654411971569061279e-01
3.375295019130688523e-01,5.966231866107450654e-02,6.836475279634340874e-02,-5.341287113838819565e-04,-1.255753706356457777e-03,7.119137857359547064e-04,2.736327648162841797e-01
3.240324291974525650e-01,4.406087816562258286e-02,5.024402271805680775e-02,-1.344316754936514691e-03,9.733027976277089984e-04,3.934184977862366026e-03,2.770304977893829346e-01
3.265883022325813401e-01,4.113887795925542934e-02,5.017368504920158290e-02,-4.806278309056144049e-04,1.268442306712867177e-03,1.765677312909094470e-03,2.810674309730529785e-01
3.215396936122941751e-01,3.464433014911601216e-02,5.471499303008482695e-02,-1.318401007676264867e-03,2.862746208392592459e-03,2.217754927687732355e-03,2.774854302406311035e-01
3.210607317054917642e-01,3.515270512101308087e-02,5.631492614164659849e-02,-9.201575414380928257e-04,1.754791882506698481e-03,1.702107547635132567e-03,2.759732902050018311e-01
3.264003108990559676e-01,3.724071549497094680e-02,5.243668227580966512e-02,-2.299921896500330045e-03,-5.567765159185592136e-04,1.260971121490712509e-03,2.819072604179382324e-01
3.369692078177661809e-01,5.624857409711420120e-02,5.833922733087372470e-02,-7.344522492357150739e-03,1.851281504224602478e-04,-1.542982399449301144e-03,2.799832522869110107e-01
3.390383489234516379e-01,6.059586779784940924e-02,7.084891761690452483e-02,1.242855997159636721e-03,-8.226108117410929491e-04,-1.247515496677470458e-03,2.734808623790740967e-01
3.425096916726334539e-01,5.949577725584202781e-02,7.326999076117915455e-02,1.276574076612584704e-03,5.074153911774509926e-04,-4.607199839213516794e-04,2.763957381248474121e-01
3.275517893740936270e-01,5.753558457047494579e-02,3.296128056706670861e-02,-4.368529786676403066e-04,-6.457548044861226300e-03,-1.593443980100076127e-03,2.833397090435028076e-01
3.359401055526800017e-01,6.245633630780972334e-02,6.210765575751679701e-02,-1.467640363899557930e-03,1.728496846345269847e-03,-1.338918663063577545e-04,2.736865580081939697e-01
3.114725926184577776e-01,5.920181865084997441e-02,2.722788699454511963e-02,-8.887154420879192149e-04,-2.837497559533330715e-03,-9.767910554086621077e-04,2.697375714778900146e-01
3.420445545892784045e-01,5.907999532016225408e-02,5.828916152080547419e-02,-4.618448155459439416e-03,-1.269392322394281240e-03,-1.946076831590889120e-04,2.834824323654174805e-01
3.350182890677658731e-01,5.555854852333030891e-02,5.806317410676062329e-02,6.981924407161900362e-04,7.077136492177118219e-04,-6.290473636725599314e-04,2.782233357429504395e-01
3.372520001045767324e-01,5.502312698974567984e-02,5.609782916081819393e-02,-1.985999933838904653e-03,9.857453434605409348e-04,1.885157772424689900e-03,2.817381620407104492e-01
3.319661393163150231e-01,4.817398409454687336e-02,5.975400836346488054e-02,-1.505843130787150319e-02,-2.184881049951836133e-03,-4.782199652796863439e-03,2.795513570308685303e-01
3.289269526390443121e-01,3.730553855265991703e-02,5.732156915231509386e-02,-3.920185332405987794e-03,-4.529725632717253769e-04,-1.374790211759679319e-03,2.822392284870147705e-01
2.982568956053239240e-01,3.819564021007845755e-02,6.242206791547701139e-02,1.910286071338374372e-02,-7.812851476244678239e-03,6.298804132015882462e-03,2.516253590583801270e-01
3.159585401081254075e-01,5.323467680523649714e-02,4.896306881371290110e-02,6.080566362008401476e-03,1.029980887237349346e-02,-7.316864215795534400e-03,2.659964561462402344e-01
3.382976243070966449e-01,4.889602733664620560e-02,4.827264857185424585e-02,3.162464677831979269e-05,-1.635481503881657363e-03,-3.143309938910988401e-03,2.897787988185882568e-01
3.126036969217196315e-01,5.952066915133145952e-02,2.793858063146086035e-02,-8.229483646296728051e-04,-2.219165644824068646e-03,-9.234879365308851402e-04,2.702974379062652588e-01
3.119311381256035798e-01,5.322006118812482034e-02,4.017164319540596218e-02,5.270719338486795982e-03,6.730902986071132278e-03,-7.080656913489612354e-03,2.661712169647216797e-01
3.754790926390383365e-01,5.352843245765655233e-02,3.956106432439689125e-02,4.133793151520169865e-03,-1.717905620096642563e-02,-7.286200643095069873e-03,3.308171927928924561e-01
3.065755202904760779e-01,5.403416528436662258e-02,4.849440940549386292e-02,4.529575162749314987e-03,1.378295351537364840e-03,-7.696072365469239056e-03,2.558354437351226807e-01
2.739215498002565141e-01,4.798003911742948491e-02,4.385660584038146570e-02,6.672664456269545609e-03,1.641561223838304551e-02,-1.012432499476444148e-02,2.307546734809875488e-01
3.171682968209713627e-01,6.122276186806167864e-02,2.774827883063095413e-02,1.751337719802413366e-03,-2.611944219549872364e-03,5.373641706507696928e-04,2.742751240730285645e-01
3.308207419873702704e-01,4.554412570408745975e-02,5.364207524262450122e-02,1.319720684634378841e-04,-1.097981352816222462e-03,-3.590645364974847601e-03,2.813903391361236572e-01
3.309272691694929991e-01,4.408072366706021483e-02,5.334903092440340666e-02,6.154977946128286129e-05,-3.819868346170957296e-05,1.462230907835247208e-03,2.823379039764404297e-01
3.177636340686039729e-01,4.190284377037632735e-02,5.515136637578042789e-02,6.285846229063939139e-03,9.209294556921401170e-03,-6.837488794099312421e-03,2.704314589500427246e-01
3.201631618168052085e-01,5.800159340098018368e-02,2.812718980190907769e-02,-1.372437739003108930e-03,-4.459827080052078223e-03,-1.197151797876702456e-03,2.784290015697479248e-01
3.156583866725792831e-01,5.947009317965480657e-02,3.038635691063830413e-02,-6.343879302084176001e-04,-1.187268747510461520e-03,-1.070085321040280864e-03,2.719155848026275635e-01
3.212876250290236380e-01,4.798921917914124313e-02,4.170686369042313213e-02,-2.106871110782617199e-03,-1.152919950722390867e-03,-3.886892299742785144e-03,2.766063511371612549e-01
3.443516055867110737e-01,5.870371719703328106e-02,5.614668473226004652e-02,-1.335737732255228710e-03,5.774867774353615452e-03,2.811307501826129564e-03,2.871598303318023682e-01
3.341569499438387103e-01,4.536655062925182280e-02,5.637146591187236488e-02,2.199235396058683151e-02,3.435585882750332581e-02,-9.901233199577101976e-03,2.926242649555206299e-01
3.340114330607485416e-01,4.901909868799966818e-02,4.791254982334697266e-02,1.561445816221993107e-04,1.074303291036674771e-03,1.115283949448196178e-03,2.855599522590637207e-01
3.336569287310984788e-01,4.671783156644537804e-02,5.433753973622748590e-02,1.376583961039367461e-03,1.628421343006854378e-04,-3.276033218124791042e-03,2.832731306552886963e-01
3.319778975278006583e-01,3.910384451649538684e-02,5.427149352774139623e-02,2.445696270390654552e-04,-4.974631792590889406e-05,-2.382204243058343596e-03,2.856225967407226562e-01
3.077316484675839403e-01,5.036743996436138238e-02,5.214374751256116436e-02,-4.458642229869297824e-04,1.429480241063032283e-03,7.356120818894047904e-03,2.568100392818450928e-01
3.366014664460367789e-01,4.353621233978990923e-02,5.298128275040596413e-02,-1.421644298405693504e-03,-5.852289878908261377e-04,-7.753809874101199153e-04,2.884741425514221191e-01
3.197446185976391964e-01,5.737416518682983413e-02,3.255413390031555720e-02,2.219837189720231391e-03,-1.871794466624128852e-03,1.524603686820643136e-03,2.756784260272979736e-01
3.243102946634167649e-01,3.238419380940921188e-02,5.699158545567641065e-02,-2.423520544401669332e-03,1.855482430993471259e-03,2.168875667769456876e-04,2.804833650588989258e-01
2.529805468566027615e-01,6.434676587197411812e-02,5.585908425478126882e-02,-9.061327730348714415e-02,1.132228654228665220e-02,-2.668235131968386444e-03,2.495877593755722046e-01
3.124783793154487510e-01,5.486881459826634111e-02,3.774280921367541286e-02,3.299979567121327523e-03,-3.406875413301146526e-03,4.467942404747945150e-03,2.668242752552032471e-01
3.292436804620412216e-01,3.836880416652103942e-02,5.235905765678508517e-02,-6.513841831963653817e-04,3.003538108141190054e-03,1.054471605452915852e-03,2.841939032077789307e-01
3.059377224072421519e-01,2.902834664905695750e-02,5.986626416793716654e-02,-4.463230748313104512e-03,-4.170801080319761715e-04,-2.183689732673734559e-03,2.629925012588500977e-01
3.216862756472849139e-01,3.221993339583227589e-02,5.820191307611566334e-02,-3.021774487133560561e-03,1.385534885559035504e-03,5.558436296671746130e-04,2.774508893489837646e-01
3.056030616305595027e-01,6.743592040740482851e-02,3.946942646700492274e-02,4.261139565090164491e-03,-9.495276136336055703e-03,4.343871990194946887e-03,2.540629208087921143e-01
3.417080760358962577e-01,5.955676715181836001e-02,6.106218764317375425e-02,1.667965827623560599e-03,-5.462499971195819946e-03,2.314477843960505491e-04,2.815757393836975098e-01
2.920744234549369489e-01,5.874304043086361893e-02,3.546004560417002904e-02,5.497614090025007691e-04,-6.751642497209744270e-03,5.306081119628193454e-03,2.462527304887771606e-01
3.373071724083113176e-01,5.831981713667616640e-02,4.135023175370713955e-02,-1.865304756281454699e-03,8.387533951402813270e-03,2.375916700166770968e-03,2.882614135742187500e-01
3.005535135430627003e-01,5.486464993498069154e-02,3.673514019945571529e-02,8.014315770254876528e-03,-1.120981782880424438e-02,5.750267577193944428e-03,2.565439045429229736e-01
3.447148459646082186e-01,6.215562427878926210e-02,7.046477774775794511e-02,2.424239148319873218e-03,-4.574715201395669270e-03,-1.180656428336741490e-03,2.786494791507720947e-01
5.074424376210203702e-01,7.792015429250823133e-02,5.988995841105687612e-02,1.966791185671417849e-02,3.984704364849818263e-03,3.841137543395901303e-03,4.402399659156799316e-01
3.285723452764086616e-01,4.425257667552814911e-02,4.797964431290942244e-02,-1.310805593051809657e-03,2.003910987077039702e-03,3.608033814894597187e-03,2.825742363929748535e-01
3.398461284959952700e-01,6.112526434121229313e-02,6.377768756071591771e-02,3.033843138586356410e-03,-1.480564748855545901e-03,-2.645420608611955752e-04,2.774661481380462646e-01
3.384970370724464939e-01,6.166337431760450516e-02,4.865964368302908016e-02,2.240813151592558304e-03,7.888488942484424629e-03,6.431747005728177943e-04,2.839169502258300781e-01
3.248632924595716842e-01,4.422292229875969538e-02,5.040884696568466439e-02,-1.161904827605677844e-03,1.526369310425814254e-03,3.926146654513762782e-03,2.777022719383239746e-01
3.283926663958964820e-01,4.331711304999839862e-02,4.410677741043282640e-02,-2.116875601761499404e-03,1.031403111433156720e-03,2.979714793554107902e-03,2.847575247287750244e-01
3.316526916013953219e-01,4.394369778076906430e-02,4.475719791962476379e-02,-1.148168771371769169e-03,6.946837340707246464e-04,2.980297052420130544e-03,2.873588800430297852e-01
3.424767575576338485e-01,5.676932882585911111e-02,6.745948585746641690e-02,-3.753890760364621271e-04,4.512672390052861228e-03,4.254102326530328332e-04,2.806257605552673340e-01
3.258254838318314084e-01,4.327534784620244712e-02,4.530401628191725594e-02,-1.478664207771052293e-03,3.986489231689599867e-04,3.745529676979988173e-03,2.816285192966461182e-01
3.207709751675420495e-01,4.329782050594756238e-02,4.627565390344119678e-02,2.468815239770332133e-04,1.153069634647418008e-03,5.618093416312356335e-03,2.761753201484680176e-01
3.199606206671589126e-01,5.566786056958253348e-02,4.199646905491898063e-02,5.933945903633154346e-04,7.837833482387764061e-03,-7.070895145247567230e-03,2.720039784908294678e-01
3.448991797351424471e-01,5.699760778612680823e-02,5.430446496662073852e-02,-5.439921933680526680e-04,4.035426937981212285e-04,-2.191218003826564918e-03,2.892848253250122070e-01
2.978132927412331377e-01,7.348003294365315630e-02,3.706650230164189319e-02,1.643199758921337975e-02,4.008104341088240818e-02,-5.836693140656021121e-03,2.560309171676635742e-01
3.337401300370373969e-01,5.438219634005325709e-02,5.406069569351139303e-02,1.142272707395783392e-03,-5.557810341101284421e-04,4.697551747071586022e-04,2.795286774635314941e-01
2.791325359011006535e-01,5.259148951217722245e-02,4.414412828858567395e-02,4.296945068913064769e-02,6.789851188457968201e-02,-2.504250893440729676e-04,2.695845067501068115e-01
3.281098812845587576e-01,6.262493799789640991e-02,3.291009457696411622e-02,3.310659874246407123e-03,-8.618875008968813339e-03,-2.182224694122582352e-04,2.819750905036926270e-01
4.054891186506082157e-01,4.972487066381357790e-02,6.510686345319660617e-02,1.657741557464205429e-02,-3.589374090054346655e-02,6.159590460364085772e-03,3.551560044288635254e-01
2.431293430325646709e-01,6.562070298277875025e-02,3.657431427887250508e-02,-1.186761250587483859e-03,-1.505648354985063449e-02,1.574417391023301459e-03,1.954501271247863770e-01
3.363943906113919802e-01,4.454992219759959515e-02,4.231029943380838765e-02,3.050529799463301203e-02,5.028454840662215097e-02,-9.322194476607603003e-03,3.105959892272949219e-01
4.290084231192629050e-01,6.469637178960134516e-02,5.914012868722595684e-02,1.100383378213152380e-02,7.397563576365472071e-02,-5.331293630040002778e-03,3.894150257110595703e-01
3.611540055394542037e-01,5.278787971016508929e-02,5.988826979004356621e-02,1.690476615073436065e-02,1.416281496489246727e-02,-2.514265659851684046e-03,3.072923719882965088e-01
3.746740024339366704e-01,6.175629224843985632e-02,7.016908438459969199e-02,5.954916440172651482e-02,8.736890771773549169e-02,9.468085699194561840e-04,3.590219020843505859e-01
3.127474603102283202e-01,6.172290392199206166e-02,2.713364815024471577e-02,3.884588919655325759e-04,-1.476043289931617359e-03,2.223224856773551347e-04,2.699993252754211426e-01
2.432204067927136448e-01,7.456890240342517462e-02,5.748874979421400577e-02,-5.621257810922587056e-04,-2.713682992857958855e-03,-9.180124500445202649e-04,1.778797954320907593e-01
2.568797379163989536e-01,4.835881654940593632e-02,4.765839601584989649e-02,3.367124246882879923e-02,8.319785602065696284e-02,-1.116051518501069836e-03,2.603808045387268066e-01
3.340825540844014618e-01,5.739626526999438982e-02,5.875958856576148082e-02,-9.203548551492955233e-04,-8.224138684382410530e-04,-3.496426089695278509e-04,2.760160863399505615e-01
3.344507248473130301e-01,6.049292554570567804e-02,6.165626316702706167e-02,-1.332116696945989144e-03,-4.884895048156959099e-04,1.541388474297905944e-03,2.734020650386810303e-01
3.320803451879370538e-01,5.442231018587088964e-02,5.518714721641054810e-02,4.300491805199946793e-04,-2.269013224299636707e-04,-1.066292938001291374e-03,2.772838473320007324e-01
3.321809141281291677e-01,5.383574559740215981e-02,5.447377660081771655e-02,-3.774447681802923257e-04,6.771622874249951874e-04,-6.396513246344294511e-04,2.780321538448333740e-01
3.314403291622411984e-01,5.350670675057847547e-02,5.304834066598748676e-02,-2.385731727149324787e-04,-9.935906848985418850e-04,-1.187864764164997403e-03,2.781763374805450439e-01
3.211166197899368857e-01,6.072455824747327591e-02,2.887650815993762776e-02,1.467312164866304332e-03,-2.889954508989135695e-03,-1.362780700479477875e-03,2.777559757232666016e-01
3.313583063766015746e-01,5.665618760380985997e-02,5.677683610420285187e-02,7.735091820869288920e-04,4.917916071844278397e-04,1.467362987080841220e-05,2.746464014053344727e-01
3.406103394974523413e-01,6.149844769827418622e-02,6.759586160915520558e-02,3.305438388604312310e-03,-2.432836301290292481e-03,-1.846167442342738297e-03,2.762236893177032471e-01
2.836686586784212816e-01,6.051804079965099337e-02,3.372944598563802632e-02,8.905556344063030039e-04,-1.333893595637043565e-02,5.161084263259702043e-03,2.389723658561706543e-01
3.334074328816855060e-01,4.456420099110397492e-02,4.739300024792965360e-02,5.075561858792504042e-04,-1.197360733937046949e-04,2.584908326981766877e-04,2.874410450458526611e-01
3.502436762985043917e-01,7.340759494451683242e-02,6.341537125280288789e-02,2.428480605951923842e-03,1.928974310613891345e-03,1.191388671351075249e-03,2.820237278938293457e-01
3.328900768987910208e-01,5.107891486864786501e-02,5.029959706470277236e-02,-8.039094912689179380e-05,8.110944291046866218e-04,-3.099664072113139375e-04,2.822056710720062256e-01
3.492728843826901075e-01,5.546234791938119135e-02,5.898397013617727447e-02,-1.861398519986969674e-02,1.014151562656490438e-03,-4.058882917559666903e-04,2.938458323478698730e-01
3.415578164194295052e-01,4.878575222945476242e-02,6.244751830437295093e-02,-1.764726038047824061e-02,-1.092256868859022186e-02,-5.258699318209381079e-04,2.884360551834106445e-01
3.712574577825437094e-01,6.364382414590988302e-02,6.329244057797872580e-02,-1.424143886506342230e-02,9.179552867280952461e-03,1.614169086962246365e-03,3.091980516910552979e-01
3.437609726784173203e-01,6.403247006973056266e-02,5.820219684243783942e-02,-4.384957156508756566e-03,1.860498018597205299e-03,8.765211833888258324e-04,2.828131914138793945e-01
3.431407052342718700e-01,5.634703817134183168e-02,5.837167929685947720e-02,5.934821725420635300e-04,2.811795851089969080e-03,1.959629663893987261e-04,2.858302593231201172e-01
2.983978017707085151e-01,4.996303656896972090e-02,3.917943770843479445e-02,-7.081319713282408813e-03,-4.304010762539142547e-03,-9.113337622417205450e-03,2.548927366733551025e-01
3.737774836807581380e-01,4.936240004954350891e-02,6.746430612731127430e-02,-1.924543367008711703e-02,1.046825149115765061e-02,7.174198364510446686e-04,3.180279135704040527e-01
3.462605479275600584e-01,5.818414740924980622e-02,5.735137737160700411e-02,1.009337805565182610e-03,2.586902571868762712e-03,7.094379757188137327e-04,2.885363996028900146e-01
1.421303257654623342e-01,5.441049087441861970e-02,3.969201845931772527e-02,-6.732219758314625380e-02,-3.230491477654867747e-03,1.442698342837057078e-02,1.531504541635513306e-01
2.519664630315402998e-01,4.070872307628729814e-02,6.541006394911416666e-02,-4.811511479028505317e-02,-2.086246179523824906e-02,-3.470746467246240644e-03,2.197923958301544189e-01
1.899110132604573398e-01,5.615407593148725313e-02,7.184008970873426159e-02,-3.946821243581687816e-02,-9.543832768704418185e-03,-4.054989927239982875e-03,1.450332999229431152e-01
1.885491718766337810e-01,4.639580996428390586e-02,6.710852067732873960e-02,-4.017442123915101332e-02,-9.039515760535426006e-03,2.254577282093719328e-04,1.509286463260650635e-01
3.375491782281562214e-01,5.752613821657599769e-02,4.450050754036218026e-02,2.598310300194792578e-03,4.790842633211675819e-03,1.222414820708906660e-03,2.869209647178649902e-01
3.253821761343923535e-01,5.745935099275419067e-02,3.752469787841861137e-02,3.679774300728510476e-04,9.054498781172266864e-03,3.705807214444116742e-03,2.789418101310729980e-01
3.140639090718845283e-01,4.105999843062765886e-02,5.721840427326384260e-02,-1.599498053662168698e-02,1.271920668586217461e-02,8.320287100335034547e-03,2.680325508117675781e-01
3.310867722789050394e-01,5.743742197707796260e-02,3.565945789247507158e-02,1.294188181833978149e-03,2.732523493974245779e-03,1.625629692895817074e-03,2.852247059345245361e-01
2.252111461555026950e-01,4.248835021572419657e-02,6.597444641585756275e-02,-4.385117129489399246e-02,1.152799496382412789e-02,7.239388501549647546e-03,1.896640658378601074e-01
3.351863871433555797e-01,6.001217203324271665e-02,4.466248325557244103e-02,2.679545325324689687e-03,5.220255145645115794e-03,7.939149033922758645e-04,2.833469212055206299e-01
2.646427649214042610e-01,5.364583834642584759e-02,3.144786495135018511e-02,-2.339640416291977054e-03,3.840419452048928622e-02,4.444799077087041757e-03,2.328014075756072998e-01
2.568879943180009118e-01,6.525575247382811583e-02,5.684383493629813211e-02,-9.031402038021650071e-04,2.144313000026794661e-02,4.590821098032535352e-03,1.996265798807144165e-01
3.249988869703883676e-01,5.970105702011151150e-02,3.217287647618190249e-02,5.162405729675752719e-05,1.290190865308230321e-03,6.259905078880136434e-04,2.800894081592559814e-01
3.263085209978736079e-01,5.880776661474464151e-02,4.020340688006618368e-02,-1.431301874995032487e-04,-2.641448841091037763e-03,-1.062234303666606625e-03,2.773154079914093018e-01
3.389614993809371146e-01,6.863342727961965761e-02,5.912143041517098352e-02,-1.592795756399940227e-03,1.276576637431079894e-04,-1.553590466753791309e-03,2.752344608306884766e-01
3.261994304155763635e-01,5.599513936218081245e-02,3.336205539616658722e-02,-1.319253144411702480e-03,1.591566652748581303e-03,8.881840994323206458e-04,2.822292745113372803e-01
3.165556396473548917e-01,6.288797699047897483e-02,3.853492658284259076e-02,2.441663958366592849e-03,7.579512381355173190e-03,5.492148159885173325e-03,2.672052681446075439e-01
3.512182545424644142e-01,6.403478488353903098e-02,6.656031950206361958e-02,1.692279343423034026e-03,-1.625753931736279674e-03,-2.700158168817229105e-03,2.859961986541748047e-01
3.174786191796431511e-01,6.366328514897864888e-02,3.366366855023836258e-02,-4.380814138296227462e-04,5.145477044376094676e-03,-6.949335590398051255e-04,2.702184617519378662e-01
3.348577968569034224e-01,6.389900795118359789e-02,6.243567632723212579e-02,3.195155985663325569e-03,1.142515134184444569e-03,-3.825267309263871707e-03,2.718377411365509033e-01
3.354146290362857163e-01,5.948756876392093107e-02,5.805401554306693912e-02,-1.505988718903850934e-03,2.136386549490592451e-03,1.160078818618013154e-03,2.766909599304199219e-01
3.326421185133472402e-01,6.365587548097127735e-02,6.535417046990210643e-02,5.096331641498369160e-05,-3.530209939010745110e-04,-9.196092472154971482e-04,2.681465744972229004e-01
3.355958067054685134e-01,6.921441792367882817e-02,6.476869758594193394e-02,-6.143337123465860707e-05,1.656744522945269315e-04,-1.822174037595945427e-03,2.686505615711212158e-01
1.916483302483621143e-01,5.190589161905496268e-02,5.119851594243266663e-02,2.636689345888683020e-02,-3.172869847463172244e-02,1.003025055123165157e-02,1.582241654396057129e-01
3.320391660568082770e-01,6.415030087891349098e-02,6.373450794410889797e-02,5.375690685292227586e-05,7.379768382174098225e-06,-2.244413454077767906e-04,2.680973112583160400e-01
3.359737115177844347e-01,5.928117253500636563e-02,5.821976495633662818e-02,1.171063022451766323e-03,2.414420044345696841e-03,-2.345456321595156099e-04,2.772640287876129150e-01
3.360107242861946064e-01,6.880067002835194012e-02,6.238012299703407648e-02,1.199159968772341281e-04,-1.315107846088593539e-03,-2.478753031833558999e-03,2.705212235450744629e-01
3.351826629620105469e-01,6.287746966315492514e-02,6.043372568657132127e-02,1.500418677851270014e-03,-5.561874621303369067e-04,-4.036007688541143790e-04,2.735501825809478760e-01
3.383067504572061512e-01,6.114428903324362063e-02,5.918454036042451738e-02,1.414901459881483031e-03,3.998276207006896260e-03,3.488505761295558096e-03,2.783100903034210205e-01
3.770480171817690573e-01,5.267232724645951047e-02,4.409621337457000911e-02,-3.688101966418016412e-03,-1.154941308989210214e-02,-9.286660672615453319e-03,3.298101127147674561e-01
3.274053651765561623e-01,4.879526410990477070e-02,3.972686900776511987e-02,2.999233167594916915e-04,-1.429390589559568266e-03,3.735794829132835487e-03,2.833383679389953613e-01
3.349455042045299535e-01,5.709795443668072568e-02,5.788219857632047327e-02,2.147736453928712446e-05,-1.773753613459504424e-03,3.985099009899183229e-04,2.774741351604461670e-01
3.324073272727307016e-01,6.363716501993277319e-02,6.415510484116665468e-02,-2.964781059289880506e-04,-4.913253589466751880e-05,-1.251598672429002270e-04,2.685121595859527588e-01
3.662309769067679244e-01,6.222857814531458642e-02,6.200608562170696614e-02,-1.960662179962347710e-03,-2.779097965539535815e-03,1.583398659660676744e-03,3.041831254959106445e-01
3.247848051394588431e-01,4.570460393749013750e-02,4.872459767954952226e-02,2.835547191854176970e-03,-4.407163617566788906e-03,4.939085189049770806e-03,2.778626084327697754e-01
3.279239306472321869e-01,3.548459608452073089e-02,5.799851756644713863e-02,-5.611981517358707351e-03,-3.301731484731880960e-03,-1.814326673322369651e-03,2.821005880832672119e-01
3.291639418351683943e-01,4.486034251952802920e-02,4.246330823954548583e-02,-4.577837560832402511e-04,-8.345470546478970381e-04,-9.878477550392256168e-04,2.855195403099060059e-01
3.796006569129205532e-01,6.406283758759528935e-02,6.367671367879552957e-02,-5.195478995015647902e-03,-1.200928776147244803e-02,3.302638484381136756e-04,3.165439665317535400e-01
3.388851466635722787e-01,5.795186798409950046e-02,5.989083255804215911e-02,1.950480199100201916e-03,2.389243025818955143e-03,-1.021621531814173740e-06,2.800197899341583252e-01
3.207173113871467640e-01,5.755279021553884322e-02,3.209088561167310061e-02,1.086776391873091720e-03,-7.777939422222956674e-04,8.171922529642954578e-04,2.767885625362396240e-01
3.818184259856048923e-01,6.359036748725119259e-02,6.841691869703669937e-02,-1.171444865985207806e-02,-5.275271366725867335e-03,-7.660510274010803346e-04,3.166281282901763916e-01
3.500232589749969758e-01,6.158796971310889767e-02,5.701032944948331016e-02,3.434356232418233484e-03,5.485780332753416831e-03,1.022902447226977252e-03,2.909725606441497803e-01
3.290854757281522769e-01,6.262433930265079440e-02,3.887902806333898287e-02,4.810501552678336269e-03,-2.287579376317881372e-02,8.838792904347895010e-03,2.824292480945587158e-01
3.256674437672659184e-01,5.768157453733580020e-02,3.597023059220942620e-02,1.932113919772017073e-03,-2.809040547824576996e-03,1.417522228678604317e-03,2.795479297637939453e-01
3.280388614444571527e-01,5.138938451779256900e-02,3.498450763621301085e-02,2.697144912972940581e-03,-1.672460520524579131e-03,9.363818995365733944e-04,2.852635681629180908e-01
3.207947683627510593e-01,3.598621610748503619e-02,5.279972483450691423e-02,-1.983173349089265708e-03,-2.055492061831390611e-03,-2.099163422942576171e-03,2.768531441688537598e-01
3.335958383583742526e-01,5.611511472872944550e-02,3.750670276847116458e-02,6.406020391879163785e-03,-1.336814386717312918e-02,4.119988080972893964e-03,2.884708940982818604e-01
3.294969338173437956e-01,4.956321949559475137e-02,4.052563531690256404e-02,-5.928022931521146916e-04,5.040135455487973135e-04,1.057786117219348824e-03,2.845692634582519531e-01
3.096595903164920394e-01,6.204950611932689986e-02,4.824307752812173611e-02,-1.304979423634482563e-02,8.400258848326146166e-02,-1.866150507328693609e-03,2.942968308925628662e-01
2.702198151567827278e-01,6.487204262421085443e-02,6.262549919510847218e-02,-1.024202471014448862e-01,4.650709613222605426e-02,-5.257808048395514475e-04,2.838896811008453369e-01
3.249145997413714904e-01,5.929786983621744556e-02,3.689008126750926986e-02,-1.931092647566035438e-03,9.794092582077773904e-03,3.624516418831090405e-03,2.781089842319488525e-01
3.160740779598719685e-01,6.246058321318986861e-02,4.521405853114464357e-02,1.282172261568705974e-03,4.789380591075800483e-03,-9.869989495481000595e-05,2.628021538257598877e-01
3.294825772887569615e-01,5.351721140485481143e-02,3.653923797051880640e-02,5.767954230630863632e-04,1.599755314244912007e-03,1.435875942242754609e-03,2.848601937294006348e-01
2.127929438041883115e-01,4.717120637652946064e-02,3.334333361248813243e-02,2.246507385866784723e-02,5.807721153399390823e-02,3.795896068694349680e-03,2.039316594600677490e-01
3.111540521591303343e-01,3.400845822136613905e-02,5.783011152836785296e-02,-4.048821339087051163e-03,2.597356759326881204e-03,3.947773830532819508e-03,2.662541270256042480e-01
3.125587850964419712e-01,5.417606610870313866e-02,4.486007889487743372e-02,1.800946712000334659e-03,2.409642939770790734e-02,1.043239648345898121e-02,2.670836150646209717e-01
2.594059614133139013e-01,6.685171791756032433e-02,6.709106561797241464e-02,-9.970042508383183955e-02,-5.496046239274985333e-03,-3.988082390396010548e-04,2.587329149246215820e-01
2.309552116615423700e-01,3.831349572801538705e-02,5.327176221785075855e-02,-6.724582068752393837e-02,-2.915578240885780339e-02,-8.836104105150727542e-03,2.253961116075515747e-01
2.782537822684703066e-01,3.368980332654818166e-02,5.985625364459705444e-02,-3.353202866494277290e-02,-1.695623370860851326e-02,-9.362647288588809083e-03,2.420652061700820923e-01
3.878210931200150036e-01,6.783714925332272327e-02,8.341595864550362116e-02,-3.980565002128653301e-02,1.048507593174635572e-01,-3.171501370950023050e-03,3.679838776588439941e-01
3.323348992208434161e-01,5.486434249808354313e-02,3.985596534233894206e-02,1.088465372922887931e-03,2.205297827847230163e-03,1.401585876725593280e-03,2.853131294250488281e-01
3.316235176439615850e-01,5.733624341665019553e-02,4.269967861363205275e-02,-1.770764732307599681e-04,1.063528799759377646e-03,1.257775840991651141e-03,2.819052934646606445e-01
3.189230328305488471e-01,3.723073932200866853e-02,4.934783533581911519e-02,-2.508224925127490977e-03,-5.269225179661764409e-04,-3.635336233247282028e-03,2.759409844875335693e-01
3.304321641125256281e-01,5.456581197203792810e-02,3.948344278984231015e-02,3.190132840328070295e-04,2.594473401899399963e-03,1.387107447835985797e-03,2.837546765804290771e-01
2.737760111441662758e-01,3.767655400942661326e-02,6.512247149602470864e-02,-5.676479992960714593e-02,1.659172614410263976e-03,4.771032182749787012e-04,2.443193346261978149e-01
2.323266665581276147e-01,4.006274808749160643e-02,5.641290073011232670e-02,-5.344121993232053835e-02,-3.056562293635235392e-02,-1.334996701668064549e-02,2.144633382558822632e-01
2.464412623732524232e-01,4.616925143734618153e-02,6.845424896922824853e-02,-1.922366740274359179e-02,-1.243687436315026214e-02,-5.485333131506640869e-03,1.944360584020614624e-01
3.090715645992094807e-01,3.441749795406451318e-02,6.134622092939094606e-02,-1.474636697584505093e-02,-7.647672102829769329e-03,-5.322232857918367081e-03,2.639635205268859863e-01
2.039799658361313994e-01,5.877362005042274795e-02,5.707237086194209830e-02,-3.173962918220089857e-02,-1.973623504829270445e-02,-6.882040009680317171e-03,1.602113097906112671e-01
3.250515717168631635e-01,3.967321328013773130e-02,6.080052804685365242e-02,-1.793762049761811819e-02,1.131234193565119070e-03,-6.838472905471761759e-03,2.774298191070556641e-01
3.445875644229047241e-01,5.682205975027831979e-02,5.143568164075613958e-02,-6.532064760247699832e-04,3.875687672424684376e-05,-7.989630652576035479e-04,2.905016541481018066e-01
3.356709852186092746e-01,6.112944308283688177e-02,6.690154553506034996e-02,4.639722708682769681e-04,1.679301395319031213e-03,-1.265245236052418409e-03,2.717270851135253906e-01
2.682453296844748425e-01,3.407624433247675999e-02,6.836874924638865203e-02,-3.714142790203639466e-02,-3.992969671775375637e-03,-5.594206743646081351e-03,2.286067903041839600e-01
3.747304924530943104e-01,4.362330940677698610e-02,5.794060119392852037e-02,2.030937131520966707e-02,-5.823138911209489212e-03,7.484600860285299702e-03,3.265020549297332764e-01
3.324301642170959248e-01,6.243987370250156377e-02,6.631336621059720493e-02,-5.573392674806343329e-04,-1.160829754679462093e-04,-1.023224166096793316e-03,2.680822014808654785e-01
3.355464032329779078e-01,4.924380228662428305e-02,5.164920869959242766e-02,-8.695967725049696473e-04,-1.303675918096258105e-03,-2.170803349565743768e-03,2.851452231407165527e-01
3.318685537041105027e-01,4.637543773590281637e-02,5.289169730171366934e-02,-4.871885836928949599e-04,-2.279361030651784427e-05,6.680246128684031890e-04,2.822950482368469238e-01
3.380258747313301670e-01,4.612676850388539029e-02,5.134503705101550741e-02,-3.481759923220329139e-04,-4.686994511762713578e-04,-2.902057981622067906e-03,2.893706858158111572e-01
3.388773807516897718e-01,4.828836617997475655e-02,4.977893022538190659e-02,-4.789747192432379508e-04,-1.741945443408320863e-04,-6.915603553328637451e-04,2.898504137992858887e-01
3.380892534851974163e-01,4.782652944592546973e-02,4.819420932189155682e-02,-6.657698738643902207e-04,-1.016049179327795657e-03,-8.596533627617367100e-04,2.900905013084411621e-01
3.378932010217957083e-01,4.512261273059046951e-02,5.118991034511570504e-02,-4.755751022671401767e-04,-4.315783343548375522e-04,-1.065884140294482427e-03,2.897925972938537598e-01
3.381785340567003972e-01,4.852674312405574897e-02,4.829368343310563860e-02,-6.289032471180235192e-04,-1.030187501397801216e-03,-1.659742252452544404e-03,2.897901833057403564e-01
3.395541012157318184e-01,6.330092230371978101e-02,5.152844915253054769e-02,2.425061255274057592e-03,-7.780713652040266264e-03,-1.132900669750528744e-03,2.826830446720123291e-01
3.336384737186466332e-01,5.419605531878363136e-02,5.775406300493245160e-02,-6.650938891165773022e-04,9.910317802782893197e-04,2.287914949764770407e-04,2.776885032653808594e-01
3.342981014386461336e-01,5.690327789781200740e-02,5.714241087817369114e-02,-5.587991313465061685e-04,7.194037813769745947e-04,8.413797804208971321e-04,2.772836387157440186e-01
3.332118348328929058e-01,5.335274527562937352e-02,4.698230264920037758e-02,2.158934269346877207e-03,-2.871194597274109167e-03,1.142911862343486693e-03,2.831733524799346924e-01
3.375065825752092130e-01,4.576616750203367501e-02,4.616709915506525541e-02,-9.572842930625897443e-05,-4.519297973440303219e-04,-3.276212171925715552e-03,2.915964722633361816e-01
3.252450209618844013e-01,4.885898344847293406e-02,4.168485380576532340e-02,1.405386215032769807e-03,-4.934199264407777581e-04,2.186468896294741122e-03,2.800795137882232666e-01
3.381521743759470233e-01,4.717004342260111560e-02,5.046776045537694488e-02,-9.946318057077810360e-04,-8.140597101524700389e-04,-5.520527023090780055e-04,2.893575131893157959e-01
3.518785385291298695e-01,5.447055259194572008e-02,5.819653318823633792e-02,1.407473406797287233e-02,4.860981476747708481e-03,3.524633931129309504e-04,2.966863811016082764e-01
2.733263976194372225e-01,3.260372387238531788e-02,5.703587963910355940e-02,2.731774691049466963e-02,4.798322931863696281e-03,5.377524802285307479e-03,2.346434891223907471e-01
2.786629026181005608e-01,4.706153669135366979e-02,4.434755525260977715e-02,-8.549237702400716912e-03,-1.001856442367484411e-02,-1.014752116528441252e-02,2.347433120012283325e-01
3.345130307394650893e-01,5.408024432404748283e-02,4.861138303185152942e-02,3.922461057642567285e-03,-1.359718452312407358e-03,2.442289070753557792e-03,2.833296656608581543e-01
3.072066218047975195e-01,4.375662361445904758e-02,4.797752282629223763e-02,1.162744720759822416e-02,-1.320217795835466022e-02,1.144300982263104192e-02,2.638807296752929688e-01
3.169825719463928992e-01,4.049464239430750068e-02,6.270189710602107336e-02,1.397097824366045835e-02,-1.000811044886386136e-04,2.862442256837838955e-03,2.672244012355804443e-01
3.233069196773437071e-01,4.989213487194962826e-02,5.415044535450562468e-02,2.203882665393352633e-02,-1.322214423013915417e-02,6.096389648225636164e-03,2.751410603523254395e-01
2.890723407405816903e-01,5.623483838761700326e-02,4.258447369877127464e-02,2.326222922571204860e-02,-1.586311672553741836e-02,1.169132174653277588e-02,2.456955909729003906e-01
3.288892217471866553e-01,4.772929387802175849e-02,4.631294990051461336e-02,-2.016344135580921983e-05,3.158642563906526425e-04,1.365959967882229798e-03,2.818812429904937744e-01
3.204919881432749529e-01,4.691982182565823667e-02,4.374743020565545482e-02,2.777908881856772007e-03,-2.586381630051768580e-03,4.936510463427574817e-03,2.753833532333374023e-01
3.334411216469403971e-01,4.679525832457621937e-02,4.446389874242066831e-02,3.292636920337119058e-04,6.428518982504732989e-04,3.054989073792110151e-04,2.878218293190002441e-01
3.532990814523909173e-01,6.274497203514255161e-02,6.271385726955634732e-02,3.951711637525925219e-02,7.803823039585534600e-04,2.323276421924431578e-03,2.985524535179138184e-01
4.093424967627120603e-01,7.608040527159541655e-02,8.468119022410292018e-02,6.227018753630822467e-02,-4.274756532877423132e-02,-1.022352178287093611e-04,3.540990054607391357e-01
2.609061229819923389e-01,4.266396469352540244e-02,5.301802033538766112e-02,4.395888059585033314e-02,-2.175244652620857491e-02,2.010796974009099094e-03,2.295777499675750732e-01
3.334913316621689328e-01,5.242685133784018292e-02,5.040365223126559713e-02,-6.146742145089359542e-04,6.742460180144742255e-04,-4.175114298628061793e-04,2.820868790149688721e-01
3.140574660509211635e-01,3.300475400120475578e-02,5.413629052433623079e-02,-4.172974530105877898e-03,1.125781602822961431e-03,3.742563744875327617e-03,2.712861299514770508e-01
3.321409711592762104e-01,4.462740525836404737e-02,4.165597384961085281e-02,1.764266323447989269e-04,-3.468739392479301751e-04,1.295611550772538369e-03,2.890202403068542480e-01
3.322552685026068930e-01,4.817094073675595722e-02,4.277248783833059731e-02,-5.211332287391956747e-04,2.606995691101594219e-04,1.097369768287406516e-03,2.868297398090362549e-01
3.333008435143103299e-01,5.531598790752345618e-02,4.208568827217860908e-02,4.314142596198730986e-03,-7.526808508927809033e-03,4.776527735657355375e-03,2.853465974330902100e-01
3.259528600712338076e-01,5.295095146341408099e-02,4.343331308358250320e-02,2.563553867689528400e-03,1.369078070727191437e-04,8.688159959428804618e-04,2.779226601123809814e-01
3.202301961132484331e-01,4.791856914407016665e-02,4.067129073722854093e-02,3.709541366641526394e-03,-4.801027175262832271e-03,4.054150314718594356e-03,2.762958705425262451e-01
3.160460003350115121e-01,5.916749369645230017e-02,3.723790304536643558e-02,6.679438299070544587e-03,-8.653901530266513292e-03,4.428042275662036689e-03,2.692917585372924805e-01
3.198202160056033971e-01,5.441801394724599117e-02,4.540209349131800465e-02,2.864239536875401101e-03,-3.298922585243556447e-03,7.747811598240215460e-03,2.704622149467468262e-01
3.337799349856456210e-01,5.145315814035995861e-02,4.570576634731043919e-02,7.331125736013141894e-04,4.068703360131500696e-04,9.442373948968151237e-05,2.852476537227630615e-01
3.330038800436018187e-01,5.314314181449092400e-02,4.865246550492557942e-02,2.348593950940478599e-05,-8.616358188889675128e-04,1.092337993208587722e-03,2.821431756019592285e-01
3.233865859145205190e-01,5.860819296238828358e-02,3.857863250124417276e-02,-7.185392353332801249e-04,-6.548394890495188789e-03,5.303338088914156742e-03,2.757294774055480957e-01
3.277420458472539710e-01,6.061834490138506837e-02,4.012137253694669781e-02,4.553829226504606427e-03,-6.237360631793650335e-03,3.998122582476897231e-03,2.783474624156951904e-01
3.340515352956093809e-01,5.435295104244021458e-02,5.345630054820706134e-02,3.384394241778202454e-05,1.234308135501609865e-03,1.205545844510845944e-03,2.801639437675476074e-01
3.198326748343067738e-01,5.646277625309305270e-02,3.571234552848652488e-02,2.349336030508598731e-03,-5.058550570422517146e-04,2.127152791508748943e-03,2.743906378746032715e-01
3.210440138953042921e-01,4.093087318762082816e-02,4.718872501839731226e-02,-7.707372157783729969e-04,-4.607915869887272103e-04,-5.402997353235668675e-03,2.771995961666107178e-01
3.157132166228349690e-01,6.132673028559054718e-02,4.947625777318204188e-02,-1.926160855172450240e-02,3.187512698485879536e-02,1.448730603534491984e-02,2.695519626140594482e-01
3.210881930587633493e-01,5.773842544892496265e-02,4.635467485130893850e-02,-2.098091188485572047e-03,7.782426360344150626e-03,5.314746892226353964e-03,2.697410583496093750e-01
3.362976992229134154e-01,6.159658539055937188e-02,5.877807909415647125e-02,2.488413946306266503e-03,1.165121395376370723e-04,-5.335661612764197028e-04,2.761564254760742188e-01
3.336807325707287220e-01,6.018867145566365873e-02,5.871565164751424426e-02,-3.977380889235794027e-04,1.755746231781074075e-04,3.304960162565074130e-06,2.742325663566589355e-01
2.671564457377950119e-01,6.396024272523150034e-02,5.105092683478119897e-02,-4.785359764192700927e-02,6.092784259670794289e-02,5.978047386486753413e-03,2.493836134672164917e-01
3.326661710404728578e-01,6.593830598899107220e-02,6.206421781192170140e-02,-6.697937515226619614e-05,6.377143867048049508e-04,-6.259617424958257475e-04,2.686903476715087891e-01
2.532261808343876375e-01,4.322742912209436017e-02,5.677513750440701251e-02,-4.863823199526979418e-02,5.155248875252958773e-02,1.008102737892924497e-02,2.383545786142349243e-01
3.394151662721179852e-01,5.785450800644295621e-02,5.175552488495314962e-02,-1.300121610513885195e-02,3.462616745502833382e-02,4.983104388610764580e-03,2.919063866138458252e-01
3.322062647919851175e-01,6.410902281284756865e-02,6.520492632295200874e-02,1.059499419779009717e-03,-4.139097356980502344e-04,-9.692797486723990063e-04,2.675634920597076416e-01
1.937585676098229071e-01,4.734234628362636588e-02,5.401042665352325661e-02,-3.189261878365280689e-02,8.505053840817158872e-02,8.220187113847634772e-03,2.132153213024139404e-01
3.356285031935997143e-01,6.266776737571284894e-02,6.499007074511048421e-02,1.290493794531433246e-03,2.454476188245804285e-04,-8.495461929053124521e-04,2.718205451965332031e-01
3.319569281027521801e-01,6.358845945926749899e-02,6.358569173953307341e-02,1.105793108985094050e-03,2.877519785867824523e-04,-1.817135676197080855e-03,2.683956027030944824e-01
3.319192734932744915e-01,6.023133106887379462e-02,6.412435659428981916e-02,-5.949457161441734122e-04,3.186201050418699323e-04,-2.728872861951009616e-04,2.697654366493225098e-01
3.261231209547590382e-01,5.785820240268640946e-02,5.504751413722788755e-02,-6.410722196110045512e-03,-1.269660962138568008e-02,-1.896817282913887490e-03,2.708240747451782227e-01
3.219279829807755733e-01,4.996864369132880679e-02,4.646444231989678431e-02,-2.809472223700293023e-03,-2.412493073135360544e-03,-5.138735433896510912e-03,2.739480137825012207e-01
3.223359739528371404e-01,4.721451318714198209e-02,3.838078848907046370e-02,-1.213982034882002837e-03,-1.133993271836967673e-03,-2.439986343904799494e-03,2.796897292137145996e-01
3.351986058281242187e-01,6.089527144167145023e-02,6.642229141566606543e-02,-1.694086500791445018e-04,-7.130458551019196525e-04,-6.363996856921723703e-04,2.715872228145599365e-01
3.350899730495393580e-01,5.596910472823771188e-02,6.031988931606391269e-02,-6.192290863051625642e-04,-8.054112863725612073e-04,8.130152492515130324e-04,2.769802808761596680e-01
3.200499734460235945e-01,4.155357263290511416e-02,4.598395980911156034e-02,3.296730497158540459e-04,-1.332184908629717186e-03,-5.529537470002323686e-03,2.764840126037597656e-01
3.647779936970423353e-01,6.161413125022978388e-02,6.347893959118465490e-02,9.058455520413323525e-03,-9.742289295891496531e-03,4.035926171245734183e-03,3.031933903694152832e-01
3.337306568009604790e-01,5.160729235530742143e-02,5.345574266459958424e-02,1.334655509060502269e-04,-6.374529511625108905e-04,1.013709831997597994e-03,2.812114357948303223e-01
2.997930964760132655e-01,4.727689179632581229e-02,3.507214492561913644e-02,-3.820256062436796357e-03,-5.743709447877314717e-03,-8.968764526645595786e-03,2.595753371715545654e-01
3.335294305651663738e-01,5.940299124015649412e-02,6.081697768901042633e-02,8.817837192285381059e-05,-3.659644380643399921e-04,7.712734029812626170e-05,2.734229862689971924e-01
3.344839484095145643e-01,4.706244987029971349e-02,5.455780504023720334e-02,2.838453740646411285e-03,9.299749794963057571e-05,1.615064835796209191e-03,2.838045060634613037e-01
3.334399383978611242e-01,4.584452322439884486e-02,4.911493315062767651e-02,1.124166330254095783e-03,1.088016297868521541e-03,2.944742402512509627e-03,2.860325574874877930e-01
3.126383563689837386e-01,5.069363417120494042e-02,3.713565426802666047e-02,-1.144932955654053485e-03,-4.575549126760868231e-04,-6.027887891898908897e-03,2.691911160945892334e-01
2.597264695502002341e-01,3.291432662947707533e-02,5.969717151272699307e-02,3.124250344008233649e-02,7.636708826012385959e-03,-5.123602518035814436e-03,2.219648361206054688e-01
3.330608961900221043e-01,4.850150829556221233e-02,5.396771250043737311e-02,-9.112055100292281622e-04,-1.092723306865307911e-04,6.491912516673495294e-04,2.818727791309356689e-01
3.342781698072257446e-01,3.922209051772305999e-02,6.483479831465886745e-02,3.432145297323475897e-02,6.501210523198032963e-03,5.363729988770172749e-03,2.896617054939270020e-01
3.330974500226172585e-01,5.061183865703261509e-02,4.935691596756129618e-02,8.157412928389267542e-04,1.063394011979143863e-03,3.791788197666766131e-04,2.831254303455352783e-01
2.961668033926553867e-01,4.992393005835371600e-02,4.363612692319192299e-02,-5.891505027589900856e-03,-1.370316544197120205e-03,-9.959477681980402272e-03,2.502613663673400879e-01
3.341063568264732164e-01,4.739167258558402152e-02,4.811772572654135494e-02,1.150070064686758769e-03,5.263783229838642436e-04,1.366940692120983437e-03,2.863705158233642578e-01
2.242121281257452858e-01,5.668939590189907979e-02,6.580129074307591863e-02,1.323530683625236994e-03,-1.000677516257576891e-04,-2.912187021916726355e-03,1.632518619298934937e-01
3.739939418262779869e-01,6.468609051746190830e-02,6.022647465948088863e-02,8.032044037644195389e-03,8.525592438908130566e-03,5.436242161308476326e-04,3.122228682041168213e-01
3.315203441061574385e-01,4.480991657123177541e-02,4.510144763037249316e-02,5.553162055603720355e-04,6.581739858456877603e-05,1.536646103632059333e-03,2.865787744522094727e-01
3.344360628639660993e-01,4.118911705525064859e-02,5.850924461458424652e-02,-8.858532208965520576e-05,1.390243760710867769e-03,7.816694922409254021e-05,2.849921584129333496e-01
3.313629072980668333e-01,4.958656388330537346e-02,5.455564301316699616e-02,1.923104302577065749e-03,1.218982008519676899e-03,3.125875883287880085e-03,2.794052660465240479e-01
3.340627191766567528e-01,4.486465711143683421e-02,4.685884697228370754e-02,7.524115306151706473e-04,4.434302692904764482e-04,6.935487589923997401e-04,2.882126271724700928e-01
3.255209835157206744e-01,3.945542576031381421e-02,6.402932191959516406e-02,4.052157940503312711e-02,1.869731371422725819e-03,7.957898333418384623e-03,2.837853133678436279e-01
3.353516850097263413e-01,4.296414084659955224e-02,5.904535357683604602e-02,-1.170013933979334106e-03,-3.366183571312882008e-04,-5.955576124420803707e-04,2.846974730491638184e-01
3.673080407134901026e-01,6.960459620855578844e-02,6.594794144915838707e-02,3.826696376059545140e-03,5.436381264171068380e-03,-2.839018908770133374e-03,2.998100817203521729e-01
3.762757722574683328e-01,6.612257107410125789e-02,6.535134711296523846e-02,7.255892318168076852e-03,2.306845723702097024e-03,-3.771468356509045852e-03,3.108880519866943359e-01
3.325621078083643711e-01,6.380072630148793389e-02,6.349277016858062561e-02,7.737798513679496016e-04,2.816280692458458953e-04,-6.682778441414847928e-04,2.689217627048492432e-01
3.331443721596912821e-01,6.249816732360630178e-02,6.057918052692197464e-02,1.108767592475946645e-03,-8.838244499586440884e-04,6.285891049941634101e-05,2.716219127178192139e-01
3.310247968571384258e-01,6.268283920478816273e-02,6.300285526190675667e-02,-1.524652643565886331e-04,1.453935825132833049e-04,-7.415002417392063151e-04,2.681854069232940674e-01
3.325810838852109597e-01,6.345781505695692604e-02,6.399862605513353953e-02,2.754479204147583636e-06,6.320184123544679870e-04,-1.105161124498743033e-03,2.688623070716857910e-01
3.324025104818776333e-01,6.576844934985563718e-02,6.337092036456119792e-02,3.219564364393809244e-04,-7.356129352967109196e-04,-1.762079727430963067e-03,2.678618729114532471e-01
3.370353012770012646e-01,5.071129007612659723e-02,5.568048229161334794e-02,1.151696096884033795e-03,1.748322114217919264e-03,3.139109349994418600e-03,2.839472591876983643e-01
2.757159436551218645e-01,4.425837937720528137e-02,7.142497979767636895e-02,3.499520097373641156e-03,1.020847832449977731e-03,4.877078216772412489e-03,2.193944752216339111e-01
3.175560908698619178e-01,3.540368743199523438e-02,5.468503315824339850e-02,5.688161830190446508e-03,-4.362487870715249538e-04,4.686216429715977204e-03,2.733221352100372314e-01
3.336849637433600968e-01,5.005214017021852868e-02,5.231204106910726515e-02,6.139470051420368567e-04,1.125372757404556091e-03,4.179668571163602840e-04,2.825193107128143311e-01
3.262707856350541835e-01,4.578821976103698843e-02,4.883553083588253185e-02,4.579610778380429140e-03,-1.095406797165028806e-03,6.665120111479896567e-03,2.793292403221130371e-01
3.304107200580459480e-01,4.473237246374441034e-02,4.749746359316447952e-02,-3.043425751839055849e-04,4.378795721119622020e-04,2.241133611068130312e-03,2.843338847160339355e-01
3.335729579516291676e-01,4.539650757006270798e-02,5.305629794454307102e-02,1.126466295505219265e-03,-9.640544092043878185e-04,9.224782882334902571e-04,2.844400107860565186e-01
3.301820570157721901e-01,3.853058804363061751e-02,5.393612094134836443e-02,4.147341253282571484e-04,-7.481347712547989750e-04,1.582455667310801641e-03,2.842790484428405762e-01
3.337269328232034260e-01,4.676898117713113034e-02,5.312343847211306591e-02,-4.883828786016126749e-04,6.552627098820201258e-04,4.797971794801639809e-04,2.838388085365295410e-01
3.300785566642101543e-01,4.354332741673018481e-02,4.748069752815683997e-02,1.050349128083912084e-03,-3.573291999180794667e-04,2.167097567299914283e-03,2.846181988716125488e-01
3.330331227183654375e-01,5.002640675387587388e-02,4.955597861353384925e-02,7.153474568345547435e-04,1.138060189887928281e-03,4.057760322183369384e-04,2.832526564598083496e-01
2.789066808785755081e-01,5.269766769895851966e-02,5.093055210825808699e-02,2.400093765865413467e-02,-1.228018261943015360e-02,1.224953286197526942e-02,2.328176796436309814e-01
3.221801718508617296e-01,4.834463063684565909e-02,3.965938556403239557e-02,1.107067038548896921e-03,-3.100806594681456644e-03,4.143541572522281904e-03,2.784307599067687988e-01
3.215154788862693569e-01,4.650808195029927650e-02,4.423129676695276846e-02,2.999654483256941010e-03,-1.167066919388353883e-03,3.867001860629057288e-03,2.762902975082397461e-01
3.298969527712549699e-01,4.420891678931362923e-02,4.515908624784673031e-02,3.589321297189970034e-04,-1.050280625499950236e-03,1.658875783587631823e-03,2.852350771427154541e-01
3.327246588118064063e-01,4.501742847032910722e-02,4.853160847443403758e-02,-4.380511828520655313e-04,1.169184577567057717e-04,7.945704270655581328e-04,2.859707176685333252e-01
3.716063769857387844e-01,7.185141205189388147e-02,5.976924147873410864e-02,4.929096524553858681e-03,7.657749959744176993e-02,-1.099851135105563019e-03,3.336009085178375244e-01
3.306191537098467359e-01,4.836479300127237424e-02,4.597255696513169454e-02,2.334629992434839995e-03,-4.394294766647335328e-04,3.840974707885468162e-03,2.835659682750701904e-01
3.327016459825484773e-01,4.580653667472371626e-02,4.751024688881981539e-02,7.102428421206187156e-04,-1.031550654448831934e-03,8.656595315246358967e-04,2.860592007637023926e-01
3.288249260908416294e-01,5.349640510989976672e-02,5.537073141160325784e-02,7.796813138295002714e-03,-3.310742373279844733e-03,2.395922995074521028e-03,2.748194336891174316e-01
3.326445611502056865e-01,4.927888496042255595e-02,5.124618058470935267e-02,2.327393727013017579e-03,-2.500888899316395814e-03,2.857068685424162674e-03,2.824925184249877930e-01
3.295137489636325578e-01,5.026017848427657975e-02,4.311489504446298915e-02,2.135963819289862786e-03,-1.328706047607411313e-03,2.028835718232642298e-03,2.829492688179016113e-01
3.334824565365331894e-01,4.388578354774276546e-02,5.245835495208131527e-02,6.365703657496179146e-04,-3.171521901070660098e-04,1.383829153558501250e-03,2.854196727275848389e-01
3.341298109772876668e-01,4.667519148644988514e-02,5.164710537983438488e-02,2.345165696085810758e-04,-7.842319571912904561e-04,1.039569806391123534e-03,2.850103974342346191e-01
3.371439460443355074e-01,5.005909611122454084e-02,5.208175296282302469e-02,1.827163522506570050e-04,-1.263859787419375786e-03,-2.152695718520685267e-03,2.861117422580718994e-01
3.313647101618554802e-01,4.564275294559148877e-02,5.028471458965114160e-02,3.032786972836317568e-03,-7.571750580863032508e-04,-6.606378427993960141e-03,2.837120294570922852e-01
3.383533531306515130e-01,5.126441013209175057e-02,4.670234950946981767e-02,3.056516040556901161e-04,1.639399520183327770e-03,-3.947303368641828965e-03,2.894921004772186279e-01
3.377479924595420124e-01,5.231948029051061710e-02,5.042224492559443938e-02,-7.605621055881454321e-04,1.052007389337741936e-03,-2.423526125891431026e-03,2.864214181900024414e-01
3.348349227754166546e-01,4.760568024900339867e-02,5.741834370517163999e-02,-3.971967001619309255e-04,-9.946478914864935461e-04,-6.505631252875542555e-04,2.824591100215911865e-01
3.316133130621947145e-01,4.101165700625765409e-02,5.466733543657160965e-02,1.300688666222736848e-03,-2.688278765131053892e-04,-3.744827954237865426e-03,2.841035127639770508e-01
3.373342060909673701e-01,5.483541594250079809e-02,5.893979702840432267e-02,7.530410673156605892e-05,2.475069782583521304e-04,5.156414885504511303e-04,2.804709076881408691e-01
3.370220781728331394e-01,4.909450378801646919e-02,5.475247640241064084e-02,-5.378886405675576939e-04,2.275768278954832114e-04,-1.584826107190734053e-03,2.851557135581970215e-01
3.362066775342268943e-01,4.339788228286162175e-02,5.026568393663798096e-02,1.235425778446289482e-04,-3.325118917759595704e-04,-2.007382495054802103e-03,2.894575595855712891e-01
3.381451975971606072e-01,5.303514405629576600e-02,5.383634246775403920e-02,1.557474710301532100e-03,1.325688394005908191e-03,2.061834268814903299e-03,2.847547233104705811e-01
3.338911335903427258e-01,5.351290910410221036e-02,5.436628705950095897e-02,1.172908242299765822e-03,-8.138022241279351497e-05,1.315433903317546815e-03,2.799691855907440186e-01
3.364595445933028506e-01,5.151479975293847546e-02,5.526656909709150300e-02,-1.562506228464403393e-03,-1.488136417597429005e-03,-2.907617653380011481e-04,2.831126153469085693e-01
3.243513110662111232e-01,4.029515674601867603e-02,5.503093068248438025e-02,5.532494700969283266e-03,-1.101103009490915084e-04,-6.590729723113954164e-03,2.773831784725189209e-01
3.266676583287993485e-01,3.320783301488827721e-02,5.884028945521442566e-02,7.658653743311327278e-04,9.294111498227317992e-04,-3.440282954951090879e-04,2.815285027027130127e-01
3.089492105705134994e-01,3.875906449951913024e-02,5.556193890232628829e-02,6.125379734866373722e-03,-8.843268699947504519e-05,-6.211474722148200428e-03,2.626278996467590332e-01
3.192947786165811208e-01,4.444284311953432265e-02,5.036209989764633965e-02,2.606364954819860233e-03,-1.512616341762213032e-04,-6.316210049521699295e-03,2.721981704235076904e-01
3.350523453374750771e-01,4.373412711442223322e-02,5.264345766043455888e-02,-3.978819221027047877e-04,-5.321019329492076818e-04,-2.725944436258583622e-03,2.870084345340728760e-01
3.332071500242668183e-01,5.646086661508122051e-02,5.793980786322150411e-02,7.732908314655442469e-04,1.094022842636407315e-03,-7.876181258888108436e-05,2.760195732116699219e-01
3.330939299910176121e-01,5.994774517517365009e-02,6.026264707281171751e-02,5.697787677189375269e-04,-6.056039513162552856e-04,8.169549882624387331e-04,2.729963362216949463e-01
3.317932968194277632e-01,5.132303951820588184e-02,4.672853182935891858e-02,-5.049744361169226795e-04,4.389906934161510142e-03,-6.195740155470536546e-03,2.831025123596191406e-01
3.388806364840122320e-01,4.795190560594407569e-02,5.415030584415993220e-02,2.995851778787183509e-03,4.028204168565676247e-04,-3.287049807457072346e-03,2.879834771156311035e-01
3.343804872957354957e-01,3.887189602000074018e-02,5.144397728826545502e-02,-1.012682960343229844e-03,-5.273547782447603628e-04,-8.671355865105338226e-04,2.894380688667297363e-01
3.324913518417539349e-01,6.340898352089342771e-02,6.427834906272583693e-02,1.137481423478341587e-04,-3.263494241314275450e-04,-1.519797533761331389e-03,2.686623036861419678e-01
3.357229930302562115e-01,4.039816699501616593e-02,5.432713448764824038e-02,1.156626431628497926e-04,5.251781150589483228e-04,-1.510899904706648582e-03,2.886258959770202637e-01
2.110429069575990302e-01,6.541485221191084554e-02,6.730450724744599378e-02,-3.683728835593869100e-02,1.962754934364483242e-02,7.932717765225534567e-03,1.623310744762420654e-01
1.800596594295324759e-01,7.685446385578018069e-02,7.980587539659761420e-02,-2.238009366404815695e-02,1.931603808000443082e-02,6.621983472272779600e-03,1.144941374659538269e-01
1.136318003566974266e-01,5.185762897723972947e-02,5.039624086070693815e-02,-1.534794677370769633e-02,5.075758498546680680e-02,3.842844072085509211e-03,1.113033592700958252e-01
3.404311063426102013e-01,6.890613141583520895e-02,6.243280306782322819e-02,1.939211705424661539e-03,-1.651558669578048083e-04,-1.256178824172841024e-03,2.748481035232543945e-01
3.243357031798559387e-01,4.135279905820279933e-02,4.985366177206618232e-02,-3.727340623829009819e-04,1.714207849805039633e-03,1.953237874668542484e-03,2.788667678833007812e-01
3.207242723153405084e-01,3.490580547895312524e-02,5.106354812040284075e-02,4.985465724586582697e-04,5.499861077473419891e-05,6.968070104663725856e-04,2.780958414077758789e-01
1.937193349779262053e-01,6.507374237067289902e-02,6.113922494932274437e-02,-1.460815521877613724e-02,6.662217950309871906e-02,3.437394100359932470e-03,1.762455999851226807e-01
1.986014413578637283e-01,6.888817299547400630e-02,6.059216519172306442e-02,-4.065426585320573065e-04,5.789380650533157424e-02,6.931713261331581312e-03,1.678397357463836670e-01
1.613273908296998793e-01,6.363082886924666115e-02,5.601427950275383177e-02,-2.449469986470979139e-04,1.934397376312222555e-02,2.686250736671659273e-03,1.071967184543609619e-01
2.289982401519728428e-01,6.140905365734300458e-02,5.853271384305960834e-02,2.115905354450770687e-02,5.925559216334987198e-04,-3.994655504834833393e-03,1.731141060590744019e-01
9.643603510445444837e-02,5.827323972564479870e-02,4.959286930943970773e-02,1.120866091302672243e-02,4.576944806335446481e-02,9.050965795856102600e-03,9.364937245845794678e-02
3.364572853538826402e-01,5.377404072901773024e-02,5.345607047188878636e-02,8.296673618218002467e-04,-1.038382541444405173e-03,3.230495914867354944e-03,2.829070687294006348e-01
3.388896977932532861e-01,6.260086924522084706e-02,6.725043574196105933e-02,2.366761969876177412e-03,3.386577207669544745e-03,-2.971301910269925195e-05,2.740870714187622070e-01
3.142751065864761162e-01,2.981622128105800018e-02,5.688744501226317141e-02,4.582419471263859110e-04,3.208481818420541522e-04,3.291850197232918610e-04,2.719380855560302734e-01
3.372414182045423425e-01,6.023058711798383313e-02,4.554754197785093606e-02,2.181383982193513650e-04,5.795135982022290612e-03,8.699339561500050175e-04,2.848176956176757812e-01
3.031303621341897014e-01,5.457009099354898085e-02,4.904425828967312606e-02,9.053131943498366960e-03,-9.970378436063615998e-03,9.027601405566037032e-03,2.529324889183044434e-01
3.299090641346152930e-01,4.762824690121295057e-02,4.197689610127355864e-02,6.795936851518926151e-04,-5.413096271794662568e-04,2.272056901515614926e-03,2.851796150207519531e-01
3.350210682870741197e-01,4.906077336039414705e-02,5.590705832130116182e-02,2.357620577192505971e-03,1.733751579330346237e-03,3.325650573198003258e-03,2.827034890651702881e-01
3.331913736270138982e-01,5.107530727564470185e-02,5.010842622756160603e-02,1.140229304072082410e-04,7.434409110016775750e-04,9.836979275323726960e-04,2.826088964939117432e-01
8.200210921070952286e-02,5.571396306792216618e-02,5.898030089672509635e-02,3.040509579829310527e-02,1.236032563634817741e-02,8.124836497250762998e-03,6.360543519258499146e-02
3.341188711745520790e-01,4.728083160830445775e-02,4.956032144286402763e-02,2.388906455931722221e-04,3.618545267518983341e-04,1.043930764729159542e-03,2.857118248939514160e-01
3.334326879995090365e-01,6.349337223300210997e-02,6.190848598132335512e-02,-6.223150635344314261e-04,6.686885410947160900e-04,-1.095191730251979462e-03,2.707464993000030518e-01
3.313548725468782874e-01,6.241793413987783978e-02,6.321774211948874567e-02,-4.415180234020782998e-04,1.400992108679600305e-04,-6.050945515441876312e-04,2.685411572456359863e-01
3.332814646709088002e-01,5.241639633348746385e-02,5.605184651147018804e-02,1.003888110821331585e-03,6.298975815395823621e-04,7.776628420308245512e-04,2.790758907794952393e-01
2.252632335303023092e-01,4.355543571329811847e-02,5.556866087166201923e-02,-9.205149149218114224e-02,-2.780438555626506270e-02,-5.524160881812078400e-03,2.425085008144378662e-01
3.352258498807808018e-01,6.069102552654845328e-02,6.057249146541081319e-02,4.099749995301043702e-04,-1.707671821008075342e-03,-7.941543750292971542e-04,2.746143937110900879e-01
3.352173210836074668e-01,5.640550300978214304e-02,5.915165491926474561e-02,1.343843559576139712e-03,8.545443170277529496e-04,4.401443617993528530e-05,2.774626612663269043e-01
3.275485532758470875e-01,5.307070610941141964e-02,3.816344517583898643e-02,1.869189787012277447e-03,9.845341408212347626e-05,1.149137123813096656e-03,2.822525501251220703e-01
3.349393207476994982e-01,5.663622662096998162e-02,5.828292753452336827e-02,2.876270178643508839e-04,-1.709922195002764374e-03,1.232512645943434869e-03,2.775078713893890381e-01
2.914898320819220290e-01,4.975748758020769047e-02,4.845197010084631439e-02,-1.538221048133144595e-04,6.126524164252576546e-04,9.284092026202455869e-03,2.429230213165283203e-01
3.333242208274659335e-01,5.787162289046875185e-02,6.056536618299009078e-02,4.697055099458495207e-05,-3.863288490574086549e-04,-1.258665987207948159e-04,2.741165757179260254e-01
2.993523356104817457e-01,3.187009990130938719e-02,6.263662885052941054e-02,-8.101790982255336736e-04,5.246904651439684194e-05,-1.268699394421291720e-03,2.535165250301361084e-01
3.456102465065800655e-01,6.198762297356726070e-02,4.829946857916607439e-02,-3.420054011256046939e-02,-3.958717400564720768e-02,-1.037158553273485016e-02,3.050321340560913086e-01
3.620521266815736050e-01,5.910590961894029993e-02,4.449453381529609730e-02,-1.736573986861291580e-02,-5.197835044473188976e-02,-5.862029064840162257e-03,3.248529136180877686e-01
3.113461456642926395e-01,2.937991485491744936e-02,6.195870064890177109e-02,-5.257109937958855811e-03,-3.545598213319121005e-04,7.696589470035501452e-05,2.673266232013702393e-01
3.774595059685177389e-01,6.608686485951803524e-02,5.987188580882416011e-02,-2.064156829987383226e-03,-1.225675363795699149e-02,-9.532073240638734698e-04,3.152664303779602051e-01
2.272778927497491330e-01,5.656566624017037026e-02,6.831537765149511832e-02,-3.839295065278780159e-03,-3.307745966488059787e-04,1.505903599268939598e-04,1.652861684560775757e-01
3.342411418269691792e-01,5.673031771344144714e-02,4.967526314568020129e-02,-5.535424328581453439e-03,-1.808956384633325296e-02,-2.106968829881860142e-03,2.830314934253692627e-01
3.692139321384113604e-01,6.397951632748297146e-02,5.642129133077802838e-02,-2.627185397447542089e-03,-1.854444037319008531e-02,-1.855534291358409667e-03,3.107972443103790283e-01
2.721071237128102616e-01,6.422795377372533809e-02,6.590151717083615746e-02,4.509913511205764403e-04,8.069277332381787592e-04,-4.159064519479576186e-03,2.071789205074310303e-01
3.130761776745247804e-01,2.827404641270520047e-02,6.077204208778462513e-02,-1.320284469428479939e-03,-5.217553825195284301e-05,-8.023629146170456602e-04,2.700371146202087402e-01
3.201087759770097629e-01,4.762198729356721671e-02,4.297670091007374515e-02,7.562594976047500050e-05,4.760557612662252099e-04,5.881231458513627892e-03,2.750288546085357666e-01
3.442864610824813987e-01,6.232646027485679030e-02,6.122651168288338608e-02,5.790527769275320051e-04,-6.518611728724960476e-04,7.861301538847102147e-04,2.825188934803009033e-01
3.325629988815207994e-01,5.383280253774465340e-02,5.075937601682875555e-02,-1.117313073354135253e-03,1.352714764162981677e-03,-1.591149852717312622e-05,2.802960276603698730e-01
3.495052839800179556e-01,5.696653147055058541e-02,5.535416083187444380e-02,-1.130442827011881625e-02,3.465325056820235151e-03,1.263108866320241438e-03,2.940703630447387695e-01
3.332985554016389407e-01,5.655994511927782409e-02,5.411208957397259378e-02,-2.638228915572025587e-03,4.174620120873374224e-03,2.923274365173323883e-03,2.781482934951782227e-01
3.213699154250537204e-01,3.928380999032125842e-02,5.493024859791117986e-02,-3.091498961820120239e-02,-2.347547169627888994e-02,-1.082874379965703508e-02,2.833302319049835205e-01
3.339611013930495753e-01,5.581505023785962583e-02,5.459064766808933988e-02,1.034286838528707120e-03,1.491233233037828629e-04,1.433690391807979179e-04,2.787662446498870850e-01
3.822992486140344148e-01,6.606165429576629777e-02,6.639769433503647789e-02,-1.556391376839977997e-02,1.421264561520510679e-02,8.356156308146562087e-03,3.184999823570251465e-01
3.302390664781075236e-01,5.556242742056380357e-02,5.107649990161111653e-02,-9.030280585177611133e-04,9.323874534587149945e-03,6.955800394230939390e-03,2.776831984519958496e-01
3.329256290728477286e-01,5.223656105391749627e-02,5.005963348194684970e-02,-5.181082189721018241e-04,8.579619297853474224e-04,-5.827973139142337156e-04,2.817910015583038330e-01
3.330323668907931856e-01,4.670495713593357523e-02,4.494448939117830222e-02,-4.536772469958952943e-04,7.746181561841197034e-04,-1.079360296836458049e-04,2.872159481048583984e-01
3.310965300150953139e-01,4.636268592494086072e-02,4.456356446892319190e-02,-7.678233312874115294e-06,2.820735555063694005e-04,4.117767032075007839e-04,2.856389582157135010e-01
3.313198694119231513e-01,4.657679845743430136e-02,5.427577485109705280e-02,-2.765581958642356498e-03,8.001449378535846436e-04,9.472518032056745797e-04,2.810217440128326416e-01
3.527306640789668046e-01,6.522759493603648429e-02,6.004909893368851059e-02,-4.300722556651131318e-03,6.128894452353474305e-03,-7.748866033920000142e-04,2.904197871685028076e-01
3.375422475654125121e-01,5.587757672679945220e-02,5.865282286580855708e-02,-1.284923468521301584e-02,2.789162592412216483e-03,1.364805070568944970e-03,2.812209725379943848e-01
3.041442665856055605e-01,5.995794154829738043e-02,4.226651543855319826e-02,-1.436311267896170211e-04,1.381019173540590228e-02,-8.027687237935466832e-03,2.550010085105895996e-01
3.260208847014482991e-01,6.128578738904637280e-02,3.464402760530851944e-02,2.863798443651454414e-03,3.602353959773991598e-03,-2.478324815482346646e-03,2.791584134101867676e-01
3.263008231931035508e-01,4.271289863049865243e-02,4.595916876847550014e-02,-5.839146721007774238e-04,1.440553329885108612e-03,1.054847989171826296e-03,2.819975614547729492e-01
3.238164593570395100e-01,4.285994842597314058e-02,4.490010329062536776e-02,3.050429452605884421e-04,1.433851685638338677e-04,4.255853753454709627e-03,2.800396382808685303e-01
3.234996692540798024e-01,3.542775879992433874e-02,6.282220389840767472e-02,-8.352071162332304691e-03,3.827043882240513308e-03,3.410975816443793766e-03,2.759210467338562012e-01
3.275253976620626784e-01,5.971448755626149185e-02,3.927803389846497295e-02,4.875967233210886514e-03,4.971410882393825434e-03,-3.172914030482917175e-04,2.788533866405487061e-01
2.133215068865569886e-01,6.636866985155440157e-02,5.712134888238010882e-02,-4.869976501209497769e-04,8.049655096385756325e-04,-3.419990289055920181e-03,1.519121974706649780e-01
3.315177570192258116e-01,6.138784060600756265e-02,3.567633005233546151e-02,1.095801798108275629e-03,2.830398069837059775e-03,1.508661625507132535e-03,2.839210629463195801e-01
3.158979843196740855e-01,2.868819945723218023e-02,6.055562630846875183e-02,-1.601592773558511724e-03,-9.599034574358001910e-04,-8.711147086384880400e-04,2.726996243000030518e-01
3.330294203707762635e-01,5.180471292504465475e-02,5.225727931921664293e-02,2.965096170544380665e-03,-2.307843377928171791e-03,3.681805638072613209e-03,2.811463773250579834e-01
3.267936481204974930e-01,6.685175629789832930e-02,3.520727950933791317e-02,2.888628628939096839e-03,7.341861136532263667e-03,1.430381895271630802e-03,2.774702906608581543e-01
3.395988371095676195e-01,6.182251546658432129e-02,3.955585641767118965e-02,-3.506635819684296700e-03,1.956583193533490556e-02,-3.171505650649908897e-05,2.915921807289123535e-01
3.308104106815905054e-01,3.916596354296454641e-02,4.702847384347932924e-02,4.172594475995228865e-04,2.506844433699361298e-04,2.599063429669555992e-03,2.878302037715911865e-01
3.221926356650001155e-01,4.558006976786983799e-02,4.890504511407413324e-02,4.231263467943674125e-03,1.754754349701568780e-03,-5.854359812612544914e-03,2.752664387226104736e-01
3.330905306667075183e-01,4.490924152358452548e-02,5.059036116654579140e-02,2.894899558101263919e-04,7.381170549881957942e-04,-5.244991578658648838e-03,2.855310142040252686e-01
3.388516953125912945e-01,4.912458157077000120e-02,4.896516758864340180e-02,-6.588539543578926690e-04,-6.627647994406192121e-04,-8.650617384624355462e-05,2.898114025592803955e-01
3.295252770592131952e-01,4.126074920555979075e-02,5.153023948675523880e-02,3.209834431178869903e-03,2.329596263152524695e-03,-6.442322799880542336e-03,2.835723459720611572e-01
3.392002180881147355e-01,4.676667257735450667e-02,4.821163043517559532e-02,1.122940027992024042e-04,-4.386260637684857562e-05,-1.285606807112147634e-03,2.917223274707794189e-01
3.378987604817942358e-01,4.333146979662173826e-02,4.872791220369135368e-02,-9.267873556738219802e-04,-5.882333340277936693e-04,-8.838418362352563982e-04,2.919166982173919678e-01
3.317982166182756876e-01,4.315532944963100526e-02,5.034656796377162680e-02,6.373179573530102183e-04,1.032560054497502072e-03,1.385454329833415944e-03,2.851331233978271484e-01
2.782879438667106298e-01,5.452021797588221808e-02,5.191154588950809556e-02,7.473285119389591613e-02,2.136987728985552393e-02,-5.326114919440695303e-03,2.624360024929046631e-01
3.341140582345465404e-01,4.905716730880407828e-02,5.715202385977684318e-02,9.633031203344673147e-04,8.404054317333557863e-04,9.721379402445509254e-04,2.811106443405151367e-01
3.371545363784338445e-01,4.329791197130393454e-02,5.040480810684083712e-02,4.146511627130183906e-04,2.646416699042156463e-05,-1.679764124322094977e-03,2.903838753700256348e-01
3.349687545464993255e-01,5.667788122016319263e-02,5.602338019333166774e-02,-1.432364482698909912e-03,-2.127189333412934664e-03,-4.020969396559524473e-04,2.786549627780914307e-01
3.405588194336771624e-01,5.973012590080187256e-02,6.689193866613485362e-02,9.254924251135150095e-04,3.505457300308109127e-03,-1.588526532857017289e-04,2.773883938789367676e-01
3.349624845665579165e-01,5.533937114099936327e-02,5.959451651839900443e-02,3.361703791596805206e-03,1.535001066616453703e-03,4.350567520519519802e-04,2.775948345661163330e-01
3.405285529273026635e-01,5.670521679703703632e-02,5.909832889939828360e-02,1.233657407829965094e-03,-2.262593390673596147e-03,4.064522819842017942e-04,2.826704978942871094e-01
3.299414538393293794e-01,3.385429721806046399e-02,5.687358388628827033e-02,2.345907762597193233e-03,1.447019113687054472e-03,1.019334371201919241e-03,2.853203117847442627e-01
3.407916958196525181e-01,5.932620146303514697e-02,6.026057238235360547e-02,3.292526329174673676e-03,8.043704620618036391e-04,8.510251974656218073e-05,2.810608148574829102e-01
3.342512147344344209e-01,5.987138000610534028e-02,6.055011462745030215e-02,-1.626174627256119203e-03,-1.173120097493195527e-03,4.540914675630156484e-04,2.740642428398132324e-01
3.365752408538972840e-01,5.379296171343611599e-02,5.449160745887972335e-02,-3.533732727542125327e-04,-5.296500269763959427e-04,3.415312583220502809e-04,2.824363708496093750e-01
3.359659806586507980e-01,5.836024427589935060e-02,5.940203032827882923e-02,3.111425479172380288e-03,2.763465226598724265e-03,8.034466967500215342e-05,2.771800756454467773e-01
3.365840628278181645e-01,5.116459993055075262e-02,5.285191538340916484e-02,-1.047397633911788988e-03,-1.064519477468913898e-03,-1.075000725755248434e-03,2.845973968505859375e-01
3.324834802963702041e-01,6.465189976964659524e-02,6.209555443152636744e-02,8.477450296534319541e-04,1.884619180738889271e-03,-1.437330995418006387e-03,2.691541612148284912e-01
3.352815777269824715e-01,5.529461685200912080e-02,5.531079170585945226e-02,2.077332350088438855e-04,-1.225918412349605736e-03,-5.453034720023610445e-04,2.799887359142303467e-01
3.353806699431334248e-01,5.997461879214231739e-02,5.634926807324565357e-02,-1.510303988154640962e-03,-2.108880111252954374e-03,2.816365697767232376e-04,2.772733271121978760e-01
3.380008068571841440e-01,6.142908076809425189e-02,6.002920886386477195e-02,-2.333788189329471206e-03,-3.364534623351329076e-03,1.515052418842311767e-03,2.773774266242980957e-01
3.356075447559925262e-01,6.176993566705188399e-02,5.651799322261967518e-02,-9.026303167246111335e-04,-1.083687585478084478e-03,2.960638974625162505e-04,2.765122652053833008e-01
3.303959882676439919e-01,5.629037428962967160e-02,3.751107146177423690e-02,8.466714376025276855e-04,2.075010277964783531e-03,1.498945195281450957e-03,2.839997708797454834e-01
3.357237418293491649e-01,5.767537184578976073e-02,5.772718004572414963e-02,-2.329789460985443907e-03,-7.472545019307783379e-04,3.182768802614459151e-04,2.780553102493286133e-01
3.327553796279418830e-01,5.090696987778146887e-02,4.237965527116727138e-02,2.720338169605276317e-04,1.174116658901673679e-03,1.134081632453640782e-03,2.862217128276824951e-01
3.126980141698859628e-01,6.133500520551943280e-02,3.963004069219584757e-02,5.485929258295879976e-03,1.670900496322919385e-02,6.210991073158745462e-03,2.648657858371734619e-01
3.106584843921369465e-01,3.053436523003923153e-02,6.297439578330077392e-02,-4.826793471663839833e-04,3.060421479413302830e-05,1.085679434106689165e-03,2.654032409191131592e-01
3.276657634517201600e-01,6.055563684426575055e-02,3.872838219877709764e-02,-3.862790807670175917e-04,8.962365698020644672e-03,2.845710937053253994e-03,2.791419625282287598e-01
3.344418905083442750e-01,4.812343420655997017e-02,6.186926319970742494e-02,-3.305373072089767134e-02,7.796791224506140205e-03,6.946160783574081322e-03,2.860704362392425537e-01
3.122150246907594573e-01,5.773673726472225431e-02,3.029042943031381996e-02,-5.934986879934630102e-04,8.313393018884340790e-03,3.041512678073542315e-03,2.696908116340637207e-01
3.280282186385396481e-01,5.589511840217908922e-02,3.720301220844401957e-02,1.328017535632480773e-03,8.425124737652519777e-03,4.152327903620536831e-03,2.824226021766662598e-01
3.285576006104210522e-01,5.814366826432218471e-02,4.076178396683324823e-02,2.360792708172145937e-03,1.649702889957644107e-03,6.613967478019225658e-04,2.795573770999908447e-01
3.232542823996653047e-01,5.895440749139009562e-02,3.528044307645357425e-02,-2.739278772357861200e-03,1.741487742900537164e-02,4.960452767324783317e-03,2.787078619003295898e-01
3.235206068545976588e-01,6.148152105072776652e-02,3.299525016658361176e-02,-2.158059616739691205e-04,4.287347514422656762e-03,1.177568575537964440e-03,2.774885892868041992e-01
3.256325820321557263e-01,6.010567709439781914e-02,3.721237444888739199e-02,5.363709115240581542e-04,8.972838366434190624e-03,4.271647324826387954e-03,2.782167494297027588e-01
3.144283450115190615e-01,5.836377018888298795e-02,3.845426103694250808e-02,-1.172115455374745773e-03,7.578924271744428079e-03,8.463760725661774453e-03,2.673105299472808838e-01
3.000347799443072727e-01,3.355480880807842903e-02,6.127314172852961482e-02,-1.730534159120326225e-03,4.020623325836177779e-04,-3.377020834726154191e-03,2.538447976112365723e-01
3.275265653806777588e-01,5.730755238605214630e-02,3.302592356605692225e-02,8.885900745952719912e-04,1.994837502418167138e-03,1.316564392811758267e-03,2.831762433052062988e-01
3.326278388013262921e-01,4.729371731191447936e-02,4.794833983384376441e-02,-8.037332828522697611e-05,8.236524403621752399e-04,7.223074301001092224e-04,2.850137352943420410e-01
3.196142261215063618e-01,6.758185318523071694e-02,3.972961157037312174e-02,2.841422572713006578e-02,-3.242763084491476905e-02,6.606041892382810872e-03,2.775309085845947266e-01
3.182227519041653796e-01,3.054669604499417324e-02,5.912593844770322460e-02,-3.356665974849970709e-03,-1.534693808903098318e-03,-4.124903048784898615e-04,2.745798528194427490e-01
2.997277175841811525e-01,3.315543275456669936e-02,6.739802897373850521e-02,-1.246181505455522991e-03,1.559683119085149587e-03,2.053472248079433495e-03,2.512564659118652344e-01
3.150788735315436240e-01,7.089999705971766764e-02,3.736513499043483955e-02,1.541632876237168355e-03,-2.329869270647404872e-02,-5.328626315508767051e-03,2.658142447471618652e-01
8.439519311023786774e-02,6.418517311495541833e-02,4.973294036336962931e-02,3.405159361862306056e-02,-4.667774292782330553e-02,5.139994509748316634e-03,1.048981323838233948e-01
3.259798674159722909e-01,3.669237730312825685e-02,5.472981783044050808e-02,-7.365826729673407430e-03,3.511507329334656851e-03,9.024717812574292600e-04,2.810636758804321289e-01
2.384567073053330821e-01,5.664592939356043189e-02,6.586853087294129716e-02,3.579113973934915094e-02,-3.285786816995683174e-02,1.235664048474266821e-02,1.974928975105285645e-01
4.480779440262888658e-01,5.683411764592521953e-02,6.832369322558276559e-02,2.130139104423658253e-02,4.808753731159163408e-02,-8.502844939640052252e-03,3.965146839618682861e-01
2.610347152736740006e-01,6.411246357994571099e-02,3.934378563254960215e-02,-3.582644657045547237e-05,-2.458577319870475578e-03,2.536466096037007147e-03,2.104918062686920166e-01
3.313075708122865115e-01,3.410221080272926586e-02,5.991072624097787402e-02,2.891553102760441914e-03,-1.370355710283533996e-03,1.643651970851351448e-03,2.852463722229003906e-01
1.742375640876812903e-01,6.595706592911311505e-02,6.283839377663799630e-02,5.695172192434601321e-02,-5.842074001774560932e-02,6.945234544345224061e-04,1.790055185556411743e-01
2.137816028321776751e-01,6.525843707408089667e-02,6.332875031434148649e-02,4.938489612622413982e-02,-9.551863084205931831e-02,-4.343118533982708723e-03,2.389436662197113037e-01
3.412011785456121604e-01,5.710074681636527483e-02,5.937428765771879391e-02,-2.854144945811257304e-03,1.003261060971718860e-03,-9.402179047070322992e-04,2.830237150192260742e-01
3.343206974729430181e-01,5.973009136166657074e-02,4.106550895993800465e-02,2.782073368544040262e-03,-7.390529062360629529e-03,4.925975120971318871e-03,2.848391830921173096e-01
3.268225978859821135e-01,3.454629103214212904e-02,5.791236239661363971e-02,8.065080625746263044e-04,-3.987904716268339902e-04,1.288729965782450934e-03,2.813351750373840332e-01
3.267060795978556920e-01,3.785765047680016149e-02,5.341748410618003817e-02,9.666588129740467928e-05,6.460430033273698545e-04,1.569658353966152430e-03,2.814067602157592773e-01
1.788132888770660456e-01,6.245757096042854617e-02,4.747985530256083192e-02,1.702279275894484634e-02,-3.049452066316354903e-02,8.122352972496898332e-03,1.391499936580657959e-01
1.424201983002108818e-01,5.898180860658737423e-02,5.094494619166252403e-02,-1.417128833213068990e-03,-7.820811753542680766e-02,-3.235275267720086681e-03,1.615057140588760376e-01
2.916352204981413898e-01,4.875150720747994937e-02,4.810357403886893202e-02,-1.098573086395512009e-02,-1.084041081564294032e-02,-9.720781625389130626e-03,2.452516555786132812e-01
2.120150926181558204e-01,6.205811401036210456e-02,6.513761304693091447e-02,1.261712304543290662e-03,-1.140233024674533512e-03,9.395970718197239543e-03,1.493596881628036499e-01
2.943822849483860304e-01,3.507854834646619013e-02,6.007289332924727054e-02,-3.071947696616960863e-02,-1.474844412363797430e-02,-6.924204673054727179e-03,2.549695372581481934e-01
3.208233444760745789e-01,4.411233888183908880e-02,5.350144023182698549e-02,-3.275947047506295664e-05,7.203741798793991615e-05,5.644888697038874352e-03,2.723135650157928467e-01
3.308818560559406707e-01,3.227779067074126873e-02,5.777713954841369459e-02,6.595463597868472805e-03,2.945270038400461463e-03,4.442980737618174351e-04,2.869799733161926270e-01
3.102221193583627468e-01,3.742929214824453066e-02,6.802163038891016755e-02,1.591071493408865740e-03,2.474790887715072173e-03,-3.281617356455083026e-03,2.589685618877410889e-01
3.157901329307826188e-01,5.318694936767125181e-02,3.254114189687083714e-02,-1.921071365370413285e-03,-3.566676146242321599e-03,-4.387685819237459664e-03,2.737066447734832764e-01
3.138907384166482739e-01,5.233920672206154867e-02,3.253098365370338252e-02,-6.363073620516670938e-04,-2.743344766151336375e-03,-3.994873023236575338e-03,2.721288502216339111e-01
3.140063717398949850e-01,5.058354128268859051e-02,3.680174645104861142e-02,-1.866694026112545625e-03,-1.592061071495707225e-03,-4.492367202062989319e-03,2.707222998142242432e-01
3.304842564704140173e-01,4.944459988379587556e-02,4.992503637813246187e-02,-1.706014238506406086e-03,-2.564362971688120742e-03,-1.610242217760659341e-03,2.808642685413360596e-01
3.360147768556061010e-01,4.696268973935199820e-02,5.640583566163009932e-02,3.183466135848949091e-03,1.495841994073522857e-03,1.303733675563769267e-03,2.845222949981689453e-01
3.203452870490722804e-01,4.636719532161683033e-02,3.966882259392051635e-02,-4.481024723959463676e-03,-1.481286263296832315e-03,-2.259243855233785021e-03,2.775359451770782471e-01
3.324182686199633197e-01,6.309956877616755555e-02,6.308850568819412974e-02,4.350660477244721724e-04,9.592907369806897850e-05,-5.225893453894368389e-04,2.693268656730651855e-01
3.231176539510368650e-01,5.071808985832809702e-02,3.949261117852952141e-02,-1.759250130456975481e-03,-1.315566855323785323e-03,-1.653352577668054744e-03,2.782229781150817871e-01
3.369288555204090763e-01,5.768172660962131437e-02,5.686766325053983773e-02,-1.618552223669020903e-03,1.316952943178431872e-04,1.958992195623972916e-04,2.796694040298461914e-01
3.182792167738620615e-01,4.750340398199386083e-02,3.654937803372730609e-02,-4.903915776199469292e-03,-5.232887948483610531e-03,-4.968146967223154541e-03,2.768283784389495850e-01
3.477203520041612372e-01,6.384685667190675984e-02,5.918074681797431957e-02,5.938560555835448694e-03,1.477643828603829269e-03,-2.063469063309873036e-03,2.864535748958587646e-01
3.218493065012333343e-01,4.464078649398642296e-02,5.028152598984232668e-02,-1.025191238542884527e-02,-5.350096175160294620e-03,-8.296644220739128953e-03,2.755365669727325439e-01
3.148495837216027660e-01,2.940070019560690751e-02,5.555072187172058196e-02,-4.572784516466414000e-04,-6.041051790226190121e-05,-2.910573648217575169e-03,2.733613848686218262e-01
3.282173153217897710e-01,4.317683707309985519e-02,4.342879867726295862e-02,1.354374317164699167e-04,-1.291772507856659360e-05,-2.081140192478607041e-04,2.849149107933044434e-01
3.355652974999588367e-01,5.739677762541983697e-02,5.656390590449698885e-02,-1.944258065104442160e-03,7.109010130364313120e-04,2.012477801226450784e-04,2.786091864109039307e-01
3.432764329462048014e-01,5.952185929328064617e-02,5.775589835520136828e-02,2.432272339072344500e-03,-2.890974202408406481e-04,-2.928425214892226534e-04,2.846737205982208252e-01
3.202484587082305989e-01,4.599881641961259260e-02,3.746278982263399893e-02,-8.320462161573596123e-04,-1.580048972671804774e-03,-2.929159819383237232e-03,2.786791026592254639e-01
3.038553518217520510e-01,3.153260000594172718e-02,5.655944565190766660e-02,-8.406293917707260673e-04,-6.965879142866980849e-05,3.403583062680339607e-03,2.607825398445129395e-01
3.237004863026193835e-01,3.258622033357487513e-02,5.957038482261146906e-02,4.765577767802957505e-03,7.199631948902050532e-05,2.618069699914348045e-03,2.787631452083587646e-01
3.296935617251827155e-01,4.607492214338157477e-02,5.316999033558206245e-02,-2.930166898202018078e-03,1.764155246146873390e-03,1.025839012496244452e-03,2.802067697048187256e-01
3.234775910653754916e-01,5.698506882510767646e-02,3.609993503247516111e-02,8.883110212072285999e-04,6.334861842427274648e-04,2.287058654973841022e-03,2.775598168373107910e-01
3.233981811300449261e-01,3.212884612406988194e-02,5.900234104613005792e-02,1.386616183844615550e-03,-2.501343263278457143e-04,7.941142856874889178e-04,2.788197100162506104e-01
3.085305288066020335e-01,3.585490698380233709e-02,6.367357819975177913e-02,1.439065737410544915e-02,2.087983351165871408e-03,8.544690668503923626e-04,2.611071467399597168e-01
3.233804699983824915e-01,5.682795963253206573e-02,3.541904058538214439e-02,6.741425936785098332e-05,7.365531579397096304e-04,4.337673411167476158e-03,2.779807150363922119e-01
3.210729615646630286e-01,3.407097273805820281e-02,6.475813963079558866e-02,5.939841770221269100e-03,1.961713304458041155e-03,-6.598561972907643521e-04,2.731725871562957764e-01
2.857838570979246429e-01,3.784002317318090058e-02,6.466734089341280578e-02,1.459805506206455009e-02,1.898849219187325604e-03,4.185760983024718225e-03,2.371642291545867920e-01
3.205440010527731420e-01,3.593737747219558076e-02,5.075487658324281948e-02,-1.094546108152028626e-03,2.096572557665978605e-03,1.161007510933149446e-03,2.775322496891021729e-01
2.821875260489730142e-01,3.647183777583605513e-02,6.552680081248797583e-02,1.253683517588046088e-02,4.763260590226304310e-04,2.293629749357174123e-03,2.336003184318542480e-01
3.168833630769020138e-01,3.213272325813051888e-02,6.061878038313114891e-02,4.412563720419445008e-03,8.012630408649520225e-04,1.274401132232670436e-03,2.717502117156982422e-01
3.883141819420820040e-01,5.603813180167446784e-02,5.830707969293466575e-02,-1.379569867717866764e-02,4.702325315232880332e-02,2.518822117663560740e-03,3.418803215026855469e-01
3.231324454452454975e-01,5.669998503463206940e-02,3.332365485767546653e-02,9.097449831058680714e-04,4.812171316353436681e-04,1.340537072903800336e-03,2.788718044757843018e-01
3.069942980980813196e-01,4.100724528875919483e-02,5.177058252963785689e-02,2.977348931435631549e-02,-2.090643213862889913e-02,9.074943425403240657e-03,2.687372863292694092e-01
3.249334149286725593e-01,4.882192689036479738e-02,4.960476152407063133e-02,1.387666390002066132e-02,5.589987750244452755e-03,-9.912794683403686885e-03,2.774675488471984863e-01
3.224166650085527053e-01,3.747336245938615029e-02,4.914176621642195320e-02,-5.115671743916901625e-03,3.626419600254688919e-03,5.156613555344542049e-03,2.796457409858703613e-01
3.127096947156958184e-01,3.037221388594973925e-02,6.065787731566567309e-02,-2.809207109046343550e-04,4.069181265190923856e-04,1.323415915271211130e-03,2.684900164604187012e-01
3.326246907303398448e-01,5.922417165481452805e-02,5.939722597480309729e-02,2.573744536436876570e-04,1.148321809470856988e-03,1.290167076011321744e-04,2.733217179775238037e-01
3.325881303750997109e-01,5.794706868500781871e-02,5.680955223042305491e-02,-7.053993094591673842e-04,-3.857958249439057499e-04,-9.119808423912196117e-05,2.752151489257812500e-01
3.433527537393567530e-01,5.788249210608806261e-02,5.851407566877744881e-02,-1.280986900164091981e-02,-1.097386760736565950e-02,-1.549123796738529225e-03,2.866602838039398193e-01
1.751143862671098450e-01,3.915780242677335127e-02,5.246182088983816078e-02,-1.102339604283634512e-02,-7.665392574810565851e-02,-2.792028732102241461e-03,1.867292821407318115e-01
3.138280696533171099e-01,6.619701531291059815e-02,3.948912082624278508e-02,6.347906332166503018e-03,-1.773957916570621449e-02,3.009681704879208983e-03,2.640838921070098877e-01
2.425163279794910753e-01,7.824772708132626819e-02,5.295389689017966639e-02,9.206196309708036818e-03,-4.589711217844315988e-02,5.607792644343170298e-03,1.960795074701309204e-01
3.242349001158036925e-01,3.015897613311536996e-02,6.056978131257881315e-02,2.499654980310366762e-03,7.413780298120843356e-04,6.468106178272799460e-04,2.801500260829925537e-01
3.261195884703742554e-01,5.925645033968766906e-02,3.398506022090885814e-02,3.890979336259040499e-04,9.577651417203703185e-04,-4.685606943793237610e-04,2.803612649440765381e-01
2.951845742712094767e-01,6.511613199452030709e-02,3.574191656698676167e-02,1.073623796019476315e-02,5.145620375684319819e-02,2.158893730817376070e-03,2.624031603336334229e-01
3.259526310625769918e-01,3.681748065900250499e-02,5.601771324750925984e-02,8.407185178521387305e-04,2.328134297948804125e-04,2.019821083195799411e-03,2.800550758838653564e-01
2.657537379097573149e-01,7.035083348534321157e-02,4.417317497123571246e-02,-6.434603944721103974e-03,3.711829426268835330e-02,1.036859465992960236e-02,2.203696817159652710e-01
3.376233823942924595e-01,5.102406306654477808e-02,4.998115279129060340e-02,-2.082647776305868951e-03,3.548671321618959045e-05,-1.169578510181925246e-03,2.871519923210144043e-01
3.194861957036918554e-01,3.088715245066873949e-02,6.276181671166650156e-02,5.453270077664631099e-04,-6.577941244653181087e-05,2.251573698958568906e-04,2.740574181079864502e-01
3.327091550187804003e-01,6.145054676668450233e-02,3.505930475360018173e-02,4.848843380538112231e-04,3.249829699022675766e-03,-6.278570190402636177e-04,2.854297757148742676e-01
3.374687756728602661e-01,5.407172212845663684e-02,4.555144152264471724e-02,-8.668425129074478971e-04,2.977476036016513616e-04,-9.304530123692657988e-04,2.877607047557830811e-01
3.385699753779651822e-01,5.604017205731856577e-02,5.070427100506792739e-02,-1.211350763847813053e-03,6.085440747891923859e-03,-3.904227773193875376e-04,2.854383885860443115e-01
3.218713730059273859e-01,5.471694492259898679e-02,4.569360976432576549e-02,2.801583841435779411e-03,2.056699302191989168e-02,-2.511386394284369911e-03,2.741805911064147949e-01
3.199989476087800044e-01,3.954532226316062604e-02,5.077006127187171092e-02,8.177813515534165410e-04,-2.883997651124906719e-04,7.909248464730031167e-03,2.753582000732421875e-01
2.795467996309266567e-01,6.536029526314190985e-02,3.175931446791341317e-02,4.893091627111018083e-04,-1.063100649191192452e-02,6.289690278366951359e-04,2.335438281297683716e-01
3.672288698834981213e-01,6.289942040393786682e-02,7.198536770575846011e-02,-1.139007474912756279e-01,3.142134789826472180e-02,1.963079608034923117e-05,3.630645871162414551e-01
3.585680091788006063e-01,4.892154350253817563e-02,6.755485585778746305e-02,-3.129195333857249378e-02,2.246442730974933764e-03,9.667564804517437226e-05,3.056323230266571045e-01
3.334987095492575326e-01,5.747847728345968632e-02,4.260374189496851649e-02,4.695702453509257440e-03,-7.225717657668738469e-03,2.093746721494815343e-03,2.841655910015106201e-01
2.064779168486199634e-01,7.707897783109092515e-02,5.537690584840392755e-02,-5.824704948655164832e-03,-3.535538188160819439e-02,1.797128449358287609e-03,1.545469760894775391e-01
3.214226389795526995e-01,6.010243004901703878e-02,2.762947093823842071e-02,4.482367991147011646e-05,-1.163646954806446358e-02,-9.386346628006153213e-04,2.797096073627471924e-01
2.742493757987470859e-01,6.705278314958448838e-02,4.072969511399462950e-02,1.104209110189905904e-03,-1.966636460474909410e-03,-1.957221566287371036e-03,2.215945422649383545e-01
2.545065740556640144e-01,6.816728921070200342e-02,6.263072978648487332e-02,2.004492158509579673e-03,-1.983807154839650842e-03,7.331919909501481182e-03,1.896570324897766113e-01
3.093914122564138114e-01,5.765946514919927102e-02,3.652515498995483056e-02,-2.254131510341112182e-03,-9.119654252324390156e-03,-7.016824317728316378e-03,2.637200653553009033e-01
2.796254191042740755e-01,6.630767276380424013e-02,3.094932834386314446e-02,1.314899598430455596e-03,-2.550388922345288994e-02,-4.542080247540493734e-03,2.373092025518417358e-01
2.262885124558064454e-01,5.306555518904847168e-02,3.911267755134377466e-02,3.431854392877612542e-02,-6.848592496875292868e-02,4.263459712265078340e-03,2.242244780063629150e-01
3.328432171334019252e-01,6.551624572313975714e-02,6.400612599846494666e-02,-3.680015310801692239e-04,3.682871542432683646e-05,-9.301722178520711783e-04,2.680908143520355225e-01
3.412268779767796412e-01,5.518134436947243204e-02,5.407419326877167809e-02,1.367412746574839071e-02,-1.453425765879885756e-02,3.664793263310025650e-03,2.887471914291381836e-01
1.929648072828476502e-01,4.119362144316951468e-02,6.277039361361970438e-02,-5.215625020919737592e-02,-1.370821733491379979e-02,-4.381069565090833090e-03,1.703157871961593628e-01
2.261614146750743903e-01,5.040405791051565110e-02,7.510096870892221665e-02,-4.858589742855521504e-02,8.188151470383204025e-03,1.702067331607009246e-03,1.856112033128738403e-01
2.483571228521243290e-01,4.541986161004499256e-02,7.236007451299150683e-02,-2.407365732809755438e-02,-3.476682315276639033e-03,-5.047364350237518171e-03,1.956871151924133301e-01
2.398945581232044821e-01,3.723080692989416685e-02,6.299282530942387770e-02,-1.850680073052142147e-02,-1.290556937576651077e-03,-7.433903250953234057e-04,1.937766969203948975e-01
3.366187170929336725e-01,5.202854959057574835e-02,5.971752154627379960e-02,-4.327793420538665441e-03,1.026258267638116041e-03,2.909587323525020621e-04,2.809307277202606201e-01
3.467741751171070086e-01,7.498573590326390592e-02,6.039891986040776817e-02,8.729566824863310487e-04,-9.399095721074032838e-04,-1.443718644060209113e-03,2.793876230716705322e-01
3.360362092097257669e-01,3.859208930734847609e-02,5.462529464013944625e-02,-1.804685154108086331e-02,4.988553595429229964e-03,3.777947872379591558e-03,2.916429936885833740e-01
2.151010651677132679e-01,5.215516356017885213e-02,7.196443757431709998e-02,-3.813483839873059011e-03,7.125252395908974329e-03,3.729400591511254485e-04,1.546359807252883911e-01
1.971087745630933086e-01,6.126570432423299184e-02,7.304395971867563842e-02,-2.200144751438988869e-02,5.567042397933056426e-04,4.765130139483267184e-03,1.360636353492736816e-01
1.579833503301975584e-01,6.119203530032335525e-02,7.065708564900877175e-02,-2.711628764702770159e-02,-5.789208235762893263e-03,-7.505886203363092883e-04,1.041639372706413269e-01
3.320594034919146509e-01,4.065195662810600075e-02,5.515145402196118540e-02,-5.013690099033293185e-03,5.289390879285976212e-03,3.345060594246646642e-03,2.847739160060882568e-01
3.684699072540398301e-01,5.285014515672835367e-02,6.340832427322075360e-02,-2.288098486937020087e-02,1.298423637316228722e-02,2.545218748314083575e-03,3.138323724269866943e-01
1.984981128354815216e-01,6.833602276484659899e-02,7.547201994920860191e-02,-2.065211757840625800e-02,-1.067541848261695236e-02,-1.095935141950171157e-03,1.330010592937469482e-01
3.182872652306533157e-01,5.750477204462801917e-02,4.481742996331686268e-02,-1.140722734156709512e-04,5.132845365904530055e-02,9.946971413800659301e-03,2.822725772857666016e-01
3.238610824600789972e-01,3.038229375855223957e-02,5.625365225174397410e-02,-4.459034300590975462e-03,3.046349865645438856e-03,1.597867222981337165e-03,2.816053628921508789e-01
3.258482185443869472e-01,5.412133373285216154e-02,3.762822161737031101e-02,-1.362304282729224093e-03,2.330190586934155570e-03,1.180683994254633348e-03,2.803840041160583496e-01
3.259503906780235605e-01,5.180320359587896328e-02,4.155334136731055061e-02,2.049186749842867201e-03,2.507638449792944178e-03,-4.439988112888901967e-03,2.795752286911010742e-01
3.188830489016952763e-01,5.904490462369257897e-02,3.580908879770626496e-02,2.158342446440909574e-03,4.115287431194832903e-03,-3.789726733981505554e-03,2.723989486694335938e-01
2.952978353193927985e-01,6.038868435388988765e-02,3.707474160113354011e-02,7.422675907317844227e-03,1.089453179904135462e-02,-3.879468878134611966e-03,2.485337406396865845e-01
3.182154751239218426e-01,5.686818725976551525e-02,3.199694941024927575e-02,6.853685248537742672e-04,5.588461244691451425e-03,-1.938696483818789888e-03,2.748224735260009766e-01
3.384296433164352691e-01,6.422241083734882283e-02,5.807438226632324896e-02,2.304284677319066478e-03,-1.831373191840739763e-03,-7.204712178243092430e-04,2.773820161819458008e-01
3.077262291419734508e-01,3.205206907054944376e-02,6.248161923212973423e-02,-3.487684425506737060e-03,1.369791359879835762e-03,3.016037219059239122e-03,2.619216740131378174e-01
3.263183037287151200e-01,3.145364950719192754e-02,5.932345148599844908e-02,-4.400122135306187496e-03,1.065815310921662019e-03,1.535820753025205800e-03,2.820862233638763428e-01
4.045496428672644695e-01,6.797420218341912457e-02,6.212216241499370073e-02,-1.116519516236043862e-02,8.078872333494661320e-04,-2.735740019991792470e-03,3.401254415512084961e-01
3.691209570897320269e-01,5.382689722757104389e-02,5.359072838955394880e-02,-4.815682324827508937e-02,1.145964432155210065e-02,5.306210862850360829e-04,3.268591761589050293e-01
3.297923420323910504e-01,5.373390630641605714e-02,3.883738051725964258e-02,-8.651768862271033656e-04,3.836160456723860471e-03,1.803500094963059316e-03,2.838989794254302979e-01
3.130136880166086710e-01,2.832697417464638545e-02,6.013093418888409980e-02,-1.708496265911040686e-03,6.605582869340307891e-04,2.980877378941762025e-04,2.702113687992095947e-01
2.901720674343675199e-01,5.022264557835949550e-02,4.742318270016759874e-02,-7.622113983983441407e-03,1.036227331582809975e-02,1.130238398064118202e-02,2.431767731904983521e-01
3.268327437371769673e-01,3.266275181680866613e-02,5.774150180837646362e-02,-8.802553719436353660e-03,3.228899007556689568e-03,-2.948822726573581171e-04,2.829337418079376221e-01
3.475762701623391626e-01,7.282562449216130329e-02,6.000548348276590893e-02,-1.530488521067768781e-03,3.697568572887290159e-03,-3.024044344447341780e-03,2.815139293670654297e-01
3.705647340654293909e-01,4.342101965412184517e-02,3.051558930286263349e-02,1.260909154425230230e-02,-3.063717679693697335e-02,9.412271980698872637e-03,3.390724658966064453e-01
3.255513864705095184e-01,3.067834374825277599e-02,6.196012088105402882e-02,2.646832039469334923e-03,-2.264241160951872822e-04,5.088883068500532712e-04,2.805823385715484619e-01
4.174614869223541302e-01,3.813134757609004666e-02,7.823915185438533315e-02,-1.242862605349067708e-02,5.647848371263849976e-02,-3.806032548996852636e-04,3.745920360088348389e-01
3.972422006258158333e-01,7.888885053275621062e-02,6.787093864674534349e-02,-2.738326463602100847e-03,1.114430244485198167e-02,4.214985744478601248e-03,3.246940374374389648e-01
3.256836964830807091e-01,3.158359006957597859e-02,6.223507874506711834e-02,1.823628472097707813e-03,8.474940943957812991e-04,5.103863820043798045e-05,2.800569832324981689e-01
3.378076218463532121e-01,4.922528376541659978e-02,5.017997809058655223e-02,-1.414529663915890020e-03,-7.595994115757478916e-05,-5.428169726211249171e-04,2.881181538105010986e-01
3.642759954681629164e-01,5.256094166361739706e-02,6.770622197576563195e-02,-5.134516992702065075e-02,1.787678444755153029e-02,5.348557375094119271e-03,3.187917470932006836e-01
3.726629995081727209e-01,5.480393985460910167e-02,6.044800055365118219e-02,2.863443287126420447e-02,-6.417108811832814008e-03,4.638332950995159793e-04,3.191491663455963135e-01
3.233989584048406751e-01,4.455773292913796368e-02,4.750740806547422423e-02,-1.486237411606829411e-03,2.151707911990923417e-03,4.813065805313584966e-03,2.775403559207916260e-01
2.955883803769761009e-01,4.197987959456718488e-02,5.571083834066947738e-02,-3.353651031110264566e-03,6.033348243132292954e-03,9.411544922688174983e-03,2.478552013635635376e-01
3.059526680595015535e-01,3.747675493185745332e-02,5.350751607942318133e-02,-7.886367758030397163e-03,2.760506443041225479e-03,5.801019241522608477e-03,2.614246010780334473e-01
3.428131602942524614e-01,6.545010781617732754e-02,6.083044591349083541e-02,6.445804615095012541e-03,3.711458010384272380e-04,-7.537243329850521791e-04,2.799279987812042236e-01
3.235208186135305475e-01,4.103717915631301116e-02,5.697977818425568886e-02,-1.789621539192317668e-03,2.536235612381360430e-03,5.339534240584306764e-03,2.750674188137054443e-01
3.357200895557884701e-01,5.873135875633300751e-02,5.755875215851079252e-02,1.977106614173997209e-04,-1.555962418676559819e-04,-6.199482522096193401e-04,2.775793075561523438e-01
3.114286771335543769e-01,3.866142086330942584e-02,5.461108066492391389e-02,-4.095719441187317201e-04,2.002781555453549394e-03,6.059272475767664944e-03,2.653836905956268311e-01
3.131248924291230029e-01,4.201868049110571435e-02,4.402066426884973516e-02,-3.491935129891083830e-03,3.343542192345413163e-03,6.465316054526116726e-03,2.704724669456481934e-01
3.315659230158652382e-01,5.184857187114323696e-02,4.251646044850876383e-02,-5.050709897808273270e-04,5.670263030535811766e-03,4.275575044592554684e-03,2.847653329372406006e-01
3.319368025672343459e-01,5.240946206710500599e-02,4.452167020934451325e-02,-4.342608440950512945e-04,-1.183457129036185229e-04,1.702919259594634204e-03,2.835699319839477539e-01
3.404470347569058530e-01,5.788149914668218321e-02,6.059600548152770105e-02,1.630683049522954923e-03,-8.430930001669405607e-03,1.312770583400751749e-03,2.816203236579895020e-01
3.214180762911023059e-01,5.302858191990875159e-02,3.842722807021543840e-02,-8.785306500544753970e-04,3.848587089349434203e-03,5.198277684377886239e-03,2.762115001678466797e-01
3.330017483812001133e-01,5.884439326677610993e-02,4.394644578580617078e-02,-8.772736921690281768e-04,5.475305539738534871e-03,6.234937185603344617e-03,2.822719514369964600e-01
3.284389435690132641e-01,5.614222615045523501e-02,3.811693328097408295e-02,9.918310436231787298e-04,1.004687952645954251e-02,4.094069411714096503e-03,2.823733389377593994e-01
3.314580274663019299e-01,5.581141847546169932e-02,4.450963669973789782e-02,8.051027150906576177e-04,3.732096634749372597e-04,9.443299472584006701e-04,2.814766764640808105e-01
3.263503745659667166e-01,5.530825826780756682e-02,3.584988824742958713e-02,6.836802257239764976e-04,5.598456899238252139e-04,1.427835864981794869e-03,2.812915742397308350e-01
3.235037937763625138e-01,3.539751029745648314e-02,5.875201034338152495e-02,1.397505795478632719e-02,3.872958354125784382e-03,-2.899738061699183318e-03,2.783491015434265137e-01
2.997642742847837494e-01,4.602110202960618679e-02,6.015771399847359702e-02,2.053431799761126775e-02,1.727706198242818375e-02,-8.342173051316709165e-03,2.517292499542236328e-01
3.440676090090533101e-01,6.366778947718840231e-02,6.125173347611707897e-02,-4.973095433498693832e-03,5.067003942657969957e-04,4.076076694204979183e-04,2.817495763301849365e-01
3.130339305232932579e-01,4.793946677388542799e-02,6.070159064923540126e-02,1.468296220314809636e-02,9.346010583741411193e-03,-4.343768102645436877e-03,2.608068287372589111e-01
3.163271879632441053e-01,4.409621679388986415e-02,5.434049054778787580e-02,1.887010255716388765e-02,3.116632731080744810e-03,-8.266642408894196974e-04,2.693051695823669434e-01
3.126675696785470859e-01,4.112926193051594237e-02,5.197547980272572421e-02,2.221199817046592365e-03,1.187194125442908371e-03,-6.436838942333970685e-03,2.665499150753021240e-01
2.971607134691393592e-01,3.678484533914870569e-02,6.409130719383994423e-02,-1.221903507417649963e-02,-6.890954398952823384e-04,4.753567953714098356e-03,2.488943934440612793e-01
3.311885987888555927e-01,4.762795139117061149e-02,5.414748110027384209e-02,4.731583782751163617e-04,-5.600089800394239320e-04,-1.587904575934282912e-03,2.803741097450256348e-01
3.228562716904854746e-01,4.918115668499907500e-02,5.930740990992931783e-02,4.350409990908371376e-03,3.678783070433447842e-03,-6.228267514604958477e-03,2.691524922847747803e-01
3.399668066077613515e-01,3.715110217608003085e-02,5.635092781033163023e-02,-6.856172916953397201e-02,-9.379826389795372157e-03,-3.379359827676819191e-03,3.172574937343597412e-01
3.348067630644134818e-01,4.220124576578831999e-02,5.353946121092013899e-02,1.182458083537327176e-03,-3.013041418429694045e-04,-1.834735316234487046e-03,2.871297299861907959e-01
3.348420167433325823e-01,4.119330885076945281e-02,5.332717705680890818e-02,3.647608625575774442e-04,-4.521436734120776310e-04,-1.903745810742626119e-03,2.877943515777587891e-01
3.039738025717896308e-01,3.412039247730484781e-02,6.415911096284547532e-02,-4.346143113766205712e-02,3.591243632337493170e-03,-8.462734081798159794e-03,2.674646973609924316e-01
3.107435418485852141e-01,2.793591875766401889e-02,6.150593990317831938e-02,-1.965526066845307059e-03,-1.542978749380892001e-04,-4.797088478086384742e-04,2.676295936107635498e-01
3.225593524585593230e-01,5.062952996679154216e-02,3.615202246275862896e-02,-1.049907183112850717e-03,-9.110282728518575960e-05,-1.108259187342147548e-03,2.794625461101531982e-01
3.281171661200228962e-01,4.759066095753204662e-02,4.310232245734180179e-02,-7.443271525440702072e-05,1.013540523243038798e-03,3.815119348488723184e-03,2.828800678253173828e-01
3.238255931253049003e-01,3.849293438981701843e-02,5.036874586973993928e-02,-2.336304098740607689e-03,1.938719900897984457e-03,4.505995463151019759e-03,2.797423303127288818e-01
4.686814187992282554e-01,5.477936631505309073e-02,8.068986331588418048e-02,-1.690765063626821843e-02,4.623970627531457517e-02,-5.350993851224196234e-03,4.106332957744598389e-01
3.048066694666142773e-01,2.912718206778502905e-02,6.288375538831451894e-02,-4.936016984354439641e-03,6.274372681734358843e-06,-1.112909062771103453e-03,2.605945169925689697e-01
3.281452306171902533e-01,4.146321176032727318e-02,4.718454799614960060e-02,-8.968148974984773477e-04,2.090222988868882699e-03,1.795486369349014264e-03,2.839089632034301758e-01
3.145635123598703453e-01,2.942862578912430749e-02,6.059518253143957034e-02,-8.093668570689035351e-04,5.725556189419678645e-04,2.282551135628435254e-04,2.709053158760070801e-01
3.294124548002922426e-01,4.207044561688440265e-02,4.754269821855965084e-02,-1.440082455722488473e-03,1.833534349249501226e-03,1.925293489171366838e-03,2.846935093402862549e-01
3.189550334337304394e-01,2.874861617604577979e-02,6.015991224284739092e-02,-4.559084661923860048e-03,2.902737235642766870e-03,-4.926510454985275631e-04,2.760055065155029297e-01
3.312334560451192234e-01,4.636970548521397728e-02,4.458693111296407885e-02,1.580301684415872322e-06,5.450351848108458009e-05,3.118616019025675294e-04,2.857598364353179932e-01
3.286390630787635603e-01,4.615170597080639481e-02,5.114647881864328727e-02,4.041603225953676617e-04,2.596416197445338119e-03,2.000325931991996011e-03,2.800818085670471191e-01
2.855053964696401270e-01,4.973299857330466811e-02,5.197085873256745980e-02,-1.488872758740115120e-02,-2.247987610391900468e-02,-1.515170504598654759e-02,2.406985312700271606e-01
3.195658963447041145e-01,2.858072017916579721e-02,5.891425068087804973e-02,-4.233028608783415830e-03,-6.798581752467092697e-04,1.374412390298829104e-04,2.771661579608917236e-01
3.457381570324837283e-01,6.430908103064765513e-02,6.298092459527329656e-02,-1.074481824374500377e-01,-2.649815199320115083e-02,3.727959488304315259e-04,3.410573005676269531e-01
3.051944458544703087e-01,5.131109103021476436e-02,4.566796821083267399e-02,-1.677000396190054827e-03,3.690248523131265876e-03,7.917315904694665826e-03,2.572132050991058350e-01
3.160553163733854642e-01,3.111576325476207716e-02,5.533864290623741189e-02,-1.985494205496584567e-03,-1.135305650188766407e-03,-1.329900317240232310e-03,2.736717760562896729e-01
3.251298534033941756e-01,4.712165939867046793e-02,4.804823495582137560e-02,-2.230758786289558423e-03,2.556891857518807636e-03,4.250543206503429663e-03,2.777058780193328857e-01
3.293247393632686704e-01,5.154727770864431236e-02,4.265456647795079492e-02,-1.096705366316718180e-03,4.371621663598736739e-03,4.160485210571055609e-03,2.825286984443664551e-01
3.230175165596406162e-01,3.068003253543995223e-02,5.914788023413705687e-02,-2.737822935311363839e-04,2.394956119831482633e-04,1.239962174711676710e-04,2.791950106620788574e-01
3.298840094998276573e-01,5.400191002893776904e-02,4.339007717966368582e-02,8.177384975824287475e-04,4.710012854085871004e-03,4.580617202818003213e-03,2.815717756748199463e-01
3.325368732401775551e-01,5.389256188079449839e-02,4.786474552755709544e-02,2.340342075842914064e-04,1.469952500353063408e-04,3.212028762516812188e-04,2.817075550556182861e-01
3.315883117982590389e-01,5.464367399495738409e-02,5.159896476351417960e-02,2.694310670548240305e-04,9.631474102019277903e-04,8.217323027315377943e-04,2.784884870052337646e-01
3.330549028451587623e-01,5.118581675690668520e-02,4.815019418199147083e-02,-1.928732868937199380e-03,3.728192583226182591e-03,3.267563392998997732e-03,2.835488319396972656e-01
2.788476711122157004e-01,4.761703756387893061e-02,6.309354790795272672e-02,-1.370989603672403967e-02,4.422615242921743885e-03,9.499698416685844679e-03,2.258800119161605835e-01
2.030870269123969396e-01,5.073782791101390244e-02,5.873597245652389248e-02,-6.098782426765465142e-02,3.766364927187920014e-02,5.854067550907391879e-03,1.938368976116180420e-01
2.057405803200739181e-01,6.735728114243672016e-02,6.141735231261018918e-02,-6.336329354119171753e-02,3.752137545247634376e-02,1.531785193696160591e-03,1.904797255992889404e-01
1.194634202628189340e-01,4.914290768433983436e-02,5.364132327796136690e-02,-6.331438592869752247e-02,1.336626487648149599e-02,3.187096787884257233e-04,1.311918050050735474e-01
3.378100984697121612e-01,7.185280960649606530e-02,5.975934100183216691e-02,-1.500225531852235642e-03,9.100137220568268624e-04,1.549313279693692331e-03,2.722357809543609619e-01
2.694285183875115841e-01,4.353778720534434710e-02,7.217868366644847322e-02,-2.462846018368616482e-02,1.269428433990063033e-02,6.686105282749868137e-03,2.186651378870010376e-01
3.219554560503677942e-01,3.145516821599345092e-02,6.164313330116953649e-02,1.969855249338597035e-03,7.759299152102682113e-04,8.938128881065130133e-05,2.766687273979187012e-01
3.364834832764513894e-01,5.174870126078574828e-02,5.479756084833173335e-02,-1.383055550265017367e-03,-1.837635568481447686e-03,-5.079497130407992006e-04,2.832520306110382080e-01
3.329364896893811654e-01,5.211850872560713777e-02,4.126216085529371691e-02,-9.445726266739281046e-04,-8.063346686180280446e-04,-1.267389892261083003e-03,2.864170074462890625e-01
1.747365317600064194e-01,4.571069626270941183e-02,4.081722331647816282e-02,-7.664804733388638769e-02,1.441961529379828105e-02,-3.411191984989970713e-03,1.886437088251113892e-01
3.385665774080695023e-01,5.190540737607095279e-02,6.039177768768724808e-02,6.710555892813006677e-03,-3.013061188726795406e-04,-8.584739596800521197e-04,2.827569842338562012e-01
5.717635515561934056e-01,7.813706090799016346e-02,8.810570141437160108e-02,2.811732839371555714e-02,4.030426483946570465e-02,-1.365530116327731865e-02,4.966388642787933350e-01
1.985466231291336814e-01,5.778775334601103653e-02,3.324222875327115245e-02,1.727163060211147835e-02,6.722330741085538741e-02,-3.923684445725438528e-03,1.958789825439453125e-01
2.288881579407975320e-01,5.013353831325710608e-02,6.699637730961927051e-02,-4.907450218976319029e-02,1.158556796252380519e-02,4.319247270582406324e-03,1.921114921569824219e-01
3.330898557260104642e-01,5.523885098083232414e-02,3.811517024698751754e-02,1.056046278056778278e-03,1.102259367031236314e-03,1.268235876060558450e-03,2.868171036243438721e-01
3.299590102733483965e-01,5.642549107198580050e-02,3.826809924742292923e-02,2.142617402303961284e-03,1.984003132708318535e-03,-4.108106887352185044e-03,2.831839323043823242e-01
3.194772500548896943e-01,4.780473513634234117e-02,4.323384824698130180e-02,-5.403431357802925949e-04,2.902314600792792274e-03,-7.456092517149050247e-03,2.743383944034576416e-01
3.341240928606656890e-01,3.561542462048487845e-02,6.293787479467385926e-02,4.758456625293183868e-03,2.536726428904916356e-03,-2.026039892810787256e-04,2.859812974929809570e-01
3.228763716097461378e-01,4.692216670535351297e-02,4.563875175219199443e-02,1.641069868106064455e-03,5.172238810073381647e-03,-5.995476722202975825e-03,2.769525349140167236e-01
3.364157452597552611e-01,5.026435864478845383e-02,4.347203765663752717e-02,-1.596713743036194948e-04,-1.838686267654057114e-05,-2.143458813692281084e-03,2.896312177181243896e-01
3.468268241104990879e-01,7.399744246341696807e-02,5.969896751463243945e-02,-1.614121136402014078e-03,-7.496633003628415002e-04,7.322247645425895715e-04,2.802721261978149414e-01
3.456236815390667516e-01,6.227724642574902769e-02,7.020017889187425697e-02,1.216887283820318640e-03,1.133761519801950671e-03,1.621473099661102516e-03,2.794981598854064941e-01
3.380069331090158058e-01,6.445951794521893874e-02,5.872300241560880762e-02,1.705234698290215714e-03,-1.326136572110135203e-03,5.850350712868926471e-04,2.764874994754791260e-01
3.344838472520422767e-01,4.530041802641178450e-02,5.112359111337533291e-02,2.154059749920642780e-03,1.802102916053539101e-03,-5.917873279135097558e-03,2.865409553050994873e-01
3.376526796160650434e-01,5.809194246447763055e-02,5.716407672976146770e-02,-4.763247897675133846e-03,2.337859175640972110e-03,7.164020331028625628e-04,2.801793515682220459e-01
3.793107176101317979e-01,6.447872586379306548e-02,5.893846924638543316e-02,6.864166326899204425e-03,2.128843901440221481e-02,-5.993965974020541709e-03,3.201606571674346924e-01
3.306382936770102532e-01,4.738648983815342552e-02,4.775268098204023259e-02,-9.259566926728319842e-04,-5.892595255133758342e-04,1.961361605575431659e-04,2.830754816532135010e-01
3.441361103740050997e-01,5.713878844147873837e-02,5.458967606303206932e-02,-8.980361146312833395e-05,-7.674765829096976246e-04,-2.451489267564063625e-03,2.883147001266479492e-01
3.287613681421595047e-01,5.420791014976192312e-02,4.467122773872152230e-02,4.261616214718573839e-03,4.404822456611215062e-03,-7.797185772652493081e-03,2.799713611602783203e-01
3.372154742335975453e-01,4.539669343433173909e-02,6.166854917880487674e-02,-7.613108048449715101e-03,-1.256879130290125502e-03,6.244753127005176201e-05,2.843469083309173584e-01
3.003342653414607932e-01,3.253972155512903364e-02,6.504035420773775222e-02,-2.138824663312942874e-03,1.273948342488900312e-03,-2.519269130400029512e-03,2.531883716583251953e-01
3.288765048104187461e-01,3.909824529692894346e-02,5.689961610748157927e-02,4.435306217326961085e-03,-1.839480726810939883e-03,1.479981060851482278e-03,2.814349234104156494e-01
3.334311322736961958e-01,5.870370537740408901e-02,6.074672698474720134e-02,1.446036073248252885e-03,-2.992861556830346678e-04,-4.479342714427320994e-04,2.737246751785278320e-01
3.314319274014363992e-01,4.688712308870290890e-02,5.711145970236403135e-02,3.807151632659061687e-04,-6.098396453063522314e-04,-8.269289409428335182e-04,2.795793414115905762e-01
3.159645951862594115e-01,2.938605268670566040e-02,5.909730752869070403e-02,-5.461517574878648092e-03,-1.232261552137211722e-03,-2.773665994558114928e-03,2.731529474258422852e-01
3.315630602843055441e-01,4.387898691187235023e-02,5.887985758738212283e-02,2.749503484630799396e-04,1.478587826302580515e-04,-1.928647060650416026e-03,2.805050611495971680e-01
3.340898433127733602e-01,5.804334922108890515e-02,5.666242939811459711e-02,1.373634185442277732e-03,3.293313796536867792e-04,-3.290342259929346738e-04,2.767509520053863525e-01
2.928737431027955695e-01,3.894840033781678257e-02,5.509276130698602392e-02,-1.367196626102321760e-02,-1.116861683440864735e-02,-9.528445124274659978e-03,2.486898005008697510e-01
3.253334115513015767e-01,3.200108548596493352e-02,5.947040353237212362e-02,1.880533112756940057e-03,1.685682326769433106e-03,-6.394939503625527441e-04,2.806441485881805420e-01
3.269379386594662984e-01,5.477658461609863361e-02,3.925730328951115844e-02,3.327291489644239992e-04,-7.222522633644143115e-04,2.811442036323000097e-03,2.802891433238983154e-01
3.112507989224249649e-01,3.948700495232607133e-02,5.770791252622058110e-02,-3.664716604624428803e-02,-1.176756459609458808e-02,-7.587914392426971417e-03,2.717590332031250000e-01
3.361616508852606211e-01,5.112648556802754096e-02,5.462985536363007544e-02,-1.387652060790547362e-03,-1.349201094503257826e-03,-1.146837506625826439e-04,2.833196222782135010e-01
3.402896524161201919e-01,4.982995929320759021e-02,5.455411389329632710e-02,9.509025201106035413e-03,4.212101760424169158e-03,-6.515688841252279158e-03,2.889097332954406738e-01
3.195281401379870267e-01,3.117777355351254720e-02,5.587986563458559319e-02,-2.183454879166991849e-03,-9.719040204231810471e-04,-1.402759719246061748e-03,2.768687605857849121e-01
3.251948793564255480e-01,4.016196284355748325e-02,5.488892620636992570e-02,4.890282866241350487e-03,7.889533509869515321e-04,-5.173823632090252672e-03,2.782389223575592041e-01
1.730688137397642934e-01,7.003135599109081011e-02,7.225493716480704820e-02,2.895733168327309284e-03,9.240660958941097902e-04,2.518879477810816430e-03,1.021729037165641785e-01
3.268905822377083936e-01,5.285721684120894825e-02,4.402291903202446011e-02,-1.106370252633967098e-03,2.061240839828895003e-03,2.937639255897774027e-03,2.786315381526947021e-01
3.321017369779437622e-01,5.328148849018547739e-02,4.619683837534173387e-02,1.580729815756491121e-03,-1.001434064219931768e-05,6.748141477665203000e-04,2.824449241161346436e-01
3.344574697565033117e-01,5.455012237443322698e-02,5.188107950740833418e-02,9.180108300716659448e-04,1.470862746490608558e-03,-2.029957128441906618e-03,2.812893688678741455e-01
3.111823706344890583e-01,4.157680807021686686e-02,5.062856273981020117e-02,-4.217963960408380349e-03,-2.752463044458584081e-03,-8.017825908410004462e-03,2.657021880149841309e-01
2.194485399516195867e-01,6.806102290737815752e-02,6.220442557110193033e-02,-9.930493440506321396e-04,1.451242684228050027e-03,8.414675182531326791e-03,1.551154106855392456e-01
3.332269566926322479e-01,5.454481231646181316e-02,5.037245085390908150e-02,2.407923398318414945e-04,1.460988059513665350e-03,3.132877121801582007e-04,2.808037996292114258e-01
3.349142438058776428e-01,5.439705473167492922e-02,5.028920598467728764e-02,9.024077321184939028e-04,1.457995797184145860e-03,1.868886984192394624e-03,2.826276421546936035e-01
3.306631225780139460e-01,4.699322583694306998e-02,4.776273695675357922e-02,-2.403453615931454984e-03,-1.600927980450170089e-03,-3.290217402271344068e-03,2.833873927593231201e-01
3.338873588977256945e-01,5.822555977281070050e-02,5.294273601610981206e-02,7.268040363066373324e-04,2.682807820308331405e-03,-1.142863715701492467e-03,2.783894836902618408e-01
3.331201845477019807e-01,5.509089524488144929e-02,5.226492930467931119e-02,-2.130819067609423482e-04,1.635930759154611419e-03,6.744793027809973954e-04,2.794700264930725098e-01
3.290492218803066082e-01,5.088084642160341231e-02,5.207907681600573713e-02,-3.508207010796914743e-03,2.768492059080402030e-03,3.856674253266500259e-03,2.777594327926635742e-01
1.616563516065845085e-01,7.210689926678133521e-02,7.657230594880140573e-02,-5.501454437575435327e-03,6.436190597301527302e-03,4.316818998496558049e-03,8.893900364637374878e-02
2.862945761132315026e-01,4.790793950045339755e-02,4.729404929298036686e-02,1.113746415390614100e-02,7.359241309554806140e-03,-1.135650970281842226e-02,2.406167536973953247e-01
3.408135700739305385e-01,6.039728086223854209e-02,6.148699232550974836e-02,-5.237849186136313544e-04,4.897774107855515022e-03,-8.716824676363965456e-04,2.800070941448211670e-01
3.318211706970053410e-01,6.149730262623187560e-02,6.402883797020196555e-02,-1.095314300672818033e-03,-6.886576868660913104e-04,9.607544151864324047e-04,2.690815031528472900e-01
3.378088086513942878e-01,6.825457190066883117e-02,6.215041417326948314e-02,-8.120525263426808761e-04,-1.148741200582896645e-03,4.693220567174641138e-03,2.727895975112915039e-01
3.382362487637363690e-01,5.024339498985970487e-02,4.946982256117507526e-02,-7.105311104534501015e-05,2.919000626529454881e-04,4.337409355011166809e-04,2.883818745613098145e-01
3.390659417406397536e-01,4.636628112856933104e-02,5.465838232025913013e-02,8.606577625351920224e-04,9.181370936270562711e-04,-5.078029596207297471e-03,2.887851595878601074e-01
3.379377087320588613e-01,5.139756443378826201e-02,5.873510637185368199e-02,3.211265628496997541e-03,-2.064117224640415939e-03,-1.073345394123268598e-03,2.830260992050170898e-01
3.388809740634953216e-01,4.899352360803448103e-02,4.929906069759071308e-02,-6.782097028669056664e-04,-6.173097014866888539e-04,-1.443473246873067095e-04,2.897392511367797852e-01
3.343675889733647155e-01,6.225067406170194106e-02,5.838187172283604287e-02,4.862476412489330577e-04,-1.019582089477257848e-03,6.873575141785688482e-04,2.740813791751861572e-01
2.765050727204138026e-01,4.473352866261527672e-02,4.615650562621025077e-02,7.608221755902939976e-02,2.079659770583327030e-02,-8.607021419833832485e-04,2.684315443038940430e-01
3.416229690481895620e-01,6.874000852690413665e-02,5.816827165673388311e-02,3.035702587241095526e-03,2.164195875622516602e-03,-9.673620714334388478e-04,2.783994078636169434e-01
3.359416351130733447e-01,4.959253325131120216e-02,4.119859726959684831e-02,-1.180898060136660079e-03,1.359303813489882301e-04,-3.180951534543033105e-03,2.906965017318725586e-01
3.417791220544830200e-01,6.316583145303114599e-02,6.743214835936146845e-02,1.126161532911256879e-03,-1.205301208082900505e-03,-1.966915636677386663e-03,2.765405774116516113e-01
3.376900387029638795e-01,5.037453979946845961e-02,4.697187074125119821e-02,-1.263680918799193510e-03,-1.031405808398559026e-03,-4.073975197331757567e-04,2.890465259552001953e-01
3.371724022222805095e-01,5.396712180035284634e-02,5.511638906178162323e-02,-7.048020846318583032e-04,-9.983374192985728247e-04,-7.252066235011318063e-06,2.826403379440307617e-01
3.320082859680554277e-01,5.678947643310545967e-02,5.480309580579831308e-02,1.091384302314175360e-03,-3.769893100709981659e-04,1.914883605927308256e-04,2.762247920036315918e-01
3.372806064843847373e-01,5.712661101279181697e-02,5.615423173838969551e-02,-1.848803970565485394e-03,-1.261706248842974247e-03,3.566941997986184699e-04,2.806689143180847168e-01
3.351190985314286275e-01,5.838295108444088721e-02,5.477367738214884707e-02,8.549073489962064109e-04,-9.533530864127958554e-03,-2.917508338843210515e-03,2.790969908237457275e-01
2.631197151706543003e-01,5.643397852003965987e-02,5.578055780722367130e-02,-1.236900223745320210e-03,-1.577120442524214102e-03,-1.033917409921825993e-02,2.078153491020202637e-01
3.529741579867733403e-01,3.580835705786587775e-02,5.966747598111761530e-02,-4.095032704751484093e-02,2.669709418967546131e-03,4.038100863959057270e-04,3.140840232372283936e-01
3.187067132591037133e-01,4.596642460311931022e-02,4.617657092292530574e-02,7.872332849534513163e-03,9.258479208319079015e-03,-6.636315684817883226e-03,2.736881375312805176e-01
3.316242173028339790e-01,4.985378808859468325e-02,5.252841109970519951e-02,9.105029090010628885e-04,-1.662583286898555181e-04,-2.868095920910983298e-04,2.804476916790008545e-01
2.779373403437941370e-01,3.363588610046459870e-02,5.508458117230836948e-02,3.188899406132685715e-02,2.105330817134639168e-02,-9.884105665009653915e-03,2.440836578607559204e-01
3.207008897477909848e-01,4.048122518792934832e-02,4.049767454440188208e-02,2.260326030996986880e-04,-1.537871924198762395e-04,-5.835068640396385772e-03,2.803940474987030029e-01
3.306055775044504097e-01,5.386597071342993925e-02,5.722962081601130901e-02,3.806032982531270745e-03,-3.068176005519265750e-03,-2.554030725615049052e-03,2.752390503883361816e-01
3.180494089712483374e-01,3.401477005797735875e-02,5.304498749646074929e-02,-1.581366276332677983e-05,-4.837781754692083115e-04,-2.505348303639556330e-03,2.750492990016937256e-01
3.265388050006524656e-01,4.402452154830653608e-02,4.319760892003707275e-02,-2.176381361464605120e-04,-4.983823117608232253e-04,-1.557522055491161348e-03,2.829430699348449707e-01
3.611858138714940658e-01,6.952357097825498378e-02,5.630109650774627050e-02,8.097316815812558022e-02,5.342803624684351604e-02,-4.740835401703356877e-03,3.426357507705688477e-01
3.268656312674450004e-01,4.613560714714619315e-02,4.100870353861360562e-02,-6.447994400202362213e-04,9.618562477237271391e-05,-8.141325095416589381e-04,2.833340167999267578e-01
3.230678143748969555e-01,3.159768195474441099e-02,5.516980770382697019e-02,-1.402813538979690239e-03,-1.943988792200675945e-03,-1.126097010027736836e-03,2.804656028747558594e-01
3.242276218405089061e-01,3.872712803511103863e-02,4.799614029993037878e-02,-4.830041758793183104e-04,-1.123613467104145379e-03,-1.106610889075277868e-03,2.809951901435852051e-01
3.115902095551246198e-01,4.159759825844026870e-02,5.324145311070649367e-02,2.562858797780665637e-02,1.971807497062891962e-02,-9.313588283782980870e-03,2.707119286060333252e-01
3.125922430938788410e-01,3.313465207322061068e-02,5.599143708258320917e-02,-2.215313277998158786e-03,-7.538683622130110899e-04,-4.308751035560442165e-03,2.688932716846466064e-01
3.233946256153757970e-01,3.388447347219009087e-02,6.000045872941624225e-02,6.282065803136984306e-04,-1.021473188749128397e-04,-4.233949178747459957e-04,2.773789465427398682e-01
3.005179415712162516e-01,5.346295606525015842e-02,5.573296948154489450e-02,2.387460819437656548e-02,1.751366462858770789e-02,-1.376557609095519635e-02,2.523472905158996582e-01
2.636050909383103047e-01,5.166792220148155867e-02,4.564690449854540144e-02,7.487327720968078859e-02,6.474639553098925082e-02,-1.723593139984124596e-03,2.750144004821777344e-01
3.299562160296490854e-01,3.973629565137587472e-02,4.684929690324858564e-02,5.272287213334939798e-02,3.191770337816737108e-02,-8.166542563404984717e-03,3.062829673290252686e-01
3.328298418301439687e-01,5.870707562394980594e-02,6.343822730155873613e-02,4.922811835691443807e-04,1.450694396108410380e-03,-6.705011111076268930e-04,2.718034982681274414e-01
3.381727610081621260e-01,5.485167488157344229e-02,5.738254522666171031e-02,7.352179506419782547e-04,-2.474353068914992952e-03,-1.335790892431591302e-04,2.820996940135955811e-01
3.164141412227026162e-01,4.875896326965989402e-02,4.995823426187293026e-02,-8.459526792837716684e-04,-7.590549183335161109e-04,-8.273425881333071677e-03,2.674489915370941162e-01
3.341061133616605172e-01,6.241996615410842775e-02,6.276021475246801318e-02,-1.238824065920009166e-03,7.794241451640625436e-04,-1.155589011073994936e-04,2.715280950069427490e-01
3.386331649119944109e-01,4.840842633030430220e-02,4.786128022864388765e-02,-4.116796580340966946e-04,-5.203654539721115939e-04,-9.462835267655353997e-04,2.905055880546569824e-01
3.364591497019857047e-01,5.424476805626457510e-02,5.586151593516366920e-02,8.747812278690376975e-04,-1.338189200775094512e-03,-2.320844767421018735e-04,2.814233899116516113e-01
3.329884185213861647e-01,6.063613577591717152e-02,6.289199685125490547e-02,-6.686654324084076190e-04,8.834859470201000776e-04,7.971092272001601624e-05,2.712382078170776367e-01
3.470482621066228179e-01,6.263307231841581946e-02,6.560806306256558584e-02,6.886261969263569871e-03,-3.878960841067005845e-03,-2.357635012819484042e-03,2.832998335361480713e-01
3.330381591307685074e-01,5.973745503247647470e-02,6.102771229094837435e-02,9.953129155828512216e-04,2.941794783629789588e-05,8.629052282250347563e-04,2.726674079895019531e-01
3.389836522030468813e-01,4.902699954582964703e-02,5.003790343725735001e-02,-4.640847174084324349e-04,-1.263066362272634118e-04,-1.513678523553913836e-03,2.894656062126159668e-01
3.388079032524410894e-01,5.494560140197538023e-02,4.755670744799926630e-02,-5.758759016864099974e-04,1.687959981988409585e-03,-3.787923299037350769e-03,2.877193391323089600e-01
3.319649536261964351e-01,5.377847483950262686e-02,4.811523163913686285e-02,3.242880302544541571e-03,-1.199431593871745118e-02,3.718252321715302417e-03,2.819571793079376221e-01
3.328404759463020612e-01,5.440156815169265581e-02,5.983878459008615258e-02,-9.924486993461629526e-04,8.527231302512238971e-05,3.842052033341446455e-04,2.757667005062103271e-01
3.311701826353274924e-01,4.922861378689039058e-02,4.811806354529293839e-02,1.165122028603157294e-04,-7.782633573930890399e-04,-1.695852008791370056e-03,2.825170457363128662e-01
3.380714652565039446e-01,6.329800636120094803e-02,6.047297042176466575e-02,-1.685767199022953895e-04,-3.035617646516958461e-03,9.181474462312200690e-04,2.762515842914581299e-01
5.309767354044824250e-01,5.168274000703501625e-02,8.201618915838351787e-02,2.307482126928271995e-02,1.200578468555376461e-03,-3.732449890547086258e-03,4.666344225406646729e-01
3.363346952610291596e-01,5.528953246242380992e-02,5.662959531349932851e-02,-2.339296577927728066e-03,2.243638803785445810e-04,-7.341645440772464042e-04,2.804099619388580322e-01
3.509466861939269933e-01,7.431043324074186607e-02,6.091995588597223787e-02,1.546202454547470620e-03,1.881708696353316104e-03,5.721953578290531238e-04,2.836018204689025879e-01
3.518159643554203964e-01,5.731811395889835348e-02,6.971070181736013782e-02,-2.052670737324768443e-03,-5.270036409146880083e-03,4.137301552729347664e-04,2.886683940887451172e-01
3.512462008936204083e-01,5.718989236815827382e-02,7.514468854136846510e-02,-1.482115780713741263e-03,-1.213523221896953275e-03,-5.177815277616393307e-04,2.855233550071716309e-01
3.484415308890592700e-01,5.985541020960359615e-02,7.034190026334685708e-02,-5.857106820482171271e-05,1.665224205195304846e-03,-6.492621049427235161e-04,2.835052907466888428e-01
3.493422106332363386e-01,5.830663714535051778e-02,6.417768892756207932e-02,4.426099463965214300e-04,7.619137830842150072e-03,1.010967580576119717e-03,2.884532809257507324e-01
3.490280408442414384e-01,6.066173439457066274e-02,7.569517436290008894e-02,-2.053944563743444543e-03,-3.578871492239403280e-03,1.662574324219947977e-03,2.812567651271820068e-01
3.322267059550112478e-01,6.163138846790908176e-02,6.253555489015213964e-02,-6.013677295078833588e-04,-6.041419333108730182e-04,8.557356610402947058e-04,2.701524794101715088e-01
3.330676087725829015e-01,6.140018983896483595e-02,6.097227409042790813e-02,-5.778779523099059241e-04,3.169691453868851011e-04,1.275070904548394630e-03,2.718929946422576904e-01
3.402763055735480990e-01,6.045797372881882292e-02,7.404859791948979753e-02,-2.304633952781717614e-03,-3.590820538786587603e-03,7.387326639805683092e-04,2.733795046806335449e-01
3.429419928721154087e-01,6.178534383457014167e-02,7.177624311111689692e-02,9.184040180441194190e-04,3.059580108942790665e-03,2.410334648568362298e-03,2.763836383819580078e-01
3.576257368928605906e-01,6.064057886534569841e-02,6.059633457625766828e-02,4.066834662705381097e-03,-1.104053626667824035e-02,2.374904664879609758e-04,2.977058887481689453e-01
3.373188157782844865e-01,6.047419371519190123e-02,6.477475783181903257e-02,-1.578187192898034452e-04,1.627405859621277326e-03,1.355615758840501080e-04,2.747342884540557861e-01
3.316958316389782557e-01,6.236236264132698215e-02,6.143726038161326231e-02,-6.989109503077628894e-04,-9.661528959709991772e-05,3.419542579089156317e-04,2.698006331920623779e-01
3.333002509686047721e-01,5.832492956148925545e-02,5.817996666146157958e-02,-7.183929357110667782e-04,-2.157557050140250510e-03,-4.313227868105850974e-04,2.750770449638366699e-01
3.337729806946527766e-01,6.587557776542667110e-02,6.033565376807066560e-02,-1.258707668357504075e-03,4.004188402298730241e-04,1.064550389594529859e-03,2.707258164882659912e-01
3.314925561600942094e-01,5.717049552444236626e-02,5.694482241283098378e-02,4.739901947592164923e-04,7.867344544335195481e-04,-1.946327542401996230e-04,2.744397819042205811e-01
3.322232962158821468e-01,6.266387800531354746e-02,6.364117788761000649e-02,-5.606412468263302770e-04,-6.501073401762644645e-04,1.086035622729433292e-03,2.690827846527099609e-01
3.293723370101231396e-01,4.272238081015203304e-02,5.260024554646063055e-02,-2.243322188271294239e-03,-4.999906090252726658e-04,-1.405416772989870073e-03,2.818795144557952881e-01
3.352050390406791092e-01,6.007518172158747560e-02,3.998179588014065533e-02,-2.362534577595441537e-04,-9.913629909149486788e-03,-5.849801691187393737e-03,2.864020764827728271e-01
3.325839930122720389e-01,5.424940902203226334e-02,5.363808648792989242e-02,-9.256779970683037557e-04,5.838743009251420781e-04,-1.022790586077723446e-03,2.786528170108795166e-01
3.322163846709291768e-01,4.869429556284962657e-02,5.591134239039896592e-02,-2.948153259224366596e-03,7.531584564643668486e-05,-1.078073477574222495e-03,2.800361514091491699e-01
3.162765516806878563e-01,3.035849927274510140e-02,5.935385165478898606e-02,-1.573514573926748823e-03,-1.207194673713807807e-03,-1.454255711630287684e-03,2.726127505302429199e-01
3.258381193116827168e-01,4.115227670856302922e-02,4.331192939141220721e-02,-8.476081813989360400e-04,-7.584170842076605381e-04,-1.773309242053700474e-03,2.836356461048126221e-01
3.270447695061818871e-01,4.463819931672598218e-02,4.521368014522303413e-02,-1.260464792531356282e-03,-4.434053938955103530e-04,-1.721320655145027996e-03,2.821445167064666748e-01
3.309588739144110336e-01,5.345425746678264534e-02,5.164632787270387326e-02,-4.213173059433950669e-04,9.053312949314141394e-04,-4.647236121372770676e-04,2.784195244312286377e-01
3.336857932015085404e-01,6.127204305229158599e-02,6.409527075996580836e-02,3.928486855877078108e-04,2.077809989647091775e-04,1.068212572791346713e-03,2.710205614566802979e-01
3.316339771337899478e-01,5.843250057234426753e-02,5.714318828294868979e-02,-2.323903549298348878e-04,4.461606632302219603e-04,-4.653231933781091563e-05,2.738498151302337646e-01
3.255137744783500597e-01,4.380396675294163933e-02,4.122216134990203118e-02,-2.868876336894845050e-04,-3.667178830693462906e-04,-2.867311464255107006e-03,2.830542623996734619e-01
3.267730935101862966e-01,3.611150727901832336e-02,5.077231895982257937e-02,-8.602225052782614019e-04,-1.840579430169091493e-03,-1.592657506510378705e-03,2.836507558822631836e-01
3.267373649853967943e-01,4.164581408104078841e-02,4.582761350784765597e-02,5.918884843861111185e-05,-4.794271996444559583e-04,-6.925460154042145178e-04,2.830275893211364746e-01
3.375397189906432782e-01,6.316924278728701381e-02,6.413192346445720227e-02,-3.825735630612894182e-04,-1.400901770421141349e-03,3.119054709731896528e-03,2.739552259445190430e-01
3.306087067604960295e-01,5.949838412043371993e-02,6.098232783389130607e-02,-3.434752866093922392e-04,-5.877815160443232694e-04,-4.541572025403311412e-04,2.703751325607299805e-01
3.022201993271860232e-01,4.712799182874875814e-02,4.335665752490473757e-02,-3.327604386776850630e-03,-9.488090367709724887e-03,-9.008403788098874251e-03,2.580601572990417480e-01
3.312290371484306051e-01,6.117661890675625547e-02,6.172289873010486372e-02,5.423799676167964266e-04,4.367181364943260977e-04,1.023678141248036006e-04,2.697824537754058838e-01
3.000955080189837698e-01,2.691261041899226103e-02,5.776074391444764589e-02,-1.180213029359192603e-02,1.933115110451947942e-03,1.619620576985040476e-03,2.599813044071197510e-01
3.227423677868079821e-01,4.688352513007168487e-02,3.731182943742722413e-02,-5.778583617154145610e-04,-8.875310894912033987e-04,-3.246895285282613147e-03,2.808293998241424561e-01
3.602946156451503068e-01,5.112095622479033430e-02,6.010584302213727026e-02,-1.883266904975149092e-02,7.476252787547055419e-03,4.131110962290939111e-03,3.068779408931732178e-01
3.176333694840167143e-01,4.384223029518995174e-02,6.136176559985728751e-02,-2.356138328278224725e-02,1.649315685438227860e-02,3.454435742003442687e-03,2.701649665832519531e-01
2.772629984019304161e-01,6.261035783751843498e-02,6.088693132213029990e-02,8.447967213836814204e-02,3.628072549028719257e-02,-2.296498069570110639e-03,2.679996490478515625e-01
3.392308622222863779e-01,4.578638574772131431e-02,4.947471109507407816e-02,4.251016639424446374e-04,-5.418958561263421568e-04,-8.412184910868917686e-04,2.916238903999328613e-01
3.381111783629947576e-01,4.849658291675441879e-02,5.075155075649566416e-02,1.484806139702300320e-04,-9.040029828575499001e-04,-5.925822279496336959e-04,2.884999215602874756e-01
3.410317420018587065e-01,6.018410784588787421e-02,5.768200143947418979e-02,4.837835863147254482e-04,-1.157410886153811212e-04,-5.250275218158454837e-04,2.821097970008850098e-01
2.768086655567573162e-01,6.157857737251820618e-02,4.193337306934585840e-02,-7.119916727356128891e-03,-3.209721038344489925e-03,2.243532139655497141e-03,2.261332571506500244e-01
2.851430560657690627e-01,6.932063736015470212e-02,3.883754009646155081e-02,1.674530893084711031e-03,-4.847415567625310701e-02,9.755397708960048941e-04,2.472811490297317505e-01
3.394463628154547608e-01,4.802817791965161009e-02,4.917736637719392900e-02,8.993173929660763956e-06,-2.493771174083044950e-04,-3.276769352779613587e-04,2.908461689949035645e-01
3.036655143486666208e-01,6.267407321848951496e-02,3.039789086858069034e-02,-9.121119489984929571e-06,-6.859465795858638026e-03,5.620851268629160425e-04,2.589189410209655762e-01
3.168677361968054162e-01,5.845956314488429117e-02,4.020497568737471661e-02,-4.459004453417420716e-03,-1.643386226994511187e-02,-9.009160972216092786e-03,2.700712978839874268e-01
3.387460078982893474e-01,5.124997761437324884e-02,5.369652313157365076e-02,-7.764110139589257482e-05,-1.410270260091673819e-03,9.745517237455532486e-05,2.862910926342010498e-01
3.378201989048873477e-01,6.010529122496749421e-02,5.847488788941361537e-02,-2.542683289003056304e-03,-2.879308745282635647e-03,1.125840147921989106e-04,2.786132097244262695e-01
2.287867252782615490e-01,6.950608770608954212e-02,4.515436876668209309e-02,1.469464843470758703e-03,-5.113304751080668259e-02,-8.300991210830079708e-03,1.946767717599868774e-01
3.380101345701720383e-01,4.898769355786404545e-02,5.306839372360004636e-02,2.379636208407899902e-04,-1.705469333647592015e-03,-1.397342598357043315e-04,2.870194613933563232e-01
3.354326099771208214e-01,5.497342262339358077e-02,5.396240975718342991e-02,3.565325201816460293e-05,-9.311624971436423606e-04,2.369937483741980195e-05,2.809706926345825195e-01
3.352580020241550107e-01,5.911271939022091915e-02,5.671196437348073605e-02,-1.861814834957577951e-03,6.357096646076690642e-04,5.409534149443645090e-04,2.773759663105010986e-01
3.353131890372704760e-01,6.566605883994840187e-02,6.181495288433973279e-02,6.977020563016163865e-04,2.060284622256596302e-04,-2.075447280436709240e-03,2.716198861598968506e-01
3.363358351342392583e-01,5.776809801494767194e-02,5.913094551969372281e-02,-1.472970853780804831e-04,-1.854814619695618373e-03,2.774030679848093106e-04,2.779079079627990723e-01
3.327800387326034226e-01,6.227496209122979076e-02,6.233172624341587476e-02,-2.009613224287824199e-04,-1.278619729810796584e-03,3.508161107581135064e-04,2.704866826534271240e-01
3.327878123346783568e-01,5.895766049255714292e-02,6.075882479228440769e-02,-1.113280194615786289e-03,-6.708236723354387310e-05,2.412535671634431658e-04,2.729411721229553223e-01
2.456397006717875309e-01,6.955543134924065118e-02,4.123261224870679309e-02,-3.606159739596093410e-03,-1.644601415013074650e-02,-6.322049940638549415e-03,1.943331807851791382e-01
3.316633765813606916e-01,6.226600207477153703e-02,6.101692956568166570e-02,-3.241036744585324369e-04,5.769419839869977624e-04,5.808067036419562335e-04,2.700283825397491455e-01
3.322556551656859480e-01,6.220302880042614946e-02,6.242528745893040354e-02,-5.462105743910134750e-04,-8.664887379509720331e-04,1.707689323109021608e-04,2.699475586414337158e-01
1.963561027213246990e-01,5.481426322212549357e-02,4.965274750580431912e-02,-5.495076560420127793e-02,6.388926025968462430e-02,2.346710065284881349e-04,2.051724642515182495e-01
3.738945560262664225e-01,5.974512522744751530e-02,6.393095125546217894e-02,1.271304159840119102e-02,3.804835029482887387e-03,7.433915070802068559e-04,3.129254877567291260e-01
4.534491498563985590e-01,6.265438899794648075e-02,6.487330161208459955e-02,-6.351062632082827251e-03,7.677283290990971620e-02,-2.933929648525500714e-03,4.119312763214111328e-01
3.373608080314532964e-01,6.581810043967027679e-02,6.204960577457725723e-02,1.797637911189909753e-04,-3.912042752028600432e-04,1.989145389488960504e-03,2.734691500663757324e-01
3.506786100974805809e-01,5.747208698463694698e-02,6.642062700856102286e-02,1.848027910506853640e-03,1.119630420853706503e-02,2.131587717204021758e-03,2.895277440547943115e-01
3.463089418303698652e-01,5.781175736176887014e-02,5.969198773507934652e-02,1.605385861776674732e-03,2.039345839754286641e-02,-1.878420840062373833e-03,2.897545695304870605e-01
3.312801828839230245e-01,6.137917850617322091e-02,6.149770958885666938e-02,7.698837703386578407e-04,2.294931280636385170e-04,1.120526107207080044e-04,2.698454260826110840e-01
3.308047347763556911e-01,5.869546447114191989e-02,5.713084576937103864e-02,-2.782969759131156528e-04,7.311371066920114301e-04,-1.415227342046055238e-04,2.728984057903289795e-01
3.335237957018812316e-01,6.264750348974938710e-02,6.139794737274505143e-02,-2.319727196940198413e-04,-7.071596633250441539e-04,4.383202454781963821e-04,2.715073525905609131e-01
3.356831314816012268e-01,5.232769598434838798e-02,5.532024348176978190e-02,1.516230950262102434e-03,9.348625288614047105e-04,5.530933511540302768e-04,2.818895876407623291e-01
3.314989353605850564e-01,6.099345519288133788e-02,6.087073043851569387e-02,-3.414003613696415173e-04,6.121805879992525158e-04,1.600971587228028001e-03,2.705838084220886230e-01
3.497507595824446147e-01,7.115675193421933109e-02,6.258783067626934316e-02,1.029676866011769963e-02,8.072362957299820951e-02,4.142107605171604576e-03,3.162178993225097656e-01
3.810534510787469964e-01,7.477463028364675357e-02,6.794985123288004025e-02,-5.556125733279261396e-03,9.392471356177116773e-03,-5.055962695740496247e-03,3.104473054409027100e-01
3.317095135763438174e-01,5.481648740035439948e-02,5.689120324552722485e-02,-6.129931750338032514e-04,-2.948129216279833306e-04,-2.870539084404767649e-04,2.758644819259643555e-01
3.090052070866273759e-01,4.908986705991381927e-02,3.713963930962481397e-02,-3.386642833615149169e-03,-7.361921173558510882e-03,-8.943455397324417619e-03,2.669115960597991943e-01
3.423516649802274547e-01,7.101601235470282603e-02,5.814393194456229930e-02,-3.411600199226720066e-03,-8.558006130061810660e-04,6.575754340750080123e-04,2.780643701553344727e-01
3.660922113909774178e-01,6.818939957426199683e-02,6.143909765258870337e-02,1.266538935127123951e-03,8.186623490331499872e-03,9.053815453790105315e-04,3.016801476478576660e-01
3.301696610289296396e-01,4.757325666279527132e-02,4.679047192567874214e-02,-5.435897338644046046e-04,6.662781654121164784e-04,-5.822586453313204936e-04,2.829943299293518066e-01
3.284278829953196643e-01,5.086674162187651560e-02,4.567437813541615210e-02,-5.810115009104460269e-04,-1.767087702110420669e-03,-6.827114185047301279e-04,2.802144289016723633e-01
3.541320567825525512e-01,7.287754637479597342e-02,5.827879062058279047e-02,1.408872746530068698e-03,3.934423586638855809e-03,2.087215972415003024e-03,2.889440357685089111e-01
3.454667947003802753e-01,5.129020162561369334e-02,5.901717468509344589e-02,-1.732375476581085941e-02,1.017252705351651132e-02,2.937998567280675818e-03,2.925117909908294678e-01
3.316638698005275332e-01,5.153747962251276071e-02,5.124223048890839960e-02,3.931508011288195755e-04,6.850018968995514506e-04,-8.716213598930274841e-05,2.802775204181671143e-01
3.287476543432114595e-01,5.909988525974675666e-02,4.057567005544790439e-02,-1.736731179568330513e-03,-2.320412947039569591e-03,-2.272560210203227946e-03,2.794436812400817871e-01
3.297065330878558020e-01,4.712160150304359196e-02,4.915175158115805965e-02,-7.472172433324453375e-04,1.202509594335136975e-04,-1.202408270557183941e-03,2.815861105918884277e-01
3.307871082594572298e-01,4.790519211300002522e-02,5.197108954124672608e-02,-8.782904282824022680e-04,-1.275942064923831247e-03,-7.474236489260948149e-04,2.808868288993835449e-01
3.281322269848858664e-01,4.169594656331794547e-02,4.605618873503283806e-02,5.343035195559865956e-05,-1.360387465321320115e-03,-1.018363811081366343e-03,2.842964828014373779e-01
3.292053257851240700e-01,4.305803389307792661e-02,4.819018224484707125e-02,-6.183061540196783034e-04,-1.581853074107923609e-03,-7.955411936768731285e-04,2.836346626281738281e-01
3.301702351560258375e-01,4.245454260470621355e-02,4.924714853603870401e-02,-2.675648108437948813e-03,-1.956690897647455143e-03,-1.594679531735696812e-03,2.844516038894653320e-01
3.267760870906780135e-01,4.525204762002735248e-02,4.494778483812728043e-02,-3.647842141768243836e-04,4.511351139661107690e-04,-1.925713845350516054e-03,2.816978394985198975e-01
3.297772347791839698e-01,4.435779512113620371e-02,4.425735056313692684e-02,-4.989449607882835399e-04,-6.141722588595908408e-04,-8.738281862798228077e-05,2.854730188846588135e-01
3.214425799200072431e-01,4.326261787117816060e-02,4.696551940412634074e-02,-8.135109176374008891e-04,-1.913346370454851054e-03,-4.854105185391106164e-03,2.764984369277954102e-01
3.283988116925547485e-01,3.304989177294771763e-02,5.907112523586860453e-02,8.669477750920610284e-04,8.061644066294779750e-04,-2.902380982472997899e-04,2.832440733909606934e-01
3.317144188326377474e-01,5.110852912449376229e-02,5.294408771393059598e-02,-3.132713396129416131e-04,4.116756108553517256e-04,-4.124483792900565486e-04,2.796949744224548340e-01
3.314274500604689200e-01,4.990666167157850608e-02,5.236861274076722028e-02,6.468205567638936598e-04,-1.394352785218750334e-04,-3.793704213389349550e-04,2.803010344505310059e-01
3.076193438537527802e-01,5.686904991681772381e-02,3.178024121263221813e-02,4.640246753936210227e-04,1.509892026446643838e-02,3.108549618846915500e-03,2.655367255210876465e-01
2.422928417466268525e-01,6.291796172497504669e-02,4.963377514531838730e-02,-1.241719347646557357e-02,9.392152119629066168e-03,8.906987735441957224e-03,1.889440864324569702e-01
3.385797872599551894e-01,4.889634647688914648e-02,5.598028518674950937e-02,3.320872156059382751e-03,-8.667919631835082142e-04,-5.086516140034934947e-04,2.862703204154968262e-01
3.349261514236700488e-01,5.832519944264812073e-02,5.697355196123801702e-02,1.296144361559180053e-04,-3.134929062961922951e-04,-8.564864078426170447e-04,2.772838473320007324e-01
3.293367512779643569e-01,5.711133913303521881e-02,3.442394350868489827e-02,-4.619456938444183448e-04,3.707378618664814471e-04,-2.161385677852841174e-03,2.842754721641540527e-01
2.337069191980620242e-01,5.271716362379649801e-02,7.619174186649427249e-02,-2.106055703349041935e-02,3.396035268721967620e-02,8.383649472669349803e-03,1.845564991235733032e-01
1.636787857607036323e-01,5.036347469397924742e-02,5.704342709190503985e-02,-3.055834430164940801e-02,6.034216721572546738e-03,7.215327939147979548e-03,1.232675760984420776e-01
3.366379719867239606e-01,5.104240688111334745e-02,4.333467566135883187e-02,-1.890421414674487279e-04,2.950528933115862361e-04,-1.738187700335580305e-03,2.895426750183105469e-01
5.743657031391258272e-01,8.213443037385320666e-02,4.791475042127243955e-02,7.438800745453364588e-03,1.550853402401876184e-02,-1.815019440603922105e-02,5.120375752449035645e-01
3.331168174186623920e-01,3.507388899669139359e-02,6.022652622623526908e-02,2.525098137105667457e-03,6.148169030711287449e-04,-4.847694634545138812e-04,2.863331139087677002e-01
2.697961933557593839e-01,4.532903058023955711e-02,7.327575692754065284e-02,-5.083723808122809357e-02,1.502103581367417000e-02,7.325357328371650406e-03,2.312672883272171021e-01
3.557165110002485364e-01,7.786992853929683434e-02,6.321147291964808457e-02,4.572832292199916805e-03,3.084743038342993744e-03,5.314017936939014310e-04,2.856195271015167236e-01
4.002096996966679754e-01,6.665210368526790219e-02,7.631832766676859003e-02,6.331844323593108573e-03,-8.252118704811265901e-03,-2.454190871935433768e-03,3.293516337871551514e-01
3.362921726085739138e-01,5.675500896657058314e-02,5.375800354646045887e-02,-2.068685053287294510e-03,1.215603285509619415e-03,-6.105546908259848731e-04,2.810803651809692383e-01
2.957308833716504326e-01,5.186126433276530556e-02,5.440067719265988255e-02,-6.339847182543923571e-03,1.366721226120009951e-02,1.204234662618954357e-02,2.448990941047668457e-01
3.435234692958755165e-01,7.467679435374724450e-02,6.349435786830508188e-02,-1.853164824674714177e-03,3.218622579921760762e-03,-3.211277251721306354e-03,2.747403383255004883e-01
3.359197540814290450e-01,5.918959585242287991e-02,6.827894470529789761e-02,-2.095506123709048665e-03,2.082832177180041048e-04,9.895048324798374432e-04,2.723290920257568359e-01
3.366659231413458020e-01,5.313456336492135279e-02,5.131969704679306687e-02,-1.151613707593760610e-03,-1.616696852717488132e-03,-3.970463025378681500e-04,2.844647467136383057e-01
3.351250531071360284e-01,5.115053385430499977e-02,4.505271626960051512e-02,-1.191160521018908491e-03,8.763172910385662318e-04,-3.251294204654017750e-03,2.871386706829071045e-01
3.220938765096173495e-01,6.219528268462215514e-02,3.257775773937142405e-02,1.537410269887688492e-04,5.754327728241621573e-04,-3.574304071319324948e-04,2.759048342704772949e-01
3.443400412271575561e-01,6.641013037860439561e-02,6.144907485022828297e-02,2.204586629009375968e-03,2.973103923300386177e-03,-5.964205755485231866e-03,2.807067632675170898e-01
3.118552395941079913e-01,6.714539311590946025e-02,3.623331187746581250e-02,-1.519229131015890390e-03,2.394739533943044622e-03,-1.586676338976268684e-03,2.616001367568969727e-01
3.476372397791213098e-01,7.329657981240284004e-02,5.987294696770661950e-02,1.355514751645527658e-03,-1.152262351353859236e-03,-6.530671387212032665e-04,2.813119590282440186e-01
3.256359773916821521e-01,5.903451918921130692e-02,3.294110993941315457e-02,1.357987564014603637e-04,6.634685113636543943e-04,6.194481196648009454e-04,2.805641889572143555e-01
3.476910955042111784e-01,7.111205203269160835e-02,6.037208484761347194e-02,-3.413751652590531769e-04,8.654112274160359391e-04,6.899095036223555134e-05,2.821070253849029541e-01
3.808123221591962482e-01,7.128765923027938212e-02,6.432047694276681049e-02,6.417306366498869673e-03,5.236287295553715242e-03,-1.081876896903332047e-03,3.134005069732666016e-01
3.401507622669631692e-01,5.287496920905841724e-02,6.028114824923541670e-02,-2.114909450580756620e-02,-9.752625544764425988e-06,2.455348595366555961e-03,2.860324382781982422e-01
5.440421293942218073e-01,7.552615700979617430e-02,7.147569301035558431e-02,3.010187076041082044e-02,1.803998310323612700e-02,-1.554653764396926249e-02,4.752274155616760254e-01
3.693027787101770820e-01,6.289934010336933889e-02,6.212525560207927955e-02,-8.634302877261228887e-03,2.694635069433088531e-03,7.955481540446231745e-04,3.071940541267395020e-01
3.681546026841774344e-01,6.751127464330844430e-02,6.735119935294572868e-02,-4.750440651920230344e-03,1.015741487399937984e-02,4.462619540637978964e-03,3.014490306377410889e-01
3.310850991284154943e-01,6.279752291810378195e-02,6.223413788170970018e-02,-1.674534665799432714e-04,-1.630964505242934342e-04,4.688983847481990484e-04,2.685712575912475586e-01
4.264804430976170124e-01,6.349593837933524554e-02,7.209730413536116767e-02,-9.051151701848962616e-02,1.863751322929198956e-02,-6.779495904974894467e-03,3.930222988128662109e-01
3.222957612718791442e-01,4.076676441281289198e-02,5.432820604768787143e-02,-4.585312590360493372e-03,-1.490044774144486410e-03,-5.040549673367837255e-03,2.752644419670104980e-01
3.903734615716558665e-01,6.583306385686157891e-02,6.933746125942094607e-02,-4.052644380042347977e-02,-9.291875243347631763e-02,-1.957719726388983377e-03,3.674803376197814941e-01
3.237963003369609405e-01,3.533877481104628904e-02,5.863281786516706673e-02,-1.061903271209477945e-02,-1.406777994498505579e-03,-4.306032074520105800e-03,2.782640159130096436e-01
3.214945946725580872e-01,6.252059260265770135e-02,3.431997505788438041e-02,2.762516980134917689e-04,4.066429435856733828e-04,2.067616122856681844e-03,2.741889655590057373e-01
3.258884444821151249e-01,5.835960744594900773e-02,3.413450040521076589e-02,1.275632898041843214e-03,-5.178473887547036035e-05,-1.587066363208641589e-03,2.804494500160217285e-01
3.329689720509562134e-01,5.672406206322844202e-02,3.327987206231258765e-02,1.229483571181320522e-03,3.717748255661204766e-03,6.236154876683661910e-04,2.887635529041290283e-01
3.250572660752814591e-01,5.983032707385226023e-02,3.305202537068920032e-02,-2.171479249520760313e-05,3.605850256403427424e-03,1.592085227810244221e-03,2.796629071235656738e-01
3.139600760291441084e-01,2.969452927852585244e-02,5.858169159744124055e-02,-5.364362076123527744e-03,-2.190423938244433037e-03,-2.217159491978405294e-03,2.711922228336334229e-01
3.310416417340408257e-01,5.624675877386567380e-02,3.487436929377513151e-02,3.646997375327027833e-04,3.428061942192305554e-03,1.051004962726223742e-03,2.861485481262207031e-01
2.960421559215312137e-01,5.555260123249909643e-02,3.912161495433232050e-02,-4.768302828656945450e-04,1.063910057605337717e-02,9.039043872396271620e-03,2.502839267253875732e-01
5.220423500866697708e-01,5.868947001337726510e-02,8.126740279211899787e-02,1.709187053394298564e-02,-1.575996141997158817e-02,2.320775734932437571e-03,4.542926251888275146e-01
3.208836397452242695e-01,5.954815277798351791e-02,3.180473211085771412e-02,1.133612819163271572e-04,2.849933594258860677e-04,3.729889883052017697e-04,2.762552797794342041e-01
3.299958133533701377e-01,5.438026415427309190e-02,3.826832867478884015e-02,8.382323335065491529e-04,2.222559760685643201e-03,1.862636829362374329e-03,2.840625941753387451e-01
3.175620029489762963e-01,3.301925749237165364e-02,5.898622238978042109e-02,-2.676292353351934772e-03,-2.199447008598225204e-03,-2.633642126458673235e-03,2.725930213928222656e-01
3.160153879272303845e-01,3.064426213299502322e-02,5.884649048560607054e-02,-3.531510927587439876e-03,-1.587846178046683479e-03,-2.250457179518013280e-03,2.724777460098266602e-01
3.109941709531665599e-01,4.126669485932039916e-02,4.570524920003121716e-02,-4.515349481068882745e-03,-2.114768904455545124e-03,-7.099572614501778629e-03,2.679574787616729736e-01
2.316621943572032549e-01,5.091801104525738725e-02,4.081069207583470915e-02,-2.147200196778429465e-02,-3.946988097858646072e-02,-1.134903195467315551e-02,2.025848329067230225e-01
3.272697094039625498e-01,5.421431798137975322e-02,3.918832314952093443e-02,5.806383341603386884e-04,3.401255349597159978e-04,2.106206496937110609e-03,2.808960974216461182e-01
3.295586789414731710e-01,5.733276652195161416e-02,3.336320100771705821e-02,4.615492681845647337e-04,7.960361488586679794e-04,9.910939863257523744e-04,2.849773764610290527e-01
3.328999182877363516e-01,5.438843047082472792e-02,5.323240783005529775e-02,-1.776452752634479783e-04,-3.681613831130901762e-04,-1.646084929799974342e-04,2.790923416614532471e-01
3.301213333105389447e-01,4.710463752183184638e-02,4.891128778188633119e-02,-8.198934562509681365e-04,1.343435559741060171e-03,3.484718659557578839e-04,2.821315228939056396e-01
3.743724550787042027e-01,5.961151916684230556e-02,6.548834263652264509e-02,1.710540161033598239e-02,-7.072431435915299200e-03,4.152377944324360526e-03,3.135901093482971191e-01
3.173053987434950596e-01,5.276906484924696883e-02,4.363386276725564339e-02,-2.661351970891032560e-04,-9.665923133355711170e-05,6.498637240112589350e-03,2.694558501243591309e-01
2.913491444071447667e-01,4.547998100526655374e-02,5.151735862238984720e-02,-1.406119720341671457e-03,1.629925552455222144e-03,8.906119553631007893e-03,2.434246242046356201e-01
3.268858431458673275e-01,5.405759286144336262e-02,3.709146617546869862e-02,-1.507406978568032521e-04,1.048489624195876298e-03,1.482903085665569949e-03,2.817124426364898682e-01
3.300811429128346353e-01,4.829657553350966137e-02,4.401347381090084387e-02,3.455578797235622519e-04,1.646667820335031771e-03,3.283361308640058655e-03,2.840222418308258057e-01
3.321651683874352612e-01,4.777092438560549825e-02,4.342674072754754144e-02,-1.978173414222487224e-05,2.190382013836716056e-04,5.048337202468001312e-04,2.865926027297973633e-01
3.325814510042375827e-01,4.721540026916004607e-02,4.762127669287741227e-02,-1.883910038282223182e-04,-3.950382614062694143e-05,7.068240254109734496e-04,2.851661443710327148e-01
3.082818965948432854e-01,4.020409370816238614e-02,4.670648841772220838e-02,-3.185105930038922319e-03,-6.378762062647919248e-04,-7.911336146340111619e-03,2.653003334999084473e-01
3.332383285963711472e-01,5.144516290613829201e-02,4.618155925075734247e-02,7.678572718486629829e-04,8.318241690772737711e-04,5.862954815264787619e-04,2.844700515270233154e-01
3.320878283906665285e-01,4.811586985903627822e-02,4.238845367451510304e-02,-2.761137978570423466e-04,3.316924894164925979e-04,1.423776866497461100e-03,2.868901193141937256e-01
2.930059929727996670e-01,5.154617872937281020e-02,4.905958079360624169e-02,1.024917176467937674e-03,1.553045887508875712e-03,1.031050511131133274e-02,2.433901131153106689e-01
2.960172492801190769e-01,3.877166659573731688e-02,5.577812651895093510e-02,-1.017513028529799281e-02,-7.895815605128053607e-04,-8.750226834800018880e-03,2.502635419368743896e-01
3.226471184523658220e-01,5.256430979454908281e-02,3.403363229108000154e-02,-2.320576519251256985e-03,-1.224483216466963013e-03,-1.247339021341521952e-03,2.798539698123931885e-01
3.154785598977892791e-01,5.316672967809034367e-02,4.230949958453139592e-02,-5.311566598081620023e-03,-4.966720552560479132e-03,-9.394980323053813559e-03,2.686946094036102295e-01
3.226910743809241477e-01,4.609739502395970856e-02,3.586782995975579258e-02,-2.802689355779432959e-03,-2.995226313979813208e-03,-3.975126025860492400e-03,2.820213139057159424e-01
3.003160486899236203e-01,4.875498693891100466e-02,3.743387702844504228e-02,-8.853671551880597235e-03,-1.793990518219859900e-02,-1.092944685694265464e-02,2.604191303253173828e-01
3.289701979254439079e-01,4.434421125347652592e-02,4.395732983227684798e-02,-1.849026200660157035e-03,-3.118929763801433445e-03,-3.896324828031333225e-03,2.849687635898590088e-01
4.366164312550392390e-01,7.852768306083442174e-02,7.885261381748881471e-02,4.545272874316118317e-02,8.369423311585071079e-02,-9.799898721751436424e-04,3.941144645214080811e-01
3.377738353160543716e-01,5.326310812666956718e-02,5.396425937898453873e-02,-1.254524416123397159e-03,-1.561953711190432323e-03,-2.662733181581443918e-04,2.841823697090148926e-01
3.364423123116827563e-01,5.505488622583520897e-02,5.679057318639695040e-02,-2.267204694574072397e-03,5.138311470102318625e-04,-8.110476293362034461e-04,2.805560231208801270e-01
1.561901581110690107e-01,5.141483649634323583e-02,5.360234835998908126e-02,-3.048902474453971806e-02,6.374482147950663591e-02,4.338836476258284107e-03,1.605891734361648560e-01
3.372539867267931868e-01,5.360555222578526624e-02,5.105980130526609206e-02,-2.274132882917263496e-03,-7.589677099287736855e-04,-1.692919907876300591e-03,2.849751710891723633e-01
3.375178454189095012e-01,4.628668482008048424e-02,5.134493580055847495e-02,4.859073441446554219e-04,-1.451353737989522635e-03,-1.510414965736338409e-03,2.887592911720275879e-01
3.215318156357701573e-01,5.955902099620694057e-02,3.953794590320112989e-02,-6.796828196225509567e-04,1.777260853697874019e-03,-5.049403211520419286e-03,2.726956605911254883e-01
3.364350705473054814e-01,5.451679362633184145e-02,5.538419946675676719e-02,1.021240904171018087e-03,-1.695957753158892781e-03,-5.226253534652419708e-04,2.815079092979431152e-01
3.320980883425815877e-01,5.403614023593719673e-02,4.977741105851132830e-02,8.459766938102021268e-04,8.392087053246499555e-04,-6.713885228190081145e-04,2.802256047725677490e-01
3.322047997918260998e-01,6.176437836543402504e-02,4.600123378762827064e-02,3.148861436547032659e-03,1.411724206020577223e-04,-2.701298791446897583e-03,2.787493169307708740e-01
3.377381458368247102e-01,4.863068081722668468e-02,5.320646286678970549e-02,-1.119131421769483937e-04,-4.397002948475240629e-04,-1.225575205110996128e-03,2.868558764457702637e-01
3.303307359116054442e-01,5.589138082482036918e-02,3.750388283956379576e-02,8.804178823322647432e-04,-1.125667780137530377e-04,-7.888844072339397167e-04,2.840872108936309814e-01
3.347657333695688298e-01,5.741053017133819492e-02,5.889315493213603814e-02,-4.880616947277586939e-04,-7.720065182400840872e-04,4.724102928556947033e-04,2.766225934028625488e-01
2.686297210431184412e-01,7.293983453271013495e-02,4.755763983942674911e-02,-4.173644725517364402e-04,2.690317556547714827e-03,5.774724215381325148e-04,2.095926105976104736e-01
3.374988757839557096e-01,5.490433606043877701e-02,5.582652042562243067e-02,-1.051251506082888278e-03,-2.278309029867369492e-03,-1.204621388716375615e-03,2.821757495403289795e-01
3.338905606155622152e-01,6.025764665623618843e-02,3.804698672832292072e-02,2.458640217973485399e-03,2.489326744962117206e-03,-1.925659627897627043e-03,2.854710221290588379e-01
3.213656572219847352e-01,3.387191898096979237e-02,4.931680562044266081e-02,9.115565564756201392e-04,3.563060692172333719e-05,-9.187671769925538807e-04,2.800998389720916748e-01
3.328795452548725109e-01,6.119289913734476949e-02,6.233399998651256713e-02,-1.598212286425609256e-03,1.657183517923522490e-04,6.184040618947625597e-04,2.711342871189117432e-01
3.368705734509104266e-01,5.648717360608142279e-02,5.317485498243215702e-02,-1.857796154719218223e-03,-1.056065682179115842e-03,-5.651265764602770789e-04,2.820801436901092529e-01
3.367787358231184580e-01,4.554064650399962388e-02,4.800857710524354671e-02,9.384067419915894000e-04,1.441224147628688255e-04,-2.891033795346795252e-03,2.900598943233489990e-01
3.374453531820267305e-01,6.188548819498489173e-02,4.570475733399630147e-02,1.846019741685556896e-03,6.906710668644865971e-03,1.178205680362609444e-03,2.842732965946197510e-01
3.365673521992773587e-01,5.443053379308590567e-02,5.253485842909141890e-02,-1.624479938824316535e-03,-1.174266400447981831e-03,-6.539092012946786693e-05,2.831107378005981445e-01
3.304685391785500137e-01,6.029318097741867555e-02,3.365420393431645119e-02,1.664319333018404344e-03,4.295014230456598026e-03,-9.756449794994760877e-05,2.845439016819000244e-01
3.363103277128515201e-01,5.617386782771248421e-02,5.551408524240268594e-02,-1.700949114954580788e-03,8.619627139344646864e-04,-8.053261258410750623e-04,2.804898619651794434e-01
3.352419268678513697e-01,5.954937664708689904e-02,6.037463360049784289e-02,-1.345389995688010343e-03,-8.461206017922488559e-04,8.197216326875198140e-04,2.752982676029205322e-01
3.249157131797176801e-01,5.864928098896662889e-02,3.164883038209845290e-02,-2.049539877575018977e-05,1.781085855235321324e-03,6.889628058730505773e-04,2.807616293430328369e-01
3.397002881847733802e-01,6.030518609141787001e-02,4.620468714221799555e-02,2.239164254596374016e-03,6.072385438644438069e-03,-4.549553723591505091e-04,2.869256734848022461e-01
3.405086905401187858e-01,7.002381972649425468e-02,6.120291438415265128e-02,7.573421255431918775e-04,-1.501130569984875747e-03,-1.441218918074045792e-03,2.750281989574432373e-01
3.357124090849444853e-01,6.573830667483888945e-02,6.286034766345516278e-02,1.942071449119397129e-04,-1.393672900497867776e-03,-1.572304142868194117e-03,2.714491188526153564e-01
3.351298455809300636e-01,5.986254053753520266e-02,5.954807266884991346e-02,-1.985952399513766717e-03,-1.155533473598221008e-03,-3.477165827161965601e-04,2.754540741443634033e-01
3.337843292807499695e-01,4.648718027641832173e-02,4.998719708089760516e-02,7.748289155618131880e-04,6.130099432971187730e-04,1.278987618768184786e-03,2.855769395828247070e-01
3.333529528840264988e-01,5.275882168366352598e-02,4.287967074115275889e-02,1.150355063829559517e-03,1.147399214324097000e-03,1.015270983351279719e-03,2.856811285018920898e-01
1.718095285988775478e-01,7.406190657166136782e-02,7.244103578214314276e-02,2.851420883101858476e-03,-8.908612999182762351e-03,2.897636107301421529e-03,1.000166609883308411e-01
1.825177710145003962e-01,7.408674128019855643e-02,7.411602968785951928e-02,-9.094448300412988524e-04,-1.037302975152263815e-02,2.681663912616834029e-03,1.100043952465057373e-01
3.402190601930412117e-01,6.222459677993594229e-02,5.911501230528934392e-02,9.261632329376130214e-04,8.385153606382117486e-04,2.870280156637061621e-04,2.795710563659667969e-01
2.067208559681235625e-01,5.955485970519008854e-02,5.322701581510683178e-02,8.879884390443761738e-03,-1.967460207579646222e-02,1.099853164908831150e-02,1.561724841594696045e-01
3.331517214088559609e-01,5.351600420324115204e-02,4.034660236435126668e-02,1.133777484794158252e-03,1.159093184787301709e-03,2.048682616472406563e-03,2.864832878112792969e-01
3.337601971140067292e-01,5.846663921891324944e-02,5.347759797983203667e-02,7.167861187449249896e-04,7.577122572530783353e-04,2.475837459103707463e-04,2.778278887271881104e-01
3.286638953786203965e-01,3.469639848411554262e-02,5.978286888439517111e-02,-7.572297369366422637e-07,1.670956560218658706e-03,-1.012553801889495364e-03,2.822818756103515625e-01
1.927944523400699495e-01,7.424803993735415442e-02,5.485647640540450287e-02,4.650591144875568066e-03,-2.215338323570871168e-02,1.962246405959014190e-03,1.351918578147888184e-01
3.335124035217019722e-01,5.641082574588687781e-02,5.106256336228373605e-02,1.191606807074517028e-03,8.571855805884839733e-04,-2.759085319669143141e-04,2.798260152339935303e-01
3.252001383721299654e-01,3.273740418912893246e-02,6.003202133720059175e-02,8.570938644531649357e-04,4.352124687223598415e-05,-2.858717579086718992e-04,2.798200249671936035e-01
3.321228582273414998e-01,5.438263021123851404e-02,5.361422003504144607e-02,-9.963352718581528454e-04,4.779468949995460268e-04,3.664896075593625821e-04,2.781325280666351318e-01
3.357970460533173940e-01,5.667148421551380932e-02,4.488406889879759110e-02,2.115420879944950906e-03,3.754510518390409557e-03,1.175293074102370288e-03,2.853069305419921875e-01
1.856237681152372310e-01,5.771482136384357281e-02,7.290580461533804901e-02,1.075326178924500102e-02,-4.945482085343962976e-03,1.115390914570732472e-03,1.227697283029556274e-01
2.555174439750527715e-01,5.547899131919933891e-02,6.928671117319443185e-02,4.392228610126743676e-02,2.724500594176400628e-02,-1.609333898272972616e-03,2.132278233766555786e-01
2.529410345762199697e-01,6.123933578135757477e-02,5.131919214712310495e-02,9.355836482806086096e-03,2.129835953600062864e-02,-3.234488974617066945e-03,2.010087072849273682e-01
5.377857926975879721e-01,9.321723951315474821e-02,6.639945247998646494e-02,1.850250764803158809e-02,-1.822176515846454445e-02,-6.540227924675670254e-03,4.609058201313018799e-01
3.365806533467466943e-01,4.949543125900092433e-02,4.434692178048790789e-02,-8.885763463710153907e-04,-5.986593765276111619e-05,-1.008880585754204882e-03,2.897031605243682861e-01
2.191414983546622619e-01,6.790321566453995372e-02,6.347779816563231536e-02,1.511519316942256871e-02,6.283317474168273464e-02,2.203322335574259098e-03,1.900154948234558105e-01
3.506385650727898984e-01,6.331838461873390278e-02,6.200291551123233991e-02,-5.543863684964549926e-03,-4.253986076021078720e-03,9.365160512967205366e-04,2.882389724254608154e-01
4.341430340222867112e-01,7.147825114649535017e-02,6.627534858075172230e-02,-2.421540154860797947e-02,-8.528890989259094169e-02,-7.685808166078232466e-03,3.964829146862030029e-01
2.358330731107869116e-01,6.223758355020336808e-02,4.813732235994640229e-02,5.352282603655706891e-04,2.394914010894081194e-02,-5.326465724158305649e-04,1.857534646987915039e-01
2.457504784075361104e-01,7.883185096938183367e-02,7.197931725886556886e-02,2.986340301723007412e-05,2.197032465305707657e-02,2.741321558503920317e-03,1.747089922428131104e-01
3.398188724183643927e-01,6.071616103209620530e-02,4.684049120841779490e-02,2.387499850445191658e-03,6.145533743862104624e-03,3.134555559519306100e-05,2.865205109119415283e-01
1.823516188141683370e-01,6.897715371183914257e-02,5.877325069992706680e-02,5.117426164682142928e-04,2.348923415213202345e-02,2.496196771565623029e-03,1.256561279296875000e-01
4.839703195595932983e-01,7.168554767313972675e-02,7.510236211015419716e-02,-5.505903167440694135e-02,-5.056091471933848308e-02,-1.219335986423138868e-02,4.310353100299835205e-01
2.597201280801054724e-01,4.554361097140327552e-02,5.630417269466954366e-02,-1.294175275272876555e-02,-5.653900746018908005e-03,-8.861635576590648142e-03,2.109897285699844360e-01
5.617912703286419562e-01,7.643926018486615903e-02,7.341977971605045949e-02,3.137729811718108913e-02,4.433522841512115703e-02,-1.749683505092922142e-02,4.967998266220092773e-01
3.340088120213587919e-01,5.654315846885253627e-02,5.569896083866439362e-02,-5.697937329730012532e-03,-5.236977115459818220e-03,-1.260225323208560844e-03,2.782203853130340576e-01
3.341289121690961261e-01,6.052230899791730123e-02,6.064172618248030167e-02,1.302562692692154451e-03,-1.151437141125610710e-03,1.846180908072412566e-04,2.735636830329895020e-01
1.609387503851301970e-01,5.275674816743973483e-02,6.156693593215499527e-02,-7.657894755743643866e-02,-7.186059419496509644e-04,1.838678999568778717e-03,1.686195731163024902e-01
2.103240320307319111e-01,5.431185096986631405e-02,5.262485287026918285e-02,-8.589978172076387364e-02,-2.053013357292056765e-02,-4.748996862863958356e-03,2.192584723234176636e-01
2.822476861636302736e-01,6.879144173311173283e-02,4.829049831385580360e-02,4.971349485312736086e-03,4.731678827614375915e-02,-4.609052036714735186e-03,2.391953617334365845e-01
3.435947650871007952e-01,5.951478058954097483e-02,6.761497674825771298e-02,-1.288963399100907499e-04,2.477206693505915047e-03,8.404886671519417847e-04,2.801544666290283203e-01
2.286763300774548036e-01,6.198245024361111882e-02,5.608635747997676307e-02,-4.368655941542110011e-02,-3.508342703718698996e-02,-1.245236002525163498e-02,1.966919600963592529e-01
3.436942485228987598e-01,6.138332536951883467e-02,7.202222006638968332e-02,2.185506814681077627e-03,-2.774728616114583140e-03,-8.895005362890672906e-04,2.772164642810821533e-01
2.221307014921530265e-01,6.162449408198184680e-02,8.025288894676678442e-02,-4.128848593000771644e-02,-1.889537624874563278e-03,3.481890040073903902e-03,1.681683212518692017e-01
1.425849002057916204e-01,4.787296209369587552e-02,4.735207183139303333e-02,-3.783015996485349780e-02,-5.407441655260798730e-02,-7.819548643306148752e-03,1.492276191711425781e-01
1.081940616599256777e-01,4.036081739660904444e-02,4.566338500852308580e-02,-9.136511655997004919e-03,9.686518228883106776e-03,5.188780017504986651e-03,6.987459957599639893e-02
3.410163405873053444e-01,6.177238748052275852e-02,6.947808232054208943e-02,1.187756040005713033e-03,1.632805922106233794e-03,-5.283932542864297434e-04,2.754956781864166260e-01
1.601114094916495090e-01,6.953076808183697444e-02,6.827622136307517908e-02,-3.792097539498434557e-03,-2.618445847268043372e-02,-9.365317008225822540e-04,1.020916923880577087e-01
2.427549754382119507e-01,6.338057463602647656e-02,7.172384644606405457e-02,-2.066895742583078205e-02,-1.199576204979144189e-02,-8.802280708845578588e-03,1.808147430419921875e-01
3.648290313640263904e-01,5.763839274008980551e-02,4.935234318588641034e-02,1.179014623602959132e-02,-3.545635466346304387e-02,2.405448850230771773e-03,3.180974423885345459e-01
3.466048618495548572e-01,5.560640470921197898e-02,5.390591230678577761e-02,1.176444192339016863e-02,-4.803477637648485843e-02,1.340620915665480771e-03,3.041717410087585449e-01
1.048935964689165085e-01,6.560611294252213788e-02,6.544667261588134333e-02,-1.186422070714629289e-02,3.959325430753229610e-03,6.449700946129857670e-03,4.630226269364356995e-02
2.235755136376031404e-01,5.756352170811741831e-02,6.244109324315607473e-02,-1.389310428648946744e-02,-1.481875981444258882e-02,-5.047947425157777585e-03,1.675957143306732178e-01
1.754031754099368290e-01,7.152174111239076315e-02,6.984978133783747989e-02,-1.135534075314393286e-02,-2.220085142468037481e-02,2.686403784330879428e-05,1.132841557264328003e-01
1.573198684237876732e-01,5.141273124125568528e-02,6.544896423534432572e-02,-3.058906810347741118e-02,-3.209303895413907672e-03,4.011394711487997582e-03,1.131947264075279236e-01
1.829971185103497766e-01,6.468379330420345741e-02,6.002871200422425779e-02,2.426484127789732895e-02,4.843240282469720966e-04,3.550287074339192415e-03,1.279661506414413452e-01
3.374374539547513319e-01,5.458245641434006368e-02,4.329824576692507809e-02,-1.901984765543156220e-03,-2.328383486982297038e-02,-1.425461278780640328e-03,2.914951741695404053e-01
3.365293548630767240e-01,4.399418790029822890e-02,6.123668909808210881e-02,-7.331987111249003812e-03,-3.395366766751308635e-03,-5.911624951568265679e-04,2.846524119377136230e-01
1.904528190489215567e-01,7.801457588700194679e-02,7.631858919240078198e-02,2.492373732478010738e-04,-8.543346565349289033e-05,2.483664057235161933e-03,1.133783161640167236e-01
3.251354100962697280e-01,6.220971524407448161e-02,3.920188481864414487e-02,3.749254788082668176e-03,-2.195125593740352224e-02,-2.158396223590238860e-04,2.778426110744476318e-01
2.000630528888414084e-01,6.276744290389237035e-02,7.341955608326007632e-02,-2.044687365774127200e-02,-5.633382718882011140e-04,3.710416627527091289e-03,1.371041238307952881e-01
3.317441260738374642e-01,6.415458666852079384e-02,5.849077230386090509e-02,-5.492820468803615757e-04,1.526965531384497955e-03,-8.564245550086980151e-04,2.704845964908599854e-01
3.324121277644181971e-01,6.427792342654463364e-02,6.415165053970076081e-02,2.928013868361077943e-05,-9.963548404757784603e-04,-5.608123837813718589e-04,2.682046890258789062e-01
2.404064479209720995e-01,4.307686063894058948e-02,6.992012715769387043e-02,-2.057553930975131173e-02,-4.078525353774595935e-04,-5.719518027028288286e-03,1.890271157026290894e-01
3.296420947114120925e-01,5.008580583957401855e-02,4.083282836271399929e-02,1.153092445056233930e-04,-2.123218853755548692e-04,1.051026313252906731e-03,2.843018770217895508e-01
3.233796281577397957e-01,4.597171147292014592e-02,4.143422047476094661e-02,-2.130146577114504919e-03,4.615792284933688261e-03,3.887590090949882837e-03,2.799238264560699463e-01
3.304552464783607757e-01,6.122684020514723713e-02,6.253093306112514349e-02,-4.311286071928326037e-04,-1.743076388744788834e-04,5.609270434415553844e-04,2.685816884040832520e-01
2.035324658177964374e-01,6.062927983629615852e-02,6.569176573061591418e-02,-2.129686724645842022e-02,1.193154104683552888e-02,8.483122159479401098e-03,1.474013179540634155e-01
1.991884653061014032e-01,6.915544085064596891e-02,7.912820508356670224e-02,-2.052863477350032329e-02,-7.828271977404407120e-04,1.515144859043138009e-04,1.302974969148635864e-01
3.269401429108372836e-01,4.404017900333047353e-02,5.180080504329780122e-02,-1.604443888887371417e-04,4.933200044353239395e-03,7.594440852585839646e-03,2.795411348342895508e-01
3.368709242252850289e-01,4.711030951394225286e-02,6.109627460178743141e-02,6.067310948470218401e-03,-2.347582806831473832e-04,-1.397318626596422684e-04,2.832223474979400635e-01
3.370190093364200390e-01,5.438662077916607551e-02,5.812071272034337321e-02,-2.711451908502166322e-04,3.619796804378501084e-03,5.757680760692062121e-04,2.808561325073242188e-01
3.334935759212052098e-01,5.707482668014923766e-02,5.065606336765697548e-02,1.972924421188310389e-03,1.950648624721747345e-03,3.746335801152826097e-04,2.797254025936126709e-01
3.353490355195024586e-01,4.844293083623142648e-02,5.811048936809673493e-02,-8.170137607396415341e-03,1.333560093798184971e-02,2.896468169197877196e-03,2.835380434989929199e-01
3.302308797358157744e-01,4.776347400294814194e-02,6.369616962686079631e-02,1.758017059917516348e-02,-2.926568843847877043e-03,-8.185916544021375370e-04,2.765792906284332275e-01
3.516323843779223246e-01,5.562638372238007389e-02,5.662446618432795398e-02,3.400995125022877180e-02,-2.964501639500181918e-02,4.400812291281975576e-03,3.057608902454376221e-01
3.386794572797638958e-01,6.320944483323465146e-02,5.911827524168294934e-02,1.635651139095152182e-03,2.696308132290124225e-05,-7.422877231298522253e-04,2.775556445121765137e-01
3.312392195320517652e-01,5.182052036026162101e-02,4.622034565849797438e-02,5.633429245845214539e-03,-1.425020797542574016e-03,5.075089006662525208e-03,2.825765907764434814e-01
3.270920711422632410e-01,4.007646013260791895e-02,5.780195360457257570e-02,4.090053067483865571e-04,1.652489066380093304e-03,1.326083018449423882e-03,2.786011993885040283e-01
3.288564998889226820e-01,3.892740015598435133e-02,6.114636693297210990e-02,1.635300960341072932e-02,2.297814921954150630e-03,4.084492593830145110e-03,2.810316681861877441e-01
3.206019719957586833e-01,3.936133964415645947e-02,5.613017380217073804e-02,6.301289936931324907e-03,2.571382276071019113e-04,5.511109871776719536e-03,2.736271917819976807e-01
3.942519617718093228e-01,6.629393259244370507e-02,6.281610773436946404e-02,-5.354604350679584984e-03,-9.785761830782679221e-03,-5.344961329144060601e-03,3.304060399532318115e-01
3.312485755647221475e-01,5.194789418360989952e-02,5.344101220327225621e-02,-9.348688308242793232e-04,-4.219777306429662835e-05,1.077417439261870585e-03,2.785680890083312988e-01
3.337776363458401230e-01,4.124028024638147494e-02,5.540702407676832697e-02,7.529407996912010521e-03,-2.579067985424651375e-04,5.230549148807922717e-03,2.861588001251220703e-01
3.446878481080781764e-01,6.036022746139808881e-02,6.597399340030142556e-02,6.081564062590955879e-04,3.589143409495969186e-03,6.498495051540111554e-05,2.816333174705505371e-01
3.543479865631772863e-01,5.950159119009082453e-02,7.329908531269919980e-02,1.383136835257279661e-03,-1.406715343449164513e-03,1.304687189092464084e-04,2.882158160209655762e-01
3.375016734674270991e-01,5.909756968471455152e-02,6.360119106484579676e-02,-1.456102292458701054e-03,1.162035036121296773e-03,6.827385519279038873e-04,2.762012183666229248e-01
3.306527920423859568e-01,5.169369963530294487e-02,4.695123610206536346e-02,-1.899543204715305157e-04,-9.936305196718202368e-04,-5.338236824051656882e-04,2.813672721385955811e-01
3.332670285968077906e-01,6.168046856493765440e-02,6.429034833423805106e-02,4.192580102945621996e-06,-9.532259284675659685e-05,7.899848560121540408e-04,2.702945768833160400e-01
3.317094550976195655e-01,6.248034580113932812e-02,6.143534202806291700e-02,-4.215864411837091930e-04,-6.799692355081586505e-04,2.472426900410258947e-04,2.697570323944091797e-01
3.387292529368368665e-01,5.883737293430134352e-02,6.024987407855873778e-02,3.215217805594097647e-04,4.272100509848469571e-04,6.040260731804786244e-04,2.791917920112609863e-01
3.311804840605107048e-01,5.076806580543989644e-02,4.804508912988189606e-02,6.383537601371679776e-04,-3.568215385386345898e-04,2.029638246431413853e-04,2.817868292331695557e-01
3.370397773457772805e-01,5.896730778854830657e-02,5.478607425894865823e-02,1.886640309195799147e-03,2.824076523665449995e-03,1.626029430500279332e-04,2.802483737468719482e-01
3.296332489268969379e-01,5.655421672012345136e-02,4.489678481123779430e-02,-2.395639432184702711e-03,2.092968113496728247e-02,3.395435805670433179e-03,2.815269231796264648e-01
3.277380922948746056e-01,6.032974753687547764e-02,4.301824915455976228e-02,-3.405403963576139441e-03,-2.537987901636052160e-02,-3.504520862708121638e-03,2.800717651844024658e-01
3.317859128838834826e-01,6.271004263708997162e-02,6.186745480953555199e-02,-2.858459365781403040e-04,-4.115814593593935156e-04,4.245414897988784441e-04,2.695005536079406738e-01
3.339100889627962809e-01,5.867804757853252451e-02,5.876954943654638663e-02,-1.745106746878099906e-03,-9.008855396435533998e-04,1.031261166554919221e-04,2.752073705196380615e-01
3.398933528933891779e-01,6.012684234011110573e-02,4.659340450239550513e-02,3.928196979463160869e-03,-6.085721456670240351e-03,1.189098820593552938e-03,2.870545089244842529e-01
4.135763007478362452e-01,6.488358259037038667e-02,4.290035597992156169e-02,-2.286342134948194868e-02,-1.538325254730727246e-02,-9.606445209824055614e-03,3.637172877788543701e-01
4.971544510188782295e-01,8.501139114727054857e-02,7.150654072105938619e-02,4.930859383155444808e-02,-4.518138712487920067e-02,4.455246038357368009e-03,4.348423182964324951e-01
3.356307744696108708e-01,6.878326264766587705e-02,5.908293215839467705e-02,6.336324039067080683e-04,9.209993819842946005e-04,-1.416819863581839437e-03,2.718454897403717041e-01
3.463851079586614534e-01,6.099063541742592853e-02,6.636776775094040126e-02,2.438517076745960136e-04,6.509988776774844723e-04,3.535632550535580156e-04,2.827474772930145264e-01
3.441754700642308817e-01,5.842339730324017100e-02,6.376037446028602618e-02,1.414485788381307551e-03,-4.126757712679994874e-03,2.568072835075952635e-03,2.832570374011993408e-01
3.397689776104106385e-01,6.196652802874164090e-02,6.125359796648649491e-02,6.511217875113578307e-04,-4.795408686511086829e-03,1.005597258633665077e-04,2.782859206199645996e-01
3.463273282367690387e-01,6.072637530576228959e-02,6.666821193094352171e-02,1.313640375218832600e-03,3.080650301410881920e-04,-5.605639146299441896e-05,2.826865613460540771e-01
3.447182922181902809e-01,5.727954414501336411e-02,6.931385194368024083e-02,1.613610666321475123e-03,4.850013040642868652e-03,-1.940948843469463014e-04,2.817538380622863770e-01
3.266406333819092955e-01,3.167174034561473506e-02,6.080831962258095857e-02,1.321639012976481972e-03,1.525578326572926994e-03,-7.742823785717499550e-04,2.815585732460021973e-01
3.298338204215511271e-01,4.528072538033041383e-02,4.392226474902617694e-02,-7.786145727244754393e-04,-3.958469633196166123e-05,-1.260543858702351666e-03,2.852463126182556152e-01
3.462192206350613866e-01,6.347681187302198214e-02,5.467164026959238365e-02,-1.164867042645992452e-02,-1.740760957695776379e-02,-6.273106464801557133e-03,2.897319495677947998e-01
3.477430523157826192e-01,5.979410351599889761e-02,5.770281023573622936e-02,1.242742496872616641e-03,5.263605653166061578e-04,3.493809437174972068e-04,2.890103459358215332e-01
3.357719800963950840e-01,6.196912134762012914e-02,6.070199274890532293e-02,2.904227824885620424e-04,6.516706162625996801e-04,2.678575958970652875e-04,2.744417786598205566e-01
3.348898729701046406e-01,6.535692982462998346e-02,6.263902311102724496e-02,-2.274529437604899543e-04,3.056278579758884618e-04,3.423782550055725873e-05,2.709029316902160645e-01
3.307864542983660616e-01,4.601464106452973768e-02,4.862221250365299230e-02,7.779736979698875614e-04,1.594427410254700044e-03,1.718278664327019777e-03,2.835092842578887939e-01
3.326281785857929663e-01,6.170666289965874574e-02,6.037317696773461528e-02,2.841734673166762732e-04,-6.042660380152940422e-04,2.541999439459472759e-05,2.715931832790374756e-01
3.951211784025190354e-01,7.068947359682174747e-02,7.130357902436550155e-02,5.687464448582818174e-03,-4.402546178316831156e-04,-3.092385745048735826e-03,3.243198692798614502e-01
3.402423966849653647e-01,6.734535443375877506e-02,6.455969831813349047e-02,1.451947385487589205e-03,-3.077152156136432224e-04,-4.358802635830380696e-03,2.744163870811462402e-01
3.361528896843760661e-01,6.768178733060577212e-02,5.996894797157344137e-02,2.663499827394642978e-03,2.173680451051604370e-03,-1.521599686394948256e-03,2.724872529506683350e-01
3.412709525219969064e-01,6.220610621794200878e-02,7.059807477069161841e-02,2.567190176383795167e-03,-2.737812054630843310e-04,-1.201878107088662131e-03,2.750091552734375000e-01
3.320428541580315307e-01,6.068100862691230835e-02,6.441300178482656236e-02,-7.332199718907481253e-04,-4.180338097912152042e-05,-2.725153280878949346e-04,2.695186436176300049e-01
3.337198540777907008e-01,6.162100736433127890e-02,5.778941311142145321e-02,1.197673625458966747e-03,3.244637584488118797e-04,-5.304895703139006881e-04,2.740446925163269043e-01
3.364516284300357318e-01,6.104391259245567358e-02,5.887265282152746859e-02,2.679174471489095908e-03,1.133016884115422510e-03,-5.064628976879475804e-04,2.765470445156097412e-01
3.321881618991644469e-01,6.439414908192053755e-02,6.208375187558103081e-02,-8.807997621834948469e-04,8.605303199658758187e-04,-6.520821373425020719e-04,2.689674794673919678e-01
3.345308172849021378e-01,5.653850970903968876e-02,5.649551649511236340e-02,1.112063566351264004e-03,5.081599452907708013e-05,-5.484461688307070782e-04,2.780221104621887207e-01
3.385169439586532270e-01,6.503873653454193826e-02,6.139440507321089480e-02,1.427413565696821623e-03,1.711617258690055618e-03,2.086707290717680651e-04,2.753457725048065186e-01
3.327528032884402576e-01,6.122697505868468504e-02,6.003615147129041929e-02,-2.587367216877898483e-04,-1.084396211717454932e-04,4.362445201825473386e-04,2.721246778964996338e-01
3.890614503127361457e-01,6.509265709218160778e-02,5.795383727418146336e-02,-8.766853274774653870e-02,-7.889584111302323788e-02,-3.349720141631030729e-03,3.861141502857208252e-01
3.521065051701943172e-01,6.609480614544700761e-02,6.386065592871460750e-02,-2.404222600488233486e-03,-9.980204526839262218e-04,2.724779575555002619e-03,2.872094810009002686e-01
3.346374023285365595e-01,5.401271487649933478e-02,5.700061526190880468e-02,1.471650841027671679e-03,-1.508213705659895102e-03,9.562352888803340913e-04,2.791714966297149658e-01
3.376532195661430258e-01,4.967743036882399377e-02,5.529412726433936831e-02,-5.267882264080244424e-03,1.007952290042041709e-03,-5.900516966314676461e-04,2.853620052337646484e-01
3.464559154930473839e-01,6.373738124931657700e-02,6.850820096315995977e-02,-3.475301211590413244e-04,-4.383102749504846581e-04,2.820709484710095215e-03,2.804078161716461182e-01
3.311113217948186693e-01,6.070464627323712836e-02,6.373282952968860327e-02,-1.083053186204046376e-03,-5.277116361430778200e-04,6.867325650045107447e-04,2.689161002635955811e-01
3.321448913548166182e-01,6.232218222604855862e-02,6.230152790719298284e-02,-5.000816220109992240e-04,-8.470136269852762819e-04,1.470837264073944419e-04,2.698385417461395264e-01
3.423379498392808973e-01,5.450446332558379903e-02,5.967228462141546674e-02,-2.077172097673149823e-02,-2.753673014722205284e-02,-6.999839665533752128e-03,2.917251288890838623e-01
3.356555331726135960e-01,5.463439154015004018e-02,5.492698041242072282e-02,-5.202138156872081545e-04,-2.438302192139347232e-03,-1.482364827544049033e-03,2.809198796749114990e-01
3.452430292692011959e-01,6.841683764950583224e-02,6.066841654426369246e-02,1.694057964650549442e-03,1.781685762354413838e-03,2.602302851144778920e-04,2.808132469654083252e-01
3.451482684489735053e-01,5.822420789404794683e-02,7.565443944414923516e-02,1.020775007792062349e-04,-1.216862139896435560e-03,-1.456984929123620904e-04,2.786262929439544678e-01
3.599054773461481949e-01,4.601162867755075048e-02,6.315214163238684619e-02,-1.904203291807503653e-02,-2.999422490820304391e-03,-3.893559112921101610e-04,3.075029850006103516e-01
3.386034526849664994e-01,6.484087566593176033e-02,6.480524506173875043e-02,1.175080821211999882e-03,4.410564482015541586e-04,4.472247250609086809e-03,2.738985717296600342e-01
3.334033615378747539e-01,6.067691986782255964e-02,6.647405648975480974e-02,-5.776986997769635590e-04,-1.198659453008919362e-03,1.333537837435530083e-03,2.698943018913269043e-01
3.316132109351203616e-01,5.314962622336889819e-02,5.297713781352661466e-02,-8.205981783339416549e-04,-5.241029813595348991e-04,3.029210382214301395e-04,2.785554826259613037e-01
3.449899957211490786e-01,6.678628661354253648e-02,6.137158315553800647e-02,2.180546437529567918e-03,1.280032227724384230e-03,1.159065932947176466e-03,2.809914946556091309e-01
3.389141443169841894e-01,6.485432670117029230e-02,6.101823866834603372e-02,1.323351634121889989e-05,-5.126110147154713022e-04,-3.757672056822654384e-06,2.759992778301239014e-01
3.803417764465377715e-01,5.625781133532599398e-02,6.584893741980303583e-02,-1.252702872675202049e-02,-7.700237289861870150e-03,-5.649987234745813477e-03,3.205596804618835449e-01
5.189206036764637542e-01,7.608825155369977611e-02,9.858296949790393282e-02,-6.851054933773809141e-02,8.879443884743886545e-03,-7.963412449125529743e-03,4.485008120536804199e-01
3.356052134269184584e-01,4.664482686871478101e-02,5.808890996609836210e-02,-1.552050319880732276e-02,8.638929679122938276e-04,1.704289132141362847e-03,2.847029864788055420e-01
3.329381737591692314e-01,4.143606222099160963e-02,6.320509454162971663e-02,-1.997445553593706416e-02,-1.669234865015744055e-04,2.125916317309573846e-03,2.833941280841827393e-01
3.392009111141758293e-01,5.797064617951570853e-02,6.028821188474743631e-02,-5.356221482693551564e-04,-4.266210474431152665e-03,7.849225774931500518e-04,2.801809608936309814e-01
3.354919723661297648e-01,4.240706527141099857e-02,5.736737471244574005e-02,-1.610269561505341248e-03,4.003821431118211732e-03,1.804987185316457793e-03,2.860132455825805664e-01
3.349430577622500849e-01,4.057867314040322637e-02,6.070531980292746821e-02,-9.143307507145585333e-04,2.483554062950189996e-03,-5.568953372828693450e-04,2.848733961582183838e-01
3.653326607493336819e-01,6.115260412715903260e-02,6.278682496716347927e-02,-1.135262829888209618e-02,7.830155774746945518e-03,1.652645109124084447e-03,3.043186664581298828e-01
3.388327050217646574e-01,5.184348884698428139e-02,5.986039058178480032e-02,-1.968212037338946951e-02,2.148940380420677823e-03,4.172293542109928657e-04,2.851365506649017334e-01
3.432789469739574439e-01,6.021367464344108689e-02,7.579199087465324225e-02,1.786318204638964529e-04,-5.627999433964336754e-04,-8.022082353231732750e-04,2.756119072437286377e-01
3.230806506604251283e-01,4.009942503566336913e-02,4.836106179784468995e-02,-1.934451611757214340e-03,1.591141592419518950e-03,4.041574630808435903e-03,2.790637314319610596e-01
4.999858585377754405e-01,8.617746953833091417e-02,6.884649414858989847e-02,-9.563679666155861653e-03,-4.176016198741079599e-02,-1.118592745513093296e-02,4.296405017375946045e-01
3.834118420038684083e-01,5.810870978601474779e-02,5.287497513656810866e-02,2.829373599724907540e-02,-1.220631504621535329e-02,1.307661753068488884e-02,3.330370187759399414e-01
3.318589827145767002e-01,4.546293202883042173e-02,4.474946683888469945e-02,-3.623333888280743948e-04,1.001352311289566447e-03,9.098847737511812006e-04,2.867636978626251221e-01
3.292571210313582908e-01,4.575729406107187369e-02,4.876218817642634373e-02,-1.258158838701410077e-03,1.064974607452296579e-03,4.798076936322716486e-03,2.821462452411651611e-01
3.286941490602445226e-01,4.350513532134951677e-02,4.703173370431219802e-02,-4.035122158975893250e-04,6.461278515670970321e-04,6.552131539108501865e-04,2.834475040435791016e-01
3.342401065960491913e-01,6.517767439982195821e-02,6.272165960041234389e-02,-6.489995828683100794e-04,-1.256707303033856608e-03,1.727087910181149613e-03,2.703264653682708740e-01
3.470937010317635685e-01,6.393355198353127544e-02,6.560989097022264238e-02,1.713549052421026045e-04,-8.712397390619856536e-04,1.248309988671056662e-03,2.823381721973419189e-01
3.430168285114547633e-01,6.201626610037974663e-02,5.770770314658445199e-02,3.527717996882786915e-03,9.936446582924340562e-03,-2.479419436148775149e-03,2.838002145290374756e-01
3.379787583205859924e-01,7.010801756442035237e-02,6.215227601821969594e-02,-4.480847496398772606e-04,-9.956556172826273778e-04,2.623193663251520771e-03,2.719804346561431885e-01
3.322657934134123359e-01,5.346317082806802123e-02,4.886823115417045227e-02,-9.624448482272830252e-04,-2.050576409337346705e-03,-3.136056864123914264e-03,2.812080979347229004e-01
5.063827031454611882e-01,6.149467806183409047e-02,6.829426009587127866e-02,2.800026337680136188e-02,-2.859709016875231977e-02,-1.538798361953196657e-02,4.477302134037017822e-01
3.325005110812256914e-01,6.354174374359844446e-02,6.364589569175607697e-02,3.529910581884949656e-04,3.354739400755940072e-04,-4.433902135403752645e-04,2.689091265201568604e-01
3.761602641054130891e-01,6.255300298421108407e-02,6.780575151684338497e-02,7.384508962608686902e-03,-1.143465715562267185e-03,2.444039306190064036e-03,3.113121390342712402e-01
3.327278346462498870e-01,5.708041779950925876e-02,4.970959830343806007e-02,2.123208999685030629e-03,-1.814762404457302214e-03,2.748426279401860149e-03,2.794881761074066162e-01
3.474263198750425774e-01,7.236692772686054154e-02,6.190867435114755235e-02,3.753607337866389656e-04,2.025619565654100153e-03,4.389764076854985042e-03,2.805605530738830566e-01
3.378851450349168450e-01,6.007991934755620156e-02,6.625828173126804832e-02,1.921600817968741818e-04,-1.815122458028222514e-03,-7.158675143366154212e-04,2.747891247272491455e-01
3.381447460887698764e-01,6.041001093573612757e-02,6.632336069808821011e-02,-1.146568829278887250e-03,2.158194883595546880e-04,2.970217077654693262e-03,2.748813629150390625e-01
2.671942586843181755e-01,6.308858072023616759e-02,4.534083174442225805e-02,-7.744990369978629972e-04,2.878877836380870549e-03,2.524373845411867576e-03,2.136406004428863525e-01
3.389562245442857558e-01,4.612693448585117317e-02,5.880301147834840481e-02,9.776373705122263190e-04,1.581876377297918241e-03,4.708119943123786644e-05,2.867195904254913330e-01
3.971290950648158069e-01,6.966492051259585983e-02,6.491548373914640679e-02,3.537188567309096105e-03,-2.937715931889426767e-03,1.023052462920952862e-03,3.299654126167297363e-01
3.343948675043756369e-01,6.290285049710094001e-02,6.591958173656418951e-02,1.689705957824139343e-03,1.290641522271329135e-04,-7.435245930404423475e-04,2.700153291225433350e-01
3.327165611257928424e-01,6.496606017832175228e-02,6.478733925754623368e-02,1.093839668643562503e-05,-2.982630525277235448e-04,-7.773113561677562431e-04,2.678437829017639160e-01
3.900047294633709472e-01,5.379388722755495955e-02,1.964163910761024257e-02,1.069040849584875115e-02,-1.814617296942728011e-02,-3.382108620263170676e-03,3.564428091049194336e-01
3.362485332761442347e-01,6.545982505425140818e-02,6.302420225079240212e-02,8.465448215979874159e-04,2.653040640561075384e-04,-1.435292978260340911e-03,2.720303833484649658e-01
3.348091262037428129e-01,6.234077701707507746e-02,6.211240356455455247e-02,-1.740180460466871038e-03,2.267143035949291396e-03,-5.076524525919526689e-04,2.726289629936218262e-01
3.580319700249000592e-01,5.938931874109817932e-02,7.191599364528176996e-02,4.870534881243032688e-03,2.968865065544267282e-03,-8.051145697414645135e-04,2.927505970001220703e-01
3.031434301697372713e-01,4.532056375773105272e-02,5.485731193380642690e-02,-2.832827778057604023e-02,-1.529063666882279904e-02,-8.186249758008346672e-03,2.596434354782104492e-01
3.446874776167260235e-01,5.821981174633927836e-02,7.333812740487513637e-02,8.460911900048359623e-04,1.826491492257524205e-05,-2.235366588101654747e-04,2.792197763919830322e-01
3.432510162428420997e-01,6.185411048628754183e-02,6.233158452637559133e-02,9.490188635709222772e-04,9.776297995794954940e-03,-2.954480650315802290e-03,2.817191779613494873e-01
3.313123777817201798e-01,6.395617199629340111e-02,6.303462357709811725e-02,-1.538194010204797617e-04,-1.335055118451120200e-04,1.406550681528479603e-03,2.678294777870178223e-01
5.295173008699003425e-01,5.959534743434496962e-02,8.785482621096429856e-02,1.269863412784120495e-02,2.548542268457940768e-02,9.036064975855264553e-03,4.593721032142639160e-01
3.832863145890951229e-01,6.674197582337070001e-02,6.648677371854377904e-02,1.475154688364190871e-02,-8.692879642424801434e-03,5.258830582964804830e-03,3.181880712509155273e-01
3.287488016244048961e-01,4.329977993052436247e-02,4.660691350199409888e-02,-1.128166942210163514e-03,-8.864754068493245877e-04,-3.677077357498563254e-04,2.838214933872222900e-01
3.638229834457047396e-01,5.845660986091752442e-02,6.108260470055837388e-02,6.334634450055341530e-03,-9.027251823861257018e-03,1.073574199049302531e-03,3.046669363975524902e-01
3.311567616226257504e-01,6.233240215790968042e-02,6.208236271547731833e-02,-4.242492899059224797e-04,-7.464017905917422983e-05,3.154572352398877350e-04,2.689510583877563477e-01
3.314172525209525544e-01,5.685330645392204507e-02,5.696520755931742952e-02,7.037800445224592742e-04,2.813596433456957958e-04,2.424508416342264073e-04,2.745114862918853760e-01
3.486646703503386568e-01,5.976145381602517015e-02,5.844540867912163817e-02,8.682624471566509697e-04,-1.788313730852865999e-03,2.848886165566858093e-03,2.896260023117065430e-01
3.456768641835302192e-01,6.166870874160113036e-02,5.553234411016616523e-02,2.641792524005850008e-03,1.965594994966527657e-04,-7.410564798532348662e-04,2.871650457382202148e-01
3.388234442186064954e-01,6.044552604927988515e-02,6.137945607370318135e-02,2.168159508526949514e-03,1.900229581479347227e-04,5.406643288206450281e-04,2.779392600059509277e-01
2.921298871484338533e-01,4.415611628091299645e-02,4.863152973488231445e-02,-1.179944563278288640e-03,-8.081475312632634481e-03,-9.609645362568751056e-03,2.467354387044906616e-01
3.665683030305767476e-01,6.277327068105154062e-02,5.703800350144808129e-02,1.482882924865806373e-03,-1.977882441983490683e-02,2.052639969537777952e-03,3.086413741111755371e-01
3.908009427509099853e-01,6.453464458851508601e-02,6.923381897115990502e-02,1.391022630514345167e-03,-3.396995997495967645e-03,-6.356185457023192818e-04,3.240065276622772217e-01
3.492090009817254148e-01,6.989227545563198030e-02,5.172595054434034334e-02,2.773020308038660897e-02,-2.998442299147801790e-02,7.058826966381512823e-03,2.976164817810058594e-01
3.238498602432784423e-01,4.554521387876114824e-02,4.033745906482770482e-02,-3.170502997605547518e-02,-5.245019836444841238e-02,-1.142916485932156737e-02,3.009825944900512695e-01
3.310018199498776514e-01,6.209033178743435244e-02,6.281491377233502926e-02,6.426138136733010407e-05,6.965786717327505570e-05,7.901239345343098524e-04,2.685534656047821045e-01
3.287348784487512665e-01,4.372735025113205776e-02,4.604921555088244134e-02,-1.023468748867430991e-03,-1.054689961512421262e-03,-5.664345297639826731e-04,2.838668227195739746e-01
3.533436592329161074e-01,5.762854676724844805e-02,6.171171467449930448e-02,1.400508107688998478e-02,1.936458882562245567e-03,4.910886761738083358e-04,2.947151958942413330e-01
3.361960984768771477e-01,5.706144330434065326e-02,4.633148824018754053e-02,1.080462961939690524e-04,-3.722813385080697094e-03,-1.142588760388344457e-03,2.847312986850738525e-01
3.290160752862490989e-01,4.225542153354865105e-02,5.302129965614774121e-02,-3.149831691524375161e-03,-1.536003470334062473e-03,-1.437464950189718850e-03,2.816085815429687500e-01
3.321972581779036870e-01,5.726511616276581951e-02,5.088362127451359629e-02,1.009328788596061850e-02,-7.484918338904547781e-03,4.947363522879403598e-03,2.791594564914703369e-01
3.502351029206429711e-01,5.889412491320988874e-02,5.085454554572982344e-02,1.116081074599712883e-02,-2.250914004409237945e-02,8.008020571613512842e-03,2.989523708820343018e-01
2.161964301359055596e-01,7.492850386473101643e-02,5.526195269988093406e-02,-3.421417700522002441e-04,-4.548816660660705627e-03,1.616956543030183659e-03,1.522889435291290283e-01
3.076424001025656052e-01,4.824923252689286568e-02,4.336102520543536065e-02,2.004671728403845457e-02,-2.518986986443547474e-02,9.861732690806868096e-03,2.682864964008331299e-01
3.341738762406182839e-01,5.514896215610678998e-02,5.944817934018267747e-02,3.505864952645317261e-03,1.279196060458194463e-03,4.680361655152731073e-04,2.769769728183746338e-01
3.952437219800274404e-01,4.401465037573136507e-02,5.351470559278333206e-02,-1.600154985366235988e-02,-4.885418163350687022e-03,-1.248469358920059266e-02,3.484576940536499023e-01
3.538435284160865724e-01,6.160814452214291581e-02,6.819925600405950250e-02,-3.038994929795124297e-03,-1.435728885082685272e-02,-3.570850345795610441e-03,2.901778221130371094e-01
2.637211581316423747e-01,5.472353437250147834e-02,5.718668090472837917e-02,-2.249121403955466926e-03,-2.395060703360066441e-03,-7.976782108038461827e-03,2.083135992288589478e-01
3.349365352724905653e-01,4.796342608093913384e-02,5.345798133219720194e-02,7.743814721712148283e-03,-3.588168272374409572e-03,4.872344971458946079e-03,2.847748398780822754e-01
3.366576248677988215e-01,6.161336858999252875e-02,4.579211260879675893e-02,1.127280482540193168e-03,-8.046331542002510898e-03,-1.501199096250865938e-03,2.836476862430572510e-01
2.988950472594477104e-01,6.514392603349818123e-02,3.611124336190436879e-02,8.223416992127209266e-03,-1.523819941132604182e-02,5.294370615674131100e-03,2.515004575252532959e-01
3.356139562722552094e-01,5.652859435535138866e-02,5.796669686308535130e-02,7.754384812160740803e-04,-2.096661485193379495e-03,7.991265167068818632e-04,2.783994674682617188e-01
3.374439849896292976e-01,5.923997806275782541e-02,5.407248315396223637e-02,5.543795115001583630e-05,1.160408642780812877e-03,2.891720560847686945e-04,2.808310687541961670e-01
3.169240756848514806e-01,5.294897093938757959e-02,4.444344779224727870e-02,2.330239086806331337e-04,-3.712115937730221587e-04,4.715647857762780837e-03,2.684543430805206299e-01
3.144074853878390252e-01,5.777358223293416195e-02,3.225983323676064052e-02,5.585654578352681511e-03,-3.633461841491086169e-03,1.193230873257249700e-03,2.705495953559875488e-01
3.448398783886369445e-01,6.506024723600516146e-02,6.376105271522972129e-02,5.647241322507777321e-03,2.625404155610227414e-03,3.236817153679627090e-03,2.806948423385620117e-01
4.162583904695097425e-01,7.617550392710993601e-02,5.664174489297280068e-02,3.483629594743584135e-02,6.572126404413722311e-02,8.303997096596739749e-03,3.734788596630096436e-01
3.487704519803513925e-01,6.190587281177600820e-02,7.160152564364641314e-02,-3.557961268321157937e-04,1.310325874354784526e-03,-1.103098200661563376e-03,2.821579873561859131e-01
3.358408712258751372e-01,5.991313663401215406e-02,6.555030214676427214e-02,-2.696631111880611485e-05,-5.375731254008250977e-04,-5.808952609429460711e-04,2.731562256813049316e-01
3.444625554173283977e-01,5.284388672917957053e-02,5.538401768249893997e-02,3.565141073860210452e-02,-1.348554765252662872e-02,8.319195753458892215e-03,2.981164753437042236e-01
3.521348662657055595e-01,5.909692056074943023e-02,7.197656323626236419e-02,1.979945955099414370e-03,2.445150042905927176e-03,-3.305869497429004904e-04,2.868674397468566895e-01
4.206654385263549623e-01,6.816962390985865927e-02,5.560235011227832036e-02,-2.481310703233930923e-02,-7.590697259307410683e-02,-2.333913080631439853e-03,3.846949040889739990e-01
3.340077520749338280e-01,5.674377731079541243e-02,5.940169879605584902e-02,4.705074180583859234e-04,-9.184796756691806932e-04,3.769985577778433607e-04,2.759511768817901611e-01
3.544721217718689865e-01,6.031984710799598304e-02,7.335441686483733237e-02,3.978055185179675719e-03,-1.276677697206658009e-03,1.147552234024557227e-04,2.879474163055419922e-01
4.480022285071605381e-01,6.334499418759073630e-02,4.504387054643330113e-02,1.665525459344532628e-03,-3.936694052543984051e-02,1.073777616926454258e-02,4.004238545894622803e-01
3.234938647661792510e-01,3.794391924474635469e-02,5.071097040426217339e-02,-2.025461677440444988e-03,-2.293312960552519077e-03,-1.647249331198073676e-03,2.794501185417175293e-01
3.258969171597352332e-01,4.362556630484756837e-02,4.145708152272457869e-02,-5.483765105993074597e-04,-1.048087341046029805e-03,-1.665379040570248801e-03,2.833839058876037598e-01
3.285295594878252512e-01,4.335220867533297329e-02,4.177203923459514578e-02,-3.830952840870703461e-04,2.151036159332219506e-04,-7.167232573740250348e-04,2.859744131565093994e-01
3.279809683795702480e-01,4.321151966713368542e-02,4.190709105082079944e-02,-3.152505074323852193e-04,-1.586963679523038795e-04,-4.409313465000858773e-04,2.854255735874176025e-01
3.267331643921416728e-01,3.860703997473505233e-02,4.687978324567747268e-02,-5.321485048794464927e-04,-1.602791968899318744e-03,-1.699136693373937655e-03,2.841103971004486084e-01
3.373613454596078309e-01,5.805817694754628056e-02,4.512520803098918343e-02,8.905780954183893053e-05,-7.834055806854194060e-03,-2.120295637941947437e-03,2.863343656063079834e-01
3.346006246270845641e-01,5.636569456459931959e-02,5.721576954763342437e-02,9.376235466616849451e-03,6.867543076015425116e-03,-9.846210714740293631e-04,2.785444557666778564e-01
3.328568225479997533e-01,5.501177248907307415e-02,4.977525114456304856e-02,-5.361629051154369937e-04,-2.028836080705882089e-03,-5.278243983300879693e-04,2.805249989032745361e-01
3.288513127811728554e-01,4.330078747576575349e-02,4.416059134256813956e-02,3.571310527244900366e-04,-1.269723976851801597e-04,-4.829399797965335580e-04,2.851235866546630859e-01
3.297530645745739286e-01,4.391664272069249753e-02,4.387783154508928529e-02,-5.119131689723500174e-04,-2.819095453022827128e-04,1.111574011370277624e-04,2.858576774597167969e-01
3.295077974852618219e-01,4.613390413804147050e-02,4.431947685973947060e-02,2.081679636719255570e-04,-2.599046840250995665e-04,2.893034698149574708e-05,2.842860519886016846e-01
2.758930768571360437e-01,5.927788285708787686e-02,4.609724391869428339e-02,-1.721660072292529806e-02,-2.070068689078946589e-02,-1.038812453318953104e-02,2.290186136960983276e-01
3.376206545989078323e-01,6.078806734997702077e-02,3.607918483597567783e-02,-1.683076281141253436e-03,-1.504503164725967679e-02,-3.459939163681632467e-03,2.912224233150482178e-01
3.389344091214745447e-01,5.549889406491330390e-02,4.257501161741827911e-02,8.587580296406642109e-04,-8.770343710532984768e-03,-1.432044001182467908e-03,2.905252575874328613e-01
3.303451866982320961e-01,5.346549950938857265e-02,4.243884339274743567e-02,-5.987335112075568106e-04,-2.428582295984694963e-03,-1.658280053668776278e-03,2.826022505760192871e-01
2.722884877336101406e-01,4.743139254599242072e-02,5.632219543173837273e-02,-9.210438456129685716e-03,-1.752051641764246692e-03,-9.293783761939840987e-03,2.217282801866531372e-01
3.283371446789751236e-01,3.430234652120195404e-02,6.232553058312696737e-02,-7.144124146231970070e-03,-1.525172679269467049e-03,-1.065722524180036466e-03,2.813636064529418945e-01
3.248831225725737903e-01,3.677024204710969968e-02,5.299900551921252201e-02,-1.275441791007302832e-03,-3.331815127881995915e-03,-2.578896133803033983e-03,2.804546654224395752e-01
3.108076063433877212e-01,4.420456609660922132e-02,4.111088429378405296e-02,-2.703222038230272163e-03,-4.048221233934222972e-03,-6.816215133237710395e-03,2.685554027557373047e-01
3.230671158440200363e-01,4.224985320443085113e-02,4.232084208339277620e-02,-3.718308262916722711e-03,-1.702245000311909586e-03,-3.387939757908556195e-03,2.809323966503143311e-01
3.274718767830246957e-01,4.841000389707708629e-02,4.252412298511216993e-02,-1.643484049159522334e-03,-7.895143622617575418e-04,-2.813501583430317449e-03,2.821106612682342529e-01
3.386187128321690998e-01,5.256020726418114686e-02,4.619079959694720461e-02,3.239768121387619649e-04,-5.828559098325259043e-03,-1.024228743493307793e-03,2.894778847694396973e-01
2.173247078754850237e-01,4.820331488232944273e-02,5.260683805365658910e-02,-3.815093720157316376e-02,-8.413884731126979044e-02,-3.313680929741949065e-03,2.313312888145446777e-01
2.807284183588347748e-01,5.895372249185723557e-02,4.548258597940399439e-02,-2.190866263808267933e-02,-4.146259182478987532e-02,-1.353335541546991927e-02,2.439260333776473999e-01
2.356189499987406122e-01,6.153067696080272153e-02,6.640352943636021466e-02,-3.493548858537728202e-02,-3.776629758613443688e-02,-8.225460626654263613e-03,1.939729005098342896e-01
2.630890044806053485e-01,4.275863157023740424e-02,4.547624754817984616e-02,-2.961238181236345440e-02,-2.568818915656684992e-02,-1.267947481330907594e-02,2.303187400102615356e-01
3.070712097152714648e-01,6.011716317592373515e-02,2.921422079570358543e-02,-7.342614084240777026e-04,-3.194115230367614282e-03,-3.036872378944185415e-03,2.638802528381347656e-01
2.757122879310827113e-01,5.360102451738356366e-02,5.007993971564471403e-02,-4.799809185247173177e-02,-1.735820539075350402e-02,-1.361792847274456535e-02,2.418669015169143677e-01
1.629586210252547962e-01,3.748369548042251864e-02,4.751503026584104339e-02,-3.104425007858452323e-02,-6.527330461143027174e-02,3.626806991993334478e-03,1.740643978118896484e-01
3.455857323185413943e-01,6.339277679463213577e-02,5.897564549576005122e-02,-2.438608186380992440e-04,4.556443480659851629e-04,3.529768379763847507e-04,2.844293117523193359e-01
3.353385845057805792e-01,4.691540712834162130e-02,5.668849249260268786e-02,3.203103573341230942e-03,1.625505665990243168e-03,1.314211145000671217e-03,2.837402820587158203e-01
3.545032048798438806e-01,7.121444670423729417e-02,5.883118981407346737e-02,-3.029527186318033225e-03,1.461091843399910757e-03,-1.346088833240425718e-03,2.897469103336334229e-01
3.352925297378968050e-01,6.078577295297511729e-02,5.972397799479095548e-02,-1.722971081370527511e-03,-7.333222763058561350e-04,2.688669809654470398e-04,2.750587165355682373e-01
3.760232968342522852e-01,7.030302359410578461e-02,6.757215350684023236e-02,4.092014622821658551e-03,1.025624388646283929e-03,-1.539956466860359060e-03,3.071933090686798096e-01
3.347323380071146048e-01,5.985656346688413010e-02,6.426608872415998097e-02,1.587038881617792584e-05,1.271614269952413192e-03,-7.875881659804100619e-04,2.727100551128387451e-01
3.362711215454547986e-01,6.681968650224576201e-02,6.186626256913557720e-02,9.979227532866201920e-04,1.146789408983475451e-04,-1.497272071725719994e-03,2.719798982143402100e-01
3.346219745597427409e-01,5.563164763833899906e-02,5.792052049121113044e-02,-3.336274768796831177e-04,-7.707005000092715394e-04,-4.197104067186684334e-05,2.778567671775817871e-01
3.465270544833358168e-01,6.441758229140510938e-02,6.186887428886124474e-02,6.306492530753233378e-04,-1.870440473874825354e-03,-2.187445341954619995e-04,2.834132909774780273e-01
3.463196089239629627e-01,6.409710682908653645e-02,5.980139258466703189e-02,8.156453920537438951e-04,-1.056589283010894373e-03,-4.308706963081093970e-05,2.844040989875793457e-01
3.374933812572555869e-01,5.338218835644721605e-02,5.136697390777784922e-02,-1.200469781753556653e-03,-1.692133691519446051e-03,-3.455950683005563190e-04,2.851474285125732422e-01
2.872879410841696624e-01,4.168600704178550276e-02,5.826753369236799263e-02,4.373123280627456283e-02,-8.817755969217321022e-03,7.487724397298900665e-03,2.503228187561035156e-01
3.337269369360867377e-01,5.453958178710935356e-02,5.918944866166597762e-02,-1.160436408014732176e-03,-4.359287986752252708e-04,2.031021822028436410e-04,2.769002616405487061e-01
3.303974326073151335e-01,3.784494585451932125e-02,5.693436412542014768e-02,1.852601406796511785e-03,9.334612085762526365e-04,2.333242383947664589e-03,2.835417985916137695e-01
3.332092511820323177e-01,4.575630145778444846e-02,4.810479202067514948e-02,2.348442320164133279e-04,8.189453630864319735e-04,1.041019061181187302e-03,2.862954139709472656e-01
3.328163459576611860e-01,6.353585383995299929e-02,6.427722205295510749e-02,-6.479662624039970054e-04,-1.211394679725229630e-03,9.780553010025438802e-04,2.689264416694641113e-01
3.316029387644341409e-01,4.128512155964911279e-02,5.674673581635367170e-02,1.129928165969102533e-02,-7.028750973208096851e-03,4.322157939130305722e-03,2.839401066303253174e-01
3.327872212330877377e-01,4.988588356793562106e-02,4.579230450331109314e-02,2.978792376995513871e-03,-1.111739322230033281e-03,1.674576853822205532e-03,2.850381433963775635e-01
3.207063386885700140e-01,4.775101486023269892e-02,3.880600832612141060e-02,1.153575524336204446e-03,-3.536303940825833228e-03,3.498793697132235227e-03,2.776768803596496582e-01
3.160615188593807190e-01,5.142679225930785192e-02,3.837215494656100179e-02,2.555183983503152333e-04,-1.666108885993707999e-03,7.078835742290035329e-03,2.716901302337646484e-01
3.377930468929719598e-01,5.377186150943856491e-02,5.689071244444586506e-02,9.698543307561975245e-04,-9.738462183280895482e-04,2.566533619357700292e-03,2.825196683406829834e-01
3.087192153053905930e-01,6.240841866247121006e-02,3.805018939513393761e-02,4.535238362599190720e-03,-1.262822111074499154e-02,6.323961964081803444e-03,2.606187462806701660e-01
3.866832191682457731e-01,5.640202411447071962e-02,7.066137554749769845e-02,2.872088153556766679e-02,2.018291697416928210e-02,-2.067853630905861113e-03,3.290728628635406494e-01
3.308566908567029952e-01,4.939156011475409613e-02,4.648356849357937470e-02,-9.512705481493266470e-04,-1.002572449151087819e-03,-5.003502835467060718e-04,2.829417884349822998e-01
3.399709606430945663e-01,5.924255973531919461e-02,5.682341919924766005e-02,-6.869015379835604392e-04,4.689352799855808253e-03,1.127516825334597388e-03,2.820719778537750244e-01
3.125502770079679471e-01,4.901234606992016518e-02,3.674581936918054625e-02,-3.187274976765661224e-04,-4.908519523673660068e-04,-5.015700342638396494e-03,2.700220346450805664e-01
3.399216450729899419e-01,6.203983490324437022e-02,6.740138809753562499e-02,-2.129746434773884065e-03,-2.885143880694117629e-03,9.620776790512243059e-04,2.753153145313262939e-01
3.330666420770614922e-01,5.738221198740706130e-02,4.504510689033772164e-02,1.219603444018744175e-02,3.134309566365579142e-02,-8.845524784805507373e-05,2.880081236362457275e-01
3.707586281241733173e-01,5.882773833712763578e-02,6.801349283411058100e-02,6.322165645425648073e-03,3.497366078813075006e-03,-1.677558262904345430e-03,3.077092468738555908e-01
3.031273860582022195e-01,6.006930885519098928e-02,3.184660064504496457e-02,-1.104025904768703549e-03,-7.570928898703964535e-04,-2.438752135287179223e-03,2.583732306957244873e-01
3.575909461586823657e-01,6.177470924870805125e-02,6.474816999315884114e-02,2.506953587712616553e-03,2.816751482818341881e-03,-2.108505469427116637e-03,2.944358587265014648e-01
3.463474469458990290e-01,6.104176944523823090e-02,7.494498534526262967e-02,4.836756626388329035e-05,-1.462295893497073541e-04,2.890404661518497162e-03,2.786594629287719727e-01
3.331280508323104517e-01,6.186330649984786434e-02,6.381420735192945559e-02,1.359735523901825667e-04,2.700887956725319099e-04,6.440040514930440909e-04,2.702973783016204834e-01
3.054858905398517566e-01,5.248816156450775150e-02,5.123608894310623108e-02,3.214504043653709743e-04,-8.097544881860871359e-04,8.608759642665310408e-03,2.540684938430786133e-01
3.511022335373725767e-01,5.808337430996231288e-02,7.114342257637017164e-02,2.539257817196898534e-04,-1.655144741781357145e-03,-1.117944986364904225e-04,2.867267429828643799e-01
3.288697276938625791e-01,5.770699043397632677e-02,3.903580475152407248e-02,5.597381937469346198e-05,-5.036956559135274090e-03,-1.789276121198948898e-03,2.811165153980255127e-01
3.212875393242958788e-01,4.970162306765940619e-02,3.371676547702014137e-02,3.786314476020471022e-04,5.954164620449953422e-04,-1.197792326977321561e-03,2.799312174320220947e-01
3.967277610512925934e-01,6.054717834988115888e-02,5.532375593247765289e-02,4.667004845241506765e-03,4.762018133092023320e-02,4.426904307776339739e-03,3.488951921463012695e-01
3.758495075565897459e-01,6.094024020547531006e-02,6.866697608601492198e-02,7.673221323660958312e-03,-1.528805679657331768e-03,1.720516288527778985e-03,3.114271163940429688e-01
1.015503034181926278e-01,5.132836834828614914e-02,5.219081298109744249e-02,4.622266928824126514e-02,-5.229388088372714100e-02,1.653840507467629721e-03,1.307724565267562866e-01
2.498751080948434788e-01,6.985052160911187080e-02,4.995672890077144934e-02,8.544762789637528125e-03,-2.151387810003702744e-02,5.582033037401913297e-03,1.951590180397033691e-01
3.433079508684965808e-01,5.597071672870869430e-02,6.562913847968923631e-02,-5.550135888306524976e-05,-7.726165560481399255e-03,-1.025109585050669545e-03,2.829540371894836426e-01
3.735014717436269671e-01,5.749494646915898066e-02,6.432400648129216192e-02,-4.580283244966533440e-02,1.606721774862177737e-02,3.266188373623183771e-03,3.238038122653961182e-01
3.232988050913421230e-01,5.569635600077048332e-02,3.363150094614332508e-02,-1.068959252924972817e-03,-2.912344171845031564e-03,-1.622407365071244041e-03,2.793551683425903320e-01
3.564880017632339193e-01,6.410151480218895248e-02,5.888833924518080409e-02,1.425177434028123379e-02,-1.571349929616729178e-03,4.903168668457879393e-04,2.960722148418426514e-01
1.854725023159517483e-01,5.290171906947428726e-02,5.372573723423480774e-02,7.441534111945249941e-02,-6.363067065162943126e-02,-4.099033558333836820e-03,2.151194363832473755e-01
3.258651541021336806e-01,5.955147148036890603e-02,3.824858805714601018e-02,2.101272689050281191e-03,-3.976181934714187634e-03,1.854934105741333744e-04,2.776883542537689209e-01
3.349439781768086544e-01,5.790409132822374461e-02,5.846662480320306832e-02,-2.314724888587622908e-04,-7.822088661110543524e-04,-1.462223859247038934e-04,2.767627835273742676e-01
2.814426466001416216e-01,5.715976969712026345e-02,3.238939501227365569e-02,-1.682700770560080147e-02,-2.425347562242356411e-02,-1.215319053131264614e-02,2.439860403537750244e-01
3.415860146889715399e-01,6.380463476699893555e-02,5.772899183004537305e-02,-5.502722114180417547e-03,3.684945189808718023e-03,1.109102150432521305e-03,2.811091840267181396e-01
3.311169361883215534e-01,6.123755966704337583e-02,6.335557409809414176e-02,-7.765666431142211838e-04,-1.887454002763199661e-04,5.983947423689512822e-04,2.688321769237518311e-01
3.365122658000193612e-01,4.484589832101067153e-02,6.025659970232666307e-02,4.990198715916095880e-03,1.118389237472528852e-03,9.941738626345572073e-04,2.844176590442657471e-01
3.312696553716940051e-01,6.230164293573624279e-02,6.361064260292581540e-02,1.281468645375137517e-04,-2.564551862372417708e-04,5.678865759066333398e-04,2.683181762695312500e-01
3.335387231891500104e-01,4.885263877834893076e-02,5.202696894801843441e-02,-3.483942564384057464e-04,3.043394592652661043e-04,2.881641485191639617e-05,2.831133902072906494e-01
3.351819646459283097e-01,4.848032472027632989e-02,5.372831358116356149e-02,9.640354371265942753e-04,1.716299233746584061e-03,9.728778824958911721e-04,2.841394543647766113e-01
3.397798939113236827e-01,5.793017772453550041e-02,5.638763643703950668e-02,2.612953856068510133e-04,2.965099666793343317e-03,7.338403463468724406e-04,2.826740145683288574e-01
3.607770349301941959e-01,4.880184005788881785e-02,6.493012822894697611e-02,-3.008763811189970813e-02,-1.615904425326151290e-03,2.994163708345429719e-04,3.086760640144348145e-01
3.740658911949778509e-01,5.349524377277103948e-02,6.682003743691557196e-02,-2.111681062892657723e-02,6.381133716647181472e-03,-1.831939899897089448e-03,3.164514899253845215e-01
3.284891520667968523e-01,4.657156894031803940e-02,4.826484801393594870e-02,-2.136466586869130853e-05,1.146704926963878097e-04,3.304752261226216216e-03,2.811331152915954590e-01
3.395322083403651270e-01,4.894019248067664474e-02,5.670122591344878282e-02,-1.889301101102477259e-02,-6.452671127091304812e-04,-9.834125725310203375e-04,2.886583507061004639e-01
3.785735372824392542e-01,5.457664756034878717e-02,6.839117686866737211e-02,-1.959783026129627986e-02,-1.029612083276043241e-03,-1.779820409731146464e-03,3.191455304622650146e-01
3.802984524931512511e-01,6.333531478934630032e-02,6.336527693258665883e-02,6.551664648186020061e-03,5.213378792961333164e-03,-1.069734656011709067e-03,3.172851800918579102e-01
3.304252362945110377e-01,4.738826145606045426e-02,4.535279153197986635e-02,9.958748164074526007e-04,6.852046841555014785e-04,7.776802662640198332e-04,2.840710878372192383e-01
3.342999995213832287e-01,5.104546928257340521e-02,5.329468316291588459e-02,-1.960948858502978975e-05,-6.507902048239940776e-04,1.088547547012936071e-03,2.821452021598815918e-01
3.615221440703155764e-01,6.186564377011892490e-02,7.248476150772227566e-02,4.528931508737352521e-03,-1.370626227959395507e-03,1.252929971162496190e-03,2.946125864982604980e-01
3.333184596060521088e-01,4.684008860233143667e-02,4.937230369751149928e-02,-2.455915875589732909e-04,1.144853491101879362e-03,5.033334684614763303e-04,2.852292358875274658e-01
3.410899985801947865e-01,6.645608687536620762e-02,6.694034743067030224e-02,-1.246757835542685417e-03,-7.448100132502107355e-05,-3.027824647639964367e-03,2.744507491588592529e-01
3.386607496598251221e-01,5.787351692441890239e-02,7.033328313265113652e-02,1.428538001660291509e-03,-9.335489272602829616e-04,-7.325344456974040765e-04,2.747881412506103516e-01
3.352411522717612113e-01,6.310242802092884407e-02,6.611114113583695107e-02,-5.950804193919439176e-04,1.582263824598901083e-03,-3.087644760076894718e-03,2.707155644893646240e-01
3.326277760490636282e-01,4.549754302017210150e-02,4.657760766255453211e-02,1.270476951671476850e-03,-6.490847637935681820e-04,3.548639540204676806e-04,2.866030335426330566e-01
3.783160986404920934e-01,6.743093546003642302e-02,6.825073907551937324e-02,5.439085829469977700e-03,9.517073509348319353e-05,-2.815081232888905736e-03,3.106572628021240234e-01
3.077218278139030039e-01,5.837909193688840814e-02,3.382262305618707887e-02,-5.184552826060245638e-03,-1.255144473578010365e-02,-7.355792983403450572e-03,2.638434767723083496e-01
3.314875916851792170e-01,6.220508050070727712e-02,6.228315005098500334e-02,5.736558925420706971e-04,-1.280398561468490924e-04,7.267139316982741204e-04,2.692483663558959961e-01
3.950568198655177166e-01,7.012931390601383208e-02,5.478015918922428396e-02,-2.538891516866264089e-02,2.181720436963540538e-02,4.497892016953274584e-03,3.379693627357482910e-01
3.886549659248649258e-01,4.561820014983077043e-02,4.710533527051526115e-02,-1.298977321789362115e-02,1.698766423123781316e-02,1.177159279497867576e-02,3.448970019817352295e-01
2.609017442926515051e-01,4.719995962845000004e-02,5.819627546298729304e-02,1.777784244561788057e-03,-1.463070997405540793e-02,8.691047079960066701e-03,2.105176895856857300e-01
3.290997099175532181e-01,4.801628616550650264e-02,4.446447048488544329e-02,-3.198435554502449831e-04,1.965653271355395496e-04,-8.508586594192721342e-04,2.828806340694427490e-01
3.184914413110444542e-01,4.532566371048982190e-02,4.108107944299750625e-02,-1.360899916192508411e-03,-7.633841936764882395e-04,-5.253824506733458834e-03,2.754762172698974609e-01
2.986646399879193670e-01,4.245059977072102031e-02,4.930944670722096912e-02,-1.415064778721227164e-02,-7.981338502608906899e-03,-1.055235969678911846e-02,2.550710439682006836e-01
3.219609332461502715e-01,5.086200230154565294e-02,3.862076743708489635e-02,3.784129590682999375e-04,4.493538560641057713e-04,-3.072683850509760808e-03,2.774750888347625732e-01
3.722481113134286090e-01,5.504383558450919034e-02,4.924009007762183976e-02,-3.519223582362761976e-02,-6.208360383402387189e-02,-9.396777454853245601e-03,3.435647189617156982e-01
3.164384738545380493e-01,4.238242950237469664e-02,5.200395189116306660e-02,-6.112433095191122795e-03,-6.633626198237496836e-03,-8.746825203430607168e-03,2.702518701553344727e-01
3.233387156718466882e-01,3.447860848158865177e-02,5.286841291144121768e-02,-1.772026125383187453e-03,-2.048038019107086428e-03,-2.046394993842275828e-03,2.801800072193145752e-01
3.136349420829409040e-01,4.651774469266453660e-02,5.211245943609828235e-02,-2.932492512013431737e-02,-1.929432460975752731e-02,-6.096922205579385391e-03,2.714712321758270264e-01
3.279374867659727300e-01,3.923346360216548034e-02,5.809751885146759165e-02,-3.281186001209073378e-03,-2.048799180939524667e-03,-1.668040007099057210e-03,2.798445522785186768e-01
3.287599111203654001e-01,4.391520267006941702e-02,5.605974987289476241e-02,-9.261939795370400900e-04,-1.298697535013828728e-03,-2.031112791494965337e-03,2.790066301822662354e-01
3.210466336630798390e-01,3.455705642490872198e-02,5.552375376664378526e-02,-1.371070910859439797e-03,-1.409490249761263976e-03,-1.111260021051907812e-03,2.766305208206176758e-01
3.177578697089696869e-01,5.436848725119224068e-02,3.662372546093486947e-02,-1.112023577980402215e-03,-2.553609690350013787e-03,-4.404596276098802013e-03,2.728444635868072510e-01
3.197697575271953307e-01,3.279117110625319464e-02,5.620156001084869457e-02,-3.201958240677485728e-03,-3.572909367903724393e-03,-1.748937194285210420e-03,2.761606574058532715e-01
3.285349104610993942e-01,4.630714174458502863e-02,5.266237243579564853e-02,1.319719514390535822e-03,2.589118853889499101e-03,-4.990031966885536720e-03,2.792835831642150879e-01
3.283104874234678006e-01,4.230668501709065887e-02,4.386063808969753453e-02,-1.921693149774758060e-04,7.089550866076300857e-06,-3.592709306329747838e-04,2.852308750152587891e-01
4.036350054167643642e-02,6.014763191866692726e-02,5.300227728996366461e-02,2.378047586286994447e-02,2.727998143663785610e-02,7.145839492555057688e-03,6.620738655328750610e-02
3.242329775203425246e-01,5.786496636699636764e-02,3.711011850857760808e-02,2.221796273587353134e-03,-4.353349384781966987e-03,1.015972745162002384e-03,2.774632871150970459e-01
1.637684747235456095e-01,4.350780873711208863e-02,5.442042980439569522e-02,3.927539465972870736e-02,2.253536429097170724e-02,2.183950694309907947e-04,1.393581479787826538e-01
2.850474851216130423e-01,5.876749078457263464e-02,7.841026688937588474e-02,2.775010852992028029e-02,2.090248379410011067e-03,8.261259284276706305e-03,2.228716313838958740e-01
3.249810605707620370e-01,3.883649245725422083e-02,7.265823920958053295e-02,1.624942692854132800e-02,1.061335607565664155e-02,-1.526331922276013284e-03,2.729134857654571533e-01
3.278973139290543570e-01,4.328110458537752503e-02,4.107483293040521677e-02,-4.781883284690900313e-04,-3.035510616329964440e-04,-7.297458086671563095e-04,2.857302129268646240e-01
1.901166878009450667e-01,6.266579071622208064e-02,7.132623869141010986e-02,1.008019439881738602e-02,-6.909503894569189557e-03,1.502165193244993651e-04,1.251522004604339600e-01
3.115421349688602404e-01,6.092572279415810199e-02,2.986418381639939501e-02,1.155068331729496744e-04,-1.772722115193850111e-06,-1.660919959030155053e-03,2.675186991691589355e-01
2.862155178678866818e-01,5.432196363883713686e-02,6.053596705241302833e-02,1.395716287724396709e-02,1.184062055714411518e-02,-5.747000745390466736e-03,2.312495112419128418e-01
3.936181106813638753e-01,6.195417450690259009e-02,6.583868568934436727e-02,2.525402152110124351e-02,5.540746095325038700e-03,-3.784147146329107109e-03,3.328303694725036621e-01
3.166936629910095391e-01,3.703603301725665042e-02,4.896593438542264087e-02,-4.879824718614418242e-04,4.544867969804302580e-04,-5.639643693240960036e-03,2.740641832351684570e-01
2.618597110660256244e-01,7.098179386383143830e-02,3.952752303100984244e-02,-6.330567946558550126e-04,-2.570872437219541909e-03,2.913902840182888004e-04,2.084441483020782471e-01
3.396298400586874600e-01,5.408140523262582045e-02,6.039879305534413823e-02,2.149221188417629186e-02,-1.746807241469973404e-02,9.659372101897739649e-03,2.869755327701568604e-01
2.826310132699368927e-01,6.573906249529684609e-02,3.047715632072460490e-02,8.074190016942004193e-04,-1.383391562905266978e-02,-4.773264932657288358e-03,2.378612756729125977e-01
2.487284798257057561e-01,6.967321747236970841e-02,4.760992519800955058e-02,9.841371205655648560e-03,-1.730275585357091833e-02,5.842886581549871020e-03,1.943945884704589844e-01
2.081763344654660730e-01,7.042160008557475648e-02,6.928196216185224243e-02,2.710784205615703654e-03,-3.174253904349210245e-03,8.732041391714091133e-03,1.393401324748992920e-01
2.854830291508898554e-01,4.548924176894908467e-02,6.783083603036693665e-02,1.721256920742135488e-02,1.460880437894745976e-03,6.490463772893351885e-03,2.318532317876815796e-01
3.111098140660323863e-01,3.676538586462956004e-02,5.188470042550311079e-02,-8.718603070461286662e-04,-4.438848386757308917e-03,-6.451328531281883168e-03,2.674543261528015137e-01
3.293101558436132836e-01,5.252798797877676618e-02,3.903589251307165719e-02,3.052376008837848296e-03,-4.694720341431043802e-04,1.303750004099393572e-03,2.838282585144042969e-01
3.315310434424342256e-01,3.595721816744634758e-02,5.487356231414677876e-02,8.564084608628109302e-03,2.172228712825254125e-03,-4.122346224690848215e-03,2.870813608169555664e-01
2.907697651691038554e-01,3.466781427447564179e-02,5.801194205582960173e-02,-2.851779343231090544e-02,-6.772586139645772087e-03,-5.249408369915779110e-03,2.506287097930908203e-01
3.335184658383447687e-01,5.099430819939296256e-02,5.351846826938315427e-02,-2.364273770246398524e-04,1.812661063929424930e-04,1.699437459717461621e-03,2.812864482402801514e-01
3.461101120413605514e-01,5.957449177370427451e-02,4.621784132378356502e-02,9.576973449288285305e-04,-1.014010372855642800e-02,-3.480270324395966838e-03,2.940336167812347412e-01
3.308552847321184487e-01,4.364715568857743810e-02,4.738849116854904064e-02,1.067877277880661903e-03,3.863743133108452424e-04,2.187075026290945679e-03,2.853877842426300049e-01
3.321125818918280737e-01,4.338719943239306709e-02,4.623041311704523260e-02,-4.564049584310633442e-04,4.633234759883594271e-04,7.052059846554775777e-04,2.873191237449645996e-01
3.418232174558238912e-01,5.772750846655606838e-02,4.693541418803856557e-02,-1.341236465945421560e-03,-6.032094635523774229e-03,-2.247606904669302661e-03,2.898664176464080811e-01
3.313398635298164807e-01,5.514498865789627113e-02,4.136193474972550688e-02,-3.429157401550631239e-03,-3.949381046319000790e-03,-1.805183753933668018e-03,2.834999859333038330e-01
3.418725281245817982e-01,5.803642986792006964e-02,5.330347933364495971e-02,-7.486082656270165838e-04,-6.326964921795815051e-03,-3.251608375960634168e-03,2.864999175071716309e-01
3.296236035710758960e-01,4.758017155913159268e-02,4.681502634529850770e-02,3.038968082431632123e-04,2.986680369932764238e-04,1.350017519973048790e-03,2.824374139308929443e-01
3.313972943482337286e-01,4.409373944311874294e-02,4.495664926644690751e-02,3.303247515134814945e-04,-5.667463179598547594e-05,1.129009211577797645e-03,2.868803143501281738e-01
3.355694489958275240e-01,5.756308941506028953e-02,5.546395556266427163e-02,-1.337730681112488541e-03,3.382898626665698243e-04,-1.628090631317375336e-03,2.790863215923309326e-01
1.966050022255764751e-01,5.150024733049174408e-02,4.640755518864650431e-02,-8.338150955742275328e-02,-4.023032870050256837e-02,-2.994486726599797886e-03,2.180827111005783081e-01
3.166880357521433265e-01,3.204851145260464995e-02,5.153387061841216421e-02,-6.079836777047027338e-03,-4.071059724430609386e-03,-5.301551294666102115e-03,2.758586108684539795e-01
2.960512409295968927e-01,5.560911380565941586e-02,4.118841273169196460e-02,-3.558914122076651393e-02,-3.475375868902198795e-02,-1.089138988677647649e-02,2.631858885288238525e-01
2.721452222492015682e-01,4.038236901404328172e-02,5.620628362390114874e-02,-4.615061337381729661e-02,-4.295103087626397920e-02,-9.350034504609942496e-03,2.499666064977645874e-01
3.345768819203885913e-01,6.468087754894358277e-02,6.724679646851799975e-02,1.226917470633909343e-03,-7.308142829103037854e-04,-3.065807090483789552e-03,2.686861157417297363e-01
3.228557966762173326e-01,4.687620229778015346e-02,6.010087250568779682e-02,1.514645745637561818e-02,-4.464216406735884574e-03,2.342173578071191954e-03,2.710246741771697998e-01
3.197242399997275442e-01,5.000670547163332813e-02,3.528156669878605711e-02,-1.464996745758008175e-03,-9.992442415077552442e-04,-1.339569965977965241e-03,2.774001061916351318e-01
3.263036988664470561e-01,4.477725966576756589e-02,3.799761663468304018e-02,3.796323309190581877e-04,9.279832460593367060e-04,-1.203339997771802564e-03,2.849896550178527832e-01
2.494744036263310538e-01,4.579736749589476130e-02,6.996296902345450208e-02,-5.714228475861476975e-02,-7.701544944838565297e-03,-5.656910136076727380e-03,2.172924280166625977e-01
3.244402370930256074e-01,4.562843965247355416e-02,4.041567966172278370e-02,-1.125719959079771832e-03,-4.999673700058534630e-04,-1.039800210909885055e-03,2.814682424068450928e-01
4.841317901050906092e-01,7.111757554436565210e-02,8.030116211123805581e-02,5.392831219507807083e-02,2.885014567112401812e-02,5.236150482933880565e-03,4.221091866493225098e-01
3.233960609269470599e-01,6.110258398891046938e-02,2.932528611957653519e-02,6.729873727515817703e-04,-4.523043625843190668e-03,-9.775715450432232237e-04,2.796573638916015625e-01
3.509803011305915321e-01,6.154341232966559216e-02,5.802776577055851481e-02,-1.137943890465657054e-02,3.017000179643075305e-03,1.199523709387331077e-03,2.919310331344604492e-01
3.359007900662794310e-01,6.013648821044298431e-02,6.580837762175854866e-02,9.604301450499755756e-04,-1.380376489016427611e-03,-7.325847449948495477e-04,2.729910314083099365e-01
3.690901962239475642e-01,6.557002379718174234e-02,6.760781530307791165e-02,1.596192098336432150e-02,4.782260517066167643e-03,-1.942742309349326010e-03,3.038986921310424805e-01
3.409789126858507879e-01,6.494510820331730883e-02,6.129251447616776427e-02,4.923503372201705301e-03,-6.109527878211746177e-04,-2.082652624634789579e-03,2.780343592166900635e-01
3.410836380873679685e-01,6.416943300467441158e-02,6.243291122243727065e-02,-1.674596869142747774e-03,2.651903095616220830e-03,-7.659056662948041539e-04,2.778428196907043457e-01
3.160065565054595016e-01,6.039542673855624599e-02,2.762579202817819213e-02,2.236385035222480553e-04,-2.133144235404949886e-03,-5.207335377107137403e-04,2.734991610050201416e-01
3.225295159882720641e-01,5.272012054017127802e-02,4.051026841245787546e-02,-1.947835232286857421e-04,-1.491404583313210878e-03,7.917879413338814627e-04,2.761325538158416748e-01
3.396946042929597787e-01,5.698048815698085467e-02,5.138378250263669900e-02,1.532147713958458089e-03,-4.697160970593104723e-03,1.951421386025056813e-03,2.857018113136291504e-01
3.479878727758409784e-01,5.757027565274398795e-02,6.213537840481514474e-02,9.519883243846412931e-04,3.439825166983665264e-03,-4.920838249229427105e-04,2.882297337055206299e-01
3.425568229125010578e-01,5.819253028660142935e-02,6.251842227777207328e-02,2.526888624390411040e-03,8.213660936062559077e-04,1.892777407453884436e-03,2.822827696800231934e-01
3.467746612612579993e-01,5.417940979313726202e-02,5.098088723784517662e-02,3.833400740186992690e-03,-1.844128171951426795e-02,2.221761661865914337e-04,2.960110902786254883e-01
3.258507150557928278e-01,5.687007775225946804e-02,3.728942704657793594e-02,1.155021686391125143e-04,-3.520258283408831193e-03,-1.832626314160170494e-03,2.793708741664886475e-01
2.651964466106452312e-01,5.003186161181506775e-02,6.261144132515950034e-02,5.141590197476416518e-02,-1.219177663056335466e-02,9.784487183749650610e-03,2.289350926876068115e-01
3.232335594467415918e-01,5.827011112913448032e-02,3.057795618012093541e-02,-1.578917608819099512e-03,-3.392480924367965653e-03,-1.874285814315901225e-03,2.799329161643981934e-01
3.724530775489937051e-01,6.471359074252495958e-02,6.147680350113356174e-02,5.476921445942428864e-03,3.114859170688584998e-03,-1.430451837048464514e-03,3.095729053020477295e-01
2.267333232330612236e-01,5.778703698354660523e-02,5.445491604161070698e-02,2.865851420457022833e-02,-2.631819418055567419e-02,1.129735323738013074e-02,1.845038384199142456e-01
3.273994575135661389e-01,6.315551134504672481e-02,3.953562877149997823e-02,-1.377116195297795791e-03,-2.992887566631431077e-03,-5.369168520996520349e-04,2.768710851669311523e-01
3.473510942784750477e-01,5.742895402606890132e-02,5.677155278444614983e-02,3.187386329343588811e-03,-1.178850889588906568e-02,1.274741813823009008e-03,2.910294532775878906e-01
3.268134886850935228e-01,3.985560687312240946e-02,6.068925195459604072e-02,1.813503956056223068e-03,1.427105322767203283e-03,-1.697820386026476901e-03,2.771734297275543213e-01
3.160061816540711277e-01,5.885660931560719733e-02,2.988442877696180500e-02,-4.710420712508929563e-04,1.424259398129566312e-08,1.180081777999459920e-03,2.728008627891540527e-01
3.370041220843650320e-01,5.019197835357097626e-02,5.920685235884473596e-02,6.168288813332568898e-03,1.321029493165677172e-03,-6.388901456180755712e-04,2.826260924339294434e-01
3.157155771957194657e-01,3.309753171751279865e-02,5.931952220760472461e-02,7.907450360268153747e-03,1.122424362234735384e-03,-1.510211944801968017e-03,2.708282768726348877e-01
3.092541140326655613e-01,4.795257362534410817e-02,6.271504768036872957e-02,5.140181616896353362e-02,1.350757365702817811e-04,3.057719139574460471e-03,2.694318294525146484e-01
3.421493073823294040e-01,5.377569703797821510e-02,6.171806789436287688e-02,9.223619869836352861e-03,1.239442989340883497e-02,-3.716513794934764130e-03,2.858138978481292725e-01
3.342406858086616195e-01,5.734627699533750844e-02,5.885416124170347874e-02,-8.819172332027764996e-04,-1.198167124842440187e-03,-2.586204593863173306e-04,2.761559486389160156e-01
3.481296133728857267e-01,4.042183409061197996e-02,5.858455225382851184e-02,4.825126111484435293e-03,1.720170104477974048e-03,7.212389751025974306e-04,2.991745769977569580e-01
4.043323919388978060e-01,7.364311294998415747e-02,6.853744393636930499e-02,8.612343619278010551e-03,6.969916495062835823e-03,6.393305737936579199e-03,3.340070843696594238e-01
3.153637748306724609e-01,5.212506532809081661e-02,4.479584132475265823e-02,3.931823818942706272e-03,9.044749968137383994e-03,-7.885200624770858507e-03,2.678731083869934082e-01
3.324368749495049125e-01,4.284180660771906568e-02,4.651538076253687592e-02,-3.041740570948327053e-04,3.692426946564214009e-04,4.958195251716585386e-04,2.877783477306365967e-01
3.238963874718169267e-01,5.237469743789252563e-02,4.703253612968152919e-02,1.202726855684482267e-02,1.526246384508064997e-02,-3.668658351828369378e-03,2.763625383377075195e-01
2.309597270010501635e-01,6.217860746284387119e-02,6.043647924096791357e-02,5.608236573461979242e-03,6.268637763204527652e-04,-3.380451548259544997e-03,1.700410544872283936e-01
3.329985543214410981e-01,5.625694254467791811e-02,5.320190924675878563e-02,1.250935900072423172e-03,2.954487364880248302e-04,-2.939291416657776983e-04,2.782910764217376709e-01
1.944147321561580377e-01,6.298691627718328023e-02,5.624661279783728374e-02,1.338789016343788427e-02,4.947460848897083235e-02,6.145623015093471409e-04,1.615135222673416138e-01
3.230402886953026576e-01,3.747756166946186740e-02,4.677835979932395971e-02,-1.146052135075120845e-03,-1.030253433161273848e-03,-3.728889581582220305e-03,2.811146676540374756e-01
2.703991303171264238e-01,6.376865459245101286e-02,6.000602462533689840e-02,1.183946576207248484e-04,1.192281702038660435e-02,-6.041505612538308236e-03,2.098184674978256226e-01
3.377217737646890927e-01,5.802279595094508857e-02,6.126062339743212903e-02,6.315361853235681566e-04,1.510589528208216865e-03,6.942088998003033634e-04,2.781112492084503174e-01
3.322096616518380729e-01,6.131914031514090757e-02,5.834684186758049007e-02,-2.652074701731757262e-04,-6.109995014879102083e-04,4.959643515545363469e-04,2.723926305770874023e-01
3.574036012501347059e-01,7.141268396106423277e-02,5.690554720291229884e-02,-4.197980189067544526e-04,1.940141803028347638e-03,5.676838204324571391e-04,2.935352921485900879e-01
3.350480582793229356e-01,6.416984345078576013e-02,6.237358135679289817e-02,-7.788823111221611297e-05,-2.799847437487156150e-03,8.580418784841451624e-04,2.718281447887420654e-01
3.180832378278127814e-01,3.061397093482959297e-02,6.002541529768930240e-02,-3.717148989464954395e-03,-8.438455562828414821e-04,-1.254021493933890879e-03,2.740383744239807129e-01
3.164267553213568895e-01,3.517108218966834288e-02,5.466716706558975847e-02,8.693443196719989607e-03,1.080447116400960056e-03,-3.441796232403774181e-03,2.725201547145843506e-01
3.147692825276649509e-01,5.382375919199372527e-02,3.607178103126015833e-02,-9.079645134569141757e-04,-2.727597253593045442e-03,-4.440905894049233284e-03,2.704144120216369629e-01
3.705052502823613647e-01,5.194928542435757468e-02,6.222668880595143281e-02,2.269993820782250857e-02,6.880152971834584651e-03,-9.923832234936869057e-03,3.166905641555786133e-01
3.384349676641780214e-01,5.819928776440064233e-02,6.374227368983632902e-02,7.496239461577122731e-02,8.184963853641468237e-03,-7.406662576110919225e-04,3.067085444927215576e-01
5.749081600767146361e-01,7.586497045795861927e-02,6.060703323493774053e-02,1.633177304702154373e-02,1.154757706779831888e-02,-2.921560684134795471e-02,5.105410218238830566e-01
3.125669907421434468e-01,5.965168841999204941e-02,3.056964317237749473e-02,-8.907137616175802089e-04,-5.222771365207598722e-03,-3.710263008443093549e-03,2.688730657100677490e-01
3.300119391431270977e-01,4.969681229133136868e-02,4.315185421318111503e-02,-1.366880907481147090e-03,-2.082413442633484959e-03,-2.389572681336599082e-03,2.837072610855102539e-01
3.220595013824767427e-01,3.918247928895893240e-02,5.025028916219588526e-02,-1.072703206130483930e-04,-2.645489472575546106e-05,-2.848995475677153916e-03,2.775526344776153564e-01
3.314793179593076289e-01,5.767319123067901621e-02,5.959877784644232457e-02,-6.283388458691858795e-04,-6.043034444622570828e-04,6.990610081049643525e-04,2.728552818298339844e-01
3.388786419244131376e-01,6.052304996762618294e-02,5.541042119043049219e-02,-2.375750387065983255e-03,1.282654306090478093e-03,-3.072829938782217231e-04,2.809862196445465088e-01
3.116391363465574882e-01,6.329626250130133969e-02,2.846858331919149832e-02,4.293551212787649423e-04,-3.226510003714374436e-04,1.196251003386623809e-04,2.674645185470581055e-01
3.441482605876088341e-01,6.200919456031601940e-02,5.640687386893730726e-02,-3.989112264755661141e-04,1.347581174804999291e-03,-5.489313780238092022e-04,2.849934995174407959e-01
3.250064114238003232e-01,3.110402024587904934e-02,5.994816800744591501e-02,2.058444430410246058e-03,2.254567179841136955e-04,6.460280039092568044e-04,2.806195914745330811e-01
3.211509224228918935e-01,5.970698742932327441e-02,2.952242660126179474e-02,7.694530970343503020e-04,-4.253318881399795019e-03,2.813813375598191421e-05,2.778698503971099854e-01
3.374899716792214566e-01,4.937494169719081061e-02,5.953779506115849940e-02,2.909723701623992322e-03,-1.149728907149239225e-03,-5.814197015995705526e-04,2.832240462303161621e-01
2.823748735253543418e-01,3.712792430197403570e-02,5.249170070258572796e-02,-1.951560674439002663e-02,7.281296831948567798e-03,8.388829955151432330e-03,2.410952895879745483e-01
4.299975359831383903e-01,6.855875151554596814e-02,7.106219464091911853e-02,-3.189579451921473879e-03,-2.169620433031950457e-02,7.251468039702390310e-03,3.624084293842315674e-01
3.085299193472169632e-01,3.877968308361277872e-02,5.856734810396704849e-02,-6.522900343863546890e-03,-6.086465330427719145e-03,-7.357626363017006135e-03,2.611899673938751221e-01
3.301456646150769947e-01,3.833306816758459690e-02,6.183334803079011677e-02,-3.288881497864200830e-03,-2.165566230153391850e-03,-1.675984704273634574e-03,2.808987796306610107e-01
3.216811981475680149e-01,5.150136481406700217e-02,3.416240071189692584e-02,-1.461185788229488669e-04,-4.027252464226666051e-04,3.134974214740054738e-03,2.793070971965789795e-01
3.273446989771440774e-01,3.360732715891985578e-02,6.150789955577316837e-02,-7.739313818670498848e-03,-2.949575671349422955e-03,-6.221947441300353272e-04,2.811967134475708008e-01
2.932286632973436502e-01,4.691308534156851673e-02,5.638240788816918647e-02,-1.447934998681923513e-03,5.980897246617025188e-03,9.753281297304378095e-03,2.425439655780792236e-01
3.248126065787766970e-01,3.650250435221306933e-02,5.151267055995020772e-02,-1.186128312464948065e-03,-3.064201087510977535e-03,-2.803373846337038275e-03,2.812052667140960693e-01
3.225556673209794001e-01,3.985333318255208923e-02,5.826106433896106884e-02,-3.502197136998051220e-03,-3.062083895589916629e-03,-2.566773534995268197e-03,2.741172015666961670e-01
3.145036807194104278e-01,5.930570940583083928e-02,2.714545499568728204e-02,-7.021237713850984018e-04,-1.603814569711353244e-03,-2.332605537342882394e-04,2.727212309837341309e-01
3.211266024327286139e-01,4.300911577528451768e-02,4.839892342546517345e-02,-1.353103240722672990e-02,-1.406490599357423064e-02,-9.806320909639990382e-03,2.780478596687316895e-01
3.271559220859849848e-01,4.361298613800203283e-02,4.827674864734081417e-02,-1.208168868460515006e-03,-1.689823751805138562e-03,-4.193916707521566298e-03,2.813568711280822754e-01
3.164452165386296700e-01,2.992464392361653125e-02,5.932373419004297044e-02,-4.107787058687046439e-03,-2.400508035674185376e-03,-6.153077093696747045e-04,2.731372416019439697e-01
3.286328860863620416e-01,4.060942512869922250e-02,5.716371279871002020e-02,-3.747245397999601768e-03,-3.831154536589361729e-03,-2.483948998754345432e-03,2.803001999855041504e-01
3.329156757830065705e-01,4.439368485018228838e-02,4.809493781394177936e-02,2.566424408632290207e-03,-7.359909457599464380e-04,3.162158184474802170e-03,2.867788970470428467e-01
3.229163225148191652e-01,4.224271652858561932e-02,4.745937082612562696e-02,4.115254032356651694e-04,-8.970641485877571585e-04,-4.820135284931390679e-03,2.782325148582458496e-01
3.291518506832160629e-01,4.507031985436414645e-02,4.809509142781069613e-02,3.550022865619026119e-04,-3.518235204968272480e-04,-1.031930033699138445e-03,2.825882732868194580e-01
3.247222961798305607e-01,3.127537502123835245e-02,6.094718975565807662e-02,2.028109118071355372e-03,4.911780921717515602e-04,7.146868095801596054e-04,2.798196077346801758e-01
3.253920497551286983e-01,3.260879832401411549e-02,6.193116156449249288e-02,1.346580681007711810e-03,1.073364413454031257e-03,-4.028036024271979963e-04,2.792957425117492676e-01
2.641261066206533337e-01,2.988504731615176935e-02,6.175703610174319153e-02,-4.999465623740376174e-02,-4.034483467578665189e-03,4.402021833030062350e-03,2.366945892572402954e-01
3.219485497932763063e-01,5.917450263510755371e-02,3.702552871227919595e-02,1.910752823845600400e-03,-3.209293285499728674e-03,2.653275449479664070e-04,2.745960950851440430e-01
3.072046006857348521e-01,6.082284675154638054e-02,3.438069189841679030e-02,1.150094329611572516e-04,-1.589449043081863971e-03,4.857240403329769404e-03,2.607612311840057373e-01
2.603404856131368850e-01,5.929097497589806004e-02,3.827619715163760317e-02,-6.191256688716688730e-04,-1.427049327408515559e-03,5.901149325294040467e-03,2.126011997461318970e-01
3.105407334144271725e-01,6.140117797519241416e-02,2.906581096615729054e-02,3.772584906463701026e-04,-2.675913691893066527e-03,1.147598956430197735e-03,2.668294906616210938e-01
3.293205242216239448e-01,4.463258037776363096e-02,4.561057493122191997e-02,3.019508061074375902e-05,-9.624292472748118433e-04,-1.287511169375007373e-03,2.842138409614562988e-01
3.289058437600175244e-01,4.330293520245881433e-02,4.523195860626708087e-02,-9.381799485602282255e-04,-8.922777963953419482e-04,-1.055308137601836203e-03,2.846580147743225098e-01
3.328451532458130413e-01,4.214489434604941354e-02,4.476171795946759513e-02,2.153265545567854800e-04,-4.130342212644965420e-05,1.111138783527054015e-03,2.894073724746704102e-01
3.206993297475811411e-01,4.689766130758465934e-02,4.152078815620041663e-02,-1.960561093567371287e-03,-1.671408429521734247e-04,-4.112548804172807063e-03,2.766420245170593262e-01
3.330109905291140926e-01,4.669083139544079331e-02,4.886718644201115680e-02,1.299208878689918399e-03,-6.389865545248747192e-04,1.566295047945921856e-03,2.852621376514434814e-01
3.300070699178562217e-01,4.181850671257972274e-02,4.898533231533536147e-02,-6.319677152365950909e-04,7.184322047377917925e-04,1.114544505293424371e-03,2.846841812133789062e-01
3.328311110632683478e-01,4.257324668636901233e-02,5.037956124764537968e-02,-3.946475629571434849e-05,-7.650247596179091548e-04,9.437405924119597524e-04,2.864422500133514404e-01
3.269187124618577744e-01,4.395959973742256943e-02,4.203983443710186674e-02,-1.786685187894187230e-04,-9.683834363636511199e-04,-3.509422607427458481e-03,2.839940488338470459e-01
3.246433732660577443e-01,4.377570410776893128e-02,4.171837950138825024e-02,4.765247322574216703e-04,2.568048919518958230e-04,-4.226757775765790405e-03,2.819985747337341309e-01
3.547979087076729154e-01,7.130813869127688998e-02,5.871952695599512440e-02,-4.029830361830008642e-04,1.163288917501155732e-03,-7.529870668287082496e-04,2.899998426437377930e-01
3.841141782659259762e-01,6.855167135708709059e-02,6.634215085130579226e-02,-1.088660746569619642e-02,7.167878381660560717e-03,1.071061606531032752e-03,3.174822032451629639e-01
3.457444013618063972e-01,7.018679086685243596e-02,6.046126510118021713e-02,-1.355583485712122047e-03,-1.295545341922397457e-03,2.624709759750823695e-03,2.806024551391601562e-01
4.154336874361101994e-01,5.389624924075236967e-02,5.909997523537663389e-02,4.315279652482054140e-02,3.084626205662837056e-03,-4.367877415177129699e-03,3.667796850204467773e-01
3.381541194981125820e-01,5.003466063775684203e-02,5.640926680569176288e-02,-1.225038752996973797e-02,-3.905892282777683215e-05,-3.487705717377996215e-03,2.858382761478424072e-01
3.263700402241978549e-01,3.736621531830693066e-02,5.654731498810328105e-02,7.117811014440171211e-03,6.069644932832912601e-04,5.161255831048241517e-03,2.803225517272949219e-01
3.275611812728328465e-01,6.182645431535947755e-02,3.494021176863541800e-02,1.509975011016875552e-03,-6.576716033091936121e-03,-1.781917705601934678e-04,2.803910076618194580e-01
3.266411297328057906e-01,4.076687039733402351e-02,5.146306404290568182e-02,2.966445172860186948e-03,-2.659150582671980642e-04,3.911332860601032281e-03,2.808081805706024170e-01
3.284815914671082027e-01,3.946936034289676154e-02,5.013382767243171334e-02,6.898883805960279115e-05,5.140208464647355591e-04,2.269458852467041640e-03,2.838589251041412354e-01
3.025367178235151000e-01,5.477891333286911968e-02,3.181438589528566563e-02,4.572364460874239148e-04,-8.803088534270199191e-04,-5.613283706386360157e-03,2.601892054080963135e-01
3.117202711567028661e-01,4.284800643268828202e-02,4.586178940451954289e-02,4.214947591847621397e-03,-2.604771215255565191e-03,6.625149966518020447e-03,2.677617967128753662e-01
3.323697632039090966e-01,5.260822016101047993e-02,4.950937700287405541e-02,-3.989731475388710868e-03,-2.216360289266717468e-03,-4.040858375814786879e-03,2.815218269824981689e-01
3.273946338926435051e-01,3.848301935323002188e-02,6.458490771184818846e-02,6.606160714252818159e-03,-5.841747894667666122e-04,5.723966978121847009e-03,2.772008776664733887e-01
3.235068600143156115e-01,3.963769626542859581e-02,5.296274955429293441e-02,1.745338114897443046e-03,-2.674172230552032052e-04,5.005964097825314589e-03,2.775990366935729980e-01
3.283435075769984834e-01,5.867636659283463618e-02,3.795295462199037295e-02,2.494813048277505062e-03,-4.881661919824858455e-03,9.341072197226597644e-04,2.807686328887939453e-01
3.191687123821687067e-01,2.937007101632786721e-02,5.846129873943164967e-02,-5.058179941069813543e-03,-1.221689381538817662e-03,-1.247071802345288720e-03,2.765589356422424316e-01
3.339747720477364012e-01,5.957729551566300075e-02,6.078114073218084112e-02,5.372900901198708222e-04,1.091052796364147927e-03,-1.974071610471265375e-04,2.738058567047119141e-01
3.224228443797091948e-01,4.585121288283766638e-02,4.041918325427555636e-02,-2.604362592644572996e-03,-1.803291537224651318e-03,-5.129339275734426731e-03,2.795223593711853027e-01
3.423178570984712898e-01,5.990365160856223059e-02,6.525457944266749299e-02,2.657309386286484305e-04,3.682674680106277866e-04,-4.034831205273213582e-04,2.797791063785552979e-01
2.833604785173004514e-01,4.460400892948267193e-02,5.747080883750306513e-02,-1.578551895124010590e-03,-1.556319933292849922e-03,-8.892601093389733424e-03,2.331311851739883423e-01
3.592508339891604674e-01,5.979649318640534172e-02,7.268736568625135119e-02,2.279129835608419662e-03,-2.789591097532615784e-03,-1.735438079589336378e-03,2.933032810688018799e-01
3.349638521549559989e-01,5.834370145035408517e-02,6.355788679292120880e-02,-9.373597815796814222e-04,1.354672248650017367e-03,-2.416235566765024482e-04,2.740654349327087402e-01
3.315544307681363989e-01,5.352223093211117000e-02,5.309507261218783525e-02,2.021889585056084167e-04,1.798660213696581746e-04,-1.681307457436549734e-03,2.782616615295410156e-01
3.040281215769259360e-01,6.560290647339266090e-02,3.435027501274677542e-02,-1.828359139500966004e-04,-9.768361049868586402e-04,-4.939440831040269389e-03,2.556381821632385254e-01
3.496538319958278906e-01,6.286905755034553900e-02,7.646507665132015741e-02,2.780075001698551363e-03,-5.215233881878269737e-03,-4.714165813539086987e-03,2.805399894714355469e-01
3.383477240090255744e-01,5.999438653387538511e-02,5.889543407676266218e-02,6.308186991840068107e-04,-8.956103835520745670e-04,1.260411355072651313e-03,2.789194285869598389e-01
3.147572264739834091e-01,3.359227151019368585e-02,6.384355953002585071e-02,-4.199174101603437431e-03,2.388804781775462956e-03,2.896330250203186206e-03,2.675041258335113525e-01
1.821295553725162664e-01,4.572472375149758822e-02,4.688150680605690512e-02,-5.588919179326886505e-02,-4.975483417281697379e-02,1.066576548084929334e-02,1.886492371559143066e-01
3.152862093040922353e-01,3.429138045017438019e-02,5.829573632815657214e-02,-3.198282500533744001e-03,2.029709235479492443e-03,4.215492570520362227e-03,2.699732482433319092e-01
3.769366310340920290e-01,5.798643203586473227e-02,4.218471964132847196e-02,2.575086068324774526e-03,9.872410372214890720e-03,8.930823590778782725e-03,3.279793560504913330e-01
3.714014546090286251e-01,6.434909563427233803e-02,7.877463339381125806e-02,-8.262399701244271810e-02,5.338869236942506147e-02,-6.899570024036650109e-03,3.453026115894317627e-01
3.298003592208134660e-01,3.642739161369282219e-02,5.644600376766782668e-02,-3.794416492944322622e-02,7.170054853945252542e-03,5.122647075047421540e-03,2.918008863925933838e-01
3.373674313968956784e-01,4.067032549160304322e-02,5.698219577375369937e-02,-1.926748952080233751e-02,6.991494032892366789e-04,1.160276423044122101e-03,2.908174395561218262e-01
3.152383390505010818e-01,5.525732147441944631e-02,3.823979944045284574e-02,1.206791752497774406e-03,-3.201516293067178769e-03,4.575425012391435252e-03,2.690759599208831787e-01
3.311930036152008761e-01,3.442751823297926506e-02,5.855719856070112916e-02,2.134880964315559286e-03,3.969313518720179036e-04,1.286211589298402388e-03,2.854999899864196777e-01
2.377474722915777217e-01,5.981737762165389299e-02,6.286793006152016638e-02,-1.907054970766113369e-02,-1.661968500848275479e-02,-6.356057973671677165e-03,1.821168214082717896e-01
2.727190896209737980e-01,4.302598540526612891e-02,5.195666438481030824e-02,-7.155787420325085413e-02,1.480869214958381586e-02,3.985410242187110638e-03,2.585623562335968018e-01
2.644602914838937169e-01,6.370645364092202001e-02,6.839588074611854807e-02,-1.052827668847634845e-01,6.114076234706398820e-03,-2.043707551302703651e-03,2.697419822216033936e-01
3.274644406734412150e-01,4.823743306556393939e-02,4.820483414491423535e-02,3.120044246098162884e-03,-1.851344043662287754e-03,4.738059912191652269e-03,2.794345319271087646e-01
3.202256207665701293e-01,4.616655612935270658e-02,4.351537119032963807e-02,2.237983781416053638e-03,-7.800919873740979379e-05,5.246647976925570937e-03,2.755714058876037598e-01
3.237486184338109196e-01,5.247692963624982221e-02,3.813241582144280550e-02,1.111092209606646865e-03,-1.666687059687872296e-03,1.513353820029908611e-03,2.787548303604125977e-01
2.629812796844838707e-01,5.436954831852090775e-02,6.891655258219983593e-02,7.789756150689010859e-03,-8.740555979740674553e-02,-3.026819879270606882e-03,2.526351511478424072e-01
3.030097022968760156e-01,3.349802448738894989e-02,5.700301770524439371e-02,-5.101476956127964923e-02,2.320788109373994601e-02,8.385032513563138792e-03,2.765654027462005615e-01
2.429014421973662852e-01,6.912009819063440197e-02,5.226080900396816442e-02,-4.694825439963526241e-03,2.031223787869914157e-02,8.314057001020284249e-03,1.868830621242523193e-01
3.302435847261084301e-01,3.921536188882995821e-02,5.409407350244962998e-02,2.031480652815306157e-03,5.815777964803650656e-04,1.315940358769436503e-03,2.839141786098480225e-01
3.561007898044490361e-01,5.692502813344235690e-02,6.535590263229713870e-02,2.023320311802881757e-02,-1.677630179472274288e-02,9.128545040623405743e-03,2.989604771137237549e-01
1.961791916130433688e-01,5.310203602541364865e-02,5.849106332403278957e-02,6.347125615013174404e-02,2.076252671194431416e-03,3.553972814082550363e-03,1.785096377134323120e-01
3.102802033833743645e-01,3.224510514293438268e-02,5.720543853791845712e-02,-1.449846565010387035e-02,-6.500587158194834347e-03,-6.279617765449958117e-03,2.680715918540954590e-01
3.332051667923104366e-01,5.568390673099322952e-02,5.243782786644081428e-02,-1.668504228449603095e-05,1.666129931703001993e-03,7.885252074370587309e-04,2.791767120361328125e-01
3.298070885422781928e-01,4.774221215668406071e-02,4.238304504660518612e-02,2.789281701599087972e-04,4.224207515233693714e-04,1.180523399343527810e-03,2.847909629344940186e-01
3.114629255825790421e-01,4.437477221958947837e-02,4.200579808002195825e-02,3.159987517525939590e-03,-3.664288043779418812e-03,5.903049439754193620e-03,2.686060070991516113e-01
3.295638578139078456e-01,4.233214940963733741e-02,5.563656494014697362e-02,-4.846504553337481480e-03,4.230105294323088967e-03,2.184756256137584170e-03,2.810624241828918457e-01
3.165298182784438419e-01,5.743630754466248767e-02,3.695940558133654907e-02,1.319725621683805672e-03,-5.327640429982958767e-03,4.734513239659303777e-03,2.702069580554962158e-01
3.339585258186574257e-01,5.304196488782014773e-02,5.535932240998342468e-02,1.255823367972979656e-03,7.262155130952767683e-04,1.891010415645311723e-04,2.797765433788299561e-01
3.284118050789722743e-01,5.221258489166223649e-02,4.104631909516975874e-02,-8.479658058893513491e-04,3.531662847939595357e-03,2.211908236173691124e-03,2.820444405078887939e-01
2.061358429662332181e-01,4.868613714475243659e-02,4.943291989512756113e-02,-5.903551995626952348e-02,6.701281549249253622e-02,4.125065999187271792e-03,2.205723524093627930e-01
3.156670538564732009e-01,3.782033465339586231e-02,5.260601426093211574e-02,3.586996615524243402e-03,-3.799498802198368174e-03,5.457494252897291884e-03,2.710729241371154785e-01
3.366452790790833149e-01,5.626109355608102658e-02,5.797678722572970067e-02,3.201374794759038328e-02,-2.698278068344904870e-02,5.700116362877405939e-03,2.889524400234222412e-01
3.276395763238301173e-01,4.315524502937780060e-02,4.403825119423862566e-02,4.229727075474614046e-04,-5.155967600481964732e-04,5.663547200810281276e-03,2.842155396938323975e-01
3.321914896484886581e-01,4.431854617621687475e-02,4.714786563425142629e-02,-6.247755035814118616e-04,4.015565079406678511e-06,5.141698700002879331e-04,2.864722013473510742e-01
3.091504763451694560e-01,4.440427177039528439e-02,4.413771582920709979e-02,3.331238067117207012e-03,-6.151930420986146016e-03,7.016850919862211398e-03,2.654349803924560547e-01
3.080057940827802820e-01,5.467420275103494764e-02,3.871097825679915838e-02,1.325087881340439831e-03,-1.097419339468116246e-03,5.953585316741699662e-03,2.618986964225769043e-01
3.328812389784038817e-01,5.016537047728221455e-02,4.747512880798508694e-02,2.237389359389679692e-03,-6.016808794303856638e-04,9.901509648632198912e-04,2.841040492057800293e-01
3.026776004928924957e-01,3.448183329044464396e-02,6.610726599698019124e-02,-1.241562073547082578e-03,-1.647305346713897559e-03,-4.374259655616436274e-03,2.540029585361480713e-01
2.978413995990847329e-01,3.293746371306104093e-02,6.716714128307296749e-02,-2.428641962274626347e-03,-1.697356605388557768e-03,3.325569122982832693e-04,2.496094107627868652e-01
3.874672694820338048e-01,6.537327593916882063e-02,6.600803909655710011e-02,-9.219275647074792746e-02,-5.799131558057012137e-02,-6.683754087440733340e-04,3.730004429817199707e-01
2.726274704862091114e-01,6.188469860882080120e-02,3.942019125103315980e-02,-1.162250274136681109e-03,-2.913174908706685998e-03,-2.959521951710226365e-03,2.229510992765426636e-01
3.250902292688869211e-01,4.840825416627711486e-02,4.018940536332599178e-02,7.611790057143328269e-04,-1.962749589819936125e-04,2.302528605204109350e-03,2.809132039546966553e-01
3.277982777125106884e-01,4.626787661446982169e-02,4.259855901651216081e-02,-6.983902018628082749e-04,4.231519963970683433e-04,1.314245171379348123e-03,2.833955585956573486e-01
3.321710194169529284e-01,4.765561754324859622e-02,4.359357089800086626e-02,1.317293302771155349e-03,3.081574820635677044e-04,1.299270244874308703e-03,2.865864336490631104e-01
2.737494278176905160e-01,6.821424724276861640e-02,4.268690730177880643e-02,-8.285192578107882346e-04,-3.012588171256979589e-03,-5.995870285482462689e-03,2.197276949882507324e-01
3.163552627435868292e-01,3.048711971892870132e-02,6.118820985553381775e-02,-1.557472510283775804e-03,1.366820694288657092e-03,1.257971432455525906e-03,2.718534767627716064e-01
3.308094390645287541e-01,5.907557504891307321e-02,5.734925254564167407e-02,-2.615044223623653194e-04,-9.696364496172751174e-04,1.146037090773670622e-03,2.726139128208160400e-01
3.274817875391264899e-01,5.774048602740994296e-02,5.218020483729902959e-02,-1.075696221133253102e-03,1.020952316726971877e-02,7.483846323125875393e-04,2.731464505195617676e-01
3.350595731881403916e-01,5.721839493556436784e-02,5.322192969209370295e-02,-2.279521082332774777e-03,2.582768884085511005e-03,-2.942510674686398182e-04,2.799248695373535156e-01
3.323679056873221072e-01,5.725650877645284409e-02,5.701084536241431133e-02,5.653837812450499120e-04,1.105117387820983522e-03,6.034799308628612798e-05,2.752427160739898682e-01
2.923453835506281129e-01,5.659178656196060808e-02,4.442167716990783055e-02,-7.002777671404209750e-04,-1.686135454161052363e-03,-9.096449517781112631e-03,2.426010221242904663e-01
3.347361375175085252e-01,6.371170339595724763e-02,6.505110725170494546e-02,1.517782387050426287e-03,1.156594728447041774e-03,1.486570723297340416e-03,2.703896760940551758e-01
3.314553251037606341e-01,5.549591780622871451e-02,5.645291159797934111e-02,-4.984231342309854932e-04,8.262022775105947196e-05,-1.133768061914275415e-03,2.754905521869659424e-01
1.634147594915792978e-01,5.111593610673343530e-02,3.976333196892195554e-02,-7.319786346041402825e-02,-3.524562605253874631e-02,8.124229539493372024e-03,1.844270676374435425e-01
3.316333447839547865e-01,6.145219754743454221e-02,6.118109417617083323e-02,1.324231827576659640e-04,1.306140520553041387e-04,-1.276294509428868259e-04,2.703170776367187500e-01
3.371694310790323001e-01,6.398006950747896215e-02,6.348856393423332745e-02,6.865397275705865769e-04,9.408787056593025024e-04,1.913974423609558599e-03,2.734629809856414795e-01
3.316230935412312619e-01,5.848072102617522805e-02,5.909108820707179022e-02,-3.730112046510175513e-05,-3.107423001117421801e-04,1.117127315797957540e-03,2.728450894355773926e-01
3.259810136496579247e-01,6.103485122173624156e-02,3.148585753617780258e-02,5.852105811416826982e-04,2.046833416340312559e-03,8.104746472400072965e-04,2.809164822101593018e-01
2.813287121348347908e-01,6.374681127906910161e-02,4.776075303223442647e-02,-4.014671185361321816e-03,2.983624070773232152e-03,7.163831171074089635e-03,2.265054881572723389e-01
3.321037553158286970e-01,5.627980099199228481e-02,5.672958701415393989e-02,6.145074781061636311e-04,8.069016924090006374e-05,-4.484968837965982395e-04,2.756025195121765137e-01
3.258388233751774443e-01,5.977760948922374029e-02,3.118816843084970536e-02,7.635509143599376923e-05,2.053590604332734999e-03,5.731612746681848808e-04,2.814713418483734131e-01
2.981408708502804039e-01,3.407388956087789578e-02,6.042487588217097805e-02,-9.376226119120147431e-03,2.650318037209890582e-03,3.889489106496733621e-03,2.525817155838012695e-01
3.320538134826388488e-01,6.206540021378698091e-02,6.271675133181464634e-02,3.050418603246824074e-04,6.506534336172911138e-04,6.789176765289297926e-04,2.696687579154968262e-01
8.760878061193816402e-02,3.559858423689157836e-02,5.039595137514495116e-02,8.651793192457523513e-03,-4.449913905836828248e-02,-6.527202704867076342e-03,9.190920740365982056e-02
2.384524649121457784e-01,4.497735518617108907e-02,5.193645056914319991e-02,-5.527558691735322272e-02,-8.232589388906280670e-02,4.642112248604905213e-03,2.563164234161376953e-01
2.326445550415463803e-01,4.269098549105354579e-02,6.524991614692732256e-02,-1.575236264960031690e-02,-9.705180438410919430e-03,-6.029477813390538184e-03,1.828719824552536011e-01
3.296154654774951509e-01,4.616219412637555253e-02,4.470752237883238167e-02,-9.538070788329133798e-04,1.150166269068571669e-03,2.934457811548935383e-03,2.842406332492828369e-01
3.289054192344009753e-01,4.553257282435427267e-02,4.497180590900179409e-02,-1.474300862351308420e-03,1.382134039981312889e-03,3.955048840641976239e-03,2.837579548358917236e-01
3.293595474079843433e-01,4.850016549153102208e-02,4.696941345675061108e-02,-1.010344361843994046e-03,1.058075888673192444e-03,2.490596974711256888e-03,2.816722989082336426e-01
3.321629097855892665e-01,4.807538955692149119e-02,4.271021744556605104e-02,-4.594107759029880124e-04,-5.324209019957005850e-05,1.391891273916904485e-03,2.868189811706542969e-01
3.323216533787027860e-01,4.775746357692776944e-02,4.378217220045760305e-02,-1.805930611455613217e-04,8.641095413201560483e-05,3.623999360432991431e-04,2.865734100341796875e-01
3.334174755767934650e-01,4.721129477072218139e-02,4.383741670648731714e-02,4.034453864729371745e-08,3.272489601864607043e-04,2.188253580415261347e-04,2.879087626934051514e-01
3.309871498114242416e-01,4.507302242586293251e-02,4.454777762974726496e-02,9.056661696357525329e-05,4.253076454876327309e-04,1.463776350850731029e-03,2.861893475055694580e-01
3.326038059537296254e-01,4.700798531679584169e-02,4.349113331943900429e-02,-2.378793460044910401e-04,-7.703849474600385277e-05,8.876362510411708426e-09,2.873707115650177002e-01
3.049451479131636278e-01,5.311772486647302338e-02,4.595925162769876060e-02,-4.787879945714247919e-05,-1.888128516188619611e-03,1.006906098469151009e-02,2.560973465442657471e-01
2.035496174547809789e-01,7.750766361212750588e-02,8.072298168967753651e-02,3.038590636684926696e-02,4.060190598048685207e-03,1.213508416493717240e-02,1.369408369064331055e-01
3.370867674762945132e-01,4.802475342454698426e-02,6.213631269139319180e-02,6.949113556478422188e-03,5.301019548215277774e-04,-8.741505830052225196e-04,2.825329601764678955e-01
3.432569550812810677e-01,5.979565227327814092e-02,7.203480656630444068e-02,7.279989813030475195e-05,-6.442437524237513069e-04,-7.258773005502592570e-04,2.775493264198303223e-01
3.247054094457991757e-01,3.455131914594498921e-02,5.550630168389246444e-02,-5.548015062760511956e-04,3.861879650897903854e-04,2.727514251480153001e-03,2.803070247173309326e-01
3.444243230825769775e-01,5.735994404090348497e-02,6.664754503536515773e-02,2.442049731151719853e-03,4.270279157449505779e-03,1.136486341381895545e-03,2.826703786849975586e-01
3.556538419158185582e-01,5.963595132042219527e-02,7.476460317913261044e-02,3.558356904454940562e-03,-7.893599373162674647e-05,-9.127146346845525435e-04,2.888210713863372803e-01
2.954855092173053754e-01,4.892564287551075253e-02,6.157470643419736545e-02,8.884397414672305648e-03,-1.127401879222569413e-03,9.145089184620364478e-03,2.415047138929367065e-01
3.303080093010692386e-01,4.236130296238278803e-02,5.516662101481657754e-02,1.430254974802067786e-03,-1.123914788572413694e-03,1.886680490319849780e-03,2.817989289760589600e-01
2.896128519795605483e-01,4.840715210383443601e-02,6.405117695841928971e-02,1.068972663630808964e-02,-2.805347406180389806e-03,1.100446672328030465e-02,2.353321313858032227e-01
1.766252812858689347e-01,7.489632707437368642e-02,6.761967802598285726e-02,-1.229384434716585244e-03,-3.425830628978474013e-02,5.390159337791557148e-03,1.214683726429939270e-01
2.755416657541250869e-01,5.010450110323756701e-02,6.388043865241417596e-02,2.004281786962014335e-03,-7.425454160967814334e-04,5.407993124739086076e-03,2.191061973571777344e-01
3.060657742221307709e-01,3.622608914886409071e-02,6.058261211751772568e-02,5.275696894426542020e-04,5.064806838954064678e-04,5.826518385712065734e-03,2.587233781814575195e-01
3.343748672714474957e-01,3.491700259761675029e-02,6.094982160450397590e-02,1.578968679309346312e-02,2.837691492079136811e-03,4.939644399466850203e-03,2.887945473194122314e-01
3.716690414749721505e-01,5.753722170275514525e-02,6.295774411108069624e-02,1.318259105230850173e-02,7.506310756988833141e-03,-1.671785296476658612e-03,3.125766813755035400e-01
2.258108239526686600e-01,4.205796593057384292e-02,6.507237340022259398e-02,-4.386283187075770001e-02,1.114985090999619753e-02,6.700549536827719518e-03,1.906444430351257324e-01
2.785601552404873837e-01,3.184798698425858610e-02,6.404618340348554317e-02,-9.477962457529664694e-03,2.340000400144474804e-04,2.149664422272680279e-03,2.329022437334060669e-01
3.751444732485949007e-01,5.896048841662460127e-02,6.867907774925915976e-02,1.018920146453276832e-02,-1.738447118196298621e-03,-1.581663751826953854e-03,3.119646310806274414e-01
3.286466326263514093e-01,4.244282741751490007e-02,5.730720612914791401e-02,-1.470315304887232031e-03,-1.914951974782212708e-04,-6.657737377963697176e-04,2.790828645229339600e-01
3.143243336972941226e-01,5.659322877312626676e-02,3.727898868666888743e-02,-2.315998966057642404e-03,-7.747042783160184264e-03,-7.665330161738394092e-03,2.686050236225128174e-01
3.509779917672187777e-01,3.590556685474929899e-02,5.406186608901270008e-02,4.632296704968864864e-02,7.616481079690779615e-03,-3.254752672695536073e-03,3.170536160469055176e-01
2.726960910214873968e-01,4.403859963149116263e-02,6.851771328817363171e-02,-2.910069541494619914e-03,-1.433567619896881614e-03,-6.377163777748520029e-03,2.178066074848175049e-01
3.215244269163369806e-01,2.875940442539033637e-02,6.034377829418596795e-02,-3.756774304222113697e-03,9.115099466064401686e-04,-6.620137751955248832e-04,2.784030735492706299e-01
3.393452866155942660e-01,5.890142509120875614e-02,5.041851654210750822e-02,6.381618123738809923e-04,9.509834067009420577e-03,1.968459461959676769e-03,2.852785587310791016e-01
2.369410201912142411e-01,7.048742897431076182e-02,5.606628363775345569e-02,-1.703521146349375051e-03,-3.652357869365496432e-03,-5.045072685853677075e-03,1.744714975357055664e-01
2.828253412793544364e-01,4.281663044726909118e-02,5.460164102407694120e-02,-1.540231582634487510e-03,-1.646478913638971383e-03,-7.428694788293163827e-03,2.347240298986434937e-01
3.280873561549294548e-01,5.936055547073873506e-02,3.306532075842964769e-02,3.651384114189723355e-04,1.738362469208005155e-03,-4.584036678414337069e-04,2.828106582164764404e-01
2.714608803627800437e-01,3.962002804302984516e-02,6.243251470561200084e-02,-2.793070216493411233e-03,-1.650852246782484167e-03,-3.050753903389544826e-03,2.214525341987609863e-01
3.124711017493582155e-01,3.018117175203799407e-02,6.224293544670925216e-02,-4.035996125059321434e-03,-3.056647123727388479e-04,-1.560647667943749432e-03,2.678083181381225586e-01
3.325939632916743438e-01,5.826710308894696155e-02,6.182209426638946015e-02,5.157949981287703652e-04,3.249190695141814227e-04,3.495960439704791996e-04,2.725694775581359863e-01
3.161579847985817593e-01,3.191931507587919548e-02,5.788194452562996084e-02,-4.609421348860208564e-04,-2.489614415030672501e-04,9.605817790813654580e-04,2.721942067146301270e-01
3.474596980254206491e-01,7.137869173494719444e-02,5.777750950570774424e-02,1.146297492146661212e-03,3.182783130032471562e-03,1.263350563183844068e-04,2.831874191761016846e-01
3.771736453294430857e-01,6.578718514905694537e-02,6.891928018782005061e-02,6.586269101536547030e-03,1.499882852040307086e-04,-2.683524690265642887e-03,3.100771605968475342e-01
3.306455894029838305e-01,4.499840846271553618e-02,5.503598318965653713e-02,4.217298239057015903e-03,1.474852565807702361e-03,-8.701694423613034676e-03,2.812737226486206055e-01
3.890109107206579653e-01,7.244037760296187511e-02,7.117970668653958444e-02,-4.505338107732701457e-03,-7.556452541800390971e-04,-1.794508968894877087e-03,3.173166513442993164e-01
3.437071091618074115e-01,5.877571062294439930e-02,6.402147407373595667e-02,3.605472531579393541e-03,-2.169307099294574825e-03,5.748068540522999897e-04,2.824408710002899170e-01
3.403092897306103093e-01,6.656430115893671728e-02,6.253543475180291245e-02,5.889600369735549946e-04,5.910103100976365825e-04,-8.896606713222171255e-04,2.757895886898040771e-01
3.423494237254047778e-01,7.233857734791925009e-02,6.314412174683266266e-02,-1.971245461996834827e-03,4.562172569820647020e-03,-5.296702909711125361e-03,2.750113904476165771e-01
3.186612009264849776e-01,6.229690098238924167e-02,3.184383206582330761e-02,-2.948877052788254375e-04,-2.754832609958143049e-03,-1.450718939329324322e-04,2.729106247425079346e-01
3.651565009858936950e-01,6.472293636011773599e-02,5.955605232034402730e-02,8.078819869930271153e-03,3.673827749428771380e-03,1.211890107285371531e-03,3.034469187259674072e-01
1.894363233697137494e-01,7.167973922527295927e-02,7.347311067697431808e-02,-1.751252371419529915e-03,-4.238271589354689994e-04,3.253366685522696491e-03,1.170476004481315613e-01
3.575902901852804350e-01,6.017167036491420651e-02,6.015968238709608340e-02,-1.887866742500375183e-03,-4.331664120382316789e-03,-2.090428332844233156e-03,2.975592315196990967e-01
2.036460499982151451e-01,6.973372085001555698e-02,6.299901678810088113e-02,-6.098064548897387006e-03,-1.696123051452738326e-02,-1.271689331895604425e-03,1.409226357936859131e-01
3.335514105288438502e-01,4.118680669900025293e-02,5.199245972393433390e-02,7.070528539694802056e-04,5.537519123483938864e-04,-1.257469357698965491e-03,2.871268093585968018e-01
3.787819102921100578e-01,7.006830624691623433e-02,6.084222762267627038e-02,-7.071381788203513806e-04,-4.008137890571837787e-03,-1.550837972743548043e-04,3.135078847408294678e-01
1.037896791431786592e-01,3.809420791422860053e-02,3.309822164848232051e-02,-2.691865037576798500e-02,-3.876791022226639132e-04,4.639475920973193217e-03,8.311398327350616455e-02
4.817073468369359457e-01,6.675653227245037513e-02,6.268683859536672287e-02,1.948988909977867473e-02,-2.702758555300468352e-02,-1.071868037329960430e-02,4.213848412036895752e-01
3.057611918212507218e-01,3.588049712566120097e-02,6.559204951592331745e-02,2.267508581944551686e-03,1.302325766633978532e-03,1.864967659976990086e-03,2.563800811767578125e-01
3.107371619673858221e-01,6.257819305123539511e-02,4.770001340034110693e-02,-1.646488814587988153e-02,3.636759305884419008e-02,1.531542030707160398e-02,2.664228975772857666e-01
2.377409203583856767e-01,6.875841048251221665e-02,5.140811377838230833e-02,-1.038183563121012525e-03,1.801009849624778461e-02,8.165085557307877676e-03,1.815608739852905273e-01
3.358866562512518028e-01,3.804064786112024144e-02,6.126760910062405141e-02,3.889345537382251326e-03,-6.593417321220203719e-04,-1.145094545890433264e-03,2.870266437530517578e-01
2.496954670097471241e-01,6.966864379511090999e-02,5.247578930911021844e-02,8.810861755268236534e-03,2.108001199694316263e-02,-2.874123347643516100e-03,1.933680474758148193e-01
2.645091616571496607e-01,5.083905395994686716e-02,6.016724491396460706e-02,2.119851686900328658e-02,5.590358721375552307e-03,-7.832940876753288068e-03,2.130134403705596924e-01
3.426584207991260622e-01,5.838061181501187635e-02,5.495204439652501271e-02,3.977763078247900392e-04,-6.486299504950379961e-04,-1.889658186071505866e-03,2.860292792320251465e-01
4.095403922189591039e-01,4.651149265756461537e-02,5.343424248535205701e-02,5.976446191379405914e-02,2.834530745809566050e-03,-8.413435328368025837e-03,3.745351433753967285e-01
3.200532324760705372e-01,3.138123913465788728e-02,6.026154381391968240e-02,4.441387281041480001e-04,1.407290328750967698e-04,3.883602522651502585e-04,2.753720283508300781e-01
3.055696243397324485e-01,3.620499392888158752e-02,6.086232055703716393e-02,4.530982524563095782e-04,3.798508122415303182e-04,5.747354253143223922e-03,2.581155300140380859e-01
3.263809868474800702e-01,3.172446885054668042e-02,6.045341616704259791e-02,6.718255938660600869e-03,-5.879422170340066955e-04,2.591227450858172177e-03,2.816722095012664795e-01
3.271885189669704319e-01,3.386401600622636343e-02,5.903446103374936083e-02,1.626681566421579121e-04,7.161201221971320733e-04,-4.555081479313230920e-04,2.815882563591003418e-01
2.508118710426061604e-01,4.636293304585653585e-02,5.421320303209918590e-02,1.944679763997078431e-03,3.448217020610591199e-04,1.014657036890805920e-02,2.014362812042236328e-01
3.231881379775555230e-01,3.498795089003493841e-02,5.748709805497523306e-02,2.865072167388784449e-03,8.872616807156919047e-04,-2.923010201259445065e-03,2.777299284934997559e-01
3.130528375964112264e-01,5.243660127393212633e-02,4.439060758791706085e-02,2.707244330245341113e-02,2.317647551788203086e-02,-9.939904224897589541e-03,2.723767161369323730e-01
3.203877367154984723e-01,3.251456266477081858e-02,6.214763191738668924e-02,5.382011642857113158e-04,3.673672859733866894e-04,1.321042728425584961e-03,2.742718160152435303e-01
3.322255257761446701e-01,5.069949173514590179e-02,4.395926470265945629e-02,8.653672673573602550e-03,2.479734417152916481e-02,-9.009277315606573425e-03,2.889857590198516846e-01
3.753014521541345738e-01,6.350853114020187096e-02,5.946153041032688213e-02,3.124440210078339650e-02,2.655143274987455115e-02,-4.889922614385096289e-03,3.218824863433837891e-01
2.314080249940986822e-01,5.797096376033026438e-02,6.675772946227716276e-02,-5.874191968097942917e-03,7.211018661613739777e-02,4.545917394882288340e-03,2.107102870941162109e-01
3.060915317353776199e-01,3.887082321688213604e-02,5.806072027116940260e-02,3.562954352763662911e-04,3.395075261739615119e-04,5.786306885675590768e-03,2.583571076393127441e-01
3.260073708206346899e-01,5.292948520055207329e-02,3.464334423350413916e-02,3.311121991127807850e-04,4.569994186535942474e-04,2.941397153793514924e-03,2.827125191688537598e-01
3.416230842805785539e-02,6.129428295889500361e-02,5.095808692975331566e-02,3.684537078396556142e-02,-1.584942367616121867e-02,1.011428330539080635e-02,7.547047734260559082e-02
1.705435375200902437e-01,7.122566647801792383e-02,6.602906666804558844e-02,4.671735040308856723e-03,-3.468163799357344007e-02,5.564120630328968364e-03,1.190544441342353821e-01
2.855928741978479568e-01,3.567603456490373026e-02,6.751855730334113681e-02,1.255355079646538335e-02,-1.264247123998294298e-03,2.323408291391344544e-03,2.366604208946228027e-01
3.121099226106343050e-01,2.769724570932673158e-02,6.164231092159970504e-02,-2.673259825241509555e-03,-3.274045121611012335e-04,-5.587421850461385528e-04,2.690931558609008789e-01
3.256859479674220070e-01,5.732576076712408986e-02,3.242107727030948960e-02,-1.008371244064914057e-05,1.323404806607212259e-03,1.077583889484970501e-03,2.816551029682159424e-01
3.498356828022696763e-01,6.393844534394993451e-02,6.231100197004024732e-02,-3.513936321392060590e-03,-3.035332730755083575e-03,1.473627612033456390e-03,2.868385612964630127e-01
3.184848591806486162e-01,3.999686727754581117e-02,6.298229721392259450e-02,9.389257226787850463e-03,7.599693196045968768e-03,-6.267633972947377063e-03,2.687718570232391357e-01
3.251594147563351411e-01,4.072755346012491007e-02,4.445250655416783936e-02,-6.684152525179470124e-05,-6.135832435065092377e-04,-2.596815348174567883e-03,2.826256155967712402e-01
1.587410140559840643e-01,6.102661634195152840e-02,6.906788033330608922e-02,-2.654877625973540295e-02,-5.955272682200233973e-03,-1.613047977226333540e-03,1.051462441682815552e-01
3.225345508238907088e-01,4.787058137997075857e-02,3.409314900293790307e-02,-1.175626670166231465e-02,-5.451324075630629290e-02,-9.268807197710456081e-03,2.983315587043762207e-01
3.437403663160164546e-01,5.751526606071569181e-02,4.353169795381457707e-02,1.200984513323758926e-02,-2.148269339008010079e-02,-1.683982266862115731e-04,2.965469658374786377e-01
2.637235610730704338e-01,5.534307477915309526e-02,5.658589640427005851e-02,-2.286379041358851082e-03,-2.431597000874106962e-03,-7.982823302935516951e-03,2.083016782999038696e-01
3.213182222724707549e-01,3.200676023353729582e-02,5.910627788705838381e-02,2.397720859661312616e-04,4.180109117018772054e-04,1.738027186116981263e-03,2.767761945724487305e-01
1.736752353300026197e-01,4.565318399548671385e-02,4.730952766703191287e-02,-6.982691705609439525e-02,-4.677348097610316974e-02,2.836300075168444535e-04,1.933164596557617188e-01
3.610901570742510724e-01,6.273988717328772557e-02,4.508244463670435520e-02,-1.494095022251690913e-02,-7.326318812042813267e-02,-6.983533615102484673e-04,3.337160646915435791e-01
3.992478181736744958e-01,6.928199652577722578e-02,6.771144668706639835e-02,3.176908348725011877e-02,3.354518688113921482e-02,-4.562342274825372142e-03,3.403883874416351318e-01
1.910001391387396719e-01,7.351315329860366732e-02,6.869969703518552517e-02,-3.220307468144053848e-03,-4.488424284405140470e-03,-1.463828243211801961e-03,1.203738227486610413e-01
3.546889627845937754e-01,6.392344173381697692e-02,6.962597855916805023e-02,3.465846299978086065e-03,5.384620991385463858e-03,1.725948788823271666e-04,2.881702780723571777e-01
3.473609927039872369e-01,6.256040767101861411e-02,5.805170643805873665e-02,1.049070265821695341e-04,4.023712115720165256e-04,-3.369572445942996139e-05,2.870824038982391357e-01
3.047260209918918328e-01,3.959019027239002453e-02,6.070925643521189741e-02,3.546551668798341578e-02,7.547965518687100445e-03,-1.061422251101490702e-02,2.634879648685455322e-01
3.361702109376575320e-01,4.070435100979187537e-02,5.752694964766176533e-02,1.913988054466009324e-03,-1.210697003138886665e-03,-9.037115237737514432e-04,2.874550521373748779e-01
3.422859679225473406e-01,5.498054153738728134e-02,5.582206750471886691e-02,4.547783409122230572e-03,1.382907159075660473e-03,-9.495279638809990281e-04,2.870084047317504883e-01
2.856875914315288867e-01,4.656351666531041711e-02,6.048358938934521312e-02,-2.425623467368019735e-03,-5.485805479866510742e-04,7.806561937550397616e-03,2.329095304012298584e-01
3.279233228941234035e-01,5.687056823728851851e-02,4.199515665488152971e-02,1.125538842531957108e-03,1.207349174764500753e-03,1.245856378559972912e-03,2.788112759590148926e-01
3.345093567959959713e-01,4.641253391877318835e-02,5.790020873459893191e-02,-8.899534838009422882e-03,2.922284839093766944e-03,5.156879735340903249e-03,2.831345796585083008e-01
1.443758994455471290e-01,5.151627189011030727e-02,4.898278304863928900e-02,3.769673382756588698e-02,3.460041064588905563e-02,1.269030195259501261e-02,1.311579793691635132e-01
2.849742761199632879e-01,4.893990407289268429e-02,5.376239820106779033e-02,-5.290159206026747579e-02,6.766415376418086214e-02,5.030975382488003106e-03,2.771356701850891113e-01
3.366750340621241788e-01,5.059854672172914292e-02,5.582360611641713766e-02,6.467404033429656994e-03,2.000053269126981018e-03,-8.109288814249496148e-05,2.837424874305725098e-01
2.732663804459981582e-01,3.079254710115492122e-02,5.161768090458379588e-02,3.785642383773830943e-02,1.104205821674534606e-02,-4.351992561531525111e-03,2.426924407482147217e-01
3.044905335809056091e-01,3.243068818881918169e-02,6.227911460964799528e-02,-1.877784901647494217e-02,4.149088396369559131e-03,1.221854622594284153e-03,2.605779767036437988e-01
1.811000392895377731e-01,7.422862031093646618e-02,7.149645573049374925e-02,-8.921321924336675412e-04,-2.790230641121688171e-03,2.083997201572846281e-03,1.084422841668128967e-01
7.778345877316253376e-02,5.827866065176443011e-02,3.565818070196358214e-02,2.525251119390667376e-02,-3.509345794626761439e-02,1.128095192820420534e-02,8.557353913784027100e-02
3.372935999749560043e-01,5.532692366020172670e-02,4.566546842231532233e-02,3.246916453116696806e-03,1.657218705529574015e-03,-1.775490866649510413e-03,2.870053648948669434e-01
3.252395365110853920e-01,3.147126673083341930e-02,5.822546838762310273e-02,2.318203726345716229e-03,1.476968621272413667e-03,-7.765618907471082827e-04,2.813903391361236572e-01
2.835364760302151454e-01,3.790061259210625311e-02,6.262981248411854385e-02,9.222133274776177919e-03,-1.239599201041477602e-03,4.280265132560977931e-03,2.349230647087097168e-01
3.985297685567628090e-01,6.873307319287115524e-02,4.118199094013164085e-02,2.422609632623955525e-02,3.329948368026743044e-02,-5.089261620449420445e-03,3.518183529376983643e-01
2.997560028244003472e-01,5.890169098735591191e-02,4.909682160763391423e-02,5.824892226918419041e-02,5.011192107562958270e-02,4.010400569476337516e-03,2.796947658061981201e-01
3.295007306786368328e-01,3.267756773322536001e-02,6.055878019078393681e-02,2.704358522399047220e-03,-8.616969469211350477e-04,-9.105404336362153076e-04,2.839581370353698730e-01
2.761627081508262194e-01,7.187142842092353323e-02,4.718930296379537925e-02,1.109681055564066101e-03,2.328341372100853866e-03,-3.249734610718881065e-03,2.178029268980026245e-01
3.292533884626364094e-01,3.549554357842849006e-02,5.532947602579733892e-02,1.336825475554270478e-03,9.081324887039328702e-04,-1.093227165944715869e-03,2.843801975250244141e-01
3.764316899350462764e-01,7.842680657821639312e-02,6.482637306695934742e-02,-2.641788859605666284e-02,6.917875868146960983e-02,-4.165150909650251775e-04,3.309021294116973877e-01
3.372333354636992686e-01,4.189999358128713991e-02,5.254730497885569396e-02,1.064486233230784850e-03,-9.236676074838645134e-04,-1.239202676825632444e-03,2.901744544506072998e-01
2.601824759424415934e-01,6.418367546899472753e-02,3.452016876135374779e-02,2.708068663783497025e-03,3.478474326063350774e-02,5.343605368598492193e-04,2.208217829465866089e-01
3.102085856257823515e-01,2.866280867014246725e-02,6.319359249495898334e-02,-8.036789081227528305e-04,-1.425751714810935761e-04,3.452164549285781082e-06,2.659706771373748779e-01
3.507612998488274236e-01,5.963694201975816567e-02,7.451495381323747225e-02,-4.783200994851485410e-04,-3.484351663538314253e-03,-8.466151988114926538e-07,2.840431332588195801e-01
2.973680094337537438e-01,3.354556786570148108e-02,6.226970202157892931e-02,-2.053374863068618047e-03,-6.008616987606614805e-04,1.668773922197165334e-03,2.507416307926177979e-01
1.618719404546460350e-01,7.176994092542393622e-02,7.516197293292918580e-02,5.044601547419750275e-03,2.714866985846095884e-02,4.879485457980009197e-03,1.009116992354393005e-01
3.267036932277854744e-01,6.305810203274576919e-02,4.565300322071358385e-02,1.709863561325795922e-02,4.381705369046980797e-02,-3.095718591838603640e-03,2.847215533256530762e-01
3.211424657660933435e-01,6.006062303205179920e-02,3.034928063750259863e-02,5.392793943400830872e-04,-5.766427275493830028e-05,7.689549635113318874e-04,2.771393954753875732e-01
2.590664499302542945e-01,5.738542681597080808e-02,6.630747700368520847e-02,-3.085222734527905391e-03,7.499620832752975329e-04,6.857556013158475072e-03,1.978048384189605713e-01
2.710891825509090802e-01,4.306845937647980904e-02,6.517034373557828442e-02,-3.754886154006324868e-03,-4.058919118566943940e-04,3.434349341510131975e-03,2.179918140172958374e-01
3.312919993874388624e-01,6.118326572015662934e-02,3.387874501568334529e-02,1.557858652863848559e-03,3.278124463896428965e-03,8.744365979537799434e-04,2.848179638385772705e-01
3.245156003079296969e-01,5.602620328362203916e-02,4.572193642217034504e-02,-2.761222861705434767e-02,4.367270440291227268e-02,8.636765767375081254e-03,2.884307801723480225e-01
1.775851632367582422e-01,7.434941014475347776e-02,6.980421243742115922e-02,5.452921631570008948e-02,8.065875540116038134e-02,1.335408211306601811e-02,2.003005594015121460e-01
3.511567870133205371e-01,6.286332416045356530e-02,4.932017973222518892e-02,3.232661872844083423e-03,2.129792346771713224e-02,3.401888577622866252e-03,2.977042198181152344e-01
3.210917829424973502e-01,4.607802750572960460e-02,3.763135938559752924e-02,-2.332971469240928755e-03,-1.700111706348456965e-03,-2.587847348097210669e-03,2.794135808944702148e-01
3.363148448515727029e-01,4.550238712802050223e-02,5.393308712189719134e-02,6.535840638496768704e-04,-8.051690187850396065e-04,-9.317209231880676894e-04,2.867002487182617188e-01
3.282493857362110967e-01,4.408423832198531123e-02,4.211184318389517289e-02,-1.064248550749215391e-03,-8.456293922925369193e-05,-1.080948575238342832e-03,2.851685881614685059e-01
2.755894664328650823e-01,6.434831582274436190e-02,4.696948755062578529e-02,9.489815722225899497e-04,3.206579544144826620e-03,6.740306378953379689e-03,2.208298295736312866e-01
2.888500326265980855e-01,6.017569081124983510e-02,4.485729888405814991e-02,2.459177672370463328e-05,-1.111542031795448738e-03,7.038008050330647747e-03,2.370270937681198120e-01
3.263397876219513716e-01,4.633850194571663417e-02,4.108327405978952351e-02,-7.288343653483932844e-04,3.286159758716579882e-04,-9.178133489952313307e-04,2.826733887195587158e-01
2.289678727853219353e-01,5.345225896896206585e-02,7.058128582656160444e-02,-4.491826097560759797e-03,-1.274716423966634543e-03,3.758264625057500426e-03,1.679300516843795776e-01
3.261199034888176973e-01,4.524223283808306850e-02,3.868140194727195946e-02,-1.632310883094256673e-03,-3.480544446348472635e-04,-2.156791475398122694e-03,2.842541337013244629e-01
3.235019610792718159e-01,4.829990781328256932e-02,3.782178070361942590e-02,-5.359356847236205687e-03,-3.877385801606703011e-03,-5.306159492100921173e-03,2.809720635414123535e-01
3.403030442489012319e-01,6.480449798366329228e-02,5.862114085974649835e-02,1.156034809988517893e-03,-2.075612225911559541e-03,4.601986107966531516e-04,2.786732017993927002e-01
2.514596135927008036e-01,5.279093517158978816e-02,3.837631346587096204e-02,-5.777430139068152025e-03,-1.485787807171558457e-02,-9.237059499228034501e-03,2.087082564830780029e-01
3.478514404865714615e-01,6.306800025437687973e-02,6.875962917816255682e-02,2.783107463900680073e-04,-3.012902983227415746e-03,-9.057490523092027231e-04,2.820337712764739990e-01
3.465215260241498729e-01,6.002861620127880604e-02,5.621903202282575729e-02,2.410926956872313891e-04,1.492793807155506566e-02,-3.634565334792656029e-05,2.895735204219818115e-01
1.714026894101892962e-01,5.823769542401192184e-02,7.158580844071728289e-02,2.631384731015213923e-04,8.880706553756339975e-04,-7.817213554175429227e-04,1.071370914578437805e-01
1.472232412991660300e-01,7.368632026152949210e-02,6.293088648233993720e-02,9.303673754417102204e-02,2.262605911897105568e-02,5.533907967937796123e-03,1.841452419757843018e-01
3.090964951564010299e-01,3.526155315811232982e-02,6.013351701702163155e-02,1.660021058931158804e-03,9.227737817548357750e-04,-1.615976013369149734e-04,2.623057067394256592e-01
3.328142914336542635e-01,4.226211375811772530e-02,5.232233033160682556e-02,4.691174950163409752e-04,8.116496761881063834e-04,-1.541172281768220459e-03,2.856720387935638428e-01
2.782161777524717605e-01,4.460111226799193251e-02,7.362724984992929933e-02,2.421020168088667407e-03,1.225222315763835421e-03,-3.913355306210695127e-03,2.206934541463851929e-01
3.373060744604948757e-01,5.639372734263650710e-02,5.522809223857019778e-02,-1.373108699889159920e-03,2.080201919549865344e-03,-1.432318636529574299e-04,2.815302014350891113e-01
3.361207517583579274e-01,5.986614808021917256e-02,5.061222202833738637e-02,-6.764271052758208912e-04,4.452021519134085129e-03,2.093290206442718210e-03,2.811274826526641846e-01
3.460546805085211175e-01,6.059120357341975238e-02,5.577305367803522818e-02,8.661510190130687972e-03,8.207441892237756983e-03,-2.436020695776952387e-04,2.886439859867095947e-01
3.556190168207666868e-01,5.197987962449333865e-02,6.952098460266115110e-02,-2.144991373749001451e-02,1.264722556591405325e-02,3.173942837448693634e-03,2.984436750411987305e-01
3.499680358615452347e-01,6.170445074919693462e-02,7.294740841612205873e-02,1.803769676269845884e-03,-1.094625073191224677e-03,-2.249511933647047306e-03,2.828602194786071777e-01
1.679114355003854531e-01,6.987139379402400319e-02,6.267790837563262663e-02,4.145374224765962200e-03,1.545275802000280370e-02,-1.035061480594042091e-03,1.055460795760154724e-01
3.841156974374675404e-01,5.963583721864905429e-02,6.514162326040613682e-02,5.528013763302496754e-03,1.766428858178448018e-03,-2.619081050437326291e-03,3.219512403011322021e-01
3.313764913950174584e-01,3.775538482572163290e-02,5.614491332428760140e-02,-6.772413475125512632e-04,-4.010928793405364495e-04,-5.292013483074855867e-04,2.848765850067138672e-01
3.482046005217908080e-01,5.911500274416066347e-02,6.915070825493113693e-02,-2.242685184562950330e-03,-1.620012620489372224e-03,-1.241165564479880610e-03,2.842531800270080566e-01
3.270446393492787429e-01,5.137100185492460280e-02,6.387108811812935993e-02,-3.765831823072963297e-02,1.701882788612050015e-02,4.966886305728195582e-03,2.791122496128082275e-01
2.709621462292443050e-01,5.551583903543351461e-02,5.688832785252131985e-02,7.269152148297394755e-02,4.392691084497045428e-02,3.792674364012867160e-04,2.603164017200469971e-01
3.187152075734496770e-01,3.494914287064768144e-02,5.527666139297131298e-02,1.362086061124381201e-04,5.980682418639402193e-04,2.710755623551772305e-03,2.742103338241577148e-01
3.257151534062873166e-01,3.809914477263463828e-02,5.337769284519440494e-02,-2.688647663444859986e-03,6.358138835546342342e-03,2.908934584629525085e-03,2.805893719196319580e-01
3.420594921374991992e-01,5.712194318575179730e-02,6.793507628368880558e-02,3.334091971503337810e-03,6.460939952442274967e-03,-1.249238624832859452e-04,2.799712419509887695e-01
3.576022990224119735e-01,6.172144566747926608e-02,5.770765414649767222e-02,-2.064198291998208326e-03,2.017340428684069424e-03,-4.046237749141205070e-04,2.979508042335510254e-01
3.521618191253158558e-01,5.943149670557952569e-02,7.532018072786868246e-02,1.699846210593042436e-03,-1.420056074305717665e-03,-1.209026549661679217e-03,2.851517200469970703e-01
3.080754709752135945e-01,3.513909379523037779e-02,6.155937602691421984e-02,-2.138637166714026355e-03,-7.853565307944050319e-04,5.273247229322841102e-03,2.609218955039978027e-01
3.441092691082903166e-01,5.979697988767328221e-02,5.300393045531609504e-02,1.870198765535828131e-02,-1.131228576735376565e-02,5.990105341936549296e-03,2.904338240623474121e-01
3.185406012803837505e-01,3.912812301656351521e-02,5.145514581644686225e-02,-1.322686957702531429e-03,6.696289506649914097e-04,6.893477107887163030e-03,2.737300097942352295e-01
2.950779973696705527e-01,4.870170678157349775e-02,4.005408909369712056e-02,5.516666270153029739e-02,-4.002585232857386321e-02,7.299191260876374335e-03,2.774936854839324951e-01
2.916278388437498759e-01,6.020536389853911596e-02,4.973516831104073110e-02,-7.898076796338672056e-04,3.770755334530235311e-03,7.915035386646764037e-03,2.373215109109878540e-01
3.556047436727812761e-01,6.414825718599627413e-02,5.076466048289660082e-02,1.663308972452719322e-03,-1.459463485816869625e-02,4.902427758742647704e-03,2.995766103267669678e-01
2.211767538233816999e-01,7.558235877050482887e-02,6.803170282812395775e-02,2.086510821557801090e-04,6.430385485614570741e-04,4.044721866748418951e-03,1.496814042329788208e-01
2.765728604968060722e-01,7.365953709486472434e-02,4.604341836308438463e-02,2.686703480938382356e-03,3.752023885516455465e-03,4.086064507327955182e-03,2.182982414960861206e-01
3.438338028162867266e-01,5.909454460680989285e-02,5.224913867031816261e-02,3.445715895424113131e-03,-2.198652142372565024e-02,2.320204552518126927e-03,2.908168733119964600e-01
3.078001107658949742e-01,6.367242772302454668e-02,3.393564169641953565e-02,2.914944990180231687e-03,1.404082473329352349e-02,1.367362963804644822e-03,2.614664435386657715e-01
3.403182529794386291e-01,5.537016798501334658e-02,5.433175898845508944e-02,2.074332884085120128e-03,6.906863221612347462e-03,1.007643192947077710e-03,2.857471704483032227e-01
1.577722927898106420e-01,5.275407399615392873e-02,4.149289180331447446e-02,-6.423664114275058623e-02,1.323576918313119043e-02,2.570864770960390542e-03,1.589424163103103638e-01
3.996036631829689156e-01,5.646000583228158454e-02,5.200743344181354977e-02,3.400957210220233867e-02,-5.117802483799035410e-04,6.234991139396453205e-03,3.505461812019348145e-01
2.586024487791929172e-01,5.781060664581844089e-02,6.209529742300436139e-02,-2.831271132158813195e-03,1.564626121438712119e-03,8.066389246169532873e-03,1.992535740137100220e-01
3.765204391666607808e-01,6.383134871672645205e-02,7.388233058368902373e-02,-1.120984363297060360e-01,2.617938843746353897e-02,-2.824111586171920707e-03,3.667572140693664551e-01
5.371093958772750199e-01,7.011563464744535734e-02,7.841582740941654972e-02,-2.227201912915632159e-02,-4.778365966630970275e-03,4.336940374196488097e-03,4.646385610103607178e-01
3.712211449875292280e-01,6.162492533603945721e-02,6.662798093111460540e-02,-8.384158820021247798e-04,4.208334494434948594e-04,-1.350564844155260295e-03,3.071384727954864502e-01
2.430079406768856365e-01,5.989172071635106426e-02,6.187615497888326183e-02,1.478691905840798931e-03,1.897874265375737359e-03,-4.696581511837996485e-03,1.823613047599792480e-01
3.203457578727700872e-01,5.582856631694260718e-02,3.574398738382918161e-02,-2.654441705900395325e-04,4.411211258397568485e-04,-3.497949172725533726e-03,2.751780450344085693e-01
3.546559110977485219e-01,6.050707252637928246e-02,6.709668742231944538e-02,1.741451398153362473e-02,2.124153711376071049e-03,5.365570684927296365e-03,2.926402688026428223e-01
3.248774130331598675e-01,3.675298281504230102e-02,5.765262608073942752e-02,-2.127341085933660402e-03,2.146007540635982286e-03,1.769550170125748934e-03,2.783299684524536133e-01
3.788248032532640641e-01,7.094079123085228478e-02,6.100709177122641547e-02,5.248987588690387333e-03,1.018917153074873176e-02,-3.070527370450466288e-03,3.136432170867919922e-01
4.758550814392792372e-01,7.273957625775476221e-02,8.664041800578034525e-02,-2.823668047432184580e-02,6.166400824399910496e-02,6.927889051315853919e-03,4.135637283325195312e-01
3.103969317425081531e-01,4.294889230419438042e-02,5.099861532877673909e-02,-2.755552166180104921e-03,1.344793948575845419e-03,7.542170848834197326e-03,2.638924419879913330e-01
3.683428506490704080e-01,5.895010365472397318e-02,5.674364360035570598e-02,2.605634550523545576e-02,-1.290968793784032578e-02,2.978925791899090895e-03,3.146026134490966797e-01
3.080021227357593872e-01,3.510108916788409750e-02,5.102315033060420002e-02,1.386446314909036727e-02,-9.563629500285037929e-03,6.837352526960570331e-03,2.671603262424468994e-01
2.743222350135933185e-01,5.407249747886679059e-02,4.930467306505448288e-02,-6.710033725076372524e-02,5.461100845863946229e-02,3.812118713901464610e-03,2.684787511825561523e-01
3.394822961173763476e-01,4.668749823492109041e-02,4.766555126569942125e-02,-5.000443082792737975e-04,-4.018629659775681804e-04,-4.639242899417522466e-04,2.923102080821990967e-01
3.376987769366149861e-01,4.565548709222891355e-02,5.361729087204797350e-02,3.466174658106616546e-04,-1.170172078289866049e-03,-1.047574954517032156e-03,2.881583571434020996e-01
2.855033766063178602e-01,6.069736643979230239e-02,6.480206391711555713e-02,-6.043938792277414596e-02,7.573861655994856834e-02,2.260158996663205917e-03,2.789532840251922607e-01
4.242775792960610248e-01,5.645477366596410307e-02,8.360479337422979662e-02,-7.626608194888077029e-03,9.735511267041054018e-02,4.549638314196628730e-03,3.933382630348205566e-01
3.335538865260545549e-01,3.883630400770834989e-02,5.442852142547398298e-02,6.928300359891460900e-04,5.392799500865292370e-04,-1.816428055195642250e-03,2.872602939605712891e-01
3.377658162658734864e-01,4.575999032702468550e-02,5.946580952581395629e-02,7.441637654503275440e-03,-1.086285567618537661e-03,1.508748383517906312e-03,2.857089042663574219e-01
3.225870439586905336e-01,4.115302307883134114e-02,5.817875576280637229e-02,1.476399226275639757e-05,-8.400074753573357248e-05,-6.176043596264728548e-03,2.735284566879272461e-01
3.231188342068314068e-01,4.016863345448694333e-02,5.480279649169958467e-02,3.392724154847136589e-03,3.358512155036656060e-04,-4.931868754166432271e-03,2.761196792125701904e-01
3.473486403837324210e-01,6.073242757923524859e-02,5.842155611208632582e-02,-5.436529828979840342e-03,1.294779490012404376e-03,5.077801153318896484e-04,2.879427075386047363e-01
3.356204021910855761e-01,4.576553029490425251e-02,5.073840181104842528e-02,4.535072719053015173e-04,1.815380258540543531e-04,-3.058136180430927071e-03,2.874507606029510498e-01
3.279101446695796285e-01,4.041089854018325989e-02,5.080958141373127790e-02,2.612650737741967666e-04,-4.268351689607602340e-04,-4.504699384320407993e-03,2.825525999069213867e-01
3.897487166099166123e-01,4.723475478534061578e-02,5.468141188487823934e-02,-1.627358380904229268e-02,2.334617555452950591e-02,8.604426375165452612e-03,3.427424728870391846e-01
3.518780427024342794e-01,6.356155083478118306e-02,7.307698474842405645e-02,-2.706812856923057099e-03,-2.672673210502351718e-05,1.198327269936207834e-03,2.837248146533966064e-01
3.270901226536664375e-01,5.192328476042760987e-02,4.171587160019583906e-02,-3.824206954053875721e-05,1.628504513612376607e-03,3.402916922603963466e-03,2.804860472679138184e-01
3.490126420977965882e-01,5.987920136051463893e-02,6.982285633055052010e-02,1.238121620536428245e-03,4.432005690516336964e-03,1.796222618208082262e-03,2.844207882881164551e-01
3.202902680976189576e-01,5.845783837925447313e-02,3.707910588617135961e-02,-6.222156471332341166e-04,2.190152864709988840e-03,4.987619986921176286e-03,2.733150124549865723e-01
3.143785306082472752e-01,3.912726262132286414e-02,5.516089826859231493e-02,-2.857544526653753216e-03,2.372721486974810681e-03,5.354472908710030711e-03,2.678328752517700195e-01
3.235066742096889270e-01,4.109182387374275824e-02,4.959622262516281965e-02,-8.326594454735903868e-05,2.308261574822090788e-03,1.793703620527104317e-03,2.783062458038330078e-01
2.915042073589634297e-01,6.023780202813791562e-02,4.866986068329373638e-02,-7.302491391281985258e-04,4.002588267105005281e-03,8.240330417661135415e-03,2.377953231334686279e-01
3.142426031761546001e-01,4.877503363393127789e-02,3.975679178665746105e-02,6.767277369589219617e-05,7.309621931719639245e-04,8.040866262570544112e-03,2.704514563083648682e-01
3.813373211665160856e-01,6.217532786498926323e-02,5.336139911722385942e-02,-8.880326099817315022e-03,-7.100065639069347290e-02,-1.119586546069896091e-02,3.471181988716125488e-01
3.246127319785880871e-01,4.314831571244955033e-02,4.275629751787576871e-02,-1.595470529259891213e-04,7.633952062839438569e-04,6.024814106854550246e-03,2.818571031093597412e-01
3.328648010757103703e-01,5.421599909909684267e-02,5.166549009141944981e-02,7.146987671075436584e-04,1.104711361018189276e-03,9.472683658632850053e-04,2.799468636512756348e-01
5.501966957685924253e-01,7.115670738417492758e-02,5.866413203690235001e-02,3.898980962300210851e-02,-1.791723650928638348e-02,-1.077525747785349451e-02,4.914181828498840332e-01
3.238812056830253638e-01,4.795084465891699677e-02,6.035070883374259176e-02,-2.580874135357055441e-02,9.547172004420314412e-03,9.094778725517560503e-03,2.745718359947204590e-01
3.893600979978253385e-01,5.584891934151037240e-02,3.155831577120024600e-02,-1.624283454566289794e-02,-4.240763309459214675e-02,-4.220765206484738616e-03,3.551916182041168213e-01
3.032188941217366374e-01,6.636835070042707008e-02,3.624529508826079827e-02,1.194629705601024878e-03,2.285238663985731614e-03,2.831714288788258864e-03,2.533460855484008789e-01
2.815350550890776127e-01,5.690699484453011492e-02,4.499561388086893710e-02,2.170275245765130624e-03,1.855812373740503259e-03,-5.137469378971770174e-03,2.310387790203094482e-01
3.416220254886480623e-01,5.707925929466743653e-02,5.061423497560266216e-02,4.475558393533427340e-03,4.517156879287934600e-03,-1.093879653743425138e-03,2.880466282367706299e-01
3.260344458837591830e-01,5.984030380608093558e-02,3.229434929024488365e-02,7.993328726480853404e-05,7.363303844176767197e-04,-8.209911385069440602e-04,2.809881567955017090e-01
3.860577437210586105e-01,6.800006133373387440e-02,6.503827336222965660e-02,1.983891990465081953e-02,1.956701869632199164e-02,-5.295340846972826235e-04,3.231743872165679932e-01
2.929659041511556428e-01,3.603025856493549672e-02,6.111297488424714819e-02,-3.165857559867009396e-02,4.847524071905179484e-03,4.095581434363758659e-04,2.515516281127929688e-01
3.417958956564910444e-01,6.042729014420977762e-02,6.515469303026549808e-02,1.044972892241786229e-03,5.274642887096714187e-03,2.414490481482960745e-03,2.792216539382934570e-01
3.383259805203869264e-01,5.557127300760952848e-02,5.566163283338748657e-02,-1.241144814197516280e-02,2.544082971265695936e-03,1.349071575118240222e-03,2.835695445537567139e-01
3.030172657787394974e-01,6.129178884452782250e-02,3.937075393520650390e-02,1.702637860940419307e-06,1.405459328505800649e-03,3.438036372446142720e-03,2.534797787666320801e-01
3.260158089099453038e-01,6.030795265066915545e-02,3.248560922385215766e-02,-1.189832598915640079e-04,1.378849208629940497e-03,9.336580672871283137e-04,2.806701362133026123e-01
3.313497524604500644e-01,6.232661743702047619e-02,5.316744005316857702e-02,3.872554972231385517e-03,5.027447814062844036e-03,-2.313742143795774692e-04,2.739385664463043213e-01
3.102191594554546406e-01,6.735525862114169482e-02,3.657307271976965868e-02,2.209076092055885406e-03,1.739342264078751546e-03,-2.214347230611284165e-03,2.597012221813201904e-01
3.334235812155502687e-01,5.674362357292152270e-02,3.600433680081585597e-02,-5.561353504832101903e-04,3.560890394023669744e-03,-3.752865671571322509e-04,2.876794338226318359e-01
3.362115577468340888e-01,5.511505967408708573e-02,5.625974000208984471e-02,-1.271935662995115485e-02,9.023966990928470320e-05,1.808927333698377845e-03,2.814071178436279297e-01
3.215478499877708618e-01,6.209006658526876332e-02,4.028925125720086986e-02,8.673495205330254351e-04,-2.207384261898980970e-04,-6.828268249254761113e-03,2.712789773941040039e-01
2.747451901761455706e-01,6.340792897433435160e-02,4.365616157885840454e-02,1.404994442753386592e-03,2.275723179251038387e-03,5.464601947379152695e-04,2.219238877296447754e-01
3.385980642100610560e-01,6.466888955594220223e-02,5.854618073222994656e-02,2.634056031216020725e-03,-1.093538591014182491e-03,-3.597983271181873959e-04,2.770860195159912109e-01
3.327845815953605069e-01,5.357794497346785034e-02,3.846404702312505863e-02,8.324164974235364906e-04,9.038947055746713102e-04,-1.753142595515398347e-03,2.870860993862152100e-01
3.369370996436927834e-01,5.541127040624650724e-02,5.207851324750831234e-02,-1.499497628876166446e-03,-1.870821593782962412e-03,-3.356197147782041270e-04,2.832379639148712158e-01
3.323714783688982988e-01,3.991825856648753557e-02,5.230886937115358792e-02,-3.806020729783644125e-04,1.707267599096038617e-04,-2.939601146848501260e-03,2.865051329135894775e-01
3.389433208643451989e-01,6.142966452061746074e-02,6.310396008894048059e-02,-1.149014953102286615e-03,-2.259556450242956004e-03,1.667557714323700951e-03,2.767302095890045166e-01
3.029594028651582116e-01,5.687656539832808278e-02,4.625758930874236674e-02,1.578613176063248941e-02,2.084272467956499106e-02,-7.878928926494272247e-03,2.559683024883270264e-01
3.373663610953185898e-01,4.560411303185422927e-02,5.000097495145074122e-02,3.162422068409899184e-04,-8.882056662539698658e-05,-8.877543066532728004e-04,2.895934879779815674e-01
3.468188873663182181e-01,6.898590491844222572e-02,5.781394106523612963e-02,3.158406663121941359e-03,4.109203508820269955e-04,1.832538834125531976e-03,2.836554646492004395e-01
3.296010378420416442e-01,5.739796534428580344e-02,4.879879033909098607e-02,-3.631818136672393654e-03,-1.755930103550711746e-02,-2.415117976045767691e-03,2.783724665641784668e-01
2.925453192716753748e-01,4.716337207204468474e-02,3.626791987481954582e-02,-1.683151444346241143e-02,-7.880415349348714182e-02,-7.083598055441871558e-03,2.874635159969329834e-01
3.302042496604910005e-01,5.053629692133758400e-02,3.917854823388901286e-02,-6.716519885385922352e-04,-3.310323320580831085e-04,-5.346160324103145338e-03,2.856693565845489502e-01
3.284660721529837901e-01,4.443431165008318584e-02,5.179860380982444223e-02,-5.600892888665398974e-04,-4.173817464810823316e-04,-6.044405894521021581e-03,2.806201279163360596e-01
3.381265499996592983e-01,5.176084977570130641e-02,5.050344710096160705e-02,-8.130264327259632481e-04,2.270104008333140603e-04,-2.719067537177513334e-04,2.870005667209625244e-01
3.504039975444188659e-01,5.655976497379237855e-02,3.769747772756555648e-02,-2.989618047600784735e-03,-3.423202990289799658e-02,-1.590169251161312018e-03,3.095039427280426025e-01
3.922671119658407424e-01,4.913986407719830862e-02,1.361599063798707432e-02,1.002510712378816733e-02,-1.147696944805773160e-02,8.183472692528167419e-03,3.634350597858428955e-01
3.353388868905916587e-01,5.951187910249175483e-02,6.076570734216764358e-02,-1.655636882061218380e-03,5.863449431148479727e-04,1.041975308643506909e-03,2.752249538898468018e-01
3.513012379715457767e-01,5.753493181459450045e-02,4.314622529280298657e-02,-9.249961916516570223e-03,-3.029143937252232882e-02,-4.845554376818363151e-03,3.062881529331207275e-01
3.350738043484845496e-01,4.455630168708304972e-02,4.752634424643030486e-02,-3.597387451145599678e-04,-5.873243369739688732e-04,-4.039853204045415480e-03,2.891310751438140869e-01
3.256053450742832367e-01,4.850719668326324008e-02,4.631425700609816121e-02,-2.171821910734729162e-04,7.907584709845814344e-04,3.267514405050612417e-03,2.782622873783111572e-01
3.248673458242822276e-01,6.033529111644779508e-02,3.346530008710123238e-02,8.240242182393687934e-05,5.740626586968643804e-04,8.624056439612585653e-04,2.789451777935028076e-01
3.293266891208599390e-01,4.739529927465954695e-02,3.844648250023748048e-02,3.777174061644275192e-04,1.146165667447873732e-04,2.630290479239258492e-03,2.865476608276367188e-01
3.272618460670776441e-01,4.758130851899855518e-02,4.080450615385645963e-02,-9.382753418095360223e-05,1.514704114286391946e-03,3.486440765963639242e-03,2.832063734531402588e-01
3.254213638863998614e-01,4.051603794378046131e-02,4.878397785278192067e-02,1.949201936673523210e-04,8.402177331623437518e-04,2.483522960730264600e-03,2.808995544910430908e-01
3.223309222230298365e-01,3.787902626013962826e-02,5.194999350709263164e-02,-1.872784294365084558e-03,1.404467659246131381e-03,1.147928748443257556e-03,2.777206301689147949e-01
3.321990800877187011e-01,4.950761260702553346e-02,4.094521433452237569e-02,3.242347457289397670e-04,1.099670021011263984e-03,9.375500390288843931e-04,2.870799005031585693e-01
3.716957141594089409e-01,7.938578768091329729e-02,8.140210421354152071e-02,-8.266175438334075198e-02,4.548876909602062729e-02,3.268779124443271095e-03,3.340634703636169434e-01
3.576025511994375683e-01,5.624319997967541784e-02,6.785571741733996409e-02,1.037379866086692194e-04,7.046298570324709652e-03,8.390984339112671957e-04,2.959794998168945312e-01
3.518380074035810101e-01,5.860978576880308821e-02,7.241374913473279384e-02,-2.130731374307163952e-04,-1.998789622137296489e-03,-3.411113894961113695e-04,2.865974605083465576e-01
3.805123976216131521e-01,6.578352885569034580e-02,5.927845872923680204e-02,-3.321086504115275135e-03,-1.167441196495347909e-02,-1.888472080830226444e-04,3.187255561351776123e-01
3.247626191718717692e-01,5.684039249428450569e-02,3.599774305408864894e-02,-7.614077543583168840e-05,3.062028676300389881e-04,1.729825237956725227e-03,2.789448201656341553e-01
1.654801809189607176e-01,4.734584478626076287e-02,6.117509948929585051e-02,-7.869293177871281020e-02,1.374785364595797720e-02,-2.001679217755441848e-03,1.779607385396957397e-01
3.255881078009810747e-01,5.695611446655583776e-02,3.545057324596456727e-02,2.492146361467334243e-04,1.450471626004442942e-04,2.319194177675900585e-03,2.800340950489044189e-01
2.591074944614555342e-01,3.509645380023786176e-02,6.540518776959552971e-02,-4.167865336248714747e-02,9.456781318900327193e-03,7.019355579921674609e-03,2.234670221805572510e-01
1.999545237428197453e-01,6.517012791671622507e-02,7.582139417244623814e-02,1.784844984585466383e-03,4.120726182886500638e-02,1.414329671595832352e-02,1.501613408327102661e-01
3.230897946763532924e-01,5.740352235118768853e-02,3.009079763885322278e-02,4.791841353961715541e-04,3.397515818819365216e-04,2.850862733864198591e-03,2.803876101970672607e-01
3.332160245494519835e-01,4.684531786938744835e-02,4.538910917552919921e-02,1.694947977867063398e-04,1.348573132130376998e-04,2.960191896998053129e-03,2.871476113796234131e-01
2.897180981094231167e-01,5.718135659246120772e-02,3.636935407128388809e-02,-1.439496529389446521e-03,1.746725854849993931e-03,6.312239370095673596e-03,2.438871264457702637e-01
1.581695595391182096e-01,5.536036945241416124e-02,5.956311539794911097e-02,-6.482086985347174091e-02,9.184247684843157428e-03,1.362513726378633333e-03,1.517206877470016479e-01
3.244394917740092144e-01,3.171350786944734934e-02,5.920232467902597495e-02,-1.105852061897385358e-02,2.953121944248587698e-03,1.505802017465621276e-03,2.807085514068603516e-01
2.209303660467307473e-01,4.324482896836133461e-02,6.641199915316020608e-02,-6.100950746362361621e-02,-3.346482078243266049e-03,-2.891942322048822716e-03,1.980342417955398560e-01
3.266228374673403878e-01,5.368399486383521046e-02,3.938026778967097796e-02,3.946940092262726449e-04,1.258215758373284121e-03,1.245528827528346498e-03,2.803820967674255371e-01
2.717794680832095189e-01,4.084313084016470696e-02,6.821317301356941143e-02,-1.869659906955110701e-03,-4.382397856504826488e-05,-1.929585385036349746e-03,2.185901105403900146e-01
3.215352126400460309e-01,6.246008982672289489e-02,3.150921885953752999e-02,1.073335451621845439e-04,5.963514316692511354e-05,-3.303872713615194838e-04,2.758565843105316162e-01
2.344354157534826455e-01,6.387592782821321924e-02,7.098905837064545254e-02,-1.625343689272524053e-02,1.737634209439311087e-02,7.452519565665433228e-03,1.726061403751373291e-01
3.093810560873457849e-01,6.040777807714668712e-02,3.598093314606666537e-02,7.636666090191456370e-04,1.522351765306053468e-03,1.237460992759348212e-04,2.620586752891540527e-01
3.311968385171192297e-01,5.927356078717056775e-02,4.567879373383090802e-02,7.450576560228678973e-04,4.959984445866947060e-04,-9.632634250006336541e-04,2.789784967899322510e-01
3.372451819242143767e-01,5.271561231531268765e-02,4.983493001284865220e-02,1.880716746810516538e-02,2.124673161749864383e-02,-6.165495902205634857e-03,2.903695106506347656e-01
3.235817516526301452e-01,6.230144503353797492e-02,3.469620523814653801e-02,-2.653558803155369340e-04,1.177091635384611823e-04,-2.064006720920896938e-03,2.761434018611907959e-01
2.673956439759945791e-01,6.101465693083336916e-02,4.368747114289983635e-02,-3.498406947482193309e-03,3.553399800927249663e-02,9.874034091044479530e-03,2.249145358800888062e-01
3.293096187967178845e-01,5.804802325788585571e-02,3.967058670347176075e-02,-5.710002152980702805e-04,-4.307161393017218376e-05,-3.115434752409138724e-03,2.809551060199737549e-01
3.284958265321231696e-01,5.626266202039800768e-02,3.418134205914179213e-02,-4.661277084838783805e-04,-1.123620432242495139e-03,-8.767692251587978639e-04,2.839304506778717041e-01
3.923953067945300938e-02,5.112091264527393597e-02,5.583356567143811511e-02,1.324557742705556942e-02,3.299663398531520880e-02,5.947421962190071153e-03,6.417284905910491943e-02
3.356567504071754637e-01,6.090529831980465159e-02,6.060417607163356979e-02,9.671716426621019885e-04,-6.364689095192115238e-04,7.346830729625221726e-04,2.749123871326446533e-01
3.325405885506381720e-01,4.856579981748943009e-02,4.989378406319473769e-02,1.610180969116495071e-03,1.255237067746726391e-03,3.434083269295262189e-04,2.833358347415924072e-01
3.307661507699322101e-01,4.992718172370250174e-02,4.486199522892724001e-02,-1.094870162860094726e-03,-1.594031969628268396e-03,-6.902651932184735752e-03,2.836773693561553955e-01
3.356899428413979702e-01,5.272213838587083701e-02,3.924009713404463806e-02,9.895937132249653986e-04,5.285376365320216836e-04,-1.979991833484499690e-03,2.899707853794097900e-01
3.297447730473437311e-01,6.070123771584953754e-02,4.232886441456383542e-02,-2.973456486318321306e-03,2.607501304403946410e-03,2.343592316072828691e-04,2.787687480449676514e-01
3.331152613028496301e-01,4.771054516876198359e-02,5.114069501162823994e-02,-2.403767181104014394e-03,2.003016754704076401e-03,2.917890667687777703e-03,2.838019430637359619e-01
3.350881243050637392e-01,5.227506799098495527e-02,4.369997585272526741e-02,-6.197688843473541688e-04,-3.136985724795481999e-04,-2.573127442378647309e-03,2.872337400913238525e-01
3.332310577985995170e-01,5.356533254707085412e-02,5.141345849639201993e-02,-1.258327203211274362e-04,8.571481561192212427e-04,6.480006048648055163e-04,2.807540893554687500e-01
3.382408056134182384e-01,4.667044487882936188e-02,4.848682681618132762e-02,-3.735042478623869537e-04,-4.180516573452316455e-04,-1.832107521303706936e-03,2.906853556632995605e-01
3.378904242446668649e-01,5.079288076486397630e-02,4.814622888177313986e-02,-1.322181817151478391e-03,-8.534013471419192110e-04,-1.040470272337976976e-03,2.884484827518463135e-01
3.320591932731103424e-01,5.170453100121223666e-02,5.171097490866133350e-02,-3.155821852628841722e-03,2.779462260658965671e-03,3.778973470495825600e-03,2.805224061012268066e-01
3.330511506317680448e-01,3.746801700072122099e-02,5.188518209336433207e-02,-1.543589575189731900e-05,5.149312915269750525e-05,-2.806180049888526602e-03,2.886856496334075928e-01
3.344187772515605506e-01,5.842891873135835912e-02,5.627713382915160156e-02,-4.173779778919565098e-04,1.205920287669323774e-03,1.681344846844852144e-04,2.770809829235076904e-01
3.386999855587239927e-01,4.872745850622939301e-02,4.855504333056194499e-02,3.724063183566557484e-06,1.074759390010560523e-04,-1.584228096467308125e-03,2.900718152523040771e-01
3.390346758852946785e-01,4.827800966189264853e-02,4.681138316529963317e-02,-2.376523379228127322e-04,2.501109715847050158e-06,-9.984063281008187258e-04,2.914981544017791748e-01
3.423270486925475420e-01,5.933973615576290661e-02,6.498465032266267927e-02,-1.095588467585076412e-04,1.341873463431181822e-03,3.536405527962092074e-04,2.802178859710693359e-01
3.390112274327700126e-01,5.789879972987815870e-02,6.413767448459715970e-02,-1.755320630959159153e-03,1.793309847963758114e-03,4.531816757548583034e-04,2.780805826187133789e-01
1.784281820739523905e-01,7.344812092946972903e-02,8.137780520132360806e-02,2.345492597204401272e-02,8.485987627867121533e-03,1.038266216940341574e-02,1.115395426750183105e-01
3.787414490797303968e-01,6.229052365060405716e-02,6.502900582058170065e-02,8.186622169621100105e-04,1.229920203888337001e-03,1.929562605025682233e-03,3.151187300682067871e-01
3.425102286844216026e-01,5.952481653023333763e-02,7.603552690626744215e-02,1.595834238966509688e-04,-2.035122546694341592e-03,5.027748156751278043e-04,2.751260101795196533e-01
3.211203839579753749e-01,3.857588710131648613e-02,5.364709443143227119e-02,-2.790307453708160829e-02,-1.694475943169217180e-02,-5.162986788036111677e-03,2.812069356441497803e-01
4.524254876605066644e-01,6.647206550986678453e-02,5.845216459524862906e-02,-2.647431869272726113e-02,-6.090516145712899371e-02,-1.341709541354324867e-02,4.072968363761901855e-01
3.422824009090107422e-01,5.794248728657178105e-02,7.289492882204211266e-02,-6.766746327174399305e-05,8.786272076498182274e-04,-2.995116345727153102e-04,2.771710455417633057e-01
3.392052290826778060e-01,5.707201648637719171e-02,5.055912980711732563e-02,-1.200287965633995042e-03,8.963883733804469192e-03,2.536899823622966715e-03,2.859086394309997559e-01
3.332045726771192262e-01,4.089353709067378162e-02,5.215587117105577319e-02,-6.540512051401071883e-05,-1.005827790664619650e-03,-1.333968692262637234e-03,2.868603467941284180e-01
2.769076579688177775e-01,4.294794618955467824e-02,6.408358316965928614e-02,2.383431341557398775e-03,4.123858249210919148e-04,-3.796461696311911231e-04,2.241806387901306152e-01
3.281024337569905525e-01,5.821398707712681364e-02,3.429075198300800265e-02,1.143079315896944640e-03,1.347557232327638559e-03,-1.364864860342310119e-03,2.826369702816009521e-01
2.665813790307814402e-01,5.036464051806659181e-02,4.666382765543740374e-02,1.848814424721579360e-03,-8.947309976367991136e-02,3.258689037038517596e-03,2.676227986812591553e-01
4.286440978444150396e-01,7.712241361850195875e-02,7.054599858479944363e-02,7.655071971186588886e-02,5.644123881723189795e-02,-2.609399852169179499e-03,3.912541270256042480e-01
2.051099025243395269e-01,6.187275465093108884e-02,7.185490869228686184e-02,2.419072947480034076e-03,-1.184812488256396183e-03,8.592738455241801659e-03,1.393914669752120972e-01
5.368613527949039899e-01,7.321162096421818255e-02,8.335340960127707310e-02,1.065536120994631242e-02,3.311402812094859510e-02,1.856400401430058356e-02,4.637195169925689697e-01
3.057841702126166683e-01,4.548444294314668568e-02,5.648614459398464127e-02,7.355200133987652026e-04,-6.324673145693524739e-05,-6.156649597723887028e-03,2.552030384540557861e-01
3.411219004240796382e-01,6.131378556309408090e-02,6.366314415835354346e-02,1.387206624216279997e-03,-2.067118419867306021e-03,1.614186218210345556e-04,2.786743640899658203e-01
1.778536119699715701e-01,7.517576004122598909e-02,7.976115305266291700e-02,4.026380458823691690e-04,-2.181098842726460468e-03,3.648543623308463622e-03,1.007355079054832458e-01
3.355515981895309530e-01,4.025417599833461257e-02,5.593509401530179226e-02,2.001556601292737211e-03,-4.194984591883296949e-04,-1.191024175355534726e-03,2.878067493438720703e-01
3.453759400842498772e-01,5.726094376761405036e-02,6.679570174539832539e-02,-1.950870674078598660e-03,-5.864481187135316739e-04,2.057017226204430147e-03,2.835122644901275635e-01
3.162750882504814509e-01,4.703440738047164060e-02,5.044420979681418782e-02,-8.522546728912496535e-04,-7.622250928967569655e-04,-7.890686087205035781e-03,2.679082453250885010e-01
1.194784911290289187e-01,3.268315179481546401e-02,4.426121616376764434e-02,-3.878645620983666407e-03,3.856857278150088719e-02,3.293435242927531762e-03,1.058434545993804932e-01
1.901226260245882926e-01,7.461291591801871848e-02,7.566383687856700901e-02,-9.215932925959616304e-04,-9.533134963385594572e-04,1.550537652555935772e-03,1.150421351194381714e-01
3.359162494800690402e-01,6.021895765174822834e-02,6.089260418665295993e-02,-2.683862813130124506e-04,-4.440678629498400441e-03,1.023843376263104823e-04,2.754689455032348633e-01
3.114088086360657925e-01,5.597501455840424300e-02,6.672107587890881153e-02,-4.873065174471567090e-02,-8.926811914781941637e-02,4.235830976764282628e-03,3.061065971851348877e-01
3.471002389038041480e-01,6.445692821098494840e-02,6.080984521676861820e-02,2.017579889818086648e-03,-1.596101659950814860e-03,-1.362830788532579281e-03,2.845290601253509521e-01
3.336469693382019819e-01,6.283438805348000311e-02,6.640076787056786722e-02,-9.709574400517820628e-04,-1.071299285695882699e-03,1.788752774029168892e-03,2.690766155719757080e-01
1.946698763742928384e-01,7.293603054050969148e-02,3.977175717342344707e-02,8.645636178189228249e-02,1.805627493728950922e-03,1.415261541356104599e-03,2.059031575918197632e-01
3.506099864398958266e-01,6.699275225156757496e-02,5.820656666011422842e-02,-3.594066836017417764e-04,1.315063635647349335e-02,4.498744304683857838e-03,2.891154885292053223e-01
3.366374149200882515e-01,5.507785758659161646e-02,5.369160562148629634e-02,-1.680188173435678139e-03,-9.674126534620309734e-04,-1.014932679037984769e-03,2.822806835174560547e-01
1.904025343568561124e-01,6.619398387721303623e-02,7.150731244713424972e-02,-4.011864083216441085e-03,-4.922111310603519314e-03,3.718974912831919102e-05,1.221351921558380127e-01
3.133003109795419183e-01,4.410192276642883880e-02,5.783379527507069573e-02,-1.911519610835738653e-02,1.151421147540286453e-02,6.685002430972749460e-03,2.656834721565246582e-01
3.329174093957488756e-01,4.103295405735384038e-02,5.543983206297033173e-02,5.057613210214133076e-05,7.910085220282276654e-04,-2.509408266866214321e-03,2.849907577037811279e-01
3.312834238696447109e-01,5.446626777372888528e-02,4.691589864776044005e-02,1.903296105161207718e-03,-2.846650203006668382e-03,1.126534086384587199e-03,2.807379662990570068e-01
3.196517187004233596e-01,3.778464354115140811e-02,5.706515058758586389e-02,-3.557045110996413882e-03,2.547036297744669549e-03,2.140711148881279703e-03,2.728688716888427734e-01
3.302897712127016994e-01,3.966514889574569713e-02,5.946006284930713259e-02,-5.855064293710258473e-03,2.061581582634885480e-03,5.240961741267019264e-04,2.814570069313049316e-01
3.227046803406452002e-01,4.094235015594552274e-02,5.276664871655555034e-02,-9.739068891803636394e-04,1.033274262695628421e-04,8.979911619318445629e-04,2.760497629642486572e-01
3.422447765664383135e-01,6.020271711062379072e-02,5.833841231177204489e-02,1.789267613848942364e-03,1.127730491192113641e-03,-5.218606077938797543e-04,2.830039858818054199e-01
3.775345122983345125e-01,5.619999332562847227e-02,5.632234160757616792e-02,5.197988288369532334e-02,-1.365636737456280350e-02,1.126611234533427203e-03,3.344930410385131836e-01
2.822834051233686914e-01,3.368166194416011283e-02,6.830433750680145466e-02,-9.581997008590519005e-03,-1.764163735771898665e-04,-2.503131786032416258e-03,2.338560074567794800e-01
3.321546420817280687e-01,6.192247467418318663e-02,6.278715734471417009e-02,-4.295671877996662283e-04,-8.256923904718617077e-04,1.033323177052399705e-03,2.698116302490234375e-01
3.405783735446170080e-01,6.032596652803560999e-02,6.751277451181851574e-02,1.847154654737361490e-03,4.862992847053038614e-04,-8.696595837897509729e-04,2.767528891563415527e-01
4.056979937688378057e-01,4.635001971023808287e-02,6.349159781495990196e-02,-6.140696690265619317e-02,9.584372791250782633e-03,-3.186600088386189362e-03,3.672648966312408447e-01
3.571014222008854211e-01,7.944582033906642804e-02,6.176509427889627368e-02,3.052078927420756680e-03,8.373545524497196576e-04,3.637513904699785560e-04,2.869579195976257324e-01
4.003648768419225679e-01,6.557729111920558573e-02,5.012004425077191960e-02,-2.459046132556272357e-02,2.276305992019693469e-02,9.374254450839651035e-04,3.476603627204895020e-01
3.348454497244192085e-01,6.075482291986027128e-02,6.329697752841896563e-02,-1.236772588073533794e-03,9.520106753144228591e-04,9.174728960980694592e-04,2.728464603424072266e-01
3.352798295417775964e-01,5.844399948403512790e-02,5.444956422716257238e-02,-1.214841985272922418e-03,-1.007101734924266932e-02,-3.449616092146368627e-03,2.794713675975799561e-01
3.329891062961920500e-01,6.327986368359155012e-02,6.113306106960665620e-02,-6.931066552627347796e-04,-9.600250621753321414e-04,1.066265892396388391e-03,2.708030939102172852e-01
5.098697706105964622e-01,7.507144121513426027e-02,9.986282742302055038e-02,-4.595187073397624666e-02,3.630140265911600134e-02,3.390396202501284786e-03,4.349799156188964844e-01
2.940366969857573509e-01,5.717730444044769045e-02,4.842526217037551595e-02,-6.684475268084511023e-04,1.559639346028893507e-03,7.982287485526307763e-03,2.417679876089096069e-01
3.378847924860838292e-01,6.013884529156363068e-02,6.180393058925581773e-02,-9.017291219821342314e-04,-2.389425284302413677e-04,1.630775076262085512e-03,2.769362628459930420e-01
3.497007846894507055e-01,7.702323204441320625e-02,6.090484988357557083e-02,3.861335235866439255e-03,9.441000204546858411e-05,-5.649729221588406730e-04,2.811648845672607422e-01
3.932911145706576850e-01,7.387730083550972382e-02,7.710712185418944209e-02,-2.544124801199568534e-03,1.464493779182855955e-02,-7.127184794817624860e-03,3.190912008285522461e-01
3.278191053773234498e-01,5.719325513610476475e-02,3.167610201336365505e-02,1.228595609257472241e-03,-8.582858697486078076e-03,-7.927309847749511003e-04,2.846444845199584961e-01
3.355341697085612029e-01,4.609079440841758191e-02,5.826577545875689934e-02,-1.605511279696863547e-03,1.432657934565612773e-03,5.950901795622322125e-04,2.835783660411834717e-01
4.024806565138372982e-01,2.852635145386700488e-02,5.161460809977733155e-02,-6.650810143311819064e-03,8.354811945156689207e-03,5.335003050437688368e-03,3.635497689247131348e-01
3.226939359006509855e-01,4.276778778321911612e-02,4.727985950816210314e-02,1.733277155916430998e-04,-9.382319230557674915e-05,4.177061967337991968e-03,2.777920365333557129e-01
3.171618804712251771e-01,5.872206033242304002e-02,4.849730172012468865e-02,9.458686946571452300e-03,-1.205390642490487482e-02,5.305139039662344971e-03,2.651921808719635010e-01
3.362519203140621471e-01,4.264054567058532530e-02,5.591681506525454648e-02,-9.039706888877263244e-03,8.582385417506633099e-04,-1.461426725960517656e-03,2.876449227333068848e-01
3.369891544640621905e-01,4.165293175408843473e-02,5.284343882342035226e-02,-4.883845008809795064e-04,5.530539719396680362e-04,-1.324626044685840720e-03,2.899149060249328613e-01
3.345591323378054316e-01,6.094073913616707139e-02,6.213858073229011625e-02,-8.556200323352969534e-04,-4.027846212982081914e-04,1.266477450879684944e-03,2.730351686477661133e-01
5.455550220084517399e-01,8.461234341566736816e-02,7.944337494173742131e-02,-5.136279967936183133e-03,3.200278232906641346e-02,7.656256139033252098e-03,4.671241939067840576e-01
2.328935184310645667e-01,5.332733697499264514e-02,7.271993854029057402e-02,-5.036960048890345813e-03,7.522895766867564171e-02,3.162987980728721674e-03,2.149933576583862305e-01
2.482335738947830661e-01,7.034183864164283984e-02,7.189169258404468077e-02,-6.670668286692200619e-03,1.815189274904721942e-02,9.657239232476830942e-03,1.810356825590133667e-01
3.375049752345614107e-01,4.620575935882278995e-02,5.652086309091119976e-02,6.997291052599340783e-03,3.358541329952972106e-03,-3.058107208357442423e-03,2.866454720497131348e-01
3.699518967422398275e-01,5.954709336655054919e-02,6.480893592779035650e-02,-9.302930007887247332e-03,9.397860672653605627e-03,2.811616823959419212e-03,3.086969852447509766e-01
2.033283772687676239e-01,5.556765338513707658e-02,6.128840318169517104e-02,-2.749620254428473271e-02,-8.702093633786238177e-06,7.038866671335622903e-03,1.530928313732147217e-01
2.467307590959775809e-01,6.643604850495080094e-02,3.487132384289123865e-02,4.369445628504322818e-03,-5.144022770248752457e-02,-1.741677873719290129e-03,2.172513157129287720e-01
2.001193983810750088e-01,6.347412733343700542e-02,7.384676669468916155e-02,-1.311939859138414911e-02,2.315204219968470482e-03,2.737309421301053992e-04,1.337714940309524536e-01
1.420596175728867649e-01,5.022634655819239319e-02,6.039234008020470668e-02,3.037256778389478898e-02,9.106759818719896427e-02,1.701993219175533187e-02,1.900514513254165649e-01
3.272006619395215754e-01,4.872948232484129727e-02,4.115207062612580291e-02,-2.069997971297071488e-03,-1.416085691791552298e-03,-2.349652825460413381e-03,2.823989093303680420e-01
3.582155103500928028e-01,7.182511613557779340e-02,5.763105285004072043e-02,-8.147158809526205969e-02,2.647046181730863812e-02,5.643154316939485125e-03,3.292361199855804443e-01
3.333319870771932480e-01,3.942290672550415043e-02,5.481989261067313213e-02,8.230032503893204912e-04,4.111270872001601879e-04,-1.917878343191146756e-03,2.865447103977203369e-01
1.920863919592482594e-01,5.579149418467420352e-02,7.494563556086096534e-02,-3.941326099094498436e-02,2.271626794123030382e-02,3.305806081547738289e-03,1.502453237771987915e-01
6.347363931643780488e-02,5.619535927072533132e-02,5.980094447765852556e-02,-3.641966262502359386e-02,2.039344145897965463e-02,6.011239558374049941e-03,7.331431657075881958e-02
3.077795592744408393e-01,3.141473997128479967e-02,5.175823294782375128e-02,-5.985330863460618621e-03,-5.773960190245851047e-03,-6.469855892784771509e-03,2.673989832401275635e-01
2.975048737686416533e-01,3.328826375001649185e-02,6.727510276239807852e-02,-3.002388596794714967e-02,-7.123175913872167864e-03,-1.068704494067424307e-03,2.546479701995849609e-01
2.567581453887271548e-01,6.415371793612248408e-02,7.577108703093321518e-02,-2.392895964363480135e-02,8.692232247194009876e-04,7.774329435017347627e-03,1.920813471078872681e-01
4.989419792061531300e-01,9.179228014483784004e-02,6.448985228585080165e-02,2.940184525574358106e-03,-5.946598788968733562e-02,-2.493751889995519336e-03,4.339189827442169189e-01
3.475431972156591831e-01,6.530211193362867039e-02,5.693244745414635655e-02,5.266693617093802515e-03,1.503614586792727920e-04,4.144803361934631535e-04,2.866638004779815674e-01
2.061724382737663841e-01,5.572782274221716597e-02,6.942671859950670654e-02,-1.910576978791985164e-03,-1.115508167219735926e-02,5.751420597224506971e-03,1.457525640726089478e-01
3.353332070585295366e-01,6.192888590075443234e-02,6.257655274519031974e-02,3.226317341983955724e-03,3.083443619880272928e-03,-2.625809379284368885e-03,2.732282876968383789e-01
1.889991029285729152e-01,6.354502370828460367e-02,4.235611502641405818e-02,1.973153941621387519e-02,-4.117174196036654105e-02,6.977324597168467479e-03,1.588877588510513306e-01
3.214760291210681520e-01,5.622506215667220919e-02,3.122179448665124424e-02,-2.447061271299705298e-03,-8.576064201353596553e-03,-3.634569292441658384e-03,2.790942788124084473e-01
2.078540189519476333e-01,7.820529659278716017e-02,7.069281396660367922e-02,1.032834302414791829e-02,1.192080281235310436e-02,-1.542781855106646312e-03,1.363550275564193726e-01
2.163772319723554771e-01,4.397456910728772539e-02,5.105043796510318199e-02,3.509470005785590013e-02,2.577850721044426877e-03,1.136403874253186057e-02,1.807072758674621582e-01
3.213602054814979070e-01,6.321886646003864463e-02,2.866135130717199775e-02,2.258287687339335936e-03,-1.413606144923354978e-03,3.957340598286116450e-04,2.770805954933166504e-01
3.430736872370448998e-01,6.588184008879667541e-02,6.137006841667469459e-02,4.738464893700273194e-05,-5.033241730601496332e-04,-1.545229189401010786e-04,2.794765532016754150e-01
2.357263390203328257e-01,7.033690547007363791e-02,6.032515858860142827e-02,8.165370991728733777e-03,-1.584023632929272563e-02,8.423702435911005135e-03,1.739981919527053833e-01
3.016887778288864785e-01,5.030490488947934880e-02,7.177423820386194531e-02,6.351117186639357315e-02,-3.205259357444069368e-02,2.693339964331863817e-03,2.710398733615875244e-01
3.556086062934339376e-01,5.237596728829695125e-02,5.634310160172283088e-02,5.636597219030477918e-02,-8.681206187118256992e-03,1.135252947743314823e-03,3.170554041862487793e-01
3.261363201637508258e-01,5.830390462080864422e-02,3.612305573569106476e-02,1.222473128066216882e-03,1.744583850993588602e-03,-3.062984410134875646e-03,2.796581983566284180e-01
3.409024950006577792e-01,6.027019485328992399e-02,6.179232241496070144e-02,-2.650861096269292467e-03,3.852792304619412009e-03,-1.449110144029434194e-03,2.800027728080749512e-01
3.351597812296245316e-01,5.683756493156891243e-02,4.757902667427257870e-02,1.316735956426707231e-03,2.935051441317019973e-03,1.145415889465093697e-03,2.831268608570098877e-01
2.267399123310035458e-01,4.657727645702564034e-02,6.439419875224983159e-02,2.301580118102714359e-02,-1.587427837122792722e-03,7.803310800693134125e-03,1.770465821027755737e-01
3.066499161734841383e-01,4.788695361803574357e-02,6.169733062378225663e-02,7.249968740229759514e-04,-2.814698148143103144e-05,-8.518486997319538179e-03,2.525760531425476074e-01
2.429964902413827010e-01,6.627672992500377447e-02,5.543687720857373713e-02,-6.671309557210850535e-05,3.449968030578933246e-04,-4.678252853347027521e-03,1.825623810291290283e-01
3.351103247343244496e-01,4.741455001222381893e-02,4.500263665460516038e-02,-9.530152859608222778e-04,-1.136998053049564483e-03,-4.141710551078336446e-03,2.890097498893737793e-01
2.112908954912084136e-01,7.586520142365099639e-02,6.440663649339731234e-02,7.094166978187021674e-03,5.543074884716493039e-02,5.351954487565683920e-03,1.716910451650619507e-01
3.377382608037851064e-01,6.260294547094578943e-02,4.394350716826017633e-02,3.019265265235991300e-03,-9.155100295208355374e-03,-1.915910067810434891e-04,2.854126691818237305e-01
3.500219975125152816e-01,5.057780210407032684e-02,6.412647323339691618e-02,1.855104738912886908e-02,-2.829161659118748472e-03,-1.942710669145241657e-03,2.947220504283905029e-01
2.918646401370448284e-01,5.410853905515321249e-02,4.268688805626162652e-02,-6.394728415882225923e-04,-1.722514791472316365e-03,-7.777189446972125435e-03,2.440605759620666504e-01
7.972803496591016059e-02,2.911616474881675853e-02,3.488253466893341537e-02,-7.435665158652066467e-03,-2.062692435998213572e-02,-3.223196382426712805e-04,6.120093539357185364e-02
1.196151686288591531e-01,4.032741722474413731e-02,4.455240693890262504e-02,1.337088187028731209e-02,-4.087987580874088284e-02,4.101023973026733487e-03,1.075625270605087280e-01
7.060271900168658965e-02,6.212169005793869575e-02,5.903099321112218606e-02,-1.187793084406961984e-02,-2.763096097288194469e-02,8.182485532934046261e-04,5.313536524772644043e-02
3.270998236033447748e-01,5.776478695181236356e-02,3.478571984577444320e-02,-1.614948075707779186e-03,-6.132951907037323923e-03,-1.885957686776387884e-03,2.817619442939758301e-01
2.430760718489870797e-01,4.453276536511605044e-02,4.970922246760378638e-02,-6.371515857215552525e-02,-5.679624417990945112e-02,4.778745988906899118e-03,2.456487417221069336e-01
3.084916331443787740e-01,5.880169245676439282e-02,2.940544781782372663e-02,-1.039129683350376683e-03,-4.237440981930700248e-03,-3.685662643534796772e-03,2.657950520515441895e-01
2.990359667298513324e-01,4.781412894585052031e-02,6.195912329304251176e-02,6.568484923975929923e-02,-2.729932996915499302e-02,1.069057725358738345e-03,2.737547159194946289e-01
3.292597631799005220e-01,5.311002988312198136e-02,4.585782075276223502e-02,4.246138768613536365e-05,4.728309547580424130e-04,-3.548243039198938336e-03,2.799150049686431885e-01
1.861895565584902046e-01,7.360276808885987676e-02,6.582033391281300050e-02,-3.020416435844365966e-03,1.377719118558236484e-02,6.923352193477322510e-03,1.198046356439590454e-01
9.316253597221715865e-02,5.692920264066167468e-02,4.394453275322197233e-02,1.047453241605746793e-02,3.520667111732955074e-02,7.308272111850028577e-03,7.848466932773590088e-02
1.279985872326601382e-01,4.615483662867814196e-02,3.899303053029119781e-02,-5.961488489426209486e-02,4.756882253662233183e-03,8.466830004900983975e-03,1.352057307958602905e-01
3.447743440100643486e-01,6.902036287290282124e-02,6.239332575399429703e-02,9.863535067313019405e-03,1.457170486721850143e-03,-3.748791513730182542e-03,2.797355949878692627e-01
3.540915873685592796e-01,6.916788394498801784e-02,6.180710845335232739e-02,3.790488315607226178e-04,1.531295811243508793e-03,-1.468327306236500308e-03,2.886986136436462402e-01
2.460494600488509487e-01,5.605405612117821124e-02,6.680031484136533804e-02,-2.484740095400640118e-03,-2.209201704314566351e-03,-3.499617726081363008e-03,1.850456744432449341e-01
2.469490511818706602e-01,5.613449638200888880e-02,7.407372037861850722e-02,-2.426453185273751059e-03,-1.947554650562301507e-03,-5.857119192568347593e-03,1.828685402870178223e-01
3.359425341519706176e-01,6.033272560166837162e-02,6.600192308550198450e-02,-3.767068949634837282e-04,-2.203705406446575862e-03,-5.987375778608674572e-04,2.728488445281982422e-01
3.099199425544647002e-01,3.027504866852162579e-02,5.933492675946155925e-02,2.071573119446055641e-02,6.701563166013714719e-03,2.525826637871988415e-03,2.689992487430572510e-01
3.451956653338985603e-01,5.852563514146624790e-02,7.572721375287698453e-02,1.825963581626055586e-03,-1.246360296588887957e-03,-1.476316201778526591e-04,2.784944474697113037e-01
3.548569445698257496e-01,7.479709180975087357e-02,5.903224336719552212e-02,2.484380862944567375e-04,1.522949094396424492e-03,-8.568965325564201901e-04,2.882819771766662598e-01
3.285766414048946205e-01,5.795831534144851860e-02,3.488763140798448181e-02,-2.337775712191239846e-03,-5.012659175200386355e-03,-2.489632542711723087e-03,2.830552160739898682e-01
3.443058378518483731e-01,5.795470581752330819e-02,7.264557051520308117e-02,1.738079110076501529e-03,9.286096385474898940e-04,-5.165099415166453118e-04,2.793179154396057129e-01
3.221171388585884476e-01,5.474775062072817500e-02,3.377886126734744310e-02,2.262509994638857609e-03,-2.221055371663603530e-03,2.648671664871676823e-03,2.785385549068450928e-01
4.991776827685495688e-01,8.514810751363383057e-02,7.084883177658621300e-02,1.524812075881503901e-02,-6.953222951371530736e-02,-7.152313711153963395e-03,4.392043352127075195e-01
3.349659365848737247e-01,5.843830929590002055e-02,4.643403898467671209e-02,1.773240712880034663e-04,-3.999081401747945491e-03,-8.551723725328658470e-04,2.828098535537719727e-01
3.222326876312902044e-01,6.287622444609777816e-02,3.460776166233762996e-02,3.791914368750737372e-03,-5.825080517277285951e-03,-3.358614444405575057e-03,2.749095559120178223e-01
2.985407530419495470e-01,5.745115650113089001e-02,3.822541496803423533e-02,3.911851803704556943e-03,-1.147025176506837399e-02,6.352443959419631567e-03,2.523699998855590820e-01
3.217231913432789803e-01,5.183979696197850429e-02,3.696167720591608807e-02,-6.006791468301173054e-04,1.298448347234139235e-04,1.151995992980909362e-03,2.776308357715606689e-01
3.346737592585812271e-01,6.178491618756515313e-02,6.945050157497077714e-02,1.748177545946048091e-04,-8.838833692338118409e-04,-1.123364452661371020e-03,2.691494822502136230e-01
3.092217121571794181e-01,6.180193789920991609e-02,2.913846926484990607e-02,1.204155343824375160e-03,-6.519083870279215182e-03,1.634404921580301980e-04,2.655126452445983887e-01
1.729537763586173060e-01,3.604175096299366138e-02,4.881393956471456047e-02,-1.444656173846880706e-02,-6.559469086419271455e-02,1.268763454152224950e-03,1.752092838287353516e-01
3.405052277252871296e-01,6.117691435441943715e-02,6.949349006312451060e-02,1.577018985818718234e-03,4.874079041801902996e-03,-2.158644166082311405e-04,2.754074931144714355e-01
3.003547743072927378e-01,5.365518327131958698e-02,3.937215649435522880e-02,6.993555203211414967e-03,-1.107629959416605268e-02,8.130298600461218286e-03,2.555413842201232910e-01
3.081434950763111136e-01,5.112918613492233033e-02,4.278409894828769100e-02,8.172845130212985556e-04,-2.637486883751629686e-03,7.604846201936601297e-03,2.616623342037200928e-01
3.006887504087632501e-01,4.754575928100511495e-02,5.152796700584101608e-02,8.793429650462585012e-03,-6.941682838801888425e-03,8.126761528993340158e-03,2.523169219493865967e-01
3.915752433794777998e-01,7.264022568532917112e-02,5.966492595661983256e-02,1.051585551131504898e-01,-8.281005526470035238e-03,9.419759529918863769e-03,3.737286031246185303e-01
2.513367312856976121e-01,4.540966561099023246e-02,5.956044822041749176e-02,1.245019472856763714e-03,-1.482039091798049296e-03,8.723936273304996533e-03,1.998292654752731323e-01
4.519576671126344092e-01,8.515814333288766746e-02,7.394115149282737276e-02,2.162259443950664134e-02,8.357461195880390437e-02,5.238629759340007394e-03,4.015235900878906250e-01
3.335064614447907916e-01,4.333776991686390245e-02,5.454821817477670254e-02,2.678264899495220140e-03,-5.934614192975343986e-04,4.104313725026854584e-03,2.848573923110961914e-01
3.214547713188568023e-01,5.945066517873168199e-02,3.243315760474552167e-02,2.297920576488812587e-03,-3.500766806505026599e-03,2.274189677816976837e-03,2.766277492046356201e-01
2.399527456942425752e-01,6.991753233624671549e-02,5.478195273557072420e-02,9.260774247349004389e-04,1.721439568809456436e-02,-1.237165983323784083e-03,1.805846393108367920e-01
3.349448952804615631e-01,6.306494294341172258e-02,6.117180497382078419e-02,-5.646941796824506924e-04,1.072329012382277399e-03,-6.710305350348357489e-04,2.728419899940490723e-01
2.123323729922956538e-01,7.124846480973662244e-02,6.568329929308544535e-02,-3.518218089645639476e-03,1.498343544525885824e-03,6.007655880361608032e-03,1.444747000932693481e-01
3.525378375443065648e-01,7.546302652608016803e-02,6.183834494202851417e-02,4.046711634725965075e-03,7.765187214181824837e-04,1.106696875081532522e-03,2.842283546924591064e-01
3.356974566530729898e-01,5.874852347235387517e-02,5.452193812259972794e-02,1.346144256897233811e-03,3.163288691311715549e-03,1.497008572573446260e-04,2.791498601436614990e-01
3.346550673137014265e-01,6.244379365198958476e-02,5.936563070755679350e-02,1.468932894310922676e-03,-5.622946731293123473e-04,-3.424646462574670348e-04,2.737775444984436035e-01
3.403473352621927961e-01,6.192087619107879137e-02,7.177798686606949585e-02,3.513061029741752078e-03,-2.527154343379718528e-03,-4.024886597333897711e-03,2.738224864006042480e-01
3.322024740785574082e-01,6.534037919249328918e-02,6.394734435654877980e-02,-9.764360887306675215e-05,3.332958041117300009e-04,-1.201486765619629200e-03,2.675701081752777100e-01
3.384293052506809341e-01,6.706038560682890670e-02,5.596340471467331490e-02,-2.890025641751257229e-03,2.556658744397313603e-03,-3.447043369063388578e-04,2.771653532981872559e-01
3.320189582500162606e-01,5.458865063950132934e-02,4.662005213198973375e-02,2.192973529192058200e-03,-2.983309374185822913e-03,9.921077072657762119e-04,2.815774977207183838e-01
3.311980333977437296e-01,5.253481281705019157e-02,5.034259401896569452e-02,-8.103243526409993711e-04,-8.080759870836888787e-04,-1.436385368541568015e-03,2.797838449478149414e-01
3.405468620837762694e-01,7.363730941285820397e-02,5.877190773508617072e-02,-6.656318541009640776e-04,1.754333243899152892e-03,-1.373864306239449629e-03,2.746736705303192139e-01
3.274990126262249390e-01,4.555352987963158518e-02,4.559820491944747978e-02,3.865762315658903303e-05,-7.002391694056089681e-04,-2.040952096495512492e-03,2.819479405879974365e-01
3.326839517202736518e-01,5.488842804979546242e-02,5.979303887449859134e-02,2.600348367820803485e-03,-2.283267998349258580e-03,2.382412511008741816e-03,2.754721045494079590e-01
2.734574260901301290e-01,8.744160752408475235e-02,6.207401204589706178e-02,1.253403696726952399e-01,-1.854452626099875948e-02,-2.506411274528956915e-03,2.968928217887878418e-01
3.307868083256978453e-01,5.092544576880952967e-02,4.854399914860146881e-02,4.060390232722136034e-04,-5.547647444352227925e-04,-1.217092815255810148e-04,2.810622453689575195e-01
3.296671672378697071e-01,4.688153102938917571e-02,4.612786391575106337e-02,-1.896018475494155476e-05,5.105552263722643513e-04,-3.813535982995855671e-04,2.831653654575347900e-01
3.368892009106262408e-01,5.747770950289306235e-02,4.523713555478768578e-02,2.325116221103872959e-03,3.667269760576945953e-03,1.830272498592192898e-03,2.858450412750244141e-01
3.112741161392276745e-01,6.087946653353802640e-02,4.953456882107187820e-02,-2.724362499470571117e-02,3.958132818610743398e-02,7.296434665927477303e-03,2.697281837463378906e-01
3.310838691996829120e-01,4.854398300671866617e-02,5.059957445850754576e-02,-4.910612974717379906e-04,-1.030001245315589464e-03,-1.019971274909624954e-03,2.815302014350891113e-01
3.062631888967409788e-01,6.262588249066898538e-02,3.054516759936228010e-02,-1.172338530443687871e-03,-6.451446013820041903e-03,-1.531047352654100156e-04,2.614066302776336670e-01
2.953203176688788956e-01,4.466538535835908041e-02,5.487385375564389489e-02,-1.028934680931310221e-02,6.451306893320804883e-03,1.111300542488394272e-02,2.473585903644561768e-01
3.361651152998100800e-01,5.934596507959503942e-02,4.552961831973859064e-02,2.748938438749481440e-03,3.893957251247356227e-03,1.403772065268466375e-03,2.841098904609680176e-01
3.420300537237947469e-01,6.842440193241708379e-02,5.991399490101136094e-02,4.133322646608940908e-03,2.485152796944341703e-03,-3.331665444520859505e-03,2.781439423561096191e-01
2.692888721950614239e-01,6.953198365417041782e-02,7.148015306660619739e-02,-3.278118636336742331e-02,8.266341122473090663e-02,1.039449814908529804e-04,2.514776587486267090e-01
3.323905478930666568e-01,6.195039298325101529e-02,6.101074268877459961e-02,7.251088855202203259e-04,3.741640192052245054e-04,-7.720951358405034098e-05,2.709149122238159180e-01
3.567551130465060338e-01,6.208555536626468585e-02,6.308707571290587957e-02,-6.130324973906321620e-04,1.437445069259032622e-03,8.170711353302381698e-04,2.941859364509582520e-01
3.295578513034432833e-01,4.958388127037061111e-02,4.472370750921224325e-02,-2.087780265191464726e-03,-2.933684583710211447e-03,-3.895620176762925289e-03,2.825848460197448730e-01
3.383541045504725453e-01,5.988645006214589339e-02,5.772922830012938711e-02,2.784640381161326687e-04,-4.267979274861942104e-03,-4.333296237013710243e-04,2.796516418457031250e-01
3.306281958141925603e-01,3.982900734340219517e-02,5.462650830621405829e-02,-1.079656565993881122e-03,2.285771937647141435e-04,-2.834110319846879812e-03,2.837389409542083740e-01
3.462504221607465293e-01,6.546823241965704643e-02,5.718736056890066921e-02,1.611168260899663047e-03,7.789314985795695707e-05,-1.671317075590527399e-03,2.850412428379058838e-01
3.898413696301104014e-01,6.795657596568739633e-02,7.973984831257246997e-02,-7.230267988789249554e-03,1.521179964525176329e-02,-3.033233700650914653e-03,3.175444006919860840e-01
1.818600451804846252e-01,6.039995092343814626e-02,5.405768792039210985e-02,1.739942215173114620e-02,6.815139869401813655e-02,5.648529454480921003e-03,1.746450364589691162e-01
2.777434192716202732e-01,4.915902214088879729e-02,6.888142059271593065e-02,3.337915688374354373e-03,1.167406522646154826e-03,1.485296154226066045e-03,2.194896340370178223e-01
3.355141661560847588e-01,5.543116675671089233e-02,5.722929453605683781e-02,3.058733189869541642e-04,-1.421329932064985344e-03,-6.631837712250662547e-04,2.792019844055175781e-01
3.142160054540309444e-01,5.021513201380137237e-02,4.787043780043563623e-02,-1.875019760749547723e-02,-2.184764093488403280e-02,-8.458287877486949519e-03,2.702262997627258301e-01
3.350738422033124886e-01,5.835205560271630731e-02,5.748418942332830794e-02,9.007565840371570222e-04,-4.477612806049417055e-04,-8.730992369981098412e-04,2.771663367748260498e-01
4.817288076244985451e-01,7.945553841935149020e-02,7.715202794167452804e-02,-4.859870084655026901e-02,-5.099210992865546577e-02,-7.478841826921919789e-03,4.216747879981994629e-01
3.327872883998839737e-01,4.864411267500778902e-02,5.525915593347656418e-02,-2.820118195891337803e-03,1.163048845049570869e-04,-9.420618594378148657e-04,2.809413671493530273e-01
3.840750761687476422e-01,6.002942815832634782e-02,4.953638442640267980e-02,-1.934876147320018294e-02,-2.649191804226750172e-02,-6.334693507796248374e-03,3.344620764255523682e-01
3.083676262082558628e-01,6.231307706818711711e-02,3.386725025407333334e-02,-1.715476207401014669e-04,1.079432355567139235e-02,-9.303925712853533796e-04,2.621134519577026367e-01
3.188661030601260271e-01,5.093622480960727228e-02,4.978833373590552114e-02,1.070102435572509126e-03,7.771340703076409654e-04,-7.071821824201695444e-03,2.687946557998657227e-01
3.475366574653152574e-01,7.222474387094099391e-02,5.988900043588889222e-02,-3.814935931881350065e-03,2.014823448231244010e-03,5.878645007821589131e-04,2.817833721637725830e-01
3.610833079039224014e-01,6.735783510055738665e-02,6.920380525274887062e-02,-1.091950432908985469e-01,1.304457992660839477e-02,-6.546531947072766963e-03,3.494933247566223145e-01
4.670086473105591329e-01,7.422147746846829985e-02,5.412303216718455934e-02,-1.793115880242374116e-02,-6.343089517526231957e-02,-1.533512533079409330e-02,4.199055135250091553e-01
3.345942996717573559e-01,6.332987130578260349e-02,5.975666566239624944e-02,6.846044814908926277e-04,-1.130181848422673980e-03,1.219186324094669862e-03,2.730863094329833984e-01
5.565523823416145266e-01,8.537503177145294719e-02,7.416837972495249343e-02,2.710114072254511675e-02,4.653165971585142280e-02,-1.466661369215496030e-02,4.865781962871551514e-01
3.395559572690796113e-01,4.847379447649925732e-02,5.508662277004301722e-02,5.016666189583012664e-02,3.021974951447346444e-02,-4.340267332664891377e-03,3.052768707275390625e-01
3.362135246797188226e-01,5.336285491405795556e-02,5.234535519905803014e-02,1.957849846387931696e-04,-5.517188971749710123e-04,1.438689813320261468e-05,2.833625972270965576e-01
3.306073220500326260e-01,6.090653825150743605e-02,3.432716017237374961e-02,-2.252106116281677838e-04,3.361200863292669941e-03,4.178600399680953352e-04,2.839859724044799805e-01
3.202884909841575700e-01,5.857502998249079773e-02,3.074544503332617140e-02,-5.305921805821841664e-04,-3.478688520190122493e-03,-4.116696025895656263e-04,2.767480015754699707e-01
3.350383681539936265e-01,5.675988901853380730e-02,5.684248805542387040e-02,-1.233922512707494442e-03,9.264237283549260713e-05,3.522461642223821275e-04,2.782461047172546387e-01
3.323537656685277009e-01,4.120736187562955288e-02,5.550126206331637557e-02,-9.883306006469813631e-05,-1.488070167322232324e-04,-2.119582888094802622e-03,2.842929959297180176e-01
4.682200998997951280e-01,7.562196904660437036e-02,7.629956281525279715e-02,6.638557838459821503e-02,3.831600762883671102e-02,-5.595001020227348930e-03,4.142307639122009277e-01
3.119699714147708969e-01,6.320685517043904411e-02,3.540364509303449425e-02,-1.258793733057540038e-04,7.496872642622502865e-04,-3.970702872686375393e-05,2.637693285942077637e-01
3.321975846643557828e-01,6.195343533899573540e-02,6.278528337514634183e-02,-4.665201650117898214e-04,-3.850853053559699646e-04,2.884842118647243706e-04,2.698316872119903564e-01
2.403310489025111130e-01,6.619299798464936546e-02,5.810691329671532901e-02,-3.558419435961485393e-03,-3.777501879562478355e-03,-4.334184351606408525e-03,1.787028014659881592e-01
3.218888845175083557e-01,4.483013720894118981e-02,5.463417183113250530e-02,1.742100771315640770e-02,1.071348859253614533e-02,-6.152320591409295852e-03,2.747903466224670410e-01
3.191908113872045094e-01,4.097046022787648178e-02,4.993470035292403575e-02,-3.257769154807616256e-04,-1.375290954464088427e-03,-7.026274378228579420e-03,2.741295099258422852e-01
5.300046548483730025e-01,7.062398467677125091e-02,7.932479552190532801e-02,-3.820435442300122719e-02,2.695071144364347571e-03,-2.012064712350484716e-02,4.612205028533935547e-01
3.294288932167019901e-01,3.812924576360614271e-02,5.875705894779398308e-02,-7.869879597531898724e-03,8.424816587423574962e-04,1.448406770378752066e-03,2.818977534770965576e-01
3.241932266611751157e-01,3.563443684086557706e-02,6.134742168109702520e-02,3.786772536099931689e-03,-6.218928742971816101e-04,3.978404144940545298e-03,2.767657637596130371e-01
3.413047897726324553e-01,7.042572313417548580e-02,5.922534234855318658e-02,-1.776423273038479043e-03,-3.784591225195197035e-03,1.314342214632161247e-03,2.767534852027893066e-01
3.312296070706599593e-01,6.194284543303696378e-02,6.351235063327786978e-02,-9.232552307865964265e-04,-6.076501439935706999e-04,8.433361388612902821e-04,2.685162425041198730e-01
5.427984039791194926e-01,7.087001716245083793e-02,7.829528921064721203e-02,-3.716816754557184660e-02,-9.186737702281351503e-03,-1.649108574941602137e-02,4.737940728664398193e-01
3.137395452276454111e-01,5.873854271029405050e-02,3.015520756326542373e-02,-2.792495561759138862e-04,4.181777793461241528e-05,-1.652862979544537881e-03,2.704435884952545166e-01
3.028928789811722311e-01,3.509182225966853141e-02,5.974317958709833565e-02,-5.103147033833193430e-02,-1.707854831667410603e-02,-7.300642141959173131e-03,2.730769217014312744e-01
3.580766818717081579e-01,6.356865365345477914e-02,6.089218777409649563e-02,-4.951993972166672704e-03,6.792326088511724865e-04,5.703164540326834857e-04,2.959836423397064209e-01
5.536187697605154945e-01,6.002284083130718373e-02,1.054177464365480543e-01,7.713252317886534239e-03,2.102934154718450258e-02,-9.647626315293046304e-03,4.744210243225097656e-01
3.352174129199408936e-01,7.015399932212727785e-02,5.683974152430941451e-02,-8.935157332502456987e-03,2.295622792062671988e-02,1.171373938753785676e-02,2.760382592678070068e-01
3.336393168678573051e-01,5.875836470842207837e-02,5.299591492900126988e-02,3.792304546658468740e-03,2.649074983833838142e-03,1.775131549676824236e-04,2.779226899147033691e-01
3.166014230810118013e-01,6.132110132507084810e-02,3.218097522040250236e-02,2.405435567077244792e-04,4.985151940908449410e-03,2.152747312693107512e-03,2.711912989616394043e-01
3.294933656274744438e-01,5.789972370225102138e-02,3.987339725302167792e-02,-1.536126453777744347e-04,1.021453721568881109e-03,7.843416559053851579e-04,2.810496985912322998e-01
2.808395486130461638e-01,3.059145878027368093e-02,5.712097199193499897e-02,-8.855918364581553265e-03,1.969095277059676984e-03,3.958099569143615562e-03,2.387108653783798218e-01
3.507212396728336401e-01,6.108473167497037448e-02,5.674825712956160784e-02,-1.062383013582534307e-02,-1.218872239579227952e-03,-6.021817460514383193e-04,2.924179434776306152e-01
3.348048700319251059e-01,4.792276532956291080e-02,6.455223899117067121e-02,-4.455237076275623403e-02,1.587656474971532380e-02,3.645283034516011173e-03,2.907885611057281494e-01
1.997192014426923956e-01,4.557648376027682857e-02,5.665525310784860769e-02,-6.289715746290940913e-03,8.385383871338122908e-02,1.387875568765166911e-03,2.083119451999664307e-01
3.440782968376512319e-01,4.235341924654725809e-02,5.117814665958908549e-02,-6.032537409063920553e-02,-1.945917510689491262e-03,-8.729476887593600951e-03,3.156114220619201660e-01
3.347453667706437042e-01,5.865659540901098368e-02,4.640534763318408806e-02,2.014005459907635765e-04,-4.933752659948148662e-03,-1.230741350228798043e-03,2.825512886047363281e-01
3.109898032165664405e-01,2.964651634762792420e-02,5.808627564900595286e-02,-3.116667139088420517e-03,-3.041577045287763726e-03,-2.247166730410677781e-03,2.683907151222229004e-01
3.394766073623206593e-01,6.363594605380031022e-02,6.321771031659194351e-02,2.914848840431233552e-03,-5.092697064649538306e-04,-2.086431856213417143e-03,2.761212289333343506e-01
3.456327009687704122e-01,7.575601243736755641e-02,5.774341417135718524e-02,-1.191480956585222245e-03,4.151699271527886995e-03,1.234177521569387219e-03,2.794272601604461670e-01
3.280952962489739333e-01,6.188619020370582369e-02,4.009778368721746145e-02,3.674916655802304655e-06,1.658470672504635309e-03,-3.036178195811280113e-04,2.777603566646575928e-01
3.698369067076926475e-01,6.114830344933484818e-02,6.960019625927293951e-02,-8.976224281978524566e-02,-4.951315784108191974e-03,-3.187716791666347221e-03,3.420919477939605713e-01
3.988497076474321612e-01,2.459841234510048991e-02,5.396115448707164419e-02,9.179156366170813236e-03,6.989922063707464626e-03,-3.770488128149686834e-03,3.610805273056030273e-01
2.351842872522810768e-01,6.402758952158296712e-02,6.384847420221917424e-02,-1.440335945000131151e-02,1.598708884781749719e-03,8.042128819246048554e-03,1.736357361078262329e-01
2.793670884964777335e-01,6.078529947314252613e-02,7.017719681946575638e-02,-6.240038436490125129e-02,6.597801493734643807e-02,-3.372610583255864890e-03,2.656843066215515137e-01
3.336366125682608264e-01,5.292944150670877979e-02,5.669054539212291244e-02,8.410949023946410206e-04,7.588225523836027598e-04,1.087522851365318793e-03,2.788589000701904297e-01
3.100784581096084347e-01,2.938852428899127456e-02,6.122722475342771975e-02,-9.230538751866021853e-04,-3.582891988758221940e-04,3.867646879095591760e-04,2.662087976932525635e-01
3.180862198239025052e-01,4.056583451362395787e-02,4.967773640836441185e-02,2.118126169522555838e-04,-3.166964257791414820e-04,-8.047301697788710254e-03,2.734347581863403320e-01
3.544736925397424798e-01,5.925953268139547148e-02,7.396037748853075133e-02,2.934218411864122824e-03,4.163218956661049637e-03,-1.802007991636734099e-03,2.882970571517944336e-01
3.193311382192610126e-01,4.451863472690811840e-02,5.303972405474978447e-02,-2.328112438601576302e-04,5.996938345007825962e-04,4.726739258242597212e-03,2.707786560058593750e-01
1.798299389690400929e-01,7.119690282146197424e-02,6.504473318841015594e-02,-9.021434706645959463e-04,-2.773143937867340696e-03,5.256323748595099349e-03,1.123196929693222046e-01
3.337919405375198156e-01,5.346151220002402782e-02,5.422662415770949929e-02,-7.799895119119708503e-04,7.800414445303624792e-04,7.774446420884849936e-04,2.799584269523620605e-01
3.359884775780155319e-01,4.375031271926221876e-02,5.314520253324188370e-02,-9.231760219324317267e-04,-1.019494795405094132e-03,-8.615463539889977630e-04,2.876695394515991211e-01
3.321714380925349097e-01,4.720655945232722639e-02,4.435193425497575836e-02,6.048224357128690817e-04,2.710369939074254355e-04,1.324787602092010648e-04,2.864052653312683105e-01
3.335360038877569488e-01,5.184514066373201169e-02,5.365594966633456531e-02,5.723068260455462745e-04,-7.452579497625184523e-04,6.682878547035368073e-05,2.807945907115936279e-01
3.432178187959692428e-01,6.029815817811159939e-02,6.490593890638975128e-02,-2.280762114427086710e-03,-5.898510524184482316e-03,1.570153618800074029e-03,2.808710038661956787e-01
3.195259394976199818e-01,6.189374574827941067e-02,2.930575319066747175e-02,4.378101054845511453e-05,-3.442365217798553246e-03,1.536987295993996858e-04,2.754408717155456543e-01
3.422918973369855067e-01,5.667163144001390040e-02,6.049898321851679417e-02,-3.825818017183238917e-04,-4.165401639149378388e-03,-9.233870623923017343e-04,2.838229537010192871e-01
3.316471781984194900e-01,4.358525071988914035e-02,5.285672596332123552e-02,2.605909813315390299e-03,8.138294995011890716e-04,4.341075513664126653e-03,2.836789786815643311e-01
3.212428539808367400e-01,6.173530195192951375e-02,7.124478162983810536e-02,-2.889765627295167935e-02,-1.076059127716874758e-01,1.835436360730427919e-03,3.197174370288848877e-01
3.292695557901765824e-01,4.664864658035608458e-02,4.164233473780122596e-02,-6.392882484024522624e-04,-7.092424973979776339e-04,-8.161834549102898323e-04,2.851653397083282471e-01
1.436125182267243283e-01,7.478218203266034925e-02,7.081090260997148500e-02,-7.456637169022854207e-03,-3.004760941302474231e-02,2.983809684079218863e-04,8.889532089233398438e-02
3.433693326561902959e-01,6.083645846636973054e-02,5.102775022980195196e-02,1.608073281052468592e-02,3.744571671824501596e-02,-2.504317281143928278e-03,2.961308062076568604e-01
3.330927299852101120e-01,5.478543714553409105e-02,5.663989845467966300e-02,2.107493260448639431e-03,-1.020500194653617149e-03,7.466693986997299316e-05,2.774143815040588379e-01
3.449418351629638391e-01,5.668583048959149884e-02,5.722228823333183612e-02,4.653543710077338511e-03,-3.969305491670192636e-03,-3.183521920986434606e-04,2.881834805011749268e-01
2.767666337279559574e-01,5.428196677725083408e-02,6.229184140783299017e-02,8.109544357536987991e-02,-6.577524069710192003e-03,-1.429288450057149230e-03,2.600900828838348389e-01
1.964011625737993039e-01,7.048212848413923370e-02,5.391937168948979925e-02,8.152120832433454312e-02,1.075337455146843993e-02,2.676716401597012580e-03,1.962677091360092163e-01
3.331855964943695181e-01,5.028227371105165044e-02,5.071386445554609823e-02,-2.240461851653458003e-04,6.712687435072015908e-04,1.288434709159533590e-03,2.826992273330688477e-01
3.308779023912494788e-01,3.664157732439944637e-02,5.516174422416976475e-02,2.301818185886414080e-03,-1.467346453782255602e-04,-4.202531600603709797e-03,2.855479717254638672e-01
2.192901840891260112e-01,5.801069818623426355e-02,4.870793408285036680e-02,-1.123953979958302804e-02,-9.487045465183005510e-02,-3.168010136380783152e-03,2.345383912324905396e-01
2.128664657415416661e-01,6.009306537296673495e-02,5.422780177180710343e-02,5.550811858917555682e-04,-2.137374339369180198e-02,5.904965150435869357e-03,1.604562550783157349e-01
2.777760530877833034e-01,6.656943019753082391e-02,6.118090611684953717e-02,3.942366061395299187e-02,-3.317724157567444182e-02,1.442948335858670363e-02,2.331627309322357178e-01
3.346223301203500311e-01,5.717258994853455234e-02,5.521184776294107976e-02,-8.901820332406090459e-04,-6.742334795013794598e-04,-7.405077321891156018e-04,2.784449756145477295e-01
1.639544965745973748e-01,5.494405686442477288e-02,5.722384972138667980e-02,6.468659223565556560e-02,-5.475140628804840703e-02,-3.115168644917643351e-03,1.822506040334701538e-01
3.026967893799062392e-01,6.382469151922184891e-02,3.427856044256732959e-02,3.174305975156261825e-03,-6.101981963061369829e-04,3.168471405307130267e-03,2.550530731678009033e-01
3.958200748718589956e-01,6.545345450246911612e-02,7.439505514062845493e-02,7.180608324078419091e-02,3.411226296568262151e-02,-2.519985197539545245e-03,3.539016544818878174e-01
4.335842546833886813e-01,7.602609651646127786e-02,7.219893388285814062e-02,6.469443762936612219e-02,7.609724605783679818e-02,-1.508931608165891593e-03,3.989564180374145508e-01
3.317907106328350508e-01,5.943284468969292633e-02,6.051329966544340133e-02,-1.478492727232307989e-04,-1.670406713949448320e-03,5.377063032494263208e-04,2.718363702297210693e-01
3.314845192796280759e-01,5.713251226415876072e-02,4.620585430834103779e-02,-1.577761589443917945e-03,-5.021349060182542581e-03,-8.809479188854824408e-04,2.801278233528137207e-01
3.330732307301959572e-01,6.408698783534003129e-02,6.104097063268644485e-02,-5.029135475834546143e-04,-1.338384992225493363e-03,4.529088763924091318e-04,2.705345749855041504e-01
3.367710456674274377e-01,5.801034305652628953e-02,5.535314255726529742e-02,-7.819318181853737596e-04,8.975860774378706993e-04,-1.054052608774736768e-03,2.801122963428497314e-01
1.759473088019428144e-01,7.582425004030876603e-02,5.436248252377798990e-02,9.386291874430548188e-02,2.156773767577842282e-02,8.077817763049052052e-03,2.016334533691406250e-01
3.367237734587674725e-01,4.848255344536890610e-02,5.400260104707484132e-02,5.838087188902823366e-05,7.609235569741268053e-04,-1.476956555726020946e-03,2.855357527732849121e-01
3.247188472229068923e-01,4.006635394655197469e-02,4.995924069779654475e-02,2.909139359995877114e-03,-3.401329588774229268e-04,4.146087794085995433e-03,2.799753248691558838e-01
3.516710212888750631e-01,5.918313083127735297e-02,5.820818631184247749e-02,1.440752146993404779e-02,1.107877122235660997e-03,1.097331477735549499e-04,2.940437495708465576e-01
3.200834507449590860e-01,4.649515808672423367e-02,6.267354317474030378e-02,5.113951741897266451e-02,-4.356396139733721240e-04,4.838970390069606553e-03,2.803616225719451904e-01
3.882354902251742290e-01,4.126579638324755217e-02,5.664463251998071158e-02,6.563619118971861580e-03,7.558028398408019738e-03,-7.463798655411763711e-03,3.402296602725982666e-01
3.263499448368416544e-01,5.009662894741685746e-02,4.500138517600853205e-02,2.632079809275679298e-03,-9.071864981793704074e-04,1.776760341294706964e-03,2.788945138454437256e-01
2.783684088470836926e-01,5.127789123469284061e-02,4.268903735187339066e-02,7.478300072711126407e-03,-2.511418913448401277e-02,8.146917102451503925e-03,2.363331913948059082e-01
3.383688317865236606e-01,5.807494074826922981e-02,7.255411026920211004e-02,-8.615202863648660156e-04,-3.578051044758422507e-04,-1.106453416270239496e-03,2.733535766601562500e-01
3.372036767217444497e-01,5.755584071602025398e-02,6.086723088240794666e-02,-2.801785865537996523e-03,-2.671302038636079543e-03,-2.468921565425175694e-05,2.780877947807312012e-01
3.323883358380972375e-01,6.250045875302186194e-02,6.555837830424353363e-02,-2.730235304311551129e-04,-6.632940993502550557e-04,-4.819088754745350111e-04,2.683761715888977051e-01
3.358329420767880991e-01,6.042275618923534375e-02,5.983090239422744760e-02,-7.556997950799773092e-04,-1.449244782934851206e-03,1.907214985589971573e-03,2.757409214973449707e-01
3.384692221716751881e-01,6.332802316538281573e-02,5.938938736601839796e-02,1.036831181543610434e-03,1.784455709393475281e-03,1.683069499057143628e-03,2.771698832511901855e-01
5.001386656771039663e-01,8.913604267625138688e-02,8.614761285374811228e-02,7.912830627536397710e-02,-2.324332284022848777e-02,1.201515427747635451e-02,4.370332360267639160e-01
3.312073723252839108e-01,4.813631773101517686e-02,5.154863134927778479e-02,-2.400931547834079562e-03,-1.583471776277534148e-03,-4.033395804510822927e-03,2.815112173557281494e-01
2.609031284761992309e-01,7.077768483473505234e-02,4.176902274317173536e-02,-1.656540098524934487e-03,-5.999545402073597211e-02,-3.974730308259340900e-03,2.309945076704025269e-01
3.348853243284685144e-01,5.356468801368087507e-02,4.980034950104227087e-02,3.403713717918947865e-03,-4.189222442213131822e-03,6.349924632774472423e-03,2.835891842842102051e-01
3.398738849945370233e-01,6.601954015353750371e-02,5.959436312174376527e-02,-3.491155223860619404e-03,6.045465804931666326e-04,-2.875212773006033786e-04,2.771911919116973877e-01
3.388996283788442421e-01,4.879096797545237618e-02,5.387386686454075091e-02,-4.237294989460898414e-02,-3.007163559761354132e-02,-9.290030903842828175e-03,3.017822206020355225e-01
3.358000357767894073e-01,5.714697541551808091e-02,5.917936427392700427e-02,1.337889670902997962e-03,1.497880911339023171e-03,3.996495253550029578e-04,2.776651084423065186e-01
3.668717848260183434e-01,7.095221685953882751e-02,7.405001348818428253e-02,-3.484220351033952279e-02,8.006564212351514886e-02,3.699663867466927020e-03,3.310223817825317383e-01
3.344507625711130028e-01,5.926060797948293213e-02,5.721257050058475846e-02,-2.588945206555788147e-03,-2.810440116839125059e-04,-1.975031767936769652e-03,2.762778699398040771e-01
3.320420735821155156e-01,5.294468829356506479e-02,4.781135259373246738e-02,-1.091659914598945872e-03,1.852912374414947142e-04,-8.762115092294032234e-04,2.817097604274749756e-01
2.606927798805323548e-01,6.270317252106916150e-02,3.623163244318303167e-02,2.426030692087766897e-03,4.416892786409249566e-02,5.703022543613417601e-03,2.260743826627731323e-01
5.080776287706774141e-01,7.826358775140296320e-02,6.341802513673483466e-02,3.374157692063804725e-02,-6.543560892686721767e-03,1.229283816591110294e-02,4.419712722301483154e-01
3.491122742981828120e-01,6.052498293493796533e-02,6.055012152449412710e-02,4.964274303887677249e-04,1.640625635395079806e-03,-7.094773073827683515e-04,2.885926067829132080e-01
3.377402667216583554e-01,5.836902345607419829e-02,6.642765612552502252e-02,-2.529059052944053823e-03,2.038520421137772487e-03,8.476201314808571186e-04,2.754917442798614502e-01
3.273750078154116783e-01,3.288737787246692745e-02,5.746173803343040953e-02,-6.165497387340714876e-03,4.608390745211267880e-04,-6.275881409185054844e-04,2.832064330577850342e-01
3.493854974732901741e-01,5.698290096497188317e-02,6.846783827370168940e-02,-4.939364078241790992e-04,2.391872738975430075e-03,9.793343292374960974e-04,2.868688404560089111e-01
3.275069040359616102e-01,4.198929716002573753e-02,4.474544007061365125e-02,-7.985401232658698775e-05,-2.061386890247878250e-04,-1.591616537056763769e-03,2.841631770133972168e-01
3.309923966346577373e-01,4.537856589895625237e-02,4.747745233468826653e-02,-1.111507175783087598e-03,-3.254784038982943433e-04,-1.543311673908716276e-03,2.845898270606994629e-01
3.212286940437261151e-01,6.550002902857469944e-02,4.453550643373827000e-02,-2.456000481596324735e-03,1.095336066918429531e-02,-1.875840924537642554e-03,2.675564885139465332e-01
3.456963948669740105e-01,5.846368710207196229e-02,5.279053576984377161e-02,3.598134530222846759e-03,1.335575774854574384e-02,-2.589729094330353264e-06,2.910984158515930176e-01
3.470464539938333814e-01,5.780722835623339217e-02,5.324743456235950245e-02,-1.249388643283922372e-02,-1.480793183130532827e-02,-4.389401796235654039e-03,2.935692667961120605e-01
3.480654005672970674e-01,6.060521558656871421e-02,7.526172530007124717e-02,3.869181515758143841e-04,-3.145032429810689940e-03,4.871385592470410617e-04,2.804743051528930664e-01
3.316032074905216898e-01,5.055869875163609972e-02,5.281545958740722913e-02,3.176241583640345800e-04,4.174632765948866134e-04,-8.265512783307386868e-04,2.799280881881713867e-01
2.625301831724445312e-01,6.166459135651521095e-02,5.145900145150175686e-02,-5.573525267620592361e-02,6.498742731069738487e-02,1.054350932375604146e-03,2.539562582969665527e-01
3.920426866190502846e-01,4.413116435799775694e-02,2.934717881830706254e-02,8.502802285382903349e-03,2.937479844718613245e-02,-1.598442508856108557e-02,3.605225980281829834e-01
3.597363734739579266e-01,7.144233590327428440e-02,6.365545919437375078e-02,4.828343330529581701e-02,6.178506804155630555e-02,3.208284069410395449e-03,3.223289251327514648e-01
3.391167541098561999e-01,6.194244947630010711e-02,5.808255088284734746e-02,1.538597261130599404e-03,-1.312977395230148199e-03,-3.215238395533437203e-04,2.791468203067779541e-01
3.678367058909004506e-01,7.259947354407575437e-02,7.358501168812653370e-02,5.250242324379267300e-02,7.316296030392688277e-02,-1.484671124862858458e-03,3.334810435771942139e-01
3.248132516868634800e-01,5.782356586541270715e-02,3.288470166755300128e-02,3.358497476811450350e-03,5.713830780686318146e-03,-2.550360473571352052e-03,2.805622220039367676e-01
3.389800777759844896e-01,5.546223297526867158e-02,4.454024196893735521e-02,4.891071387313706073e-05,7.071860335053231812e-03,7.887890806820201193e-04,2.893961668014526367e-01
2.523512194346764215e-01,6.899717107933558968e-02,5.413311171635561136e-02,6.524800688078086566e-03,2.159638828115059694e-02,-3.354050516377602049e-03,1.952580660581588745e-01
3.237275095801196434e-01,3.248715725305775792e-02,5.906747732719302979e-02,4.729028906635491213e-03,-2.181776566473650990e-04,2.619072970820774532e-03,2.790591418743133545e-01
3.932367926349913945e-02,5.754323807328769885e-02,4.883775545256364287e-02,2.291247704053736914e-02,2.560910832693398531e-02,5.673679630416674641e-03,6.235482171177864075e-02
3.971107213514439294e-01,7.288763882213011858e-02,7.453332456035158260e-02,6.141502710272699062e-02,8.506786237925478833e-02,3.043143484942812359e-03,3.710021078586578369e-01
3.326852772124214708e-01,5.501083808575296663e-02,5.414324466276183856e-02,1.140720837624112230e-03,-4.524922198889926787e-05,-1.136823987739667531e-03,2.781232595443725586e-01
1.881176575412270846e-01,6.702095962435568322e-02,4.744629446263848999e-02,3.043654984470795487e-03,2.199859481366839634e-02,1.413551228766703367e-03,1.374903768301010132e-01
3.554947344136830667e-01,5.199740160395888156e-02,5.532477173895407330e-02,5.092967106753169132e-02,2.367132853183367969e-02,-3.692370839356242437e-03,3.171990513801574707e-01
3.312624375628817619e-01,5.748950318877209253e-02,3.988171426857597957e-02,1.325515698361114797e-03,7.113635775166750113e-04,-1.234807538379966785e-03,2.830080389976501465e-01
3.503501130305964884e-01,7.003225701114190738e-02,7.493903833118513436e-02,5.364000672122461177e-02,1.230337570845750766e-01,3.086167435432854607e-03,3.623519837856292725e-01
3.313968205967295910e-01,5.363516275775644104e-02,5.366436313822176007e-02,-1.095418167463411757e-03,-5.385398392324372351e-05,-1.661785524816387059e-04,2.777537107467651367e-01
3.315620844242592735e-01,4.215980153889808957e-02,5.707138458143028170e-02,1.054487354185896326e-03,5.623466280139101077e-04,2.034466077416525846e-03,2.822716534137725830e-01
3.302272696112619754e-01,5.524322675423197493e-02,3.664610865129314110e-02,1.599864371443567631e-03,-6.896199458377933258e-03,-2.276059792789860000e-04,2.850026190280914307e-01
3.267834096051860926e-01,4.001344321619781930e-02,5.389082458033529754e-02,8.843868974615793624e-04,3.638493296740001950e-04,1.303401693030258436e-03,2.801032364368438721e-01
4.599528705359068881e-01,7.550123830515045875e-02,8.371355977790539971e-02,8.128224673507528086e-02,7.329809083300864100e-03,6.769759840647007060e-03,4.059954881668090820e-01
4.695562011220753562e-01,6.899275275273730745e-02,7.510583537888340655e-02,6.790687646762647023e-02,3.574769036499625408e-02,-2.998802183551334353e-03,4.192069470882415771e-01
2.035116406624021546e-01,4.435485051394484624e-02,5.894432060465899792e-02,6.661364473124539720e-02,-4.392419656250538124e-02,4.137643887341352182e-03,2.058475762605667114e-01
2.394965139145345812e-01,6.249254751077064352e-02,5.158354987761964994e-02,1.115765999827544701e-02,-2.249624424384834547e-03,7.017932116335771908e-03,1.841650456190109253e-01
3.956229605203427369e-01,6.171765420215126474e-02,6.985791706700462955e-02,5.554690112027126786e-02,4.140046940356274102e-02,-2.807611533877204385e-03,3.510882556438446045e-01
3.233572477241514198e-01,3.464435758154758849e-02,5.468288067385589091e-02,-1.968244860693183895e-03,-1.371100359369400654e-03,-1.918713176542363253e-03,2.792840898036956787e-01
2.915650065417233483e-01,4.205301517264162237e-02,5.727973702307811998e-02,-2.638368911841990679e-03,-4.727512845511325354e-04,-9.093503260780124234e-03,2.428136467933654785e-01
3.358889669837379355e-01,4.538957132647314374e-02,5.844577993109147107e-02,4.047344160823331677e-03,4.656313854499962357e-04,1.938971872237288960e-03,2.843037247657775879e-01
3.842223716405978040e-01,7.759302994648302476e-02,7.029783526978991559e-02,-3.817360906978836677e-02,-9.515011799546659044e-02,-2.829577307229793909e-03,3.575863838195800781e-01
3.207108457754178632e-01,5.507167768194538848e-02,4.635698177122908603e-02,-2.068188899250995112e-05,-1.737704618810553131e-02,3.044938968379194612e-03,2.718248963356018066e-01
2.021013011836922946e-01,5.878954250285713112e-02,4.509389080898118518e-02,-9.210997488093156452e-03,-6.653720013687450252e-02,4.279925857142399446e-04,1.903293281793594360e-01
3.259163069036918881e-01,3.401455393175700781e-02,5.213302577095099699e-02,1.528365757349684330e-04,4.100216750298979690e-04,3.698909236174179396e-03,2.833508849143981934e-01
3.296182070077864346e-01,4.351739102390739244e-02,4.778243919014694974e-02,5.584964426553077135e-04,-3.154066712132873253e-05,3.039390773833453799e-03,2.840427458286285400e-01
2.812090030249226325e-01,5.941909083520169332e-02,4.652356266679671948e-02,2.809270275397206251e-02,-8.047497160678823702e-02,3.130105182890774787e-03,2.721080780029296875e-01
5.556396428368217677e-01,5.929595116223648765e-02,9.621686005883786641e-02,6.234325944999486412e-03,3.432876476732985016e-02,6.844164150689929088e-03,4.828946888446807861e-01
5.436729241022688619e-01,7.023080394135872151e-02,9.682106625700048763e-02,3.227692591295446695e-02,1.412225141100191712e-02,8.295036560201710096e-03,4.649684727191925049e-01
3.268286313117023112e-01,5.399487631503817331e-02,4.458433528913131882e-02,1.253270995176081551e-02,-6.190990658446684364e-02,2.539877932058542172e-03,2.984684109687805176e-01
3.469197717676060222e-01,7.539251957859129105e-02,5.912068318519439480e-02,-8.205596233262031549e-04,1.496639501346452546e-03,-5.835783489644692616e-04,2.800354063510894775e-01
3.460671721797703437e-01,5.702467203296737730e-02,5.455138719855134877e-02,-1.645306459982695188e-02,-1.272576658185647046e-02,-2.264707060265093181e-03,2.925404310226440430e-01
4.770250013857433857e-01,7.003775129709585712e-02,8.212542322601917855e-02,-8.329957287190303816e-02,-5.960046339159258931e-03,-3.572314041033365119e-03,4.264112114906311035e-01
3.336943733232750064e-01,4.918993510822539106e-02,5.325719318635319111e-02,8.616862499094043309e-04,6.370371921231825088e-04,1.043111066988688246e-03,2.825046479701995850e-01
3.152699128212488322e-01,6.043173428049138096e-02,4.599301344029058103e-02,1.424318008810312140e-02,-2.778785063825293250e-02,1.503815688947504094e-02,2.691357433795928955e-01
3.444045992346315699e-01,6.471925993779314989e-02,6.398220442473105674e-02,-1.544262261523059740e-03,9.424965440357769555e-04,-2.981371484518064146e-03,2.801197171211242676e-01
3.665337570836738612e-01,5.522116121584787207e-02,5.936733556197322514e-02,8.651479520979570362e-03,5.868509055809586171e-03,-5.649757039708186001e-04,3.097915351390838623e-01
3.412539697311471332e-01,7.261873976041471890e-02,5.745609457669947906e-02,-1.786861627193784803e-03,1.942112082244121197e-03,7.651784203985575843e-04,2.765694558620452881e-01
2.239690964568870069e-01,6.627773365746830736e-02,4.346521830603722325e-02,1.759502413540933036e-02,-2.038918575196235414e-02,8.670520477799941242e-03,1.771602630615234375e-01
1.819715891015537546e-01,6.402576351219513295e-02,5.140644173118661536e-02,-8.559346246580794640e-03,-2.881109613961493898e-02,-7.620504303870806939e-04,1.351688951253890991e-01
3.348033445954738951e-01,6.385967234032119411e-02,6.853544543143294532e-02,3.305913846875602148e-04,9.810049181974169722e-05,-1.187803779281289751e-03,2.686448395252227783e-01
2.408072059806274645e-01,7.106833774924453673e-02,5.346387584691356110e-02,-1.268654092005525730e-03,-2.271958436983814722e-03,4.903917978198626959e-03,1.794486641883850098e-01
5.050209103393963339e-01,6.256371696786811043e-02,8.334168747163128721e-02,5.206452623699386884e-02,1.817505004205259914e-02,-5.097908547403483606e-04,4.428664147853851318e-01
3.291268981289007245e-01,4.270180372226060894e-02,5.715692923320028762e-02,-7.650072136676146217e-02,-3.255745225278252469e-02,4.457230630995673640e-03,3.144910633563995361e-01
3.533267643048624285e-01,5.071240468661047940e-02,5.541935414706720964e-02,6.192346436922892272e-02,4.576035977630641370e-03,1.621915933900142418e-04,3.189665377140045166e-01
2.614087608420143649e-01,5.993635332557036011e-02,4.484843907650531980e-02,-6.281341517850258516e-03,-2.000808781649360008e-03,9.541873198327749384e-03,2.103855758905410767e-01
3.340373706670173859e-01,5.805140898672925265e-02,5.835310952644558180e-02,3.404622730850542247e-04,-1.085016387492556550e-03,7.461583138669971920e-04,2.758452892303466797e-01
1.843675648048257454e-01,6.824270569308746315e-02,6.375210408755807578e-02,-1.093297567247137649e-02,8.904676367436926629e-03,4.202600654491863395e-03,1.211448460817337036e-01
2.668047412326549073e-01,6.115730504996234884e-02,5.323575702783087116e-02,8.171177481577572912e-03,2.399744054911358976e-02,-4.387630363086176578e-03,2.144023180007934570e-01
3.310198555443586987e-01,4.412804875525346004e-02,4.934852146590716637e-02,1.090024597505549362e-03,-1.512980296156701517e-03,3.736924983910218032e-03,2.844095230102539062e-01
2.413094626039990198e-01,5.965808385801708857e-02,5.560222801769015843e-02,-1.957002020357733948e-02,5.441446075747725236e-02,5.229429226041452765e-03,2.094378769397735596e-01
3.480720832077879301e-01,6.318632910428320648e-02,6.079695479026021865e-02,-2.952427452030147344e-03,-4.730907553684308813e-03,1.779503993446860570e-03,2.862675189971923828e-01
3.160734176751218705e-01,5.741154695294432841e-02,3.184678632866974612e-02,-5.007650100964351021e-04,3.209530238198902622e-05,1.155185472808202291e-03,2.723543643951416016e-01
3.192999432968820495e-01,4.721576251571822647e-02,4.503660218106332602e-02,-1.136949691625900594e-03,2.775775687288352823e-04,6.997252525211905029e-03,2.734565138816833496e-01
3.169307267573787668e-01,3.321817550026598398e-02,6.398281057446278397e-02,5.682925480338816594e-03,1.835595503490316150e-04,-6.779178296255320042e-04,2.698320448398590088e-01
3.110246688915333513e-01,5.770392284464176402e-02,3.272423036105534533e-02,6.365970880100521850e-04,-3.965285824761992893e-03,3.487855744315349147e-03,2.668485343456268311e-01
2.660306998304233228e-01,6.268803679688092489e-02,4.703873366213262575e-02,6.635382037462495561e-04,-8.897682695003262046e-03,8.459042629229687402e-03,2.126706391572952271e-01
3.312674927703382899e-01,5.091278995479164848e-02,5.121301930039054429e-02,-2.523649565303812212e-03,-1.438302970351731502e-03,-2.513075272203519304e-03,2.802836596965789795e-01
3.420185355925913218e-01,5.875059928827704170e-02,6.106566514599846840e-02,-2.965093096388700215e-03,-1.507577707411447959e-04,1.237827692686673366e-03,2.821725308895111084e-01
3.333437254908553915e-01,6.221862250095006042e-02,3.839483599492624077e-02,1.521113286439717584e-03,-1.227222352168068874e-02,3.677669055453472707e-03,2.846663892269134521e-01
3.307374949641526118e-01,5.200398364905652049e-02,5.356212877097765723e-02,-1.070201534031930447e-03,-2.980533386395141631e-04,7.400328869842940152e-04,2.779673337936401367e-01
2.494223373007495026e-01,7.096124653084445733e-02,4.693798901751906893e-02,7.219443824269839317e-04,-2.080851024897204318e-02,5.542578925741495008e-03,1.952060461044311523e-01
3.270526539613745620e-01,4.254374817775689877e-02,5.180247575749361011e-02,2.241276513774573178e-03,-2.527895227100922866e-04,3.881031126722311528e-03,2.801023125648498535e-01
3.686456981651259346e-01,7.868463270323380887e-02,7.256788533791337648e-02,9.380231385633358565e-02,-4.934448533307660839e-02,3.637495285430243381e-03,3.458748459815979004e-01
2.912967488367784186e-01,3.954410114944129084e-02,5.584196133422367203e-02,1.141614699449104708e-02,-5.445314469322318999e-04,8.824572797386813841e-03,2.452906072139739990e-01
2.015256790634212813e-01,5.569247114451447017e-02,5.624519730156096048e-02,2.124951687177458609e-02,2.044206828152752425e-02,-5.481606450369688570e-03,1.545491069555282593e-01
3.153383682756567552e-01,3.965436524421783737e-02,5.392247462011477699e-02,2.989506230818184292e-03,-8.076276021251476995e-04,-6.626410990657856208e-03,2.691324055194854736e-01
3.335279969003327460e-01,6.324809393952589287e-02,6.359149262371451006e-02,8.117862999558636550e-02,1.536901585760617550e-03,-2.938711090075654501e-03,3.045676052570343018e-01
3.422457638285495984e-01,6.870669272566477803e-02,6.150834596168079649e-02,2.421066568152301177e-03,2.386067443247629968e-03,7.082872611559999729e-04,2.772735655307769775e-01
2.692365046114637006e-01,6.496174768484076767e-02,3.951354529465692100e-02,-3.787432144030482284e-03,-1.847545449787087873e-02,-1.231885246867663736e-03,2.205579876899719238e-01
3.374029562084401856e-01,5.717675843210616449e-02,6.417422029215040513e-02,-5.943096919347105964e-04,-3.006957536206088417e-03,-1.007796785871940479e-03,2.768502235412597656e-01
3.447245959289879647e-01,5.748027167400254767e-02,6.051712374478962486e-02,3.905182989506471324e-04,1.839577357145760674e-03,-7.730395612360958964e-04,2.857597172260284424e-01
2.887582191624067374e-01,4.119697151884936515e-02,5.321629587731617483e-02,-2.590734493043545320e-02,1.374320745078351676e-02,8.866435504913257673e-03,2.475309222936630249e-01
1.717728010540533479e-01,7.274473360824690316e-02,7.271268017022936014e-02,-8.909333113221330064e-04,7.492984594732778059e-04,2.175428983343200354e-03,9.913625568151473999e-02
3.083266335541343661e-01,5.672144440568829826e-02,3.065701152587570200e-02,2.124123236953009194e-03,-2.206117075745258217e-03,1.853924614037795069e-03,2.656706869602203369e-01
3.316310321866245969e-01,3.486002319728261079e-02,5.919446416907099551e-02,-2.233634875210136275e-02,-2.279859688409940238e-04,-1.409472149004857870e-03,2.880039811134338379e-01
3.340449822942389568e-01,6.249049914768001202e-02,6.670887043265803784e-02,-1.737287738598497370e-04,-1.278997166920630996e-03,-3.378511014682975596e-03,2.695428729057312012e-01
3.422814786876632320e-01,6.190025663360489150e-02,6.512647235313250016e-02,3.010582021580211938e-03,6.368089703256797802e-03,-6.718394340865656809e-03,2.792914807796478271e-01
3.239031695424282042e-01,5.714682093882958447e-02,4.556774456994527878e-02,-1.980347615804384839e-03,1.682033905371116411e-02,1.012370300114873167e-02,2.748632729053497314e-01
4.664210343860865082e-01,7.138314892536984368e-02,6.804836475060366263e-02,-1.486850875920614490e-02,-6.526866826838760571e-02,-9.767362077673270512e-03,4.136578738689422607e-01
3.165435916753444046e-01,5.809432224663833855e-02,3.475381633006040250e-02,-5.982915391542264268e-05,-1.023937633756517038e-03,6.822391506710956746e-04,2.708831727504730225e-01
3.265266312510370916e-01,3.968791259183278297e-02,5.121280683538649570e-02,8.204314624422683901e-05,-2.556428297209314905e-04,1.194469306283666701e-03,2.812614142894744873e-01
3.346419064034419355e-01,5.696287709894203022e-02,4.752289347041829815e-02,1.182718866573522929e-03,3.019269334593474227e-03,1.112784821934681033e-03,2.825797200202941895e-01
3.355803070439665747e-01,5.365297166327466505e-02,5.307319246226883946e-02,1.559951950168913777e-03,9.733358190897229995e-04,1.971178453270887483e-03,2.822562754154205322e-01
3.342516650709603798e-01,6.152878379968831912e-02,5.017551333765687960e-02,-3.615628900950499606e-03,3.755896116848134181e-02,2.530415604866132276e-03,2.861702740192413330e-01
1.785866828495339953e-01,5.298220757229959998e-02,5.012984901316561853e-02,-5.163469489185889411e-02,4.863465514147688462e-02,-4.886356166331601823e-03,1.769433021545410156e-01
2.211389299659649033e-01,6.908532532087280353e-02,4.928306898603711239e-02,6.824123922643875184e-02,-6.475513254496277626e-02,-6.662065145286535407e-04,2.303802222013473511e-01
3.970568437287775865e-01,7.087557807689282008e-02,5.897439587159576668e-02,3.123862626108600549e-03,1.005381867390577402e-02,4.130973973479336553e-05,3.327917158603668213e-01
3.991519720373441493e-01,6.509680084458711880e-02,6.837754937699680458e-02,-8.536122328490229963e-03,6.431803286184424075e-03,1.347210298178372454e-04,3.329420685768127441e-01
1.913061135439116933e-01,4.777692768970318721e-02,5.892529760647981923e-02,2.730271563423189007e-03,7.268535017247507168e-02,4.744155237852662813e-03,1.872542649507522583e-01
3.782440845948168984e-01,5.630579625687102963e-02,5.746765014556812212e-02,4.618305141456300299e-03,4.846518402678855197e-02,-4.088190125383989252e-05,3.322381377220153809e-01
3.332144840949322062e-01,5.811172297013508792e-02,5.765366298451543581e-02,-1.769520738583644614e-04,-2.478467322236430070e-03,-8.699542778764092596e-05,2.753657400608062744e-01
5.645191257132419205e-01,7.305178144386675898e-02,7.880233537739958494e-02,-7.128322701121203933e-03,-3.909180041814175333e-03,-1.539193102767324843e-02,4.895467460155487061e-01
3.376296246484707941e-01,5.784694687977344485e-02,4.811347309045954646e-02,2.127893632684041934e-03,7.458281808246494671e-03,-1.531890091561701091e-03,2.851032316684722900e-01
3.863836681321146105e-01,7.007773135352755867e-02,6.260860260118041032e-02,-1.580332516342968993e-02,-8.927517189434382161e-02,-5.894491701312248909e-04,3.565504252910614014e-01
2.655432817023566372e-01,3.085703932810560102e-02,6.353846773385166125e-02,-4.922107468224736632e-02,-5.669987739004331284e-03,2.665994254823741624e-03,2.363508790731430054e-01
3.519809988527937694e-01,3.307530870375427479e-02,5.288138248594358160e-02,-4.154225233274458362e-02,2.339882391460483112e-03,-2.784790963001363209e-03,3.177952468395233154e-01
3.299991198206286835e-01,5.409785814565502837e-02,4.139323612446713097e-02,8.588769027685590803e-04,7.187245646019653445e-04,-3.952252758837243758e-03,2.825575172901153564e-01
3.193298732456683053e-01,4.260973810104383419e-02,5.958308828352106012e-02,-1.045441362267051158e-02,-4.636250176856194366e-03,-9.355914509970947529e-04,2.693701088428497314e-01
3.978170796998807823e-01,6.542944493593987054e-02,6.625850321294983469e-02,-1.770205060953176273e-03,2.927962231368097957e-03,-1.613718106364254523e-03,3.320385515689849854e-01
3.305215824906422295e-01,4.051376109797812097e-02,5.114657805942252056e-02,6.875363264303250947e-03,-4.551147996277268327e-03,5.931171858619175598e-03,2.853830456733703613e-01
2.676426251392407529e-01,6.295141407483087481e-02,8.082780156062134569e-02,7.399052896097917803e-03,1.030037400087875366e-01,5.544099819616424459e-03,2.657906711101531982e-01
3.318011623300560764e-01,6.243436258946633011e-02,6.218512845586338100e-02,-1.470518101871380666e-04,9.031322759946453090e-05,8.095833705454064284e-04,2.694953083992004395e-01
4.721757769046326936e-01,5.997905343618370466e-02,7.651772955856298020e-02,4.909710852740364201e-02,-3.552540252481585503e-02,-8.415253967690241449e-03,4.178428649902343750e-01
2.372786672161973642e-01,7.376401729976420074e-02,5.226746743788573957e-02,-6.299661354279517634e-04,2.151236229999904312e-02,6.079776350656012317e-03,1.794841736555099487e-01
4.636631086038435212e-01,6.152516016461875847e-02,7.584946313884532998e-02,-6.390652031055836513e-02,-1.216939159548595037e-02,-6.752589411643799590e-03,4.110875427722930908e-01
4.766828634565268286e-01,5.247022105732440656e-02,6.370813759713570001e-02,-5.013905566366335526e-02,-1.407927721013724556e-02,-1.753526828110939934e-02,4.293882846832275391e-01
3.976200204902924362e-01,6.937476404181429357e-02,7.073857411036625631e-02,-8.836109117014470660e-02,-7.122944146109790042e-02,-4.589009909909098385e-03,3.821076750755310059e-01
3.343659012682119736e-01,4.112001902871854908e-02,5.975810663606787032e-02,-1.564013268390476458e-03,8.504671759373962038e-04,-9.745830918129017939e-04,2.844069898128509521e-01
2.138123692229988437e-01,6.244382005996628598e-02,5.500816756348277797e-02,6.291369479617352212e-02,3.113189076518002238e-02,1.206049053963729675e-02,1.982715278863906860e-01
2.959758537335328010e-01,4.948132375408603734e-02,6.427524334323070354e-02,5.534057593857283353e-02,2.011646317645730819e-02,-1.446121274387232765e-02,2.614592313766479492e-01
3.336204093284100280e-01,5.203018395920019912e-02,5.377399321020004397e-02,6.271683026793976011e-04,7.398266175069810558e-04,1.961602201066638823e-03,2.807479798793792725e-01
2.008180670656258271e-01,4.558278963912761050e-02,6.204465943499712366e-02,6.841305120314045141e-02,3.668889114787653866e-02,-4.031756132059128445e-03,1.998538225889205933e-01
1.737470629507404385e-01,4.540746733657351902e-02,4.727780733660844059e-02,-8.383505376714538160e-02,2.373203261212965612e-02,1.163713823893814748e-03,1.975174695253372192e-01
2.367001969311085530e-01,5.446374252800920135e-02,6.960444341245555777e-02,-3.501636522301096281e-03,1.256635260021062191e-02,7.540671275619968347e-03,1.770911812782287598e-01
3.293187758487636230e-01,3.885374731411493643e-02,5.602255629146725424e-02,-3.842353386111517066e-03,-1.036211333808234299e-03,-1.408503066903704984e-03,2.823671698570251465e-01
3.795085461788059167e-01,7.468196991346229274e-02,7.120438729650127585e-02,8.038352501024337293e-02,5.190669394912377638e-02,3.865664469350941785e-03,3.485737740993499756e-01
1.851030908408251019e-01,6.574045494024660652e-02,7.289701675594670305e-02,-3.431859946639391479e-02,3.210994461292013963e-02,1.342730293779888402e-02,1.435679346323013306e-01
2.969562515630629340e-01,5.020650758220208953e-02,5.518226490730461509e-02,-7.239115459551097656e-03,1.231982334705529480e-02,1.174619638219713894e-02,2.463917583227157593e-01
2.796973348991136366e-01,4.538119005098645298e-02,5.391697723627118799e-02,-1.367835767670257455e-02,6.562496502951121850e-03,1.157343259356478742e-02,2.325277775526046753e-01
3.219863674504455098e-01,5.832995159676249153e-02,3.300476447568899407e-02,1.893849675848742605e-03,-1.317622861935995515e-03,1.203265398918554894e-03,2.772246897220611572e-01
4.100438113103880289e-01,7.561191647715062580e-02,6.926950694204263292e-02,3.817138790792486830e-02,-8.592035717624776914e-02,2.248994817647419209e-03,3.748857080936431885e-01
3.836477908585760321e-01,7.406877211339900346e-02,7.120882048274494724e-02,5.569594118978168917e-02,-9.373327273677796445e-02,-2.949909554903838715e-03,3.638993501663208008e-01
2.687472297277460065e-01,4.675365966086721115e-02,5.038270105147463207e-02,-7.781827608598809211e-03,1.278638434267341355e-02,1.193668343001625526e-02,2.226842790842056274e-01
3.342288996979260185e-01,6.271186502260828188e-02,6.491778693641298004e-02,-1.080979114063562556e-03,2.043628934158232130e-03,-1.646205016506260528e-03,2.704654932022094727e-01
3.339119316753639266e-01,5.512869568570551160e-02,5.544839013531663308e-02,1.211609641286774544e-03,1.107510968470075700e-04,1.553139552339693661e-04,2.786316275596618652e-01
3.308802333667985041e-01,6.328304713890665900e-02,6.312691550438027932e-02,1.853754097967213164e-04,-6.684674451031505534e-05,-6.031219884932179174e-04,2.676775455474853516e-01
3.567690620525197365e-01,6.434355140870010037e-02,6.864780712671993135e-02,4.841057137872898167e-03,-1.844108445062093201e-03,-4.684166782579579288e-03,2.905492484569549561e-01
3.454179268174174533e-01,5.922336482379070288e-02,6.254654139947883607e-02,2.819175785806668152e-03,-1.085087193440046303e-02,2.471298489587659829e-04,2.852096557617187500e-01
3.352588106949624946e-01,5.810718225458931518e-02,6.049954689802765351e-02,1.072111389457135915e-04,1.073410489499218839e-03,3.454171874869622514e-04,2.759701907634735107e-01
3.412788797607786417e-01,6.981990737016167958e-02,6.127713135738421801e-02,3.366195939547950936e-04,1.178929385978975345e-03,-7.120589468480545024e-04,2.758405208587646484e-01
3.412543018947685747e-01,6.201071907096852853e-02,6.970406574162145430e-02,-1.445729309539906383e-04,8.844060440294014514e-04,-3.949462289689251149e-04,2.754827141761779785e-01
3.906742372068797708e-01,7.439996495571520041e-02,6.904364404456256321e-02,-1.382274906480522548e-03,7.307034412106498678e-03,-1.867185601877780193e-03,3.192625045776367188e-01
3.581482328427040840e-01,6.621782641710691197e-02,5.758137995544904131e-02,2.300478684957177247e-03,2.062515054907243690e-03,-3.420598086636421082e-03,2.964505553245544434e-01
3.323148292075499555e-01,5.960186872530830182e-02,3.599060286825225830e-02,3.231807050745143500e-03,1.005838753883371746e-02,-1.421160140924800129e-03,2.858493626117706299e-01
3.187670334104953929e-01,5.421767196875779127e-02,3.427844484297412619e-02,1.221372312717807244e-03,1.694192890257356960e-05,2.520277841840075535e-03,2.751043140888214111e-01
3.326872588067119607e-01,5.403120797038596379e-02,5.166562795314912082e-02,-1.184247635933113711e-03,1.248285535285425379e-03,1.954815794815112048e-04,2.798624038696289062e-01
5.381963660171726893e-01,7.405879083325586643e-02,8.331666169173396197e-02,-6.923479838827340666e-03,-3.135687267566966696e-03,-9.009745250246948590e-04,4.597697257995605469e-01
3.635870252211450548e-01,6.205694416108226141e-02,5.055153765990132164e-02,6.715297504478113209e-03,7.064992021394483381e-03,-1.619474665064709338e-03,3.079202473163604736e-01
3.332488882202404579e-01,3.729364714135147141e-02,5.624245866761259927e-02,3.584150180138327246e-04,1.046664849425870672e-03,-1.138816305159062693e-03,2.869636416435241699e-01
5.210795448055079992e-01,8.853026209939271474e-02,5.737867142518135455e-02,3.026284575507571031e-02,3.607811806062847376e-02,1.593707046196303836e-02,4.571195542812347412e-01
5.374107250824369242e-01,8.771139659285290269e-02,7.016037235235247915e-02,4.166141349194104476e-02,3.734715769009960742e-03,1.409954323230229976e-02,4.650542736053466797e-01
4.304045002650677132e-01,6.631527252665261885e-02,8.113355722516364665e-02,-8.785412363176747785e-02,2.384471841352975643e-02,-5.208861080399041985e-03,3.902915716171264648e-01
3.364223894149982463e-01,5.056323657691969009e-02,5.899344577348461516e-02,-9.227786980751921664e-02,-4.013488549315324949e-03,-3.505953868317674511e-04,3.239922523498535156e-01
4.786816034298789213e-01,7.584819090912145456e-02,8.298258112003953357e-02,-3.167425163326879900e-02,6.704231043115817246e-02,1.117979937777980985e-02,4.199052751064300537e-01
3.847497579946150825e-01,7.039018316268096098e-02,5.645837580209515927e-02,-6.377713572620331926e-04,1.081149566301265645e-03,-8.550041373065516825e-04,3.215626776218414307e-01
3.524774417268539128e-01,6.456104659138682533e-02,6.159330909481236516e-02,7.960535961385730927e-04,2.241111667099456896e-03,1.475872108435970958e-03,2.894522845745086670e-01
3.600053575424554397e-01,7.379566260821902868e-02,7.556897265966737443e-02,8.278085286519688835e-02,5.078845266341718012e-02,1.796535425807242042e-03,3.312366008758544922e-01
3.332171289987241325e-01,6.075707058053729515e-02,6.568161589492976793e-02,-1.392647975112238246e-03,-9.735932092114877884e-04,9.149058777458760191e-04,2.700521647930145264e-01
3.374339712819033332e-01,6.673357996072679099e-02,6.158471127240100484e-02,-1.100567135828575162e-03,-1.294378099776092661e-03,1.042870983512798107e-03,2.733330130577087402e-01
3.812597509914181781e-01,3.388584966909226337e-02,4.612629631913582606e-02,-2.170250553868205770e-02,9.898305993905789197e-05,-9.444514641998505780e-03,3.438706994056701660e-01
4.074997606063218702e-01,5.256328088271686183e-02,6.763137909479816079e-02,3.941961503712851367e-02,3.629522240396296229e-02,-7.446086162399151616e-03,3.600538969039916992e-01
3.253919834834622105e-01,5.851739401905310667e-02,3.573824984005422034e-02,3.360108602444478523e-03,2.219634259743319144e-04,-1.472060186129668397e-03,2.790351808071136475e-01
3.751011658921534764e-01,7.725743143785790412e-02,7.290370783752508910e-02,5.396380708560399170e-02,8.864142798964622094e-02,1.057234162372313940e-03,3.497686684131622314e-01
1.924183566419760960e-01,4.481843918510475255e-02,5.079668452147534374e-02,4.291346080176819400e-02,1.573447788415347631e-02,3.905778833732368241e-03,1.650826185941696167e-01
4.570487184691308102e-01,8.343516171550767468e-02,6.889378163154918910e-02,2.598690751996967155e-02,7.708291740043617113e-02,-2.703645752688865408e-03,4.063306748867034912e-01
3.304699056395921652e-01,5.464304307702454178e-02,3.995429739873709862e-02,2.164470672139141318e-04,5.475761531511645240e-04,-1.159874426209849072e-03,2.834657728672027588e-01
3.340696204574393757e-01,6.218636707233689276e-02,5.887332733008218688e-02,-1.290466151355062476e-03,5.278540986944190837e-04,-2.787761569340184084e-04,2.735659182071685791e-01
2.119416055200586957e-01,4.195084617799856030e-02,6.409815033738239243e-02,-4.503058490842967720e-02,-9.710429890114351606e-03,-5.691436330802603430e-03,1.791252046823501587e-01
3.411362435485881806e-01,5.963766831070947683e-02,7.308229857001651009e-02,8.623430232141891501e-04,1.733182987656499115e-04,-3.669205529740517113e-04,2.750277817249298096e-01
3.297659280244576996e-01,5.692406663314786286e-02,3.839660264193867079e-02,-5.952681787595067971e-04,8.446468641897732395e-04,-9.937398894580731605e-04,2.825724482536315918e-01
3.337324665416813718e-01,5.581629362576737141e-02,4.998037676464406331e-02,-5.406952209947526620e-04,-8.583676406428481951e-04,-1.550055070373355416e-03,2.808979451656341553e-01
3.332145004465140170e-01,5.625499880187430357e-02,4.810692455177009719e-02,-3.514514902888427484e-04,-1.688641459662810259e-03,-4.128421569652353132e-04,2.811388969421386719e-01
3.318254742454508355e-01,4.135456654071767435e-02,5.239728644917418521e-02,1.664686567963717797e-03,-3.614597144726707256e-07,1.309361443193521584e-03,2.851335704326629639e-01
3.421269895922399717e-01,6.042092843110925815e-02,6.948338743924772909e-02,-1.660196561532104520e-03,-2.411054884578137884e-03,1.494340959905160601e-03,2.773443460464477539e-01
3.371963834121664005e-01,5.113758469566541398e-02,4.515896693727063094e-02,-8.566759345658486388e-04,-2.855218899329977971e-04,-1.150527844295494559e-03,2.891055643558502197e-01
3.314199018772328031e-01,4.793074165612765114e-02,4.746165584161275708e-02,1.860351488455959813e-04,5.963514491429021879e-04,-2.656880021385223806e-03,2.837633788585662842e-01
3.354689141803995356e-01,5.953649685775162792e-02,5.848379784423758665e-02,-7.144012762709359577e-04,-1.065000721834820406e-03,2.050009120068721719e-04,2.764694094657897949e-01
3.130349956742896067e-01,6.041719005238707640e-02,4.260857771077064537e-02,7.257055021997868907e-03,1.008208249285317236e-02,-3.622557829257688766e-03,2.629334330558776855e-01
3.565283415532873867e-01,5.921219024732397862e-02,7.340507120386693951e-02,1.491083351662119598e-03,2.140828953382698744e-03,-2.577808961322501538e-04,2.905153632164001465e-01
4.431978135876186720e-01,7.730634956251154766e-02,6.853403912134523046e-02,-3.898115263013583309e-03,1.056811200831004605e-01,-8.743764480329988898e-04,4.131786525249481201e-01
3.232084952815343915e-01,4.973606473767387681e-02,4.565916591913941891e-02,1.071072160500223958e-03,3.653819736018176518e-03,-7.004077348526351922e-03,2.758792638778686523e-01
2.059209827588897035e-01,5.411105082666976818e-02,6.139519246516591394e-02,-1.829359704054658994e-03,2.569582825925968358e-02,6.218115954567443940e-03,1.552429348230361938e-01
1.872901305353838197e-01,7.105764430785746488e-02,6.253364452384232997e-02,4.315849075134726986e-02,5.136037959430542199e-02,6.030856098572770843e-03,1.678813844919204712e-01
1.191813674283011826e-01,4.516554912289491575e-02,4.479406314229478214e-02,-3.916455652495468356e-03,5.112363342009895034e-02,7.232855233630552244e-03,1.164036542177200317e-01
3.332754248942414455e-01,5.619462401967692533e-02,3.679979289318316416e-02,1.022686019928309518e-03,-1.576661124479561025e-04,-8.768154757616383917e-04,2.872792780399322510e-01
3.324937630550798273e-01,5.727130198872133759e-02,5.657215534357246112e-02,5.108947669482268418e-04,7.746353852434528873e-04,-3.623192207772612172e-04,2.755781114101409912e-01
2.547790293226166458e-01,5.944556649863619313e-02,5.394432747516648974e-02,-6.769778130886774936e-02,-1.112286664807351777e-01,4.176532927723037442e-03,3.002944290637969971e-01
3.262173132133186493e-01,3.679523672909662535e-02,5.615831946886304382e-02,3.818797625535098189e-04,3.798073003823033045e-04,1.665513808447727576e-03,2.802590727806091309e-01
3.091883814383378226e-01,3.815218267384380690e-02,5.234340702928005906e-02,-1.266737387203931771e-04,-3.490880998268515618e-03,7.058046814277014851e-03,2.645784020423889160e-01
3.232209519333110737e-01,5.544074095887528697e-02,3.779835775830373001e-02,-9.450651705073465775e-03,-5.499404453858153241e-02,-1.253638314230306854e-02,2.942010164260864258e-01
3.309538387158179606e-01,6.038684869124003041e-02,4.246602643154590018e-02,-2.327380771031108630e-04,-1.261207692155636708e-03,-1.781428971171485943e-03,2.799837291240692139e-01
3.359314336477300933e-01,6.213638587080579090e-02,4.868169134227183503e-02,3.263737279282529538e-05,-6.365585284433503653e-03,-1.202039788806705516e-03,2.809883952140808105e-01
4.736916210996403032e-01,7.129829901972814521e-02,6.283723921473863272e-02,-4.428865422353434056e-02,-4.795350825674173090e-02,-5.488991644517819679e-03,4.222204387187957764e-01
3.379189744906611059e-01,5.861414830649545882e-02,5.897623130695099636e-02,-2.433213862444287470e-03,-1.403643510336454836e-04,-6.940186769454180916e-05,2.791559100151062012e-01
2.644459199279820538e-01,5.070395527582192974e-02,4.168505564559038534e-02,-2.397017495154392733e-02,-7.947686293754467612e-02,-5.994192702910791822e-03,2.616789937019348145e-01
3.600121919769075363e-01,5.844863896089369515e-02,5.571480037913190131e-02,-2.516755512922712844e-03,-1.421308952828225988e-02,-8.854477986094712316e-04,3.039734661579132080e-01
3.358065931949618665e-01,5.651821618671459824e-02,3.890005766400415899e-02,1.830801927858072232e-03,-1.300092599071926269e-03,8.083708161919675146e-04,2.885308265686035156e-01
3.370169037832410064e-01,5.906482157017774182e-02,5.598253517097691312e-02,-1.136837190771669863e-03,1.031163765144933178e-03,-1.674931109485699315e-03,2.795336544513702393e-01
3.320803845932407405e-01,5.854012882365480785e-02,4.528704086892147707e-02,-8.298327481123373437e-04,6.008730048519097047e-04,-1.182906977685315201e-04,2.804074883460998535e-01
3.389823779604085319e-01,5.919286613079458026e-02,6.257864388630192398e-02,-1.282319711931046314e-03,9.986405852944117527e-04,4.751826787684702413e-04,2.781275510787963867e-01
5.484267406927119115e-01,7.054686919158426051e-02,8.035830208300293043e-02,-2.358727862320733615e-03,-1.188891012756403652e-02,-1.652265652119944833e-02,4.743801057338714600e-01
3.370887235526951464e-01,5.186503569932747471e-02,5.503720876003617701e-02,-2.951582869302827651e-04,-2.136571968540996840e-03,-7.184077529879582353e-04,2.836782336235046387e-01
3.039407211315399704e-01,5.254019524702581434e-02,3.892303659291075635e-02,1.567061501931541704e-03,8.837817775069155973e-03,-7.065085641749862914e-03,2.592343389987945557e-01
3.446899109743679634e-01,5.796706796077602530e-02,4.303214618438801209e-02,8.671801843600108204e-04,3.462889743337566224e-03,-1.807622682715408343e-03,2.945560216903686523e-01
3.521310774200382410e-01,6.585291320114476654e-02,6.428667724983815057e-02,3.745308195851822751e-03,4.583951110298157931e-03,6.111560867482939904e-03,2.874425053596496582e-01
5.138557873437674672e-01,6.201805513473160336e-02,7.498196774965443234e-02,-4.315944090631224778e-02,-1.086511231516068543e-02,-8.547155336281525920e-03,4.523597359657287598e-01
3.259120573428487266e-01,6.015848103619514387e-02,3.372302223027801027e-02,1.012639623831324237e-04,1.018693238214795531e-03,1.051021662302819648e-03,2.799206674098968506e-01
3.003581676997232330e-01,5.288051662846723899e-02,4.568335310642959723e-02,8.101029985169996839e-03,-1.271012038608572772e-02,7.727654538059487190e-03,2.528612315654754639e-01
3.497844194957644981e-01,6.165899135932206843e-02,5.251729829723529586e-02,2.849087138016218176e-04,-1.851840344696262242e-02,-2.532180992273824283e-04,2.945556342601776123e-01
3.272228360686622040e-01,5.838477496823936408e-02,4.158441058435320692e-02,1.179550370755094290e-03,1.646539897427231301e-03,1.618197229748630044e-04,2.776420712471008301e-01
3.874743000790781267e-01,6.925293408167114417e-02,7.292686063107339800e-02,1.415510893587619903e-02,1.085027068283575535e-03,3.553628580944397704e-03,3.174141347408294678e-01
3.605387405982755089e-01,6.705865723214859964e-02,5.353528089143823332e-02,-8.534947536677047614e-03,3.979984514654507505e-02,8.867818004271422431e-05,3.086307346820831299e-01
3.071456326526653680e-01,5.687574788066598885e-02,2.815682217212887861e-02,-2.010018428359165981e-03,-4.129712195985488915e-03,-2.294262220578996078e-03,2.659442722797393799e-01
3.388115346451242571e-01,5.919113690239462267e-02,4.908842376852422251e-02,1.831268690703877385e-03,-7.265039624624016618e-03,7.869297366873898155e-04,2.851049304008483887e-01
4.434077759309322797e-01,8.733439766563991236e-02,7.916500403709123002e-02,8.012347446051622246e-02,-3.510911980182124248e-02,7.001554158341657605e-03,3.909836709499359131e-01
3.467376583133089940e-01,6.181701052516228034e-02,5.778454704179661339e-02,-1.342365859047167859e-04,-1.865305478818420179e-04,-4.148603530156480811e-05,2.869584262371063232e-01
3.093471144545110185e-01,4.320876283614955016e-02,4.988938561002612126e-02,3.181032054948835282e-03,-8.651713031270689925e-04,8.481349434343071064e-03,2.633337974548339844e-01
3.571349485885088049e-01,5.648810499812299823e-02,5.374258082459913710e-02,-2.502074318255876825e-02,-7.365154949555825781e-02,-5.838894930898673105e-03,3.308708667755126953e-01
5.641070706857247430e-01,9.518674611023802967e-02,7.097079511168591370e-02,1.894176329561960206e-02,2.108890747247262748e-03,-1.191240886869322085e-02,4.830563664436340332e-01
3.430732304869363869e-01,5.826105130322650760e-02,6.974450625848579999e-02,3.012396321661045540e-03,-3.537666042184247489e-03,7.227643165272600034e-04,2.793663442134857178e-01
5.088490863227694838e-01,8.940235522117967459e-02,5.874582927542226773e-02,2.608711282869130219e-02,1.185467776970289483e-03,5.445122157462865820e-03,4.380284547805786133e-01
3.816689063531106263e-01,5.894051514358608634e-02,6.640945966200986761e-02,-1.159533303479739173e-02,-4.104479425821432872e-04,1.893246080732765104e-04,3.196919262409210205e-01
3.635353578181630407e-01,6.209310075189157507e-02,7.195695218281059069e-02,-3.063374961520751259e-03,-2.390725880374621089e-03,3.105421153404585178e-03,2.967584431171417236e-01
3.180582362548151631e-01,5.491727517708461237e-02,3.918536113545380284e-02,-2.559502569243300458e-03,5.635192293742658474e-03,8.022729697555736408e-03,2.719161212444305420e-01
3.226071625135447096e-01,6.077422536584732582e-02,3.627618908679028364e-02,1.922025337712095867e-03,5.544075137464940517e-02,9.587808347520349050e-03,2.916829288005828857e-01
3.753818016761505394e-01,6.596074214079412912e-02,5.778809416954813760e-02,-2.606272664514332205e-03,8.452758451851252047e-03,8.271630135448376775e-04,3.139645755290985107e-01
3.844341250096335871e-01,6.913948110004146386e-02,6.430500071290047581e-02,-6.167459366050479994e-04,4.621171683413416063e-05,7.593153331321756436e-05,3.177413046360015869e-01
3.796233691841830460e-01,6.835077578499910989e-02,6.751118377776700596e-02,-2.081920133660255037e-02,-8.971318108767228905e-02,-4.382589777858590142e-03,3.502227663993835449e-01
3.385163770919249471e-01,5.957429923728151111e-02,5.064950735517549651e-02,1.519637923609352742e-03,-5.185621198132601105e-03,5.221188896679696293e-04,2.836657464504241943e-01
3.424421848461231543e-01,5.800606089280847810e-02,5.379875273541430414e-02,-3.323618228193409019e-02,3.764357366446596104e-02,6.751541823693076212e-03,2.997000515460968018e-01
3.347387037375910701e-01,4.736737960835454841e-02,5.129116480079780327e-02,-1.633195464101767913e-02,2.084987538348413369e-02,8.614922679014884802e-03,2.894772589206695557e-01
4.074536566039527741e-01,4.554478172741519004e-02,6.224793711938768348e-02,2.277751056768478888e-02,-1.544498940812202284e-03,1.029903425865961661e-02,3.565022051334381104e-01
3.862132392811244985e-01,4.789586474526578985e-02,6.265864756285434434e-02,-8.519080565446599321e-03,4.637377045961440375e-02,1.258814902678432116e-02,3.417993187904357910e-01
3.207034378997558610e-01,4.098881006916782477e-02,4.921264758540963569e-02,-4.759625878947760895e-03,-5.626434324729688054e-03,-5.296903987134767532e-03,2.761425077915191650e-01
3.523821602813973497e-01,7.327051290732719546e-02,5.912854112183861532e-02,3.290015601386195483e-03,9.779242618211145092e-04,2.867265925469417165e-03,2.865492999553680420e-01
5.083187848672696685e-01,8.761516222344301053e-02,6.850075790849283197e-02,3.452973197118894971e-02,1.397699063549646611e-02,9.389794014705512767e-03,4.356901049613952637e-01
5.570378210267485919e-01,8.431499469620540310e-02,7.983620649731940078e-02,1.831957672680361790e-02,2.571119396735137980e-03,1.336336437677412663e-02,4.766199290752410889e-01
1.857243178566126973e-01,7.784801545528562128e-02,7.511930622967125104e-02,-3.778620771219977532e-03,4.623043703106200289e-03,2.968622680381228108e-03,1.098749041557312012e-01
1.859931417568344014e-01,7.024346928874056206e-02,7.380698851378880709e-02,-1.087788116247610966e-02,8.032945435117278682e-03,4.404953293741975702e-03,1.166404262185096741e-01
2.974877007377586535e-01,3.653465749228182458e-02,5.667983947992638605e-02,8.583257720243996775e-03,1.382111378981478898e-03,-5.491038001081035604e-03,2.521162033081054688e-01
1.963849914359337978e-01,7.013366320768815720e-02,6.850822635597397792e-02,2.136493459460457600e-02,1.338601569123301291e-02,1.789861933663822050e-03,1.344016492366790771e-01
1.510474491424905752e-01,4.866317538624132660e-02,4.602778766591699572e-02,2.668844383207540083e-02,-5.869266180693085561e-02,-1.241993561978785873e-04,1.524160653352737427e-01
3.027938124457587032e-01,5.287246782682529511e-02,4.459363515611924900e-02,2.135913972871356960e-03,-4.824415928066315071e-03,8.302939616210173665e-03,2.547324001789093018e-01
1.926056556100137485e-01,7.689201136187562291e-02,7.054065517437518862e-02,2.756760734372075763e-03,-1.109958655020551552e-03,2.437727564932283021e-03,1.192025542259216309e-01
2.612949477058849057e-01,4.408097985277489861e-02,5.446116288184292553e-02,5.771759599156445208e-02,6.401568764441686009e-03,3.354764266292566220e-03,2.349161654710769653e-01
3.815867618250633475e-01,6.483466381643049337e-02,3.985938655706454392e-02,-9.786393010484571112e-04,-2.316322063316991059e-02,9.334234535435774124e-03,3.327769339084625244e-01
1.111573232930885141e-01,6.524597372018293984e-02,5.897409655492563685e-02,-1.143249839000515375e-03,-1.977685367464212390e-02,1.782456173201797060e-03,6.018274649977684021e-02
2.082595626158250668e-01,6.682043690578402806e-02,5.316011394266027118e-02,6.125459195076880196e-04,-2.611806575741941472e-02,7.075330621978261764e-03,1.559535264968872070e-01
3.212805135184872984e-01,6.408302020831463386e-02,3.615716615024515412e-02,-5.642574408441078729e-03,-2.300921522658292209e-02,-3.716603013996921424e-03,2.753871679306030273e-01
3.247002500723681351e-01,3.826690979344800347e-02,6.266623513997537920e-02,-3.664404612660312338e-02,-7.637688731463400382e-03,-4.857625490138605014e-03,2.827096581459045410e-01
1.969158212831859101e-01,7.600211980539675616e-02,6.955659445221137882e-02,-9.035358667918488157e-04,1.131283927098759856e-02,2.139692691501217294e-03,1.258616149425506592e-01
2.066944298946766789e-01,6.564980266693755395e-02,6.919865997552572534e-02,1.251063905070075137e-02,1.076003356189143660e-02,1.583557148257980305e-03,1.422323435544967651e-01
2.077113487377753587e-01,6.658453830750823976e-02,6.964259246168874595e-02,1.536403902470094389e-02,1.367585276360900465e-02,1.961116370056608348e-03,1.441365331411361694e-01
1.938811099276278593e-01,7.585189813448225959e-02,6.941251780402940552e-02,8.861522018964521075e-03,1.338004109566262069e-02,-1.147855747260573440e-03,1.245351508259773254e-01
1.813137353717096389e-01,6.046979489626949644e-02,6.448390424334185522e-02,1.522491256070511098e-02,4.174557320409821685e-03,2.471153203521972951e-03,1.220667213201522827e-01
3.835033398991926634e-01,8.063040341805181865e-02,7.126604048469079022e-02,9.441590052164351710e-02,-5.501254476714849406e-02,2.447918019833730460e-03,3.612424731254577637e-01
2.751111428867608621e-01,5.026415771264265697e-02,7.675331242447711033e-02,3.193966155837000328e-03,1.856275474521034557e-02,2.866192085602776649e-03,2.153852581977844238e-01
3.357113069992207488e-01,4.160157878093140305e-02,5.045638144379328838e-02,1.241960977560357168e-03,2.522788151981842785e-04,-4.273598900958707793e-03,2.898866534233093262e-01
2.834836630553831949e-01,5.054036604716251324e-02,5.690376674474455221e-02,1.771672458185896953e-03,-6.692573847269587661e-04,8.577526359068736797e-03,2.303307205438613892e-01
3.170456050383946844e-01,4.086625567898016786e-02,6.225620893590919080e-02,8.989528801496855098e-03,1.052344390022809384e-03,-5.453708267324062012e-03,2.667584717273712158e-01
2.885036050817796349e-01,6.500827874176853816e-02,4.164864890585681656e-02,-1.133563580360100095e-04,-2.866777718384105281e-03,-4.906542085626439164e-04,2.360974699258804321e-01
3.229366126225660660e-01,4.093177528763700113e-02,4.760354730362234554e-02,-5.681004580880581398e-04,-7.826469910585552234e-04,-2.706782139469150229e-03,2.787733078002929688e-01
3.238243127672759680e-01,3.879347315169394406e-02,4.714651949173258305e-02,-5.164652511362455029e-04,-6.660210771791259766e-04,-2.226392708360625580e-03,2.809777259826660156e-01
3.199677398722797772e-01,3.574357943922973346e-02,5.013789019861536467e-02,-1.320519157825719540e-03,-1.139803575138465062e-03,-1.417808004222742817e-03,2.773346602916717529e-01
2.897695271044905541e-01,4.616370977292709454e-02,6.842524644459588301e-02,1.902517737160775227e-02,3.893368973494861895e-03,8.916147601771708120e-03,2.361909598112106323e-01
3.528241941364302914e-01,5.803372168180966073e-02,6.788297666814503695e-02,7.852551496362397687e-02,-2.871602664617211448e-02,-3.413784034492058084e-03,3.241952061653137207e-01
3.324973075378356846e-01,5.810557679500726047e-02,5.740738999728542402e-02,-4.251157987893081341e-04,5.210914822876527418e-04,-9.379263187800865884e-04,2.747487723827362061e-01
3.629732730312204003e-01,7.987885673886217786e-02,7.446414423431467478e-02,1.010171826936603207e-01,-2.325352770052271575e-02,-6.515633239327680020e-05,3.375503718852996826e-01
3.247561607290989638e-01,3.657018290181103526e-02,5.041572840260691302e-02,-1.208981507296776883e-03,6.298674393330208014e-04,-1.429704015428127483e-03,2.815394699573516846e-01
2.129479800048724725e-01,6.941288070249336528e-02,6.358348138158978480e-02,-2.554960241758958122e-03,-1.639423692103194122e-02,-3.288598035464974922e-03,1.494368463754653931e-01
3.092805532008869318e-01,5.745173006010977079e-02,3.242525318816194546e-02,-4.061908944712647011e-03,-6.492948838285678842e-03,-5.457999995032315928e-03,2.657288312911987305e-01
2.833318461128349619e-01,4.955673659256615293e-02,5.658739614726579492e-02,1.905686685882627572e-03,-6.554350923028950384e-04,8.168559766765044403e-03,2.308007776737213135e-01
3.283774619154431473e-01,3.419425282519128473e-02,5.769424743279306933e-02,-2.352837430880283740e-07,-3.387959779106425166e-04,-1.872711305100345372e-03,2.831847071647644043e-01
3.313609054366024598e-01,6.376097447429446285e-02,4.856682892071893798e-02,3.942660019625211093e-02,-7.276612593949945140e-02,-1.699035193608247488e-03,3.105854094028472900e-01
3.024275129962699094e-01,5.113133430093917686e-02,4.966612196095994414e-02,8.732668768737449853e-04,-1.137152343373084087e-03,8.403475389240501470e-03,2.524641454219818115e-01
2.713277868391127945e-01,7.443434052665559575e-02,4.627152152548637265e-02,-4.756619709923287816e-03,-1.762552308342408419e-02,-6.238919949579042022e-03,2.149927318096160889e-01
2.088284615274914047e-01,7.663140841000090631e-02,5.941130703511193073e-02,2.790250444793732857e-03,-2.852820019155869261e-02,1.590206901058421494e-03,1.500718444585800171e-01
2.365160705621294213e-01,6.480135734645320333e-02,6.460262446864237229e-02,6.176738087854255488e-02,-5.895858082201826250e-02,-5.980669447594887458e-03,2.269391566514968872e-01
3.346808058234423955e-01,4.684275726958617159e-02,5.657667869826098206e-02,3.271780089328097611e-03,1.234304033527347001e-03,1.187076355957470330e-03,2.831688821315765381e-01
3.258217458701465619e-01,5.452033003561636282e-02,3.737300649184359391e-02,-9.280001495559884322e-03,-2.196308684394327956e-02,-8.766115873844392350e-03,2.837015986442565918e-01
3.369749419844493277e-01,5.456272557303472326e-02,5.911424805496964807e-02,-4.914484570610076547e-04,1.777082023389692450e-03,1.965542327712169765e-04,2.801826000213623047e-01
4.967612699813410138e-01,9.262173637581300190e-02,8.150847870765315362e-02,5.639105633381470695e-02,-3.978961712231790515e-02,7.005769057747651511e-03,4.270600676536560059e-01
2.087109934373089781e-01,6.490164516632239422e-02,5.654902067507903279e-02,6.112696364380683541e-03,-1.846292432485003784e-02,6.611744117039313265e-03,1.523744016885757446e-01
3.377137258821555910e-01,4.944261680938095982e-02,6.214971164009504279e-02,-5.995961775851059786e-03,5.193363561947464575e-03,2.888409451627702018e-03,2.825109064579010010e-01
2.278195607214363871e-01,5.179845138321732129e-02,5.545738082772783822e-02,-3.358335373785381606e-02,-3.305961176964801462e-02,-1.083441071455791722e-02,1.933061331510543823e-01
1.814225679279753423e-01,6.714032248905463240e-02,5.798876579402369863e-02,-1.913108921711548227e-02,-1.959136079931547009e-02,-4.451530163447123441e-03,1.284482479095458984e-01
3.315345121903298109e-01,4.815363803347633143e-02,5.225426814461690828e-02,4.543398513322023484e-03,-8.158274791558888829e-04,3.094575104462775686e-03,2.815175950527191162e-01
3.335597355219609428e-01,4.299744206894773324e-02,5.041798292334524756e-02,4.962273652597887956e-04,5.413092881039691253e-05,7.689000183025489167e-04,2.869283854961395264e-01
2.546648394259981019e-01,5.791403061192418322e-02,5.134872234354284637e-02,-7.213083845515597115e-02,-6.351901491976844061e-02,9.561349086922027105e-03,2.608304917812347412e-01
2.783906047965651886e-01,4.404138106990604373e-02,6.317243834858342344e-02,-3.921518425884699260e-02,2.283833260372390359e-02,8.521669969924785398e-03,2.391617149114608765e-01
3.337497194943254142e-01,4.417933204675816850e-02,4.811235601474207757e-02,2.549063755999289821e-04,-4.192473497671449678e-04,2.911640616390942255e-04,2.876257300376892090e-01
5.238112213411422191e-01,9.600885660483482464e-02,9.155361664391975518e-02,1.808585878753337164e-02,3.022701234235479831e-02,1.659722914778636108e-02,4.353037774562835693e-01
3.380498252269237835e-01,4.686117597330595463e-02,6.254128821537366378e-02,-7.934887983387570870e-03,4.268327128203989887e-04,1.208576526017499548e-04,2.840075790882110596e-01
3.542763667906659864e-01,4.621021181975866476e-02,5.766070988862148639e-02,-2.341693307743845931e-02,-1.376318586203744213e-02,-7.879242600069608429e-03,3.064440190792083740e-01
3.339500721768433045e-01,5.486258469922868086e-02,5.610138461404157173e-02,2.142434689470019732e-04,1.106850166598878291e-03,3.602784031815459110e-05,2.784770131111145020e-01
3.336730954726193632e-01,5.306144225703651740e-02,5.873787352615202073e-02,1.000652667778251410e-03,3.828737758929181027e-04,7.333434983507861092e-04,2.778260409832000732e-01
3.205710157565686003e-01,5.793035816278199746e-02,3.759282833222039877e-02,3.482065950637175324e-04,2.742520360281187290e-03,4.189663978142618705e-03,2.735155820846557617e-01
4.351509458202047487e-01,6.886065893296493268e-02,7.430003605018167812e-02,-3.765636703829262216e-02,5.907227469692900163e-02,7.705089149034130558e-03,3.835446238517761230e-01
3.241466201237653832e-01,5.040372515594460090e-02,3.944796112570866931e-02,2.354703145883469025e-03,-2.345472008369095269e-03,5.067107271223391350e-03,2.795790135860443115e-01
3.333844715090198418e-01,5.861757910628563606e-02,5.785189245713112660e-02,7.564311618361406345e-04,1.134923899658809828e-03,-5.073162238134806129e-04,2.751620709896087646e-01
3.450433411254553162e-01,6.011412611962121955e-02,6.065485320918859169e-02,-6.138154460508407281e-03,-1.332129829085641325e-03,8.626836388237595370e-05,2.848670780658721924e-01
4.047715019545802817e-01,3.979197246371998786e-02,5.882173001308350913e-02,1.398947875629007360e-02,-6.701642939026961282e-04,-3.837071281305944308e-03,3.567342758178710938e-01
3.333863079771717253e-01,5.111074393897087342e-02,5.239185991739955806e-02,8.122467446303379421e-04,-5.555695651602599603e-04,-8.533428130508919013e-04,2.816462218761444092e-01
3.338039205551012190e-01,4.814969470806174101e-02,5.181501427063402165e-02,-2.114218508083458075e-04,4.183309965409632084e-04,-6.432402561065652782e-07,2.838404774665832520e-01
3.859471929466777307e-01,5.748885344444484846e-02,6.979077915160132595e-02,8.852254187649930689e-03,-4.019688419369656790e-02,4.286588810905989956e-03,3.303530216217041016e-01
5.149616459717301087e-01,8.311511764595122531e-02,9.795746373998787115e-02,6.930910504420779994e-02,7.806407708910444469e-04,1.459288050430684576e-03,4.412726759910583496e-01
3.954624347657179628e-01,7.561933997829416165e-02,6.597376431804606589e-02,-3.051127395610657238e-04,4.392086119180792637e-04,-1.064520270834429542e-05,3.247746527194976807e-01
3.530081804491213004e-01,7.280105177601049748e-02,5.954655744807912932e-02,1.897535332223221696e-03,3.623942503564334333e-04,-1.121172544950666466e-04,2.870835363864898682e-01
3.452995571246488815e-01,7.019061737272973278e-02,6.143422170884992040e-02,2.599817639167435919e-03,-6.819355508158638900e-04,2.833728528473510814e-03,2.796718180179595947e-01
5.790297763767138228e-01,7.029158037912533463e-02,9.150700581234896824e-02,3.359366654266295049e-02,2.639953347860740651e-02,-7.419320908399047905e-03,5.040963292121887207e-01
5.409047600499273800e-01,9.581766016394205332e-02,9.431270166362851204e-02,6.265758791515849135e-02,4.731397739599559754e-02,-6.436575298801812221e-03,4.662538766860961914e-01
3.625813649316166343e-01,5.025856973600294209e-02,5.567766439656218758e-02,-6.036638269753005770e-02,-3.250653430400216731e-02,-9.721594857843064014e-03,3.320666253566741943e-01
3.601528410120916068e-01,6.062601872521847235e-02,6.100098682189537824e-02,-2.300362899681728662e-03,-2.287023538461380526e-03,1.566689166105515100e-04,2.993923723697662354e-01
3.159622988739966276e-01,4.396770041341546698e-02,5.622042345644816252e-02,-6.204787776567381730e-02,-1.800356510105767527e-02,-8.067103271012340121e-03,2.889912724494934082e-01
4.494035632099885880e-01,7.610067078489032855e-02,8.100600409257958934e-02,5.872372072955387573e-02,4.163997332800047080e-02,-3.896606067735165942e-03,3.913317918777465820e-01
3.290412570599344222e-01,4.498774029999787205e-02,4.586609664718747925e-02,-3.426165115655340019e-03,-2.802143243119996786e-03,-3.308529313181934970e-03,2.837768197059631348e-01
5.278260642669803104e-01,7.727383668816006912e-02,9.624052238406327620e-02,-3.679708675662996670e-02,1.879755062321901080e-02,-8.700297763525341108e-03,4.473932981491088867e-01
3.378898195009825134e-01,5.072444320789644412e-02,5.569893977376542960e-02,3.137740365930837255e-03,-9.563796238033678331e-04,-1.636439740904121641e-03,2.847815155982971191e-01
3.702126710053906811e-01,7.221383696099761829e-02,5.998494659289559106e-02,9.839155867194171110e-03,1.186238667411871998e-02,-2.003309210337719023e-03,3.054859340190887451e-01
3.401710584285487227e-01,6.302253652479326840e-02,5.911019569937275842e-02,4.914084543022798589e-03,1.010874501982828309e-04,2.276683372063461415e-04,2.792553305625915527e-01
3.507901928998207186e-01,6.611689988669028351e-02,6.646834581485451532e-02,-4.157627756194672529e-03,-3.109575597859699520e-03,3.804288080527431365e-03,2.847160696983337402e-01
3.372866303489059359e-01,6.183141293128482929e-02,5.937210387386243626e-02,1.135332122019818151e-04,-3.762841126526792900e-04,1.972139581669683263e-03,2.767149806022644043e-01
3.843351935333533809e-01,3.521998858565493495e-02,4.184339221176318346e-02,-1.774476558327977432e-02,-2.474775859133401465e-02,-1.552009961533458784e-02,3.508811295032501221e-01
3.668349829941018880e-01,5.363728191927008560e-02,5.558631703873533059e-02,-5.530069821432683635e-02,-3.351261538140266893e-02,-8.378495906069901092e-03,3.320249319076538086e-01
3.748018105449523740e-01,5.412386697349724773e-02,4.809104414762295499e-02,-5.167233329006436920e-02,-4.324144076155698319e-02,-8.832401207464335782e-03,3.444690406322479248e-01
2.054074733667382024e-01,6.424710860871071794e-02,3.967853882655598963e-02,6.979984226361935331e-04,-2.337089805448001878e-02,6.620525701956181917e-03,1.605288833379745483e-01
5.689773816895985492e-01,7.711175305367370947e-02,1.054238656157902854e-01,1.855434612887297760e-02,2.771908474407583367e-02,-3.912944889205263906e-03,4.818624258041381836e-01
3.328012322204263462e-01,4.383916769930484847e-02,5.223678679130870639e-02,3.485206549603869775e-02,4.096654868609782979e-02,-8.268424022300232754e-03,3.000447750091552734e-01
5.603572578745243948e-01,7.696335819131353007e-02,8.650893443028270791e-02,1.515989731563519537e-03,1.366906253641428717e-02,-8.259666048520245690e-03,4.794982671737670898e-01
3.369255099514583129e-01,4.977333278588340348e-02,5.037253552884896068e-02,3.980966790660723668e-05,-5.216610836106368382e-04,-2.290366476406336099e-03,2.868818938732147217e-01
3.300671212246970021e-01,5.959604910967031266e-02,4.073296523302548378e-02,6.500151804448493732e-04,-2.103615530866720460e-03,-7.933120836803164841e-04,2.804082036018371582e-01
3.340705485062667179e-01,5.925717552607903671e-02,5.909127126292082477e-02,-1.215916349909768740e-03,-1.611598454926153716e-03,1.638993007109919796e-04,2.749187350273132324e-01
4.375304360969819450e-01,8.425021363370011063e-02,6.777917481903039665e-02,8.099512069322996333e-02,-2.898187052469884326e-02,7.350673491124915318e-03,3.914839327335357666e-01
3.348900000011824640e-01,5.881619258398691763e-02,4.474420540772280908e-02,2.949665050478896856e-03,-1.969625905151442969e-03,1.781376234850855656e-03,2.834553420543670654e-01
4.156553963362996651e-01,7.609615371166392195e-02,6.166932557304577456e-02,4.091342951013599710e-02,-8.043466528252318781e-02,-4.307279113686748179e-03,3.806493878364562988e-01
4.182360063548565821e-01,7.670310617435240064e-02,6.829967739545254879e-02,3.780815873628812912e-02,-8.359506695229690365e-02,-1.651748487057060023e-03,3.805868327617645264e-01
2.836616217136228579e-01,3.588732048191202451e-02,6.528038260181937003e-02,1.300729419379094941e-02,3.781990049264646447e-03,-2.697591310962030482e-03,2.356809675693511963e-01
3.334485942746372444e-01,5.529071427524620552e-02,5.274085129803578187e-02,-3.661509549774341903e-04,9.933265234071375876e-05,8.875640297647472820e-04,2.794465422630310059e-01
2.491181770552240160e-01,7.170381167765499386e-02,4.569002229640750645e-02,1.390902412343350233e-04,-4.676880838030249982e-02,-6.685626633459224380e-03,2.084800004959106445e-01
3.726647136727225806e-01,7.220616535533740110e-02,7.472696580166951486e-02,-3.559931748005403657e-02,7.847131755602403114e-02,4.119875889896477093e-03,3.344404101371765137e-01
3.251528451019322641e-01,4.255385734987511548e-02,5.872932889132778667e-02,-1.761629104895524184e-02,1.145964025396296534e-02,5.848834421010510980e-03,2.774531543254852295e-01
2.516182774890178830e-01,6.316230672657369150e-02,5.595669925701549086e-02,-6.215494423847137823e-02,-1.120040358730002156e-01,1.185012904415173223e-03,2.935202717781066895e-01
1.805913290117586723e-01,6.847991905458412909e-02,6.088921364043159423e-02,3.086713589826013595e-03,1.793591235171164422e-02,3.006383883862857528e-03,1.204092204570770264e-01
3.285609874552493648e-01,3.337896025959553870e-02,6.064044504987847750e-02,-6.049430164198580685e-03,3.114182404029167822e-03,1.105310223511104346e-03,2.827915549278259277e-01
3.281274140903661651e-01,4.416128568363612839e-02,5.325343053440403929e-02,-7.147781970890426835e-04,1.206215377182209142e-03,7.486931051709465323e-04,2.795445322990417480e-01
3.325017118967864560e-01,6.182302135126342690e-02,6.538171153752421472e-02,6.574524656187272697e-04,1.291805479640389779e-04,-7.441984195232680729e-04,2.689225971698760986e-01
3.750658830087080231e-01,7.046382596562644762e-02,5.511138257677228314e-02,4.658352246129907406e-03,2.476034114721426677e-02,6.601993686873163826e-03,3.157998919486999512e-01
3.170955402750853525e-01,3.174679800958569997e-02,6.558757535190594401e-02,-4.354631077223518332e-02,4.049455118345146598e-03,-3.390867080901134524e-04,2.804479598999023438e-01
3.003971325856537589e-01,3.068116609219811997e-02,6.118476917302459461e-02,-8.488675316096825144e-03,2.606546143169521327e-03,2.591091053829154903e-03,2.563329041004180908e-01
2.734646420401877775e-01,6.169254991837626323e-02,5.348627395741827051e-02,-9.803610668555054475e-02,-1.693523559805198628e-02,1.035315637078771441e-03,2.763141095638275146e-01
3.336128863806179234e-01,6.048554648313586579e-02,5.744101772658311011e-02,-1.172825888012501159e-03,1.076147507499366921e-03,-3.044790306631246237e-04,2.746765911579132080e-01
4.391433638759637548e-01,6.088920048696078169e-02,7.405982385500441134e-02,-7.704316424957589893e-02,1.437094807219608302e-03,-3.941507970545977263e-03,3.951298296451568604e-01
3.421333963620713514e-01,5.528198523114034868e-02,5.913352588824682954e-02,-1.242383599774963534e-03,-1.992496522600028478e-04,-3.267765015072648916e-04,2.849540710449218750e-01
3.403873724040115123e-01,5.242514420104701922e-02,6.146642563835615081e-02,-1.919085871819777890e-03,-2.291693294559599397e-03,-1.721152163701116346e-03,2.836126387119293213e-01
2.036868941863620996e-01,4.800514693803845101e-02,5.339892861951291841e-02,-4.878587958446606310e-02,-5.728521934481960870e-02,1.000535740101045432e-03,2.010327428579330444e-01
3.299726436460587164e-01,5.444557972775369847e-02,3.395154390157448243e-02,1.928105385359986596e-03,-2.534466296722768380e-02,-4.195434186265033401e-04,2.896904647350311279e-01
3.624599134739666662e-01,5.565440201452560853e-02,5.520338780349430541e-02,-1.262719760984796005e-02,3.278362512741729573e-02,5.968294213480618456e-03,3.131735920906066895e-01
3.148881395372140624e-01,6.788164323562345670e-02,7.598846171605096178e-02,-1.070935667471991162e-02,9.070421104929810019e-02,1.244634597476799043e-03,2.900103032588958740e-01
3.417482896734725384e-01,5.802095129213154234e-02,4.850665591772840290e-02,5.296345250875293675e-03,1.637845093995867612e-02,-3.503193909275543246e-03,2.902015149593353271e-01
3.154382663763355965e-01,3.351549220760997871e-02,5.831278429925140783e-02,-2.736567779384599906e-03,2.538478315628332760e-03,4.366014611690582393e-03,2.705613076686859131e-01
3.200587339526571595e-01,5.794252711934760880e-02,4.329925459669607679e-02,-1.446371856357813119e-03,1.137850423155754333e-02,-3.675001363039180537e-03,2.705416381359100342e-01
3.218507905485273879e-01,4.250450946386193085e-02,5.343826716073786509e-02,-2.364596711740794290e-04,4.812647663513025531e-03,6.828624929249288780e-03,2.744250893592834473e-01
3.410742118564857872e-01,6.243412108684841255e-02,5.888874656599930868e-02,-3.380093911688749481e-03,5.458351009564032900e-03,-8.161885869440010238e-04,2.806535363197326660e-01
3.311354652250367847e-01,6.327522169895520576e-02,6.047265361595904887e-02,1.827461454167552584e-04,7.576042063294257051e-04,-1.203196779678633197e-03,2.692839205265045166e-01
3.441159182182662590e-01,6.241510695974247791e-02,5.514679236507169513e-02,-1.601438439410445913e-03,1.174757458924438266e-02,-1.629489922151007705e-04,2.861423790454864502e-01
3.409019053716184633e-01,7.945873109338229268e-02,5.064327316987976557e-02,-5.731052265095576068e-03,3.849865997824545444e-02,-3.494187271217170845e-03,2.851281762123107910e-01
3.757609617257492429e-01,6.016995983677175808e-02,7.546270553786016411e-02,-7.826049912950791554e-02,4.023692178165646366e-02,-1.601949249529535137e-03,3.438664674758911133e-01
2.833745874487161309e-01,3.480485366658427060e-02,5.953179419114490445e-02,-1.085275767103636643e-02,4.698260718279571348e-03,6.717359829518680311e-03,2.383419871330261230e-01
1.947517541301049815e-01,5.507927699948376998e-02,4.809510410111202811e-02,-1.694115539244841692e-02,2.286132602117914650e-02,8.277884506201510506e-03,1.522076725959777832e-01
5.210369215213845884e-01,6.230270304214832744e-02,9.134548468606581983e-02,-3.608156586348740952e-02,3.882144772467048532e-02,1.447967245908183750e-02,4.549874663352966309e-01
5.097357478056732116e-01,6.741121204540864720e-02,9.290743980233567845e-02,-4.256858281688996604e-02,2.657488434209724984e-02,-3.401758689469205638e-03,4.388770759105682373e-01
2.305089776665213697e-01,6.407663643598371372e-02,6.325742661050072491e-02,1.581718898062322090e-02,7.399080841732412483e-02,4.718277980858221789e-03,2.123157829046249390e-01
3.939316233853271676e-01,4.868026715275867999e-02,6.743014318249804240e-02,1.972404714078316787e-02,3.573026459558901330e-02,1.508880131542936556e-02,3.446109592914581299e-01
5.073719404156070700e-01,7.835017083683099015e-02,8.475822197452831386e-02,4.779201094834985286e-02,8.769919176151483309e-03,1.392660290772725767e-02,4.347601234912872314e-01
4.102556683719438269e-01,7.572999703218961931e-02,7.633492703555944114e-02,9.307212953608141881e-02,8.305568012455548030e-03,3.591341166357789154e-03,3.714005053043365479e-01
5.371133420527168800e-01,7.287775655059544611e-02,9.152877171538209566e-02,-8.728882358555673307e-04,2.467792523506140423e-02,-5.949788497034441508e-03,4.573177993297576904e-01
3.397131805780271296e-01,5.110861530557206378e-02,5.725147987865132626e-02,-1.462284103354675622e-03,-1.513204463391727098e-03,-2.885207492644819346e-03,2.856496572494506836e-01
5.664626211020009627e-01,7.413253355188642590e-02,9.877855380195638135e-02,2.267058805083442541e-02,3.026897332890929673e-02,-1.010505155240480277e-02,4.852413833141326904e-01
3.832534988117864416e-01,7.131436214715987376e-02,7.974985310869064925e-02,2.011602075207932772e-02,1.180528240745369190e-01,-1.342612814936756287e-03,3.711799979209899902e-01
3.357919291234096049e-01,5.620890660561445040e-02,5.590613479663054941e-02,1.788506616515083596e-04,-1.216893020135717670e-03,-9.272929298613054924e-04,2.797472476959228516e-01
3.325543098759794480e-01,5.529498635402262108e-02,4.406176298673908365e-02,4.935279010894599990e-04,2.838962415445181291e-03,9.776203714389104533e-04,2.830922305583953857e-01
3.350917847976503383e-01,5.650741764682447321e-02,5.425998490984501599e-02,-2.480579485316623811e-04,3.235205451883840138e-04,1.036173750866222106e-03,2.797214984893798828e-01
2.543214346282973159e-01,4.424418632070374613e-02,6.091867574552527198e-02,-2.061426088105420412e-02,4.163645326580522822e-04,1.192775285903294874e-02,2.064212560653686523e-01
2.966865016400046517e-01,8.036191900559440382e-02,5.531266078562248334e-02,3.327982647861291859e-02,5.269244470770249184e-02,2.751197459666258980e-03,2.540027499198913574e-01
2.070765062635782083e-01,6.554544943544574065e-02,6.382496067155149500e-02,3.523202851830619948e-04,4.310813062336833106e-05,7.568651653625768985e-03,1.430025696754455566e-01
3.121262814183246581e-01,2.777585201569587880e-02,5.979671565746269568e-02,-2.443919578749180217e-03,-8.422730227882450774e-04,-8.221860966534190246e-04,2.698099911212921143e-01
1.887761765553108706e-01,5.809406033202087205e-02,4.066184679219961989e-02,1.401817979007461724e-02,3.088538642320104097e-02,-3.941046209377560561e-03,1.521762758493423462e-01
2.337115333598586697e-01,5.861466862942354972e-02,6.243014270855409831e-02,5.919560272026638988e-03,6.985183401984690343e-02,3.216254972585667372e-03,2.116114050149917603e-01
1.109741459905514149e-01,4.779044329779344458e-02,5.071476219965360965e-02,2.073721900193982448e-02,-2.824669709351813884e-02,-6.938160880346841072e-03,8.743055164813995361e-02
3.097345001416065280e-01,3.636315762696003262e-02,5.046662966990722587e-02,-7.304121826727937201e-03,-2.268548371531736371e-03,-5.220396475138461105e-03,2.670815587043762207e-01
1.956539082404846752e-01,6.740971469728938847e-02,6.683314691576150435e-02,-2.278957198516373336e-03,-1.575595310075635471e-03,-3.893869679986192243e-03,1.287996917963027954e-01
2.083385191463358876e-01,7.120847534314869720e-02,6.887873748371897697e-02,-1.630632520129416448e-03,2.141465867535068904e-03,3.996420661652766958e-03,1.385611891746520996e-01
1.071396196781775889e-01,5.566860985753688262e-02,3.591904854630147831e-02,-3.164014571215367083e-02,-1.576579716485794827e-02,7.730933235411602267e-03,8.935389667749404907e-02
1.271524523331351575e-01,5.552941068504384237e-02,6.350504232971233842e-02,-7.375696596721399712e-02,-1.002350756836698940e-03,2.161493482605678518e-03,1.447740793228149414e-01
1.693216992171560908e-01,4.348981849660848997e-02,4.209785422601223376e-02,-6.811403919328587464e-02,-4.652940042511843205e-02,7.364024131473067072e-03,1.912771910429000854e-01
3.211057719622021356e-01,3.781301852259115470e-02,5.255272152600863611e-02,-2.542889844252407133e-03,-1.788689550589289429e-03,-4.837861462457930181e-03,2.763975560665130615e-01
3.067984635099046398e-01,2.753624455722614162e-02,5.733147203799675296e-02,-5.403275529183156414e-03,-9.339295886827364643e-04,-2.772348165199723258e-03,2.658340036869049072e-01
3.206798290555846753e-01,3.421329185809464379e-02,5.340349659473568600e-02,-9.662518086734141502e-04,-1.131995259017793982e-03,-1.645158677274645518e-03,2.773963809013366699e-01
3.201030706207184107e-01,3.252877188338462733e-02,5.625348176153383006e-02,-6.874522084367738805e-04,-1.483752305192371015e-03,-1.475368158720245402e-03,2.765027582645416260e-01
2.478616603042342881e-01,6.199360535060255417e-02,6.020971036954504696e-02,1.982167226693021603e-02,-1.044107082765274343e-02,9.450043990491976617e-03,1.914558410644531250e-01
3.128150543250157734e-01,2.974745291136238201e-02,5.870384596651173625e-02,9.751261078107477571e-05,-6.248582274179486761e-04,-2.142790612965240950e-03,2.697852849960327148e-01
1.257895365477579575e-01,6.763637471265757095e-02,7.034043704527712104e-02,-7.716876239073860652e-03,1.048260894438688383e-02,3.675469713775119957e-03,6.148727983236312866e-02
1.439279486460667834e-01,5.434979202669108084e-02,4.518276298052965184e-02,7.607630283187372111e-02,1.254536825368708121e-02,5.281189954386473866e-03,1.638538688421249390e-01
2.392345603105021090e-01,5.153862788906578285e-02,7.224742864865046910e-02,2.335469867583695597e-02,4.359175372237320684e-03,2.414582481973784258e-04,1.829348802566528320e-01
3.368807858460185489e-01,5.344081975168477050e-02,5.346537471485267312e-02,-1.057711449044811776e-03,-7.515024515767237435e-04,7.864017896662071742e-05,2.834366261959075928e-01
5.643054052712617175e-01,7.662975426807153156e-02,8.903060996247541548e-02,-5.773743248880416727e-03,-4.506535359770874431e-03,-1.843956986971457754e-02,4.828195571899414062e-01
3.157061823365292508e-01,3.168658372880417406e-02,5.564616220418008852e-02,-2.600745632257153109e-04,2.708506282750299259e-04,-1.454764843150055951e-03,2.728424072265625000e-01
3.333476725245775318e-01,6.169491526836584638e-02,6.287496117777534310e-02,-1.574790008717744799e-03,-1.174874369729571490e-04,5.844548530085752177e-04,2.710803449153900146e-01
3.134398684838022309e-01,4.422991858464586645e-02,3.806358770139697811e-02,-7.077618635901813775e-03,-3.809604038253891663e-03,-6.014180056348231683e-03,2.728999555110931396e-01
3.775456525518036122e-01,5.683076333631895127e-02,5.342598325433942086e-02,5.078790359677886473e-02,2.488455819217151241e-02,-9.146749251812346174e-03,3.373552262783050537e-01
3.235337657592551874e-01,4.995162406970071745e-02,3.711757850708974349e-02,-1.080016921462227750e-03,4.168245978150488668e-03,4.422415802965827362e-03,2.804235517978668213e-01
3.328625739604363920e-01,5.169499302149786757e-02,4.760514054736571243e-02,9.143420689304247988e-04,-2.869419196295179119e-04,5.162372712074426908e-04,2.832409143447875977e-01
3.228070453719948940e-01,4.712430334787676145e-02,3.728404440062212111e-02,-1.141411742724021553e-03,-9.459969088704272156e-04,-1.196273331189239746e-03,2.807516455650329590e-01
3.350048615744987690e-01,6.095905459339712174e-02,6.035844999400298561e-02,-2.487961046492715832e-03,3.414159293684612272e-04,5.336103121792210675e-04,2.743826508522033691e-01
3.225602901035802272e-01,4.777376494771866378e-02,4.336423919053490617e-02,-2.563019023237166679e-03,-2.048058684812544949e-03,-3.572772662767758310e-03,2.771449685096740723e-01
3.350052219930003128e-01,4.946837531163469914e-02,5.687168737416112285e-02,9.820509678383734006e-04,1.949268240653240485e-03,1.675177176496657158e-04,2.819336056709289551e-01
3.220140276840852689e-01,4.510835337375301846e-02,3.743033974921704254e-02,-1.830113104441919054e-03,-3.178951331602702067e-03,-4.462492399843063368e-03,2.810015976428985596e-01
3.237882166230111602e-01,4.737076569123083170e-02,3.815830506788200904e-02,9.529469128991761547e-05,-1.145480003881091158e-04,-2.318823303611962632e-03,2.811657190322875977e-01
3.364658443120425169e-01,4.777222260314907543e-02,5.021651344234767667e-02,-1.316753679613004390e-05,-1.962994952842557483e-03,-9.411663621665866588e-04,2.875039875507354736e-01
3.245288189473196638e-01,5.073173652462560634e-02,3.620745838123051730e-02,4.740961822127758691e-04,-1.619274203904914194e-03,-1.310362068608783180e-03,2.813648879528045654e-01
3.197846460136263835e-01,5.296036123635367021e-02,3.296724657934026192e-02,-1.133690349260408486e-03,-6.684735481971425686e-04,-1.166855693107490951e-03,2.773785293102264404e-01
2.389692136310598847e-01,5.734523042330965520e-02,6.317315272970025486e-02,4.813458884745674266e-02,2.871875733751989585e-03,4.782028459901707662e-03,1.975016593933105469e-01
2.662293811143791045e-01,5.740712235545816777e-02,5.831101581889917840e-02,-1.181462352234116837e-02,-1.240213898407397167e-02,-1.157338801081124642e-02,2.114256918430328369e-01
3.338959801985628695e-01,5.466059858894194157e-02,5.401689737041345807e-02,1.152496272241927818e-03,-4.552617483314895931e-04,3.634495952278578973e-04,2.795667350292205811e-01
2.926752046498424242e-01,3.642011471280680313e-02,5.842409042076741887e-02,9.550764890849819042e-03,8.352023832014818239e-03,-5.920534964499514843e-03,2.471847385168075562e-01
3.198516643316582364e-01,4.104991711838357205e-02,5.635321459492967366e-02,4.108015571928040209e-04,-9.095912448395632958e-04,-5.780806884923933922e-03,2.716638743877410889e-01
3.352218948445474522e-01,4.265238628399307952e-02,5.830341861575757956e-02,4.259895592017011456e-03,-3.961045584929216018e-05,-3.542286712530409200e-03,2.852278947830200195e-01
3.279578152288211701e-01,3.675455073006131390e-02,6.101798784480511051e-02,1.484916295285638836e-02,1.841135454723316980e-03,-3.369860915138426539e-03,2.811195254325866699e-01
3.407895830058430553e-01,5.557538763278234428e-02,5.691861619065366473e-02,3.368586776195413302e-03,1.268358443216969773e-04,-1.231874433917469003e-03,2.846128642559051514e-01
3.491730099637067042e-01,7.414846947042684489e-02,6.033495388009280092e-02,3.100407007138168546e-06,2.540827799753141375e-04,4.591943743986410913e-03,2.822974026203155518e-01
3.297928837846851868e-01,5.248802762737861394e-02,4.768138321384353395e-02,3.566305713125611510e-02,3.848962292567246340e-02,-7.818824556266671874e-03,2.944440543651580811e-01
2.201067806084708312e-01,5.276471798214281417e-02,5.455949586546396390e-02,1.041748951202181583e-02,-8.230871846671596048e-02,1.213137811553370522e-04,2.199000567197799683e-01
3.353094367975610890e-01,5.860004230718129925e-02,5.738304676299783857e-02,-1.374009672102019259e-03,1.631127596294303550e-04,-7.138934258329311764e-05,2.773302793502807617e-01
3.220051099850587684e-01,3.967624192298142838e-02,5.574071746549857931e-02,2.404332858443789488e-03,1.223776026157447289e-03,-3.237199272797891113e-03,2.747461795806884766e-01
2.874294940946353627e-01,4.023199538376705242e-02,5.336458543093987317e-02,-3.284474306752801359e-02,-2.499832309537842329e-02,-1.143872456724595241e-02,2.520641684532165527e-01
1.893674793635827802e-01,7.140044316216812015e-02,6.723711522205025326e-02,2.627767063336371514e-02,-2.613688014099724635e-02,6.503528359860839651e-03,1.366474926471710205e-01
3.359887530867693983e-01,4.446271003230270469e-02,6.031681081565794245e-02,4.977010152197583991e-03,2.596450804664981495e-03,1.044418237714841600e-03,2.841033339500427246e-01
3.375062855945003548e-01,5.405048896243887235e-02,5.881095210247198890e-02,-1.328486258901884123e-03,2.840734782659787815e-03,5.521605970727921399e-04,2.811599075794219971e-01
2.387708362700249887e-01,6.533040496835165745e-02,4.148906207019699421e-02,8.938747204011358947e-04,-2.129544154161362376e-02,7.906566279487123837e-04,1.901310235261917114e-01
1.210322228125488564e-01,7.248347775211223809e-02,7.258024327080531135e-02,1.006159164680472994e-03,-2.136743167598699825e-02,2.547842280066744351e-03,6.119236350059509277e-02
1.744566278570971463e-01,8.291510399913096241e-02,7.400627145105009852e-02,2.357315943724559368e-02,1.566187739773727480e-02,6.667149437964961858e-03,1.086787134408950806e-01
5.540454865528494921e-02,6.443913203106906018e-02,6.522200804629095516e-02,2.618381572669778445e-02,3.828874346835270913e-03,4.971127388034558142e-03,4.758364707231521606e-02
3.348012713319665212e-01,5.352397629831784354e-02,4.302503007763436305e-02,2.468128514340789024e-04,1.892152441598720508e-03,-4.637075707796606966e-03,2.868025302886962891e-01
8.128548573708208047e-02,6.483519564348366737e-02,3.724037022246974582e-02,-2.446136625369234926e-03,-2.514568103942230529e-02,-6.132975025741757395e-03,5.927677452564239502e-02
3.373440738255417681e-01,5.543056348209919604e-02,4.955153972848877486e-02,-3.865429375274429132e-04,-5.197917485676029591e-03,5.008980032922864204e-04,2.850428521633148193e-01
2.426681342956867882e-01,6.747475343888331700e-02,5.119199163159887656e-02,5.585585604547330931e-04,2.069621896997203211e-02,-2.537987356144675178e-03,1.873919516801834106e-01
3.189907939268489812e-01,5.824773571922246818e-02,2.798203595991159698e-02,-1.912581595045638200e-03,-5.309030164676171309e-03,-1.332252093161708515e-03,2.773001790046691895e-01
7.712518809032006817e-02,5.961464475033430299e-02,5.730822565777546340e-02,3.097966113626712380e-03,-4.550678441948773079e-02,3.101395573612429103e-03,8.137921243906021118e-02
1.733799106946226631e-01,7.761336597757244327e-02,7.205733744711100008e-02,-1.111854499447986235e-02,-2.255889669091278721e-02,2.647232346259835271e-03,1.079480573534965515e-01
3.381687953407071512e-01,5.140245336497199780e-02,5.346848762439951330e-02,-3.881409237885824481e-04,4.139101488179937078e-04,-1.064257380004187282e-03,2.857465744018554688e-01
3.375412616027139157e-01,5.045771154775281764e-02,4.960903725556591037e-02,-3.874693054843072158e-04,-1.198618952689749825e-03,-1.021296547685527452e-03,2.875225543975830078e-01
3.372958247368151863e-01,5.163383516865267808e-02,4.505012319726468817e-02,-2.468752896216142045e-04,-1.998934251029166320e-04,-8.512464287621530077e-04,2.890143692493438721e-01
3.384414564857728402e-01,4.910946290816554927e-02,4.798355875861300135e-02,-4.691218339653738874e-04,-5.346247010995545338e-04,-9.571594583413127813e-04,2.899039387702941895e-01
3.426393496027198560e-01,6.034230816457329671e-02,6.340946997398949625e-02,1.546939083102464967e-02,8.584010139400215103e-04,-2.294272946216655354e-03,2.820834815502166748e-01
3.363972170515229232e-01,5.293421396385757094e-02,5.165170222927753518e-02,-1.455445781808246486e-03,-1.165045376651095265e-03,-7.267638132153293393e-04,2.841275632381439209e-01
3.369175815896539028e-01,5.180869258503102703e-02,4.611811047593747381e-02,-9.682293227826006994e-04,6.521855368217962211e-04,-1.186392678180079024e-03,2.880107760429382324e-01
3.381949692264992202e-01,4.670051957080230409e-02,4.880074761510309889e-02,-1.368158749879745553e-04,-3.149535027659971067e-04,-1.107254264089912923e-03,2.904569804668426514e-01
3.366102921341752596e-01,5.204576810953709387e-02,5.237800330163203122e-02,-8.710500531257495170e-04,-6.679086349081906271e-04,-7.646769297674524228e-04,2.844080030918121338e-01
3.278479303858194971e-01,4.259783339060863039e-02,4.256704868258183450e-02,2.004022279102848252e-05,3.004866805890526538e-04,-4.206454523321145628e-04,2.852669060230255127e-01
3.376757291358155610e-01,5.047116998771417062e-02,4.886625755630635837e-02,-1.145986592774281363e-03,1.532289246697017733e-04,-1.273311511048406345e-03,2.880257666110992432e-01
3.327391311823865716e-01,4.715573150845622785e-02,4.717157806223229444e-02,-9.347928145717256544e-04,1.289412028524522351e-03,1.385284307405777130e-03,2.855988740921020508e-01
3.232180675613661180e-01,4.514305928056489003e-02,4.996060185629308537e-02,-5.613504900322234537e-02,-3.117677951834494504e-02,-8.229573344181393899e-03,2.976270616054534912e-01
3.274741303071920795e-01,4.107166990565988551e-02,5.657754007562396104e-02,8.882170593637161559e-04,1.298639880074135399e-03,-6.869613758386608829e-03,2.792398333549499512e-01
3.392033467305247685e-01,4.801674320227133919e-02,5.070027771825152962e-02,-9.683740590790990911e-06,1.052778817326688408e-04,6.543043260753257596e-05,2.898542284965515137e-01
3.186240095189214472e-01,4.857286202860977564e-02,4.609419390506699910e-02,-4.384449527509767797e-02,-4.404705690478195185e-02,-8.882630462546926842e-03,2.922794520854949951e-01
3.249699255679365795e-01,4.214468976627751273e-02,5.944820857210646181e-02,-3.805425335677932452e-02,-5.216972689406599792e-03,-7.596927703039902183e-03,2.828335464000701904e-01
3.595848828380582840e-01,5.512669627639592285e-02,7.488391670615743290e-02,6.191085776356735487e-02,6.512514069511857184e-02,4.722632161435914161e-03,3.337057232856750488e-01
3.270670867883702648e-01,3.685001982916326357e-02,6.125048536098140484e-02,-8.858904174573373896e-03,-8.048556558988035226e-04,-1.934315290436022057e-03,2.792642116546630859e-01
3.349676443035543572e-01,5.294657018648449287e-02,4.285719580713670540e-02,-2.380947695937113233e-04,5.648480768319242423e-04,-7.044140973750218863e-04,2.872032523155212402e-01
3.372677569288701216e-01,5.528535924417792013e-02,5.052122909337400380e-02,5.629237207524105582e-04,6.574178818692549592e-05,-7.425963623089393501e-04,2.843990027904510498e-01
3.365522505628549821e-01,5.499121929746832171e-02,5.138209200464476101e-02,-1.303725304437981271e-03,-1.327737621475045746e-03,-3.429187011988992905e-04,2.834017872810363770e-01
2.527955644986943917e-01,4.457292548246560848e-02,6.497661193061110563e-02,-1.425471909007152566e-02,-1.908898273056232808e-03,-5.808320118085392655e-03,2.006145566701889038e-01
3.318955527820490192e-01,5.354751752719748292e-02,4.565922078834956654e-02,7.696526115006936241e-04,1.187697384590771701e-03,-4.718895481654566786e-03,2.825037240982055664e-01
3.335449788243419755e-01,5.041067672767726715e-02,4.469115692664377137e-02,8.592472897557464637e-04,1.096748122359424062e-03,-3.120698792382867095e-03,2.860981822013854980e-01
3.366860593727004636e-01,5.295865469831244343e-02,4.187401841598303864e-02,5.128035918124272327e-04,-1.982750173066233194e-04,-1.285255159844254707e-03,2.894390821456909180e-01
1.201118829630911239e-01,5.973854155421484680e-02,5.392186111972413487e-02,1.387827504838696135e-03,-6.084619654619749518e-02,2.096162278787784463e-03,1.231084316968917847e-01
3.745229284884907250e-01,6.479723233588047249e-02,6.054253173407093958e-02,7.595289828040017489e-03,4.363149179803557653e-03,3.261941540490511044e-04,3.122441172599792480e-01
2.906806224978980557e-01,5.911392482710696450e-02,2.856038706776242719e-02,-9.204705881039604428e-04,-5.227531278498747519e-02,-6.818050660469199492e-04,2.642610371112823486e-01
3.536689628527382445e-01,7.037986997669580524e-02,5.976219765675769291e-02,-1.675131782140564830e-03,-2.737361034288119657e-04,1.666816711344437348e-03,2.887737751007080078e-01
3.036958941105519783e-01,6.196859674328174250e-02,2.973254628744871619e-02,4.582885313497659990e-04,-8.372972496099534076e-03,1.354150968702786100e-03,2.597692012786865234e-01
3.267508289326469528e-01,4.433812143850759946e-02,4.177008598877329781e-02,-5.917858452255957309e-04,9.657704695269824706e-05,-9.877844861211841198e-04,2.837125062942504883e-01
3.233567470999861859e-01,3.730376374583697918e-02,5.099387837006273683e-02,1.224796819170072542e-04,-1.012692251288724136e-03,-1.342938704203869163e-03,2.794747948646545410e-01
2.730160076906715250e-01,4.080855865634908097e-02,6.626329392405780339e-02,-6.318086743440318176e-02,-1.893142966302393398e-02,-5.526297480882724593e-03,2.485955506563186646e-01
3.318983589315068761e-01,4.611173504548353452e-02,4.529637284536898456e-02,4.732468540989463821e-04,7.104476646429972245e-04,1.244045481933708482e-03,2.862071096897125244e-01
3.498696727875316714e-01,7.045420638764060550e-02,6.181463725063814085e-02,2.959054465518189125e-03,3.260166453078296774e-04,3.440513368978793344e-03,2.839432656764984131e-01
3.398966261862125249e-01,6.551980009533016347e-02,5.976518494886914890e-02,6.732852553523630901e-04,-1.864834332486414378e-03,2.307084086030223896e-04,2.773204743862152100e-01
3.512653828289074576e-01,6.471811746885593186e-02,6.376907953553992425e-02,9.253679001082312956e-04,3.615955771717164688e-03,1.835706419298662731e-03,2.871133685111999512e-01
3.456701984594722221e-01,7.096098769849543131e-02,5.876108754743530893e-02,-2.169247710343863607e-03,1.181716085651249304e-03,3.970671420815091810e-04,2.810412645339965820e-01
3.335034978015090079e-01,3.655108473936696800e-02,5.627209623276439865e-02,4.229222950512936084e-03,1.983341543632033497e-03,-1.947388109221320123e-03,2.877330183982849121e-01
3.339195859890591311e-01,3.388998476619500821e-02,6.283344803731007178e-02,6.403462692012117270e-03,4.212396139961097974e-05,7.463995641589580687e-04,2.868732810020446777e-01
3.462966252404861556e-02,4.054439385614549973e-02,5.308838125564220578e-02,7.849541874580196268e-03,1.252226669746036788e-02,1.707506450648404658e-02,4.238479584455490112e-02
3.476550407098135675e-01,6.392835637607924282e-02,6.108604189601288259e-02,-9.688235934031565535e-03,1.000368134235258584e-04,2.199114854296589151e-04,2.856520712375640869e-01
2.494066115136472639e-01,6.278461858500802850e-02,4.602394070390342096e-02,9.651292000717452690e-03,-2.118318131394589590e-02,6.345199745028507789e-03,1.999575197696685791e-01
3.221149967204477438e-01,3.589160547468425722e-02,5.603760796715268055e-02,-8.842375117891296959e-04,1.299628387767703735e-03,1.769395261629651750e-03,2.767313420772552490e-01
3.083067651991935332e-01,3.917926990214701255e-02,5.940727850913628261e-02,-1.153486957314669601e-03,-1.126140495608558427e-04,4.676594021305719405e-03,2.597393095493316650e-01
1.552619870486452447e-01,5.959697654698811742e-02,4.969786482752223955e-02,4.522670576431854494e-02,-6.709070933160925232e-02,-3.707190300761652960e-03,1.728521585464477539e-01
3.226639777782288609e-01,3.333565317608556955e-02,6.171816394601031819e-02,4.799740564435744927e-03,1.444376935438096161e-03,1.283969988033518972e-03,2.763781845569610596e-01
1.077779631156056961e-01,5.814201709149434405e-02,5.247647531341484428e-02,1.695664046500689609e-02,-3.939787986218436233e-02,2.699762641590284021e-03,9.120344370603561401e-02
3.259186993103372343e-01,3.859509094901678039e-02,4.469081215930065243e-02,5.321812850909610985e-04,4.227645807719967308e-05,-7.936865690731014032e-04,2.843295931816101074e-01
7.662876983519237295e-02,6.240512251872011584e-02,5.363130382222580650e-02,3.957825573676694575e-03,-3.290374896516187059e-02,4.092230793620340104e-03,6.123144552111625671e-02
1.616278645491346089e-01,6.981462330205584488e-02,3.976639977549404487e-02,1.906092299738020718e-02,-5.397853054393546984e-02,1.806972961447386771e-03,1.480952054262161255e-01
3.691845082436847614e-01,6.310466055696256626e-02,5.928382207820043215e-02,1.799829530546832174e-02,2.349406152722985364e-02,-1.873121687464903958e-03,3.122614324092864990e-01
3.454032906320664842e-01,5.817971925591199078e-02,5.725614690589603262e-02,2.011256410051005198e-03,3.224489841213659148e-03,-1.563297245711838196e-03,2.877745032310485840e-01
3.690889309794989082e-01,5.750249471572924098e-02,5.999341185826605194e-02,1.185593120603683874e-02,2.096405635696182990e-02,-6.629013974734009225e-03,3.133499324321746826e-01
3.439004590897786207e-01,6.278112605703993487e-02,6.821294766450380909e-02,-1.393673268378608837e-03,1.558652412341292185e-03,4.106710250520481491e-03,2.785575389862060547e-01
3.411125116018044467e-01,5.807864360834655293e-02,6.047606274882190436e-02,-1.935529643366588805e-03,-2.416732313463924951e-03,3.420710305201019063e-04,2.818944454193115234e-01
3.427975851090803161e-01,5.882269028678437095e-02,6.203797840938614361e-02,-1.239938243967858610e-03,2.066611586840270270e-03,9.260910306674739658e-04,2.824163734912872314e-01
3.348039390768970947e-01,5.848256052906893043e-02,5.116660425895933062e-02,4.724967554694234177e-03,1.003196697319625429e-02,3.509783268250870128e-04,2.807095348834991455e-01
1.966722686024321431e-01,6.577323500158448188e-02,6.405363825107732167e-02,3.847174221732651417e-02,3.498098328560780845e-02,8.694361877530169466e-03,1.603141129016876221e-01
1.719513342785209398e-01,7.251702475016932881e-02,7.426691738669893850e-02,-8.781450588813999618e-04,7.117368171722077532e-04,2.619216795866945429e-03,9.869477897882461548e-02
2.816367498224453536e-01,4.805694941063190506e-02,6.105459618312585046e-02,3.531264217459835399e-03,1.444077028708517976e-03,-5.660154999071540481e-03,2.276669740676879883e-01
3.262829105545443920e-01,4.174927048897565662e-02,4.484791568146626051e-02,7.238557801008659856e-04,7.853220704141713202e-05,-1.814751636668026106e-03,2.830173075199127197e-01
3.154602165127063929e-01,3.690383287624647568e-02,6.038895119342142792e-02,-8.245133152666100983e-05,3.258449977602012864e-03,-3.390528533451888423e-03,2.677118480205535889e-01
3.435418342244159762e-01,6.175075172041465110e-02,7.650477915711537125e-02,7.382465980512977399e-04,1.818865629590404572e-03,3.839263069673217160e-03,2.748128771781921387e-01
1.799255950745335397e-01,6.128350000625604199e-02,5.228260510482340279e-02,1.661018275391512242e-02,7.244955599340528740e-02,1.224512456405692055e-02,1.795805841684341431e-01
2.891415876504123128e-01,4.286722665445064084e-02,5.369727934842868922e-02,1.560665858834633414e-02,2.766263605572754844e-03,-6.151568723334250623e-03,2.428340464830398560e-01
3.260954421519797752e-01,5.311392821479769821e-02,3.675623327293635334e-02,6.445227014652891951e-04,3.518546723027031909e-03,-3.736236011431540594e-03,2.816595435142517090e-01
3.220268292424984802e-01,5.522778270512013199e-02,3.581233973816387584e-02,2.161425152244810747e-03,-7.361171622808727671e-04,2.283899001088599088e-03,2.770740091800689697e-01
1.582427119886314071e-01,7.030153478230206920e-02,6.663612687754461028e-02,-2.517253134000872056e-02,-1.917695856292343445e-02,5.989680411996455445e-04,1.052365824580192566e-01
3.326999825952467460e-01,4.352139034748701840e-02,5.765669002579909552e-02,1.559276443219236117e-03,1.837839835593535357e-04,-4.538285144909097609e-04,2.823905944824218750e-01
3.251476789601101536e-01,5.051773029693525097e-02,4.789113919246108797e-02,-5.665598743640438972e-02,-4.808495624608503938e-02,-1.151714470619479534e-02,3.051458299160003662e-01
3.177333830452194197e-01,3.723854674474773307e-02,4.854864231543438990e-02,-1.103529537982130861e-03,-5.329677723197321151e-04,-6.786565558597808245e-03,2.752735614776611328e-01
3.356499266113753821e-01,5.292911520805627934e-02,5.419551205445349851e-02,-4.840347185389753080e-03,-5.611568211424098652e-03,-4.231517443625874494e-03,2.824767231941223145e-01
2.782387007387213673e-01,5.384635765353380787e-02,6.202962038025100489e-02,-3.072042797092897418e-02,-9.707709418386670230e-02,1.191283659159933462e-03,2.822941839694976807e-01
3.290058936359722130e-01,5.431900546574290611e-02,4.561514974587140003e-02,-7.462388103041753002e-04,-2.299993418308738952e-03,-1.172897622525838606e-03,2.791794240474700928e-01
3.408365831485902220e-01,4.688140308704076553e-02,5.659054769884777625e-02,-4.021449356798082256e-03,-1.876464318223294283e-03,-2.583705117951723418e-03,2.893595695495605469e-01
2.823976079448075049e-01,6.382024974665871653e-02,3.151101014182640381e-02,-4.332521264911680359e-04,-1.132292225452631064e-02,-4.462079385908070128e-03,2.373329699039459229e-01
3.752207972142530545e-01,6.502073984482036051e-02,5.406508949200194980e-02,-9.004324550068953242e-03,3.332853940942089033e-02,3.553556107423419801e-03,3.214903473854064941e-01
3.312212237373576840e-01,5.757492973687336479e-02,4.316473522909283767e-02,4.364110396988311186e-03,-4.457787291006228177e-03,2.784820696157536048e-03,2.813774347305297852e-01
3.323411039990121774e-01,5.221158251021515428e-02,4.250595340300454550e-02,4.567341445726458282e-04,6.971038756488798184e-04,6.554309343909649156e-04,2.851121723651885986e-01
3.317611381748539756e-01,4.806453571600248498e-02,4.263594036647533336e-02,-3.339465809577465949e-04,3.912210720347150260e-04,1.013881981322799610e-03,2.864562571048736572e-01
3.149993564350335173e-01,2.970279426073682560e-02,5.976264019159648055e-02,-4.711513645692095784e-03,3.168667757620210503e-03,-3.237854055480559570e-04,2.716961205005645752e-01
4.473897930102841980e-01,6.799479810406180991e-02,7.624948311689112856e-02,1.161048127190960830e-02,9.501014145488015372e-02,2.759034085162788332e-03,4.103473424911499023e-01
3.483775580005123440e-01,5.714909903188915286e-02,5.915797570006363360e-02,2.341221298245029902e-03,-1.974412277651074049e-03,-1.267971673789148289e-03,2.902860045433044434e-01
3.456606355550284060e-01,5.882236163390217043e-02,5.705796248785414970e-02,-4.314945712276400448e-04,2.613037860827881450e-05,-2.157800817400653431e-04,2.877257466316223145e-01
3.282065952822056376e-01,4.149733646059282355e-02,4.372220098629844842e-02,-4.558300422703234225e-04,-2.845879953730373483e-04,-6.863636207852160396e-04,2.856073081493377686e-01
3.303195725828619866e-01,5.276734463031866607e-02,4.322489225879662389e-02,4.074328629425697651e-03,6.120112295014685892e-03,-5.217378458899019425e-03,2.828756868839263916e-01
6.203055709571426990e-02,5.212198894477251127e-02,5.374692730691337655e-02,-3.412809757733392679e-02,2.729906202615774158e-02,1.137502944011004741e-02,7.875780016183853149e-02
1.938353501947085999e-01,4.146694637720852589e-02,2.980234303418870245e-02,2.289791011850166383e-02,6.699205996418235165e-02,-1.426946221955542387e-03,2.004304677248001099e-01
3.067957757096388960e-01,4.526212657089713487e-02,4.763854181063206794e-02,-2.062515447976567828e-02,2.506879439873044638e-02,7.162163062553439027e-03,2.666447162628173828e-01
2.513233177351097414e-01,5.389569691413780006e-02,4.911059234656217631e-02,1.698265758131550784e-02,8.852163778566467245e-02,1.942383776505764853e-02,2.558331489562988281e-01
3.230843565195340439e-01,3.796785772754115995e-02,4.663365010722954340e-02,-3.468703806499602734e-04,-4.978856298447267154e-04,-1.701999597050606701e-03,2.809013128280639648e-01
3.209704713254427633e-01,6.042158397959118687e-02,4.303768788462994377e-02,5.993839514372739001e-04,1.032872327840761439e-02,3.447652749999301214e-03,2.703221440315246582e-01
2.928175085961566282e-01,5.638148622062272297e-02,4.443287559853464908e-02,-1.653837140907092607e-02,4.395942138884476741e-02,1.341940952414764389e-02,2.569590210914611816e-01
3.585549223479959080e-01,6.513441208067319299e-02,4.778871410214387272e-02,-5.950730378901733335e-03,3.406487898807270681e-02,4.433737798591672052e-03,3.084355890750885010e-01
3.246083296526215967e-01,4.025315186412119217e-02,4.530287413980932376e-02,-5.800676627887359780e-04,-9.663588713632227396e-04,-1.393872772779456305e-03,2.818813323974609375e-01
3.244667283446104333e-01,3.750927842646376020e-02,4.679235855763248797e-02,-4.023511965995438385e-04,-7.878353942969479242e-04,-1.817700357160994791e-03,2.824520468711853027e-01
3.784709672193223295e-01,7.058828330543308327e-02,6.468370288000009627e-02,-5.213919330023976048e-03,7.434955527595516140e-04,5.294167460161400100e-03,3.111459910869598389e-01
3.335313275658512433e-01,6.173390439519187145e-02,6.338250679051231351e-02,-1.923831848716837239e-03,-6.178494250911220924e-04,2.501362422478359184e-03,2.710341215133666992e-01
3.369910679777378126e-01,5.086948830555158840e-02,4.772528735242222153e-02,-1.787058577562933032e-03,-1.649329361457757656e-04,-9.811172913332198015e-04,2.877283692359924316e-01
3.365452857525135233e-01,4.244454721618802495e-02,4.799422764522652540e-02,-1.147377792086858204e-36,-1.037021848937114349e-03,-2.165142051324965653e-03,2.913952171802520752e-01
2.790706422289358501e-01,6.274843589022104096e-02,5.490757075891652961e-02,8.241517636914226508e-02,6.119253520670451391e-02,-2.900065045188367219e-03,2.831757962703704834e-01
3.569263820990361546e-01,6.381897091210553263e-02,7.090413123978318855e-02,5.482656253208515601e-03,7.224055624837038940e-03,4.658279158537758854e-03,2.901676595211029053e-01
3.283427390833573711e-01,4.090156784648377175e-02,4.556658674298599832e-02,-1.310087748127447072e-03,4.262480222189357322e-04,-1.305461198447357453e-03,2.851562201976776123e-01
3.345543515534339374e-01,4.265710922703629115e-02,5.990865660414192162e-02,3.980821469382864880e-03,5.036590253427496514e-03,-6.577858134652597895e-03,2.841115593910217285e-01
3.010878485080945577e-01,6.407286872992608295e-02,3.393447832979325229e-02,-1.365045339988510712e-03,-1.438415829972708622e-02,-1.725360436060977042e-03,2.546819746494293213e-01
2.938725671911082138e-01,6.755299144701548686e-02,3.192191316840800597e-02,-1.328046087467633495e-04,-2.013853242733410973e-03,-2.505858455031596192e-04,2.461027055978775024e-01
2.932088125730765160e-01,6.129859565060005733e-02,3.220801049770041780e-02,-1.071897623154824657e-03,-2.273139205183545911e-03,1.616145136380956046e-03,2.477938681840896606e-01
1.784413237086426296e-01,5.885950905669812272e-02,5.680344831122003529e-02,6.936128638423268156e-02,-6.156017411299147951e-02,-4.931952234153351954e-03,2.010592073202133179e-01
3.479066238324098892e-01,5.681996777884186500e-02,5.870937010030730097e-02,6.121932314667713829e-03,1.698659890021511068e-03,-2.892002307926896942e-03,2.903983592987060547e-01
2.068067137765157160e-01,5.703223951908902023e-02,6.726523756250882280e-02,-2.217417131289916785e-02,4.643317570931295400e-03,9.108964531260824171e-03,1.509739905595779419e-01
3.115763136545232070e-01,6.140102983681908211e-02,2.970971246011806788e-02,-6.029269217636349775e-04,-1.114121267697474899e-03,3.199935286513914587e-04,2.674425542354583740e-01
3.561246418975958505e-01,7.051571543006369958e-02,5.957009074228825085e-02,1.129547947736502835e-03,1.934822834678300322e-03,-7.143259299854384054e-04,2.912645339965820312e-01
3.040716150099871395e-01,6.210517145438869402e-02,2.822310697801573565e-02,3.899052768199409540e-04,-5.611926037106727133e-03,5.266904400218120513e-05,2.607470452785491943e-01
2.810528265599998576e-01,6.801967968096998829e-02,4.395012852172265616e-02,-1.421981986845138109e-04,-1.168697999463442182e-02,2.620567496756094888e-03,2.269812673330307007e-01
3.297727967577707142e-01,4.533222582872313555e-02,4.387069771282373076e-02,-1.423434992307068660e-04,-5.118289103276242417e-04,-5.347466598842813383e-03,2.853260040283203125e-01
3.337780559035596339e-01,6.334950884905503343e-02,6.389426417884934428e-02,-7.107433318142494794e-04,-7.074218747957632418e-04,1.795372275330988417e-03,2.701800465583801270e-01
3.503275971581197856e-01,7.385220741377665488e-02,5.974535631043581541e-02,-2.655070563794860016e-03,5.696163129516407329e-04,1.765336241045639936e-04,2.838310301303863525e-01
3.212963079264760102e-01,6.077116901721893449e-02,3.177993931030853592e-02,-1.325821163496223752e-03,-2.945801154526077759e-03,-6.121053017327749909e-04,2.762231230735778809e-01
3.354869159375071241e-01,4.393425407748080547e-02,4.905895574757354605e-02,-4.414174840990559186e-05,3.284735776348753945e-04,-2.190238376712578833e-03,2.890498638153076172e-01
3.437599722827221482e-01,5.941736564795693787e-02,5.910515985568841335e-02,5.067142858399056003e-03,8.155080024087251822e-04,-9.563912845465085463e-04,2.846425175666809082e-01
3.427404502320900992e-01,6.196687014526003345e-02,5.833272153513435754e-02,1.558123497620534585e-04,-1.027439005014714338e-03,1.596245650819784446e-04,2.826140522956848145e-01
3.320747955908985860e-01,5.445240942791057526e-02,3.822977626974159715e-02,-5.840571130043740013e-04,-3.133074911242870997e-04,-2.121938314143489730e-03,2.861047983169555664e-01
3.333350576537105203e-01,5.375617755942425913e-02,5.531101875032606863e-02,-4.868631500995813412e-04,-9.422569303095973013e-04,-1.399746938699348393e-03,2.788212895393371582e-01
3.340853976377984313e-01,4.877882788038268025e-02,4.487974440681473387e-02,1.493530778822589557e-04,1.628636466384538340e-03,-3.355814458809951335e-03,2.873487174510955811e-01
3.358638502946160731e-01,4.459710022936988483e-02,5.111584098202409665e-02,-1.002629023680312158e-03,-9.092980619454527893e-04,-1.509740205679191427e-03,2.880841195583343506e-01
3.051308025356576081e-01,6.400911026853660368e-02,3.015249753272472577e-02,-1.568948886380720255e-03,-4.590803598315490106e-03,-1.458816293869046000e-03,2.598586082458496094e-01
3.198736700560597113e-01,4.541851094710698533e-02,5.153732770945809727e-02,2.584645023930284835e-03,-9.744129300539348211e-04,-5.149993750781756488e-03,2.716361284255981445e-01
3.339648398218241221e-01,4.269802753371124138e-02,5.138000567709104238e-02,1.336242699120157237e-03,4.576213534924474598e-04,-2.373377428779440204e-03,2.870641946792602539e-01
3.310580364010375920e-01,5.793914440367835261e-02,4.949139340653306574e-02,3.225213653604996726e-03,-1.087786851720794895e-03,1.661181946602298355e-03,2.775167822837829590e-01
3.382873180563875648e-01,5.077578364748719375e-02,4.636906329830982332e-02,-7.763202419560905196e-04,-1.212129665684633659e-03,-5.108837505935234866e-04,2.897520959377288818e-01
3.355718844154346181e-01,4.153668304717982040e-02,5.039771848996996151e-02,1.602958794799306912e-03,1.491480819707545003e-03,-4.317424210206200798e-03,2.898276448249816895e-01
3.362237204020179782e-01,4.791894287541481612e-02,4.477539795002190293e-02,4.571114975840237429e-04,1.786367577766883241e-03,-2.857099898804332273e-03,2.899491488933563232e-01
3.349110808548145801e-01,5.137181951571866134e-02,4.460220406746051580e-02,-1.125214048421522249e-03,-4.454516649123902577e-04,-1.055938914260476109e-03,2.869974374771118164e-01
3.331347274298764316e-01,5.811486717520877865e-02,5.751159838847424988e-02,1.536985876376057488e-04,1.137794380797337154e-03,4.525124643030430278e-04,2.753302752971649170e-01
3.225302582258460227e-01,6.211558846567956371e-02,3.514856979634860268e-02,8.359008697539268770e-03,-2.533335766134868147e-02,2.330871646254865578e-03,2.787774801254272461e-01
3.888721489097610728e-01,5.785735048000073544e-02,6.277476093144275515e-02,-1.891917678902072311e-02,-9.888488256251392466e-03,-7.042372794650371415e-03,3.308824300765991211e-01
3.176930083289666307e-01,5.648913447945473620e-02,4.094137362476982234e-02,-3.508557978494262000e-03,-2.112386800815111570e-02,-3.024688530075379626e-03,2.719069123268127441e-01
3.359836451190684747e-01,6.057781809949194796e-02,5.701493416055204710e-02,8.925641347410045827e-04,2.298412086087884328e-03,-1.424385872293826164e-03,2.772483229637145996e-01
3.937006929315743364e-01,5.116062624838094153e-02,5.472319926789075140e-02,2.488658363152778611e-03,-4.298639040099149627e-02,-1.419747271100186246e-02,3.497039377689361572e-01
3.337034933409792070e-01,6.213183741817342176e-02,5.847696036927525765e-02,1.435796348510063724e-03,6.745828857517560803e-04,-9.710457013464546510e-05,2.734312713146209717e-01
3.332333923225128114e-01,6.168932447347127979e-02,6.147592951233707415e-02,1.672180278225963209e-03,-1.730979708231072424e-03,-1.343048750013064031e-04,2.716829180717468262e-01
3.335938086584746554e-01,5.729506561264278985e-02,5.402435485246766256e-02,8.614305515096222022e-04,-1.709443293234384146e-04,-1.631943010789084914e-04,2.779528498649597168e-01
3.107644308045142134e-01,6.259441108715996238e-02,3.164030245411320053e-02,2.486165541600757981e-03,-1.785286520121586590e-02,2.348645359967740411e-03,2.668701112270355225e-01
2.796372487608523860e-01,7.273281550531533746e-02,4.276144180957612562e-02,-6.576831044020949209e-03,-2.631990319244854361e-03,3.378615099406175742e-04,2.237405329942703247e-01
3.253242280826758037e-01,5.467943078401180101e-02,3.980325794790512406e-02,3.591138398768050927e-03,-1.006678651224563207e-03,2.908503876134095611e-03,2.785016596317291260e-01
3.311225971556676084e-01,5.551554134344850733e-02,3.771469953450870549e-02,2.302013757759724215e-03,-4.368840341841827984e-03,3.900356648330875644e-04,2.850539684295654297e-01
3.429398461839635592e-01,6.515766069509075498e-02,3.869644729713636599e-02,4.808822493793004672e-03,-4.596765089667189524e-02,1.732082531779073273e-03,3.027061820030212402e-01
2.667186329679039902e-01,5.456429585663913340e-02,5.577922759197247171e-02,4.559917810551566107e-03,-8.900790961867542650e-02,-3.828953219591101770e-03,2.619671225547790527e-01
3.280642354810472394e-01,3.897542684045250672e-02,5.751114172229196408e-02,-3.679744101894553109e-03,-1.147439191857433684e-03,-1.231042645772482914e-03,2.803686261177062988e-01
3.395375021480562250e-01,3.624691061660165192e-02,6.204735949583588261e-02,-3.082263320198648862e-02,-1.454921862056749522e-04,-2.637559280308272077e-03,2.961365282535552979e-01
3.349985598992711866e-01,5.453990492591219430e-02,3.889837626592167197e-02,-1.407016043231993860e-04,1.012618885549821258e-03,-6.162488808556889665e-04,2.886049151420593262e-01
3.093106691892310578e-01,6.174389509451151670e-02,3.690280632440190445e-02,7.119005048036366849e-03,9.258447483251488683e-03,-5.065015168772396201e-03,2.618059813976287842e-01
1.008083610071742464e-01,4.144137074634087620e-02,4.543595287137974781e-02,-1.360656387733903336e-02,1.500203227183399303e-02,5.140629465123364161e-03,6.791999936103820801e-02
2.162848254075458998e-01,5.801057757134690795e-02,5.887590038149295713e-02,7.410301119976938321e-03,7.877972141634832781e-02,9.574265611883514548e-03,2.096973955631256104e-01
2.135391602563741220e-01,7.401233158845452187e-02,6.542078740083707988e-02,5.168273848903472177e-04,1.371936226004754440e-03,2.078095739278893600e-03,1.440822780132293701e-01
2.875370568798895077e-01,4.599576803415782178e-02,6.655136180256109035e-02,4.857510318454214687e-02,4.578954045465392399e-03,6.090217098330193146e-03,2.470880299806594849e-01
2.267114151940166633e-01,6.287281706169749185e-02,7.932793439289842485e-02,6.103859368696052962e-04,-2.717907340017471519e-03,3.498662591488085980e-03,1.564540714025497437e-01
2.709573982256360258e-01,5.912956066810425015e-02,6.162473423912848136e-02,1.671623288123790137e-03,1.733138476457786589e-03,-7.140028731318127236e-03,2.109953761100769043e-01
3.467333283243734243e-01,5.175405319665725423e-02,5.256193429645153459e-02,-1.796987638694060030e-02,-1.460938040794401878e-02,-5.901230630799374037e-03,2.974703907966613770e-01
3.259115040149885290e-01,4.387688115870891359e-02,3.748664702935126936e-02,-1.838811308273743212e-04,-8.304239648293051555e-04,-2.597011419893790942e-03,2.853226959705352783e-01
3.278888404187405570e-01,4.568626031664331510e-02,4.014117189031429778e-02,1.910472332539734166e-04,-5.522429580361796738e-04,-9.236103007199838013e-04,2.850218713283538818e-01
3.273840604429856804e-01,4.394268603800903505e-02,4.168051045683124345e-02,8.517887533413678815e-05,-1.438964412829524459e-04,-1.508188380667368437e-03,2.845913469791412354e-01
3.290696758135014388e-01,4.645678628823925183e-02,4.460015753462863441e-02,1.806197468375830687e-05,-4.815779042928466187e-04,-3.586447481365933969e-04,2.835476696491241455e-01
3.337966329363136753e-01,6.154214816264642895e-02,6.147480175920531920e-02,-1.256947996533696287e-03,-1.238786844194909257e-03,-1.239979123141133461e-04,2.723053991794586182e-01
3.287931862027658192e-01,4.385871167701882456e-02,4.366744714954119699e-02,-3.322884238270230385e-04,4.445718723630527223e-04,-5.415915928734942346e-04,2.850333154201507568e-01
3.291283602689165644e-01,4.435163786457625712e-02,4.845897102736661244e-02,5.310976000851663596e-04,-7.567759980714599015e-04,-4.428436372961013097e-04,2.827509939670562744e-01
3.204494451966591884e-01,3.755830040805015202e-02,4.714975993626949191e-02,-1.552140809898271091e-03,-1.294638919554940088e-03,-1.166029926704840970e-03,2.782487869262695312e-01
3.267328161155467758e-01,3.889201811958939436e-02,4.757453788688550955e-02,-1.375931382128062425e-03,-1.246620886563250914e-03,-1.859146300296816165e-03,2.836357355117797852e-01
3.344151868000413419e-01,5.121315355859040741e-02,5.359679236620688847e-02,-1.541116407609276553e-02,-1.329194237057680812e-02,-8.982716650810181752e-03,2.846377193927764893e-01
3.300062732756925410e-01,4.458020722460899476e-02,4.611499043002079135e-02,-2.443379392408582813e-04,-8.642001364610583545e-04,-7.406325186070314166e-04,2.846689224243164062e-01
3.473686914750131471e-01,6.333293663361942716e-02,6.539501674539044407e-02,7.716936113412711708e-04,1.950561790839586487e-03,7.227302551307799878e-04,2.830364406108856201e-01
3.327173700267591627e-01,6.163575835351252363e-02,6.073697174294734324e-02,1.410087317001063263e-05,-9.903003644002625165e-04,1.049144355494140753e-03,2.715436220169067383e-01
4.033984869369975357e-01,5.092923945597695179e-02,5.046094589011357323e-02,-1.329753751521423749e-02,9.189452867608518746e-03,-1.346609260303652418e-02,3.545809686183929443e-01
3.316410357933298192e-01,5.206367087175027553e-02,4.847045916658042353e-02,-6.626657286951008138e-05,-2.032430205425770145e-03,-3.103326699123847791e-03,2.814645469188690186e-01
3.316681633554764419e-01,5.915327873049297525e-02,5.976459124957521352e-02,-2.931617151156286675e-04,-1.017597848661488599e-03,4.419238725305784727e-05,2.722159326076507568e-01
3.337764106139878839e-01,5.801702815111267619e-02,6.004081303910871470e-02,-4.337477265547605887e-04,-1.166148240762335080e-03,1.772900403871042292e-04,2.747617065906524658e-01
3.310174118508664165e-01,4.416192997790577279e-02,4.891913590157645486e-02,-8.463113617153085119e-04,-7.543328943191630236e-04,-9.634720396542073746e-04,2.845183908939361572e-01
5.577229786598572048e-01,5.518561873634025838e-02,8.658054297433981361e-02,9.517191077867017887e-03,1.890505304726207078e-02,-1.358387067786025540e-02,4.895403981208801270e-01
3.262335908511690974e-01,3.805150870996976131e-02,5.322245672631729929e-02,9.159130413647832052e-04,2.286182673986510855e-04,1.154722910740851394e-03,2.809159159660339355e-01
3.261213314900506255e-01,6.037772835002515326e-02,3.841268875109256353e-02,2.058687016491895160e-04,-2.081331577516797905e-03,-1.374695129205035773e-03,2.774130105972290039e-01
3.418164562288422692e-01,6.213099365159957532e-02,7.305472504753587892e-02,-7.211605801557390829e-04,1.524877446547618764e-03,-2.489830727768919949e-03,2.744361758232116699e-01
3.545557419757910944e-01,6.423891402881908019e-02,6.917178094592747739e-02,4.721854024277539336e-03,-2.269009378399629989e-03,-3.016984063995400891e-03,2.880724668502807617e-01
3.337603865113313306e-01,5.287651735716354662e-02,4.652605142051297049e-02,2.166309001617170750e-03,-2.974380466135381155e-03,9.835503263547235465e-04,2.841889262199401855e-01
3.331690850885659083e-01,4.966913655078854239e-02,4.783060181314396919e-02,2.281097495316853230e-03,-2.486171486341816447e-04,1.137492999002567449e-03,2.844582498073577881e-01
3.446604442529667134e-01,5.963181176822768270e-02,7.389417113278726190e-02,1.820303250599488972e-03,-1.277681559172703495e-03,-1.136406844925808100e-03,2.782054543495178223e-01
3.566555773034019161e-01,6.054520093482863852e-02,7.301198219926266497e-02,-8.847319561673195124e-03,2.681702005721413361e-04,-1.210031944850042691e-03,2.904903888702392578e-01
3.421403369421001650e-01,6.145054321973407452e-02,6.586397162051751963e-02,-1.877393391452444014e-03,3.680946162197601314e-03,-2.276519814392557583e-03,2.786291539669036865e-01
3.336103231048011541e-01,5.714571799099844862e-02,6.079008948351659336e-02,8.070668429904637306e-04,1.666426878216364363e-03,-1.340578606758819747e-05,2.746792733669281006e-01
3.332723662257879305e-01,5.609348081206390335e-02,5.726582138672423050e-02,-1.164695005010749982e-05,1.235012993582557768e-03,6.738016122486281201e-04,2.766053080558776855e-01
1.261993738207805027e-01,3.379199417489411883e-02,4.983129964112051336e-02,-5.844475800825365240e-03,4.831153518546490305e-02,3.825220702622347726e-03,1.202606186270713806e-01
2.749059241324049441e-01,6.690864213382870240e-02,5.659870349221934882e-02,-9.964625812258638693e-02,-8.753871064355964876e-03,1.273761843048092481e-03,2.748390436172485352e-01
2.753252246775403922e-01,4.301246506251207857e-02,6.156179921812424127e-02,-2.291306652490084431e-03,3.601346533277069700e-03,6.669088994808958400e-03,2.240360230207443237e-01
3.016997502000168252e-01,3.201726871662397000e-02,5.984916069953651052e-02,-1.408676551251526396e-03,-7.104248040626686333e-04,-1.658357047227846260e-03,2.569303512573242188e-01
3.040101005054822725e-01,3.228216206608655603e-02,5.470901122215876544e-02,-4.944455135819832972e-04,-1.515464293075208366e-04,-5.037078457304750879e-03,2.613846957683563232e-01
3.181612070924070834e-01,4.176088092492132031e-02,5.278090636217513953e-02,-1.376334748592291345e-02,-1.051585435843239123e-02,-9.832203327417856145e-03,2.732447683811187744e-01
3.751510342935773235e-01,5.458097196577649246e-02,4.314475229024977709e-02,-2.937516093579019966e-02,-4.156247118421348141e-02,-9.808694915777016465e-03,3.385582864284515381e-01
8.858874326502474972e-02,4.375054980476365124e-02,5.785070947154411641e-02,-5.327202485243057173e-02,8.704281415541430603e-03,1.762134733018911031e-03,1.016237512230873108e-01
2.983715135916549244e-01,3.498608905451577877e-02,5.805435695873394086e-02,-9.452175280296529203e-03,-2.995503490973102506e-03,-5.798006376720850341e-03,2.534244954586029053e-01
3.000396642445937179e-01,2.622532016512559017e-02,5.692374039366006333e-02,-1.201217721052125556e-02,-1.583256291820016618e-03,-3.254163606464108554e-03,2.607358694076538086e-01
2.634015265495490699e-01,4.594260965913753159e-02,5.669814888015765886e-02,-8.130900674070564924e-03,-4.390571449166229615e-03,-9.274592453045920129e-03,2.134933173656463623e-01
3.052952270921946987e-01,5.159904455372842091e-02,4.091914974542970596e-02,-1.445604301398914666e-02,-1.518213255445502452e-02,-1.213912475276049917e-02,2.625752389430999756e-01
1.709438110024703583e-01,4.964721123548977016e-02,5.111454403780664457e-02,-6.920874899092076260e-02,-2.736451699606390689e-02,-3.653006231601333038e-03,1.766156107187271118e-01
3.247176889029019797e-01,3.192162611335724876e-02,6.265539904200914667e-02,-3.043703434975396013e-03,2.131245939795061524e-04,3.731797334852761643e-04,2.787538766860961914e-01
3.266481260143906384e-01,3.655388587959740310e-02,6.101269616101841209e-02,-7.264398416362516549e-03,3.319813616079927109e-03,1.428187390737887825e-03,2.790251672267913818e-01
3.284493301113945440e-01,4.566258481580469375e-02,5.605728245193089543e-02,-8.457053533780393983e-03,-5.791689865969899126e-03,-5.530093579722848533e-03,2.784669697284698486e-01
3.376592087927954844e-01,4.721667853619929134e-02,5.853368602513842056e-02,-6.786740062369671367e-03,5.006027677153407698e-03,1.821710370903249559e-03,2.853442132472991943e-01
3.954200872692853475e-01,4.878257080813756807e-02,3.618574543277860989e-02,-7.605354445974227100e-03,-1.322857933025817223e-02,-1.343270017804735518e-02,3.548557460308074951e-01
3.628058696953333495e-01,4.873784317477398986e-02,4.528662558590948461e-02,1.928417567346118328e-02,1.643736112060717805e-02,-1.452119052832210114e-02,3.198333084583282471e-01
5.469562977289654793e-01,6.954456579243165071e-02,8.808759307931282589e-02,9.287149414262207622e-03,9.042309260816665251e-03,-4.269795209003526132e-03,4.690116047859191895e-01
4.054882405632679876e-01,7.210380312968374394e-02,7.221276334741751068e-02,1.687063620179028722e-02,1.551357083845512561e-02,-1.877699096318142516e-03,3.357012271881103516e-01
3.417114437257462445e-01,5.758821629099449002e-02,6.255164282870026571e-02,1.562189340297314918e-02,5.936995947602167339e-03,-4.093626056121468099e-03,2.832464873790740967e-01
2.368776711898906151e-01,5.444593568421565721e-02,6.541462681817833413e-02,4.167605398525649207e-02,-9.910291293547384209e-03,1.495904362031232624e-03,1.921266466379165649e-01
4.162479394782044317e-01,7.190420502596597818e-02,7.101398301349888531e-02,2.755650762950638761e-04,-1.106402575758165573e-03,6.602392352097034584e-04,3.447972536087036133e-01
3.855868193123354049e-01,5.404790393623631894e-02,6.235017169826372052e-02,-2.087899996818757056e-02,7.992118633165354227e-04,-3.762456844354808688e-03,3.295248746871948242e-01
3.393222359354307605e-01,5.587614951660160867e-02,5.420996851022311103e-02,3.223801005736324360e-02,-2.704255638271714848e-02,5.570893949384010148e-03,2.936351597309112549e-01
3.551164825486798349e-01,6.611686920423463787e-02,6.048419458047861463e-02,-8.376710883970125282e-03,2.515972758869035319e-03,4.971095933286565245e-04,2.922509014606475830e-01
3.343526088061240520e-01,3.929710125771512796e-02,5.831536016984739668e-02,3.724820637193543803e-03,5.450947898867671525e-03,-6.212096544356484219e-04,2.862515151500701904e-01
1.220136487521950031e-01,3.682666777226292765e-02,4.027489745971370161e-02,-4.289593613656643434e-02,-5.832335778322322167e-02,6.429411938981965426e-03,1.510761529207229614e-01
2.169494319625334677e-01,6.611854788097532021e-02,6.288634552528428456e-02,-1.471467907933775993e-02,5.735954118109208577e-02,7.377421893344924403e-03,1.842039972543716431e-01
2.545143007185595163e-01,4.452698814411672201e-02,5.716584518221399375e-02,-1.164660647534317486e-02,-1.065565525996513621e-02,-9.547814301373113918e-03,2.064496427774429321e-01
3.291317182485086201e-01,4.715332016800388715e-02,4.099994413109603331e-02,-6.614798887324929537e-04,2.008937074076351092e-03,2.985914732738565672e-03,2.851753234863281250e-01
2.363574630745132743e-01,6.522025751513663150e-02,5.658813088629188748e-02,-2.076475943737961412e-03,-3.770890019708236177e-03,-3.514807015303729205e-03,1.758760660886764526e-01
2.077053325321381316e-01,5.619073237585446579e-02,6.805981035351552078e-02,-1.913389660679649246e-02,-2.309092752219561815e-03,-6.383221452094333878e-03,1.501191556453704834e-01
2.526118954765559366e-01,4.592371520060224699e-02,6.580968822855404188e-02,-1.409108312401532309e-02,-1.377831624967533388e-03,-6.377986158827107267e-03,1.993205100297927856e-01
1.618456022729372334e-01,4.103461867972387628e-02,3.716213920266409065e-02,-8.396903432536577394e-02,-3.821738396621517792e-02,6.668673795234548313e-03,2.018554955720901489e-01
3.566352307732731930e-01,6.031967053244344235e-02,5.459079712079333013e-02,-9.224014577184792146e-03,-1.834985217387566370e-02,-6.234478123388717541e-03,3.015216290950775146e-01
2.299802453567691973e-01,5.541540050969388786e-02,7.668452756929192149e-02,-4.358603846687255853e-03,-2.346026802079388338e-03,1.141741650445504686e-03,1.651963442564010620e-01
3.432153678987320822e-01,7.121413994450362384e-02,5.862831908365152833e-02,3.565137316466457981e-03,4.087032950024638810e-03,-2.913875012916468041e-03,2.787115871906280518e-01
3.215044594250242582e-01,3.118956198885888820e-02,6.154491115714133542e-02,6.050369616044581553e-03,7.968436065136407301e-04,-1.256206062491875986e-03,2.766008675098419189e-01
3.244400771128972405e-01,3.224908222757146004e-02,6.027811747509161100e-02,1.385904013017476288e-03,-9.226704991097640441e-04,1.726457046693824189e-03,2.792644500732421875e-01
3.448203143819902339e-01,5.163378141249373721e-02,6.133148379689364049e-02,6.202415103129720053e-02,1.009362931768025560e-03,-2.226623083199501599e-03,3.078442215919494629e-01
3.713047066934542784e-01,5.699902556433593392e-02,6.248356494123503968e-02,1.381858578730814184e-02,6.583023037880386674e-03,-1.366110629693730993e-03,3.127343654632568359e-01
3.169361358431203035e-01,3.598745565356116505e-02,5.910902324606695513e-02,5.188263881588715473e-03,-6.086703294760216184e-04,4.578011924059027966e-03,2.703988552093505859e-01
3.192781361475293123e-01,3.072097975201161513e-02,6.102036524386472705e-02,5.706594225327680505e-04,1.064248939205064069e-04,8.143775170675067844e-04,2.746692299842834473e-01
3.260220616697810936e-01,3.262478007081365261e-02,6.059929930858200253e-02,1.036679403438401379e-03,-6.303476686676153786e-04,1.600220220423189104e-03,2.804799377918243408e-01
3.487028187751034514e-01,4.227463492952775181e-02,6.289956539345396835e-02,5.010488565977460479e-02,2.215740618068106141e-02,4.159700501810604037e-03,3.115442395210266113e-01
3.286475760439674931e-01,5.266580790416880431e-02,4.199157736944353347e-02,-1.478791577881363988e-03,-2.732427661309442916e-03,-1.738935018198492456e-03,2.815382778644561768e-01
3.122333731690377090e-01,6.077703662781551441e-02,5.743104872003886030e-02,5.061625789238037056e-03,-9.890915878010739237e-02,-1.471781623827339959e-03,3.058026731014251709e-01
3.259800854686982219e-01,5.522073691751021307e-02,3.802615293252924189e-02,-1.853520053473795264e-03,-5.096541315158718138e-03,-1.827260277764681954e-03,2.799287736415863037e-01
3.156504607658796591e-01,5.477329439229654262e-02,2.982469403929159657e-02,-1.527053446193174209e-03,-1.555643349575543425e-03,-1.333069770573539967e-03,2.742397487163543701e-01
3.268936843493538413e-01,3.977908457511493412e-02,4.790980574459635655e-02,-9.402744049669528245e-04,-1.249094989173106345e-03,-2.384794924983868556e-03,2.831798791885375977e-01
3.369274654359324384e-01,5.558816777042970003e-02,5.847920954437495211e-02,-2.263048125794612446e-04,9.110552555689697659e-04,-4.398419812315434519e-04,2.799107432365417480e-01
2.298827876481365495e-01,4.502183268856027598e-02,5.325926537565055935e-02,-5.770307425010932911e-02,-7.979602615411131306e-02,3.225644106603143147e-03,2.486785352230072021e-01
3.266681033451944716e-01,4.314815824609040396e-02,5.464136160780438956e-02,-8.831391321273996189e-03,-2.583968557599327677e-03,-5.167996790064680566e-03,2.785520255565643311e-01
3.208903284449949878e-01,6.181592233985586105e-02,2.787501766405540982e-02,2.252409378907389544e-05,-1.181638895193059743e-02,-1.100035665302529506e-03,2.783653438091278076e-01
2.787401958884886399e-01,4.828635330242136980e-02,6.122941932434157464e-02,-1.740491105184696977e-02,-7.324813563986208760e-03,-8.957370339852749330e-03,2.271655201911926270e-01
3.290468398195276478e-01,7.465660328758687292e-02,4.326348921768771727e-02,-7.268190208408796191e-03,-4.239919779175127523e-02,-6.072056956602098904e-03,2.816880941390991211e-01
3.407629712632533892e-01,6.536913597140545096e-02,6.356912661464018954e-02,2.548376806608981630e-03,5.300364906335940877e-04,1.169808073581339852e-03,2.763424515724182129e-01
4.391957905352719127e-01,7.356979416606727884e-02,6.838000894778514804e-02,-2.683872634886743172e-02,-8.157569688955218501e-02,-8.206617092976604966e-03,3.974086046218872070e-01
3.991400545962185409e-01,6.304721496001668146e-02,6.169499852365412096e-02,7.388011092459980528e-03,-1.686200945275528884e-02,-3.164463789730933597e-03,3.383215367794036865e-01
3.294658035404077201e-01,4.644396179949462911e-02,5.105212080841269040e-02,-1.088102504322498989e-03,-1.911123723813678080e-03,-3.904656224549427936e-03,2.808534204959869385e-01
3.285034897016023692e-01,4.164201961569614918e-02,4.240085856885403293e-02,-1.358092530094791718e-04,-6.869641730703305053e-04,-1.541432795138507035e-03,2.864978015422821045e-01
2.406754170977197238e-01,5.583310001223915076e-02,5.379692642682024073e-02,-1.430554779930065697e-02,-2.920041221830585974e-03,-8.769523036417705211e-03,1.881952136754989624e-01
3.029535626536336013e-01,6.252606667444865485e-02,3.339265319262217646e-02,1.803148901062489565e-04,-1.332756506954366205e-02,7.381238804359543200e-04,2.572804093360900879e-01
3.371399388311258627e-01,6.023542280980917485e-02,6.703089592302161059e-02,5.315415435876403531e-04,-4.226390176728537303e-04,1.169671737452525426e-03,2.735801041126251221e-01
3.571218638581120652e-01,5.250339680730213565e-02,4.905423696396113420e-02,-4.774393236691261422e-02,-2.333596861006971210e-02,-8.789813054497499015e-03,3.202482163906097412e-01
3.346053695819241058e-01,6.083151125357494360e-02,6.086004996189300909e-02,-5.443285732644769686e-04,-7.494255465295249392e-04,1.175284430328360366e-03,2.737718522548675537e-01
3.745829870091244018e-01,5.996545833403617298e-02,6.349763498624294566e-02,4.853369748083257405e-03,3.494902391233736198e-03,-3.388033032258085456e-03,3.130928277969360352e-01
3.252191343205855234e-01,6.045963806451142009e-02,3.259816633107322226e-02,7.051600208361328453e-05,1.468415164478496402e-03,-3.306833748339513854e-04,2.797449827194213867e-01
3.167115795527164490e-01,6.012827595575802320e-02,3.159636813640590014e-02,2.305611481260894417e-04,4.506429772592002690e-03,1.178362675266201752e-03,2.720939517021179199e-01
3.359119984621317667e-01,5.431395102424128873e-02,4.479951067909181128e-02,-1.278573825687287719e-03,6.746821238003349736e-03,1.015488083491635852e-03,2.867259979248046875e-01
3.214854059582518131e-01,6.100689313453543094e-02,3.221945347014161520e-02,7.454406355936952881e-04,1.727385192781869091e-04,2.008779151303094707e-04,2.760038971900939941e-01
2.900823253595098405e-01,5.416695002568130968e-02,5.350654953690552051e-02,2.730301581845796799e-02,4.325269391800580510e-02,-8.277038692504347719e-03,2.527183890342712402e-01
2.202045060529395082e-01,5.867709413402921043e-02,3.836136679069768185e-02,1.490482390199800687e-02,6.140446128151851035e-02,2.212294132598815349e-04,2.043612301349639893e-01
3.289548389733057410e-01,5.994609728802437199e-02,3.309633672481795963e-02,1.183077707508195086e-03,1.843802208759640505e-03,-4.434434634415468195e-04,2.834156453609466553e-01
3.342253040608933468e-01,4.009949834987046324e-02,5.483833007676708338e-02,-1.107511645751758401e-02,-7.462394271692122591e-03,-7.576365100190877132e-03,2.882696390151977539e-01
4.475437675342704424e-01,6.443331593193468709e-02,6.490543916312299655e-02,-4.282719126934769055e-02,-5.955105979322652260e-02,-1.024151643729712298e-02,4.037934243679046631e-01
3.704674107971851482e-01,6.124614369941383529e-02,7.013562165699763207e-02,2.413776561503262145e-03,6.791869060623846512e-05,7.049197989147952179e-05,3.049024641513824463e-01
3.495957407799753502e-01,6.103532324957654243e-02,6.685744451614671069e-02,1.578016095534572668e-03,-3.903251960556334502e-03,1.536423543234329133e-03,2.857992947101593018e-01
4.038031202714646439e-01,6.131107424822755669e-02,6.437486439258503779e-02,-2.270486845528836561e-03,-8.339598758307354125e-04,-2.780790847862444747e-03,3.410302400588989258e-01
3.177338053203767054e-01,4.737308676710774713e-02,4.223973694881805185e-02,-3.313892572310469554e-03,-5.947429037399196323e-03,-6.485885774598695343e-03,2.734490633010864258e-01
3.385884704829374980e-01,6.292608107361508107e-02,6.052897295661027743e-02,2.857882303117751125e-04,1.271090345487618225e-03,1.333707736393177287e-03,2.768875658512115479e-01
3.217090127962180524e-01,3.649225956306338670e-02,5.497199626336228551e-02,8.454618649897292998e-04,-5.386320295231356069e-04,-3.751565648860740853e-03,2.765223383903503418e-01
4.730668223098103420e-01,5.835303981841011289e-02,6.836028083819389867e-02,-8.038832415542476739e-02,4.982260172280098681e-04,-1.197221410005354716e-02,4.333072006702423096e-01
3.313816324346159914e-01,4.038737642100712066e-02,5.134279664700547308e-02,3.090694890830743974e-03,-2.625919547919692700e-05,-3.751313867010977379e-03,2.857981622219085693e-01
3.388302070149977752e-01,6.764819582050504709e-02,6.154762044686472311e-02,-2.308979350325045081e-03,-2.796816768438071567e-03,7.369837165124243448e-04,2.743580937385559082e-01
3.387037737454643427e-01,6.635382269722560344e-02,6.182331853219516504e-02,-2.215496421002874881e-03,-2.918228515229559679e-03,1.946806641467371118e-03,2.747372388839721680e-01
3.543504454544111892e-01,5.731950164460439257e-02,5.966855655976543993e-02,2.320390715534934121e-03,-1.884047254127283475e-03,-1.128241578725462831e-03,2.959151566028594971e-01
3.358898000787461369e-01,5.718865442244777664e-02,5.711529953837185536e-02,-1.235499873651331113e-03,2.839772468417501330e-05,8.554866367747658728e-06,2.787460386753082275e-01
2.825675960231858186e-01,6.319554377103349385e-02,4.759939517836193901e-02,1.089358176021941937e-03,2.072311051228014744e-03,-7.936553152271852082e-03,2.280221581459045410e-01
2.653577574691887708e-01,5.230677938721178810e-02,5.611695665753373141e-02,1.899540362732928672e-02,-1.056373940604820585e-03,-7.468283571827393635e-03,2.141182422637939453e-01
1.796836131844029849e-01,5.729445154654676242e-02,6.164880847316508983e-02,2.279274432671207773e-02,6.313600969050954005e-03,-2.375960861058560702e-03,1.271227300167083740e-01
3.416618391503158936e-01,5.659165513944648673e-02,5.269477156298948972e-02,7.097163126959847232e-03,1.331919908873332482e-02,-2.534955879765959062e-03,2.882597148418426514e-01
3.323882407578755416e-01,5.319329800839310562e-02,4.700768696972447425e-02,4.175049682435280716e-04,-9.889592860526021535e-04,6.880944384472429103e-04,2.823472023010253906e-01
3.522571157462464631e-01,6.264591780930042764e-02,6.718009507193378749e-02,-3.187800670474540653e-03,-3.339091867226527763e-03,2.523501491140118201e-03,2.875153720378875732e-01
3.253837348487483849e-01,3.537304545110386833e-02,5.529561729467730169e-02,3.834510720307488310e-03,-3.449425338022601441e-04,-3.374135045153272942e-03,2.807204425334930420e-01
3.590065075727623678e-01,4.811556198895196312e-02,5.517332528402126013e-02,2.586102708531875377e-02,1.539483499367438370e-02,-7.157962250856194676e-03,3.120574951171875000e-01
3.376882956209270592e-01,5.556063159871429957e-02,4.194176260102226717e-02,1.788263702255326161e-03,5.728373636405173497e-03,-2.543382926669354380e-03,2.893979847431182861e-01
2.548957250326372437e-01,5.435596179268084582e-02,6.596367943122860567e-02,7.388335692660162601e-02,6.253610189726900581e-02,-2.496155034353457480e-03,2.571971416473388672e-01
3.994551619056735392e-01,6.055279284104315984e-02,6.769093392681065080e-02,7.097661982932479234e-03,3.855839554149009026e-03,6.113873720283138826e-04,3.356836140155792236e-01
2.522382861109762620e-01,4.683170168448373694e-02,5.373759038219605433e-02,1.851028298572708619e-02,1.409316871814363797e-02,-6.159485719151283796e-03,2.062973678112030029e-01
2.754216647059949397e-01,6.696164575493568361e-02,4.448587077290926117e-02,1.868727884567527231e-04,1.431002505622519993e-03,1.573055825269361382e-03,2.205894589424133301e-01
3.857655705820307590e-01,6.218359809553286599e-02,7.219724782427230925e-02,4.249073758369578853e-03,-4.515985372281178245e-03,-1.698964225935399369e-03,3.188876509666442871e-01
3.296235488137294056e-01,5.189960872912481593e-02,3.937603067630009168e-02,-5.215063998132408139e-04,4.633182078284591929e-04,1.726618294559182027e-03,2.842110693454742432e-01
3.492700306951127542e-01,5.980283220769525010e-02,7.225341073811718251e-02,1.482468600596887568e-03,1.788949496837805020e-03,-1.744154657826298423e-05,2.834756374359130859e-01
3.462525394674674795e-01,6.005800386015233694e-02,7.301470636480153487e-02,4.866159858540898531e-04,3.324848696604145609e-04,-4.046205259599343091e-05,2.799430191516876221e-01
4.048058727526642198e-01,5.307489669717037339e-02,1.992874385631202006e-02,4.787837357568916832e-03,-2.459018310601749496e-02,-3.928009633601895444e-03,3.720228075981140137e-01
4.067521655018279669e-01,7.485475452325510148e-02,6.308182027872633046e-02,1.525501113870508622e-02,1.115333731588251803e-01,1.877148306355091393e-03,3.901662528514862061e-01
3.441553571910607179e-01,6.029827696275172344e-02,6.334910227811479944e-02,9.276860158132734825e-04,1.393958070795430979e-03,1.502669170816265309e-03,2.823709249496459961e-01
2.225527987869872493e-01,5.768313355104075918e-02,4.979294011056224767e-02,2.847470784049917561e-02,-7.454342377380247797e-02,4.759624883666321166e-03,2.184391617774963379e-01
2.877917273149257493e-01,6.356652926322051145e-02,3.665479095232936080e-02,1.128975177255742444e-04,1.054961183578174283e-02,-3.131714604069453164e-03,2.395804971456527710e-01
3.149224360545770929e-01,6.087552567936481418e-02,4.175933083294847137e-02,2.709622962208138759e-03,8.694473396112598756e-03,-5.277924017039246560e-03,2.647528052330017090e-01
3.166752885875126489e-01,6.144061798703254196e-02,3.292965316254069241e-02,5.307670871003263230e-04,5.367033299156418608e-03,-1.115503659725794721e-03,2.707870006561279297e-01
3.133568382486017212e-01,5.615901635905357070e-02,3.368202288709978842e-02,2.192880475578563859e-03,9.609079803044890539e-03,-1.624044032491596271e-03,2.696967124938964844e-01
3.337115861844472953e-01,5.767143215375356013e-02,5.451300867255168270e-02,7.798087627384551850e-04,-2.589737078042973935e-04,1.004436450019039791e-04,2.776365280151367188e-01
4.332218728478118841e-01,8.180809647012578234e-02,8.453490016321679734e-02,-2.600067250157758747e-02,9.228050772938022062e-02,-5.522360827517895816e-04,3.874492645263671875e-01
3.345924284855692488e-01,5.718334588855543410e-02,5.161673098321883923e-02,1.481476079390817288e-03,6.653418051061692987e-04,-4.888669335132685492e-04,2.802492678165435791e-01
3.332594878532941784e-01,5.184788737315096374e-02,4.790427464900366694e-02,3.388450482194688899e-04,-3.731238385310428857e-04,4.178287406973273913e-04,2.834062576293945312e-01
3.758437871468669478e-01,7.337573909663309968e-02,6.449774508448874455e-02,3.641017656515360169e-03,8.904901766732418664e-03,3.727896025609251339e-03,3.075230121612548828e-01
3.332169614380551259e-01,5.737842780949936605e-02,5.404832107853803358e-02,1.182259156096583099e-03,2.757849193539675214e-04,3.993108590245271266e-04,2.775273919105529785e-01
3.366428928747443594e-01,5.845965564907568135e-02,5.393648083756698297e-02,2.337093986670215305e-03,-4.787060627761156525e-04,3.859065194782780356e-04,2.805034220218658447e-01
3.422043468338542560e-01,6.172898636408524764e-02,6.221987479543099331e-02,1.784417618494264432e-02,8.898655696876816776e-04,-4.353145908775752672e-03,2.820344865322113037e-01
3.118198332191549627e-01,4.005376965779253173e-02,5.542049556292477641e-02,3.672725247770290344e-03,-2.570511845937822979e-03,5.892155226119167276e-03,2.647285759449005127e-01
3.180972895806526979e-01,4.999234444085391693e-02,4.498893559974290191e-02,7.800282584426488502e-03,-5.971500833981026844e-03,4.866786742310966717e-03,2.713066637516021729e-01
3.024105144077883223e-01,5.112591155724713343e-02,4.952202604659348972e-02,8.730121031819775522e-04,-1.135689564678547467e-03,8.357029017209863936e-03,2.525177896022796631e-01
3.044285002452117306e-01,6.289641966870353207e-02,3.987706406626424782e-02,9.748801302895467469e-04,-1.356247747105130243e-03,5.601172485133677770e-03,2.540276348590850830e-01
3.788136849473469070e-01,5.485709015808193367e-02,4.685272502613618828e-02,3.129978460083652353e-02,-8.379163175891104001e-03,8.815828959608935228e-03,3.331483602523803711e-01
3.052584941335808599e-01,5.248711583842417816e-02,5.194915908103864277e-02,5.369677435097262169e-02,-4.888885981696189376e-02,7.697144488458836260e-03,2.828918099403381348e-01
3.502098526024209901e-01,7.018789958489825287e-02,6.064454607302735556e-02,-2.878123758188609344e-03,2.440862278991430458e-03,1.584021938624776581e-05,2.849884927272796631e-01
2.928559477655232612e-01,6.263317184728901810e-02,3.336784319116942177e-02,-3.215683537671229584e-03,-1.934905656526966257e-03,-1.659119290348233435e-03,2.462662011384963989e-01
3.157772231362719895e-01,4.726628231953208803e-02,3.588895752147823470e-02,5.918465243823430554e-03,-8.543594716143883619e-03,6.255669106846504894e-03,2.751798927783966064e-01
3.323095347192706051e-01,5.389962316044376311e-02,4.282093515302756725e-02,5.856475092670461891e-04,5.479974396803015228e-03,4.384969031555064831e-03,2.843730449676513672e-01
3.389765692739454828e-01,5.843812379698078152e-02,6.327950541808118057e-02,-9.371976957708022657e-04,1.216782001594953790e-03,8.075870316061663787e-04,2.781656086444854736e-01
3.468580408395113279e-01,5.797695642426588247e-02,6.453105144756497713e-02,1.869732143500730647e-03,2.535982481228242578e-03,-6.209806200211539194e-04,2.857145667076110840e-01
3.349266622329735155e-01,5.859730375422256277e-02,5.897169970883758827e-02,-1.765574661013411114e-03,-1.268702206955118431e-03,9.996666560230884930e-05,2.761680781841278076e-01
3.429423518148821959e-01,5.983487209648842564e-02,7.000940899348272184e-02,-2.233095097695772958e-03,-1.809594828807691187e-03,8.446703705818539966e-04,2.782081961631774902e-01
3.382324562188489536e-01,6.122304153687678496e-02,6.720915783998786253e-02,9.843328747697062506e-05,2.911039031657117280e-04,7.955020219064681906e-04,2.740693688392639160e-01
3.373439632526899490e-01,5.047512372667146974e-02,4.370508975490801362e-02,3.599359356756489524e-06,3.690676571883853038e-04,-2.010995523032510762e-03,2.903346717357635498e-01
3.345454777714104155e-01,5.191723826599378699e-02,3.917536272815405618e-02,-7.369341188200483799e-04,-1.029103513936324450e-03,-1.075452762920919327e-03,2.892240881919860840e-01
3.181262686398784734e-01,5.310457917982287779e-02,5.843062011179583903e-02,3.141093671348454963e-02,1.638441757414062228e-02,-1.411191333199043538e-02,2.705846726894378662e-01
3.383205821894124665e-01,5.442837749157794502e-02,5.909492239186230067e-02,1.090511928423383808e-04,3.925231745454264669e-03,8.517489290608101814e-05,2.816700935363769531e-01
3.440931350402101074e-01,5.498617837223374050e-02,6.264201632784298368e-02,3.493430144285061389e-04,5.126474321150454976e-03,4.862909810339718399e-04,2.854960560798645020e-01
3.524502753699073621e-01,7.251695547735542702e-02,5.932789271381458396e-02,7.341504107106751418e-04,4.442311380075871928e-04,4.779716027425402812e-04,2.867604792118072510e-01
3.316836651329775343e-01,4.088489665141495366e-02,5.038237269493132942e-02,1.926775004880052237e-03,-1.087778291767896918e-03,1.770356038544926855e-03,2.862103581428527832e-01
3.511926288266195018e-01,7.394703864198101662e-02,5.954860982571880124e-02,-2.710992625374882264e-03,2.205577315386173572e-04,1.590591893129854502e-04,2.847571074962615967e-01
3.461644026694709053e-01,7.752870768506625598e-02,6.059100275742118624e-02,-9.061912056871460107e-04,2.222314144549337751e-03,-1.804969298984200263e-03,2.775412499904632568e-01
5.162952922864358918e-01,8.831234673614812847e-02,9.144169697364581961e-02,6.185656821311383974e-02,1.039983500692474340e-02,1.149839824808481827e-02,4.404993653297424316e-01
3.469598960161693335e-01,5.592445702711602851e-02,5.741345326898325552e-02,-1.489388227158351284e-03,3.071291277586822317e-03,-1.074030436290691849e-03,2.903599739074707031e-01
3.409674167575934556e-01,7.192468795235264223e-02,6.020994888373545906e-02,7.267329028937716913e-04,1.481134926591803338e-03,-2.861573460659368792e-03,2.751467227935791016e-01
4.137079886282084007e-01,4.323974790261408963e-02,6.582977331176655122e-02,5.168985324202675369e-02,4.095308724907507913e-02,-5.033117275453643548e-03,3.775064647197723389e-01
3.533490599904027252e-01,7.332724852735612864e-02,5.837644632694079239e-02,5.631150089910524903e-03,4.117663109874159823e-03,-7.463874722795957968e-04,2.880450487136840820e-01
3.375893681191859397e-01,5.750058746298584988e-02,5.855150202044198671e-02,-2.754147722746048098e-03,-2.045799103204594665e-03,1.471497414090306528e-03,2.796395719051361084e-01
3.451893946978770722e-01,6.669426997808777791e-02,6.027863495023383367e-02,-1.956751319660216329e-03,-1.637941350055414089e-03,6.797284954436291510e-04,2.817948460578918457e-01
3.930736611472041009e-01,6.375152026695687923e-02,6.376898862460581019e-02,-8.745672315032723687e-02,-1.706066640374296131e-02,-5.231715825777545799e-03,3.637975752353668213e-01
3.697087409947495407e-01,4.440053738622186386e-02,3.953975185317992747e-02,-2.499514553904896852e-02,-1.499061908156173149e-02,-1.233317035336536395e-02,3.323177099227905273e-01
3.143732677824526145e-01,5.662314448016475543e-02,5.484764094670671608e-02,3.077326960618376878e-02,3.839699094788170258e-02,-6.500738447905702808e-03,2.725557982921600342e-01
3.517092054310211324e-01,4.622999398379518121e-02,4.833028427704445795e-02,-3.563131597930441208e-02,-2.546963131475012479e-02,-1.092394573333033483e-02,3.143139183521270752e-01
3.210801476641287344e-01,3.279425212264444611e-02,5.823293559504159889e-02,-9.431027161212157369e-04,1.594486985555140963e-03,1.014482001674907753e-03,2.764699757099151611e-01
3.159063092479522661e-01,2.949371020593834214e-02,6.092647451248602020e-02,-6.320431663252599162e-03,7.967009336351396978e-04,1.514493016516167126e-03,2.722977995872497559e-01
3.155496613697788000e-01,3.512299313393661693e-02,5.846269521870088581e-02,-1.376702386226304458e-03,-1.661727780137920839e-04,8.828702549427064946e-04,2.695308625698089600e-01
3.015782972009519725e-01,5.215262761355948795e-02,3.845846472738471966e-02,-1.008728256357747759e-02,-1.868635793775346235e-02,-1.012019234826093926e-02,2.597622573375701904e-01
3.312112465406133466e-01,5.490290242380180263e-02,4.263213592041815991e-02,-1.547574649123933986e-03,-7.219190371110900152e-03,-5.095561968596042969e-03,2.830703258514404297e-01
3.257421696940946410e-01,5.514955969537709002e-02,3.358278597360199458e-02,-5.596151679981221233e-03,-8.039188608327569804e-03,-3.815729914702739676e-03,2.825824022293090820e-01
3.323900755433313869e-01,6.355463377930845037e-02,6.317613610167936711e-02,-4.646201323954233533e-04,-8.263265027294503570e-04,1.117119163515316489e-03,2.690368592739105225e-01
3.798641110121131481e-01,6.162367252710181098e-02,5.815292506534945616e-02,-3.814068402848271120e-03,-1.633564085113309305e-02,-2.522373691117984519e-03,3.213360309600830078e-01
3.317318743604399378e-01,5.484302107258397230e-02,5.342775794858073413e-02,2.888306122448121510e-04,1.535596503646002528e-04,-1.837294059336479907e-03,2.776180207729339600e-01
3.287019315939648800e-01,4.838066005144740778e-02,4.129800106372476243e-02,-2.398540303171724057e-03,-8.681457563870286030e-04,-1.559030987106174672e-03,2.839760780334472656e-01
3.043220561068278318e-01,4.961380774766571689e-02,3.866981257113408232e-02,-2.018433363463242175e-02,-7.341047882187336227e-02,-7.029186007615022963e-03,2.920981645584106445e-01
3.522449601263417662e-01,6.152598032683301299e-02,6.670649446303467123e-02,2.152275343281516429e-03,-1.038896294764141354e-03,6.401866963759396054e-04,2.881955206394195557e-01
3.414361032617391212e-01,5.764231333130422075e-02,5.156384392990319421e-02,6.509819349179178649e-03,-1.012210014164355645e-02,4.115384560436426142e-03,2.877259254455566406e-01
3.216625299931710757e-01,6.132799046884709893e-02,3.683055305007602864e-02,2.460828619036284012e-03,8.761523954655679389e-03,3.647799370887436828e-03,2.739344835281372070e-01
4.243980883442229901e-01,7.272838698600292417e-02,6.496962809690393081e-02,-1.374030045190888401e-02,5.721568259194891731e-02,2.547005339590316126e-03,3.699554800987243652e-01
5.225633355891603493e-01,9.504305610665284010e-02,5.787332548074730632e-02,1.694948382609744175e-02,3.547699003444514110e-02,4.658816946762163978e-03,4.524917900562286377e-01
3.341652142671319714e-01,6.167012953363534833e-02,6.435251781740135291e-02,4.758451359608908970e-04,2.320657730710600159e-04,-1.182437022550361476e-03,2.711731195449829102e-01
2.993161608513786875e-01,4.212091804201543999e-02,5.580008730279606421e-02,-3.298264683567065508e-02,1.119655266674206458e-02,7.837596142214724865e-03,2.581515610218048096e-01
3.444798049083119817e-01,5.916151686915298302e-02,7.293769186273027505e-02,1.235650315622883761e-03,1.042128222354219910e-03,-6.193076698803384132e-04,2.787018120288848877e-01
3.376538700624336919e-01,6.002476936838078980e-02,5.497199570973623772e-02,4.253217515112683519e-03,1.542915733229946462e-02,1.621057725883212608e-04,2.815577685832977295e-01
3.052363181642619994e-01,6.101190183607688167e-02,4.586810806910528171e-02,-4.659596549182715153e-03,2.135462266331198886e-02,8.708025301812706218e-03,2.554095983505249023e-01
3.146030201026803752e-01,4.174002747926881807e-02,5.007212369921015815e-02,-3.664263102133779367e-03,2.676858170120730279e-03,7.132771016467492724e-03,2.691923379898071289e-01
3.347616947834123335e-01,6.345464136002607058e-02,6.852381561589150627e-02,1.816440665772921497e-03,-4.712204092276303587e-08,-1.708059557236679162e-03,2.688429951667785645e-01
3.389256589145881460e-01,6.337117584374306334e-02,4.786225018784226459e-02,-4.702150110869901534e-02,2.301680827150751063e-02,5.508148520124041096e-03,2.979224026203155518e-01
1.560838290654249227e-01,5.777736413385312075e-02,4.420634550452643557e-02,-3.549397927464937458e-02,-7.298278127810116367e-02,1.007151554290410195e-03,1.759102642536163330e-01
2.654894513687527935e-01,5.194235910485493768e-02,5.645710518010130241e-02,6.898178980616691269e-02,-5.382221753135086467e-02,6.169618496149643048e-03,2.602667510509490967e-01
2.487922001430809549e-01,5.719733131408666349e-02,7.543358975019187618e-02,3.497920655155667413e-02,2.442752051581375747e-02,3.444388213027269486e-03,1.975943297147750854e-01
3.330589539477932237e-01,6.475900938205428337e-02,5.103439851254984450e-02,-1.770475196192506859e-02,-9.379516997908709727e-03,-7.313241402135560801e-03,2.778853774070739746e-01
3.248746625870558846e-01,5.183832931337582772e-02,3.457277313119157258e-02,1.764541021230733864e-03,-2.824819016562687534e-03,1.287856173846463033e-03,2.821335196495056152e-01
2.806465325512117470e-01,5.859285785554993464e-02,5.805685765413508281e-02,8.601210554760418958e-02,-1.310618736710550923e-02,2.822907275535567820e-03,2.686272859573364258e-01
2.800476100713857885e-01,4.640833728461554730e-02,4.578473714815255169e-02,-9.551805494823451329e-03,-9.523867635984980054e-03,-9.813320572077259205e-03,2.357289195060729980e-01
2.715904251188474561e-01,4.700474112547146921e-02,5.519929313036928131e-02,-9.289580112067359272e-03,-1.557906423939601050e-03,-1.032078459853932179e-02,2.219261676073074341e-01
3.550458590198975473e-01,6.121777012796714157e-02,4.661118430920077604e-02,1.267077822952600514e-03,-1.373185401254497888e-02,-6.925376841852518700e-04,3.023442924022674561e-01
2.770705291668607018e-01,6.834196753249915934e-02,4.048500977105909393e-02,-4.273439570902717323e-04,-3.092247659850126586e-03,-2.725443537484298524e-03,2.240751683712005615e-01
2.797700499191136947e-01,7.469767081103656503e-02,4.475026663787695647e-02,2.050577532253009330e-02,-3.670114749516845826e-02,5.863071169132950781e-03,2.334489673376083374e-01
3.243660654277610855e-01,4.209362924295299846e-02,4.432387209313494447e-02,-1.322376619570415912e-03,-5.699180729514910808e-04,-3.397445507213926914e-03,2.812365889549255371e-01
3.146514661714150396e-01,3.099224229968722266e-02,5.745436829671753121e-02,-1.841831949497158569e-03,2.218473672647867413e-03,9.428852607504156942e-04,2.714483141899108887e-01
3.189640468538236795e-01,3.572450530941458091e-02,5.617112070932525625e-02,-4.202876806074201232e-04,1.021084875619391458e-03,2.414871847154363878e-03,2.736285030841827393e-01
3.099795156617932701e-01,3.187150548145500917e-02,5.755285282192248997e-02,-4.621306459968666826e-03,2.592133972185092783e-04,2.921871247402237082e-03,2.663668394088745117e-01
3.209560567132117015e-01,3.222265825363557212e-02,5.840714291160728489e-02,-2.606825086241031358e-03,-3.350866263573984666e-04,9.091764670904640012e-04,2.766143083572387695e-01
3.137128945782170497e-01,2.977630102496321707e-02,6.130846290516404895e-02,-4.709728973610396996e-03,1.222247645360321697e-03,3.131925071978122928e-04,2.696895599365234375e-01
3.135295341331828523e-01,3.287675051767685597e-02,5.468688703732914325e-02,-3.116250859442603553e-03,1.676003896056256883e-03,1.652638718986160216e-03,2.704927921295166016e-01
3.102046409712431174e-01,2.831349193402939168e-02,6.151796193380126843e-02,-1.277807859101267988e-04,-8.356996762230168684e-05,-3.988165052784644390e-04,2.668438851833343506e-01
3.063553760981810870e-01,4.767821061766749913e-02,4.017344687470220110e-02,-8.406974461449074265e-04,-3.369646805271093743e-03,-7.253008389995680739e-03,2.628792822360992432e-01
2.965933008262675030e-01,3.808536988875452223e-02,4.502455823567838578e-02,-1.328341336998233729e-02,-3.041119340788467004e-03,-8.663075544220171648e-03,2.566376924514770508e-01
3.428854209445683643e-01,5.615101644998664321e-02,6.050458262237790041e-02,8.509887273195464999e-04,-5.087865559914069545e-03,-5.244167034927936294e-04,2.847242653369903564e-01
3.324095628013381543e-01,5.301381107469058107e-02,4.811555904033379405e-02,-4.289533558907963635e-04,-2.030993100255920787e-03,-2.270488860058773525e-03,2.819271683692932129e-01
3.460545226467382496e-01,5.444573584336996619e-02,5.504638293643408786e-02,-3.721265312537661019e-02,-3.035261845185678944e-02,-8.648712131221909447e-03,3.033207654953002930e-01
3.271541949869525290e-01,4.831629049617001959e-02,3.941028598530051108e-02,-1.953923456803823705e-03,-2.285269603434851929e-03,-2.165303933047343747e-03,2.834685444831848145e-01
3.142475438622969186e-01,5.281613486946244718e-02,4.326765634982536468e-02,-4.192992127311916117e-02,-5.639409442412597617e-02,-9.299507307030231359e-03,2.932720780372619629e-01
3.264318567483825984e-01,3.682164714901481339e-02,5.202792911707487811e-02,-6.543070305605762707e-03,-2.557517250690294949e-03,-4.922630126442568976e-03,2.827050983905792236e-01
3.120501228241892022e-01,4.086243445199423674e-02,5.198757026854909646e-02,-3.589581669937515207e-02,-1.922775176506090478e-02,-1.037624071527508927e-02,2.755851447582244873e-01
3.156892218948627038e-01,5.673403124317608071e-02,3.597409034964382801e-02,-4.143265808917222411e-03,-8.685490879799322508e-03,-5.587399021736868220e-03,2.706217467784881592e-01
3.323765901676620782e-01,5.136486217281212296e-02,5.462996370167987059e-02,-2.195457658720306651e-03,-7.499961300268064403e-04,-1.692281320418325893e-03,2.794377505779266357e-01
3.352104479741678800e-01,5.616879050887794989e-02,5.801447533206482987e-02,9.564399616303220384e-04,9.515186576312407432e-04,-3.217709083818476919e-04,2.781337797641754150e-01
3.403573391882387944e-01,5.700156086837683544e-02,5.925771467380550050e-02,-7.146948366655027710e-03,-9.355431079433383472e-04,-1.570158334142824838e-03,2.825235426425933838e-01
3.199206635342464744e-01,5.584643666839816945e-02,3.187377206596382628e-02,5.839156198553922296e-04,-2.205569304919466952e-03,-1.410425380713032154e-03,2.768791019916534424e-01
4.050236071914821157e-01,6.282466399118800948e-02,6.534639902617266072e-02,-6.609760498026002714e-04,-1.575256553341632853e-03,-3.358935252440867214e-03,3.410075306892395020e-01
3.356402064129073715e-01,4.520285785833662306e-02,6.522956204680102621e-02,2.859343768812655159e-02,1.319407524060554719e-02,-6.147406917330761923e-03,2.864032089710235596e-01
3.320821170243274389e-01,4.955321812590018915e-02,4.760297280902490991e-02,1.028590361131434452e-03,6.575440572357468816e-04,2.493133357063549976e-03,2.835498154163360596e-01
2.269862139187781291e-01,4.976476202642969582e-02,6.852890643002226834e-02,-4.783849867107835968e-02,1.252458606988167238e-02,4.717705048409112645e-03,1.893067806959152222e-01
3.139996291624038149e-01,2.984617550090790106e-02,6.045263242107341839e-02,-1.224959832591065610e-03,1.749511938913340340e-03,7.934397162250465601e-04,2.701824903488159180e-01
2.365709055840910513e-01,3.453880956894982146e-02,5.803268672383073146e-02,-7.299401300966083805e-02,-3.148443041858731226e-03,-3.136437061980764003e-03,2.294908314943313599e-01
3.135233490449451654e-01,4.951052491775749520e-02,4.418479495100670340e-02,-2.366493157176660471e-03,4.502656429068464632e-03,7.612793734130081022e-03,2.671866118907928467e-01
2.762564050471406074e-01,4.957074556123867992e-02,5.162544901783437667e-02,-2.775083057040422796e-02,-2.306167180157917690e-02,-1.610739524148521729e-02,2.358156740665435791e-01
3.160121029463024978e-01,4.135411435272245972e-02,5.239596865349745169e-02,-7.435302619625585620e-03,-3.911917257880666472e-03,-5.059620476993298074e-03,2.698420882225036621e-01
3.054721989083002409e-01,2.735673473549775359e-02,5.891350783895767107e-02,-6.522358064096896862e-03,8.076476248411441992e-04,1.520176442860462747e-03,2.640154063701629639e-01
2.894593977704442711e-01,3.166657666860442366e-02,5.711975433922229783e-02,-1.152158173073286954e-02,-4.883909918360771624e-03,-5.269491610890484311e-03,2.471769750118255615e-01
2.376696843239500812e-01,5.912283408289374653e-02,5.793127203445695012e-02,-1.709911017197158004e-02,-1.435722121105577169e-02,-7.843103437736623565e-03,1.837749183177947998e-01
3.359839399407884564e-01,4.445159745278036423e-02,5.792630567582834900e-02,-4.434529067869920176e-03,-1.821428342948859351e-04,-1.438825573059077968e-03,2.851485013961791992e-01
3.376921702416951776e-01,6.834650396288814711e-02,6.180931543093252933e-02,-2.825277022641061613e-04,-7.098369119126801728e-04,1.639192436160727797e-03,2.726910412311553955e-01
2.835466848425027830e-01,7.204568358608325063e-02,7.078794973557847592e-02,9.135263111655117507e-02,-8.845380392394886458e-04,5.243384475106052829e-03,2.648037075996398926e-01
3.371405334632449069e-01,4.590033771873888724e-02,6.568765273402549232e-02,4.397552610068426217e-03,2.992648799392732227e-03,-1.725850234578760623e-03,2.820343077182769775e-01
3.490824931401426134e-01,4.653388088979816539e-02,5.983723306212748727e-02,3.939379986563995226e-03,-2.091398322564468146e-04,-1.069955823995683356e-03,2.962057590484619141e-01
3.286664403726664574e-01,3.391153964403624543e-02,5.618466259288132369e-02,8.509322347427828739e-05,-1.442390448062734639e-04,-1.981195034258274867e-03,2.842943668365478516e-01
3.387223419699367244e-01,4.787364588654292874e-02,5.904626766000947713e-02,4.306369194924611170e-03,2.782743398787982519e-03,-4.618401968502394337e-04,2.855656743049621582e-01
3.399875896638778761e-01,6.335776000450400736e-02,6.395327082807630847e-02,1.473680461556814685e-03,1.522188980485185503e-03,1.992122982605564873e-03,2.763784527778625488e-01
3.229779421071380385e-01,4.710813603593795584e-02,4.405049241208623678e-02,-2.538093962006598894e-03,3.034270447133874133e-03,3.545467386378321328e-03,2.775638103485107422e-01
3.285262227251392053e-01,4.383113427018091313e-02,7.409191455141146687e-02,3.243151319161274165e-02,4.096798010801361994e-03,-5.520178475933191229e-04,2.766922116279602051e-01
2.346012513151700118e-01,6.691811607764677761e-02,6.682861606282432254e-02,3.339188601964956232e-02,-1.534304534402754217e-02,1.966615234704447920e-02,1.826039552688598633e-01
3.564786581971677304e-01,6.284868016994313300e-02,5.701571409670408430e-02,1.002686576734043364e-02,8.185396365031462687e-03,9.404149785193317368e-04,2.974400520324707031e-01
3.122588991842077388e-01,3.638068180125662854e-02,6.043570305766093886e-02,1.300701628826957459e-02,5.251318382477028826e-03,-1.092124016345723042e-04,2.657846808433532715e-01
3.298922940890400279e-01,4.120879302682928236e-02,6.121320734852982171e-02,3.021282454253241927e-04,-1.265656860922398895e-03,1.782342116171273683e-03,2.792454361915588379e-01
3.170407273182536678e-01,3.560286254759272018e-02,6.032313927462436276e-02,9.398497569608680116e-03,2.522538540227451265e-03,-4.292339409245725249e-04,2.704547643661499023e-01
3.269663137182948764e-01,4.053008267406429943e-02,5.784597367849461658e-02,5.077448710602502652e-04,1.384243116370014164e-03,1.067253848254040138e-03,2.782006263732910156e-01
3.205774677081000279e-01,3.817643125747000044e-02,4.691646375834818139e-02,-2.156702326587810973e-03,-1.091197241318536898e-03,-4.392075756612190927e-03,2.782695293426513672e-01
3.226341559006535853e-01,4.177088668809152139e-02,5.215032151270347638e-02,2.875611937512161358e-03,6.829203158513981291e-03,-1.932551455597917699e-03,2.761387825012207031e-01
3.309539965717058774e-01,4.293837385575027810e-02,5.759222400243665940e-02,5.461492208025174426e-03,1.877369363334310164e-03,-3.084242632448521131e-03,2.812041938304901123e-01
3.119375900719457695e-01,5.023488624024778637e-02,5.809488509220168961e-02,4.143113878768064223e-02,-2.322731091276322019e-02,4.804382967598903181e-03,2.707960307598114014e-01
5.454860155879568406e-01,8.047312030840067520e-02,6.337179546361224047e-02,2.020063836873743288e-02,7.432070673023936751e-03,-1.600064113233764032e-02,4.760669469833374023e-01
3.385140237308624789e-01,6.205520279605537814e-02,6.534801141898861909e-02,-1.053481148465329649e-03,-8.257440576987347880e-04,8.147477551104102865e-04,2.748406231403350830e-01
3.375015710330949714e-01,5.565353301217501603e-02,5.371127545666089242e-02,-2.053875128016559304e-03,1.208281778070581340e-03,-6.039507237156567553e-04,2.828562259674072266e-01
3.360369465754810547e-01,6.132356719305752379e-02,6.715615652304673944e-02,5.357527439265736798e-04,-1.886535154834325214e-04,8.494438480033100064e-04,2.718497812747955322e-01
3.534593104485004855e-01,7.011361685126468735e-02,6.490936312422264376e-02,-3.361477727735413031e-03,-6.436816163306459219e-03,3.349831901044732912e-03,2.863185703754425049e-01
3.373316061632400942e-01,5.520977848231439777e-02,5.259624494851786181e-02,-1.273231700195150227e-03,2.978905589924748382e-03,-4.633494364200374223e-04,2.834942936897277832e-01
3.800523853746735625e-01,5.865820834528479022e-02,5.532754122848401734e-02,1.169289858686840995e-02,5.976811263540708630e-02,3.336445102349521168e-03,3.399058878421783447e-01
3.401477089955391442e-01,5.718377060935543599e-02,5.651310753336176440e-02,1.762668747691285408e-03,1.021450141219933799e-02,-5.009314916700128954e-04,2.838695049285888672e-01
4.415089204591193250e-01,5.546357897152145999e-02,6.416536634273845019e-02,-8.853660485515875075e-03,3.488356631390614887e-02,-1.776664050645660950e-02,3.880465924739837646e-01
3.521373749463476699e-01,6.686814477907175591e-02,5.942522088734893126e-02,1.026920255053996242e-02,8.497024188391426314e-03,6.013416701547946415e-04,2.899848520755767822e-01
3.384977933007129458e-01,6.544686951980908940e-02,6.067985883430450367e-02,1.181727121998381270e-03,1.048391612260100771e-03,1.183197473238720734e-04,2.754790186882019043e-01
3.736590313241850980e-01,7.046861981542737463e-02,5.972234040587695580e-02,6.339322855277656522e-03,1.005529650576931881e-02,3.684407898876684243e-03,3.094554841518402100e-01
2.975526825064477299e-01,5.266185619420335473e-02,5.031086755080944883e-02,-4.191397755222135008e-02,-7.285111805277365293e-02,-1.395639665937828573e-02,2.869308590888977051e-01
3.174593547297320795e-01,6.334861627299491482e-02,4.007849551784099795e-02,-1.518700565882919080e-03,1.958180055664473021e-02,5.494566631965870467e-03,2.688396871089935303e-01
3.401553313239297771e-01,6.392913306971841070e-02,6.291715691610924588e-02,1.368897847462200021e-03,7.898825500685551556e-04,2.013379991442967691e-03,2.767690718173980713e-01
3.442634792993218840e-01,5.116758462305316668e-02,5.388537859752819126e-02,7.706520147428090259e-03,1.681896169914922625e-03,-2.316953934606862022e-03,2.920937836170196533e-01
3.377558545317697059e-01,6.098734037011219189e-02,5.834513008190302108e-02,-2.454525584606831630e-03,-3.375991225165075015e-03,4.816456842709044249e-04,2.781942486763000488e-01
3.360559856012402813e-01,5.170086354627417835e-02,5.273154015919832849e-02,-1.136896780080394465e-03,-1.776636506456065728e-03,-6.361534830477341695e-04,2.838668227195739746e-01
3.527669358272760292e-01,6.660637194656733595e-02,6.617030895517030109e-02,2.443131493626470290e-03,-1.134993653919388629e-03,2.191520281015481471e-03,2.864420115947723389e-01
3.444728769528772050e-01,6.559652262308152126e-02,5.797975273306485433e-02,7.304396759841913023e-04,2.080407251126933314e-03,-6.000952402971628441e-04,2.827893793582916260e-01
3.469250787316000562e-01,6.023924897900297115e-02,7.103439680614262453e-02,1.654565113171336003e-03,1.032610868669286237e-03,1.700707851934615605e-03,2.814792692661285400e-01
3.379942312286167150e-01,5.870620193740594406e-02,5.952401039836344165e-02,-2.714572758547190937e-03,-5.333451391112548068e-04,6.014848286194572727e-05,2.789212167263031006e-01
3.953004710591853099e-01,7.059563086809067523e-02,6.673670949220489312e-02,2.193439754400067741e-03,-2.436319432769945038e-03,-2.462321151594257609e-04,3.267010152339935303e-01
3.385359957264494346e-01,6.075864267948249964e-02,6.846907807554473979e-02,-1.071557089641879748e-03,-5.288066113774420995e-04,1.457300020514669088e-03,2.740229666233062744e-01
3.423092128061502315e-01,5.999765474681459376e-02,7.381933323777883915e-02,-6.014784679920881331e-04,-1.708628356101915113e-03,2.524689420228062083e-03,2.757132649421691895e-01
5.345525831353938884e-01,8.593698172994798656e-02,6.785219588250154810e-02,-1.598144431383803632e-02,-3.140634858373896488e-03,-4.794830586071238340e-03,4.588691592216491699e-01
3.986149476433705208e-01,6.121877398470081111e-02,3.153581715738662528e-02,5.590679076958956009e-03,-2.258306438408671027e-02,-7.647946097578710821e-03,3.557125329971313477e-01
4.166018717710784358e-01,5.930549158241138485e-02,5.407727435758745427e-02,-1.304948359493163929e-02,-3.620825757450185731e-03,-1.047120523814351611e-02,3.611581325531005859e-01
3.881261388999922568e-01,6.653302620235027054e-02,6.689762294036818990e-02,8.546284363811822160e-03,1.009098220710173514e-02,1.759203760372422885e-04,3.222261667251586914e-01
3.480917744014068171e-01,5.977937917614456476e-02,5.863409517632559020e-02,-5.121382208402519912e-03,-7.726168235668296781e-03,-2.245258616693676136e-03,2.893586754798889160e-01
3.332393863816780488e-01,6.168414093295750134e-02,6.195108274611768606e-02,-1.465679158711726167e-03,-1.746473734470011571e-04,1.252975477645985186e-03,2.714425921440124512e-01
3.816003541974329338e-01,6.715736666975302693e-02,6.753041851636255866e-02,-4.103991364319777013e-03,4.579074191737123392e-03,2.989095425808541411e-04,3.144374787807464600e-01
4.829998292947556560e-01,5.528841246236163021e-02,8.106057659648238656e-02,-1.580073271182353897e-02,4.966891994587476628e-02,-5.913582409492332097e-03,4.252447783946990967e-01
3.693396034831185615e-01,5.952540436152335690e-02,4.841665679503283359e-02,1.120507899337147041e-02,-2.540338392623070832e-02,1.780120102627626502e-03,3.191740214824676514e-01
3.258892031208707185e-01,4.591858634464437983e-02,3.877904704794038482e-02,-4.779854334370397390e-02,-4.737798344830878444e-02,-9.621529977793088009e-03,3.070817887783050537e-01
3.373404569658269292e-01,5.781082092144057549e-02,5.941061479199165329e-02,-9.684204716863473172e-04,-1.193206416588956948e-03,-2.930582433756522714e-04,2.787463665008544922e-01
3.372534432195023468e-01,5.833816497972756088e-02,5.993191507068221235e-02,-2.624847422661458814e-03,-2.251577679216841890e-03,8.936022655548494186e-05,2.781863510608673096e-01
3.499567684469774287e-01,7.682551611534116365e-02,4.865904285272246166e-02,6.525984017224337186e-02,4.244847671796701805e-02,-7.650131308223662857e-03,3.185041844844818115e-01
3.343415398953093476e-01,6.221345909318651279e-02,6.411930447121594323e-02,-4.419951415011809837e-04,4.548821697660775787e-05,1.983527303148872011e-03,2.712030410766601562e-01
3.439004577360137427e-01,7.009316812112506567e-02,6.037289318464832133e-02,-2.089198825917936049e-03,-1.682004454483038191e-03,1.434099905729617323e-04,2.788333594799041748e-01
3.359891267239015766e-01,6.060585862152056968e-02,6.056844792105832431e-02,-1.485383552876952395e-03,-2.187653773509511124e-03,1.024891635461763284e-03,2.754457890987396240e-01
3.333223294661594727e-01,6.234537809484838600e-02,6.381262347465219142e-02,-1.277526441946167995e-03,-9.476655802436441357e-04,5.257321087535405703e-04,2.702618837356567383e-01
3.273329879014095223e-01,5.458546507682543458e-02,4.372831158898618509e-02,-2.505327083215317351e-03,-1.523913708833931659e-03,-1.880071610603435087e-03,2.784003317356109619e-01
3.284103254542805050e-01,5.709745666536508724e-02,4.376579932353207025e-02,-3.798826473863062985e-04,-1.850328679370327181e-03,-1.109637565694413311e-03,2.782442271709442139e-01
3.104224913395886576e-01,5.688967569598464558e-02,3.434098741835438229e-02,-4.139247660063839637e-05,-1.817765955026089076e-03,-5.871661613653907444e-03,2.657395601272583008e-01
3.179976301137416028e-01,5.222836070437023026e-02,3.369656116164766735e-02,1.467783191806723943e-04,-6.184141596545653032e-05,-2.224659731621049259e-03,2.755300998687744141e-01
3.223043473862940989e-01,4.838522268266580439e-02,4.163514555301367492e-02,-3.097831444882515918e-03,-2.713688394998915211e-03,-3.569802353325837729e-03,2.775163650512695312e-01
3.311623617565118138e-01,5.155111347987133275e-02,5.115750193489024267e-02,2.688387620777583508e-04,8.095990438621747821e-04,-2.206652529555025346e-04,2.798124253749847412e-01
3.383706832809394993e-01,6.472374481839937577e-02,6.126433050848309469e-02,1.726399926863959053e-03,1.045865619500768598e-03,4.704661804747675138e-04,2.754163444042205811e-01
3.321955578859979719e-01,5.476561743677260674e-02,5.648978166386497968e-02,4.269914329306113282e-04,7.678186217549419924e-04,-2.884969488995381653e-04,2.765765190124511719e-01
3.431148386068624268e-01,5.580166764423438730e-02,6.116064135104586075e-02,-1.626484541978737153e-02,3.628620818750351307e-03,9.979210651636417646e-04,2.861363291740417480e-01
3.308281740911783730e-01,4.972062479218174180e-02,4.963314588922680681e-02,2.011509079365712328e-04,-8.622175193541839824e-04,-1.079061414865049731e-03,2.811616957187652588e-01
3.273992581067635133e-01,4.910765107608015823e-02,4.286372611851099745e-02,-2.043487196547534405e-03,-2.812237263906545363e-04,-3.754646527843105101e-03,2.815633118152618408e-01
3.106769037260985189e-01,6.400242740516348672e-02,3.199792955919002202e-02,2.398457462963333574e-03,-5.301510812255557682e-03,1.866627119854047953e-03,2.643469572067260742e-01
2.707222813673728634e-01,6.425619066351304087e-02,2.889892189435119829e-02,-3.175494556267905496e-03,-2.693983174259022284e-02,-4.868284452391348840e-03,2.312078624963760376e-01
3.333731506078971840e-01,4.669289949960489516e-02,5.000912678055097205e-02,7.222029872759087258e-04,1.339539611913871621e-03,1.835048766251583382e-03,2.850665152072906494e-01
3.290882729563614495e-01,4.789413337992995401e-02,5.361336239186488550e-02,1.275075250026675745e-02,-1.505585657055004412e-03,1.004312619692485087e-02,2.798066735267639160e-01
3.197146602250016123e-01,5.583362891997202537e-02,3.349536893279531080e-02,2.456716682194333423e-03,-1.694114249519172504e-03,2.731314339225122262e-03,2.758186757564544678e-01
3.196855313392521492e-01,5.807924584217803721e-02,3.347533954170966997e-02,1.472184591766808595e-03,-1.134440676010588017e-03,9.919720579938506432e-04,2.747599780559539795e-01
3.674869935596387638e-01,5.127747073982670545e-02,5.163545834741255225e-02,-4.418143149402194853e-02,-4.144136959770160222e-02,-3.025306535069804612e-03,3.330330550670623779e-01
2.599604664260740661e-01,4.095362777384364827e-02,4.270892517045116188e-02,-6.162332353866490503e-02,-4.479518537575971626e-02,-7.756237970271804769e-03,2.552944719791412354e-01
3.288222649277587895e-01,3.901821013884523848e-02,5.456957240444385016e-02,-3.346779175632787640e-03,-1.873586613513049609e-03,-3.234748948662105866e-03,2.824834585189819336e-01
3.050424290528068183e-01,2.934184527448124857e-02,6.132312035497235192e-02,-1.095226588722195311e-02,-3.066384773618864405e-03,-1.242954560216033067e-04,2.619245350360870361e-01
3.436027599282565070e-01,5.250449032889313583e-02,5.919449067362840544e-02,-2.838800459131538695e-02,-1.167354804522877966e-02,-8.954041215846968160e-03,2.930912673473358154e-01
3.201650782043245491e-01,4.112603321403743295e-02,5.784131855004052969e-02,-2.531365314173690539e-02,-2.003170813473476031e-02,-7.333471943033878677e-03,2.770658135414123535e-01
2.567980594947092410e-01,5.375523981618672564e-02,5.429337660006361421e-02,-4.461735887820876545e-02,-8.497700198166026342e-02,3.176415405905760100e-05,2.622075676918029785e-01
2.385777706229820772e-01,6.811884170345852696e-02,4.321972091823979290e-02,3.905601664739148139e-04,-2.171823320528033785e-02,2.265337186568174618e-03,1.880196481943130493e-01
3.222033144787528336e-01,3.289622960526168705e-02,6.544823495899311505e-02,5.768455167348832298e-03,3.322447110397845995e-04,6.846583036932419849e-04,2.746675312519073486e-01
3.772091758080029500e-01,6.231170423266259306e-02,5.634210967849841156e-02,5.038291381726968908e-03,2.297339700011763117e-02,-4.688344830618710636e-03,3.206264078617095947e-01
3.115925961318666837e-01,4.290330125149653673e-02,5.137802931773514936e-02,4.466571139380963278e-03,4.596203098860432955e-03,-8.075396090273620486e-03,2.651557028293609619e-01
3.264192593325883074e-01,4.120088189589705963e-02,5.554770666652331101e-02,7.676659607411094469e-04,3.543116234410419586e-04,-5.452458950145265722e-03,2.784864604473114014e-01
4.601758759106873709e-01,6.990523483452007469e-02,8.361386391200163748e-02,7.496387267557411138e-02,2.858087327622802626e-02,1.287996434604858848e-03,4.079991877079010010e-01
3.251459657734248609e-01,4.071524099872234070e-02,5.274407745962386707e-02,4.855524272477830180e-03,6.348550628068090488e-04,-3.704164315722524321e-03,2.788140177726745605e-01
3.144853403359818000e-01,4.771397937635540876e-02,5.285034636027381716e-02,9.529909772144356736e-03,3.315788673102666555e-03,-8.839887268406303525e-03,2.652602195739746094e-01
3.377947530442268476e-01,6.000349557597935146e-02,5.831317893507023675e-02,-2.494200360059871911e-03,-3.003132734581700092e-03,1.987174041313799738e-04,2.787224948406219482e-01
3.380656120531496667e-01,5.654380238734540987e-02,5.637725105653247637e-02,7.188902359704451607e-03,8.038274847446520710e-03,-7.911913175236850873e-04,2.822272181510925293e-01
3.254528351704404354e-01,5.444220844078814792e-02,4.901822188998135321e-02,-1.158888924015682477e-02,-1.577571107920705887e-02,-4.249672937695772937e-03,2.759526073932647705e-01
3.314298971447079412e-01,4.964172918917926502e-02,4.901639430882429038e-02,-6.945873108017558417e-04,-5.857797848535124796e-05,-1.497036740843051819e-03,2.821158468723297119e-01
3.311349434709033313e-01,4.748015737816499438e-02,4.702025266177088658e-02,-3.007348001469604460e-04,-9.590424943125722222e-04,9.396707156050817362e-05,2.838903963565826416e-01
3.891118066550651733e-01,5.245024801324431329e-02,6.029524843257734468e-02,-2.167475206734625903e-02,-9.556010147989455958e-03,-4.443806383417289035e-03,3.354161977767944336e-01
3.387220637748747376e-01,6.009635213060564307e-02,5.016021774724749305e-02,-5.378866540623049308e-03,-2.723831956013338801e-02,-7.937540665466263565e-03,2.880990505218505859e-01
2.869461106649310311e-01,4.063120827280361502e-02,3.973806368064024264e-02,-3.438092224125256779e-02,-2.950301178297614832e-02,-1.447169658666199940e-02,2.601490616798400879e-01
3.360158427299941852e-01,5.827505976678165611e-02,5.990704048486114597e-02,2.474804064387468167e-03,6.765073658945649918e-04,-1.321010565697612192e-04,2.769641578197479248e-01
2.070927234559620245e-01,6.223443243055691576e-02,5.450343309389022589e-02,7.993453939891487225e-02,-4.168716535578185362e-02,4.318501120479463842e-03,2.158740162849426270e-01
2.679965931023230996e-01,4.889968847112666217e-02,6.391863338317557708e-02,7.716519263124521329e-04,6.537168514897586692e-03,8.164468019673140967e-03,2.127636820077896118e-01
2.713336306509662732e-01,6.484160252308975025e-02,5.078349410362947847e-02,8.912631793314442635e-03,-1.158534147537792526e-02,1.094119525957546087e-02,2.161933630704879761e-01
3.191262922226340559e-01,5.215047077220030802e-02,3.907237587232631482e-02,5.144317669430848675e-04,-1.529708392049023520e-03,4.211440908189729472e-03,2.738606929779052734e-01
3.315562819996259458e-01,3.569865430688821950e-02,6.013711783168949887e-02,1.054177308285423470e-02,-2.025817319956315418e-03,2.621316871948399605e-03,2.850701212882995605e-01
3.478759985401139732e-01,4.688347712298492065e-02,5.789230684345246514e-02,1.704655062873143556e-02,-4.118712981905127152e-04,6.533538159140738974e-04,2.971155643463134766e-01
3.358486157466897271e-01,4.501051628286006911e-02,5.683643766876728121e-02,4.032209597117600297e-03,1.563114494345993336e-04,2.373077655205391157e-03,2.852244079113006592e-01
4.070918927440181356e-01,8.165847524610164720e-02,7.595739726426406491e-02,1.187228960755415119e-01,-3.992252895849588562e-02,3.793926883344200720e-03,3.935793638229370117e-01
4.152853154679886916e-01,6.969257870933641408e-02,6.682682791392870192e-02,8.940250250086918815e-02,-1.103242114241605350e-02,-4.825727138760690579e-03,3.805868625640869141e-01
3.874502123529175446e-01,6.615491697195963194e-02,6.200929772485763714e-02,8.542555882607490852e-03,1.123799355750868152e-02,-2.607530981676635645e-03,3.243424594402313232e-01
4.577645154716522002e-01,7.055855664359353407e-02,7.786227205154001851e-02,3.659668978281072071e-02,-1.208888624848921886e-02,1.140408978425709900e-03,3.893764615058898926e-01
4.048821159863735808e-01,4.169504518138528182e-02,5.155301587438408661e-02,-1.428810956066110631e-02,-9.175537059670475044e-04,-9.555957053251686387e-03,3.595979213714599609e-01
3.500843821311423465e-01,5.885636124623945531e-02,5.804743038434062585e-02,7.376541481387322713e-03,7.559607787636164929e-03,-1.963575627174062206e-03,2.922263741493225098e-01
3.462140039434378203e-01,5.939214536658660171e-02,5.737007819808367937e-02,-1.066730114538480805e-03,2.254725336868481419e-03,3.289160607518012741e-04,2.878712117671966553e-01
3.453230586589111639e-01,5.858986855839415364e-02,5.629218330243483670e-02,4.684676938807001570e-04,8.369941859086148673e-04,-2.169861063154067404e-03,2.879182398319244385e-01
2.421708208883084357e-01,6.000928059966662009e-02,6.218658512770320473e-02,-3.352463515667393305e-03,1.624438049281550812e-03,8.429386863931399160e-03,1.817848831415176392e-01
2.680092333435298846e-01,6.440334655814491938e-02,4.575817817434497947e-02,3.945657746787760304e-05,1.810411104267948927e-03,5.798458873539026094e-03,2.137988954782485962e-01
2.783631730977633723e-01,7.147513954130724212e-02,4.569431777674502759e-02,4.959502134650077727e-03,7.838625591396258460e-03,-1.787500247772484847e-03,2.215147018432617188e-01
1.756837320244873935e-01,7.708112606398864752e-02,7.562339633682671480e-02,-3.774535099573198080e-03,1.544617825436688701e-03,1.681808997440360689e-03,9.963291883468627930e-02
1.709356893516880693e-01,4.893171334539748313e-02,5.013648950881492705e-02,-5.986043336023784411e-02,-5.283052308280108966e-02,-3.680825628771923399e-03,1.841279119253158569e-01
3.249724424899054220e-01,5.642885454524848576e-02,3.241974230013794367e-02,-3.230907542587413460e-04,1.451183758179142068e-03,1.240714165519564384e-03,2.813375890254974365e-01
1.380759161456352191e-01,4.561384900548912796e-02,5.330608567443435170e-02,-5.184416086392504286e-02,5.610188637309713316e-02,3.156273823441581436e-04,1.593837440013885498e-01
1.754714694878894699e-01,6.996732419096041156e-02,6.954813589218866721e-02,-3.701218219140120589e-03,6.400806651252305109e-04,9.526055362048925848e-04,1.059272140264511108e-01
3.372640945467794138e-01,5.055469399389983520e-02,5.223246090895447558e-02,-9.792385583322960919e-04,-1.294844472446276184e-03,-1.629192425865492837e-03,2.859019637107849121e-01
3.366928019096400715e-01,5.195716640515876672e-02,5.804592800463612146e-02,-2.027121717900230908e-04,8.116249478756810964e-04,-2.998713389583277603e-03,2.817921936511993408e-01
3.376712018810313909e-01,5.215627041042407430e-02,5.554736822030885424e-02,2.323658378275284073e-03,-1.125644356707536121e-04,-1.806017968518679575e-03,2.838804125785827637e-01
4.891013423582325492e-01,6.082043140896792321e-02,7.377899409713251089e-02,2.936063636347306487e-03,3.708754019935153051e-02,-8.637989363513776803e-03,4.271050393581390381e-01
3.354704287723146439e-01,3.815307852386154441e-02,5.730290932426779227e-02,3.240192671219848178e-03,8.295670864497156800e-04,-1.416987230592576912e-03,2.882886230945587158e-01
3.348970146473890241e-01,4.516634415133800873e-02,5.864733760779822225e-02,6.127317969713441019e-04,2.576568382656863445e-04,-1.186613984021624808e-03,2.832407057285308838e-01
3.686050152295619053e-01,6.713893087769035040e-02,6.043616022493417117e-02,1.723268561967250881e-02,2.250282293683551413e-02,-4.520654491276670205e-03,3.088992238044738770e-01
3.152186682922160088e-01,3.595132488839726526e-02,6.503947556099942684e-02,7.643596274360474341e-03,7.001909201108311165e-04,9.426453620510486311e-04,2.662562727928161621e-01
3.144932627336789466e-01,3.310370059687482713e-02,5.245126369509639508e-02,-3.080640441173225063e-03,-1.233316086618930921e-03,-4.137527860330401756e-03,2.723868489265441895e-01
3.391016143885693390e-01,6.456377785243208600e-02,6.867169516878142421e-02,-2.797052226127411025e-03,-2.361596809976161324e-03,4.530916363442648656e-03,2.726938128471374512e-01
3.122742522424583056e-01,3.652274629847861165e-02,5.196733885253583540e-02,-7.475781558885101312e-03,-8.118831380855876315e-03,-5.704091809756455141e-03,2.692240178585052490e-01
3.323404488497845866e-01,5.877951363305990162e-02,5.648550611796369914e-02,3.043757252701047278e-04,-1.315320483853865588e-04,1.005029429526127288e-03,2.747212350368499756e-01
3.424030484637540228e-01,6.094619317240713985e-02,6.866790095892602586e-02,-5.511219001079215854e-04,-3.173604506259582007e-03,4.845691256492678720e-03,2.778593599796295166e-01
4.001499350992395732e-01,4.396411234778557775e-02,3.627132406037390788e-02,-7.725241252475303563e-03,-1.511930959134137782e-02,-1.229643399184848426e-02,3.619198799133300781e-01
3.358346771281777721e-01,4.371745984513300542e-02,5.893293208805784611e-02,-7.549040545810640525e-03,-3.777803153520582248e-03,-2.609946514873203675e-03,2.852253317832946777e-01
3.424143536774871821e-01,5.969053491769221731e-02,6.095278836903972319e-02,-4.235163365336568411e-03,-6.535494146577555197e-04,4.021973139265659744e-04,2.821933031082153320e-01
3.290022632743024866e-01,3.917220481081866434e-02,5.276216757799757906e-02,-3.554351686577877749e-03,-2.341610758330465308e-03,-3.132591742996268351e-03,2.834275066852569580e-01
3.520286883511748455e-01,5.916993291026528823e-02,5.867370058516450937e-02,1.443443336885087344e-02,2.190470333315423356e-03,-5.115852735093293904e-04,2.941973209381103516e-01
3.299046525537181473e-01,4.612732483563287966e-02,5.426132602843657116e-02,-5.497358093265947631e-04,-1.340937985722527094e-04,-8.347273608710579227e-04,2.798044681549072266e-01
3.369863994416794073e-01,3.527216837901930857e-02,5.566961977589600374e-02,-3.140060418408976289e-02,-3.306351035314633504e-03,-4.652503191733951306e-03,2.972356975078582764e-01
3.370932675141904422e-01,5.467165301157395074e-02,6.388868896872518244e-02,5.701544192705894007e-03,4.041632027728118276e-03,4.166886736217657004e-04,2.781921625137329102e-01
3.204094448776121373e-01,3.518835448125311183e-02,5.001751084022645899e-02,-1.083911614186568043e-03,-1.424352542800481252e-03,-1.171821411280654255e-03,2.781278789043426514e-01
3.398591882901715877e-01,6.157013594881161067e-02,6.757375759913633595e-02,-2.955577927775733006e-03,-2.499815980113541392e-03,8.109163633757902456e-04,2.754215300083160400e-01
3.323914923762144036e-01,6.159267853623301425e-02,6.311695255523661063e-02,-6.815545664957413895e-04,-2.653775598661167550e-04,1.629183938389228874e-04,2.700430154800415039e-01
3.405769901885293827e-01,5.801170405489078363e-02,6.906581461917192521e-02,1.138748412449373673e-03,7.125456519608596231e-04,3.667368839243982962e-04,2.772140800952911377e-01
3.416049747484105614e-01,5.839696952069058089e-02,6.121775643962591718e-02,-1.452977189752183195e-03,-2.844224152388883861e-03,-9.604978850661158177e-05,2.818625271320343018e-01
3.375569097866015222e-01,6.045503196738702401e-02,6.779945689706909362e-02,-1.051863901821275095e-03,-1.077600541927519959e-03,1.468718275241340503e-03,2.735278904438018799e-01
3.291558571143677892e-01,4.325955856459480497e-02,5.857165615104090173e-02,-4.758529649053881987e-04,7.563735143857880719e-03,1.247034660579045620e-03,2.788735628128051758e-01
3.297488716304463052e-01,3.968066421794541609e-02,5.485879159110043646e-02,-5.532588337666382444e-03,6.589867259070231534e-03,6.489658396338609213e-03,2.834002375602722168e-01
3.301325728540274174e-01,3.661328892652690459e-02,6.113365684971219793e-02,-6.667052955819453668e-03,3.090623592682667075e-03,1.476692163790012304e-03,2.823582291603088379e-01
8.179177229458557685e-02,5.315794778871243964e-02,6.019508298035355226e-02,-5.053845103116947485e-02,-2.002197011006499883e-02,3.480250068342903656e-03,9.782277792692184448e-02
1.761330436220879814e-01,5.976034853202304847e-02,5.747183049716093201e-02,-7.370840927773616644e-03,6.852327577479522258e-02,2.330721577960712717e-03,1.675701737403869629e-01
2.549423929180466564e-01,5.340174966786280508e-02,6.108564000603558530e-02,-6.305940347439180360e-02,2.742084958661474697e-02,4.988565979159474348e-03,2.310603559017181396e-01
3.399129046423404188e-01,6.208704397332696912e-02,5.465323036379296506e-02,9.209614479140399313e-04,1.609293694509979558e-04,1.150081945489550648e-03,2.816280722618103027e-01
3.211843258370734588e-01,3.826164938165371732e-02,4.702430947777033743e-02,-1.459843116790423417e-03,-1.220387382757209685e-03,-4.377536772976023914e-03,2.787673175334930420e-01
3.362515607390178518e-01,6.021075936901412740e-02,6.701136511516289640e-02,7.460660502768250678e-03,4.564399992762426970e-04,-5.250217446621789630e-03,2.731626331806182861e-01
3.430534266518180386e-01,6.948908023017458246e-02,6.180121330082204156e-02,-2.133063538368680837e-04,7.434114923942698088e-04,-8.624436259690408798e-04,2.774954140186309814e-01
3.287854423673092219e-01,4.186680301882057809e-02,4.957269945045077175e-02,-2.287256867128904260e-04,7.391809064901176500e-04,1.564332085618584146e-03,2.831604778766632080e-01
3.485688740021071208e-01,4.557160737551042839e-02,6.132829079045813703e-02,-2.805151840609365274e-02,7.710681877437760949e-03,-1.556788041980634819e-03,2.997126579284667969e-01
3.349715111759480335e-01,6.048875912837056723e-02,6.032035280263041421e-02,-2.304839422763070578e-03,3.832475573738568491e-03,-7.471736236723119928e-04,2.746792733669281006e-01
3.599548065566152699e-01,5.889159880085143017e-02,5.774978757293204590e-02,-1.696611188885739641e-02,2.998601114948467802e-02,4.167241108951448038e-03,3.075666427612304688e-01
3.387002653155759546e-01,5.906531245415561071e-02,6.049830961888238989e-02,-2.041276990687261681e-03,3.757003236590925315e-03,1.330233571053536599e-03,2.790290415287017822e-01
3.500563702635434149e-01,4.858367041495641192e-02,4.737903831879437810e-02,2.557280028105550496e-02,3.020372591082778543e-02,-8.327962681939169581e-03,3.100921809673309326e-01
3.713297310343717794e-01,6.457892395041064937e-02,7.131393546014856699e-02,-1.937969329872553425e-03,-2.969028011975199878e-04,1.798774760347984824e-03,3.034743666648864746e-01
3.454654792383370365e-01,6.159754484447897693e-02,6.782538511709323981e-02,9.411641248018869001e-04,8.246408940054897200e-04,3.191935653847709393e-03,2.808685898780822754e-01
3.399993570246117591e-01,6.112539123155720511e-02,6.908324203530603891e-02,-1.846967038530596171e-03,-1.798442405339820659e-03,1.647662829680817797e-03,2.750324606895446777e-01
3.346221023709124442e-01,6.307217513035559553e-02,5.976984580419898718e-02,5.458448578845109074e-04,-1.171339439850190532e-03,-1.045817174497943402e-06,2.732252180576324463e-01
3.350060955367089033e-01,5.914341429831641850e-02,5.748649177086749551e-02,-9.731463015413394611e-04,-1.906478705336039654e-03,4.712178541749866131e-04,2.767209112644195557e-01
3.702413383287504467e-01,6.260976040657198483e-02,6.235961113669796774e-02,-1.493192690106278069e-03,-2.313894754271987684e-03,1.998163066309779998e-03,3.078131377696990967e-01
3.343734204369330776e-01,5.567848129399859125e-02,4.593071447788829587e-02,-2.552062150675885738e-03,-4.300513188100306763e-03,-1.384366446546569191e-03,2.838367819786071777e-01
3.324271063814784322e-01,4.920194122439841555e-02,4.196931412199314537e-02,-1.448158866698678491e-03,-2.521992725905880355e-03,-2.910953317791356576e-03,2.869983613491058350e-01
3.290501148670452736e-01,4.576384350532794465e-02,5.124046890066435989e-02,-3.141366413007807244e-03,-1.376230636928817456e-04,-3.238077158911183053e-03,2.806969285011291504e-01
2.971767145925265918e-01,4.172631535894076593e-02,5.223940983623079348e-02,-2.483465125547238209e-02,-1.423574349004158753e-02,-1.239736122220994052e-02,2.561233937740325928e-01
3.311961928727908955e-01,5.882965329086956019e-02,5.919632684616779605e-02,-2.783050853961586903e-04,-7.499563520577279957e-04,-4.133026363950450545e-04,2.721878588199615479e-01
3.377181208210404684e-01,6.129627942411579322e-02,6.478595229226336016e-02,1.247777468982519964e-03,9.665094633908439788e-04,1.748639824887479469e-04,2.747074067592620850e-01
3.310244373386954653e-01,5.597899571933548368e-02,5.556241296791471218e-02,3.245045966748514362e-04,-4.024643241005574821e-04,-4.909555801156164105e-04,2.752567529678344727e-01
3.404532592821695181e-01,5.963491023241945799e-02,5.484268959364559104e-02,1.263454767981644434e-03,3.555245431983812608e-04,-5.882718351274089782e-04,2.832558155059814453e-01
3.439612338401803471e-01,5.817473521333370312e-02,6.785383246292468751e-02,3.906528734742482391e-03,-5.878742122101167887e-03,7.473427948730012021e-04,2.813406884670257568e-01
3.989923066453124334e-01,3.927215936410022312e-02,4.046196528774712031e-02,-2.671774574882675862e-02,-2.428159552489549816e-02,-1.624769781970734558e-02,3.656149208545684814e-01
3.378734576929216527e-01,5.930404593803220714e-02,5.936667573908749329e-02,-2.454858581443746315e-03,-3.256450040085361822e-03,1.278541038261437430e-03,2.786364555358886719e-01
3.373233285840981921e-01,5.690192201788435433e-02,4.821920780998845135e-02,-5.324012946641445932e-04,-1.903116589374554204e-03,-4.310361445054344039e-04,2.848835587501525879e-01
3.336806925229063303e-01,5.782100651958539672e-02,3.723318648691893717e-02,1.085410556529533806e-03,2.808377380993894341e-03,-1.369392536008511322e-03,2.867657542228698730e-01
2.728703879209709582e-01,5.706448084702980816e-02,3.617966709628481214e-02,1.312382420729988133e-02,3.101851131462840874e-02,-1.028780420183705163e-02,2.350236028432846069e-01
3.328504256075909828e-01,6.089360094069973250e-02,3.682254633124458498e-02,7.591390665032517280e-04,3.532827993361308243e-03,-2.925698182816009632e-04,2.848256528377532959e-01
3.221703182388070408e-01,6.051410007822215220e-02,3.385575960174289079e-02,2.596721312975964341e-03,4.399332737145753881e-03,-2.459657842252797096e-03,2.761275172233581543e-01
3.036788843083660927e-01,4.786799797352095376e-02,4.050436469619812796e-02,9.795406437030125188e-03,4.687452485867351498e-03,-8.181991727291544267e-03,2.606371641159057617e-01
3.308456715926892944e-01,5.651133831470528390e-02,3.781050266535575244e-02,3.588027409259332621e-04,5.970641941011582297e-04,-8.072756730305607380e-04,2.841526567935943604e-01
1.593024487055046401e-01,6.280193863420668876e-02,5.744597722393959827e-02,3.141226461254385816e-02,2.116577530203220259e-02,-4.754346625874004105e-03,1.192889809608459473e-01
2.722044495224361094e-01,4.731777251277734242e-02,4.806848535285912494e-02,6.972435879484470411e-02,7.477014083363620056e-02,1.411067920122516164e-03,2.859508991241455078e-01
1.494089641261709123e-01,5.774211093222052227e-02,5.418937180100080048e-02,7.536306028472822272e-02,4.397687109341397171e-02,1.547776589001475557e-02,1.797232776880264282e-01
3.266878846770144840e-01,4.242640139542865063e-02,4.461799702833477155e-02,3.365496133874117650e-05,-5.328424177376024900e-04,-1.263083268236403272e-03,2.831819951534271240e-01
2.488109681171233600e-01,6.338544864054763972e-02,5.644956289804026195e-02,1.372907172799739742e-02,1.425029600749784173e-02,-5.802143125087044946e-03,1.923343241214752197e-01
3.162065709549912729e-01,6.476785268486937031e-02,3.305396068954344346e-02,2.380593648242736258e-03,7.699712965196704728e-03,1.430970907564487263e-03,2.690767645835876465e-01
2.469115499707359995e-01,5.886244577575563963e-02,5.042424847777406127e-02,5.554359744055485659e-03,1.970871837207963453e-02,-3.190230450433116649e-03,1.957264691591262817e-01
1.738785225827571002e-01,7.366991772631491242e-02,7.461238283676432936e-02,2.189071281405618758e-03,1.284642964210763651e-03,5.081436315753528514e-04,9.984143078327178955e-02
3.550448087830505028e-01,7.253420718897697628e-02,6.073002506120490918e-02,3.503749491092842620e-03,1.499124882066704733e-03,2.648027789622578324e-04,2.886696457862854004e-01
3.434644307800875929e-01,5.925129306333716539e-02,5.881539161769373802e-02,-1.342422242401659308e-03,8.112162276712835390e-04,4.200389261401110187e-04,2.844452559947967529e-01
3.400071095361108520e-01,6.292342670656579651e-02,5.773204531887198010e-02,4.702510497735416274e-03,1.729356230293444506e-03,-4.222422020397582692e-04,2.798510491847991943e-01
3.824916877613331878e-01,4.235520098658675237e-02,5.961659915822471734e-02,5.211785733257193881e-02,1.293536915299193027e-02,-3.441529241552668088e-03,3.446822762489318848e-01
3.487201673666074364e-01,7.100412734938144066e-02,5.969527164529070395e-02,-1.536650346100769437e-03,2.623894337670320295e-04,1.672387007360826364e-03,2.835673093795776367e-01
3.486564173229699803e-01,5.077091073601329441e-02,6.080613926376732259e-02,2.005167651200008908e-02,2.500702477971715638e-03,-8.105950558291110828e-04,2.950831651687622070e-01
3.327768367105017333e-01,4.072999993368293936e-02,5.809955426476802465e-02,1.892576810212321173e-02,-8.867721642181139062e-04,3.117646332470608728e-03,2.857033610343933105e-01
3.530106222767303015e-01,3.625384272469496516e-02,4.947859167082968579e-02,4.992052994130926485e-02,3.012242630181720046e-02,-9.464595511328204730e-03,3.267838954925537109e-01
3.459502467390628277e-01,5.836880792877864599e-02,6.428277294804428388e-02,-4.144682129401510025e-04,-1.842957733418331811e-04,3.053183643509536568e-04,2.846721112728118896e-01
3.823973573801447978e-01,6.424112585918466400e-02,6.034484515712640329e-02,1.536272439125751198e-02,-4.746090377817526948e-03,-1.881667421386827024e-04,3.213314712047576904e-01
3.946524512530203976e-01,3.289132888324888815e-02,5.898755553555419529e-02,7.049019731499108800e-03,9.024153491837991160e-04,-7.795888735770640978e-04,3.496639132499694824e-01
3.161214863565073308e-01,4.587214880536533146e-02,4.700527421005257223e-02,-6.562600014299961419e-03,6.296342100897257474e-03,6.657939901696088326e-03,2.703902423381805420e-01
3.277569610643349396e-01,4.003088025323871257e-02,4.482523415613788587e-02,-5.598424751456652557e-06,-7.722733223923044187e-05,2.788725458431385012e-03,2.854000329971313477e-01
3.279127699537972562e-01,4.281239368418354729e-02,5.310821360057429996e-02,4.944961825611503096e-04,2.713473494474523927e-03,7.855993351920042504e-04,2.801384627819061279e-01
3.308243615991290909e-01,4.490230800728163552e-02,4.954289323344142348e-02,-4.406339062457010486e-04,3.216065009035376770e-03,1.959450142102277161e-03,2.837062478065490723e-01
3.187104338949547921e-01,4.355549855413387572e-02,4.677009280094134025e-02,-5.051907971645004485e-03,2.266628732705406029e-03,4.673098346785502753e-03,2.738495171070098877e-01
3.225506345050752621e-01,5.057309618154361142e-02,4.402751305170067575e-02,-1.258582495061033677e-03,7.202370851508171521e-04,5.946755080831129733e-03,2.755127549171447754e-01
3.285734682393612882e-01,4.522676106568787602e-02,4.701879401054297192e-02,-7.785913276920554838e-04,8.175337436911925661e-05,5.106068441509116441e-04,2.824595868587493896e-01
3.321533934353679829e-01,4.618796974164779412e-02,4.495547366495208919e-02,2.565052638562050850e-04,1.029565177425113527e-03,9.383577433833373239e-04,2.865941524505615234e-01
3.299892594163647552e-01,4.946906835743150599e-02,4.236700745174583338e-02,1.672949540247021616e-04,7.410113655710713230e-04,7.840534849099087180e-04,2.841441035270690918e-01
3.295114102600692485e-01,4.232213500470606571e-02,5.079838232398507791e-02,-1.530392595003647474e-03,2.114360359734427167e-03,1.791356274211733423e-03,2.830994725227355957e-01
3.643495065096709062e-01,5.505270532373850167e-02,5.458075291472674895e-02,2.507865616475204659e-02,-1.546325421186079546e-02,4.289338792449816015e-03,3.137993812561035156e-01
2.815713954365569593e-01,6.201249030416484953e-02,3.091078246696409015e-02,3.493582676758071309e-03,-2.002088125537912489e-02,3.708511084734204735e-03,2.393375635147094727e-01
2.516396751108029850e-01,5.390356003608960667e-02,5.093473607749247900e-02,7.058442183766951150e-02,-6.227007971916462964e-02,7.261015409548612475e-04,2.574416100978851318e-01
2.360593289064017997e-01,5.209475694571967519e-02,5.702625957580168686e-02,7.475637340737598113e-02,-4.936731745382351433e-02,5.678541096969602435e-05,2.388242334127426147e-01
2.736344656179241497e-01,8.495019439720838395e-02,5.444320861301892023e-02,1.250053871173041897e-01,-7.944788078327404829e-03,2.955866536091879791e-03,2.989702820777893066e-01
1.988813790005815041e-01,5.336699086116133972e-02,5.278323210839095531e-02,4.021428652531180287e-02,-5.014522876266479939e-02,3.446414300802466343e-03,1.835498660802841187e-01
2.488631446760968813e-01,5.689919787582000538e-02,2.970203890710991501e-02,2.972088185198706097e-03,-2.599410576880155366e-02,6.301411028508479249e-03,2.120929509401321411e-01
3.281892752169807692e-01,5.098959652171129731e-02,5.828705710011795882e-02,4.040582844284144187e-02,-1.995415288920182953e-02,6.736647590399521060e-03,2.847781777381896973e-01
3.426980995404399488e-01,5.766778860135281237e-02,5.797292002906627439e-02,9.692067655678572808e-04,-5.219246523599313514e-03,2.202568901344670142e-03,2.850517332553863525e-01
3.189726413406220873e-01,5.082260853441612769e-02,5.710298514691078409e-02,4.184254406057684450e-02,-2.320991911956247003e-02,5.529666491532942742e-03,2.778849303722381592e-01
3.269098315088116991e-01,4.444869313883467732e-02,4.893180970226468363e-02,-3.513152071324545950e-03,-8.683559871240966723e-04,-4.000817232780194688e-03,2.804022133350372314e-01
3.397830172079881472e-01,6.685737420697224209e-02,5.790996657152279459e-02,-2.622221121678105192e-03,2.625831159920833865e-03,5.570984162081502045e-04,2.775836586952209473e-01
3.350238884594403665e-01,4.692977715862496624e-02,5.380717586827273025e-02,2.537355404026553785e-03,1.399659050010997822e-04,1.424690915441729090e-03,2.847624421119689941e-01
3.407423384653814891e-01,5.783850979078357379e-02,5.882904472079231173e-02,-2.251900146285069817e-03,3.398943172304989910e-03,2.361647232386096507e-04,2.824984490871429443e-01
3.419415713079984043e-01,6.462880573366955317e-02,6.246653722147255117e-02,4.807123198201621733e-03,-1.611419090943892610e-03,-2.400091321070977994e-03,2.785696685314178467e-01
4.058178583485705371e-01,4.309672135779871183e-02,5.729515105489345339e-02,-4.086102017487507065e-02,2.002336080100797569e-02,1.908527508821728598e-03,3.644732534885406494e-01
3.266301847953336224e-01,4.407435091148413642e-02,4.166519896855852556e-02,1.875368289272284002e-04,4.592817353142827387e-04,-2.117743788516147398e-03,2.837930917739868164e-01
3.281580493717904390e-01,4.571853684424920239e-02,4.102436306972663538e-02,1.975261730553732329e-04,-7.494116737740883459e-04,-9.984946144066682815e-04,2.848240137100219727e-01
3.243752926354799282e-01,4.752860549361277720e-02,3.795864449302845112e-02,-9.605525318390464775e-04,-3.243963932172031720e-04,-1.106440362189043498e-03,2.817655801773071289e-01
3.382519015775164450e-01,5.423030339366095853e-02,6.009168758222524498e-02,-5.451356851699857425e-02,-2.386176860850666714e-02,-9.446357630375150360e-03,2.998814880847930908e-01
3.146725063367091235e-01,4.703467842304130675e-02,4.154647794316487786e-02,-5.765194753548656161e-03,-4.902046902839700751e-03,-8.279329875131170857e-03,2.711206674575805664e-01
3.296611109633256209e-01,4.435567017287500580e-02,4.640334566805247307e-02,-2.648308883548685863e-04,-1.361734585236450308e-03,-1.029252669602184495e-03,2.843028903007507324e-01
3.289756648835207575e-01,4.854934922505309280e-02,4.395687023940875182e-02,-8.409954159330203195e-04,5.711736197452871137e-04,-6.005753503464745981e-04,2.827579379081726074e-01
2.797181939695757569e-01,4.579382751273232410e-02,5.020625477993005681e-02,-2.764179341479490459e-02,-2.014509747577249849e-02,-1.265971717192793111e-02,2.402049005031585693e-01
3.239675460822963315e-01,4.048362149809300869e-02,4.820397363557489545e-02,-8.192113038355837819e-04,-2.076283858996176655e-03,-1.532948062254382111e-03,2.797429859638214111e-01
3.257822197625644955e-01,4.401528833602048885e-02,4.991064811752904395e-02,-3.536756932006168263e-03,-1.254358898831316139e-03,-3.130256918482459023e-03,2.789944112300872803e-01
3.162726272401292782e-01,4.934383610277878751e-02,3.561500294569085179e-02,-6.258651931270705140e-04,-3.379317061396427176e-03,-4.438359636430537838e-03,2.742236554622650146e-01
3.265154921862865600e-01,5.543520583613725794e-02,4.429493521771307729e-02,-4.316659300871450618e-03,-2.545283886901120174e-02,-4.191272305158580055e-03,2.805007696151733398e-01
4.986546227808090204e-01,6.289985100660566708e-02,7.307624359406006409e-02,-3.732933409023334731e-02,-5.738753902319560646e-02,-8.016335920526466985e-03,4.469950497150421143e-01
3.518153537712639389e-01,5.489263521644793808e-02,3.918104391739513082e-02,-3.035134072058789240e-02,-4.522166775619020779e-02,-8.733079741748283817e-03,3.196912407875061035e-01
3.355838896742376898e-01,5.779537503318768477e-02,4.987159872655441695e-02,5.390486610142408274e-04,-7.373492165654241780e-03,-4.710017509414803245e-03,2.822426557540893555e-01
3.541465410546970061e-01,6.519751234393082739e-02,6.371033049593326225e-02,-8.604732346525417741e-02,-7.393922024011555238e-02,-1.674402294476543267e-04,3.500528633594512939e-01
3.218684206398592096e-01,4.800174360298173348e-02,4.944359330439286604e-02,-5.104591088216114264e-02,-3.253836597537639042e-02,-6.373798670480179153e-03,2.927888929843902588e-01
3.680359610240351298e-01,5.232665453563148383e-02,5.168698348416822519e-02,-3.801154917844030284e-02,-5.928282463739288632e-02,-7.829694193996013588e-03,3.390230536460876465e-01
4.370761513550477928e-01,5.908567753567289804e-02,3.414606065031217108e-02,-7.245594932118900461e-03,-4.902083567954967219e-02,-2.214516193243719691e-02,4.021984040737152100e-01
3.134883051087121730e-01,4.039643311750576449e-02,4.344683523479567211e-02,-4.620957350434200077e-03,-6.205148708516447509e-03,-5.961522397599216920e-03,2.721059024333953857e-01
3.924516491183307476e-01,4.297482689528604738e-02,5.272024111869201557e-02,-1.503235454622912221e-02,-4.415993744990412244e-03,-1.268941191087835998e-02,3.464717864990234375e-01
3.649117282003860874e-01,5.076624236311683136e-02,6.049645137296100206e-02,-2.775820233405699652e-02,-1.562386727013011581e-02,-7.199779575651029349e-03,3.145230412483215332e-01
2.682738946621114895e-01,4.102601145093706658e-02,6.682454770824942936e-02,-2.164940238090439471e-03,-1.543173085813818188e-03,3.061222204461386352e-03,2.156242579221725464e-01
3.351338540807596300e-01,5.068874895115506318e-02,5.374158344226678818e-02,-5.450477088298364726e-03,-2.231191683067377824e-03,-6.344494153093302793e-03,2.833280563354492188e-01
3.322595979446492653e-01,5.676362028129050552e-02,5.880475382251168504e-02,6.886834374055992008e-04,1.155370537196749722e-03,-2.294690857522058407e-04,2.744912803173065186e-01
2.716817501775942167e-01,4.125274487353002006e-02,4.358067526987069451e-02,-7.572001110320127071e-02,-6.156873877505587844e-02,-6.713055538721840465e-03,2.850866615772247314e-01
3.209077543786662545e-01,4.490490561360677146e-02,5.251151997336632460e-02,-3.683106377911719159e-02,-3.817467963488046373e-02,-9.081361337296610381e-03,2.877931594848632812e-01
1.856514453158321087e-01,3.346361897534389646e-02,4.020983205320341480e-02,-5.285505099039290028e-02,-5.186717806844010764e-02,1.794214058104345909e-03,1.965736299753189087e-01
3.060589274650171721e-01,5.373132165839018815e-02,5.097848539998599271e-02,-4.510037260806964987e-02,-8.335962238458431706e-02,-5.009910852155042942e-03,3.023166060447692871e-01
3.116758946346573911e-01,5.122345380884427146e-02,5.275783560770702652e-02,-4.872102779482077872e-02,-2.999705696301588342e-02,-7.401996736141050123e-03,2.782503366470336914e-01
3.519923887412345076e-01,4.084843238918746400e-02,5.492607863597272211e-02,-5.547077978769616308e-02,-1.060290280074659142e-02,-7.299494209892599950e-03,3.199323415756225586e-01
3.234578404973065258e-01,4.420618822481268972e-02,4.080315938213832649e-02,-5.242957881450377661e-04,-1.156753520689701806e-03,-3.000931739256017163e-03,2.810253202915191650e-01
3.234098968920687267e-01,3.180438376031170800e-02,5.632089212957498703e-02,-2.959821008254168249e-03,-6.898407689063611571e-04,-1.890920457553449266e-03,2.802215516567230225e-01
3.153697588538103003e-01,2.965733706480457033e-02,5.852436981733007137e-02,-1.375946644973733346e-03,-1.677432295230440974e-03,-1.796373833045156274e-03,2.724720537662506104e-01
2.591228938890627331e-01,3.949245917882955592e-02,5.714658434779805452e-02,-6.849628716593568478e-02,-2.053065603082654400e-02,-8.697157677205288873e-03,2.454352974891662598e-01
3.263509989162513558e-01,4.162737880711202265e-02,4.069727878590524706e-02,-1.272066490285495228e-03,-1.459201508206726949e-03,-3.087827106230317097e-03,2.852596640586853027e-01
3.239111486057716371e-01,4.713903348584014275e-02,5.802796557564092461e-02,-6.044005775029279853e-02,-1.190884468977560819e-02,-4.882976869145043072e-03,2.918280661106109619e-01
3.488598828944016184e-01,6.455406380881346939e-02,5.917692893199655302e-02,-8.449386719023448122e-03,3.536112206889958183e-04,1.451577428603701043e-03,2.874166667461395264e-01
2.631196530850414828e-01,6.124275691981956316e-02,5.757762773511009013e-02,2.597378617791271712e-03,4.176535349707236056e-02,1.431258200144538452e-02,2.176590114831924438e-01
3.330715006513813581e-01,5.607581497820893213e-02,5.921473450630725111e-02,-9.947671710324647461e-05,9.473737871918241470e-04,-6.917750526655705228e-04,2.754471898078918457e-01
3.400531410397229504e-01,6.055592580684224235e-02,5.925907115302066208e-02,-5.444912197558410272e-03,-1.099836141308111999e-03,-4.136094703199536134e-04,2.803139686584472656e-01
3.448717407758139508e-01,5.757665052233963687e-02,5.950495417313467206e-02,6.319359699299166837e-04,1.911799394707481593e-03,-6.399691659628374378e-04,2.863591909408569336e-01
3.220184979248291168e-01,4.070387358790768240e-02,6.433486152473198716e-02,-2.632616595766232651e-02,6.719082107068374485e-03,-2.609608609909667282e-03,2.743786871433258057e-01
3.562150093044402221e-01,5.357854422528397775e-02,6.045052780673704218e-02,-1.510394556472631662e-02,-1.580710080058006593e-03,-1.237158060518980590e-03,3.004210591316223145e-01
3.292015836378703320e-01,4.013584704562372929e-02,5.966759866597291795e-02,-4.258870796214904442e-03,2.062218864438340998e-03,-2.282073596825198985e-04,2.799318730831146240e-01
1.717351093286169639e-01,4.307433718737615352e-02,5.097364760843141329e-02,-7.368739280848782269e-02,-2.589944618127889078e-02,-4.586197076360867472e-03,1.842948794364929199e-01
2.185364809373535333e-01,4.848510267377806326e-02,7.752669826089370053e-02,-3.765213612836595947e-02,-1.193845524760537126e-03,1.596383203224983113e-03,1.705499738454818726e-01
3.259426544764272293e-01,4.073759311503599712e-02,6.163026590484890765e-02,-1.759626613363621597e-02,-7.700871917911395088e-03,-4.585769841249378274e-03,2.774700224399566650e-01
2.213853098493273053e-01,6.318388722113232880e-02,6.359157377957530555e-02,-1.406481675744860292e-02,-1.617801388425007744e-02,-2.123104842647808091e-03,1.623438447713851929e-01
1.899204465906264017e-01,7.004059880840102226e-02,6.211396994903880392e-02,-1.453545507785072681e-02,4.456828067792989456e-04,3.878045146516084958e-03,1.267430633306503296e-01
2.725658606157427277e-01,4.120335514015889544e-02,6.639901087961723458e-02,-2.206537947035921206e-03,-2.484980986719892773e-03,-3.299708182260573542e-03,2.199997603893280029e-01
1.026188455949014200e-01,5.117018835713610381e-02,5.424739345340384017e-02,-6.101415451937981099e-02,2.128200977004884864e-02,4.197342559510801145e-03,1.227921918034553528e-01
2.466391206914096690e-01,6.399070804646078692e-02,4.223744005964667758e-02,-1.027921902857169886e-03,-1.688522455199679626e-02,-6.344275658886408022e-03,1.969418674707412720e-01
2.816771032425113841e-01,3.514008589061887178e-02,6.093631169945241954e-02,-7.323556114481308277e-03,3.550589163348002487e-03,6.622644268375970332e-03,2.354071438312530518e-01
3.412195510753525118e-01,7.235838536195333959e-02,5.743911125279441143e-02,-1.121949673835414673e-03,-2.622120272008130566e-04,1.104039286394792882e-03,2.766365110874176025e-01
3.320700020870549496e-01,5.646813177945933515e-02,5.759699015621065621e-02,-7.346151335005504440e-05,-8.838782662950411904e-04,1.377198930278013934e-05,2.750434577465057373e-01
3.355080452956309967e-01,5.830703320124380751e-02,4.952144933782373637e-02,-6.204508850904352259e-03,-1.785360564970731728e-02,-4.934260546450946333e-03,2.837212383747100830e-01
3.683887155722624929e-01,7.116664340497026731e-02,5.843482152983758837e-02,8.335424428613022593e-04,1.662667026695223123e-03,-2.879785925151501138e-03,3.038461804389953613e-01
2.753684743051168504e-01,7.113472492708246275e-02,6.073498290263631971e-02,-1.001956858190197891e-01,-4.493913287000160517e-02,-2.794532256344987517e-04,2.830545902252197266e-01
8.684682401415309838e-02,6.001917876337913016e-02,5.800883856078944967e-02,-3.514512427173644565e-02,-2.369354543478052050e-02,6.609847590953450529e-03,7.936283200979232788e-02
2.972562379853724845e-01,3.476353121757025377e-02,6.344026495533051924e-02,-9.604380822079450555e-03,-2.030020602790023193e-03,9.326332544270052750e-04,2.499780952930450439e-01
2.458813346334015604e-01,3.883483535320701729e-02,6.798558436462254218e-02,-2.096106762267557419e-02,1.329869443758638012e-02,6.308773734671426284e-03,1.991243958473205566e-01
2.488000772686354556e-01,4.574331432260689279e-02,4.045587399734996981e-02,-4.041792329240550402e-02,-7.784556605855960654e-02,-7.360213791581424539e-03,2.560796737670898438e-01
3.304823771657529052e-01,5.779685434887284201e-02,4.666802853755952496e-02,-5.995669150699782859e-03,-1.541838399041422190e-02,-1.765316482671877140e-03,2.799040675163269043e-01
3.378868569136113109e-01,5.037707831932117242e-02,5.799287109013266661e-02,-1.277042263770282460e-02,-2.978721149266777210e-02,-6.520140607408925898e-03,2.894976437091827393e-01
3.347534982011751703e-01,5.565114002287914474e-02,4.725301156374024647e-02,-1.263848803208090241e-03,-3.363352188225439583e-03,-1.682727007131509323e-03,2.834780812263488770e-01
1.381389877301844038e-01,5.397558221839199311e-02,5.149548252568619811e-02,-5.339743600691638364e-02,-4.220386531636622501e-02,-3.926545698851529632e-03,1.457462608814239502e-01
1.870044416449380964e-01,7.505364443270770569e-02,6.089343613657406673e-02,-1.443876358246067547e-03,-2.153928612337348975e-02,2.341086854064505351e-03,1.254322826862335205e-01
3.285269781342120554e-01,5.397320272703980126e-02,3.957425493964039642e-02,-2.619443981061019260e-03,-3.763794414887079980e-03,-2.250317042122356326e-03,2.821677923202514648e-01
3.156778585143152904e-01,3.775036396002920402e-02,4.570207741168968996e-02,-3.440831607344325537e-03,-2.162127265789242411e-03,-4.762609223177754168e-03,2.742526531219482422e-01
2.821117505008169379e-01,4.282445460079946364e-02,5.402957095679575272e-02,-3.422491409708720844e-02,-2.749178700030894401e-02,-1.460384333440041017e-02,2.472326159477233887e-01
3.259807888842268797e-01,5.732612849987109294e-02,3.597415544034165968e-02,-2.360681707807653958e-03,-5.480623493878046537e-03,-2.333152928268100203e-03,2.801619172096252441e-01
3.328789140742475228e-01,5.735239675007546001e-02,4.291070681231751172e-02,1.540029242322303875e-04,-9.174923850593700268e-04,-8.415818131643699237e-04,2.830321788787841797e-01
2.669877684026267239e-01,5.460950626807926922e-02,4.359381772761300455e-02,-1.350939023349431549e-02,1.760953609935270257e-03,8.312386119877579818e-03,2.198396325111389160e-01
3.771274725728073207e-01,6.084755518555065579e-02,6.091770007731513170e-02,-3.093060499085476846e-03,7.268054960470006487e-02,1.093317634564580252e-03,3.404269218444824219e-01
3.416623836636555334e-01,5.051170429451540267e-02,4.969336044694988574e-02,-3.891631321850742235e-03,1.206305529369861886e-02,5.906459506191702458e-03,2.925650179386138916e-01
3.017409481124671000e-01,6.203354914087712280e-02,2.930751436548804933e-02,1.659283250859002736e-03,-8.797822918438750681e-03,1.680115846793312157e-03,2.581167221069335938e-01
2.689197009024315577e-01,4.808977133273711901e-02,4.897112813548600008e-02,1.206872108988420395e-03,-1.520733220972262517e-02,1.151348084196920744e-02,2.228628396987915039e-01
3.006856795786984060e-01,5.621867109194010614e-02,5.252091206948103497e-02,7.167448031592553968e-03,-1.086434661111408857e-02,1.080080003672607460e-02,2.480724900960922241e-01
3.369096096038284860e-01,4.601685589895410100e-02,5.093724687106050697e-02,-5.364452428026138210e-04,-9.331824566959624713e-04,-3.077195794665889533e-03,2.885192930698394775e-01
3.325184501129415660e-01,5.046485278417364717e-02,4.431543619455277638e-02,-2.373978423309859500e-03,2.632672362415661681e-03,2.172246209182771004e-03,2.852689325809478760e-01
3.033356404177968146e-01,4.292268357520487299e-02,5.304516817605307855e-02,3.032557608327093954e-03,-2.083357587568846099e-03,8.607311146525868997e-03,2.560160458087921143e-01
3.249899028815835256e-01,4.794146097511764459e-02,5.859506493681893025e-02,1.494356678006103153e-02,-7.928363259354276674e-03,9.874447251631083763e-03,2.739868462085723877e-01
3.067145819498016124e-01,6.502226794862081549e-02,5.164722856076045532e-02,3.186245940158605183e-02,-5.463661544681926857e-02,2.439748178022694506e-03,2.717456519603729248e-01
3.279129018512346727e-01,5.619964126091378520e-02,3.820466023083030072e-02,7.219474691947486318e-03,-1.538492852614532953e-02,7.125403791539928859e-03,2.829490303993225098e-01
1.151450745137019560e-01,5.108702059998947165e-02,4.956588195102411276e-02,2.300128396722250085e-02,-4.647506862313523224e-02,-1.666200108875814240e-03,1.108083501458168030e-01
2.310983722800605544e-01,5.381605677303234747e-02,4.821337863609589935e-02,3.507670965319719530e-02,-7.370138677088888812e-02,1.236511602582506496e-03,2.290088683366775513e-01
3.782382151525770508e-01,7.081400205706642192e-02,6.398907320375549213e-02,-5.870474349233814268e-04,-4.547435816898552988e-03,4.672708986785485056e-04,3.109953403472900391e-01
2.064538605188394049e-01,6.072899054315095829e-02,7.257875278607983649e-02,-1.333757652389994455e-02,1.206182913150716540e-05,2.979881840394321170e-03,1.421606838703155518e-01
3.847892661913214774e-01,6.266688598120127851e-02,6.202402813324836561e-02,-1.573255443714879562e-02,2.120476635665913615e-02,1.626861932198583579e-03,3.256834745407104492e-01
2.822733757316853165e-01,3.737266738296024515e-02,6.147545641924065385e-02,-2.108189290310927277e-02,4.621026528976141835e-03,8.368289200861731003e-03,2.371961176395416260e-01
2.646388826823192209e-01,4.169698885330615223e-02,5.321016004407738698e-02,-8.887287755738661199e-02,-4.562002132247660637e-03,-6.180926251659920982e-03,2.667228579521179199e-01
2.596499090578514579e-01,4.140899246736434725e-02,5.344806667126134059e-02,-8.861576689413463992e-02,-1.868881345116334830e-02,-6.125445876812624004e-04,2.641094923019409180e-01
3.335374868994255837e-01,4.849638892430627179e-02,5.671989474088019734e-02,-1.519953450894266905e-03,-6.706142719517746171e-04,2.102174812017963777e-03,2.810579240322113037e-01
3.404533431451092773e-01,5.752387936178840477e-02,6.923441632397164813e-02,2.866947030536003312e-03,2.448174607079351209e-03,-2.088388268894220308e-03,2.773602008819580078e-01
3.359504666233072423e-01,4.938992207772840981e-02,6.160026161289605673e-02,-2.012812893708034942e-02,2.247374874336780393e-03,1.480815452491338145e-03,2.828501164913177490e-01
3.356147688406384555e-01,5.355810275316241764e-02,4.539070093544422813e-02,-1.346468628118175715e-03,5.377383253333838835e-04,-8.760602952672091317e-04,2.862428128719329834e-01
3.363625687004574427e-01,4.853577951795658152e-02,4.211500949876438582e-02,-4.693263611859105518e-04,-7.670848247723216907e-05,-2.165833001991149254e-03,2.911156117916107178e-01
3.375039349710411418e-01,4.397676724730795184e-02,4.730022326957905587e-02,2.460301342838735941e-03,1.315018024683446739e-03,-6.387191450254207578e-03,2.921291887760162354e-01
3.294652043593311319e-01,4.404199631888679189e-02,5.001891432851028607e-02,-2.047232515523274201e-03,-1.347975447535325159e-03,-2.119624362907568654e-03,2.825379371643066406e-01
3.273163688636016033e-01,4.510989267035166173e-02,4.452204992606925704e-02,-1.246208487768619893e-05,-2.545182914520008983e-04,-1.089294215323429859e-03,2.825075089931488037e-01
3.310318771035191121e-01,4.909629367235966713e-02,5.005267428227222481e-02,1.776722891718911061e-04,5.269519841466010221e-04,-5.935338234549093327e-04,2.814621329307556152e-01
3.312383102431473159e-01,5.269715066995445119e-02,5.079152226656340197e-02,-7.900408925210120580e-04,3.198833827209965233e-04,-5.532775555965311525e-04,2.795043885707855225e-01
3.289757951519791668e-01,4.189373177231578427e-02,4.885565214108827936e-02,-7.879211118007648472e-04,-2.252153577499792138e-03,-1.226626161825083040e-03,2.837032377719879150e-01
3.337369280750419054e-01,5.932566583717925612e-02,5.880284713139638519e-02,-2.079745703134944397e-03,-3.045792825596288240e-04,-1.249353977586044372e-03,2.747057080268859863e-01
3.318185878257324806e-01,5.061747486964864040e-02,5.372916137531874581e-02,5.100821049912519388e-04,6.502986333418677746e-04,-8.828876748077895678e-04,2.796660959720611572e-01
3.300369619394860621e-01,4.752827713395137155e-02,5.147505887164613436e-02,1.190286677399246594e-04,-4.854349817484915716e-05,-9.404775496631573306e-04,2.805609405040740967e-01
3.308304300957216060e-01,5.955663919557882546e-02,3.667949419538787947e-02,1.650165362896261314e-03,-7.673120561064062251e-05,-1.058705757768929915e-03,2.834261059761047363e-01
3.238678968982569017e-01,5.897016849390485094e-02,3.216004928573984456e-02,1.072978345341887071e-03,2.710301629855014095e-03,-3.968362546137227582e-04,2.793161273002624512e-01
3.239431013935016312e-01,6.493862960647844851e-02,3.503310493581682228e-02,-3.251176011849987941e-04,4.647770313735441125e-03,-6.999490246594581265e-04,2.752996683120727539e-01
2.877059372728429931e-01,5.938156932813752620e-02,3.463030606887666785e-02,8.774662835392060345e-04,9.555911032984410608e-03,-1.111774392622673791e-03,2.422311305999755859e-01
3.235466292700211466e-01,6.141946305163709097e-02,3.240626320794284809e-02,-1.448900226906286223e-04,1.828404042311163524e-03,4.519394707209000139e-05,2.777906954288482666e-01
7.358336631716017040e-02,3.966188340837394077e-02,5.375052518182304312e-02,-2.595731093145213497e-02,-1.024146238910634762e-02,-2.754333277990967353e-03,5.683323740959167480e-02
3.349957406627963041e-01,4.118545983635793495e-02,6.512015264411542825e-02,-2.187953851128934118e-03,-1.816892126705800140e-05,5.970167562067490118e-05,2.826295495033264160e-01
2.566315448198140947e-01,6.783120756640438620e-02,4.918232785933812634e-02,-1.775301889857629906e-02,-4.326113935581197417e-02,-5.342266162303048634e-03,2.148487120866775513e-01
2.967517878514223106e-01,6.339117157478849074e-02,3.151218623160105536e-02,-1.871463129396987992e-03,-7.702182110859693729e-04,-2.455734795930537839e-03,2.508846819400787354e-01
2.825407858925154114e-01,5.949386815928316141e-02,3.050841712340408851e-02,2.311570987350074571e-04,-1.033162947847553366e-02,2.140114341606294285e-03,2.395606935024261475e-01
3.298056718337932791e-01,4.592369693801225117e-02,5.616906650635847265e-02,7.288480381568434793e-03,6.235287815538655002e-04,3.846850608270948116e-03,2.792676091194152832e-01
2.899076517346517168e-01,6.528750791000134668e-02,4.055278221588679011e-02,2.622583738450930992e-03,-1.240134278586368412e-02,6.018005437947738720e-03,2.391915470361709595e-01
1.504295780231296453e-01,6.887882908887618671e-02,7.268883137729317823e-02,-3.475636294284400324e-02,-9.043197087233492346e-03,3.474567522086396704e-03,1.012911796569824219e-01
1.923030490868889997e-01,5.703075517796676874e-02,6.061213451564681498e-02,-1.705548353797284658e-02,1.306665114897320908e-02,8.700300573087738076e-03,1.394235491752624512e-01
2.999962520249568887e-01,5.783162502478898792e-02,4.058061802079210301e-02,6.539487875091131580e-03,-9.887462144900365651e-03,8.163388995194850728e-03,2.524685859680175781e-01
3.056371093332581612e-01,5.049944685443844006e-02,4.859770380917725896e-02,5.641740612839821895e-02,-5.108288986698307499e-02,1.007056530255096526e-02,2.885575294494628906e-01
3.378835280122032825e-01,5.742288278353169240e-02,5.626736025386294693e-02,4.932053997666411768e-03,-1.218487483397473828e-02,2.548698060818848071e-03,2.819955050945281982e-01
3.320989499335201822e-01,5.699023077769836687e-02,4.383958887985234254e-02,2.346417945713275433e-03,-2.139647834708422770e-03,4.399256895069069469e-04,2.819688618183135986e-01
3.317567917426797464e-01,5.629079755059601675e-02,4.257534225571925346e-02,3.285296125136325830e-03,-3.682768699392094478e-03,3.030223565196920373e-03,2.827514410018920898e-01
2.934248262114296235e-01,4.996320607313314843e-02,5.470773658201945333e-02,-1.257507329381642690e-02,1.758040683674506888e-02,1.028114252371998237e-02,2.446623742580413818e-01
3.383255991348889657e-01,5.522863137863157079e-02,5.397243117478721375e-02,1.231968090817321497e-03,2.140918162830673759e-03,4.008681955660117605e-04,2.837602496147155762e-01
3.584786833786833826e-01,6.883373820417977573e-02,5.367499204900967602e-02,-8.498723295594033667e-02,3.318939163595156089e-02,4.479362225492297331e-03,3.369687199592590332e-01
3.724511618964985171e-01,6.041299780708542233e-02,5.452834598591284332e-02,-3.221455753314029884e-03,5.455108315922280876e-02,2.301585522818260562e-03,3.289577066898345947e-01
3.495364702140221769e-01,4.498428668675827358e-02,4.945353338011625188e-02,-2.109906264196945158e-02,3.899092331562510616e-02,9.333214528027553372e-03,3.123597204685211182e-01
4.166302324445598781e-01,8.633178303107666429e-02,8.524860906652038939e-02,-1.142277794486473534e-02,1.057681695303867159e-01,1.132243383458296331e-02,3.792001605033874512e-01
2.188217715993956425e-01,3.548584891103179206e-02,6.150493529823495426e-02,-4.087583522283802506e-02,8.261367914338594784e-03,9.561360255740754613e-03,1.871104836463928223e-01
3.304817932987869078e-01,5.879672473537340960e-02,3.585853326678677122e-02,1.577872331321609600e-03,2.746408970244958257e-03,1.600332494895921219e-03,2.839166820049285889e-01
9.750459539388678376e-02,4.295426228986615191e-02,5.820228657634488739e-02,-1.409636117556437203e-02,1.590192162276431870e-02,6.291125518053728230e-03,6.204777583479881287e-02
2.088838959420004082e-01,6.260967681185838907e-02,6.791848120309218473e-02,-1.870210640376706798e-02,-1.625610795858506473e-03,-3.691072908029311567e-03,1.474649012088775635e-01
2.242311878591269347e-01,4.975816652621163627e-02,4.514263183156717180e-02,-3.253922711118309441e-02,-2.614834636530791526e-02,-1.096977453266564755e-02,1.919792741537094116e-01
1.963280727368512391e-01,7.070698578746593965e-02,6.486383320477051573e-02,-1.300854037734193967e-02,1.110516345478603471e-02,3.507798911901516010e-03,1.321490705013275146e-01
3.352630067923757506e-01,5.995751574759516922e-02,5.202777767554607469e-02,1.762417715523593650e-02,3.776942596103700922e-02,-1.576961234656025718e-03,2.885445952415466309e-01
1.620187839390462847e-01,6.773927409346794382e-02,7.400171095605559413e-02,-1.543073510665370768e-02,2.871834645759529028e-02,9.297528844549898114e-03,1.085601672530174255e-01
3.324083981544752042e-01,5.774559504368140250e-02,4.084431582499602198e-02,1.009786795841828566e-03,-2.003898569083914754e-04,6.352436886897613226e-04,2.834993004798889160e-01
1.750892364152641933e-01,5.791984582355390321e-02,5.914123804910709215e-02,-6.425859196205060964e-02,4.144768890956290058e-02,8.352874963550771872e-03,1.770242750644683838e-01
1.064910743875029514e-01,4.832408726912018615e-02,4.687650858337620574e-02,-4.479959804231287840e-02,1.502460673989493983e-02,8.769757054961080378e-04,1.008475646376609802e-01
1.091169158137465789e-01,3.744721513460697038e-02,4.433851193975486132e-02,-3.589149675690964797e-02,6.657611700769984486e-03,5.692259795183399022e-03,9.372787177562713623e-02
2.671669329906873891e-01,3.905185937055999368e-02,5.788846657477234037e-02,-2.115051775451381229e-03,6.030712178230044143e-03,6.773902283791572755e-03,2.198967337608337402e-01
3.267732387583127673e-01,3.820806601592025009e-02,6.278843580655732448e-02,-4.918801466604354189e-02,-8.205050329502904319e-03,-4.172203694977627726e-03,2.903335690498352051e-01
1.892518656093356566e-01,6.479601109390638325e-02,6.339491694257548549e-02,2.017356806614933884e-02,-1.991168316524218052e-02,1.025125469950992525e-02,1.356141865253448486e-01
2.367453194385851223e-01,3.915113402511770369e-02,6.898873779125266892e-02,-1.982940391695913601e-02,-8.793713976014189051e-04,2.236017815574035689e-03,1.877097338438034058e-01
1.627539999167464391e-01,7.046297808387180783e-02,7.600983388581299127e-02,-2.985457528048569668e-03,8.132819646742532257e-03,3.543303444230675499e-03,9.110053628683090210e-02
2.257079084690432336e-01,5.876355673433861226e-02,6.480381342600879946e-02,-4.332435166945816651e-02,-2.764452723469883882e-02,-7.901259242408149863e-03,1.871081590652465820e-01
8.075742337192363951e-02,3.077760345067527895e-02,3.874514231751140236e-02,-1.977366958035622554e-02,-1.601694324294518357e-02,6.791007638937409004e-03,6.514769792556762695e-02
3.341191961461588145e-01,5.969569326130105824e-02,4.047140467076713877e-02,7.118432850772719693e-03,-3.841105847160453373e-03,2.979180453250040040e-03,2.849146127700805664e-01
3.248945951364385909e-01,5.560230439395795476e-02,3.787065027836764020e-02,1.601642846369029675e-03,-2.137826946509355577e-02,1.779194849235160439e-04,2.810455858707427979e-01
4.586338729802728609e-01,7.874750351839908402e-02,5.319142056799877616e-02,4.118362186067103803e-02,-8.603766070208010430e-02,2.923015508701385431e-03,4.266104996204376221e-01
3.047565739119081352e-01,5.938474087772897814e-02,4.088105261915604693e-02,4.765834483140021088e-03,-3.432061962411371570e-02,5.202207918045291188e-03,2.622461616992950439e-01
3.439899331892379286e-01,5.763672188063841129e-02,6.988918370347875497e-02,4.504869801766748366e-03,-3.526266390101306415e-03,8.950993513077098139e-04,2.806071043014526367e-01
3.379489414908375400e-01,6.360971318902844396e-02,4.487192040274695648e-02,-2.165753492325670924e-04,-8.055135890424837755e-03,-1.101005084192687063e-03,2.845207452774047852e-01
2.660515556920175495e-01,5.484636660996530799e-02,5.006345463149504404e-02,4.517792934764346298e-03,-8.876533921812994332e-02,-2.252947097983318443e-03,2.633533775806427002e-01
3.108482909578274000e-01,3.488936563453384765e-02,5.918040148093325903e-02,8.225598565560672277e-04,-1.739088473888281768e-04,5.162497597851081407e-03,2.648058235645294189e-01
3.328725133853267515e-01,4.490656018977688679e-02,5.831451745479540594e-02,7.268119745428745608e-03,-3.229758128959360659e-03,5.790065053036056071e-03,2.820167839527130127e-01
2.525077384515537759e-01,5.615026600449812832e-02,6.251142604914031176e-02,-2.974774723118280007e-02,3.237197581674648716e-02,1.787899313129488049e-02,2.100125104188919067e-01
3.273117201120875341e-01,4.105438451943614619e-02,6.363602106674591530e-02,3.252084763701078990e-02,5.554521292281091455e-03,-2.691022115445016339e-03,2.815601825714111328e-01
3.381119219154812283e-01,4.357117003260171928e-02,5.920235130688701608e-02,8.601987602233577418e-03,-2.538085177685749181e-03,1.254609415574355156e-03,2.874727845191955566e-01
3.323251031610567896e-01,6.007806711331027671e-02,5.810400547252816961e-02,2.004584219902965508e-02,1.190416040581528632e-02,-3.167019676286420178e-03,2.762616574764251709e-01
2.767243349178191703e-01,5.077045931760000574e-02,5.258958400966196045e-02,-1.002444120993965515e-01,-2.074703755400858496e-02,-2.271548932864430638e-03,2.865328192710876465e-01
1.882532182671627918e-01,4.999018781506669312e-02,4.630808649789230208e-02,-7.567825423143542674e-02,-4.167584353970184285e-02,3.891447739540166220e-03,2.051267325878143311e-01
3.316790472657349942e-01,4.306244696963101859e-02,6.325127482658735034e-02,-1.367818155140863292e-03,3.800542513887728447e-03,1.911039557952002319e-03,2.791777253150939941e-01
3.072254255540567414e-01,2.846469108041255192e-02,6.008721450313428414e-02,-1.041519364467083028e-02,9.335341032030631441e-04,8.035794857930942401e-04,2.649950683116912842e-01
2.716615873427801198e-01,4.243262894913987782e-02,5.137047065147952452e-02,-7.224434973352646117e-02,1.617031892546859015e-02,4.312464100945143097e-03,2.589883208274841309e-01
3.669849076446869973e-01,4.412790355650363094e-02,5.766769973462539112e-02,-5.025453429633878338e-02,3.579807569169360685e-04,-1.164753893217127575e-03,3.280694484710693359e-01
3.409911763278142827e-01,5.713078690854203612e-02,5.931857170689451564e-02,8.999477166970164125e-04,3.397870310222090521e-03,-8.116998503695793676e-04,2.828418612480163574e-01
2.345994171897334557e-01,5.440049367666660585e-02,6.678412730116534135e-02,3.298928608079715330e-02,-9.274325843842440298e-03,-4.244953625324563926e-03,1.843107938766479492e-01
2.413198077554790100e-01,5.912935281582243352e-02,6.485886495811662988e-02,6.075058297241389422e-04,1.590806696537922990e-02,-4.414057130131944159e-03,1.816620081663131714e-01
2.723831906934217062e-01,5.498647835975048470e-02,6.100025942067756335e-02,9.456205855267317550e-03,1.816964634478299883e-03,-6.329180819279712003e-03,2.153798043727874756e-01
1.942825878481551083e-01,4.477136927592879206e-02,5.142489435601096948e-02,1.227599437224836075e-02,2.363923744238270383e-02,-1.702117765721040997e-03,1.534285843372344971e-01
1.855216853300005742e-01,6.313896605345348245e-02,7.307018760295058701e-02,1.641854087585914793e-02,1.788995754687132324e-04,5.383429862845559013e-04,1.211215108633041382e-01
3.328818085537429416e-01,5.225350133025816191e-02,4.819497259473271011e-02,-1.098269656144624552e-03,4.061913111731567036e-03,3.792944069511426479e-03,2.828496694564819336e-01
1.140847549838141795e-01,6.648545365047767164e-02,6.387261168777716436e-02,-2.373914575395438820e-02,2.478552766305121106e-03,8.726607388313786014e-04,6.409559398889541626e-02
3.294796757479684368e-01,3.924375093353502097e-02,5.675932409680571611e-02,-1.161695389699809284e-04,-6.135106988801837047e-04,-2.812135990773920700e-03,2.819307148456573486e-01
3.271717854542935955e-01,3.538863366949403233e-02,5.823306741565122124e-02,3.779823623382015576e-04,1.021898196562403757e-03,-1.409422698578317390e-03,2.810750305652618408e-01
3.294508914934617394e-01,4.047249683346344773e-02,5.419181385109095306e-02,2.428299650658130755e-03,6.261239305543464919e-04,-3.787493904399424557e-03,2.824783921241760254e-01
3.182807130884179880e-01,3.696158875197100291e-02,5.972125719060775162e-02,9.224808232611458230e-04,2.642545478485285298e-03,-3.935706074847385855e-03,2.707871794700622559e-01
3.287332908280099497e-01,3.405896395196740534e-02,5.525930692836235336e-02,-6.004715179643219233e-04,-5.864967614664718439e-04,-7.549362296622973145e-04,2.846735715866088867e-01
3.294311746000129215e-01,3.419607779423286531e-02,5.832421590077251083e-02,1.416047870822251470e-03,1.031742583860070523e-03,-1.401808513175928882e-03,2.839675247669219971e-01
3.086780343789742309e-01,4.599533035425922012e-02,5.121795103763815415e-02,3.579037160563173950e-04,3.635043866193858955e-03,-9.644923558335216293e-03,2.607233822345733643e-01
3.209089397054594173e-01,3.465223938431516437e-02,6.009414443693786301e-02,1.509697572755067281e-02,6.277446954654451738e-03,-4.155500976939717830e-03,2.759729325771331787e-01
3.371256507561213867e-01,5.664064461369427983e-02,5.854219332672862264e-02,-8.919512562711506614e-04,-9.593365716606554227e-04,-1.238149137658489879e-03,2.795565128326416016e-01
3.373705976549153940e-01,5.180932702186455407e-02,4.577088487036910791e-02,-2.046218294544916490e-03,1.753323440341495679e-03,-3.179876014991121075e-03,2.887181341648101807e-01
3.380913385869996901e-01,5.705058348710513594e-02,6.067675289530405358e-02,-1.137733769667038583e-03,2.128356206521891253e-03,-5.313379446268678280e-04,2.792781293392181396e-01
3.181146558131874302e-01,6.086271868492705572e-02,3.880896599394177693e-02,3.672087131745846965e-03,1.154410077667639839e-02,-5.398466741806452404e-03,2.699369788169860840e-01
3.378614384889228606e-01,5.978024915942432849e-02,6.603385703276125340e-02,-7.776649044271727622e-04,1.639248908494891997e-03,2.009311441347121346e-03,2.750476896762847900e-01
3.373456558244516401e-01,5.846500941663893003e-02,6.080359607930396759e-02,-3.185285200779216543e-03,-2.567561880722803603e-03,1.934270014004879916e-04,2.778093218803405762e-01
3.373292365222130273e-01,5.171402943482708570e-02,4.538704971338378136e-02,-2.362453949308678739e-04,8.219771015717986006e-04,-3.073756068242879200e-03,2.888835370540618896e-01
3.202967152397104833e-01,5.325992387943911943e-02,4.553831490865763165e-02,7.542554219334775961e-03,9.261592449136627977e-03,-6.413731562551754951e-03,2.719956636428833008e-01
3.023809746423022360e-01,6.287035463756535103e-02,4.290368367435924701e-02,1.611981775636221444e-03,4.468893331493200421e-02,6.599775112596819454e-03,2.620610594749450684e-01
2.662023722723140251e-01,6.326628404753263657e-02,5.007750001695737696e-02,1.611886032682104467e-02,1.864403616664500260e-02,-2.986576330184973448e-03,2.142019867897033691e-01
3.141951320692663585e-01,3.716862336650614274e-02,5.574528121239655243e-02,-4.005294750745802719e-03,1.590854735978452280e-03,3.677620480994812924e-03,2.684005200862884521e-01
3.398219838009887694e-01,5.711063472985816736e-02,5.178433533534607114e-02,1.643086824586018069e-02,2.439573471293395718e-02,-9.561094466056701061e-03,2.903954088687896729e-01
7.214658290979256150e-02,6.214110046742689353e-02,5.120004927955595919e-02,2.693019325327140195e-02,-4.899674757068440273e-02,4.063344748231466352e-03,9.877534210681915283e-02
3.515964626089601586e-01,5.870631257381105084e-02,5.805027516451025105e-02,1.435194036596058355e-02,1.175889999158996266e-03,3.458789194404022159e-04,2.942782044410705566e-01
2.132121739909405012e-01,6.700890673133931552e-02,6.942294937518495024e-02,1.309752894119370955e-03,-1.178499290243383100e-03,6.355594893106530571e-03,1.454605609178543091e-01
3.272529721717931661e-01,3.565635313644593962e-02,5.825679089280290379e-02,1.412990644480338924e-03,9.993997510778169016e-04,-2.932242009834249135e-03,2.810408174991607666e-01
3.260760749916504775e-01,3.311103692285984057e-02,6.009951912662329920e-02,4.306873347299040346e-03,3.125425800547736860e-03,-2.711458328144168879e-03,2.806371748447418213e-01
3.413809624904206030e-01,6.120922655225759235e-02,5.856132564104188365e-02,-2.070751065190714821e-03,-2.882858652152222277e-03,4.836740704273446517e-05,2.815721631050109863e-01
3.102148329695501583e-01,3.930625172187592054e-02,5.272818963062193831e-02,7.286315387719330405e-03,7.190734719814831713e-04,-6.256468177411896210e-03,2.649787664413452148e-01
3.388006395170782836e-01,5.185447136332835272e-02,4.938475155590912880e-02,2.449231632247241279e-04,5.214160936204881216e-04,-4.269889343623144498e-03,2.882855832576751709e-01
3.335078777586178989e-01,6.222810312782860176e-02,6.365739611985453406e-02,-7.060720640645041070e-04,8.556531333989081866e-04,-1.199779776629933750e-03,2.705827653408050537e-01
3.578039470329450467e-01,6.000513909841431737e-02,6.525212869600240106e-02,6.659002180407367667e-03,5.121797898361394805e-03,-4.026338284262768021e-04,2.955694794654846191e-01
3.360548593305966447e-01,5.957751232859463675e-02,6.384426268630280510e-02,-9.135101520986724970e-04,1.733956996835764363e-03,-3.243557917780383912e-04,2.743904292583465576e-01
3.337993798809215651e-01,5.900787895885299672e-02,6.436929435459666504e-02,-7.387498257210718374e-04,1.261158038890461235e-03,-5.852209290782663716e-04,2.721640765666961670e-01
3.339018223525449525e-01,5.396869823500044516e-02,4.914081011198286053e-02,3.275302693439590372e-03,-1.489417242825912197e-03,1.535479215307685927e-03,2.824593186378479004e-01
3.523369508941369133e-01,6.204648549479327424e-02,6.637152647129086758e-02,2.146416804059370846e-04,8.885218418532496269e-04,-1.781670764820048394e-03,2.881731688976287842e-01
3.394471308777176066e-01,5.513621795533193981e-02,5.093548656888459425e-02,2.854382273343443726e-03,-4.702982994178359077e-03,2.230140868051406176e-03,2.866188585758209229e-01
3.548845653454909543e-01,7.333551076898793541e-02,6.872980313344094483e-02,5.320973474876444786e-02,-8.915942039384650020e-02,9.126151148758063257e-04,3.360540866851806641e-01
3.761870095825481375e-01,5.657285066564234077e-02,5.563405862635426025e-02,2.288306181549250654e-02,-8.749753421912156992e-03,5.206015857450961397e-03,3.230108916759490967e-01
4.380053045778047882e-01,7.231271445509547535e-02,7.460126927200827485e-02,3.659262358833559325e-02,-4.455919165176660396e-02,6.584177362156505391e-03,3.781574666500091553e-01
4.395437847809176568e-01,7.459989814923084772e-02,6.721649931208106832e-02,5.327956299400868345e-02,1.017959236761230811e-02,4.547727523899139021e-03,3.805550336837768555e-01
3.694770275135921267e-01,5.776864408829701647e-02,5.677707161584528983e-02,-1.552807617332068292e-03,1.671636082081378585e-03,4.176138732951319675e-03,3.123141229152679443e-01
3.091995137595144882e-01,5.376854892347958381e-02,3.379669523648944074e-02,1.143525234860599295e-02,-2.036959668399930187e-02,7.097666756921550482e-03,2.693203985691070557e-01
3.165975884948319385e-01,5.456631668891891163e-02,4.197971781327822227e-02,-2.826513427277940142e-03,8.043882997704251275e-03,3.521729001358968412e-03,2.690207660198211670e-01
4.736096011113787307e-01,7.110640201478199418e-02,8.186816520674042308e-02,-2.727141282601607680e-02,6.792774374946899951e-02,9.263932915123453474e-03,4.172818958759307861e-01
3.405980855430855159e-01,6.090287156814246095e-02,6.779644904954484907e-02,9.860565879207553938e-04,2.873222708780156132e-04,-2.619214233292084786e-03,2.763558924198150635e-01
3.329397424584961129e-01,5.558389034961998265e-02,5.630282231377602142e-02,2.280839579261078991e-03,-6.363995411555490103e-03,2.555051344671254235e-03,2.772797942161560059e-01
1.645136515619784190e-01,7.220077459654461460e-02,7.308675616412724230e-02,-2.791699656614470351e-02,-7.706924880020496992e-03,2.912529553590533513e-04,1.046765744686126709e-01
1.787159614875916125e-01,7.772222812106953371e-02,7.562909480891888414e-02,-2.231059190849674686e-03,-4.919750426069604589e-03,1.398796710308336782e-03,1.025130376219749451e-01
1.056588147082444668e-01,4.009034539364052935e-02,3.910159588913717649e-02,2.413571066783234964e-02,-3.788356227145925348e-02,3.913932333707764721e-03,1.022940874099731445e-01
3.037122926245027221e-01,2.813830325813737598e-02,6.210254185525138082e-02,-6.735256141073195889e-03,6.436653985160531357e-05,4.269166816231367888e-04,2.605217397212982178e-01
2.974151115832328607e-01,4.776743276268666238e-02,6.768315824244322543e-02,4.811397851574961831e-02,-1.950073488732623553e-02,7.205694209590559653e-03,2.568854987621307373e-01
2.475861099257651854e-01,6.244438085573224967e-02,4.548275067745882749e-02,9.615778147549297605e-03,-1.965363577262896691e-02,6.568071273494119691e-03,1.981692910194396973e-01
3.338521851199242052e-01,4.988826234493155820e-02,5.621650782077128317e-02,-3.608792285127320615e-03,-2.894518214720745095e-03,-4.075506184437540334e-03,2.810562252998352051e-01
3.331734306820319791e-01,4.452180279559020404e-02,5.560292639823580241e-02,-6.658457583179331653e-04,-2.523269029720628595e-03,-2.271732204491673426e-03,2.833370566368103027e-01
3.328912492407660184e-01,4.686308715193789054e-02,5.463107499321760707e-02,4.374741720398931614e-04,-2.106913329777512940e-04,-7.243981608697504758e-04,2.822284102439880371e-01
3.309686846816115025e-01,4.378822385686223506e-02,5.424470406243754594e-02,-8.439921334995834426e-03,-3.755072756764716788e-03,-5.368866611266346484e-03,2.827039659023284912e-01
3.259324552064083447e-01,4.508066183336596755e-02,5.544422365860016133e-02,-1.026246011536749783e-02,-4.701004438286695945e-03,-3.854061579335890230e-03,2.765887379646301270e-01
3.464586987165836351e-01,6.200762875473948832e-02,5.829102304695177317e-02,-5.845848516356794838e-03,-1.407618013031202439e-03,1.020249658234870238e-03,2.865222692489624023e-01
3.255290504234296112e-01,3.827380209928189780e-02,5.577356316372129863e-02,-1.722593685501561805e-02,4.346056907450540136e-05,-5.544916623369674884e-03,2.806730568408966064e-01
3.079320379125821683e-01,4.527118705645177821e-02,4.225064493496802354e-02,-1.876640546580460311e-02,-1.206706409047772488e-02,-1.112908442226417417e-02,2.676904499530792236e-01
3.100976823579296715e-01,6.162558960321572188e-02,2.714639690678222195e-02,-5.467303664031032163e-04,-1.915125819200646281e-03,-4.344769348053530720e-04,2.674075067043304443e-01
3.251560021786857879e-01,6.155772969298869968e-02,4.426337076365567669e-02,7.376571069638433210e-03,-1.945306298283713126e-02,5.461177527507770323e-03,2.751906514167785645e-01
1.557289873575027628e-01,3.898129189692037255e-02,4.149756487681405259e-02,-2.742857802933559158e-02,-7.242941376120529129e-02,2.336418272953500342e-03,1.770706176757812500e-01
2.510147588995952361e-01,5.191507032707047553e-02,4.239564921088259664e-02,-1.103530922320449838e-02,-9.861056005949126596e-03,-1.038397263989956909e-02,2.064150124788284302e-01
2.498827563371787963e-01,6.436189718576815211e-02,4.119964248288367215e-02,-2.999733807148861724e-03,-1.532488459229200059e-02,-5.760577633765598393e-03,2.002065628767013550e-01
2.548462922893257598e-01,5.106508333602605143e-02,4.096910214227883484e-02,-3.457723174700161328e-02,-4.554869210617112918e-02,-5.984090171269614011e-03,2.315260618925094604e-01
2.969606732556798745e-01,5.836027752904635046e-02,5.171514063363144564e-02,-7.651429428374239249e-03,-9.145190783211815111e-02,-8.352319562768859701e-03,2.898881137371063232e-01
3.123684226511426187e-01,5.817887117682025988e-02,3.660305496532451075e-02,-4.904809074235382156e-03,-9.663488964329038089e-03,-7.109968031053718988e-03,2.665823698043823242e-01
1.976098776368336862e-01,5.365788726145825915e-02,5.100671897981978037e-02,6.687711055424397540e-03,-8.500722548841603554e-02,1.025118447027107137e-04,2.071804553270339966e-01
2.255334468159516104e-01,7.031364324740110860e-02,5.312737504136341715e-02,5.945027944411131887e-02,-7.313416409198954249e-02,5.650475680708589611e-04,2.317455261945724487e-01
2.902248228587777645e-01,5.442623061902358839e-02,3.507302930205977165e-02,-7.820888535217939211e-03,-1.738614054431269346e-02,-8.984857262745032935e-03,2.487398087978363037e-01
3.157774505829168410e-01,4.494886086839278150e-02,4.999089575438228628e-02,-2.455418905340218949e-02,-1.310956854577194526e-02,-1.252231563722369656e-02,2.735009193420410156e-01
3.063243741752647575e-01,5.822775896531497131e-02,3.137118239131671260e-02,-2.867216546626848942e-03,-7.867575156811027620e-03,-4.504242945159328722e-03,2.630730867385864258e-01
2.804039896092310746e-01,5.737934006747469340e-02,3.990155193979434689e-02,-4.921027836020297822e-03,-1.419032455788344325e-03,-7.541271737538225370e-03,2.327933609485626221e-01
3.215179319866811047e-01,5.538741817213850560e-02,3.524468145794350249e-02,-2.085148381174115918e-03,-9.069452241973564649e-04,-1.003962520195838398e-03,2.767856717109680176e-01
3.195622957221012639e-01,5.302529347978476859e-02,3.431594754005549974e-02,-1.242228873626913168e-03,-6.166781559922484765e-04,-1.520359381028472436e-03,2.763900458812713623e-01
2.383436762034412959e-01,5.950694796004120379e-02,5.651636152565282789e-02,-1.331351876140120238e-03,-2.723919207247185552e-03,-7.907885450578506711e-03,1.809462010860443115e-01
2.358561117270210894e-01,6.344390776639660667e-02,7.470728023047504274e-02,1.273806424409335090e-03,-4.428455787522914480e-03,2.840973067454744157e-03,1.673284322023391724e-01
2.077068746519637188e-01,7.818876258186707728e-02,7.521097395325052060e-02,1.108621632924663590e-03,-4.068247904660715793e-04,4.725532197584529637e-03,1.313036978244781494e-01
2.353848178234934085e-01,5.981514113008748468e-02,4.885371266368414289e-02,-1.639846938395609841e-02,1.038286272235163302e-02,8.587152429102934414e-03,1.849884241819381714e-01
2.918642420568579032e-01,3.641469138959851914e-02,5.935178810457734933e-02,-7.277785905767836759e-03,2.148569902974670535e-04,6.241307706886186496e-03,2.453511953353881836e-01
2.966832751662323853e-01,5.135254658813995232e-02,4.869568019530159941e-02,-4.260685208422445268e-03,2.672839202137761595e-03,1.000915670441365583e-02,2.474317699670791626e-01
2.549407661327341978e-01,4.282259280751526953e-02,5.853739792487032412e-02,-1.062030763631581845e-02,5.723134559439131686e-03,9.202082591774402368e-03,2.063936740159988403e-01
1.556456020359250347e-01,4.720545636092297187e-02,4.365808530552826167e-02,-3.511972030104817261e-02,-4.652163999961459601e-02,-1.412026746561568895e-03,1.495174914598464966e-01
2.837286345155767275e-01,6.337426573427291931e-02,3.607673959615510795e-02,-2.175233402880093973e-04,9.907132002405760404e-03,4.299769487672804209e-03,2.359372675418853760e-01
3.259912585581251632e-01,6.146406911028683140e-02,3.268662642216656200e-02,1.026940296295701356e-03,5.514955292346142290e-03,-9.925390792446643975e-04,2.802009284496307373e-01
3.261222081650451132e-01,6.138703825622052190e-02,3.215218124726298976e-02,5.874910934190414810e-04,1.784789920759157671e-03,-1.637146602295177838e-04,2.805165946483612061e-01
2.987932255071894527e-01,6.202880344228180187e-02,3.883767756458307574e-02,3.858750381874426379e-03,6.265161957992871873e-04,5.077226601798835379e-03,2.494177967309951782e-01
2.987188871097296028e-01,6.263152456281209646e-02,4.113009651429418156e-02,1.696912298823422189e-04,2.775491923844211270e-02,-6.280231633218130542e-03,2.523988783359527588e-01
3.219085886439844724e-01,5.745800419765514921e-02,3.519792263601133342e-02,8.717282007058865887e-04,2.676140804746147787e-03,-3.059101631698011876e-03,2.763478755950927734e-01
2.682596751926387135e-01,4.339628715086119026e-02,5.161848202071935010e-02,-1.267521654932599745e-02,8.001843738612460927e-03,1.131965067817015773e-02,2.232504189014434814e-01
2.734677019623425465e-01,5.700295976885011440e-02,3.644122164114256546e-02,-2.012583988022998219e-02,7.596806074154247024e-02,3.982584352381430409e-03,2.651543617248535156e-01
3.114028884074820924e-01,6.604815497469213037e-02,3.582249509740113858e-02,3.582008811721090757e-03,1.162018737903003709e-02,-2.470122677777915766e-03,2.626602947711944580e-01
3.011128204758094506e-01,5.412816235137983545e-02,3.671992339067997602e-02,-5.500443515375427923e-03,7.335202599166856623e-03,8.635632580390730992e-03,2.570601999759674072e-01
3.653072881243421000e-01,5.249384103820224634e-02,5.522548810041387479e-02,1.422818534120319327e-02,1.232133186802444186e-02,-4.226851595938157548e-03,3.132436573505401611e-01
3.875834820083232657e-01,7.920444034949618295e-02,7.105259438066151290e-02,1.165605414768777076e-02,9.025051896753079339e-02,-1.908259622244584458e-03,3.500456213951110840e-01
2.421015166623973758e-01,4.936351347925135857e-02,3.948776900399127154e-02,-1.237704760121104836e-02,-4.596840889787762174e-02,-1.037769804927428721e-02,2.151065915822982788e-01
3.049254059272017425e-01,5.310041794738518117e-02,4.265579825023102511e-02,-3.923084012064443488e-02,-5.309870679510513003e-02,-8.463360154023782944e-03,2.818609774112701416e-01
2.579392323734794323e-01,4.489919145047586990e-02,5.140444351849045301e-02,-6.935899448295611280e-02,-7.265343856636720388e-02,-4.166888883035725806e-03,2.726942598819732666e-01
2.475256980937820261e-01,4.501387724863042950e-02,5.101409070717169425e-02,-7.496780910463121672e-02,-6.831531199682083777e-02,-6.690143102235816992e-03,2.661346793174743652e-01
1.913285564287939278e-01,7.124761972933724152e-02,5.372327352078278689e-02,1.514575443779469545e-02,-2.290561013727978809e-02,-9.180221477886748530e-04,1.381867825984954834e-01
2.888833431303814980e-01,3.453406188275416622e-02,6.496128670040705877e-02,-1.055204044148323403e-02,1.773642061486386048e-03,-2.624315610211138024e-03,2.413387000560760498e-01
3.200307588222380817e-01,4.914927453921821843e-02,4.293783593448395608e-02,-1.841426028672956544e-02,-2.577544680994104179e-02,-1.315167391511620591e-02,2.804054319858551025e-01
2.563484087049313631e-01,4.617598580534620911e-02,7.195249656869487365e-02,-1.915755525481189700e-02,-7.364666239517729182e-03,-5.101456092870305936e-03,2.018940001726150513e-01
3.002097667228986744e-01,5.088638197941126873e-02,5.354915590790697288e-02,-7.293174079424398493e-02,-2.918087504261135390e-02,-1.645492314783991022e-02,2.843050062656402588e-01
3.321990107844152718e-01,5.671372005091400437e-02,5.462713679892274021e-02,1.109447278328650442e-03,-7.732131880188829046e-05,5.554370707630219492e-04,2.765428721904754639e-01
3.316178461337834227e-01,5.141809853829121257e-02,5.143047389727584129e-02,8.303332979261858308e-04,8.269640426736484613e-05,-6.441956694623469080e-05,2.801973223686218262e-01
3.312266827713353790e-01,5.339599483848221639e-02,5.179684395765139782e-02,-3.152632923931855441e-04,-9.405417054646597044e-04,5.543883907630188989e-04,2.786406576633453369e-01
3.327142326399807892e-01,4.735923474097109009e-02,5.464780991409401434e-02,2.756171172649166091e-04,2.342706016382188638e-04,-1.077132700145211949e-03,2.817882895469665527e-01
3.329092677531256816e-01,5.434910018457947412e-02,5.644783594730175269e-02,-2.245710937563312731e-03,-5.462102893125050408e-04,6.295953620147111418e-05,2.775456309318542480e-01
3.382525537255764436e-01,5.928756442563269669e-02,6.338566217003399617e-02,-5.627284551901650441e-04,-6.878352921086988052e-04,-8.052943761352615191e-04,2.769464850425720215e-01
3.328824334634089555e-01,5.127924684732385052e-02,5.564802417733204221e-02,-6.890700226449086949e-04,2.110433744811826410e-04,-1.897462906980742397e-03,2.794665396213531494e-01
3.354410391799249047e-01,5.451218538559973736e-02,5.639448112838092719e-02,-4.900658591088175378e-03,-2.595029215589726192e-03,-2.958542356832484337e-03,2.802039980888366699e-01
3.226738984273631594e-01,3.606688582521064279e-02,6.431053072074481569e-02,-1.080829582140784527e-02,3.182741396702823584e-03,4.767370514787479079e-03,2.744002342224121094e-01
3.381760324657338002e-01,5.169418212048994266e-02,5.793078066796411574e-02,-6.541054279547114762e-03,-4.052823183600638701e-04,8.117944028100809858e-04,2.836457192897796631e-01
3.585508107102070019e-01,5.857122158576986981e-02,6.528004692129518727e-02,-8.827812574679447244e-02,-4.059616497439867688e-02,-2.342176976979850386e-03,3.411157131195068359e-01
3.468577695239902781e-01,4.415542496088165070e-02,6.176718727428537337e-02,-3.109078690072846624e-02,-5.471820546303260077e-03,-5.105840901228051766e-03,2.994590103626251221e-01
3.310985277188472908e-01,4.352359947606541934e-02,5.977909409600778989e-02,-4.912014012612268138e-02,-5.182498519417008329e-03,-2.326136786397146970e-03,2.926159203052520752e-01
3.031519845909611544e-01,4.829810819530408472e-02,5.622916886897166844e-02,-8.859583993847711114e-02,-7.802981779027428136e-03,-2.866001417516917272e-03,2.945286333560943604e-01
3.180194484739101712e-01,4.233499300048766678e-02,4.826790531838706655e-02,-6.423589387614675461e-02,7.660127643440914347e-04,-4.047323430682692874e-03,2.946712672710418701e-01
3.092533218389162952e-01,6.110757497514529568e-02,3.976298504039949000e-02,-5.677292412084830250e-03,-7.299189964332677277e-03,-8.248866449468383183e-03,2.603634595870971680e-01
3.037989750740452410e-01,5.826368990959013283e-02,3.356053092550709271e-02,-2.012732745461485225e-03,-7.181895863577964553e-04,-4.816543839781632641e-03,2.589336037635803223e-01
2.967770978812949156e-01,5.525639930696424340e-02,3.651083430141603692e-02,-1.493370294312262219e-03,-6.122753045865632349e-03,-7.328076598939466807e-03,2.519748806953430176e-01
3.341625544120634950e-01,4.762416643068066724e-02,5.176694927485529785e-02,-1.640464259123717086e-02,-1.313557622542381106e-02,-7.271086111045531666e-03,2.870852053165435791e-01
3.252927386530793941e-01,5.037453379930055541e-02,3.710393829739121185e-02,4.981587633453652807e-04,-1.238637078789465518e-03,-1.545395192411191335e-03,2.818101644515991211e-01
3.205937111645845161e-01,5.613588357645983573e-02,3.182348795827287524e-02,-2.735578891116601744e-03,-2.186977144234243577e-03,-2.302766667908032194e-03,2.775091826915740967e-01
3.108388211009667224e-01,5.000259250693156465e-02,3.552912289110855826e-02,-1.363322606312431179e-03,-7.807124751768756109e-03,-5.455150669926695471e-03,2.688827514648437500e-01
3.277282196229373001e-01,3.680163357397060742e-02,5.342430455398741729e-02,2.970297560768549432e-03,1.271055443360015686e-03,-3.244091381031612240e-03,2.830927371978759766e-01
2.936367663517331916e-01,4.678883595509299165e-02,6.089918400064422976e-02,5.322621741029812809e-02,3.523271971352902321e-02,-9.669902855990205118e-03,2.648651301860809326e-01
3.284755381175188949e-01,3.650735645328408163e-02,5.618528877147795086e-02,-2.153826433267479580e-04,-6.292509935379172288e-04,-1.042433989516123065e-03,2.826515436172485352e-01
3.401619387141228135e-01,6.135106184227451243e-02,5.774136123644066365e-02,-2.047190966121365582e-03,-4.217478756614589106e-04,-7.176650756471998020e-04,2.806592285633087158e-01
2.979392158167368798e-01,3.877275302765589848e-02,5.752295404695206837e-02,9.688973350314742522e-03,1.208962524338690579e-03,-6.823199502633143718e-03,2.511674463748931885e-01
3.332139104969684684e-01,6.347254033125572514e-02,6.310353045471461808e-02,-9.448211066780905004e-04,-1.459100289087978232e-03,1.940540109875447646e-03,2.699637711048126221e-01
3.383797360826358291e-01,6.820848443522155302e-02,5.918947367621542333e-02,8.540033837503702282e-04,2.830073326437575329e-04,9.405552152435064320e-04,2.748010456562042236e-01
3.754285201746087597e-01,5.208250393227079056e-02,5.743418190356042174e-02,6.384636719116977555e-02,3.171953556438119465e-02,1.200038491614737260e-03,3.436606228351593018e-01
3.368662503380567275e-01,4.660805297568322569e-02,5.391397573735297322e-02,7.930160600300287027e-04,2.797616737059744241e-04,-3.655350571819293223e-03,2.867486774921417236e-01
3.007724898807971337e-01,3.378380321388882446e-02,6.078198163145512312e-02,-7.940015963266994084e-04,2.057683402641107776e-03,4.025843565147248747e-03,2.546897530555725098e-01
3.070918069575543363e-01,4.029051106919229186e-02,6.583663009165212354e-02,-7.963644650993749116e-03,3.489627692052746193e-03,6.567617189450102727e-03,2.556872963905334473e-01
3.069307393201622380e-01,2.934403853644751425e-02,6.370867598252685782e-02,-5.821989962594707572e-03,-1.719158404633909206e-03,-2.712004912455805964e-04,2.623107135295867920e-01
3.076768717337695636e-01,3.292371300466229167e-02,6.131991575509945780e-02,-9.358309658409526971e-03,5.517030835476863931e-03,4.323165047832840460e-03,2.624953687191009521e-01
3.168981117726844543e-01,3.393269404831986136e-02,5.582810003607228955e-02,-4.451458159159557212e-03,2.301570085520694437e-03,3.462353729301306023e-03,2.728818356990814209e-01
3.208524984756208065e-01,2.915403488327475423e-02,6.071278086233415638e-02,-1.312626172350405329e-03,3.307344401027479818e-04,-8.466200047106880794e-04,2.772831618785858154e-01
3.017554526822060490e-01,4.918543904563740798e-02,5.433044299564807056e-02,2.370042250615002864e-03,6.458028622346991855e-03,-8.508432849911675561e-03,2.507543861865997314e-01
3.535061997184121285e-01,7.047250566191530508e-02,6.579565597442128821e-02,-1.258684356785250364e-03,-3.279966782900716957e-03,3.528909374100385431e-03,2.855311632156372070e-01
2.880253588215736515e-01,6.107926075075348349e-02,4.645666234314584087e-02,6.441986460614100053e-03,1.377346371628608524e-03,-4.719684137027314007e-03,2.350189536809921265e-01
2.989332815096034102e-01,5.624912348593771871e-02,3.775205912863516255e-02,3.396035948753011423e-03,6.550129126043796081e-03,-5.184961256641996800e-03,2.529242038726806641e-01
2.362343374940443774e-01,5.842220478955311574e-02,5.332569297888438420e-02,1.115062481339525180e-02,4.112502681106696562e-02,-2.112419762466077183e-03,1.949603855609893799e-01
3.395128110487241058e-01,5.462197682061108173e-02,5.012525610502616136e-02,9.234436483920082988e-04,7.452878184139783736e-03,-9.633930663637635047e-03,2.879439294338226318e-01
1.812798060958214497e-01,5.162903444398533187e-02,4.207406125657971174e-02,-1.359151856271314336e-03,6.754245498224364930e-02,-5.665038719042134814e-05,1.784122437238693237e-01
3.369260966750372566e-01,5.416411599791216835e-02,4.976187935627057746e-02,1.108117854534407774e-02,3.705102285147520574e-02,-3.671589409212932479e-03,2.928235828876495361e-01
2.632554265073565047e-01,4.470884729050685069e-02,6.021011466023402925e-02,-1.188094269151317162e-02,1.084824138171431186e-03,9.714712868186094544e-03,2.128973305225372314e-01
2.353765288447763337e-01,4.997303713380171764e-02,5.322137298663823235e-02,-6.206911963814203126e-02,3.620331353917988909e-02,5.276155076649686852e-03,2.221621721982955933e-01
3.237307929909559179e-01,5.781576233940312337e-02,3.533661239846382085e-02,6.469205680839807283e-04,1.394402265719551061e-03,1.098990712543944414e-03,2.778567373752593994e-01
2.944688104296053766e-01,3.608133710367020242e-02,7.083751418360938190e-02,-2.747110093357408786e-02,9.177811291677181668e-03,5.355496228035646310e-03,2.481818795204162598e-01
2.494487206072006080e-01,3.393782391173615076e-02,4.529261368978111657e-02,-7.473318932347233767e-02,-3.199820148834009274e-03,-5.015878061980212285e-03,2.469577640295028687e-01
2.810386368690567238e-01,4.155396909158563801e-02,5.164763254109216994e-02,-2.554447504007890599e-02,1.820547331720651779e-02,1.060737907644555139e-02,2.415097057819366455e-01
3.701428628343712002e-01,5.580354737978523993e-02,5.527980885738634220e-02,7.869037181948580068e-03,1.349172665425677452e-02,-2.594677338516686131e-03,3.157944679260253906e-01
3.806817679725478243e-01,6.224338749724879494e-02,7.176043317719166259e-02,-2.081767762870988161e-03,1.539698261139352048e-03,5.189039392640940485e-04,3.138214647769927979e-01
3.454374771404264410e-01,6.034292877127596377e-02,7.048063671639109851e-02,1.199942764283210570e-03,1.043259387946565437e-03,8.215275966027244274e-04,2.801804542541503906e-01
3.930085234215188184e-01,6.225014988067827104e-02,6.857930172564159765e-02,8.903329619655153335e-03,2.490795575859806529e-02,-2.390586694635337631e-03,3.308533132076263428e-01
3.359928085529454433e-01,5.648637757888218258e-02,4.477582880639890961e-02,-3.812817095183764111e-03,-7.340656803585856802e-03,-1.830992206062501734e-03,2.859186530113220215e-01
4.009071774748971251e-01,6.636514880388458271e-02,7.846354618737011455e-02,9.358252538923143155e-03,-7.087934512799433720e-03,1.898192862546684402e-04,3.292884230613708496e-01
3.491310828932579491e-01,5.678541802387056248e-02,4.602249315994003109e-02,-5.652284236167656739e-02,-5.243498201444854456e-02,-7.955130748227786514e-03,3.267276287078857422e-01
3.348869208116873608e-01,6.215567709469130286e-02,4.129006970299495261e-02,-3.834935748540604320e-03,-5.713189791426045994e-02,-6.530895322305967608e-03,3.007867038249969482e-01
3.299683625665376097e-01,5.622959445102303222e-02,4.002065284880193530e-02,1.197705322339104707e-03,-1.596226624423830245e-02,-3.310969599130561547e-03,2.836093008518218994e-01
4.845152455421635751e-01,7.689231035998453367e-02,5.950743050008186485e-02,-5.861640446289891060e-02,-2.446327220193459870e-02,-6.476969921416302588e-03,4.310151040554046631e-01
3.381700006242335244e-01,5.806110747880151302e-02,5.790168265690832927e-02,-1.107484920393084823e-03,-3.903441623857419399e-03,-1.172174125840823875e-03,2.802841067314147949e-01
3.450115587067382750e-01,6.029524705044819743e-02,6.648218079330243946e-02,2.037103861154822108e-03,-3.657492897651955731e-04,6.107223648277777545e-04,2.816986143589019775e-01
3.464835208559624014e-01,6.076340715245585888e-02,6.758423717210003401e-02,-8.851545211789753863e-04,8.520023996861657073e-04,4.859737405624528364e-04,2.823807597160339355e-01
3.210957214239023028e-01,3.442774862348102483e-02,5.374424331383410858e-02,-3.157058363925164656e-03,-8.539837821980555662e-04,-4.115034118159647050e-03,2.776636779308319092e-01
3.197343678288256941e-01,3.531068879357832091e-02,4.999265594169577387e-02,3.377086794793282169e-05,3.771393836211842663e-04,-1.204603613866731156e-03,2.773829102516174316e-01
3.242569023147740537e-01,3.621510832997212881e-02,5.082982884799744361e-02,-1.095328834048772389e-04,-1.500283587710453045e-03,-1.204276618132996829e-03,2.810394167900085449e-01
2.987482676770673029e-01,3.507489236167321556e-02,4.859408816643735751e-02,-5.760194697331766714e-03,-2.680646763453636752e-03,-6.697892231906098053e-03,2.576770186424255371e-01
3.067917368488123353e-01,4.020422571819649848e-02,4.747811442012217498e-02,-4.051317949712004811e-03,-8.194783055737342881e-04,-7.092127870715028877e-03,2.634100019931793213e-01
3.129618745896262100e-01,4.233623459872566663e-02,5.508130921443012140e-02,-3.111055493884057679e-02,-2.827466040903219707e-02,-1.451351371606574535e-02,2.754730880260467529e-01
3.256268825392228949e-01,4.109607550701552259e-02,4.798843514948172850e-02,-3.525218113822462841e-04,-1.214922260951079762e-03,-1.383656260513352679e-03,2.811667621135711670e-01
3.684673060463803940e-01,5.022491713942434099e-02,5.473530053062682088e-02,2.039444883586261775e-02,5.041007332047794942e-02,-6.190181142794386020e-03,3.299233913421630859e-01
3.437557807821211009e-01,6.917040355399142748e-02,6.015180657203486603e-02,-1.947398270081618452e-03,-1.718888181196388202e-03,9.006393991629337795e-04,2.792445421218872070e-01
4.462655960818572298e-01,7.330075624854631711e-02,8.347195711410265728e-02,5.513956757998362407e-02,4.225512024777064446e-02,-7.602131241163998096e-04,3.871589601039886475e-01
4.007902482179511727e-01,6.409480479955560750e-02,4.376295252067669006e-02,9.703626990201004443e-03,6.659838995667110781e-03,-6.628472217247905265e-03,3.480950891971588135e-01
3.724260036805225327e-01,6.553597079933798364e-02,5.883752268967237797e-02,6.850984916311433914e-03,8.039452202588739937e-03,-1.085349622680345646e-03,3.108380436897277832e-01
3.715829323018352004e-01,6.474482524933518335e-02,6.352438537768942406e-02,-3.194801737897606016e-03,7.515528357776300392e-03,-1.999432195390981378e-03,3.077948391437530518e-01
3.409684305363513968e-01,6.134919121511146767e-02,5.849933583464383968e-02,-2.726904761208564110e-03,-1.002163210062677898e-03,-1.951567398902668790e-04,2.811002433300018311e-01
3.906418426707639613e-01,3.644136099626067715e-02,5.417705254422736094e-02,-2.072207424069675077e-02,-7.122429674192649190e-03,-1.133895252546107159e-02,3.483054041862487793e-01
4.018330404276801437e-01,6.022139666107281797e-02,6.262505511688554183e-02,6.420672996945469418e-03,5.858978603378925745e-03,-3.537522551043851583e-03,3.408040106296539307e-01
4.247611299014237840e-01,6.268630567965456646e-02,6.072809072599776037e-02,3.201854873645292726e-02,6.740534487271034048e-02,-8.475956723755680156e-03,3.856586217880249023e-01
3.577273297283974363e-01,4.962667205815764204e-02,4.870321189966909936e-02,2.600702709543199417e-02,3.050760623338972730e-02,-8.506624180362357818e-03,3.166223466396331787e-01
3.375283145499181625e-01,6.120001685716149054e-02,5.977566388080854387e-02,-5.722087573515692019e-04,-1.106660010246364283e-03,1.420513167319099965e-03,2.770625352859497070e-01
3.499383108008464194e-01,6.302686448345665160e-02,5.415901121936148033e-02,7.741726899913217719e-02,3.404432679705180625e-02,-8.999298341421331829e-05,3.261877894401550293e-01
3.424085112034332967e-01,5.580615336797893622e-02,5.978702503843057181e-02,4.880966054488486243e-03,4.419020098956556774e-04,-3.216713181163981337e-03,2.848138511180877686e-01
3.212487915106111425e-01,4.087566734727512974e-02,5.839110353202080217e-02,8.223240497615910000e-03,4.719041519271439424e-03,-6.068441332886522106e-03,2.727364599704742432e-01
3.386399958836693314e-01,5.048952565452116681e-02,5.488295386638900042e-02,2.821442285679665214e-03,2.817607228279554623e-04,-1.978855231905408355e-03,2.860417664051055908e-01
3.396376321046055136e-01,5.241313792431254170e-02,6.083592905098150760e-02,5.590353192026668167e-02,5.097714231066825807e-02,8.085282069588212639e-04,3.119666576385498047e-01
3.356935182050870825e-01,3.729399544213843343e-02,5.810753953500685798e-02,8.131233440999828532e-03,-4.011348614033999837e-04,-3.769202685935711152e-03,2.889743745326995850e-01
2.244588943640422607e-01,4.231863005979025205e-02,4.795094866550198703e-02,6.795478960044518124e-02,4.002826122824483523e-02,-6.387952796758118593e-04,2.254828065633773804e-01
3.665427046128033606e-01,6.816311571232988586e-02,6.653846285467553134e-02,1.549029195769162327e-03,1.985652940184047879e-03,-2.434737645599520969e-04,2.992273271083831787e-01
3.379223966591260453e-01,6.061018926484293412e-02,6.018616396439323279e-02,-2.417930261316698307e-03,-3.363563301227114836e-03,8.165932251763663831e-04,2.776207923889160156e-01
3.502487881934629455e-01,5.514067354478106864e-02,6.483410634965842967e-02,1.660769167805310753e-03,1.041749148138444193e-02,-9.140359453521316449e-04,2.909613549709320068e-01
3.396516071028414796e-01,4.829656990229160007e-02,4.861488890017320874e-02,-2.716800942358469913e-04,-4.826680731138029428e-04,-3.172973617784988036e-03,2.912494540214538574e-01
3.266050901340630253e-01,5.184220306781367471e-02,4.161405481411661889e-02,-2.173702320181443762e-04,1.414579843351225453e-03,3.408688315288648050e-03,2.800903022289276123e-01
3.343890032093977394e-01,5.451604093246416316e-02,4.767343872699465746e-02,5.345028501309613680e-05,2.540276655889188179e-03,1.386208025984771511e-03,2.834005653858184814e-01
3.093574484219111520e-01,4.856681393791702217e-02,4.237048633961640332e-02,-4.659248119131536046e-05,2.493643011182291019e-03,8.198791433827621808e-03,2.643603980541229248e-01
3.156296901866710303e-01,5.881313733814633182e-02,4.212413250453639346e-02,9.878060193436047701e-04,5.324873917891419272e-04,7.198350797148005652e-03,2.658542990684509277e-01
3.206008289346455875e-01,4.665378669221573182e-02,6.975653341698842547e-02,-3.576738660152035953e-02,2.629019665097166725e-02,8.459171541448630427e-03,2.745503783226013184e-01
3.317902655541801193e-01,4.908469916977575842e-02,4.863633353818107297e-02,-2.729517806147419099e-03,3.296999830386798929e-03,4.779909949328342220e-03,2.831481993198394775e-01
3.270075527073650345e-01,5.322576492011073246e-02,3.607697318982923396e-02,-3.907482826680365538e-04,9.624827390036814556e-04,1.484602520027515854e-03,2.827638983726501465e-01
3.089155211261302436e-01,5.209554905954830173e-02,3.362604905807842215e-02,-3.120321720426309873e-03,-5.898590439659761285e-03,-4.747179528252506650e-03,2.669122517108917236e-01
2.162609317786209628e-01,6.467180416831239120e-02,4.193083603791844527e-02,-1.255423950637017845e-02,-4.965218458146581498e-02,-6.201488922129503624e-03,1.868901252746582031e-01
2.525037982893036936e-01,5.389544726676524788e-02,6.392767522854084228e-02,2.278220134712230505e-02,4.579248785347135586e-03,-8.461316841462821273e-04,1.979282200336456299e-01
2.958294084113840539e-01,3.650899572455892916e-02,5.806343161470790826e-02,8.264037897615600023e-03,3.169954702244665197e-03,-5.409167361130898938e-03,2.498899251222610474e-01
3.067397976245003210e-01,3.314750999538540466e-02,5.410428951793141983e-02,-8.262709566795091790e-03,2.933433546949445851e-03,4.059379710926982326e-03,2.642695307731628418e-01
2.116295527917378960e-01,5.943196067906651725e-02,5.369863885573379625e-02,2.047785223016408175e-03,-2.434155308868769449e-02,1.057132085357124704e-02,1.618485301733016968e-01
3.338905104163392146e-01,3.684335699492019556e-02,5.772090334514198839e-02,2.000623867321471138e-03,6.375790512749242907e-04,-2.394316969511874494e-03,2.872310876846313477e-01
2.658423932973998927e-01,5.105055211658403314e-02,5.417565720415724873e-02,7.701261599071308230e-03,-2.438390307533642564e-03,9.970769389225876342e-03,2.144016474485397339e-01
3.385474379485591268e-01,5.582550457353194218e-02,5.897439149160843552e-02,5.292149990451728778e-03,-4.540890642209345282e-03,5.678160698343664384e-04,2.814217507839202881e-01
3.144916352376861957e-01,3.160276804488550140e-02,6.105720292248785486e-02,5.289476113365676642e-03,5.674447477450089167e-06,1.984591698753768781e-03,2.695497870445251465e-01
2.857788244298415381e-01,4.778126199034861410e-02,6.332826018620754671e-02,1.404081352695153717e-02,-4.800395515778134448e-03,8.172822029425999557e-03,2.324765622615814209e-01
1.899361032560068219e-01,4.400818044594893841e-02,6.374527856066120046e-02,2.600891400495717459e-02,4.839630290145077382e-03,8.055602209237658047e-04,1.445887982845306396e-01
3.082102028132729377e-01,3.662859326694371809e-02,6.349416072918803722e-02,1.156214894641196004e-03,-4.356908572527573575e-04,-5.133488797065739219e-05,2.592040300369262695e-01
3.139001297309307881e-01,4.112564710880189933e-02,5.502552902331347973e-02,1.557085631390387089e-02,-3.446545236579051565e-03,9.529637165211516867e-03,2.680355012416839600e-01
3.419167318081559603e-01,5.838702201009780823e-02,6.180542793575673211e-02,9.446109865932883834e-03,-6.319343370623804919e-03,2.212495364787854632e-04,2.825229167938232422e-01
3.422660001555154485e-01,6.787939701878691057e-02,5.727514276267543780e-02,9.000102014128395290e-05,1.487727170524206187e-03,-2.042589059201593751e-03,2.798737287521362305e-01
3.351374484434244128e-01,6.362754697407504989e-02,6.394319718386454188e-02,-2.690264374554376600e-04,5.603735578734934638e-04,-1.524244047903125163e-03,2.713671922683715820e-01
3.912393955971140147e-01,6.463968169726677648e-02,6.056429678180161313e-02,-2.322636850523486160e-02,-8.355490376204006975e-02,2.140852793283615392e-03,3.613743484020233154e-01
3.614402124341613565e-01,5.432904917669670319e-02,6.055558769674393438e-02,5.689208012922937485e-02,1.383726248051407376e-03,1.764572597759610315e-03,3.196388781070709229e-01
3.324790830448908219e-01,6.219835678228100018e-02,6.438197711671717061e-02,4.688764415121266242e-05,6.555829826733841105e-04,-8.723834526509695623e-04,2.692022025585174561e-01
3.381277615595824626e-01,5.822085551238834200e-02,6.347121502320302033e-02,3.016254853430835881e-03,5.891716072623345889e-04,1.700294154485566681e-03,2.773857116699218750e-01
3.383122304815932013e-01,5.855068858669593146e-02,6.307821748507697057e-02,-9.786939817245060395e-04,1.682660073471221017e-04,-5.191236152809671904e-05,2.775308191776275635e-01
3.429983694817508866e-01,5.860945240991580207e-02,4.691489420260185061e-02,-4.303029495094627503e-03,3.492935104952783060e-02,4.844726720286866330e-03,2.968598306179046631e-01
3.338987799727540784e-01,5.108227259244339791e-02,5.688118806130026961e-02,6.890011395184194535e-04,-6.015284203113812310e-04,1.160353105197727734e-03,2.799738049507141113e-01
3.358408070937121126e-01,5.837273695100923809e-02,6.349398377558222728e-02,-5.482601515411854830e-04,1.775319240009812618e-03,-6.375567366152323041e-04,2.749642729759216309e-01
3.389821946062456237e-01,6.926312722147096035e-02,6.292640040591540584e-02,-7.807871717895935272e-04,-4.782788031942325903e-04,-9.873408690348928381e-04,2.729525566101074219e-01
3.338524316752362608e-01,6.080191118403857620e-02,6.282094374556168592e-02,-6.495283920656036349e-04,1.218052155815001160e-03,1.881183225800661511e-04,2.720573246479034424e-01
3.329774686052439647e-01,5.728926019706891137e-02,6.191822987793063615e-02,1.090119123356440584e-03,-2.595929411724476527e-04,1.392868983524472816e-03,2.734206616878509521e-01
3.367709192704614884e-01,5.500228311338418996e-02,5.550715706525512216e-02,-1.811613404543904781e-03,8.054399889231682059e-04,1.670400376269064570e-03,2.815523445606231689e-01
3.561774962829893365e-01,6.011764320434054287e-02,6.825786465226471589e-02,1.448860948422072033e-02,-1.381844942604845174e-02,3.527276141517536601e-03,2.941898107528686523e-01
3.322747659270216536e-01,6.192375653253119616e-02,6.515725862231075416e-02,2.426170422592805389e-05,-5.467540969485505230e-04,-8.279419376256387042e-04,2.687543332576751709e-01
3.331409396690639957e-01,4.879563510492793132e-02,5.322281759887603769e-02,-7.894711435380818423e-04,-1.024568643529056249e-04,3.749087951664006294e-04,2.821618914604187012e-01
3.138101279120192322e-01,2.914635202855529739e-02,6.029854668778179827e-02,-6.183506951259402917e-03,1.640389813932707384e-03,1.306100487490463070e-03,2.706730961799621582e-01
1.006806415575335623e-01,5.100617433615679125e-02,4.809734449985247906e-02,-5.731785474951237025e-02,-3.913818465657824958e-02,-1.915564335405229007e-03,1.307016462087631226e-01
1.531671213458664638e-01,7.057712066596061318e-02,7.697100924269810462e-02,-3.591380120235899281e-02,-1.142454777575214152e-02,5.460890824734125973e-03,1.033651158213615417e-01
1.066775678786352904e-01,3.693023282754785697e-02,3.484493042897554571e-02,1.477923713653734802e-02,-3.216651520036750006e-02,3.185864539515146157e-03,9.383103996515274048e-02
2.250700875214634022e-01,4.927379742314419442e-02,6.289365404879609933e-02,-4.869664053677803112e-02,-2.671304263841343951e-02,-7.333411819281731615e-03,1.952221840620040894e-01
1.350664487926178658e-01,6.685951168179402049e-02,6.703888585126317745e-02,1.230076480687688177e-02,-1.567963094107295216e-02,7.440073278989604161e-03,7.744370400905609131e-02
6.446616250894653122e-02,4.242537557520130453e-02,5.108093371027144086e-02,-2.263208913295014155e-02,1.591838017599347260e-02,1.634282347594798526e-02,5.888991430401802063e-02
1.218394865717149778e-01,5.114282683666547535e-02,4.701285383733230794e-02,-1.381157359260802358e-03,-5.555068683050343181e-02,8.912892491436934933e-03,1.216911152005195618e-01
1.429901375883233516e-01,7.460273174048566436e-02,7.095757092903101637e-02,-3.629624013176507001e-04,-1.013408843671465692e-02,4.923547660295627543e-03,7.294262200593948364e-02
3.328286100542579007e-01,4.719382500662755442e-02,4.340657342383084927e-02,7.823533162660398660e-08,3.964667273423158741e-04,3.502976942764062331e-04,2.875485718250274658e-01
3.327831823742867234e-01,4.644889716354448639e-02,4.373528197381208737e-02,-3.764141477631976107e-04,-4.106278367025804679e-08,1.940165156223668322e-04,2.877016365528106689e-01
3.296470615801039283e-01,4.885102664581669751e-02,3.840372973699761328e-02,7.486406491709763755e-04,-6.694760539065384248e-04,1.547865092326134850e-03,2.861805856227874756e-01
3.297137210891705195e-01,4.993655628690008008e-02,4.009041011928325682e-02,-4.022764600382665095e-04,4.131149178792876205e-04,1.282689543227929704e-03,2.848383188247680664e-01
3.310385719130328197e-01,4.363812457571793202e-02,4.676407598146595235e-02,-1.325778152901117444e-03,-4.938942519506359574e-04,1.031678649681986226e-03,2.858663797378540039e-01
3.254810928113414104e-01,4.153825356633114585e-02,5.002403770809199512e-02,-2.752585968557685978e-04,2.619314026603258416e-04,2.654503454128800434e-03,2.798350155353546143e-01
2.472531807313145535e-01,6.163773358949987263e-02,4.359863484727974359e-02,6.319164744921810378e-03,-1.904858840449282983e-02,1.088443194331501634e-02,1.992249786853790283e-01
3.191397299753196415e-01,3.202478892500430774e-02,5.902135360047347512e-02,-2.601919718213754808e-03,1.904052916159044493e-05,-7.382967853815159461e-04,2.746536731719970703e-01
2.117123283240761600e-01,7.506495806732468856e-02,6.542681636418198887e-02,8.990567584043200611e-03,-1.642897791921475378e-02,1.963725143358934031e-03,1.454173922538757324e-01
1.996770933220667343e-01,6.192302894322049972e-02,5.282352790283043054e-02,2.172306203991860099e-02,-2.085744255356002889e-03,7.615929246348026628e-03,1.480378657579421997e-01
2.569145357933952933e-01,6.111893313549906365e-02,5.026536651860839811e-02,2.129533842199499670e-03,-3.276921786956150332e-03,1.118716499480034397e-02,2.024847567081451416e-01
3.010363271634874383e-01,5.243284505822305708e-02,5.503481449520830626e-02,9.954246917595343386e-03,-8.180809146902333004e-03,1.075485634737380347e-02,2.490153461694717407e-01
3.227818108822547716e-01,3.146489074474756453e-02,5.858352408251565890e-02,1.752862146565221599e-04,-2.386281212148277757e-03,9.561962391644898392e-04,2.787844538688659668e-01
3.218072656484860516e-01,3.035565748485234694e-02,6.024398112626497270e-02,2.358419216857381498e-03,2.276953083669190029e-04,8.683147622383068911e-04,2.777507007122039795e-01
1.748954634528265828e-01,8.533811358043087714e-02,8.530734741092897699e-02,2.450716668357955444e-02,5.327128823080769758e-03,4.677196138715355826e-03,9.987913817167282104e-02
2.839786896431232277e-01,3.336931962638377269e-02,6.318933677506460844e-02,1.424906233915708420e-02,2.776634842220378338e-04,-8.629354617583277591e-04,2.383960783481597900e-01
3.611338457856181350e-01,4.916239645863379470e-02,6.120037425014683563e-02,2.253509450639968811e-02,1.706609866971303680e-02,-2.659169416449138051e-03,3.100549280643463135e-01
2.446510337564421489e-01,3.757188044112201586e-02,5.283569822944903654e-02,-3.655573871695681765e-02,2.732942382264583539e-02,7.973272369804784016e-03,2.153934091329574585e-01
3.139189570596512269e-01,3.081095973156036671e-02,6.064491492929650895e-02,-5.459935017893216384e-03,1.527811831844015557e-03,7.539514168739449695e-04,2.696147561073303223e-01
2.648515300765523772e-01,6.180501075290598112e-02,6.610334961650937702e-02,-2.638624186493053470e-02,3.457625683526485000e-02,1.585035991727927474e-02,2.163389921188354492e-01
2.984321568202684682e-01,5.449399078266826957e-02,4.408329529389018453e-02,-4.710167532489238813e-03,6.690061026315513755e-03,1.082356000162286100e-02,2.504117786884307861e-01
3.305575566941085786e-01,5.814351901517846033e-02,5.289719071031792619e-02,3.885200651645342399e-03,1.223290561032536325e-03,7.060106969226637554e-04,2.751679122447967529e-01
3.145906692021536166e-01,3.905007733893658961e-02,5.771997214693477818e-02,-1.047055906337093778e-02,1.250899987144255335e-02,7.772171120960871989e-03,2.685263752937316895e-01
2.860884439106590182e-01,4.500494518299165414e-02,5.108175825530625325e-02,2.919949694483581562e-02,-1.254839730667369792e-02,1.157785885670432023e-02,2.452050596475601196e-01
3.236700781602013244e-01,5.411228220633507169e-02,3.868550359675707040e-02,5.071580011468302882e-03,-4.076798362261390557e-03,5.574340482017692798e-03,2.779892981052398682e-01
3.285785079262175667e-01,4.775510194300071343e-02,4.495487690315420892e-02,2.177118068667058606e-03,-1.537923545263172789e-03,5.811290035346881010e-03,2.824510931968688965e-01
3.102245967261691995e-01,5.447771998127136361e-02,3.773650611791219689e-02,2.203540068133296240e-03,-7.772725492167439909e-04,7.293342162074469698e-03,2.648475170135498047e-01
3.355927690733332414e-01,6.338559136795600402e-02,6.342183745246689208e-02,-2.308516549133058130e-04,1.140774630713431133e-03,-1.989569859195600577e-03,2.722183465957641602e-01
3.308117050140927384e-01,4.257897881114626470e-02,5.006449030097455399e-02,1.258084756774831465e-04,-3.644714976746842874e-04,7.381365815516415007e-04,2.845674753189086914e-01
3.089953741532264209e-01,5.128462541095976657e-02,6.775694886819332019e-02,3.667957878105746611e-02,-2.379909146590505550e-02,1.055182168826167971e-02,2.617450356483459473e-01
2.975934313639750362e-01,4.619210503388287981e-02,5.060146020145797618e-02,1.379011107236793356e-02,-5.688010401644688283e-03,7.827272636975118186e-03,2.509281039237976074e-01
2.679024051382316030e-01,5.078464399323583123e-02,4.741506121236502280e-02,5.233184110663086433e-03,-1.141286080687992262e-02,1.173507719294908207e-02,2.208373397588729858e-01
2.921452571852832802e-01,5.302384854630351474e-02,4.390062850643500214e-02,5.031739395462971748e-03,-5.372463947467330352e-04,8.747231739843073367e-03,2.444385439157485962e-01
3.338734131437733899e-01,4.770685570873305081e-02,5.294070274917089813e-02,-3.184526301019969391e-04,-3.420101448958655019e-04,5.720196686416785916e-04,2.835887372493743896e-01
3.343432732602674706e-01,4.749001655995375992e-02,5.284897218847137146e-02,5.957398916435130073e-04,-6.219053550192895395e-06,2.028565960246222349e-03,2.842352688312530518e-01
3.336907206747337651e-01,5.445832115960884401e-02,5.758183894245261225e-02,-5.833068287014852703e-04,9.323503118119106856e-04,-1.663929185004485662e-04,2.776905000209808350e-01
3.344586754197946266e-01,5.405657661984006324e-02,5.829297479165330975e-02,-9.528488316189232020e-04,1.470366721098986806e-03,3.819639208578319112e-04,2.783254086971282959e-01
3.335455263976251361e-01,5.420957510622101405e-02,5.781720171977619560e-02,-3.366447097924880070e-04,1.042761538282830323e-03,-8.936535756724365903e-05,2.775562405586242676e-01
3.321576977392548535e-01,4.944148496190592379e-02,4.581547553839447617e-02,3.225143814302016201e-03,-1.311280123376339915e-03,1.802260399407051026e-03,2.846275568008422852e-01
3.337118061144798142e-01,5.092013525809299668e-02,4.803898052710917077e-02,2.268199889191645918e-03,-2.929921249109847595e-03,2.740086312181692473e-03,2.843552529811859131e-01
3.334905154122400073e-01,5.499826188252419923e-02,5.585068018447633675e-02,-2.047558358032362528e-05,1.012885356504918295e-03,-1.843193449415945020e-04,2.780727446079254150e-01
3.148048582712598131e-01,2.998191542061728887e-02,5.958162433024462301e-02,-5.596894413865372356e-03,1.665787012905842798e-03,2.881293698462613967e-05,2.714256346225738525e-01
3.331297830009846694e-01,5.113556566026154770e-02,4.845346350912649314e-02,2.308523132649250350e-03,-2.805018516716656710e-03,2.693985060909627905e-03,2.834530472755432129e-01
3.347677803342429814e-01,5.387920515755394157e-02,5.779195558107605435e-02,-5.230496218138200922e-04,1.695367842787529576e-03,3.977891232676388357e-04,2.789705693721771240e-01
3.974081016980964276e-01,6.268739756286373366e-02,5.636370082146445470e-02,7.804119019873451829e-03,-6.921511348562761623e-02,5.036874366353565752e-03,3.589228689670562744e-01
3.297730275734662708e-01,5.915922046629594477e-02,5.311367482669331064e-02,6.442882299404661950e-02,-2.616352104370016016e-02,9.210163667852339781e-03,2.994422912597656250e-01
2.787525844705566747e-01,5.773077998283840384e-02,4.598863555787234547e-02,2.334930015256023172e-02,-8.432183046796037917e-02,2.895979512917430665e-03,2.730842828750610352e-01
2.196202505760055934e-01,6.351613818648645104e-02,3.727984574952827868e-02,-1.660954388927579238e-03,-6.492704514075250954e-02,-5.010540802623053916e-04,2.044700980186462402e-01
3.398521130055221495e-01,6.400859463104754954e-02,6.351932420095587895e-02,2.674274433887019985e-03,-1.935046516837770226e-03,-1.041901812786704936e-03,2.761535644531250000e-01
3.376470617312667954e-01,5.490315845916166060e-02,6.103649727693753746e-02,-8.395211530693928552e-04,9.431864962667302300e-04,5.384289936285782631e-04,2.797377705574035645e-01
3.333886129245351437e-01,4.991080460347875614e-02,5.351255251195115303e-02,1.382016831727157433e-03,3.764642894538072423e-04,1.844346283057274848e-03,2.817232310771942139e-01
3.316365450251779201e-01,5.424654186404864742e-02,4.712067227760165233e-02,-1.984769687157204073e-04,2.709485839251193256e-04,-6.744581504240767991e-04,2.810237407684326172e-01
3.698410402585308732e-01,4.637423425632693219e-02,5.691825943011044608e-02,-3.393884153990480573e-02,-9.758099799827304327e-03,-7.221409576151150041e-03,3.243901133537292480e-01
3.319515125037209025e-01,5.408634155806425758e-02,5.355951998517294310e-02,-4.971077543182355826e-03,-4.985994866576424003e-03,-2.713517755217941061e-03,2.784358561038970947e-01
3.369812917628948190e-01,5.547746758510747889e-02,5.546932061459190766e-02,-1.606011612950897574e-03,-7.436392235443058281e-04,-1.663525758698120287e-03,2.815393209457397461e-01
4.838116739137902078e-01,7.318271739586257318e-02,4.084313815606463449e-02,-4.660984252281515083e-03,2.065897817735096870e-02,-1.113181719786122612e-03,4.292910695075988770e-01
2.805783198597103789e-01,4.041914179616427905e-02,5.788988520065319054e-02,-1.139657741054020314e-03,-4.551442626893016825e-03,-7.612502597956830042e-03,2.324344962835311890e-01
3.043346612446112265e-01,3.175520144898702490e-02,5.659371850031572060e-02,-1.632735147287889960e-02,-1.064198055091345255e-02,-5.693439908279003016e-03,2.634061276912689209e-01
2.608920589201332296e-01,5.539671144290028715e-02,6.166202944383189499e-02,-3.809432379623754056e-02,-2.526185347684268417e-02,-9.757159795186152659e-03,2.180223017930984497e-01
3.132519654893751726e-01,2.876777129918961506e-02,6.003222964482861357e-02,-1.902888210583459673e-03,1.261028386163717298e-03,1.352977659265874530e-03,2.702510058879852295e-01
3.011443841781001884e-01,3.622684884604052136e-02,6.452396425325072904e-02,-2.072709524383279517e-02,7.136871131984839651e-04,-1.605249916683212680e-04,2.545114159584045410e-01
2.483068720485773484e-01,4.854030819197253932e-02,7.093330354906039747e-02,-1.489963981645410669e-02,2.676840712142732146e-03,4.236457334054366530e-03,1.915100365877151489e-01
2.707665075160156087e-01,3.373754158682554238e-02,7.018627845583191860e-02,-2.967497663248250261e-02,-4.774385033465491576e-03,6.050727008423084597e-04,2.271191924810409546e-01
1.703234076448882917e-01,5.371642227277848014e-02,5.327305068978419739e-02,-8.017972316886401440e-02,-2.449126408152123638e-02,-7.091798807602062334e-03,1.867773979902267456e-01
3.330822393761143640e-01,3.787631912461132677e-02,5.790857970549172229e-02,-1.348209595338286694e-02,-2.220079187106066120e-03,-5.312028553204880231e-03,2.868430316448211670e-01
3.111967855487395296e-01,5.416633627248454430e-02,5.340208625505175888e-02,6.679632393385447064e-03,2.252640642120913063e-03,-1.021066591056818407e-02,2.583089768886566162e-01
3.324117777248447592e-01,4.428932555257460157e-02,5.326973819620049733e-02,1.525338752804758155e-02,1.173948518582590937e-02,-1.071043904914316738e-02,2.862923741340637207e-01
2.336781769868748193e-01,4.577917691741360817e-02,5.078358631498384318e-02,6.833180083703942198e-02,4.309294614303135068e-02,-2.677037680301832829e-04,2.323137521743774414e-01
3.312412286729453648e-01,6.303181462063976725e-02,6.267325191453329558e-02,-3.523971598982703589e-04,2.159758516706156823e-04,9.440137547138741352e-04,2.683947980403900146e-01
3.329686924558939443e-01,6.294195707238961490e-02,6.068043640078378542e-02,-9.915774464400687205e-04,-1.561393717058030470e-03,1.614877836967655144e-03,2.711979150772094727e-01
3.333365924088276255e-01,6.132801413147485892e-02,6.314679837973738441e-02,-1.583497191460044766e-03,-5.692105509468712481e-04,1.081535631446301502e-03,2.711259126663208008e-01
3.327640217232695763e-01,6.238146670735314481e-02,6.342879173310946028e-02,8.962777955197161932e-04,8.796659635945481897e-04,1.470377903028389621e-03,2.698811888694763184e-01
1.977184743925500254e-01,2.866558044432909041e-02,3.721817125234302970e-02,9.144469254965983777e-04,6.149815533590976407e-02,-6.649628921478822376e-03,1.966911703348159790e-01
1.966730704458616308e-01,6.527033847829723234e-02,4.706929256785253451e-02,3.823201217621187420e-02,4.979258968819885722e-02,-2.439662242980672035e-03,1.784108877182006836e-01
3.197249922918337095e-01,5.359418821277629752e-02,4.323876757946058802e-02,4.339639899069558555e-03,1.261062402010054533e-02,-3.873226564875887831e-03,2.725203037261962891e-01
1.992182814018992887e-01,5.669143454210132799e-02,5.787638546959193719e-02,1.875417325871346630e-02,1.809593452680136397e-02,-4.306236383021843153e-03,1.491294652223587036e-01
2.445609923434396149e-01,6.297292618519215179e-02,4.446593848416889594e-02,1.356916040776438154e-02,1.220236102931257852e-02,-2.685955215083335110e-03,1.941599398851394653e-01
2.187130442299658473e-01,7.337735928632893589e-02,5.509855376514472686e-02,-4.907319566166628601e-03,4.899277948839381863e-02,8.670459413954981556e-03,1.777970492839813232e-01
3.370511323462033193e-01,5.536575322459499904e-02,5.340855281760138740e-02,1.098454455199346326e-03,1.656379855908660277e-03,5.112412679330068967e-04,2.826914191246032715e-01
3.374129412633699032e-01,5.494157944575896180e-02,5.046553932234175421e-02,3.505825060369116130e-03,-4.650612301703770622e-03,3.469370499675093669e-03,2.849777638912200928e-01
3.454040839399972196e-01,5.351880682855066074e-02,5.933420380284243345e-02,2.315847682420062517e-02,-1.245937623704383712e-02,1.121746846067620158e-02,2.932329475879669189e-01
3.345607132480366563e-01,5.658846459421278119e-02,5.972170055758507790e-02,2.863118018880187994e-04,-2.501216724505146640e-04,5.045663791834521274e-04,2.764211297035217285e-01
3.386438185858605676e-01,5.798381847850953008e-02,5.615449437563012347e-02,4.516986590519638791e-04,-5.521981465683791467e-03,1.319278816173580010e-03,2.817518711090087891e-01
3.471652487435820111e-01,5.997168106004119315e-02,5.875706942156540269e-02,4.686674806931121363e-04,4.681886141910177848e-05,3.462918639305836294e-04,2.878045737743377686e-01
3.425432403105921342e-01,5.572981379436892091e-02,5.221240385187997379e-02,6.393555007016151967e-03,3.400074186247723299e-03,-4.084370305401867352e-03,2.889472544193267822e-01
3.163244597958710935e-01,5.785587472421396815e-02,3.346010754686083721e-02,-9.436299616048548534e-04,-2.401472631369322690e-03,-4.051448868426871242e-03,2.716172337532043457e-01
3.136691062868782742e-01,5.727185987259124367e-02,3.847244445082076414e-02,-4.524912343719894418e-03,-2.100914356551538548e-02,-3.315992180901334956e-03,2.689454257488250732e-01
3.149414133157613649e-01,5.497981237982116354e-02,3.205556191161613999e-02,-1.943923964567184984e-03,-3.539902696726748930e-03,-4.421493747556328770e-03,2.723464071750640869e-01
2.377502807320616418e-01,4.767686258402881183e-02,4.855508589472116998e-02,-3.984104174028561124e-02,-9.591749170379683387e-02,4.890851238419369196e-03,2.615261673927307129e-01
3.672661641787203224e-01,7.237871120476201126e-02,6.751430147959530670e-02,-4.491296749770332108e-02,-9.674049822301196422e-02,4.782012569715814870e-03,3.501614332199096680e-01
2.957712508073510604e-01,4.175650430498918653e-02,3.517183068973643578e-02,-4.114973436478316926e-02,-7.439271574297533218e-02,-5.914221692488389436e-03,2.966936528682708740e-01
2.472099502842743379e-01,3.341910676002934899e-02,4.863244420665308737e-02,-8.261522447854335871e-02,2.339101863613448143e-02,-9.395077690777817268e-04,2.545690238475799561e-01
3.362135645676743723e-01,5.201458316133129867e-02,5.777971487894570379e-02,-4.184003225752037924e-02,1.608712810116147418e-02,2.310249626214245285e-03,2.919041216373443604e-01
3.320711530380054954e-01,3.817599844317884350e-02,6.169181678302122773e-02,-2.024673451600861665e-02,2.872369787502152515e-03,3.264055106613641608e-03,2.851362526416778564e-01
3.326433780509370219e-01,6.155282474277806726e-02,5.818482829630014508e-02,5.317697751195343912e-04,4.719331446079088276e-04,2.604326381298473062e-04,2.727932929992675781e-01
3.415959799721890455e-01,5.718828215610809174e-02,6.080408961369079823e-02,8.192516492310650961e-03,1.111941499199160495e-03,4.442433467101882102e-04,2.829807400703430176e-01
3.220613105659786424e-01,3.180943671499812664e-02,6.208863312051302041e-02,-3.108241582320603498e-03,1.572573498977301388e-03,8.333126470508419497e-04,2.764287889003753662e-01
3.362072246824719945e-01,4.551688496434450060e-02,6.400217584640099933e-02,-7.813153927439180991e-04,2.719455934595187228e-03,1.223829874098076751e-03,2.819531857967376709e-01
2.874217752725056751e-01,6.955767659933569103e-02,7.107754062367330206e-02,-1.003082117269970402e-01,3.743651651743586106e-02,-1.708861863769600220e-03,2.855423092842102051e-01
2.901004815417997929e-01,5.672509336387054901e-02,5.252093540412551553e-02,-6.879988882609028300e-02,5.722054126333125934e-02,2.908236300098403400e-03,2.819771468639373779e-01
1.912214096891204362e-01,3.893667057417266736e-02,3.667239127673379423e-02,6.522060809750170052e-02,-3.252150786002913629e-02,7.239900344474210075e-03,1.990777701139450073e-01
2.236567496308163872e-01,3.025878733396181186e-02,4.586016997380802651e-02,4.150743033078339861e-02,-4.763235004987839694e-02,9.264317514168372153e-03,2.164751887321472168e-01
2.506436406647872261e-01,5.210959816796169319e-02,4.815038204191135485e-02,7.452543025874483473e-02,-4.596909155075543096e-02,3.728598551398620842e-03,2.515169680118560791e-01
2.878883009008917915e-01,4.792693196012623447e-02,7.175981303310326187e-02,4.828433794672527118e-02,5.308764222276301202e-03,4.446816589214273863e-03,2.440665811300277710e-01
1.701367632269024655e-01,4.990857640132272816e-02,5.215047010834698155e-02,6.888592190266035198e-02,1.428685600017032958e-02,4.738918410053975100e-03,1.706043034791946411e-01
2.227067511324894444e-01,5.981473325849202133e-02,6.566582286194228013e-02,2.688744325606303234e-02,-3.721451917413535343e-02,7.268862520268622521e-03,1.791564226150512695e-01
2.545600752925051280e-01,5.512319362885925722e-02,5.130094951267345771e-02,4.311499581982563417e-02,-6.093950147215725088e-02,7.515485732724913430e-03,2.396643459796905518e-01
2.132555133837067407e-01,5.831545078215443628e-02,6.170881996265904085e-02,7.888620797081498381e-02,-5.231673565473109189e-02,2.588564363257950100e-04,2.244383990764617920e-01
3.373143855790822210e-01,4.934462717952566024e-02,5.695846286845926421e-02,5.009120580876862822e-02,1.703176396191246949e-03,1.525673769370789693e-03,2.972121536731719971e-01
3.470336347212645833e-01,4.388487006681265901e-02,6.583227450196707520e-02,-4.118359404394835582e-02,1.830361881094610260e-02,2.785167151211291603e-03,3.030579686164855957e-01
3.313309029926371774e-01,4.832448509996867259e-02,5.675169674657870589e-02,-1.054612198792108336e-03,4.824196837626486614e-03,2.814238384805990180e-03,2.790620326995849609e-01
3.286719511209561517e-01,4.488818964415695889e-02,5.118284668672204440e-02,-6.833355659208863002e-04,2.317718576616151389e-03,1.773993691672284953e-03,2.807374000549316406e-01
3.318057482892496357e-01,4.767544813048289754e-02,4.153869106670889100e-02,-2.695386256657192055e-04,2.015725823482780558e-03,2.988710728206734387e-03,2.873160839080810547e-01
3.149535230705413080e-01,3.240483080676372085e-02,6.114107454974716804e-02,-5.332114828942463927e-03,2.213962817966784891e-03,1.450770605648338219e-03,2.695300877094268799e-01
3.116132467750620805e-01,3.330651117194512179e-02,5.868271870965224846e-02,-3.319526312963026315e-03,4.718322153605793504e-04,3.584859672773025793e-03,2.666617631912231445e-01
3.172405449198444360e-01,3.507047227450588167e-02,5.612466183736368464e-02,-4.382685772247418669e-04,2.266659814682404732e-03,1.722407800524676080e-03,2.722999453544616699e-01
3.218306139846905944e-01,3.459661899813998298e-02,5.131514355718086451e-02,-3.731340753090674222e-04,1.074919919070384304e-04,3.312160494908265168e-03,2.793100774288177490e-01
2.883499494020786980e-01,5.145117579756330883e-02,6.024619642894216143e-02,5.448063732719903712e-02,-8.755334211401583772e-03,1.322217362866890712e-02,2.525345981121063232e-01
3.110344349085513160e-01,4.634598672508470629e-02,4.061485392462645116e-02,2.853318829025552894e-02,-2.469410199358331240e-02,1.094692994558820777e-02,2.761179506778717041e-01
2.750010780179947822e-01,3.772299440786094915e-02,6.222307922263461966e-02,2.005861227550636422e-02,-6.519911247631748202e-03,8.824988172215776985e-03,2.294690012931823730e-01
2.980705239687148067e-01,6.153051600656217479e-02,4.140236313660826395e-02,6.466603172224992535e-03,3.484009421062085610e-02,-1.041545221030077198e-02,2.553621530532836914e-01
2.470975898757535594e-01,4.793054187604989247e-02,5.755886797612235622e-02,1.148591401718374733e-02,-8.648716055664739180e-03,1.040587204790393260e-02,1.969456672668457031e-01
2.680041450412250503e-01,4.790586524636551713e-02,4.340853947566347681e-02,1.984866483100259857e-02,-1.919054405397252342e-03,9.543622641430644579e-03,2.256535589694976807e-01
3.206998791353364853e-01,3.814653521202975017e-02,5.878038296973500665e-02,7.182199036236461102e-03,6.180238669549372767e-03,5.430893527264573153e-03,2.734772562980651855e-01
3.133093742749721855e-01,3.433268637840193593e-02,5.769026882214806085e-02,7.570759837087180644e-03,-2.006766077480457919e-03,3.991825966214097507e-03,2.684942781925201416e-01
3.271390440163757241e-01,4.742831808518699344e-02,6.054233863266432480e-02,1.587545859757272942e-02,-3.830529301579687056e-03,2.816534762991661049e-03,2.748924195766448975e-01
2.322037712745716465e-01,6.187629614658446409e-02,5.631124868260493910e-02,-5.488518362558126445e-02,-8.147874542324906599e-02,-2.045430784241326384e-03,2.428093105554580688e-01
3.012942902673991785e-01,5.807164778803861060e-02,3.023943232186056262e-02,-7.409360047158454476e-03,-1.675442622323283434e-02,-4.943681937261280857e-03,2.603487372398376465e-01
1.725374922542513567e-01,5.956256672782855172e-02,5.842134302839610549e-02,-1.940098705003316312e-02,-7.311107900556582107e-02,-6.161387236852293794e-03,1.737018674612045288e-01
1.795303232553411288e-01,4.871655153528715171e-02,5.302370800787351707e-02,-5.878705172353283770e-02,-4.700601580990452361e-02,-8.836050066843761236e-03,1.838424205780029297e-01
3.171567978010313427e-01,5.166783444165341799e-02,3.964661349468535934e-02,-1.930869419767533655e-03,-4.392290732100425504e-03,-5.422385568714380329e-03,2.719883620738983154e-01
2.796854628620238370e-01,5.397452234478362920e-02,2.669636196841257414e-02,-1.072487004845652618e-02,-2.822881144714371390e-02,-8.497818082314678376e-03,2.465741485357284546e-01
3.377783740781313826e-01,5.502242167252624494e-02,4.649172128377257462e-02,-1.715205001830707272e-04,1.643672699134666060e-03,-2.871264379627346593e-03,2.871736884117126465e-01
2.769408194018727620e-01,5.515805190031608518e-02,4.052942075335069783e-02,-7.882581810680407836e-03,-2.314662302580117962e-03,-8.569774954725594210e-03,2.303666025400161743e-01
3.365293143417093513e-01,5.979351270631645676e-02,4.187289816436794154e-02,-2.447328169257785221e-03,-1.491961360362227713e-02,-4.268376280370812445e-03,2.874083220958709717e-01
3.024685283261770996e-01,6.274507533617942889e-02,3.397796416640547212e-02,5.803373036468065889e-04,-1.359133375761755087e-02,1.465270301734033229e-03,2.564228177070617676e-01
2.620906446198871809e-01,6.661894528592893217e-02,4.697423980507578478e-02,-2.337125873297118007e-03,-2.159093102810017914e-02,-3.863226454158440876e-03,2.095107436180114746e-01
3.220982703169446570e-01,6.506629496322179074e-02,3.148510818304367520e-02,9.866054192608616959e-04,-1.080957728607919929e-02,9.798594799473652958e-04,2.760089039802551270e-01
3.378654154553679678e-01,5.839164580227354517e-02,5.886504454968244371e-02,8.064700409417530482e-05,1.486313236510708978e-03,1.303860410990369994e-03,2.792584002017974854e-01
3.374489154871052055e-01,5.574962242418769753e-02,5.306773188414976028e-02,-2.234573290680473459e-04,2.577931305072776822e-03,-8.878797518218317338e-04,2.830894291400909424e-01
8.934350174411583023e-02,5.226752921982830841e-02,4.102333291165101425e-02,-7.893261429642361993e-03,4.576038505961323860e-02,9.054086023223627266e-03,9.291300922632217407e-02
1.183799207170215806e-01,5.222221075705277271e-02,5.868368503076732551e-02,-4.617334618420804865e-02,4.945214727071836625e-03,3.242500091439872324e-03,1.024302542209625244e-01
3.089350479918637760e-01,5.730679542130100168e-02,3.190380600124723132e-02,-4.152465255512190006e-04,1.097314823019094644e-02,8.468901749637755549e-04,2.659287452697753906e-01
2.501612527150998688e-01,5.069908931863977009e-02,5.336378134266331341e-02,-2.832216120392896247e-02,3.537242293031446494e-02,1.356672350609892247e-02,2.144131064414978027e-01
2.185336330970727436e-01,3.763879454206829622e-02,5.032068695187703888e-02,-5.846076053028248509e-02,2.593332577124638286e-02,8.493671809062693090e-03,2.075492888689041138e-01
2.604814668862585059e-01,4.435978733660762841e-02,4.864019838866139034e-02,-1.092692727951356975e-02,1.675486575693598684e-02,1.012943432541428199e-02,2.175086140632629395e-01
2.546840406151477110e-01,5.595909630423882841e-02,5.007873246747203411e-02,-2.332938713917580547e-03,1.613118430250688393e-02,1.216243636148064272e-02,2.047816067934036255e-01
3.269539380765026926e-01,5.548816731751560205e-02,3.832610456740934146e-02,5.058689310066050366e-05,3.017076732496523552e-03,3.125374914893033068e-03,2.805418670177459717e-01
2.570881208512585392e-01,4.162490519281038248e-02,4.770344029598039270e-02,-4.696925374139811205e-02,6.512541134925353692e-02,5.950219816281104857e-03,2.541655898094177246e-01
3.325119063841089906e-01,4.927185401368772144e-02,4.742325564686471207e-02,-1.189062228607540078e-03,4.177331678795745580e-03,2.662108693359881064e-03,2.843058109283447266e-01
3.375677727036103803e-01,5.345877803480511559e-02,4.232567290501708379e-02,1.129268641640440328e-03,5.989025522520685825e-03,-3.520784335367841463e-03,2.900922298431396484e-01
3.464548877573480623e-01,5.909776178051603934e-02,5.884989019578400204e-02,-1.159878452597062079e-03,-1.057558183751756108e-03,-4.027070147117370151e-04,2.874948382377624512e-01
2.766026528585543987e-01,6.198827122741827622e-02,4.524702143508695096e-02,2.540545934998035549e-03,1.763525172431207929e-03,-5.054838354595948824e-03,2.236914485692977905e-01
3.376618767119106690e-01,5.855946419083475629e-02,6.169060876368175073e-02,-3.935094776068436711e-04,1.930810101160693789e-03,3.049786274743490838e-04,2.775715589523315430e-01
3.443745173476654431e-01,5.862031992466905372e-02,5.463538667069371690e-02,4.119491949906358569e-05,6.635690889046070131e-04,-1.896130730517486991e-03,2.877883911132812500e-01
3.514318998189965848e-01,6.393835512318421510e-02,5.969657100354984480e-02,-3.338976402382170128e-03,-2.066836721386400549e-03,3.282221832811039737e-04,2.897181510925292969e-01
3.366686820419311221e-01,5.152242457388332697e-02,5.628205233935512641e-02,-2.700939732914901586e-04,-1.491566355459157195e-05,-3.253689603941698448e-03,2.828530073165893555e-01
3.373964382170125953e-01,5.702436972912552915e-02,5.537230787750065109e-02,-5.389070214362040850e-04,1.745994289688303789e-03,-2.302131391355323052e-04,2.812198400497436523e-01
1.447457042019797968e-01,5.236405416626564724e-02,5.527214129649606067e-02,-4.994047842956324257e-02,-3.819280298032808746e-02,-2.732382530798793153e-03,1.419675797224044800e-01
1.228306058660155187e-01,4.196657180512813889e-02,4.126751276623364523e-02,-4.229990033294350055e-02,-5.816635893720484285e-02,6.845226511202021080e-03,1.491790860891342163e-01
3.424201081087334120e-01,5.961625476618905017e-02,4.812380318933952295e-02,-2.776307199560008182e-02,-4.479060621286553440e-02,-5.140367598384419992e-03,3.029363453388214111e-01
3.417761683250459814e-01,5.987596735157162120e-02,6.133477840408647908e-02,-1.803830640266278825e-04,-4.874327338090545490e-03,-4.550728660610820717e-05,2.813005447387695312e-01
3.020748596160819366e-01,5.388498059777931115e-02,4.699212711128049336e-02,-2.242374846463590990e-02,-3.165982425456123628e-02,-7.021572798266659601e-03,2.608062028884887695e-01
3.259898486070824108e-01,5.693444960090562890e-02,4.984470876704602538e-02,-1.531847776149223433e-02,-1.905880398468373996e-02,-7.934648755559690209e-03,2.762809395790100098e-01
2.714198658827977617e-01,5.377244082643650724e-02,4.299752433106568406e-02,-4.352801395499458770e-02,-6.743951198337383435e-02,-1.384069916919551278e-03,2.629937529563903809e-01
3.555903244905198601e-01,6.691387779414888215e-02,6.340346526261049498e-02,-5.585449296330236013e-02,-8.079399318518762363e-02,-3.945034186503037880e-03,3.366729319095611572e-01
2.614031497409564642e-01,4.750490340575162784e-02,4.364893357528829010e-02,-2.771402738879337468e-02,-7.856989146193278650e-02,-1.919286162386645662e-03,2.596671879291534424e-01
3.200030019125816860e-01,5.925595833050049943e-02,3.083167880240367253e-02,-1.898551754624496629e-03,-9.617357916667328838e-03,-3.216114682799804496e-03,2.766366302967071533e-01
3.454928322972233845e-01,6.115159938917628935e-02,5.578659879041722447e-02,3.211842362950783920e-03,5.339039091304105620e-04,6.562557250903508369e-04,2.871189713478088379e-01
3.315163742628807197e-01,5.823869984673678279e-02,4.135547254771085313e-02,2.054324174820560539e-03,1.074641335810402150e-03,-1.044073418694909462e-04,2.821270823478698730e-01
3.453795295018848854e-01,6.283285823986399510e-02,5.538562069028776791e-02,3.702041932966107680e-03,-2.202027342113944782e-05,5.085096005899187059e-04,2.864160835742950439e-01
3.402069482735130546e-01,5.985151558800834437e-02,6.826124126357727140e-02,3.330695095374310391e-04,4.396904416336461056e-03,-1.330670465090420329e-03,2.763617634773254395e-01
4.833533020012883985e-01,7.754362526473526640e-02,4.910304461529943487e-02,4.771129492866061500e-02,2.671380937475058975e-02,1.600466626612787394e-02,4.321692585945129395e-01
3.452422942872823697e-01,5.854452931576747954e-02,6.089107739041171863e-02,-3.958051914953898535e-04,-1.962561097256501283e-03,-5.079592290512449914e-05,2.855527997016906738e-01
3.508563705703875435e-01,6.341967830181843846e-02,5.904237761420366715e-02,-1.064926023433998385e-02,6.137559923822609453e-03,2.344598658901287953e-03,2.904598712921142578e-01
3.069395572294530972e-01,4.084551281687449908e-02,5.485253594322887782e-02,2.418215628977038456e-02,-1.340522715224120621e-02,8.703864249074282425e-03,2.641888558864593506e-01
3.357357415888428953e-01,6.186980007406206461e-02,6.201593113832037929e-02,7.419365186056062732e-04,-6.563487513366627647e-04,-1.774560870414072745e-04,2.737984657287597656e-01
3.104741536290016035e-01,3.646920264216764462e-02,4.843431354800672994e-02,2.273631434127991111e-02,1.073054537149101782e-02,-4.148744800244190574e-03,2.718294858932495117e-01
3.391885255151646517e-01,6.596048384366806627e-02,6.169600671771825751e-02,-1.292802217294230583e-03,3.064446956267489856e-03,-5.986295768424540562e-04,2.754472494125366211e-01
3.477816787721368375e-01,6.001500869571708974e-02,4.426679127630797628e-02,1.546221712658337258e-02,-2.498115357179681029e-02,8.844806389222952675e-03,3.006885051727294922e-01
3.392334658829553873e-01,6.587705810100909221e-02,6.162370501937974865e-02,-2.045896659448705451e-03,1.075777137965751654e-03,-6.906829055326785434e-04,2.755393981933593750e-01
2.710623987447942085e-01,3.571681231588637317e-02,6.566458146478389157e-02,2.973864070355721270e-02,-1.453536238822245464e-03,1.540859785603712400e-03,2.278222143650054932e-01
3.409657783621574678e-01,4.880106625960781153e-02,5.380182165626914981e-02,8.990600493551071173e-03,-1.312293227647344735e-03,5.567195888632536088e-03,2.902840375900268555e-01
3.764985510282157222e-01,6.229734211242234088e-02,7.436064251861974894e-02,7.996428629753211254e-03,5.331061183505255915e-03,-1.883808615148602249e-03,3.088128268718719482e-01
3.757093985707937733e-01,6.532835135809417215e-02,6.762395789734577944e-02,6.363511261881664438e-03,3.495195267728363336e-03,-3.019250356071952104e-03,3.095393776893615723e-01
3.336682757760433549e-01,5.689231945906758625e-02,5.973928039718906513e-02,1.080248583330842413e-03,5.405347042330529072e-04,6.099770481696323906e-04,2.753734886646270752e-01
3.338573073398112268e-01,5.440932633115226624e-02,5.911684872444136762e-02,-4.046979994326113553e-04,4.311653741067492779e-04,7.248733319196117605e-05,2.771261334419250488e-01
3.467850066185163005e-01,4.911415008952310646e-02,4.832667449386102154e-02,2.859283388896705427e-02,-1.741352223795345280e-02,1.075736383208761478e-02,3.042243719100952148e-01
4.442385327239776194e-01,7.758553244794311188e-02,4.454572778441065473e-02,5.290674443040284392e-02,1.154431336786543132e-02,6.694912774223240985e-03,3.956916034221649170e-01
4.007035661031206897e-01,6.317438974074243707e-02,5.811432674568065004e-02,6.074908509361075411e-03,-2.448060441351868413e-02,1.763206697428343448e-04,3.428821563720703125e-01
3.340181681015891302e-01,5.396655439098997642e-02,4.971409986506876433e-02,7.450093631865963928e-04,1.393583760771006409e-03,1.070563872232608259e-03,2.822212278842926025e-01
3.561152352401610321e-01,6.004385572826079209e-02,7.303844462743745714e-02,3.293863301605608716e-04,-8.405355471129618162e-04,4.825671977011974706e-05,2.897969186305999756e-01
3.301848654610211042e-01,5.114551762350702524e-02,3.976522663736999086e-02,-1.199033008499698297e-03,1.078877895810412399e-03,1.290021480297903582e-03,2.849224805831909180e-01
3.399198854367421752e-01,6.025942428690118924e-02,5.533881704807022683e-02,3.693595969541363464e-03,7.096412377845384180e-03,1.737126236083692279e-04,2.824931442737579346e-01
2.760463328050186682e-01,3.464277815906664781e-02,6.224028883528815587e-02,2.920022967701433464e-02,1.819334811233423678e-03,3.564509273259397742e-03,2.344806343317031860e-01
3.403197561305953966e-01,6.177163725397356864e-02,3.647075524862793128e-02,1.030809935043268052e-02,-4.729386589467040464e-02,5.117706351330342067e-03,3.039476573467254639e-01
3.627347976452587885e-01,5.441969569848609245e-02,5.894043215808277003e-02,1.387351295682760950e-02,-1.424625350211380231e-02,8.929042081316184570e-03,3.083995878696441650e-01
3.397316244266225249e-01,7.397697643608640294e-02,7.116888515222775935e-02,8.183196008087804951e-02,-7.347228255763604832e-02,-1.583304430266106169e-03,3.281328082084655762e-01
3.103958888617274203e-01,4.630193624436668154e-02,4.646714938862064881e-02,4.750474184499310637e-02,-5.688212143117084285e-02,7.530167428614157124e-03,2.938519120216369629e-01
3.473445651514994736e-01,5.820733729007418478e-02,5.726355606653658892e-02,1.141982673889056776e-02,-4.838739703767139244e-02,3.312849034102980945e-03,3.021957874298095703e-01
1.574901165344180787e-01,5.690805562332307971e-02,4.705525539337239438e-02,4.276518329936992990e-02,-4.099999099912252087e-02,7.544294937829675897e-03,1.480039656162261963e-01
3.089417553847041420e-01,5.932257184762729230e-02,4.863667172173916087e-02,3.442800077399855822e-03,-9.552154088965109091e-02,1.442652059442330395e-03,3.041483759880065918e-01
3.814131604260366792e-01,7.231326968469389826e-02,6.800353153161806108e-02,6.402529505421017397e-02,-9.018880698292837395e-02,-5.301485259712892563e-03,3.656194210052490234e-01
4.651500057193580506e-02,4.521563238306999799e-02,4.312323795170881074e-02,2.138341977552120354e-02,2.904442583518270990e-02,1.309020101213147907e-02,6.652317941188812256e-02
2.418905316704000330e-01,5.247648941065388706e-02,5.681233536383535621e-02,3.933545799554549055e-02,-4.725750455608726530e-02,1.612085862626226954e-02,2.172475606203079224e-01
2.030627088842810180e-01,6.556162958344990965e-02,5.857417055246714327e-02,3.951181437404133884e-02,4.845058964398808038e-02,1.270126118557953973e-02,1.792374104261398315e-01
3.230085036183341085e-01,3.088351112996069736e-02,5.895947812146407063e-02,-3.145642108534307227e-05,3.864099948386948147e-04,2.520659889883087104e-03,2.791829109191894531e-01
2.090973878426099497e-01,7.454378376473846934e-02,6.617639470547552472e-02,-5.234724267206598489e-03,1.953109415098620502e-02,3.905330498508413194e-03,1.434325575828552246e-01
1.904907109824535705e-01,7.019564997181881871e-02,6.251831763010134990e-02,2.882978979263553076e-03,2.085985633349930410e-02,2.718117421485768959e-03,1.296375244855880737e-01
2.012521016665083373e-01,6.649973469348380295e-02,4.415286173109985585e-02,5.426998150925828324e-02,3.545381333183472011e-02,-1.109688867255694510e-03,1.851463764905929565e-01
2.640774622987336340e-01,6.793455012172203156e-02,5.114653132076533992e-02,-2.465442604321911829e-04,4.645039237095922868e-02,-1.274613526403770144e-03,2.202832400798797607e-01
3.887468700554378986e-01,7.495304205898083161e-02,8.269597523372639036e-02,-4.074848789684713118e-02,1.045249335159815218e-01,-2.613081151809172609e-03,3.658893704414367676e-01
3.591638659979805026e-01,6.311849878194839003e-02,6.695611872397429221e-02,-1.224555226301212059e-02,8.282873950295889520e-02,2.939158025210072619e-03,3.279924690723419189e-01
3.326435612522916085e-01,5.299287469371806447e-02,5.168644541916332658e-02,-2.849614490642198017e-02,3.881889022901432312e-02,6.604065897060550951e-03,2.926759421825408936e-01
3.722023771014064120e-01,6.136560205467848916e-02,6.118339174678899539e-02,-7.390758657782159347e-03,1.997331165893918847e-02,6.271091269170707763e-03,3.132967054843902588e-01
5.382308705436784635e-01,9.122915039647089275e-02,9.843773162541069599e-02,-1.212211988423339418e-03,3.573260485436221406e-02,1.383529627396625633e-02,4.483852982521057129e-01
3.856822491186061574e-01,6.388839469197875320e-02,7.168829282186155172e-02,8.235618649997254043e-03,-8.286116018571487718e-03,6.992275093574509305e-04,3.186111748218536377e-01
3.324514491669902094e-01,4.229524334502074434e-02,4.719742436410652442e-02,2.417940638780408872e-04,-2.768560569142155484e-04,5.568546388678649334e-04,2.877387702465057373e-01
3.314974499228134919e-01,4.295440922526955196e-02,4.946403701006354958e-02,3.188640678404544202e-04,2.970992341940570467e-04,6.838985770327856524e-04,2.853473722934722900e-01
3.298976194564223752e-01,3.956105393655763580e-02,5.027300181480885699e-02,6.398042438251114704e-04,-4.654260190315256626e-04,1.282749454132489338e-03,2.851434946060180664e-01
3.143868214828139385e-01,5.308885880604713448e-02,3.211880934742444849e-02,1.318488822716037262e-03,-3.287485955762827101e-03,2.565058192532032252e-03,2.724943459033966064e-01
3.306762561710481219e-01,4.496195023219891340e-02,5.299704712985198185e-02,7.584572858745752388e-04,-3.269948244708337560e-06,1.309051245457811940e-03,2.817948758602142334e-01
3.218070066672724661e-01,4.869412411026778631e-02,4.031310314692819474e-02,1.443168254155218020e-03,-1.451333496850193113e-03,1.212785470796126771e-03,2.774289548397064209e-01
3.306036675874304276e-01,4.017960683037360980e-02,5.051470162905995209e-02,1.100357270666489244e-04,-4.576030937273257082e-04,1.288845427332480217e-03,2.854067981243133545e-01
3.340419164319191614e-01,4.810684990716887488e-02,4.941099958940411985e-02,1.135248330268855610e-03,1.167581606586832522e-04,7.934817756919178853e-04,2.852953970432281494e-01
3.353331427245918039e-01,5.360360276613265751e-02,5.335166174057084931e-02,-7.362096377459375869e-04,7.563724577085379017e-04,3.079875743745242624e-03,2.819119989871978760e-01
2.304945321965655158e-01,4.403967575297694503e-02,5.032396123277708966e-02,-2.603427485667735367e-02,9.125272069222017945e-02,1.193376925126018659e-03,2.462761998176574707e-01
3.147536569158482789e-01,5.865464925455017575e-02,4.570849533851720214e-02,9.618589326683718577e-03,1.838074846929999007e-02,-3.576045587456169999e-03,2.653286159038543701e-01
3.228685595154074384e-01,5.952568516240684671e-02,3.108954705819046149e-02,1.506850296824377260e-04,-5.090599910607665132e-04,-9.408962948885848628e-05,2.786528468132019043e-01
3.176955282945612691e-01,5.512808285525469532e-02,4.110775509272991679e-02,1.745659004218831981e-03,5.610598908291376634e-03,-4.591871780588968437e-03,2.701598703861236572e-01
2.940544438874497235e-01,6.759886983932815452e-02,3.792584076235341883e-02,1.826603518759947753e-03,1.237849855245371986e-02,1.156872652644503523e-03,2.436307519674301147e-01
2.915782892512329694e-01,4.769860867865334531e-02,6.555992663545388843e-02,-5.649431741528542633e-02,3.042952505442030053e-02,7.669313148003989791e-03,2.607095241546630859e-01
3.977000339793215211e-01,7.440234082365067281e-02,7.136190161912686625e-02,3.276703574756552328e-02,9.935531305541601965e-02,-2.637849585705032054e-03,3.719811141490936279e-01
3.767144769297428031e-01,6.115688741641563120e-02,6.270668867240908328e-02,4.333855322109354986e-03,3.307877405156152417e-02,2.942589297543628420e-03,3.200857341289520264e-01
3.579063858309469159e-01,5.954418889622430100e-02,4.480899502959630187e-02,3.533230368364006883e-03,4.464993996110375174e-02,7.403999680528512966e-04,3.156794309616088867e-01
3.417484655479119948e-01,6.339712430944491328e-02,6.958352571476356108e-02,1.384832440699316570e-03,-7.801379492254303287e-04,-1.532290594474781638e-03,2.753368318080902100e-01
3.068064494102764606e-01,6.377803220760062952e-02,4.970534986929829591e-02,-1.454966539970559830e-02,2.791574339643732028e-02,1.278056407289824073e-02,2.571845352649688721e-01
1.732537070291196857e-01,5.723289145586799714e-02,5.950385079733647858e-02,-6.351682909538747257e-02,4.452364676691577400e-02,6.891313072573331498e-03,1.771869212388992310e-01
3.234087142628355727e-01,3.496149240611250153e-02,5.836301571625129858e-02,3.910659853931019244e-04,5.426202416728217884e-04,1.441632267552107622e-03,2.775011658668518066e-01
1.912317839721974222e-01,5.637916614314265190e-02,7.408619119231030226e-02,-4.035745423393329728e-02,1.939437824064084437e-02,4.320251190247616918e-03,1.489346176385879517e-01
3.008877712107610458e-01,6.610543575911580205e-02,5.998093492669381854e-02,-4.504749384889474191e-03,1.931763833408984762e-02,1.402980108974155593e-02,2.415969371795654297e-01
2.842298468301223680e-01,6.366245774362663812e-02,3.543210869688312448e-02,-6.108992017129085631e-04,1.188567901111141356e-02,2.738087523685620635e-03,2.368987947702407837e-01
1.664621055068814803e-01,7.989264615660578162e-02,7.511558886263838830e-02,4.012738171644673370e-03,-7.861466275669269643e-03,5.557726437802977711e-03,9.086813777685165405e-02
1.923196042798747118e-01,7.082483001644782061e-02,6.632451858695723179e-02,-1.389102031241794440e-03,1.267202276723352998e-02,5.817362571229084400e-03,1.261627972126007080e-01
2.024080734102535750e-01,5.904800665270668047e-02,6.524243672470941835e-02,-1.772285328380316868e-02,1.612230231253624149e-02,7.822092640906792155e-03,1.469968855381011963e-01
2.651431032386389886e-01,5.689698717201351064e-02,5.243587753713198352e-02,-2.261242452795149144e-03,1.199485102498571397e-02,9.814091178501040819e-03,2.122528553009033203e-01
2.886773038354938370e-01,6.222229692241261489e-02,3.663756695407477393e-02,-4.543819577725319997e-03,9.759536704140710228e-03,4.402641738769579038e-03,2.411142289638519287e-01
2.370109784405300679e-01,6.125224382489296432e-02,4.923685426717180902e-02,4.905109993955564934e-03,1.890134816001312959e-02,-2.598255518110912190e-04,1.851795762777328491e-01
3.359989668574418498e-01,4.191249748549476239e-02,5.470012018124692510e-02,1.357392812913154560e-03,-9.604137795294487171e-05,-1.798803678577003259e-03,2.879322469234466553e-01
3.377205527022908438e-01,6.090484592989181545e-02,5.847128738292442507e-02,-2.051765846487902441e-03,-2.139178556768013464e-03,5.109967215136773612e-04,2.780892848968505859e-01
3.346934316751438709e-01,4.172857776281441167e-02,5.445422791002001162e-02,4.265517981085734274e-03,-2.023028514695639527e-04,-3.881588183684847333e-03,2.869879603385925293e-01
3.370914228349231045e-01,4.954832556411586930e-02,4.955882189236958391e-02,-4.448500610593947616e-05,8.796306267277284770e-04,-1.897201427266420864e-03,2.875606715679168701e-01
3.303525811397597378e-01,4.569559677840018264e-02,5.056247362117155530e-02,1.467417607169790731e-03,3.312539027963535654e-05,-3.782605498273926108e-03,2.823424935340881348e-01
3.860017165370277503e-01,6.975539285035269044e-02,6.369350746164406663e-02,-1.118471347755596070e-02,1.310702596831892896e-03,1.921789742945878132e-03,3.199329078197479248e-01
4.737955831690162656e-01,6.841270112562433670e-02,6.246780898547946159e-02,-4.979858056269053507e-02,-9.020117697881394406e-03,-1.265476321267897108e-02,4.182640314102172852e-01
3.042554516361658523e-01,4.294263673884157750e-02,5.449097146505825495e-02,1.445168434063135235e-02,-1.052233668428856177e-02,1.083185417661899040e-02,2.582841813564300537e-01
3.027726062118022421e-01,3.589085582196793744e-02,5.893887299014748116e-02,1.288439208034512784e-02,-5.876866873263868890e-03,6.440696042654675893e-03,2.575501203536987305e-01
3.153653131344972271e-01,3.750646365763860013e-02,5.599191096532220302e-02,-3.199325302537806264e-03,1.691701191620464603e-03,3.666026531819600257e-03,2.692406475543975830e-01
2.990806036988594707e-01,3.804608529247864579e-02,6.884446222913129243e-02,-2.809554997056060502e-02,9.543309659348589435e-03,1.940339197473741695e-03,2.523900270462036133e-01
3.364423942993861605e-01,4.650969387325440407e-02,5.728375157628967651e-02,6.966037256589267639e-03,6.543648521371817246e-04,3.668989526517757015e-03,2.850272655487060547e-01
3.452958159516440473e-01,5.960982271092665763e-02,5.672675153526271496e-02,1.029044759355636322e-03,4.049809740216033134e-03,-5.269428206843534534e-04,2.872310280799865723e-01
3.300548077085354026e-01,4.196666321559473778e-02,5.352302941056766294e-02,-1.937984545595382475e-03,6.328911025541170089e-04,1.442836168161190343e-03,2.825204133987426758e-01
3.264952944357771836e-01,3.634076638878007415e-02,5.584394537046605267e-02,-2.893423892163825457e-03,2.690574778258428886e-03,2.269665814183736627e-03,2.810220122337341309e-01
3.293021989117075332e-01,5.191346857165857198e-02,3.923372620539528066e-02,-3.269037898376480548e-04,5.292424878676520649e-04,1.774993201896299692e-03,2.839597165584564209e-01
3.310267067960692700e-01,4.530625505977441125e-02,4.498302444038801418e-02,-2.417420897400674590e-04,7.812939970052067617e-04,1.277089253578786790e-03,2.858942747116088867e-01
3.289098784188652091e-01,5.478726171688211299e-02,5.209460887497557868e-02,-2.491292465441251065e-03,6.915385116540650849e-03,1.933305709152895440e-03,2.757931649684906006e-01
2.781687766526701466e-01,5.181771764072842790e-02,3.886600827028886818e-02,1.514520698301600153e-02,5.910151663305833469e-02,1.070141798348424626e-03,2.559388875961303711e-01
3.877222160950199448e-01,4.415067056994854966e-02,5.501961155909938783e-02,8.145153262108495093e-03,5.835188967239389977e-03,1.176423004225102915e-03,3.387190699577331543e-01
3.408205972364791170e-01,7.255211970843707114e-02,6.212026505244543084e-02,-8.398559362220236817e-05,4.348181334043492961e-03,-4.404607127098589085e-03,2.738435268402099609e-01
3.552866959843098971e-01,7.526499649272679060e-02,5.927012421494577687e-02,-1.300032118667464971e-03,2.219951444570538324e-03,-9.771293891945266250e-04,2.883914411067962646e-01
3.414453083326174365e-01,6.838291844975390166e-02,5.666294314662867482e-02,2.334245862743969131e-03,2.922604794564749586e-03,-7.442529687031306657e-04,2.791851460933685303e-01
3.546566943465887523e-01,6.729491470037483880e-02,5.719395033243797333e-02,-3.812571168538078301e-03,2.081564151935285257e-03,-2.132405138311816405e-03,2.926631271839141846e-01
3.311778498648842994e-01,6.197523643947333571e-02,6.303743620408799875e-02,-1.335002555327825075e-04,-2.386978648260451499e-04,4.536356135361124071e-04,2.686746418476104736e-01
3.303219862807791896e-01,6.159568882573786264e-02,6.281774189649499962e-02,-5.624644189821674696e-04,-6.962091431714910624e-05,4.930862540342059990e-04,2.681205272674560547e-01
3.316924230304991172e-01,6.120314820022461355e-02,6.165142748882003476e-02,4.740601136891830521e-05,2.588805978015845622e-04,-2.446419369619147162e-04,2.702661454677581787e-01
3.261814616929578081e-01,3.732018890234030384e-02,5.643021494006125738e-02,6.644948376873555280e-03,5.014106999160305002e-04,4.800413432012651249e-03,2.801575064659118652e-01
3.495186304597110993e-01,6.152691141497906857e-02,6.114518769468284265e-02,-2.433419860392432247e-03,-2.828681808308993080e-03,1.269222952122516868e-03,2.882636189460754395e-01
3.366465567640199996e-01,5.497550754217145341e-02,5.393099402921856800e-02,-1.502846964414203618e-03,-1.395288226236323682e-03,-1.213127555712276151e-03,2.822249233722686768e-01
3.356155440034541138e-01,6.192067941218511173e-02,6.900186381189511720e-02,-4.202853351412540010e-04,-4.991416965559223543e-04,-1.875420831164815831e-03,2.702457606792449951e-01
2.945795222777018996e-01,6.005114546917963980e-02,4.041226630646697904e-02,-5.390949307532373613e-03,1.372670584491366211e-02,9.914275506372589863e-03,2.468652576208114624e-01
3.351557051907582130e-01,5.857698707100753022e-02,4.578995320009048020e-02,2.220853139687957716e-04,3.849579848579436862e-03,1.465313676176870994e-03,2.832789421081542969e-01
3.441214369762959358e-01,5.863648172431443206e-02,5.533642581747036382e-02,-1.365321769935010999e-03,5.498751168539644553e-03,2.761332505944802135e-03,2.873566448688507080e-01
3.338227314132309331e-01,5.984959661829050703e-02,6.264356010414745546e-02,-5.970228819671015690e-04,1.124877461396189956e-03,-2.440737055420592709e-04,2.725961506366729736e-01
3.313100713977354950e-01,4.830770675949737358e-02,4.469533454132865180e-02,-2.638734769071533239e-03,2.153465998297129230e-03,3.972120041041963222e-03,2.849698662757873535e-01
3.298769249593083153e-01,5.238260034314946856e-02,3.915305305174614225e-02,-1.131901338758844588e-03,7.787441093567940703e-04,1.953895620489371886e-03,2.843701243400573730e-01
3.261158937864998553e-01,5.381157860937604842e-02,4.033740764099147391e-02,1.293725957133684936e-03,1.996889849458251091e-03,5.549415766287345460e-03,2.794810235500335693e-01
3.278128781650966328e-01,4.992509104145023691e-02,4.506755885370501702e-02,6.203219421547120612e-04,1.550865107910799666e-03,4.831732858525207563e-03,2.804879248142242432e-01
3.312896780545246944e-01,4.799251907953483443e-02,4.227531305711809684e-02,5.612128108750640004e-05,1.812001421444625618e-05,1.738034895346122826e-03,2.862144410610198975e-01
3.292344513057711142e-01,4.811757148271537943e-02,4.384009581904436958e-02,-6.705502371567197270e-04,1.647773496229074488e-03,3.274355244950931994e-03,2.833533585071563721e-01
3.363344020490475206e-01,5.416283382097712706e-02,5.189767648013872414e-02,-1.024122978440296372e-03,-6.141237761094914000e-04,-2.271894542235543409e-04,2.833187580108642578e-01
3.362876232626924033e-01,5.391999536224657830e-02,5.552553619923476791e-02,1.030174266027639608e-03,-1.479891979934273372e-03,-6.109224993905253143e-04,2.815876007080078125e-01
3.345893632864685996e-01,5.373244242102910573e-02,5.591901861384213079e-02,-1.642058605978237050e-03,-3.139783850840131472e-04,-8.578103801199512234e-04,2.797889709472656250e-01
3.340980253501436570e-01,5.934452299895845440e-02,5.920300890655570691e-02,-8.994793770343453799e-04,-1.126203392049956835e-03,1.933636884351785999e-04,2.748358249664306641e-01
3.349341758340584896e-01,5.662538831390952210e-02,5.874526775395670641e-02,-2.089869646402375966e-04,2.504927105315979272e-05,-8.784288445105817994e-04,2.772593498229980469e-01
3.324125115758734261e-01,5.874046012100732350e-02,6.073563464114084542e-02,-1.165881527804465620e-03,-2.046965889973337142e-04,2.533417413125224615e-04,2.726880013942718506e-01
3.368952611130048846e-01,5.492994576831057574e-02,5.607917961935270090e-02,4.017087791541249235e-04,-1.025130621784579952e-03,-1.241951440799022753e-03,2.814071476459503174e-01
3.320291158103481077e-01,6.174088385493441133e-02,6.132530780699153861e-02,-2.190424359648844945e-04,-2.082142065855988836e-05,-3.823634894294294776e-04,2.704973518848419189e-01
3.321853432916604953e-01,6.204547703784048240e-02,6.261344115313806358e-02,-7.874290273121081676e-04,-5.363609470651119291e-04,1.474901593808777573e-04,2.698614895343780518e-01
3.372273231933677895e-01,4.707636725859275229e-02,5.018990346543625303e-02,1.333086108078284640e-03,-2.229395501697565283e-04,-2.844861598538574350e-03,2.886583507061004639e-01
3.536324312918663892e-01,7.070227823906934106e-02,6.260083445733503893e-02,1.112381099287484271e-02,-3.367648550062380623e-03,-4.822871823074772676e-03,2.878928184509277344e-01
3.327548579278686303e-01,6.155836028738252697e-02,5.822109717218926228e-02,-8.444828784356109503e-04,1.295927598722787163e-03,3.902002951098158682e-04,2.728944122791290283e-01
3.195491895992746967e-01,4.060955240592779847e-02,5.710703805652536658e-02,-1.509405452933892944e-02,1.268885564538318848e-02,5.194668377835220952e-03,2.733590304851531982e-01
3.341662441769956970e-01,5.698052505012060620e-02,5.497137158311468652e-02,-1.175233893397324572e-03,3.834634154207165009e-04,1.902991889777291270e-03,2.782235145568847656e-01
3.353761304594724546e-01,5.549801589332228891e-02,5.710123783237575079e-02,-9.106482960936563772e-03,4.872045903040063929e-03,1.675395067430019347e-03,2.796677350997924805e-01
3.358312281749636918e-01,4.959608926297802423e-02,5.818322631567972303e-02,-9.286346164341464926e-03,4.097181809394703257e-03,4.450587710128335248e-03,2.826921343803405762e-01
3.161931674531384129e-01,3.851762908148623210e-02,6.335164709812253492e-02,-2.589091300923034716e-02,5.965716768125612843e-03,1.147497142942864286e-03,2.700858712196350098e-01
3.513485793369803822e-01,3.400239711934252562e-02,5.650925838081297115e-02,-4.185130385943404419e-02,4.664877516497623750e-03,1.841434117790365652e-03,3.152820169925689697e-01
3.145693554946075166e-01,3.602793438431109441e-02,6.219646840780518326e-02,6.487493636990962140e-03,-8.156687189350836364e-04,5.852070052763076041e-03,2.668559551239013672e-01
3.637271355287513552e-01,7.942350085474661481e-02,6.692842436461868272e-02,9.609813740272747651e-02,-4.538873394907376457e-02,1.455952118393729873e-03,3.441342711448669434e-01
2.498843885461298764e-01,5.578992745912791235e-02,3.793441575869460625e-02,1.146625766920447709e-02,-2.282630760067976688e-02,1.149220713701498697e-02,2.093105167150497437e-01
3.836668039564570254e-01,6.121884551894221649e-02,6.394967100919554670e-02,1.155526938383333833e-02,1.902755406166709322e-03,5.910663214471611072e-04,3.217329382896423340e-01
3.452058550983826413e-01,4.700356111995812602e-02,5.538032511813029135e-02,1.907596250767740198e-02,6.047975823163387853e-03,-7.269807765418695531e-04,2.961415350437164307e-01
3.436305292484318485e-01,5.662944732358687894e-02,6.391097340590190523e-02,4.637370640949944889e-02,-8.132163670311805823e-04,5.949985656634948321e-03,2.947754859924316406e-01
3.382507624197083618e-01,4.597139049128272370e-02,5.745769651639111297e-02,1.190395808995288289e-02,-1.687393576458754135e-03,4.444934706103142313e-03,2.875671684741973877e-01
3.712380833437471384e-01,5.943407962537210210e-02,6.391662062420515322e-02,1.236163106149823325e-02,-8.912260651840994349e-03,2.759074902666473501e-03,3.107470273971557617e-01
3.274191355513765833e-01,4.557404359977874908e-02,4.596835517392827697e-02,8.253320719948718613e-05,3.707056852249380249e-04,3.681797803495993806e-03,2.817210853099822998e-01
3.072758933131462533e-01,3.590123863804817184e-02,5.337661390063284939e-02,-9.275192696542788537e-03,2.828299752025287793e-03,5.635616439509188134e-03,2.637889087200164795e-01
3.306460027943453062e-01,5.169911463827583931e-02,4.223202631071490409e-02,-1.079643863866720267e-03,1.986972643826996968e-03,3.073298443637122179e-03,2.838758230209350586e-01
3.213449092838339127e-01,5.015085088141575664e-02,4.175823545280042681e-02,-1.783259268415894475e-03,5.071052729203762849e-03,3.719536657539438112e-03,2.757188379764556885e-01
3.320026035698609990e-01,5.147840118869803638e-02,4.017212366348019148e-02,-3.943539012277897803e-04,1.486676262459552932e-03,1.658016699313819313e-03,2.863715887069702148e-01
3.311281759861727791e-01,5.343346826071579403e-02,4.480964980386491214e-02,-3.048021136189963320e-04,-6.526863419796898784e-05,1.309641915235641458e-03,2.821151316165924072e-01
3.267281330422930896e-01,4.989861575613836753e-02,3.871536716152339241e-02,-1.384793657555715221e-03,3.013046817702914187e-03,4.914531548431668763e-03,2.827736735343933105e-01
3.124448639467284350e-01,4.495225011259552927e-02,5.871777704376107687e-02,-2.752677698391840701e-03,7.262604430612945236e-03,9.105001928527060515e-03,2.617045640945434570e-01
3.298035661331650825e-01,4.228890633583798353e-02,5.072314149190139398e-02,-4.954365460480098134e-03,2.036697180497803409e-03,3.955687097821351979e-03,2.836262881755828857e-01
3.375474867982292126e-01,5.458825994011928806e-02,5.871269287493248445e-02,-1.459928094067290943e-03,2.528671163264802849e-03,7.122873909332596469e-04,2.809679508209228516e-01
3.646016448819416333e-01,5.837972322894213750e-02,6.174176082863722104e-02,-4.802075860197294738e-02,-5.198085708766374269e-02,-2.030561522386199573e-03,3.283138871192932129e-01
3.784313184882321934e-01,3.802357571509332179e-02,4.843407977845164136e-02,-4.230587485413191129e-02,-2.402750864123044325e-02,-1.586451272423689690e-02,3.468405604362487793e-01
3.281070355747567335e-01,4.021932742741879396e-02,5.454592443602510055e-02,3.317814172355792925e-03,-3.138173029080181149e-03,5.516409225692958142e-03,2.812720835208892822e-01
3.459866535442039925e-01,5.887369881730894483e-02,5.839309015173613227e-02,3.221814702882544630e-03,-6.963604744713366036e-04,-2.141860858589854800e-03,2.874342203140258789e-01
4.639722948809500980e-01,6.120755336527869406e-02,7.481555345839649429e-02,-5.807961142542714811e-02,-1.679987981621953617e-03,-7.227525230915422469e-03,4.089115858078002930e-01
3.407754334749573677e-01,4.538418305640196104e-02,5.618290460333384695e-02,-1.374746106516979392e-02,-7.608077656242811593e-04,-2.244525801212897062e-03,2.911470234394073486e-01
3.753183222110177963e-01,4.704891860505051870e-02,5.686709189277136534e-02,-3.241157082373093828e-02,-1.635184853224322041e-02,-6.772261192411220543e-03,3.297354280948638916e-01
3.733564440087484559e-01,5.789377429007240561e-02,5.921535339758862704e-02,-2.136376496098919830e-02,-1.398119012192314790e-02,-6.734642369695085194e-03,3.181088566780090332e-01
3.345379745208542088e-01,4.959399429058362896e-02,5.407564492937563805e-02,4.406324899359635901e-04,7.293320819547781039e-04,2.559836848883216120e-03,2.827683985233306885e-01
3.408595252759235583e-01,6.530167662030181286e-02,6.171255369978538574e-02,-2.017341637836599696e-03,3.092846489192157492e-03,-1.154192637492755942e-04,2.774436175823211670e-01
3.422149958959333493e-01,5.788957339257802537e-02,6.537987205660819590e-02,2.047442503615010383e-03,2.491116089292999027e-03,5.899704374150835286e-04,2.807126641273498535e-01
3.529957003283740180e-01,5.850810190663822963e-02,6.063182313045958893e-02,7.104199539865818126e-03,-6.829569567437924517e-04,2.361830754434807254e-03,2.937202453613281250e-01
3.403604030840879924e-01,5.703184356813160993e-02,5.868083515287941809e-02,4.617894232129473621e-03,-1.095724330485659198e-03,1.476562397595285528e-03,2.826388180255889893e-01
3.376543968291505493e-01,4.688510177342912477e-02,5.714956824812437997e-02,7.892328618408965199e-03,3.037074763660959948e-04,2.860899483114355893e-03,2.861455082893371582e-01
3.366861680308514959e-01,5.853110016744338118e-02,5.429173093523401161e-02,1.733188802115130265e-03,-7.318458732166434810e-04,7.064625018108511593e-04,2.803204059600830078e-01
3.402503230729583272e-01,5.782293442272491701e-02,5.351322337211292246e-02,-1.245810358009274803e-02,3.826549172943543436e-02,3.945411664940794497e-03,2.930973172187805176e-01
3.386383810063374189e-01,5.615166919642680665e-02,5.100244971101433600e-02,4.028543695821704823e-03,5.788809476743728491e-03,-2.352945201687600164e-03,2.853868901729583740e-01
3.316375599388086126e-01,4.909785298455165981e-02,4.719743703632364729e-02,-2.690236051070313272e-03,3.230163610228932794e-03,2.715374383239317884e-03,2.836271822452545166e-01
3.211387670566027697e-01,5.102151610534730319e-02,4.544665167329652034e-02,-1.066509246162828826e-03,3.512885512727575987e-03,7.679939655594610927e-03,2.733452916145324707e-01
3.338539912992332104e-01,6.019879353871553096e-02,5.424313350625981078e-02,7.464311842212289388e-05,6.080361107662687198e-04,1.099639151713856884e-03,2.766897082328796387e-01
3.309979322717772621e-01,4.994069410725054947e-02,4.966524379138970158e-02,7.854126657684327691e-04,1.134259089170290818e-03,1.973421286410127816e-04,2.812054157257080078e-01
3.337876131060306117e-01,5.673563586413053750e-02,5.388447511567986958e-02,1.153515331482636184e-03,-3.067453539888112502e-05,8.579547067679461892e-05,2.784957289695739746e-01
3.326526775283241144e-01,5.017872785974629435e-02,4.827669151848522355e-02,1.300875239626565500e-03,-2.572565767341159545e-04,5.485963300318876055e-04,2.834406495094299316e-01
3.329512230685659491e-01,5.348694207711997273e-02,4.904336477655343862e-02,-2.419630033071105946e-04,1.124274868273063884e-03,-5.491659181306179785e-04,2.817209959030151367e-01
3.228367902024373848e-01,3.720694994624769436e-02,5.967620086953666358e-02,-5.925087293273100138e-03,-2.492487380821093021e-04,2.670528921059460176e-03,2.753148972988128662e-01
3.352195849390477433e-01,5.154541883763646970e-02,4.859883270058287796e-02,-1.562340978075933695e-02,7.880628782982871880e-03,5.933462077098018532e-03,2.869490981101989746e-01
3.343821037393287510e-01,5.782388425692865097e-02,5.345549453741793577e-02,1.803050354045994830e-03,-1.080279131229504763e-04,4.603894460636895791e-04,2.787867784500122070e-01
3.560567999937817030e-01,5.768134794523643860e-02,6.139189356823129828e-02,-6.192863232621647479e-03,5.208836071060651829e-03,3.023398901821352895e-03,2.969148159027099609e-01
1.863368459919116371e-01,5.017622697122014336e-02,4.644517197038747908e-02,6.837051869660605921e-03,5.495109822983618164e-02,7.339852819556661259e-03,1.685893982648849487e-01
2.402612543035482218e-01,7.397919983513892572e-02,5.284748088305107894e-02,1.566059540126109057e-03,1.639071362995906875e-02,6.429881296437693974e-03,1.804091185331344604e-01
2.998752797254951585e-01,5.853043749526300188e-02,3.923692262963164590e-02,6.603106245293702747e-04,7.649060342168766471e-03,-6.699691953521550586e-03,2.521655261516571045e-01
1.593483870303282202e-01,6.137725840061598187e-02,7.018036164378155251e-02,-2.569051128222474278e-02,-5.265314356069236701e-03,9.682830509259947706e-04,1.043042540550231934e-01
2.481197749380318340e-01,5.324909241884261124e-02,5.838482319971367157e-02,-2.053978685037136098e-03,-8.828807777838353771e-03,-7.777345979770731305e-03,1.934634745121002197e-01
2.710483817424921837e-01,5.326733730619068186e-02,4.427848782413341955e-02,-1.444786719132681776e-03,-1.128468381377969315e-02,-1.004068685474789752e-02,2.239592075347900391e-01
2.152344829785730052e-01,6.827027612033394199e-02,6.230060851684815493e-02,-1.135764255992569851e-03,-1.818255595734985172e-02,-4.172592991835891336e-03,1.534905880689620972e-01
2.243784904348390674e-01,7.168723992327694083e-02,5.592325060610845583e-02,-6.982606299808697542e-03,-2.671249373199143570e-03,-2.096842994070074323e-03,1.617127507925033569e-01
2.438618823104991007e-01,7.206274096935758045e-02,4.397853662097772620e-02,-4.432922436142930529e-03,-2.011066884439593680e-02,-5.033379949199138928e-04,1.907918751239776611e-01
3.371009538173569964e-01,5.406410774323447410e-02,4.908828486003070923e-02,-2.160066254180439699e-03,-1.313722426136570455e-02,-7.169492944188374586e-03,2.867558598518371582e-01
3.411388691146451935e-01,6.296457084741516330e-02,6.147569941385971903e-02,1.763537301889138821e-03,-2.033047844289544593e-03,1.643052048343051231e-03,2.789751887321472168e-01
3.365198048480286253e-01,5.907346889266856804e-02,5.816897235182040549e-02,2.132993703265649512e-04,-9.416727839875145079e-04,-2.770293302611355035e-05,2.779047191143035889e-01
3.512995156187275203e-01,6.496340418053157817e-02,6.390259221410113377e-02,-2.446325680611345990e-03,-2.688634839667005273e-03,2.540770533146293961e-03,2.869708240032196045e-01
3.401949717866592504e-01,6.852168649955026059e-02,6.064325470380010907e-02,-9.235981844322017995e-04,-7.954086411995328664e-04,1.067198653712272353e-03,2.757112085819244385e-01
3.341842158479685909e-01,5.585183545060611043e-02,5.641226226939993760e-02,3.949595341818602150e-04,5.778812185026596833e-04,-2.000523007480826433e-03,2.780768275260925293e-01
3.378217342536878331e-01,6.974587691817776824e-02,6.194423841009999432e-02,-6.730501397101203327e-04,-5.915811335299084707e-04,2.884961030594848392e-03,2.721109092235565186e-01
1.435035538294441304e-01,4.558032762366411722e-02,5.404112967209585838e-02,-4.902384972885528297e-02,-3.845783668569670993e-02,-1.655638439912574325e-03,1.431338042020797729e-01
2.025540403832624126e-01,6.482354087749156446e-02,4.379384351069451342e-02,-1.323692524542035599e-02,-4.297434382101631561e-02,-5.837559578955088709e-03,1.687502115964889526e-01
2.331729046058324539e-01,6.442208992479719898e-02,4.900082161502447575e-02,-1.895515983013261810e-02,-3.908010821040782540e-02,-5.969651384614417002e-03,1.925709545612335205e-01
1.701344079589630631e-01,5.485843771139767983e-02,5.920688419942103653e-02,-2.841890554584927675e-02,-4.252068979634587853e-02,-9.915988869353548063e-03,1.447345763444900513e-01
2.280665977694313895e-01,6.195381446460922897e-02,5.350521378664048477e-02,-2.913930493062381888e-02,-2.762937665261665579e-02,-6.885258494051359722e-03,1.845207810401916504e-01
1.846337515601081392e-01,7.412689134614230957e-02,7.201824722466608486e-02,-4.303443647897668353e-03,-2.899354883653932832e-03,2.327298432799916779e-03,1.120100840926170349e-01
1.498531641855633256e-01,7.271006047886849344e-02,7.002182554917861512e-02,-1.456584793402801795e-02,-2.916515639787321812e-02,3.042657347553458496e-03,9.685942530632019043e-02
9.056899278398475306e-02,5.537839573452447289e-02,3.646163864476574534e-02,-3.572506078452867412e-02,-2.752511695713696221e-02,1.274809696075031480e-02,9.408077597618103027e-02
9.212217356510753186e-02,5.845873302296797358e-02,5.954341442654536437e-02,-4.413439836879339689e-02,-2.053686292935267069e-02,2.193573727694697346e-03,9.067054837942123413e-02
3.495762802656897650e-01,5.688260748968101965e-02,6.589538388346559417e-02,1.348147808270500937e-03,5.663040803157581501e-03,1.806142894088442498e-04,2.884694039821624756e-01
3.374039467836296158e-01,6.012455124129584272e-02,4.049387598563228274e-02,3.377417576818116021e-03,8.914975584412968002e-03,-2.657252490736153241e-03,2.881080508232116699e-01
3.315734805609463764e-01,5.560175492953198240e-02,4.866455850213950718e-02,-2.662192035071110369e-03,6.238647798159027529e-03,2.548612162134159843e-03,2.797865271568298340e-01
