sxx,syy,szz,sxy,sxz,syz,smises
-6.509237615950010797e-03,-6.509237615950010797e-03,-4.698152476809913658e-02,3.745987211807012335e-52,1.854263669844544062e-52,1.854263669844544062e-52,4.047228768467903137e-02
