sxx,syy,szz,sxy,sxz,syz,smises
2.666666666666372976e-04,2.666666666666372976e-04,-5.333333333332745951e-04,7.999999999999991710e-04,3.999999999999998002e-02,3.999999999999998002e-02,9.799265116453170776e-02
