sxx,syy,szz,sxy,sxz,syz,smises
2.731953648363861786e-01,-1.126985152352068253e-02,-5.339745640429577334e-03,-3.390085979713721755e-03,1.073784178910408126e-03,2.009358499037210144e-02,2.837567925453186035e-01
2.853446122292818687e-01,-4.573415726106977441e-03,-2.174839695439716170e-02,2.412488954643819249e-03,-6.940549299263110237e-04,1.712065639324945182e-02,3.003748357295989990e-01
3.082749166228732629e-01,-1.182730446961215154e-02,-1.320379654615537468e-02,-2.122155179000687411e-02,-5.730754212437958947e-03,1.695568911158845671e-02,3.243763446807861328e-01
3.026892390674447153e-01,-5.336416071445942988e-03,-1.721737461769148880e-02,5.051006198895778565e-03,1.055291139268395122e-02,2.242104995910413484e-02,3.171739876270294189e-01
2.896970912602258585e-01,-1.118214776379244935e-02,-1.122527984550880653e-02,-1.512179185432057510e-03,-4.605016638753586453e-03,1.865744161297627421e-02,3.027475476264953613e-01
2.548533268480496217e-01,-2.868450204425418426e-02,-1.880656019964810355e-02,-1.526352767608589109e-02,-3.915963621615640641e-03,-6.516598208926287911e-03,2.802906334400177002e-01
2.411429901430061362e-01,-1.179674027417100535e-02,-2.329074311403736552e-02,-2.262481073503968404e-02,-1.984660482968579262e-03,4.262265144590991089e-04,2.618509531021118164e-01
2.411281036562199775e-01,-2.338438282979266036e-02,-1.487904360404374016e-02,-2.019056588518695558e-02,-2.377414076454292553e-03,4.771409652730225666e-03,2.628643512725830078e-01
2.554631447753892282e-01,-3.220241474751719957e-02,-1.938394815699470697e-02,-1.341541571838803307e-02,-4.982083647860802329e-03,-4.731927649840844685e-03,2.826834022998809814e-01
2.557194822304222348e-01,-2.639724991606973159e-02,-2.046006642689218724e-02,-8.703003240227337109e-03,-2.960694076192473163e-03,-3.385787079844215786e-03,2.797106206417083740e-01
2.189369299441322470e-01,-2.379763214393319781e-02,-1.586609840497756052e-02,-1.650825423173994319e-02,-3.341573879727645791e-03,-4.870555176443094880e-03,2.407902628183364868e-01
2.405444683402025996e-01,-3.000744556230444671e-02,-2.184728414359457527e-02,-1.927731673275522029e-02,-2.950362177444686151e-02,-1.073595443272937124e-03,2.734718918800354004e-01
2.430772976202257574e-01,-2.999055934994822314e-02,-1.956444403298365775e-02,-2.220702487672678721e-02,-5.992007491360598626e-03,-2.736111309041958529e-03,2.709932625293731689e-01
2.432522171005326861e-01,-3.344369212600326047e-02,-1.424125192576418397e-02,-8.109748165426323638e-03,2.031105735792570056e-04,-2.205693081917138761e-03,2.680077254772186279e-01
2.565537430679490360e-01,-3.226468310861638211e-02,-1.987198178298890672e-02,-1.345050657804860300e-02,-5.275915063817520657e-03,-4.595006176850977876e-03,2.840422689914703369e-01
2.309449725641022910e-01,-2.516473300736377094e-02,-2.008084017447103742e-02,2.087732038274771329e-02,-1.478640489146444345e-02,4.768776036354441770e-03,2.575805187225341797e-01
2.635991247733060483e-01,-2.767120076548747198e-02,-2.180700896925556742e-02,1.708388458516153785e-02,-1.688355758756925236e-03,5.752067611906086161e-03,2.900829315185546875e-01
2.668305499474308284e-01,-2.306263316034840027e-02,-2.451352187076943911e-02,6.020663955778227279e-03,3.345690125881702320e-03,-2.326355922473078341e-04,2.908663749694824219e-01
2.555839972476815491e-01,-2.987138745002120011e-02,-2.107451507021591841e-02,2.251434765610564170e-03,-6.611831901547267918e-04,1.692000380971242328e-03,2.812048196792602539e-01
2.692604996549062824e-01,-2.734253417076161485e-02,-2.337571345055200478e-02,1.018584968427078963e-02,9.863018321304398324e-04,-5.196077555577521606e-04,2.951737046241760254e-01
2.688919777447547066e-01,-2.701907933215322299e-02,-2.204675546104253869e-02,1.022453787057035768e-02,-2.571201317847488085e-04,1.866624513779398904e-03,2.940084934234619141e-01
2.615227934045689651e-01,-1.977942565875184799e-02,-2.268645087815830685e-02,7.089795369470972344e-03,-8.081802092059264852e-04,1.214273802610914233e-03,2.830447256565093994e-01
2.625970135260927707e-01,-2.288081521075251146e-02,-2.294483445136012711e-02,6.439973200122676121e-03,-5.223840830752396990e-04,-4.617113971798194813e-04,2.857302129268646240e-01
2.792946950449741728e-01,-6.485146520198797893e-03,-2.002201339051493112e-02,-8.392737948422768213e-04,-3.240422480440747805e-04,-6.185046609433287289e-03,2.929831445217132568e-01
2.756413807619143563e-01,-1.664387367165252873e-02,-1.655632292882665280e-02,-1.030212033904567273e-03,6.208828230063328200e-03,-8.819478923451576011e-03,2.928434312343597412e-01
2.827682700726574794e-01,-1.592880288187437099e-02,-2.008627424640355152e-02,6.175264614270033897e-03,-4.947167052337817818e-03,-1.244933708344242787e-02,3.018805086612701416e-01
2.953623822490862860e-01,-1.729837325379982027e-02,-2.011682915826082385e-02,2.755757547464914286e-03,5.612056410354076055e-03,-1.750744526959490538e-02,3.157256841659545898e-01
2.740088532012269207e-01,-1.014440208058385584e-02,-2.138588355292657395e-02,-1.456598204860259102e-03,1.306280569408995373e-03,1.713712199994074517e-03,2.899724841117858887e-01
3.129992919760719583e-01,-1.260341087312950858e-02,-1.589884456543091962e-02,4.080125122997178074e-04,-5.305090665371750471e-04,-3.076605328051197977e-02,3.315750062465667725e-01
2.704992554420476703e-01,-1.149535468205703514e-02,-1.366108110375242879e-02,-3.890097169967019755e-04,-3.552461200779624185e-04,4.078601151186594768e-03,2.831732928752899170e-01
2.859207491390344247e-01,-1.145934798991343762e-02,-1.935700756592009797e-02,9.951210361521124065e-04,3.585242666573047830e-04,-2.136453285723240864e-02,3.036751449108123779e-01
2.799265747672424753e-01,-2.352392066079983524e-03,-2.033987564117092917e-02,6.176835775796685559e-05,3.497155907345072395e-03,-1.898115065799991369e-02,2.935983836650848389e-01
2.695224240394160642e-01,-2.336384304051628003e-02,-2.972977177138416693e-02,-4.202941815130879430e-03,1.256215175478842677e-02,-1.762908472897915151e-03,2.970237731933593750e-01
2.407673856112592936e-01,-1.958326833154303004e-02,-2.950475090981465043e-02,-1.013027529940871418e-02,7.156770340586674981e-03,1.311577268950749227e-03,2.663280963897705078e-01
2.586953377441484903e-01,-2.036815787310095049e-02,-2.434701352665573360e-02,1.368128517422817622e-03,5.282741016179582499e-03,9.539584992382156309e-04,2.812377810478210449e-01
2.659577307831909598e-01,-2.432537313525658107e-02,-2.459509474442481136e-02,-3.450662007789536551e-03,4.925462679905903522e-03,4.048670396223233783e-04,2.906056344509124756e-01
2.734104382273800926e-01,-2.871526589909621785e-02,-1.611283687382224217e-02,2.531254222151696487e-03,8.215953266409944250e-03,-2.880274586459651617e-03,2.964420020580291748e-01
2.710989359282214295e-01,-2.902575657007333554e-02,-2.623977606891515768e-02,4.291132638779895236e-05,1.609271151485880923e-03,7.323792114042277984e-04,2.987571358680725098e-01
2.767026404250427785e-01,-2.427416807595292325e-02,-2.273509421338767988e-02,6.483554779199368102e-03,9.351663416132971474e-03,-9.127744677668497624e-04,3.008606731891632080e-01
2.751331657286955612e-01,-1.947667622364213091e-02,-2.205550743611243980e-02,-2.281789694997837271e-03,-2.909337827186468314e-03,1.957989259229432448e-03,2.959963977336883545e-01
2.789001389526148400e-01,-1.662562879017256967e-02,-2.094123859031647716e-02,2.288090532436571397e-03,2.099470555273519855e-03,4.457634280777795360e-03,2.978557050228118896e-01
2.679544218508267406e-01,-1.484052254004486482e-02,-1.129544696888186428e-02,-6.059443691019055856e-04,-1.285768170402226793e-04,6.380606280679041896e-04,2.810434103012084961e-01
2.647338249583996439e-01,-2.192371303584582376e-02,-2.786471415811690722e-02,3.399359936514697298e-04,3.161332391905233730e-03,1.320937463055122134e-03,2.897351086139678955e-01
2.778269778253036337e-01,-2.208947892553637937e-02,-1.766501146274494782e-02,-6.630665541438642832e-04,-5.819646175664497205e-04,2.983289929273505881e-03,2.977776229381561279e-01
2.785651056961975791e-01,-2.275882856767823259e-02,-1.974423671112676693e-02,-1.301975658089238189e-03,3.581618234816996531e-03,5.395197082263946536e-03,3.000462055206298828e-01
2.787930311542199946e-01,-6.863698710755400390e-03,-2.872670250315768892e-02,1.212951235718761657e-03,3.274706659328419176e-03,4.673400701564237557e-03,2.973637282848358154e-01
2.745039557484300063e-01,-1.651331665443669938e-02,-2.721742041469205065e-02,-8.867976396613842099e-03,3.622434965105633328e-03,2.951401165988531711e-03,2.970221042633056641e-01
2.657951657840560977e-01,-1.756384333739342829e-02,-2.652414617449772027e-02,-1.879022225462878993e-03,5.144454215548631588e-03,7.476731400485357249e-04,2.881028652191162109e-01
2.835909589280932175e-01,-2.445971643812480667e-03,-3.646061269795680682e-02,-1.985470491517118963e-02,1.649216481971399646e-03,2.016699804997597063e-03,3.064417541027069092e-01
2.756041600228565924e-01,-1.196175287196575565e-02,-3.303005416619488044e-02,-5.669645443339258600e-03,4.021659409209976145e-03,-2.126925024266658124e-04,2.989007234573364258e-01
2.673635250616708259e-01,-2.234679596724831185e-02,-3.331090286222847252e-02,-6.713876561160333719e-05,1.233152780972067994e-03,1.179599122492828089e-03,2.953598499298095703e-01
2.673579836008355137e-01,-6.761417388287935260e-03,-3.040635765906367360e-02,-9.893839090666682254e-03,5.038608341105785954e-03,6.196052128539731229e-04,2.873204648494720459e-01
2.763404864934657090e-01,-3.637432756744385376e-03,-3.173398752228770436e-02,-1.637505974236678694e-02,3.282170750225878869e-03,2.240704974650908204e-03,2.964713573455810547e-01
2.789580450090358710e-01,-1.298446611690670660e-02,-3.060145742481808206e-02,-7.068331809105496757e-03,6.542069250575912416e-04,5.799325860718062284e-04,3.013902902603149414e-01
2.501809716004768092e-01,-2.168923978045146639e-02,-1.815633277105430099e-02,6.438830994678875277e-03,3.855825340421620805e-03,-2.769365743016469726e-03,2.704762220382690430e-01
2.277556103094980078e-01,-2.064871492873252001e-02,-2.384159213634691465e-02,2.693388399143699027e-02,2.068222968503764456e-02,-7.032822409201497761e-04,2.568444609642028809e-01
2.512417630975084526e-01,-2.216777305094876083e-02,-1.983083118304800052e-02,6.853592708059548858e-03,5.789787636089571005e-03,2.337799190574430907e-04,2.726920247077941895e-01
2.909302046472083680e-01,-2.204048754386421505e-02,-2.707733612011203883e-02,1.250482956281752552e-02,1.185491231095883204e-02,4.975284589025268838e-04,3.169288337230682373e-01
2.832982784579176627e-01,-1.517292900813783929e-02,-2.642147467153328766e-02,6.414359761671900584e-03,1.020404305691659415e-03,5.593506562526582432e-03,3.046135008335113525e-01
2.795921960747542734e-01,-2.576830562335517827e-02,-2.920293454118845500e-02,1.646625760141305628e-02,5.927450941456033698e-03,-2.823809368180708618e-03,3.086233437061309814e-01
2.340698330721933118e-01,-1.272116626312419507e-02,-3.035936243781381383e-02,2.933937345903786693e-03,-6.210710077172432869e-03,2.487125579165337837e-03,2.563785314559936523e-01
2.693448508238970307e-01,-2.931995387192051772e-02,-2.410345856961236544e-02,-3.264384547299175980e-03,5.234931809541778190e-03,2.221167709492159487e-03,2.963087558746337891e-01
2.431554336225121016e-01,-1.916812055024730288e-02,-1.797277583099655962e-02,-1.625256203199687208e-02,1.314145351999555658e-03,2.829290591306746119e-03,2.632928788661956787e-01
2.638295879178289560e-01,-2.398448017961130052e-02,-2.235099310856976385e-02,-9.756453591284495325e-03,4.399879693172376038e-03,3.384012028417007940e-03,2.876585721969604492e-01
2.487165773431992966e-01,-2.898009778743929066e-02,-1.804780932447484776e-02,-1.680297490293973170e-02,4.472905660623126625e-03,3.315448852794191954e-03,2.741151452064514160e-01
2.318926791324676662e-01,-1.294046939671335272e-02,-3.167919032937174806e-02,-1.899695084484666948e-03,-9.073108721713645311e-03,-1.794641877784807762e-03,2.552444338798522949e-01
2.720043308260375881e-01,-2.950471901278908793e-02,-2.438768018032852480e-02,-1.589409719321594871e-03,4.364786867579720578e-03,1.097169960230846711e-03,2.990976572036743164e-01
2.603219073734500677e-01,-2.466216122744667449e-02,-2.311427478772887234e-02,-1.573170386169097865e-02,6.814378074065659263e-03,5.319881467954613689e-03,2.859088480472564697e-01
2.639797066835518624e-01,-2.116775781194393802e-02,-2.499221919622805765e-02,-3.334639132273610387e-03,2.169891358701048212e-03,4.226338951377996080e-04,2.871624231338500977e-01
2.763427239380158440e-01,-2.943467017377639217e-02,-2.458224753122302542e-02,-1.984842163926113732e-07,7.086159782650972971e-05,-1.023522003537903277e-03,3.033854961395263672e-01
2.731457800610469500e-01,-2.846953460822609916e-02,-2.408112153657901433e-02,2.148207530428645085e-03,1.936098740377493500e-03,-2.841434480120151856e-03,2.995275557041168213e-01
2.764860959119859185e-01,-2.905058024703865982e-02,-2.520061278154030193e-02,3.490699818495808342e-03,2.470608310118252698e-03,-3.688752385986509685e-03,3.037875294685363770e-01
2.726234097045007188e-01,-2.899454696061051773e-02,-2.334913518919697062e-02,6.254057791514810657e-04,4.008405408754921011e-03,-4.740660005539981507e-03,2.990306019783020020e-01
2.565810313764406159e-01,-2.563627087920586356e-02,-1.935065449716300012e-02,2.576220842678003057e-03,2.033302342506068932e-03,-1.622669628302528689e-03,2.791996002197265625e-01
2.603769567443866007e-01,-1.732739083984347062e-02,-2.369291255011453379e-02,1.741692473047107975e-03,-4.911629938218355475e-04,7.866618605450717745e-05,2.809587121009826660e-01
2.933818314835708874e-01,-4.723933053994835984e-03,-1.204931164831188339e-02,-3.592779446286695037e-03,-3.283698543368722671e-03,2.399016661048542984e-02,3.047984540462493896e-01
2.726846893614537359e-01,-2.253684688096933841e-02,-2.835314720983583836e-02,-2.374930286029649650e-04,1.859117371749033874e-03,-5.059825713978954517e-04,2.981911897659301758e-01
4.211091815049112785e-01,-8.845946824324268931e-03,-2.302252894329012700e-02,-3.604123696552764822e-02,-4.680987151220292533e-03,2.782191118165770749e-02,4.443450272083282471e-01
2.878052027563997028e-01,-1.453141168931260108e-02,-2.103662556815812101e-02,7.449399561536368397e-03,6.397925365273003304e-03,1.135230559876781661e-02,3.067448735237121582e-01
2.835198706132904256e-01,-1.086264339484416253e-02,-6.374523304827670045e-03,1.093733317431608070e-03,-6.648425013398909494e-04,2.018543553307432931e-02,2.942571341991424561e-01
2.841060476522664358e-01,-1.397810758686343635e-02,-1.842065450386919101e-02,-5.077413111842021126e-03,-5.232727614716064894e-03,1.298605753725545764e-02,3.014358282089233398e-01
2.759532495938347707e-01,-1.058600533394427057e-02,-1.069583566994626589e-02,-2.434026356793049690e-03,2.211849350674218069e-03,1.936286386505058424e-02,2.886060178279876709e-01
2.728385816424997445e-01,-2.928934020173683261e-02,-2.374387926761759027e-02,4.900398494451670400e-04,-7.552056253384970257e-04,-6.865661074411480999e-04,2.994001209735870361e-01
2.739699749881025492e-01,-2.049705319945324677e-02,-1.794799907809296879e-02,3.924209062077860439e-04,-2.048850808857022657e-03,-2.257036675770576675e-03,2.932491302490234375e-01
2.723062579408803141e-01,-1.655447014551052198e-02,-1.407607495398377484e-02,-4.003964692488371272e-04,2.301089472944595031e-03,-3.694483034847786257e-03,2.877291440963745117e-01
2.777563207976371240e-01,-1.369552255849573741e-02,-1.247648754203567467e-02,-3.491800168300773256e-03,4.641701802062352111e-03,-6.531074976927801236e-03,2.912379503250122070e-01
2.551077363667822451e-01,-3.337524581403857049e-02,-1.888932422547139056e-02,-1.122827822660984326e-02,-7.583451969834249101e-03,1.135585179780027824e-03,2.825030088424682617e-01
2.620284258544939848e-01,-2.674416585134493929e-02,-2.324120850320977871e-02,-2.054295226601289548e-02,-1.738037203291825303e-02,-1.856016940529374480e-03,2.908142507076263428e-01
2.607985836604843621e-01,-3.221870782196092908e-02,-1.832283979820790998e-02,-7.985127282301176209e-04,-8.325393166717959693e-04,-2.951634196617371544e-03,2.863749861717224121e-01
2.719724417259073990e-01,-2.575676825737535647e-02,-2.833050204216987222e-02,-2.275456624533918424e-04,-7.458835059230955458e-04,5.973002313636648162e-04,2.990292310714721680e-01
2.588335315696174144e-01,-2.401319336274423955e-02,-2.680329318359067625e-02,-7.053510452195250677e-03,-1.796300948632988462e-02,-3.900185139847745387e-03,2.862902879714965820e-01
2.416791313661403040e-01,-2.258540183706600479e-02,-1.995352753592803674e-02,-1.486942637344363521e-02,-1.918663532976185027e-02,-2.134689411367163368e-03,2.663240730762481689e-01
2.596207425633124677e-01,-2.368132353553514813e-02,-2.379686236036997193e-02,-2.390887078263458174e-03,-5.373131574243356599e-03,-2.430168766536821776e-03,2.835741341114044189e-01
2.573784212224270451e-01,-2.449077962554821464e-02,-2.350854823779328917e-02,-9.107820564085921181e-03,-5.514842919390911327e-03,-4.143862992033417979e-03,2.820743918418884277e-01
2.749931344217516616e-01,-1.565635399286313678e-02,-3.121264372315518676e-02,7.754894926280212278e-03,4.022120310449139174e-03,-3.552769296675596552e-05,2.991145253181457520e-01
2.542035024897084661e-01,-3.527164998393343687e-02,-1.793112089321229063e-02,-3.246142087766643817e-03,-9.211600414402005242e-04,-1.684319045903962800e-03,2.812820076942443848e-01
2.391026565308025098e-01,-2.119535083253032415e-02,-2.583290412926020352e-02,-1.274004736435881829e-02,-1.138874515232952099e-02,-6.753546371087077761e-03,2.645686566829681396e-01
2.388914640931015521e-01,-1.969301420215247012e-02,-2.699757833073647417e-02,-1.124403956621764823e-02,-1.529022502667902461e-02,-4.548106518589552054e-03,2.644822299480438232e-01
2.716537250568752393e-01,-2.474241673070659564e-02,-2.525453382611286823e-02,-5.237372128158842600e-03,-4.213178131872914213e-03,-3.147820315020494024e-03,2.969309687614440918e-01
2.490474215325953755e-01,-2.096235427175027755e-02,-2.484785378571664760e-02,-8.652541930362991213e-03,-9.587089928354891252e-03,-4.363741536861000074e-03,2.729962766170501709e-01
2.574750944269138531e-01,-1.996215993939609579e-02,-2.813744665160393399e-02,-2.723993882948374644e-03,-1.169114573630429185e-02,-3.819548258768658278e-03,2.824579179286956787e-01
2.615779650799995859e-01,-2.605983675469462912e-02,-2.125123916813502489e-02,-5.174934116042555730e-03,-1.302793327108395715e-03,-2.310024555284262079e-03,2.854416370391845703e-01
2.579975023643895637e-01,-2.637834626097615431e-02,-2.351497084560492945e-02,-6.979060668411011040e-03,-6.158449325444125509e-03,-4.277523386673934280e-03,2.835107445716857910e-01
2.471897164971676164e-01,-1.753122026527716149e-02,-2.109141440952717883e-02,-6.085513522023775629e-03,-4.373810774050442343e-03,6.290780884217828453e-04,2.668370008468627930e-01
2.668870461596695720e-01,-2.366750394477451502e-02,-2.381786721362282033e-02,-4.812683544183920040e-03,-7.295850656034358339e-03,-1.929602488593346000e-03,2.910429537296295166e-01
2.996087220385532657e-01,-1.015044172796177036e-02,-8.771072878802271822e-03,-1.566064886368075766e-03,-2.671939796883240513e-04,1.990850397441752684e-02,3.110015988349914551e-01
3.240368554171159654e-01,-2.502902055852690433e-02,3.426102694726693154e-03,1.636574618035367907e-03,1.864484213238195350e-03,2.981161448803403002e-02,3.397184610366821289e-01
3.106098869434754106e-01,-2.652795363868268308e-02,-8.039871555924477109e-03,1.262196194130727443e-02,7.973028986497805379e-03,1.857195069028277912e-02,3.308687210083007812e-01
3.002656779850748081e-01,-1.438357834009759695e-02,-4.996231227929373575e-03,-6.241893401298106818e-03,-1.980198173051933748e-03,3.830031993334535173e-02,3.172821104526519775e-01
2.816833247581156940e-01,-1.027966184316024545e-02,-4.349779778897999716e-03,-2.058085953780299394e-03,-1.492846292604943677e-03,2.311167403460732267e-02,2.918357253074645996e-01
2.839823586659710464e-01,-1.930148352590707606e-02,-1.512718149653428934e-02,-2.933910830300966296e-04,5.229432452221959536e-04,1.236394134172211050e-02,3.019804656505584717e-01
2.831623598113778284e-01,-2.318080848316166065e-02,-3.632423586792901671e-03,-4.465009206535543260e-04,-1.125830645904248462e-03,2.184949675511911604e-02,2.994601130485534668e-01
2.777935998481785296e-01,-1.481558914635394686e-02,-9.555977517135411103e-03,2.852669419609128645e-03,9.618618014089973765e-04,1.783507888863015978e-02,2.917023301124572754e-01
2.700507047619939427e-01,-1.628397503065712182e-02,-2.047735378755531632e-02,1.045610741080465643e-03,1.309723999302290923e-03,4.308967969431067892e-03,2.885653674602508545e-01
2.890677243661274876e-01,-1.771740080379172189e-02,-2.573459248828749435e-02,-1.337149632903932754e-03,-5.190621392601003220e-03,4.739178119468855088e-03,3.111181557178497314e-01
2.756798619596778077e-01,-2.215182164866480452e-02,-2.349130869306849390e-02,1.721065842739595043e-03,-1.803731218790684612e-03,2.191901801971659226e-03,2.985590398311614990e-01
2.544611945275603304e-01,-1.120545070848942559e-02,-2.190201921641664329e-02,2.101803586340377297e-02,1.477332659261362119e-02,4.044361900999595902e-03,2.748890817165374756e-01
2.793168531289108580e-01,-1.067673375314724671e-02,-2.010680364272460219e-03,-2.228154509435434794e-03,-3.150941979105549660e-03,2.023696108610917310e-02,2.879784107208251953e-01
2.823642118932092604e-01,-6.282187134585587307e-03,-6.231682031468843697e-03,1.234600822399441276e-03,-1.073470011498681246e-04,2.274598220181765773e-02,2.913055419921875000e-01
3.696968262073674905e-01,-2.680583016139057029e-02,-4.056301984003612970e-03,-3.160164192280829482e-02,5.434266580458864404e-02,3.220409240702351572e-02,4.045717716217041016e-01
2.847502183057649683e-01,-7.319849820008939023e-03,-2.036278998457445588e-02,1.101798907367218929e-04,5.153142831566181271e-05,1.582791846048463638e-02,3.000601828098297119e-01
3.134484894793935772e-01,-2.341273261032908448e-02,-1.183493671150978588e-02,-2.687198721078059693e-03,-9.807816878725551107e-03,2.249974228984578939e-02,3.339736163616180420e-01
3.036069365562945599e-01,-9.824948460454008270e-03,-1.139987963729853504e-02,-1.577780306188502485e-02,-4.349183686870027390e-03,1.898788345609980083e-02,3.172078728675842285e-01
2.708819642063793887e-01,-2.269449346926787070e-02,-1.831851487808935919e-02,-2.080864563903372325e-03,-9.259796361755772299e-04,5.826283062737531776e-04,2.914415597915649414e-01
2.693885541627315527e-01,-1.594545685117669531e-02,-2.011812485849032162e-02,2.099589536733611778e-03,2.998915313892141447e-03,2.963960612346813739e-03,2.875588238239288330e-01
2.723461157194534410e-01,-2.264571205624708872e-02,-2.035152239645844630e-02,-2.206143519828089247e-03,-1.146419754830273890e-02,1.362411986612878422e-03,2.945558130741119385e-01
2.692011680884204283e-01,-2.526283043170056419e-02,-2.538895507692803810e-02,-3.177059938369303574e-03,-8.741921902135783764e-04,-3.931949045095429682e-03,2.946610748767852783e-01
2.696110951200355044e-01,-2.515168568321485276e-02,-2.551317412660594752e-02,-2.174120344415127366e-04,-1.070237041796144812e-03,-3.331699441402080283e-03,2.950062155723571777e-01
2.712797386721993442e-01,-1.793719006160324203e-02,-2.289933563065695010e-02,-3.907423420935225190e-03,-3.072821945878454874e-03,4.030044005458139028e-04,2.918575108051300049e-01
2.602100702981896552e-01,-2.015235615682917092e-02,-3.355031288727028382e-02,-9.288212270807505010e-04,-3.536173618776653274e-03,-3.337144205169976282e-03,2.874237000942230225e-01
2.651366214854053993e-01,-2.220738221109111454e-02,-2.473077019384287145e-02,-3.244506756086733452e-03,-7.393153179691925800e-04,-9.748858209805572874e-04,2.886764407157897949e-01
6.503038733418628481e-02,-1.631346737531815666e-03,4.957572168377694100e-04,3.887114932670594075e-02,2.145268533198197922e-02,1.531195481758960151e-04,1.010946929454803467e-01
2.561775452991399971e-01,-1.929655616422178144e-02,-2.195622158542749613e-02,-5.920215476175146561e-03,-2.812355938021475488e-03,9.688025769119571699e-04,2.770512700080871582e-01
2.830728153283640358e-01,-2.351520256468329906e-02,-1.123489843856410875e-02,-1.491962171925015693e-02,-7.652176519982314268e-03,1.516524976595391705e-02,3.031755685806274414e-01
2.823738194641824961e-01,-1.877754421564055420e-02,-2.374081193338320461e-02,-3.037993037614338410e-03,-6.631227402920087007e-03,1.203751442158672649e-02,3.046404123306274414e-01
2.842384505729768085e-01,-2.034217553712336368e-02,-1.748834946500679721e-02,-1.970156555019991155e-03,1.477220729329453827e-03,8.960431885227215787e-03,3.035907447338104248e-01
2.759774489521138463e-01,-1.270563312069060424e-02,-1.640121323276449994e-02,-1.392590392277243160e-04,-2.224620526173224418e-03,1.031451180654710878e-02,2.911228239536285400e-01
2.703537765194613529e-01,-1.477651237391311434e-02,-1.892487294196043557e-02,-4.549957189848585944e-03,-2.832849686713590637e-03,5.286318277834295420e-03,2.875227630138397217e-01
1.566256657936693775e-01,-6.225349375368553762e-03,-2.010420595530945653e-02,2.200901316635219332e-02,1.547160317034746921e-02,2.697275789963885385e-03,1.765400469303131104e-01
2.706003447282688268e-01,-1.779251550791344227e-02,-2.156798826791601897e-02,-4.028631400904468334e-04,2.870126517185001935e-04,2.046841686690710135e-03,2.903219163417816162e-01
2.673422038168395964e-01,-1.921190732061939244e-02,-2.175870536068078009e-02,-7.670487927831523556e-03,-1.209000156066844522e-02,2.403640714042740590e-03,2.889323234558105469e-01
2.804962923756505466e-01,-2.255901918382439975e-02,-1.987594326451297411e-02,-1.036428942691416943e-02,-1.137872411142755967e-02,5.462025506134970433e-03,3.030458390712738037e-01
2.596035964326153245e-01,-1.937159592198967051e-02,-3.146652195694427112e-02,-4.310874099237284535e-04,3.290315840356532011e-03,8.942230695417500508e-04,2.852771580219268799e-01
2.576488575997416541e-01,-2.543760596980532140e-02,-1.734598293465873520e-02,3.282531209123901780e-03,5.783307438002389250e-03,1.388870366622703932e-03,2.793765366077423096e-01
2.613409531391246987e-01,-1.990292360004000671e-02,-2.642173344682748060e-02,-2.931967513826186627e-03,3.721281698425779605e-02,1.531276092852933059e-03,2.918238937854766846e-01
2.586958207127710851e-01,-2.029983346096264629e-02,-3.029611714743560280e-02,2.135152955765481919e-03,-6.687293514948380781e-04,2.606696400557250489e-03,2.841880023479461670e-01
2.634913322345954212e-01,-2.433576459863011354e-02,-1.504229362042254492e-02,5.200529488307707379e-03,-1.024971418322946290e-02,-1.194742748938304759e-03,2.840008437633514404e-01
2.694534373132206895e-01,-2.817857243554723612e-02,-2.805524040510654071e-02,1.001968825282222378e-02,-7.193281305954899590e-03,5.370241178275086090e-03,2.984812557697296143e-01
2.642876019024857914e-01,-2.466834492373860821e-02,-2.493999287875647841e-02,1.064072764325509415e-02,-7.637245129087963380e-03,1.947130816236353288e-03,2.900002300739288330e-01
2.525781779533848859e-01,-2.286600949478888312e-02,-1.423984746930122280e-02,1.566572758796833109e-02,-2.391545983521573340e-02,-2.685290002268059771e-03,2.757564187049865723e-01
2.654612794911309637e-01,-2.205010222533335118e-02,-2.822161010810747550e-02,8.015414172895564404e-03,-5.404028927210402164e-03,4.789338813491777927e-04,2.911293506622314453e-01
2.644515593345455051e-01,-2.445806001319138223e-02,-2.169188873046777599e-02,5.865587827489626531e-03,-2.087764056595197912e-03,1.384622798546045815e-04,2.877387702465057373e-01
2.733552321808216390e-01,-2.795911098153275320e-02,-2.822261584029614467e-02,1.024251235455587300e-02,-7.635767677360280614e-03,-1.192338243839915308e-03,3.022643029689788818e-01
2.642408584230324653e-01,-2.446798523269218262e-02,-2.422294736678295979e-02,6.212505784628905361e-03,-3.949824929780972049e-03,1.175235537150082828e-03,2.888751327991485596e-01
2.585548921635767994e-01,-2.406751723490130335e-02,-2.365205389845390083e-02,-5.211027955408632437e-03,-8.530949272728519800e-03,-2.386198751706583229e-03,2.829753756523132324e-01
2.549271467604866670e-01,-2.168813097569406712e-02,-2.161183308064912323e-02,-4.062445524760590482e-03,-3.571078336562726573e-03,1.985919517183428297e-04,2.767359614372253418e-01
2.695411560546507879e-01,-2.209759297154932634e-02,-2.304970805455072713e-02,2.538240000963348959e-03,-1.260128254215887693e-02,-1.565912726201756314e-03,2.929757833480834961e-01
2.629189338112097873e-01,-2.378259375733345060e-02,-2.568812824725445754e-02,-3.365128761162926307e-03,-1.532487033009984068e-02,-3.245808697080017173e-03,2.889945507049560547e-01
2.636704399001162935e-01,-2.260191079465677377e-02,-2.308585567180024278e-02,3.199851511403120781e-04,-5.220045235920699189e-03,-9.855254976815928849e-04,2.866628766059875488e-01
2.804395394782527307e-01,1.147461020770677853e-02,-2.755875003518423738e-02,1.974084185908731200e-03,4.223795149026920819e-03,1.924496010542037228e-02,2.924733459949493408e-01
2.802031710295976308e-01,1.141156680722577033e-02,-3.583870610916156663e-02,7.454661002730529574e-04,2.597221925065706146e-03,7.380839531424610196e-03,2.955796420574188232e-01
2.720051130148122831e-01,2.625102987927493969e-03,-1.988787762755667154e-02,1.211496604157929254e-03,7.724374672844977214e-04,6.397269076739144252e-03,2.815420627593994141e-01
2.828749839725084314e-01,-9.652815640432563238e-03,-2.631828940647627790e-02,-3.859702642957056097e-03,-1.927161094185428705e-03,6.482189411692351397e-03,3.015083074569702148e-01
2.750077269508711120e-01,-7.924810803034518236e-03,-2.187501287165187491e-02,-5.138073221054210472e-03,4.884612493254240385e-03,1.190400007835528545e-02,2.911499440670013428e-01
2.586814459035917668e-01,-2.085098360030868125e-02,-1.771402858584585072e-02,-6.788096066754134746e-03,-9.163400083450573205e-03,2.394980437327591787e-03,2.787089645862579346e-01
2.456572808004922059e-01,-2.641775234759832780e-02,-1.984202283282662793e-02,-2.380106795991873345e-02,-1.264407013948121161e-02,-5.422359775679593333e-03,2.730316221714019775e-01
2.319118528100911625e-01,-2.656340340553546564e-02,-1.613833516792848033e-02,-1.191506470337816946e-02,-2.624420986061710721e-03,-4.597803012093812196e-03,2.544277906417846680e-01
2.617644588230000902e-01,-2.723360639141417239e-02,-2.212394191562727652e-02,-6.311370063007290532e-03,-1.017657087295839764e-02,-6.052401546389579202e-03,2.874184846878051758e-01
2.489241023247685536e-01,-2.261043160446674083e-02,-2.574968200905088100e-02,-1.680286282409152940e-03,-6.548686637862961846e-03,-6.048216929141123771e-03,2.735692560672760010e-01
2.331989450950417431e-01,-2.118669244115450878e-02,-2.237608299569518455e-02,-1.174987811437011587e-02,-7.321593832294614676e-03,-7.255654101646402503e-03,2.564156055450439453e-01
2.230567865985136622e-01,-2.086580188405448566e-02,-1.817022509180100942e-02,-1.332951750896042842e-02,-1.823393657922518091e-02,-7.393745549569661658e-03,2.460537403821945190e-01
2.835140376180139699e-01,-1.844584787058371755e-02,-2.354673755021828574e-02,5.348687699692135367e-03,8.623084640426482723e-04,-7.210165251501520281e-03,3.049427270889282227e-01
2.780326042921103524e-01,-2.460253259647146584e-02,-3.024334895439662052e-02,-3.268753200281009769e-03,9.733498974697666478e-03,2.661069222058801858e-04,3.060121536254882812e-01
2.680226290133917999e-01,-1.965003018966766934e-02,-2.435745686866121196e-02,-3.056479293862937423e-03,9.228853318899445449e-03,-5.219997049500734766e-03,2.906840145587921143e-01
2.680646666955193158e-01,-1.910946073975604287e-02,-2.209619113108454713e-02,-6.631102268328782634e-03,9.499438131603678281e-03,-2.695040762255043049e-03,2.894132435321807861e-01
3.019568954922566273e-01,-2.005525143248171327e-02,-2.713732071457061745e-02,-1.281272839060122390e-02,2.019862731947495368e-02,-5.325677594118088942e-03,3.283656835556030273e-01
2.838030920669841750e-01,-1.699030891656619358e-02,-2.653344006011970624e-02,-5.352877465276690248e-03,6.675082361876255891e-04,-1.994662149836273508e-03,3.058389723300933838e-01
2.607247494398989840e-01,-2.565094019443817097e-02,-2.804300631412805223e-02,5.376801961475410202e-03,-1.888925259901961563e-03,4.801689901892025950e-03,2.878687083721160889e-01
2.707147568351441214e-01,-2.598583368886821232e-02,-2.516516286027742355e-02,4.049549522700837852e-03,1.201158076380170765e-03,3.077229510335177665e-03,2.964293360710144043e-01
2.480995180739998252e-01,-2.472312187785707938e-02,-2.678174820041605286e-02,7.795112943468124680e-03,-1.217705593276917006e-02,4.287923697282334211e-03,2.751006484031677246e-01
2.750228280530098157e-01,-2.735494684942535448e-02,-2.865713883225964875e-02,6.260360990611934899e-03,-7.891878262212411246e-03,5.201860208213142031e-03,3.036665320396423340e-01
2.669470167940012351e-01,-2.288130548126304786e-02,-2.165605119703320480e-02,7.126481813094198356e-03,-3.440256130021648873e-03,-1.086629539859589738e-03,2.895483672618865967e-01
2.633817334705025326e-01,-2.862285972608959173e-02,-2.413709783119227792e-02,6.026342719193779687e-03,-5.285198359402368609e-03,2.909121797582373166e-03,2.901638746261596680e-01
2.743785711692074969e-01,-1.391016920394727574e-02,-1.867457828178115120e-02,-2.333673382299450861e-03,-3.984079192826342312e-03,6.166240521122743831e-03,2.910062670707702637e-01
2.759458707182549375e-01,-1.261349387073897044e-02,-3.556713921980328430e-03,-4.027774063634400291e-03,-5.346380476389082231e-03,1.192686648756751365e-02,2.851250469684600830e-01
2.762570136612637062e-01,-1.589046407906082037e-02,-1.174036477923331989e-02,-1.039757815955597887e-03,-1.719746365092965704e-03,5.657760755074328976e-03,2.902810275554656982e-01
2.718323140857372699e-01,-1.351905225680999356e-02,-1.398142562516893617e-02,-2.623704571008691967e-04,-3.662825701041539901e-04,6.679685405557276440e-03,2.858181595802307129e-01
2.729694876633466660e-01,-1.361226883381468078e-02,-1.651406494340867948e-02,-1.733239556990168802e-04,-1.480023090953672344e-03,7.284513051178221656e-03,2.883313596248626709e-01
2.768647324043435054e-01,-1.214528679608214978e-02,-1.509501691480676089e-02,-4.473962541642175286e-03,-1.111257821545813681e-04,1.304471262507450255e-02,2.914765477180480957e-01
2.741053126645935922e-01,-1.406506710822194584e-02,-1.814096922232406872e-02,-4.301156162827017050e-03,-5.520411042111240951e-03,4.610514092017463546e-03,2.905925512313842773e-01
2.227318022427607347e-01,-2.153977372814006030e-02,-2.022745416398084861e-02,-2.676718388113728808e-02,-4.479222300169612841e-03,2.651526172352984718e-03,2.481541633605957031e-01
2.759901530288883520e-01,-2.931357114986572754e-02,-9.585612240061852640e-03,3.396025522783354365e-03,-6.843584350081264103e-03,-2.846925918319719029e-03,2.962700724601745605e-01
2.314911469398852895e-01,-2.648840011825991103e-02,-1.603168257750381409e-02,-1.757864856880237553e-02,-2.359444752258343329e-03,-5.428840020352570205e-03,2.549456954002380371e-01
2.405345824502697072e-01,-1.617235904305376615e-02,-2.249920444758807259e-02,-1.766465737897643037e-02,-5.114211447190896744e-03,2.595448420900118777e-03,2.619110941886901855e-01
2.135060535317750974e-01,-2.041894344695575902e-02,-1.678528760172931511e-02,-2.630466302624621250e-02,-1.575910233518554651e-02,-3.469525237883688221e-03,2.382038384675979614e-01
2.453175775794879110e-01,-2.609758395083192073e-02,-2.114518000121665131e-02,-1.956258161156278555e-02,-1.050521951587308524e-02,-6.814923366399577853e-03,2.719651758670806885e-01
2.295733675833044052e-01,-2.702461684239584883e-02,-1.605023825430687556e-02,-2.357305362593619530e-02,-1.057653811547121236e-02,-6.007072845916333094e-03,2.554562091827392578e-01
2.540757009331173211e-01,-3.290032603825533697e-02,-2.363317339001021200e-02,-1.779063685401817071e-02,-9.394991407152979840e-03,-4.422687029780723693e-03,2.847010195255279541e-01
2.527527793131433276e-01,-1.725481348197971387e-02,-2.643194206030032023e-02,1.474754478395940479e-03,-6.852744374129809621e-03,1.109497271047892768e-03,2.749860286712646484e-01
2.549282508796726354e-01,-1.715997776922013884e-02,-3.271563836294545669e-02,-8.725300879462393171e-04,-9.750224737737844816e-03,-2.209358812660248202e-04,2.807029187679290771e-01
2.514097082231380176e-01,-2.026975563729825625e-02,-2.885912541262253272e-02,-4.168810868877613311e-03,-1.899848609394368115e-02,8.096250213869028971e-05,2.781223654747009277e-01
2.546916113127632997e-01,-1.895090883425264161e-02,-2.470075476413766125e-02,-4.052188032810721206e-05,-9.859482620605663356e-03,-2.553415361836001442e-04,2.770893871784210205e-01
2.487232326680210714e-01,-1.614952645466050107e-02,-3.466687264979895211e-02,3.216734928104806289e-03,-2.791295881725014243e-03,2.127912228284209060e-04,2.746994197368621826e-01
2.526502973370091665e-01,-1.744410040170804588e-02,-3.313868717013120080e-02,-2.056011324943884683e-03,-8.828389352471575219e-03,-3.391622361576608017e-03,2.787782847881317139e-01
2.518045864868135308e-01,-1.783916777287258837e-02,-3.271122528785669337e-02,-2.717301286908239445e-03,-5.809556249550990557e-03,-1.499848183910425540e-03,2.776134908199310303e-01
2.678733535383879261e-01,-2.522926914771257689e-02,-2.408523139626363163e-02,-5.229953359742805716e-04,4.415799139474729275e-05,-5.170922611715177098e-04,2.925350666046142578e-01
2.275835048390909554e-01,-1.554273790609116135e-02,-2.623586897815680108e-02,-3.794757312620872279e-04,-1.653568688873964868e-02,1.321804217944255082e-03,2.503007352352142334e-01
2.431507822413656594e-01,-1.567909106103752837e-02,-3.151261581050246452e-02,2.896305354319933262e-03,-1.310192930002011640e-02,2.405914718183460067e-03,2.681404650211334229e-01
2.274101978850464334e-01,-1.610668553149814664e-02,-2.935158315828445552e-02,2.571654662052250953e-04,-2.308681450084882833e-02,-3.071080128255681153e-03,2.536311447620391846e-01
2.853144367958377892e-01,3.193678858169651802e-03,-2.725738836769223128e-02,1.577967618874325656e-02,-2.864423605881925416e-03,2.512233936109436669e-02,3.029443323612213135e-01
2.875850570057756905e-01,-2.899614565989815096e-02,-2.189516224541585010e-02,1.937858311927798810e-02,-1.555497516199214059e-02,-1.540725112858897308e-03,3.160468637943267822e-01
2.498327512842569709e-01,-2.436541041159796805e-02,-2.281523690691279749e-02,2.695307890029196782e-02,-1.645826491040865147e-02,1.074448795072634449e-03,2.788502573966979980e-01
2.684480486009191980e-01,-1.382825027563384934e-02,-2.222390960074249744e-02,1.304609819626124760e-02,-5.557297773624620199e-03,-7.902475874431054426e-03,2.879425287246704102e-01
2.526995631620611582e-01,-2.703004892613419807e-02,-2.133389953081522850e-02,3.228117941994253920e-02,-1.223380457696791965e-03,-1.172879211943417613e-02,2.832509875297546387e-01
2.747387728567070031e-01,-2.613630705413792776e-02,-1.636262781373271080e-02,8.572300462682997529e-03,-3.584078293512353401e-03,-5.187465743397913151e-03,2.966823279857635498e-01
2.849139379761502777e-01,-2.747468026991059520e-02,-2.552460833099616522e-02,5.629560995190278742e-03,-5.980172440374576827e-03,2.107179509114685400e-04,3.117431104183197021e-01
2.803682548164190824e-01,-2.631015363713375133e-02,-2.457375036471175223e-02,7.481008336939244663e-03,2.114808533365350289e-03,-7.425677641322162362e-04,3.061129152774810791e-01
2.779595552363819388e-01,-2.475630889869029350e-02,-2.781625004319104866e-02,4.609867775448947156e-04,2.546302040792280513e-05,-8.063818802340426677e-04,3.042616248130798340e-01
2.487603310545534741e-01,-2.017806147123177296e-02,-2.422293215106068043e-02,2.681893271874697879e-02,-1.805226745163110783e-02,3.694531403187967418e-03,2.767822444438934326e-01
2.612410144975231274e-01,-2.343857801477330915e-02,-2.297184045076965109e-02,9.504572885635172164e-03,7.894490282836769785e-05,-1.987301183864879830e-03,2.849433124065399170e-01
2.593050300913441464e-01,-2.319985849872095718e-02,-2.392455276298915967e-02,5.648262512677718235e-03,-5.544587222947255402e-03,-9.697545066275133508e-04,2.832049131393432617e-01
2.745612639654885778e-01,-2.494162279166094176e-02,-2.436931232753539178e-02,-1.721625775697859743e-03,-8.718541363652010639e-04,-2.018990027893230715e-03,2.992562353610992432e-01
2.732402925342587996e-01,-2.359003690708522116e-02,-2.346652502811333307e-02,2.079394774577080461e-03,1.732946429680403636e-03,-1.263501573327234636e-04,2.968057096004486084e-01
2.740757709705431422e-01,-2.377876391149819080e-02,-2.638064191617900400e-02,-1.033644814858851414e-03,-1.700609400289285287e-03,-7.811412913818619515e-04,2.991868853569030762e-01
2.283620652994833855e-01,-2.249194087698824784e-02,-1.399873690845718222e-02,5.771948021941351783e-04,9.516829813740138456e-05,-2.462157468787988437e-03,2.467560023069381714e-01
2.564026708181597058e-01,-2.001171075045871106e-02,-2.783044354292635303e-02,1.309507786493078335e-02,-1.322420963991547196e-02,2.340836577195305225e-03,2.822813689708709717e-01
2.802917795888913988e-01,2.452935046925591722e-03,-2.859219665554327272e-02,-2.442662828199476405e-03,-9.135802343298693017e-04,1.140617923283568022e-02,2.952871024608612061e-01
2.875179883080822840e-01,-8.107761475736774415e-03,-3.526301823521862944e-02,-7.040775337207040574e-02,-5.453872315718762132e-02,4.238635295142666876e-02,3.540406227111816406e-01
2.482564114276853140e-01,-2.168845331170511648e-02,-2.676638009271259389e-02,9.689295297552753816e-03,-1.168852275268486389e-02,5.179562986103547310e-03,2.739320695400238037e-01
2.545862846527197632e-01,-1.987821098538558595e-02,-3.126640456675358615e-02,9.683555738557736176e-04,5.559393685034768424e-04,3.776116086090182226e-03,2.804150879383087158e-01
2.510201295173717373e-01,-2.007022663050779532e-02,-2.770706263533281866e-02,-5.582465750066558773e-04,-2.210903864439727005e-03,4.914003307435262265e-03,2.751483619213104248e-01
2.566759875117526901e-01,-2.263734487167345932e-02,-2.473566991551906513e-02,7.378699728530172669e-03,1.182044003523938409e-02,-7.021407447552203539e-04,2.814079225063323975e-01
1.826010575104943523e-01,-3.103330700034762080e-02,1.634257304079941853e-03,-1.806859608630655492e-02,4.166305460520641768e-02,-5.892917212695042255e-03,2.145202308893203735e-01
3.281060112517426020e-01,1.450648353448737160e-02,-4.376644615604544097e-02,-1.348966065415194149e-02,-2.175653150480679181e-03,1.026576455752777495e-03,3.472434878349304199e-01
2.729305645865781615e-01,-2.390552965363718085e-02,-2.397594526723653696e-02,8.692886355269319534e-03,2.011459284350190432e-02,8.102622728154936817e-04,2.992908954620361328e-01
2.163467205053206388e-01,-3.655851994817976847e-02,-2.615765600233674326e-03,-9.414177344267481845e-03,4.206193338360650347e-02,-2.196343769230590590e-03,2.492325007915496826e-01
2.707497313117551707e-01,-4.237656977744663767e-02,1.802956566933036631e-03,2.775285918947102172e-03,1.271840998823667648e-02,-7.397044003646473936e-03,2.946840226650238037e-01
2.795800792885149155e-01,-2.634039393378256877e-02,-2.217138604932170076e-02,-3.659619979539841840e-03,1.103860784871090253e-02,3.153394660947959893e-03,3.045732975006103516e-01
2.166093349567979054e-01,-2.714461033949738811e-02,-1.273480073336345775e-02,-4.490179910784225514e-02,8.534906756138702089e-03,2.224106129894642351e-03,2.497860491275787354e-01
2.540096961792390751e-01,-2.486956235611850752e-02,-2.171866683434704737e-02,-7.670368601340005893e-03,9.351670052399140010e-03,-5.642376441835648959e-03,2.782790362834930420e-01
2.744958999558247958e-01,-1.548252246526411746e-02,-1.918019313689443839e-02,5.522000484340523199e-04,5.776586315983015365e-04,3.323511137044554437e-03,2.919048666954040527e-01
2.798459377445147167e-01,-2.796443950776184018e-02,1.705957430614607473e-03,-8.073151904940495350e-04,1.171323823513513180e-03,1.344479042182391247e-02,2.950306236743927002e-01
2.740068665284650096e-01,-2.089567168285559606e-02,-1.004201012363188650e-02,-4.029637222564851073e-03,-4.011613341994099517e-03,1.994315231755410412e-03,2.898162603378295898e-01
2.742694653773778968e-01,-2.148404841977263890e-02,-1.768575405307629134e-03,-2.063048433051828390e-03,-2.894040319571212008e-03,2.201080132739091644e-03,2.864966690540313721e-01
2.762952815561070530e-01,-2.458064654416193540e-02,1.370462189131546604e-03,-1.168079712386829033e-03,-2.534689626213226365e-03,1.180203278594889674e-02,2.895392179489135742e-01
2.859017803716860651e-01,-2.119076896308527691e-02,2.327955278344395751e-03,2.832276948884473490e-03,2.713425486319640152e-03,1.928811577744889497e-02,2.979912459850311279e-01
2.729385728672064637e-01,-1.037778118750568024e-03,-2.192099629957471041e-02,-1.370973423921332873e-04,-1.848667520024405446e-04,2.856972011460733995e-03,2.850356101989746094e-01
2.771361689972753339e-01,-2.564874280708365206e-02,2.661467878694312450e-03,-6.778981249220731404e-04,-2.544363618517008450e-03,8.033721483113938355e-03,2.900391221046447754e-01
2.738557673849251750e-01,-2.635408731030842999e-02,5.465724461371543330e-03,-7.131953730162836780e-04,-2.259255306448437750e-03,6.616782528003829766e-03,2.858916223049163818e-01
2.723100461511815951e-01,-2.573797680541325961e-02,4.080080638137292826e-03,-7.909357736826109131e-04,-5.272615467383189036e-04,6.913492154912197901e-03,2.845709621906280518e-01
2.616605429606149169e-01,-3.440627187348936633e-02,-1.754067240963645691e-02,-4.097468999733173793e-03,9.950879814304416579e-04,-6.942281048198747527e-04,2.880997061729431152e-01
2.549794386745189434e-01,-3.550543277060108638e-02,-1.704159768537732988e-02,-6.299474873227995774e-04,1.517128610881495962e-03,-9.372049850277304646e-04,2.817261815071105957e-01
2.678900805436975618e-01,-1.620961174885102163e-02,-1.263994966537915210e-02,-8.036321670269842366e-04,-5.661485801862018580e-04,1.548342202008749433e-03,2.823496460914611816e-01
2.462281781598083807e-01,-2.521317811577303281e-02,-1.710787406313366010e-02,-1.502774489702407568e-02,1.996106216887977725e-03,-2.321525857902042005e-03,2.687965929508209229e-01
2.569528876120396044e-01,-3.009338896424798571e-02,-1.766840250956053238e-02,-2.869581973018187245e-03,-5.155409551810958809e-04,9.338879646273672399e-04,2.810898721218109131e-01
2.594006319848498054e-01,-2.580570347229642347e-02,-2.198857936837804450e-02,-5.064122958130671051e-03,-2.755271119517638950e-03,-2.662206485704208918e-03,2.835304737091064453e-01
2.564357876769139399e-01,-3.558567641785090330e-02,-1.747008056633077289e-02,-2.133416538904219818e-03,1.228899924597343010e-03,-1.440681674236546665e-03,2.834413051605224609e-01
2.625038264226391416e-01,-2.908510620910657873e-02,-2.154448290196607496e-02,-7.875530541834438805e-03,-4.870108583839441799e-03,-3.144306961829861774e-03,2.883905172348022461e-01
2.261082131082815527e-01,-2.733059594814250814e-02,-1.269005912458803786e-02,-2.587006865615958801e-02,-5.599301800565150734e-03,-7.842454728397916641e-04,2.506766319274902344e-01
2.377232797831673461e-01,-2.515399480812677280e-02,-2.127319337315297654e-02,2.076194158398862039e-02,-7.017983533468103233e-03,3.887187702272908076e-03,2.637908458709716797e-01
2.383488937918957218e-01,-2.497986003042809711e-02,-2.320043938143508122e-02,2.017810146973065058e-02,-7.093050860009992090e-03,2.805659038254026093e-03,2.650898694992065430e-01
2.180031215313226467e-01,-1.421122083000901648e-02,-2.225413736878864568e-02,5.039649083406638752e-02,-6.703848592399567867e-03,-1.899460956971551432e-03,2.522319257259368896e-01
2.508096436450928945e-01,-2.615868497110451774e-02,-2.088791743921487865e-02,-1.420891306208543065e-02,1.317240359559955325e-02,4.852134384551760361e-03,2.765433788299560547e-01
2.239895606211134427e-01,-1.308382657583001540e-02,-1.817235509324979792e-02,-1.189561830209793711e-02,1.143342954078165052e-02,2.615544155130611293e-04,2.413564473390579224e-01
2.198077145788472631e-01,-2.737016737164939262e-02,-1.405738721889830678e-02,-3.573520675275237979e-02,6.054031976911937278e-03,3.650835481313717892e-03,2.489266246557235718e-01
2.728488378128683389e-01,-2.593870198513470449e-02,1.037233687422034478e-04,2.803016271673309254e-04,-3.460333919163530885e-04,-3.019323569226105026e-03,2.867036759853363037e-01
2.494000870235832390e-01,-3.012249534552612074e-02,-1.729225708486904767e-02,-1.548500296211170399e-02,2.995171330147711718e-03,2.875928008004664891e-03,2.747403085231781006e-01
2.267785455473257106e-01,-1.796249049912236606e-02,-2.450174574262489746e-02,-2.715888359934676144e-02,2.397848543998174625e-02,-3.032751457821200852e-03,2.559427022933959961e-01
1.841790293903917686e-01,-1.565928789027769275e-02,-1.110358102711396511e-02,-3.803871502732680820e-02,9.431124619878241550e-03,1.131004951084761852e-03,2.089430838823318481e-01
2.219226193436049932e-01,-2.800226623789510427e-02,-1.293197928494296822e-02,-1.824201840219313170e-02,1.161879096696531201e-02,1.509959050855875021e-03,2.456283122301101685e-01
2.729725840544577897e-01,-9.978180446649498325e-03,-1.179386531735024390e-02,2.217080581261535069e-04,-6.892315260125295422e-04,1.028336016649011343e-02,2.844239771366119385e-01
2.717436321850683623e-01,3.168114626631385322e-03,-1.543466315753304341e-02,-1.354848918384814237e-03,-1.074836881041583894e-03,1.415466939886722217e-02,2.794372141361236572e-01
2.724325663665720931e-01,-2.399909887640938599e-03,-1.204771876285955223e-02,1.113795593080547453e-03,1.283512314058487007e-03,1.396412136541654719e-02,2.808400988578796387e-01
2.803160536095695154e-01,-2.020558586666397483e-02,-2.271551353507594850e-03,1.114699009406212464e-04,-3.576195832496293150e-03,2.410772912384472055e-02,2.950038611888885498e-01
2.827679781036765427e-01,-1.228672990176843394e-02,-1.275319081986193981e-02,3.943280035247401748e-03,4.065609032990486621e-03,1.450249020011885361e-02,2.965170145034790039e-01
2.730909429062977622e-01,-2.171133146648436540e-02,-1.087495220123536888e-02,-1.767429906533662422e-03,-2.212553854114553630e-04,4.338237717025106820e-03,2.896501421928405762e-01
2.647216390593786217e-01,-2.626409323591266665e-02,-2.653047362444127533e-02,-3.377005073374612898e-04,3.700672585059633889e-03,-4.214845692904653843e-03,2.912816405296325684e-01
2.724821094109479702e-01,-1.170678785313258863e-02,-1.533480791371699681e-02,-3.038582548027109545e-03,-1.319272727322785355e-03,7.667630756710103364e-03,2.863858044147491455e-01
2.749626269938462153e-01,-1.511749260121945937e-02,-1.825544646671198312e-02,-3.627466669631336689e-03,-4.500583402450456481e-03,4.027748047395991043e-03,2.919169366359710693e-01
2.814635348569876072e-01,-1.284017386875842270e-02,-1.215319895412725337e-02,-2.041002819898017628e-03,1.415483664838034818e-03,1.109676039612275678e-02,2.946199178695678711e-01
2.927571309919593245e-01,-2.950057928621546699e-02,-5.716750274214699168e-03,-9.460198480208529583e-04,9.607870625997235944e-03,1.687187954841969789e-02,3.128654360771179199e-01
2.960337462098905359e-01,-2.510366224101839849e-02,-1.891628535583875226e-03,4.672697897248835087e-03,1.535553986193761468e-03,1.123494990845130652e-02,3.109100162982940674e-01
2.818655907752756207e-01,-2.212752016900441931e-02,5.949382169578104618e-03,-2.995610029022005073e-04,-1.647222959824532840e-03,1.714079759378993317e-02,2.924974560737609863e-01
3.066802986962919308e-01,-3.293364750768851268e-02,1.788746626106084425e-02,-3.126183099060823607e-03,5.334780927177137054e-03,2.447992558062089818e-02,3.202707469463348389e-01
2.977937843118427796e-01,-3.177947249195114954e-02,1.804567838253109957e-02,2.180204629035647178e-03,3.859832294140198850e-03,2.510255800236419962e-02,3.108527064323425293e-01
3.030773732235053086e-01,-2.185887769840599848e-02,-2.357257385063635247e-03,-8.667316949101968454e-03,-8.552011466576095455e-03,2.429008009825783798e-02,3.191267848014831543e-01
2.285640893291631115e-01,-1.220584044546894897e-02,-2.902477254544665042e-02,1.218743392194857750e-03,1.042338990411290599e-02,2.150116416594501610e-03,2.502934038639068604e-01
1.908359882794669615e-01,-3.223522930317329616e-03,-1.416060539551322606e-02,2.698622122268326887e-03,1.822274411524465662e-02,-1.174246310209911082e-04,2.022850811481475830e-01
1.982823746222736883e-01,-1.134564415707869922e-02,-1.458121766736136804e-02,-1.952120109803727813e-02,2.045027736582889430e-02,2.499683155408229628e-03,2.169084101915359497e-01
2.185189287514716638e-01,-1.804438551225319431e-02,-2.138410280105484951e-02,1.665178721042955608e-03,2.264747571566267173e-02,-5.638249706650267506e-03,2.416729629039764404e-01
2.484850940301003841e-01,-1.351466103488194181e-02,-3.085657662488393294e-02,4.488678597638663670e-03,9.062152114406909695e-03,1.275307072787031223e-03,2.716613411903381348e-01
2.753756354508907211e-01,-1.849774782211494051e-02,-7.334614987743418024e-03,1.486586730625153070e-03,1.281823216894296871e-03,9.889412415570404680e-03,2.889820039272308350e-01
2.857664904697229113e-01,-1.501336727106819535e-02,-3.226359759897842738e-02,-1.961522662155197258e-02,-5.802209231246396176e-03,2.495717936489110812e-03,3.118149638175964355e-01
2.818562679180652841e-01,-7.146917281593223592e-03,-3.346764633660931354e-02,-1.539073073187419496e-02,-4.554900740865925647e-04,5.735284457927239746e-03,3.043555915355682373e-01
2.745843560859299037e-01,-3.081223987602799141e-03,-3.156475349540310837e-02,-1.669322382803518218e-02,-5.138212856105996498e-03,5.626466794082126549e-03,2.946668565273284912e-01
2.814760266081211548e-01,5.392416918088879796e-03,-3.856753791649664143e-02,-7.778634524804650674e-03,2.275590433341397566e-03,1.198827992491465107e-02,3.015285730361938477e-01
2.808785309391189644e-01,-2.588763502231114511e-02,-1.951950601447885458e-02,2.027422916873572803e-02,-1.530721371087291616e-02,-4.833581154354075517e-03,3.069179952144622803e-01
2.825858765443144960e-01,-6.373790044193236581e-03,-2.077344937163227989e-02,1.094997436849969507e-03,6.392628630682422979e-03,-1.432314693789377841e-02,2.976703047752380371e-01
2.670360675451628474e-01,-7.961716325351211876e-03,-2.445748918265937266e-02,1.062058291527880061e-02,-7.067885332447197688e-03,-1.074162152835373731e-02,2.850729525089263916e-01
2.826841157211673616e-01,-1.382827888629299673e-02,-1.863653853564826990e-02,4.200893816398021050e-03,-5.781667028971652217e-03,-7.870090025188718891e-03,2.995120584964752197e-01
2.653499611518413404e-01,-2.675279565349143740e-02,-1.299634919107299502e-02,6.448804657376490737e-03,-1.272487279696680323e-02,-1.079596665451997917e-03,2.865466475486755371e-01
2.782966150278610717e-01,-3.135880658136684651e-02,-1.423828816306527134e-02,1.968272813664944960e-03,-2.784820197140162878e-02,-4.470685120778887175e-03,3.054116666316986084e-01
2.582325712296875131e-01,-2.677752463144300599e-02,-1.911384787353102854e-02,1.358148842977913509e-02,-2.113838713244219070e-02,-4.081669651859145230e-03,2.846912443637847900e-01
2.554586393576212533e-01,-3.136103520771270359e-02,-1.397680952047787584e-02,2.210971825032908428e-02,-2.385529061529785555e-02,-8.370377529740622921e-03,2.845444381237030029e-01
2.790647678836361556e-01,-4.008560062106772404e-02,-7.945148291968767706e-03,1.229026578970795688e-02,-5.385731181464753319e-03,-5.212957446828258255e-03,3.053752183914184570e-01
2.698700661451104432e-01,-1.536008863011491254e-02,-4.145161852725440244e-03,-1.094321069382147042e-03,6.807977587271462358e-04,5.511299691053665566e-03,2.799630165100097656e-01
2.730607096983732052e-01,-2.674253448676421063e-02,-8.219668904969612555e-03,8.144156830601862948e-03,-6.105747665273183675e-03,-9.450095807177627191e-03,2.919770479202270508e-01
2.718675127821943427e-01,-1.009189269311575043e-02,-1.388041452886992766e-02,-2.079816239707359821e-03,-2.799573845047367230e-03,5.833255911884654456e-03,2.841165959835052490e-01
2.698400299912752098e-01,-1.188440956948019767e-02,-1.147002820297823855e-02,-8.031714325838576083e-04,-9.475344777229585073e-04,3.867991567219295282e-03,2.816053926944732666e-01
2.694487160554147609e-01,-9.881722292032379951e-03,-1.292038722199387313e-02,6.206742513697735076e-04,-2.711707069320633376e-04,2.434212673889914625e-03,2.808961868286132812e-01
2.696410497294885467e-01,-8.764637743121750368e-03,-1.557720111040593325e-02,4.244151618709108621e-04,1.384320977229106745e-04,1.985062091714678064e-03,2.818957567214965820e-01
2.685579559667883309e-01,-7.919612538063461327e-03,-1.463089488641931835e-02,-1.938239639615064059e-03,-2.166327205285041796e-04,1.191845031183344852e-02,2.806741297245025635e-01
2.728290112444380355e-01,-1.065287253260673028e-02,-1.893346717135507840e-02,-1.945898101978489180e-03,-2.263351079026000839e-03,4.845391856801051222e-03,2.878803610801696777e-01
2.717262755900513582e-01,-1.773997387119996549e-02,-7.730476878643199878e-03,-1.650339500278033208e-03,1.048646697697708068e-03,2.899828287771418801e-03,2.846580147743225098e-01
2.729887858779569410e-01,-1.131760008125795580e-02,-2.007368642786722113e-03,-3.321226245109678253e-03,-2.489054217048249692e-03,1.631280204542529325e-02,2.812824845314025879e-01
2.901482370921590337e-01,-7.768434979318519784e-03,-1.718227700112215373e-02,-2.454613906318013281e-03,-3.668609462255930341e-03,1.827967415047566241e-02,3.044805228710174561e-01
2.740850999477636440e-01,-4.612605390396443128e-03,-1.193371503132537037e-02,4.803947494617795107e-04,2.305132663522775955e-05,1.242197591946072981e-02,2.832489907741546631e-01
2.681432457198256181e-01,-3.021787162002521898e-02,-2.664012479129883315e-02,7.504905243292416244e-04,-3.682898483516702142e-04,6.151166671683086333e-04,2.965938746929168701e-01
2.741201694463035743e-01,-3.893689979943840140e-03,-1.658187450528579576e-02,-1.658302621316715911e-03,-1.546043165782291524e-03,1.788997124760488902e-02,2.862791717052459717e-01
3.287157791445529664e-01,1.463156381304710207e-02,-5.516327862463207832e-02,-6.854543963412120314e-03,2.650736233011298949e-04,5.542571580093856240e-03,3.545067012310028076e-01
2.907989508460842587e-01,1.583202085892562727e-02,-4.083091162765239979e-02,4.950490632381058425e-04,-2.472571397292904101e-03,2.893097237239536032e-03,3.073143661022186279e-01
2.942111069143693025e-01,1.493343115875452043e-02,-4.279997690472811533e-02,8.248192467983587323e-04,3.529890377031229959e-03,1.079937168562171895e-04,3.122375309467315674e-01
3.346173607138595574e-01,1.199592300231580588e-02,-5.790694424469608470e-02,-2.841197151960470416e-03,5.172007611306379815e-03,2.829787991252455392e-03,3.628383278846740723e-01
2.867674326303171206e-01,1.650173337906128690e-02,-4.247827154441610742e-02,9.443585047158033988e-04,3.114620840444491147e-03,-1.067328426777357307e-04,3.041287064552307129e-01
2.885393056819127722e-01,1.517299265661720131e-02,-4.354724737551304847e-02,-1.042752809853224848e-02,7.210858508858904994e-04,-2.709386279065216507e-03,3.075371980667114258e-01
2.777446256855375939e-01,-2.761168997029711525e-02,-2.554636033551330176e-02,-4.912925684582581656e-04,-3.021829671835111922e-04,-1.051923830263356511e-03,3.043360114097595215e-01
2.627153659381977757e-01,-1.772341899383626795e-02,-2.412697837176155935e-02,-1.501441609099499544e-02,4.307361464949759577e-04,1.962057746359867696e-03,2.849054634571075439e-01
2.737275277153716768e-01,-1.267543314847704994e-02,-2.917614644925264900e-02,-1.803851694268477843e-02,-2.035102116935314648e-02,6.935421016053178525e-03,2.989778220653533936e-01
2.882089285917825983e-01,1.633250543020742240e-03,-3.105547503529787479e-02,-1.797465434979918925e-02,-1.330933574468534837e-02,8.960147113088104756e-03,3.070887327194213867e-01
2.744164663016475658e-01,-1.969510266451063307e-02,-2.528900695261361575e-02,-1.519890961798370937e-02,-5.201993550632539806e-03,4.196900505765169265e-03,2.983373701572418213e-01
2.712443527366174001e-01,-3.051608962480462095e-02,-2.320879413663030910e-02,1.883892271899674509e-03,2.898938905872497232e-04,8.836821024615319894e-04,2.981961667537689209e-01
2.728778346586258619e-01,-1.065101755808947614e-02,-1.928005411046214423e-02,-9.909523759638567270e-03,-5.470915894453890751e-04,1.238314512434820873e-02,2.892493307590484619e-01
2.676272737351728659e-01,2.843360389872415239e-03,-3.241712208686409191e-02,-1.548051478316474217e-02,-6.995091158525738591e-05,8.764383367187949039e-03,2.857264876365661621e-01
2.870660480388709246e-01,-1.493317097299370899e-03,-2.841458709128721893e-02,9.287469167345099603e-04,2.059676255513725714e-04,8.109533105440278403e-03,3.032484948635101318e-01
2.900215397760012026e-01,1.105498635792265261e-02,-3.036731539074322139e-02,5.588195449640125274e-03,2.592971362877651877e-03,2.195691627435604823e-02,3.043907880783081055e-01
2.810822130986506684e-01,9.833919984342034959e-03,-2.184096140652061480e-02,-1.453238968676797338e-03,-2.212466618274267893e-03,2.026707264768159295e-02,2.905580401420593262e-01
2.928440422072254301e-01,2.344188427607549197e-02,-4.116607902246444128e-02,1.957594646818017897e-02,1.246726346251944388e-02,2.017065968606650272e-02,3.114382028579711914e-01
3.041771485023675448e-01,-1.574200643998444060e-02,-3.404177714446510183e-02,9.553365254095846221e-03,-2.932257765757967090e-04,1.099906171454100544e-02,3.304157853126525879e-01
2.733796423781557627e-01,-2.521978430795163151e-02,-9.898115553355166241e-03,-1.393661116006622092e-03,4.765290442419325284e-03,-8.396918325726039634e-03,2.917307019233703613e-01
2.648672214682982196e-01,-1.648354559251861973e-02,-1.838759189713148889e-02,-1.356211575110139594e-02,1.879661994064299457e-02,-8.825652582158822687e-03,2.855573296546936035e-01
2.689159948475138284e-01,-2.462748001807564535e-02,-2.220641038555691560e-02,-2.000941734466125509e-03,2.415271513965013429e-03,-1.075242879953001648e-03,2.923968732357025146e-01
2.695861132802472304e-01,-1.436352905974827565e-02,-1.762158476474183499e-02,1.628063641398875324e-03,9.692798795451218214e-04,6.703851664770983957e-04,2.856138348579406738e-01
3.107869206664118922e-01,1.131492384722901368e-02,-3.763756299263115723e-02,-3.369010272184524458e-03,-4.746119400003008179e-03,1.274838093742531632e-02,3.276109099388122559e-01
3.250993775022006926e-01,1.172273352746358577e-02,-4.188795615075821543e-02,1.190635916818045745e-03,-7.296516512625021711e-03,1.057209659122461572e-02,3.440619707107543945e-01
3.102218770277172522e-01,-6.692265310804648704e-03,-3.179994416672196622e-02,-5.102559761257621611e-03,-5.469001521778437541e-03,1.011801870554729019e-02,3.309031724929809570e-01
2.868558349172025679e-01,-9.309815190572431898e-03,-2.688201696575565069e-02,-1.506808714862496734e-02,-1.709399869162534814e-03,1.215845995110896929e-02,3.071816265583038330e-01
2.821319048195199963e-01,1.368683903655359968e-02,-2.282750824248383492e-02,-5.031524355253543489e-03,-1.284376464026846078e-03,2.424259407983795495e-02,2.916198670864105225e-01
2.865352375530934026e-01,8.670730136200358040e-03,-3.429434350474130921e-02,-7.087774317691931600e-03,2.374762821600272234e-04,9.774517373944933973e-03,3.023750185966491699e-01
3.157467678884658402e-01,1.122816878788747419e-02,-3.968116833580967451e-02,-1.564717439236857147e-02,-4.596927785297684303e-03,1.987130017186489184e-02,3.358700275421142578e-01
3.063070470619461139e-01,-3.886665526923901992e-02,1.095422521446476338e-02,1.008556231083280845e-02,4.158400150517585492e-02,1.924070701532335295e-02,3.332170546054840088e-01
3.217062649417750664e-01,6.628229343230096493e-03,-4.392657117091416930e-02,-1.453908437617831492e-02,-9.623562419496234626e-04,1.481131564146546085e-02,3.450416326522827148e-01
2.668848303905464459e-01,-2.717126612183594359e-02,-2.565670440427780807e-02,1.813588238016267378e-03,-2.050338427434053069e-03,1.570425811926328330e-03,2.933526635169982910e-01
2.569737082492747349e-01,-2.082272755436426204e-02,-2.428224959227225088e-02,6.415360136294803728e-03,-2.037265597316575277e-02,3.824535776231898204e-03,2.820573747158050537e-01
2.613767280428130890e-01,-2.237981608076557161e-02,-2.981287859853835875e-02,2.580133247917362500e-03,-3.313265272023217019e-03,4.194608848372618527e-03,2.877288460731506348e-01
2.702412788001903321e-01,-2.464655307547729268e-02,-2.397298207327919206e-02,3.945530438597507315e-03,1.638171345460186831e-03,5.793541694495855715e-04,2.946462631225585938e-01
2.579196210502305853e-01,-2.113723993877478224e-02,-2.862055096025975520e-02,5.241736109577438581e-03,-1.048505755674641535e-02,3.687464535260165290e-03,2.836723923683166504e-01
2.453333255090379417e-01,-1.937913437726079824e-02,-2.800571893576650484e-02,5.912988398825953264e-03,-8.722596907575669994e-03,5.638820980703000696e-03,2.699244320392608643e-01
2.689022053466224027e-01,-2.431041216843210506e-02,-2.881240824131660327e-02,9.043629083150081949e-04,-3.974916334912846801e-03,1.948227288212556760e-03,2.955929338932037354e-01
2.730715134076445727e-01,-1.668289850370420491e-02,-2.378434748003499521e-02,1.283882641245853717e-02,-6.922933962635442751e-03,-6.286441885429359423e-03,2.946566939353942871e-01
2.464310805997418086e-01,-2.205725782347500719e-02,-2.389216500774772600e-02,-7.229329689537969741e-03,-1.505282209168822341e-02,-6.787960877174281128e-03,2.712135314941406250e-01
2.670486799603636330e-01,-2.216254692181765518e-02,-2.491926166913500940e-02,2.699280584179454892e-02,-2.295107842240197080e-03,-5.742273462549201193e-03,2.945311069488525391e-01
2.777798301907388745e-01,-3.002765198101478572e-02,1.453383746674538624e-02,1.145398311026039504e-03,5.780370844183159960e-03,3.493374191483271558e-03,2.883671224117279053e-01
2.704920121538271771e-01,-2.511304107696447907e-02,-2.565256520864449274e-02,1.106116365974311837e-02,-6.520721421617309797e-03,1.703713389040090436e-03,2.967245280742645264e-01
2.664884490776134318e-01,-2.371953651653277428e-02,-1.758972558639398942e-02,1.063876999548277755e-03,-3.283399162151610061e-03,-8.637282776532074352e-03,2.876436710357666016e-01
2.741120225517302833e-01,-1.751039244153761165e-02,-5.019486353431482084e-03,-1.522422192711603457e-03,-1.738844274287744233e-03,3.634347054266475439e-03,2.856793105602264404e-01
2.686167878951738475e-01,-1.651186804490369087e-02,-1.835446555106462485e-02,6.352676504832972977e-03,-1.841799818867535278e-03,-7.079174521189287618e-03,2.865461707115173340e-01
2.697612191748876009e-01,-1.662496493034379408e-02,-2.201912483119963793e-02,7.384042812773923201e-03,2.578096717821809578e-03,-8.130616777364213163e-03,2.897805869579315186e-01
2.645001181534806234e-01,-2.468380830612677823e-02,-2.445253882668453616e-02,1.333622104597948464e-02,-7.406709915075079115e-03,3.118028808226935584e-04,2.902739346027374268e-01
3.090326731737667032e-01,2.334289183753740504e-02,-5.005506842772836085e-02,2.499220019704561507e-02,2.547939859345848754e-03,1.792328155085732774e-02,3.329144120216369629e-01
2.903790072081161577e-01,2.392565878919440669e-02,-5.300904218991744909e-02,7.236572808841821788e-03,-6.552879711324593147e-03,2.371024044766615983e-03,3.125998079776763916e-01
3.303285194564304916e-01,2.148910035238064953e-02,-5.222797654336000517e-02,1.370412757657850367e-02,-1.043773883618147411e-03,5.724899027471719651e-03,3.524879217147827148e-01
3.258762275868489766e-01,1.668510141871570873e-02,-5.585549079085017077e-02,1.516014733362671188e-02,5.275141220013631997e-03,4.111094025005732761e-03,3.522979915142059326e-01
2.866191394785826407e-01,2.586189906317298837e-02,-7.148974068959523809e-02,-1.544505719369236238e-02,4.480916053886182387e-02,9.425359562991167048e-03,3.314552307128906250e-01
3.445099098468745735e-01,1.409827847085327879e-02,-6.340407039237311304e-02,-1.683636311487854767e-02,3.060621558257729802e-02,1.198174772969944589e-02,3.806276917457580566e-01
3.128613900721140539e-01,2.475212118275101070e-02,-5.121134188727785586e-02,-6.802660903289550753e-02,4.903750892012631417e-03,-3.155035635095502274e-03,3.530552983283996582e-01
3.245606801172065681e-01,2.178328447080409014e-02,-5.432332146906493353e-02,8.212363101573007251e-03,1.208800458149516220e-02,6.080014145944420516e-03,3.482259511947631836e-01
3.257294365193086350e-01,1.661761342671047581e-02,-4.665322130675675361e-02,-1.102220830258985630e-02,-4.183213169990836373e-03,7.053851883108313778e-03,3.459441065788269043e-01
2.881090854741372720e-01,1.707356706352644582e-02,-4.320637335236748866e-02,-1.340611823589791390e-02,3.657229387837065103e-03,8.246835945761898153e-04,3.066158294677734375e-01
2.774936737077960958e-01,1.831679937764066346e-02,-3.682695421067838648e-02,-1.224145011101229925e-02,1.794974830285508277e-03,3.866423498635315238e-03,2.915639579296112061e-01
2.726965678945915128e-01,-1.314238264114109267e-02,-1.465157408839795616e-02,-7.808432688311901099e-03,-5.818258002269069244e-03,1.317913300939811683e-02,2.879984676837921143e-01
2.732526107258707038e-01,-2.523904189360827444e-02,-2.522069061689173608e-02,-7.489931406055137450e-03,-3.763171868367012028e-03,-4.011492772338210279e-04,2.988361716270446777e-01
2.770163014376988975e-01,-2.413430476310032824e-02,-1.809163998138850482e-02,-1.005476589849103181e-02,3.021894417619174714e-03,3.860555427444080454e-03,2.988040447235107422e-01
2.670620031485748114e-01,-2.805372850085537106e-02,-2.568163024758160495e-02,-3.166219909314951526e-03,-3.180127409000765154e-03,-2.767155732495346805e-03,2.940786778926849365e-01
2.599723467028686175e-01,-2.312277382457778030e-02,-2.180132911176818622e-02,-5.472582340068476124e-03,-4.973336758058551771e-03,-1.337517830216435402e-03,2.827364802360534668e-01
2.680202881271047666e-01,-2.829106435435507771e-02,-2.523410158876408793e-02,-3.161476315740424561e-03,-1.188896286668485224e-03,-3.460952798380602293e-03,2.949137389659881592e-01
1.846022329239327409e-01,-8.507541705003285326e-03,-4.752647789907735176e-03,-4.630337465333018293e-02,5.802283357719242862e-02,-1.950720498660125576e-02,2.329247146844863892e-01
2.441691188335860518e-01,-2.571960562817661444e-02,-2.667045915093126107e-02,-3.686017631195073058e-02,2.435151966238965557e-02,4.368110674703587840e-04,2.809858322143554688e-01
2.621702758044284209e-01,-2.587932861858592559e-02,-2.676531521830960436e-02,-2.417201088003464657e-02,4.518311390826880436e-02,-1.908406798443313714e-03,3.018557429313659668e-01
2.953425588453988948e-01,-3.749346110773454921e-02,1.031185354801111842e-02,6.953820277080420553e-03,3.486564363603840422e-02,1.536123715906383309e-02,3.188316822052001953e-01
2.665829936245357468e-01,-2.946022547899311561e-02,-2.728868045651704211e-02,-3.015790099346869063e-02,4.433437597710872952e-02,-3.583820679238132467e-03,3.093009293079376221e-01
2.758233278764221641e-01,-2.478917337268007892e-02,-2.390848440178933165e-02,-4.010879405912388083e-03,-1.458355474754404260e-02,-2.150792639863581557e-04,3.013143539428710938e-01
2.191520557774642164e-01,-2.169046630562544709e-02,-2.014664783443996521e-02,-2.112270968627089421e-02,-3.636736650237255147e-02,-2.123135355212931938e-03,2.509092986583709717e-01
2.298125380212676649e-01,-1.673641604249057058e-02,-2.191797131488731898e-02,-1.131985234036538869e-02,-4.256355914230610521e-02,-5.464748368597760128e-03,2.607675492763519287e-01
2.748056795731301793e-01,-2.128361042946695647e-02,-1.645162704657225639e-02,1.071997592283927513e-03,3.383201830749440770e-03,-7.368754708756044668e-04,2.937701940536499023e-01
2.579672808733110001e-01,-1.671140256824757420e-02,-1.335298033564247255e-02,-7.598025345858728380e-03,-1.698355746447796980e-02,9.187978250875228001e-03,2.753705680370330811e-01
2.169314346468636523e-01,-1.790136375137202362e-02,-1.116315156791404528e-02,-1.254935809623815290e-02,-2.329079131863195581e-02,4.386874445755508702e-03,2.361505180597305298e-01
2.493382920547818349e-01,-2.090039925361135420e-02,-2.561058751834216496e-02,-2.392600291382876443e-02,-1.776041812010330928e-02,4.488952019402906411e-03,2.775754332542419434e-01
2.741982807569846026e-01,-2.389916128093547143e-02,1.405704159587142787e-03,5.056693203372854923e-04,-2.304406445383718350e-03,1.155846795092090908e-02,2.870132327079772949e-01
2.622622654193680347e-01,-2.195459210894877555e-02,-2.334965439977469692e-02,-3.195160022859181402e-03,-1.553383356122345349e-02,-3.360960025039537251e-04,2.862386107444763184e-01
2.758334514016543282e-01,-2.537895486513193355e-02,-2.748800268351356269e-02,-7.193398498352591769e-04,9.078304070931104562e-05,-3.458784297256413398e-04,3.022756576538085938e-01
2.682985916686662087e-01,-2.616169130319816183e-02,-1.351916528577011556e-02,-2.759700104339462418e-02,-2.813141205966533664e-02,6.531119548245721551e-03,2.965313494205474854e-01
1.995172729583065407e-01,-6.265832674066926233e-03,-1.836384713329701490e-02,6.378777173916893445e-03,-1.709968521960478563e-02,3.659305435519948080e-03,2.145275026559829712e-01
1.943351325602521718e-01,-1.675387238265529932e-02,-8.043625841530108178e-03,1.851327602589540253e-02,-7.221389834109326680e-03,5.097781599941800246e-03,2.099010050296783447e-01
2.111731066628160236e-01,-1.757188074289646462e-02,-1.824624869958499374e-02,2.394539035092320758e-02,-2.086136458981331654e-02,5.345757053255321620e-03,2.357762604951858521e-01
1.892881472300111945e-01,-7.876600878828174390e-03,-7.945331612609532468e-03,9.916088212189028486e-03,-7.436524146239914188e-03,8.106329626860480850e-03,1.988605707883834839e-01
2.952312253265646502e-01,-1.557028578738413327e-02,-3.142380925020718530e-02,-1.546592746820694975e-02,-6.190591598662757017e-03,5.965302070751532688e-03,3.204926252365112305e-01
2.771437556130211255e-01,-2.380891594868134176e-02,-2.527913946952271840e-02,-1.033856997657151000e-02,-6.420056045686079425e-03,1.078329317532162939e-03,3.024317026138305664e-01
2.849704467615074011e-01,2.738742076596689667e-03,-3.262005986184710049e-02,-4.152566449151737509e-04,5.297360609089646864e-03,9.601674486518092452e-03,3.020689189434051514e-01
2.538923006749684852e-01,-1.556859851554201479e-02,-3.450871036705520367e-02,-6.097640927933822971e-04,-1.790434137601244671e-03,1.005471033215622496e-03,2.794374525547027588e-01
2.764972125398642566e-01,-6.585318346905580378e-03,-3.232589405921310055e-02,-1.109369719967505732e-02,1.591221032420331912e-03,5.884890924833981359e-03,2.975999116897583008e-01
2.731163733446878017e-01,-1.134279078171396282e-02,-2.437579101953922522e-02,1.298291800681023681e-03,-3.916207562794624814e-03,5.769832624063334775e-03,2.914535403251647949e-01
2.892437733579763526e-01,-1.031117034754419626e-02,-2.777170282272342638e-02,-4.468259735480550193e-03,-2.606019934229147818e-03,5.734870523244763041e-03,3.089455664157867432e-01
2.530072304053084808e-01,-1.832351155007523602e-02,-3.227102511272848806e-02,6.934914505456871159e-03,-1.088152920581183722e-02,1.662811970200562400e-03,2.794764637947082520e-01
2.637376969010682970e-01,-2.446567774763551417e-02,-3.031857074842721211e-02,8.946136841905907335e-04,-2.406318119598209113e-03,2.739114327473570355e-03,2.912465333938598633e-01
2.567942303076242161e-01,-3.615723735340847789e-02,-1.544698580690302692e-02,1.995567785028124971e-02,1.114619188967132376e-03,1.680330365405205504e-04,2.852733433246612549e-01
2.093132008886295359e-01,-2.267937290294140540e-02,-1.495536378575933190e-02,2.295231477005610712e-02,-9.208004226925314145e-03,-6.075121309494294942e-03,2.324517369270324707e-01
1.663343951700384238e-01,-1.283307766182249787e-02,-1.302621367506567873e-02,4.846886043762128893e-02,1.165595115490536057e-02,-5.196642247890057888e-03,1.991780996322631836e-01
2.052959505810375562e-01,-1.101875267579131845e-02,-1.394954727922777249e-02,2.206144300666095653e-02,-9.525286807577543896e-03,-1.438650963891527877e-03,2.217501699924468994e-01
2.547976232156377585e-01,-3.133375196259102768e-02,-1.770568400878043402e-02,7.409984942422622248e-03,-2.412233048741997156e-03,6.297737540669490382e-03,2.801046967506408691e-01
2.150333049915715833e-01,1.265405020708518236e-02,-1.411259954660734617e-02,6.433492073331195660e-02,1.922570971235670542e-02,1.338875306180951213e-02,2.472942322492599487e-01
1.829633796777198618e-01,-4.198823909866747361e-02,-1.449108515070292313e-02,-2.760542520579447982e-04,-4.467556080245372110e-03,-8.281383059636011207e-03,2.131657749414443970e-01
2.267917658017855331e-01,-1.890380773555880300e-02,-1.911262030839641635e-02,3.812124475682990288e-02,5.097370954881099044e-03,-1.164059643821648829e-03,2.546750307083129883e-01
2.185576388025955441e-01,-1.156190216559124795e-02,-1.663825025797119328e-02,4.628615035442644465e-02,-1.292072013249218792e-03,6.874179886067566768e-03,2.464202344417572021e-01
2.475855756098623850e-01,-1.742250353924097717e-02,-2.614972991806477354e-02,-7.518900727879487822e-03,-1.193889270714514929e-02,-4.590780619381580781e-03,2.707003355026245117e-01
2.715257362807717012e-01,-2.539020508600850490e-02,-1.635028383598058355e-02,-5.568846179168710810e-03,-4.828590439991716464e-03,1.134887113791468657e-03,2.927858233451843262e-01
2.544355375389671381e-01,-1.935277934625283247e-02,-2.862923844706970200e-02,-3.134829295961347011e-03,-5.111357551232677959e-03,-1.356293786330513024e-03,2.787458598613739014e-01
2.529664521285774348e-01,-1.873000211527889314e-02,-3.163157497002380691e-02,-2.621443703395755047e-03,-3.675451132424014181e-03,-3.461919227589754702e-03,2.785459160804748535e-01
2.644779792525995266e-01,-2.320895956448522368e-02,-2.526659821387118587e-02,-2.013835767004330118e-03,-6.515217249921868153e-03,-3.062604664262611950e-03,2.890114486217498779e-01
2.724383444864230119e-01,-2.326624162692909892e-02,-1.575424764957521206e-02,2.685193204462704361e-03,9.992659453952474063e-05,2.517685042692856170e-03,2.920907139778137207e-01
2.758164401679903399e-01,-2.665520901891277328e-02,-2.396001938560717026e-02,-1.484430760463657231e-03,-1.192955371634481058e-02,-3.375415780583427422e-03,3.019087314605712891e-01
2.563000596358900873e-01,-2.288711621151129361e-02,-2.135065295549011533e-02,5.032539303184941715e-04,-5.726804633974487760e-03,1.481757429293616493e-04,2.786002457141876221e-01
2.689517452114406071e-01,-2.041577428065594058e-02,-2.499714582775204585e-02,-1.707323096521595144e-03,-4.918273720871862986e-03,2.871293000150002103e-04,2.918249666690826416e-01
2.627888803719103938e-01,-2.354861652534159799e-02,-1.787213774559717749e-02,3.524728519110839793e-03,-2.067327582750619341e-03,8.423378316022562097e-04,2.836339473724365234e-01
1.939343484478687762e-01,-1.374271198343528233e-02,-4.845256273935602542e-03,-1.618494319115965042e-03,2.373452518632900693e-04,-2.825328046405810398e-03,2.034529447555541992e-01
2.613078027776209455e-01,-2.847011603988608419e-02,-2.352639919381595279e-02,3.311758716322418740e-04,3.445695507426701923e-04,-3.257466311836031483e-03,2.873945534229278564e-01
2.617986682663480669e-01,-1.831228068377541152e-02,-3.482324655290393312e-02,1.960056072062424121e-03,-1.102662105975799013e-03,1.697787597177248487e-03,2.887619733810424805e-01
2.719439491072505044e-01,-2.378650190155714994e-02,-2.635729077069869086e-02,-1.678252060617792122e-04,-7.584429460657734351e-03,-2.656867608927964298e-03,2.973502874374389648e-01
2.716735361862897546e-01,-2.289567350994438366e-02,-2.666955891350947239e-02,4.782866704226478114e-04,-2.365345560051137011e-03,-1.259311375339620216e-03,2.965116500854492188e-01
2.697304068440903868e-01,-2.523597242434326426e-02,-2.042089325827281532e-02,-1.723357076934144833e-03,-6.119171517292634581e-03,-1.212156260159767468e-03,2.928031980991363525e-01
2.652876266777408620e-01,-2.583443397909733485e-02,-2.612901111986594416e-02,-5.243044509911441720e-03,-6.969457060274172888e-03,-4.722996046565433072e-03,2.917756140232086182e-01
2.656126346828170948e-01,-1.980437693097618357e-02,-2.239620489414041737e-02,-1.350632679428595551e-02,-1.076399607709655794e-02,5.659610226250024606e-03,2.884446084499359131e-01
2.547982815768879972e-01,-2.644832622002657452e-02,-2.224566144993228578e-02,-1.162250950914793003e-02,-2.232866659630150866e-03,-4.389289358539470894e-03,2.800238132476806641e-01
2.641828242745204447e-01,-2.147916648753288305e-02,-2.605884279993077313e-02,-7.363304830102862519e-03,-8.705486880011466602e-03,-2.395429398495543555e-03,2.886853218078613281e-01
2.018956841324926199e-01,-7.913035033876275604e-03,-2.013875347167999597e-02,-5.813501215406692568e-02,-1.041682172853028703e-03,2.691145057248670903e-03,2.385335415601730347e-01
2.567128163370849259e-01,-2.535805651473972688e-02,-2.232555800755524344e-02,-1.288033418565765094e-02,-5.169960215748127183e-03,-6.803954083242751963e-04,2.815973758697509766e-01
2.585408806403107773e-01,-2.288560548234727654e-02,-2.217649980302698054e-02,-1.603516270498890617e-02,-3.901791134843075881e-03,-2.803101336803022654e-03,2.825640439987182617e-01
2.684823562331610236e-01,-2.569258365943631606e-02,-2.330751978090209175e-02,-9.796283284793608215e-03,-2.250062971331227412e-03,-6.199855526007106137e-04,2.935084402561187744e-01
2.562588559415012179e-01,-2.179309194516776405e-02,-2.152045557597710712e-02,-1.370062250164142542e-02,-1.577095758172715814e-02,1.688325204928946711e-03,2.802766263484954834e-01
2.036998922868510919e-01,-2.134907571715899399e-02,-1.657803502518974403e-02,-1.314608892029542168e-02,-2.940028901620352769e-02,4.801180423696263348e-03,2.297320812940597534e-01
1.989649964893343559e-01,-9.594616997861751817e-03,-2.114196137027840594e-02,-4.844116395563531022e-04,-2.545133191711747289e-02,8.519937604682008888e-04,2.190546840429306030e-01
2.089310294756901720e-01,-1.841859995780475989e-02,-2.127123576682650452e-02,-1.262560137545832824e-03,-2.434527911640438011e-02,2.063465766149180126e-03,2.326804101467132568e-01
2.290499816415046686e-01,-1.154796539601217475e-02,-2.886404276202499120e-02,-3.185692889163005762e-03,-2.725356342508984675e-02,-8.943796138944109424e-04,2.541939020156860352e-01
2.258030516699214008e-01,-1.208121513602831987e-02,-3.108852819914365018e-02,3.193317619369455233e-03,-3.196458618875386987e-02,1.514831398165334157e-03,2.541149854660034180e-01
2.093973220252138834e-01,-1.504218322364425653e-02,-2.056518287757892749e-02,1.339603964375149850e-02,-3.150802362471971652e-02,5.099752508289974061e-05,2.348612546920776367e-01
2.388475507225690242e-01,-1.594105148730402821e-02,-3.160771300942705198e-02,6.443539647123810131e-03,-2.976430431695276102e-02,2.960560752349230759e-03,2.682591080665588379e-01
2.620182815731687542e-01,-1.719420042926682324e-02,-3.465312252733117326e-02,1.436741637353494911e-03,-4.336323506571049431e-03,-4.228614448731138407e-04,2.884481251239776611e-01
2.530476959440980389e-01,-2.231192676783649853e-02,-1.987213955033557966e-02,1.631218104221052829e-03,-1.540382502002996326e-02,-6.071399454635592521e-04,2.754595875740051270e-01
2.470417719151018210e-01,-1.692243423976437511e-02,-3.123258622301015863e-02,1.968615580658002206e-04,-2.001827960556806438e-02,-7.524493469770219623e-04,2.736115157604217529e-01
2.635120400288977205e-01,-2.828989262808731531e-02,-2.564803175625481046e-02,-1.997429001002147531e-04,-1.292878179104856940e-03,3.783298868574671864e-03,2.905727326869964600e-01
2.646475084845356651e-01,-2.838515631063824596e-02,-2.568725042921983504e-02,1.066287663346812773e-03,-1.919362153022432810e-03,2.558324625568758528e-03,2.917515039443969727e-01
2.716212030194519733e-01,-2.807497922405557955e-02,-2.789015867074255695e-02,-2.559475659023760673e-05,5.381794634933053257e-04,1.389803341969347156e-03,2.996149361133575439e-01
2.701068962436735665e-01,-2.713685313368090213e-02,-2.782052153319941601e-02,2.426164235255014764e-04,-1.909967600257251881e-04,2.115520756946381083e-03,2.976092100143432617e-01
2.686696316336555368e-01,-2.718012136223064978e-02,-2.770256393015757546e-02,-9.356670854648265390e-05,-4.557801462079495323e-04,2.064411527398819432e-03,2.961339950561523438e-01
2.615688787952810679e-01,-3.429745903946672392e-02,-1.764396511889805563e-02,-4.380910759534798783e-03,-6.246349747993665486e-04,-6.015716727725898801e-04,2.880049645900726318e-01
2.872050948220582489e-01,-1.934871989827958993e-02,-1.091175395743076981e-02,-1.355839587025908094e-03,-1.675946955884207714e-03,1.543127802348458720e-02,3.036253452301025391e-01
2.751517082692769289e-01,-2.111792803514833672e-02,-1.639705648082682987e-02,-4.192464820765055659e-03,-4.199128374776505725e-03,3.014257815732228080e-03,2.941635847091674805e-01
2.566284227849083832e-01,-1.759774848316211782e-02,-3.558526046658558317e-02,1.283395153886746282e-04,-5.813780004316329358e-04,1.716001578492030251e-04,2.836500406265258789e-01
2.752024418076025603e-01,-1.509518885873510630e-02,-1.815817637186623035e-02,6.795274597435193784e-04,2.072543730884862168e-04,5.805567733171480317e-03,2.920169532299041748e-01
2.749908402434054766e-01,-2.018900777038319660e-02,-1.613800153985259223e-02,-3.883240067009680399e-03,-4.270872525786454516e-03,2.271929668072924461e-03,2.933721542358398438e-01
2.755017417172896943e-01,-1.921764490699945371e-02,-2.105679107596206134e-02,-3.986050277158906599e-03,-4.413495075565453118e-03,1.903990511893535959e-03,2.958410084247589111e-01
3.100569747290138900e-01,-5.324588017925072081e-02,8.028479448255174122e-03,1.285657126073547554e-02,-8.471635334190057501e-03,-4.146831530792661688e-03,3.380016684532165527e-01
2.760454700472317890e-01,-3.959325830135004831e-02,-2.912335972774710013e-03,9.870146774238187232e-03,-1.870408425445443945e-02,4.215901858085971399e-03,3.013145923614501953e-01
2.704916026352487401e-01,-3.842105254642599887e-02,-7.602290365478797662e-03,9.835581249318228747e-03,-8.492343004923720573e-03,1.692245143593452657e-03,2.955870330333709717e-01
2.556273709148379480e-01,-4.065238736501733396e-02,2.743782088651569584e-02,5.818003960361631775e-03,-7.754730800895087706e-02,7.610911069007422758e-03,3.009323775768280029e-01
2.935967383244039164e-01,-5.229324961608594613e-02,2.489491934709771315e-02,1.189886451753625375e-02,-4.611684898927007753e-02,-1.701232290072585834e-02,3.264545500278472900e-01
2.672360004852772364e-01,-2.971480561902624384e-02,-8.048814473817694770e-03,1.060313069165141377e-02,-1.482430959533997256e-03,-1.235380569764883175e-03,2.873393595218658447e-01
2.855332954394439460e-01,-1.115986933624707467e-02,-2.647382304326409419e-02,-1.863594016640177792e-02,-1.017690854052825770e-02,1.190825894022190697e-02,3.075433671474456787e-01
2.874421719739804204e-01,-2.194704349068302141e-02,-2.122617413986015167e-02,5.113653329387486809e-04,-1.407813114782395991e-03,5.261125769252128319e-03,3.091746270656585693e-01
2.723803405777102671e-01,-1.814888927669237872e-02,-1.507358137753814220e-02,-3.808657931784723179e-03,-3.107519511703040610e-03,1.017605449387992862e-02,2.896659672260284424e-01
2.821102991300301621e-01,-1.491732367269871240e-02,-1.401711710066586014e-02,3.020408583133575749e-03,2.424553849836828378e-03,1.333106950230334049e-02,2.975516617298126221e-01
2.624504096174281598e-01,-2.851172795289480533e-02,-2.282367391103158616e-02,-4.393618184632711206e-03,-7.420506738220098222e-03,-4.202380899398238528e-03,2.886388599872589111e-01
2.776334316280887338e-01,-2.311527149088388189e-02,-1.357439520071374028e-02,-1.643352555645156282e-02,-3.536735797504083657e-03,1.188220279972387536e-02,2.982325851917266846e-01
2.697362824095030920e-01,-1.549780519764278053e-02,-1.052706939583621104e-02,-2.068591915115520791e-05,6.270443166697741658e-04,2.219769719240931478e-03,2.828097045421600342e-01
2.705163096902793995e-01,-1.392975606585065973e-02,-1.048561072385940929e-02,2.302891477513339252e-03,6.533790824775576002e-04,8.206169942909277704e-03,2.831271290779113770e-01
2.703460098394783184e-01,-1.650662223641737036e-02,-7.910387990991363250e-03,4.374708443091142925e-04,-1.024649018184020134e-03,8.916537375755930047e-04,2.826633751392364502e-01
2.680597547643305267e-01,-2.445569772921113438e-02,-1.875293040478104301e-02,3.667850027575090925e-03,6.993746802890081146e-03,-5.781198966033029157e-03,2.902016937732696533e-01
2.675810954824953125e-01,-2.150185811905430677e-02,-1.728824363253368690e-02,-2.547263056642094358e-03,7.332583952004229078e-03,-4.922033725643711922e-03,2.874405384063720703e-01
2.741671986639241942e-01,-2.419109076153262705e-02,-2.407619254461985936e-02,1.461874292882719755e-03,7.675242660515049428e-04,-4.291015681892942630e-04,2.983154952526092529e-01
2.676107772575408994e-01,-2.649713596921980663e-02,-2.839948120504119655e-02,-6.687768908679982355e-04,1.064489357509513590e-03,7.971018604937810852e-04,2.950749397277832031e-01
2.773955136590380288e-01,-2.369121240245281035e-02,-2.721682844916636923e-02,4.104134255015228286e-03,2.113850147104989231e-03,7.807571863074410246e-04,3.029734790325164795e-01
2.493417348603209072e-01,-2.164823423230367860e-02,-2.755263967927670810e-02,-1.082524767967069567e-03,-2.552757764596185093e-03,-4.581594606182767641e-03,2.741468548774719238e-01
2.422215878115344667e-01,-2.217394049233795128e-02,-2.476764463605710120e-02,-3.097990000214624444e-03,4.016791452077853991e-05,-6.662103069060703285e-03,2.660064697265625000e-01
2.455618454605622558e-01,-2.657140500287144547e-02,-2.231951830434411588e-02,-9.097207731596290009e-03,-1.231041079814386213e-03,-6.074766755068751120e-03,2.707047164440155029e-01
2.588674241597499481e-01,-2.800250599541415086e-02,-2.403439094451753633e-02,-3.241281685160552796e-03,-2.680219532246754660e-03,-3.870600926194185665e-03,2.850785553455352783e-01
1.632639809976493828e-01,-2.021661093296751865e-02,-8.060201317120298248e-03,-2.016011981159535060e-02,5.963063095217025454e-03,-5.145938900257762509e-03,1.816255748271942139e-01
2.363130699151632375e-01,-2.198558172185267889e-02,-2.198940113262824736e-02,-2.817957817726224248e-03,-2.454703435923525495e-03,-6.481571042931251643e-03,2.586254179477691650e-01
2.471127922974617752e-01,-2.736400346497050440e-02,-2.232329194557793051e-02,-4.164553673877946158e-03,-3.118073240808784223e-03,-5.605772343134323224e-03,2.723138630390167236e-01
2.767835833780355470e-01,-2.441464597963352579e-02,-1.895678829667751808e-02,-5.815793033410929062e-03,-1.120452807865546067e-02,3.946621927577393350e-03,2.993845045566558838e-01
2.837829441798479513e-01,-2.046115253501720743e-02,-9.723130637885143979e-03,-1.428432962813202091e-03,-2.323716339198264504e-03,7.352647567789863219e-03,2.993280887603759766e-01
3.117767576760641646e-01,-2.979723631625047497e-02,-1.053185710337532777e-02,-6.256718501903839325e-03,-1.422264057793207886e-02,1.510389938634415508e-02,3.344728350639343262e-01
2.872510753075809831e-01,-2.284896305268613315e-02,-7.755048738656636353e-03,7.000804407516057369e-04,-9.642185024163411888e-03,2.280523052239227452e-02,3.058592081069946289e-01
2.678704548504917127e-01,-1.977324207585759441e-02,-9.951522302633630801e-03,1.150970441125562585e-03,-2.832406628157462230e-03,8.451572004596773560e-03,2.832887768745422363e-01
2.486164974613221390e-01,-2.092744643705254926e-02,-2.431885210337048076e-02,-2.887475152923496373e-03,-1.998534640097127113e-02,3.829434949841485137e-05,2.735010683536529541e-01
2.557198105050038084e-01,-2.459967988227663993e-02,-1.659694600874213333e-02,2.004470309541606272e-03,-9.143991385225104171e-03,8.241407476797529700e-04,2.768838405609130859e-01
2.611486468678956285e-01,-2.402207170491929555e-02,-2.587926342110398459e-02,-8.894440381478857169e-03,-1.063785055466603437e-02,-4.451564743231087654e-03,2.872136533260345459e-01
2.250857537955511245e-01,-2.111612491952777337e-02,-1.869970891732272711e-02,-1.965877110780374012e-02,-4.119190455849774946e-02,2.111168403031105090e-03,2.574672102928161621e-01
2.357656099821003604e-01,-1.642745264536632499e-02,-2.827063636144065695e-02,-8.002001385296438757e-03,-1.310778216865777189e-02,-5.858717139235447222e-03,2.598824501037597656e-01
2.589666906720536899e-01,-2.097399887739088975e-02,-2.957455897722842397e-02,-6.321556308036404420e-03,-2.203128845693911111e-02,-1.515903119975201083e-03,2.871085405349731445e-01
2.578186633456873711e-01,-2.275157406163497154e-02,-2.163438149760475715e-02,-3.994427536706712106e-02,1.805958072257196623e-03,1.105095996938682381e-03,2.884571552276611328e-01
2.751172540347989193e-01,-2.473945833751020618e-02,-2.455038369920871377e-02,-1.919773999852375512e-02,3.214480115279084484e-03,-3.231556783564990681e-03,3.017041087150573730e-01
2.435401423645591479e-01,-2.066518110921652940e-02,-2.119673886946643604e-02,-7.646395462551771466e-03,4.201211176342706764e-03,-6.196935070847202874e-04,2.649050354957580566e-01
2.514291200625133338e-01,-1.591632642205471904e-02,-3.288712597210866062e-02,-2.803109289957224706e-03,-6.014881710917135624e-03,-1.161012339262326460e-03,2.764684557914733887e-01
2.462696538425818427e-01,-3.053790205247795819e-02,-1.608141958972177099e-02,-1.882049011325842916e-02,2.377773324364020578e-03,-2.887233516507482518e-03,2.719087302684783936e-01
2.706838533517899603e-01,-2.398534612646473219e-02,-5.899787340059720053e-04,4.024801887706250247e-03,3.100829008794340081e-03,1.142952485159119680e-02,2.845219373703002930e-01
2.781456124293723020e-01,-2.499249370281461657e-02,-2.444462299884934964e-02,-9.376463211788789442e-04,-1.451464307606414536e-04,-1.875463063864445806e-03,3.028864264488220215e-01
2.761795374233347866e-01,-2.836709565778294806e-02,-6.038428445792998200e-03,-2.501461786854398847e-05,4.526559841657121913e-03,1.748777616283898190e-02,2.956789433956146240e-01
3.066713649256777030e-01,-1.931281480146956886e-03,-1.750709870202149521e-02,-8.574064219958998229e-03,-4.763168852468360574e-03,3.007106438903606183e-02,3.213819265365600586e-01
2.651241574118084476e-01,-2.779307274885890744e-02,-2.572721249196241455e-02,2.270185873422024027e-03,-3.246403252638832733e-03,4.544844187536743220e-03,2.920765280723571777e-01
2.672909100493788270e-01,-2.662860899990886210e-02,-2.422016215331390665e-02,1.506060051215891375e-03,5.521949563808531934e-04,1.435263067794103871e-03,2.927464544773101807e-01
2.700579049909006546e-01,-2.491321774704545466e-02,-2.350480646611487201e-02,4.250784465000311332e-03,-1.549350211871355432e-03,-3.545965024650968647e-04,2.943744063377380371e-01
2.667652111729855724e-01,-2.639780435056057750e-02,-2.567571658825927583e-02,2.004910174583851221e-03,-1.722781155016968931e-03,1.401073514465509548e-03,2.928484976291656494e-01
2.578521050714055463e-01,-2.459515765573248858e-02,-2.553593754729027721e-02,5.583141290353437272e-03,-3.867520806137610817e-03,4.716543292614180406e-03,2.832811176776885986e-01
2.693497707345431924e-01,-2.595822336582462309e-02,-2.520035680912438569e-02,1.086625173129618848e-03,9.566528213310568785e-04,1.197336030820260206e-03,2.949477434158325195e-01
2.688602960649849605e-01,-2.629170649493355050e-02,-2.825560657248307739e-02,3.374141781870382446e-03,-1.940595857309834488e-03,5.464009847791152959e-04,2.962170839309692383e-01
2.677587897562209163e-01,-2.447012081548705087e-02,-3.062338130189365404e-02,4.095518185155174427e-03,-5.996928148512809149e-03,3.691287351326391717e-03,2.956904470920562744e-01
3.143362721043493901e-01,-4.360560857128556456e-02,1.094280523169680053e-02,-1.045367865216431658e-03,4.789359818469742652e-02,-2.396563503512072826e-02,3.466705679893493652e-01
3.234098497833187147e-01,-5.321152336243531455e-02,1.019306946736078801e-02,1.233472018862629034e-02,-9.230821192962524596e-03,-5.154207451904977907e-03,3.503940999507904053e-01
3.154554409924436587e-01,-4.932828942266304084e-02,1.721929173681316372e-02,4.498782169046120633e-03,-2.709016216227823348e-02,-1.245877692167607180e-02,3.405117988586425781e-01
3.177697434664290554e-01,-4.903181573426307338e-02,1.087340991795023026e-02,5.048862714931419068e-03,-6.360804894958547659e-03,-6.819329753669116541e-03,3.413151800632476807e-01
2.753874940210178091e-01,-2.384829947824056162e-02,-2.162473985766853735e-02,-3.681293337247277392e-03,-3.045232890654726767e-03,-4.559028135480150878e-04,2.982460856437683105e-01
2.578189095359143534e-01,-1.785305846337742475e-02,-3.241702547655576916e-02,3.833166970393841392e-04,-1.036638537215141265e-02,-7.132590813329006425e-04,2.838069200515747070e-01
2.695508762305127703e-01,-2.383601482486831513e-02,-2.736664303258229403e-02,4.119902768245778564e-03,4.091377356326088635e-03,-3.685042267686697813e-03,2.954082787036895752e-01
2.692711073356919282e-01,-2.435952317567682823e-02,-2.465375975624259364e-02,4.803760760131305790e-03,4.574520085013412431e-03,-1.747569533286374077e-03,2.940180301666259766e-01
2.824333713710402427e-01,-2.538324310284922891e-02,-2.522754403466122286e-02,1.299528266801153534e-03,3.757553163312525243e-03,-2.339408067379312485e-03,3.078424930572509766e-01
2.784212048203947854e-01,-2.433938269868485271e-02,-2.516508602807354666e-02,-1.720119431101654363e-03,5.552026911034808193e-03,-1.641918969392983010e-03,3.033547103404998779e-01
2.686867118896459905e-01,-2.385988700437954857e-02,-2.456974750505133698e-02,1.076628392101409547e-04,-5.256935837555911034e-04,-1.063628124474372705e-03,2.929094433784484863e-01
2.475896071699576206e-01,-1.744185461089831080e-02,-1.314500438593123322e-02,-1.501324117199984501e-02,-1.935548076183784411e-02,9.561740320408266755e-03,2.668252587318420410e-01
2.810433998995022220e-01,-2.105071764435970105e-02,-1.246026701456544317e-02,-3.854142134735645889e-03,-5.547023794711153540e-03,1.125077431715442410e-02,2.987576723098754883e-01
2.779041348636555053e-01,-1.787580867367952187e-02,-1.163282453560755825e-02,-2.177550089978863568e-02,-3.392238357968908186e-02,1.243048047620498586e-02,3.016893267631530762e-01
2.653489250018967738e-01,-1.997751225660659991e-02,-1.910817139758282102e-02,-1.405517342935027822e-02,-9.267987542768691203e-03,4.944560761757003584e-03,2.865092754364013672e-01
2.736785656074418593e-01,-2.201988596824461242e-02,-2.169392026778849125e-02,5.678077928866250967e-04,-3.177952923969589154e-04,2.490634448609602408e-03,2.955692410469055176e-01
2.648114652759334664e-01,-2.261349501181601773e-02,-3.460656788484227364e-02,7.291094141814063231e-04,-9.092961588955476501e-03,2.312670306501792006e-03,2.940573692321777344e-01
2.584007440606579387e-01,-1.976415918762461366e-02,-2.114983500244056736e-02,-6.675408381265259677e-03,-1.087994037537873791e-02,2.067168661526793717e-03,2.797583043575286865e-01
1.329551561431157880e-01,-3.104902402801867911e-03,-5.192365889339080331e-02,-4.079894307905087419e-02,1.073454285439523655e-02,6.632433027284681537e-04,1.813244819641113281e-01
2.701874989298675978e-01,-1.423792558514420936e-02,-5.471780438620899023e-04,1.877517131653781181e-03,1.266113486599497158e-03,1.197324944208893148e-02,2.786336839199066162e-01
2.732590599073816406e-01,-2.139098942882590448e-02,-1.880051436238575069e-02,-3.032467697321992745e-03,-3.397825003138356045e-03,2.204926530306256221e-03,2.934942841529846191e-01
2.712858936563964374e-01,-2.033830861296723191e-02,-1.837900048653924590e-02,2.553948380874141583e-03,1.829343508196945231e-03,2.896618013707008294e-03,2.907437086105346680e-01
2.798856928787178400e-01,-1.206227674864700228e-02,-1.447345688236637007e-02,3.780371510368209752e-03,1.447882597440408071e-03,1.438924082631559513e-02,2.943020164966583252e-01
2.720724402576342738e-01,-1.458942003224553141e-02,-1.777102384810938518e-02,-3.606223166988219674e-03,-4.591790574652822830e-03,4.436154481171311441e-03,2.885454893112182617e-01
2.676579391524678830e-01,-2.225868215222902291e-02,-2.535653352706990216e-02,-7.620297820354096337e-04,-6.023559571101363627e-03,-2.494127584098110436e-04,2.916678488254547119e-01
2.707287770358780543e-01,-1.554492825425864144e-02,-1.878422709945953839e-02,1.908557471229929171e-03,1.755066355987254870e-03,2.458232775740540246e-03,2.879735231399536133e-01
2.689035007994489135e-01,-8.312433507175268077e-03,-1.826609102258933137e-02,8.686874219549062769e-04,-5.265602961158458465e-04,6.492404876062654942e-03,2.825537323951721191e-01
2.545687075086607853e-01,-3.669608491662494643e-02,-1.560749879963785336e-02,1.811714836681445611e-04,3.188188306439384613e-04,-4.193377611929997319e-04,2.813156247138977051e-01
2.680622067278874421e-01,-1.523099591554186172e-02,-1.169346436593514393e-02,-6.949325175685197196e-04,-2.007967268721401618e-04,2.319393704844412325e-03,2.815725505352020264e-01
2.687593128964076983e-01,-1.077514289093059463e-02,-1.104165219818147026e-02,2.003434247456608707e-03,1.203852383062565439e-03,2.653195468739793627e-03,2.797348499298095703e-01
2.690796918478359778e-01,-1.538905201173161597e-02,-8.798691369050801181e-03,1.669266228260334007e-03,1.490450281852410920e-03,1.724024966086754648e-03,2.812740504741668701e-01
2.698675916186098478e-01,-1.169683033259721894e-02,-2.158760115415866987e-03,-2.545144808714390212e-03,-2.128417422248744719e-03,1.293471923544755112e-02,2.778828144073486328e-01
2.386826787208926881e-01,-2.861414800729228380e-02,-1.480722250617855229e-02,-1.048981741284612905e-02,-4.243912841896864581e-03,-6.525416908420224489e-03,2.616477906703948975e-01
2.694461672561703214e-01,-1.713055830024083626e-02,-4.521547083447430282e-03,-1.553293886847598908e-03,-9.023255258724378718e-04,6.269488265325833497e-03,2.807122468948364258e-01
2.734423701005782581e-01,-1.739419229074681827e-02,-4.452960944843736835e-03,-1.027330681954407568e-03,9.237946268055303566e-04,6.235048793376938778e-03,2.848016023635864258e-01
2.639668172969797388e-01,-2.562862969027802917e-02,-2.463669551375420597e-02,-1.847427163793096284e-03,4.145337700334924408e-03,3.544333465003641267e-03,2.892727553844451904e-01
2.618416661551238311e-01,-2.455499659324254791e-02,-2.779819913435978285e-02,-1.994461522118298248e-04,3.479339695054453792e-03,2.965518151880056161e-03,2.881409823894500732e-01
2.678114119092639411e-01,-2.115564201952710444e-02,-2.266507714484139457e-02,-4.618010889128050349e-04,2.942882452588902516e-03,-1.811339164241902331e-03,2.897876501083374023e-01
2.732281677817347543e-01,-2.522276694176499301e-02,-2.880551280296131389e-02,-5.835687927865089442e-03,1.056604431067919604e-02,2.645327733891938808e-03,3.010201752185821533e-01
2.657564627984887462e-01,-2.598416839276443402e-02,-2.497508511391589858e-02,-8.995669410326954246e-03,1.127900316545515577e-02,3.789439455818376448e-03,2.923811078071594238e-01
2.578503492789051554e-01,-3.653014505662237343e-02,-1.583619245782263985e-02,-1.908484264442088241e-03,2.959049465476909133e-04,-3.300913195000251994e-04,2.846185863018035889e-01
2.716450120640050425e-01,-2.314559701140338210e-02,-2.246950005317428778e-02,1.864300370098604699e-04,-1.372673082552175743e-04,-6.138693201016219266e-04,2.944553494453430176e-01
2.668606878420997086e-01,-2.568000318692911788e-02,-2.848445847874013503e-02,1.248955020749536148e-03,-2.807529847144010012e-04,3.513252979855798191e-03,2.940242886543273926e-01
2.603395747555260487e-01,-2.293565701876859597e-02,-2.193913660929894260e-02,-2.643799153167480931e-03,-5.164540937927219848e-03,-6.964197576381901287e-04,2.829593718051910400e-01
2.697725082252470097e-01,-2.700274389641556250e-02,-2.741234730897586236e-02,2.391417406891513495e-04,3.399387474703985889e-04,4.237318944001032409e-04,2.969820499420166016e-01
2.696326165604256420e-01,-2.616187763162572399e-02,-2.801625269422755582e-02,4.438579322696009025e-04,6.335653583863760192e-04,2.802164881082567908e-04,2.967294454574584961e-01
2.837795242913541127e-01,-1.909305321527694776e-02,-1.019841146819339128e-02,-2.275170659804643617e-03,1.339067641618764404e-03,-1.131458790782389687e-02,2.992021739482879639e-01
2.722266996455646737e-01,-1.871197173562505478e-02,-1.438559721775570233e-02,1.641344018881440558e-03,1.392530103251384986e-03,-6.893010445535652404e-03,2.890705168247222900e-01
2.782592253198864496e-01,-1.205145786099637295e-02,-1.427977039072958476e-02,3.356543754004595766e-03,-2.316461680175795155e-03,-7.480364769010808788e-03,2.918046116828918457e-01
2.823247168192907219e-01,-1.387849213770279977e-02,-2.422600034147610881e-02,-2.961182709876648486e-03,6.076747397900402262e-03,-5.017753509606220734e-03,3.018625378608703613e-01
2.791233480559344171e-01,-1.289796762157933985e-02,-2.025238697293807455e-02,3.135871718001376814e-03,-2.702354553033917833e-03,-1.034155792828519820e-02,2.963957488536834717e-01
2.726230181378984652e-01,-1.415263915189585164e-02,-2.235600541299156974e-02,2.417347702068221946e-03,-7.781479332068036913e-04,-4.469297528719916486e-03,2.911002635955810547e-01
2.602445183552559715e-01,-2.325722542621559696e-02,-2.693046809329473212e-02,-3.390612436420404469e-03,-1.314163118154061845e-02,-3.089264671262334765e-03,2.863727211952209473e-01
2.735175659441895224e-01,-1.580162589467605516e-02,-1.233659469470500814e-02,-3.516922163648024510e-04,-9.347041707384279134e-04,-2.168761774239148440e-03,2.876320779323577881e-01
2.727650850390399562e-01,-1.283637381802017752e-02,-1.048856005076373443e-02,-7.647230285180359449e-04,1.650562639406054312e-03,-8.257531385210235483e-03,2.848116159439086914e-01
2.718954242465438931e-01,-1.496002756740251460e-02,-1.893090635295631430e-02,1.194345044846692634e-03,7.363094631173196540e-04,-2.650350904291552765e-03,2.889080643653869629e-01
2.578672770796818225e-01,-1.254909757416380889e-02,-2.261652083222884246e-02,2.014743709156265397e-02,1.853170420578963487e-03,-2.939326982880969674e-03,2.778538167476654053e-01
2.760266077966507803e-01,-1.868101198753006897e-02,-2.635557083674669454e-02,-1.254032739265697463e-03,-3.492202450760446570e-04,-8.850909016331773510e-04,2.986313104629516602e-01
2.756033330521306945e-01,-1.886422985552027587e-03,-3.447671735561735895e-02,8.714072679484466746e-05,-2.596653090073167223e-03,1.429595280417620198e-03,2.951822280883789062e-01
2.802480615621111282e-01,-2.765145513096881058e-03,-2.969166191692459988e-02,-7.176203200060250406e-03,4.387500711554969367e-03,-6.210800819331285805e-03,2.979430258274078369e-01
2.730842225395845313e-01,-2.053834938052530312e-02,-2.591536409209138636e-02,-2.350207810040738036e-03,-9.786088163860379337e-04,-9.952782352289756690e-04,2.963854968547821045e-01
2.775713819998337217e-01,-2.960876907913638501e-02,-2.789940145066781285e-02,1.115346841647782417e-02,-1.981947780419514565e-03,1.338081403939496081e-03,3.069655299186706543e-01
2.731900315110838418e-01,-2.349114001548101294e-02,-2.191343071932294606e-02,-2.036207256312221395e-03,1.033738501250155337e-05,7.405074739268475851e-04,2.959192693233489990e-01
2.656621949614504929e-01,-2.574129100197233844e-02,-2.522829545169677501e-02,-2.701443965733167901e-03,-2.159809999524084541e-03,-1.244325323447037068e-03,2.912169396877288818e-01
2.859854137838871990e-01,-2.172823519642375079e-03,-3.088088600977886844e-02,-8.310945910341678913e-03,-4.513164977554504423e-03,7.188752402495779403e-03,3.042287826538085938e-01
2.798593148398536568e-01,-1.432813797512351439e-02,-2.990577053756519887e-02,-8.488249555253708258e-04,-6.981280789483371337e-04,1.495153753535932587e-03,3.022945523262023926e-01
2.966369802048609561e-01,-1.142643812412605375e-02,-2.127568621033990026e-02,9.514842712834876981e-03,-4.324717252982872989e-03,1.974122970555343068e-02,3.154855370521545410e-01
2.729168327133270622e-01,-1.359277517604121077e-02,-2.355939340557582085e-02,-1.975745169536868590e-03,-2.289283515724068081e-03,3.712022064251690057e-03,2.917385697364807129e-01
2.526334139105509968e-01,-1.315639322168911385e-02,-2.276512234184148442e-02,1.861966154781259652e-02,1.681588796049500109e-02,5.797824111814404990e-03,2.743714451789855957e-01
2.776852307909699613e-01,-2.588972136449173289e-02,-2.869109419402210426e-02,1.405092775228097488e-02,1.137465866296431816e-02,-2.674981608260686063e-03,3.066234290599822998e-01
2.276897470841660054e-01,-2.567946032023994685e-02,-1.437295169195944300e-02,1.883420824452820136e-02,-3.422947266360054641e-03,5.397152289440660354e-03,2.502914071083068848e-01
2.374164356507816598e-01,-2.026643079749293475e-02,-2.697440147440699487e-02,1.959439744832482122e-02,-5.173391561998758569e-03,1.660654953308798127e-03,2.634660601615905762e-01
2.376397133946055451e-01,-1.763964760120204089e-02,-1.993913519418502589e-02,1.585065260336875406e-02,-8.949194834249064520e-03,8.072037440212675996e-03,2.587456703186035156e-01
2.081823115361697285e-01,-1.350423974714118347e-02,-1.413147332134812029e-02,1.734885203254997801e-02,-7.085882829165536523e-03,4.982168832015937410e-03,2.245270907878875732e-01
2.560193319583853322e-01,-2.256628561986434578e-02,-2.521392871600673657e-02,1.561209544537461510e-02,-2.166343963030953682e-02,-1.010124807716188469e-02,2.842530310153961182e-01
2.682040452034026856e-01,-2.563775472645932196e-02,-2.524713319839468062e-02,2.280185410559534484e-02,-3.143000056405977939e-03,-2.909510098565346124e-03,2.963835000991821289e-01
2.202511051223628447e-01,-1.363127374838082884e-02,-2.567275893206787118e-02,3.130481205798919808e-02,9.277128256384348584e-03,-5.373635565716516037e-03,2.468745708465576172e-01
2.539089983541235052e-01,-2.276772123143054605e-02,-2.367892740077930103e-02,5.742983457473532262e-03,3.010768462573456573e-03,-1.471929942481113411e-03,2.773726582527160645e-01
2.742744853127734306e-01,-2.039485529584506018e-02,-1.603649978718832414e-02,-6.047251110458140046e-03,-5.233330064673631481e-03,4.652439320335952609e-03,2.929531633853912354e-01
2.461386275404297275e-01,-2.137331700394276557e-02,-2.220511961289599323e-02,-2.168108263207573980e-02,-1.167280071746032780e-02,-2.145155353459415534e-03,2.713275253772735596e-01
2.698496113729154655e-01,-1.569067092173231925e-02,-2.415154380160616787e-02,-2.599092270034865457e-03,-2.998614398719676340e-03,6.102723355873990434e-04,2.899467349052429199e-01
2.707737965444425576e-01,-2.567444651976395764e-02,-2.466390405166733746e-02,-1.424664955247152698e-02,-7.480650079473434924e-03,-1.695994109316062209e-03,2.972682714462280273e-01
2.522717209358893431e-01,-2.419240907670063001e-02,-2.156174019240826578e-02,-1.014853831948322842e-02,-6.395486555020331700e-04,-1.116805312914637138e-03,2.757281363010406494e-01
2.446313276845890894e-01,-1.586958637217772417e-02,-3.434823847321161194e-02,-4.299006304247136347e-03,-3.852198922618286711e-03,5.059598976722533151e-04,2.704008519649505615e-01
2.516809349592631917e-01,-1.753751495881428202e-02,-3.254189446176608547e-02,3.905867628482512927e-03,-6.519783598849135560e-03,1.413845412183148886e-03,2.773489654064178467e-01
2.665997351207534116e-01,-2.544303739136398457e-02,-2.076446060010983530e-02,8.132747717057619077e-04,-3.483872548609355524e-02,-1.703972378063501074e-03,2.959669530391693115e-01
2.525417511713022867e-01,-1.727582647011569050e-02,-3.013399852178749727e-02,2.389234614118352588e-03,-2.577370481715376190e-03,3.979822796268235423e-03,2.766239047050476074e-01
2.499990311385482111e-01,-1.673078918505867263e-02,-2.842261758233247115e-02,9.887093853738850024e-03,-2.747692720153636220e-02,2.859454255781690522e-03,2.774577438831329346e-01
2.505532710718960665e-01,-1.687605914345044478e-02,-3.011367933879775804e-02,2.990348372168829053e-03,-6.939198335065666773e-03,3.193434518424586449e-03,2.746555805206298828e-01
2.652064522093015575e-01,-2.061894594826581273e-02,-3.362289720811716121e-02,-1.534787991483637943e-03,-7.300718376158459727e-03,-2.205081539143402027e-03,2.928543686866760254e-01
2.616409214710312403e-01,-2.211055878413031861e-02,-2.975630544486759788e-02,8.402380324788100152e-03,-5.323717296237752590e-03,1.280890991511711083e-03,2.881745994091033936e-01
2.276372389900484239e-01,-1.367589328261495374e-02,-2.760985068496979444e-02,1.018805372046904150e-03,-1.800848650278783283e-02,8.567753189277603357e-04,2.505331635475158691e-01
2.273615729238570027e-01,-2.516140225180087120e-02,-1.426619312229973624e-02,-1.352971053490900904e-04,-4.009281259760362481e-03,-6.278644083998254424e-03,2.475920170545578003e-01
2.748705244256109959e-01,-2.641261517204186726e-02,-2.061400854275843852e-02,5.140513866963306901e-03,-7.812571596374886032e-03,1.369112452364182157e-03,2.988747954368591309e-01
2.646603266262039789e-01,-3.186559502438005009e-02,-2.202820778278051506e-02,-9.975380845212943309e-04,-5.142302081785412064e-04,-1.720035649708370621e-03,2.917533516883850098e-01
2.767179633884392365e-01,-2.780072607467291845e-02,-2.690032822337051766e-02,4.506083895707558608e-03,-1.089814515233324642e-02,-6.678006606413554736e-05,3.047547936439514160e-01
1.662160381763423123e-01,6.549106568643381365e-03,-4.269693470289777359e-02,-4.581841217295284235e-02,6.296300902576425218e-02,-2.565789548076135088e-02,2.365325540304183960e-01
2.615512672705329056e-01,-2.217348748034526917e-02,-2.636175028363359207e-02,5.853201415096995555e-03,-1.202218238244221957e-02,-1.354379732524374448e-03,2.867881953716278076e-01
2.693699213892284949e-01,-3.311689179171732611e-02,-2.595485739116448753e-02,5.970652101883250872e-03,-1.390163475238618759e-02,3.649675684409730615e-04,3.001170754432678223e-01
2.854128412085933375e-01,-1.488754728292197849e-02,-2.455071072736526860e-02,9.165330621423979293e-03,1.515462426142859037e-03,1.470026895432327042e-02,3.067291080951690674e-01
2.848499499300969351e-01,-1.109823898538411791e-02,5.408518371360360177e-04,1.347913046763409397e-03,8.960525066411928041e-04,2.620227775920394575e-02,2.938430905342102051e-01
2.906000953519134455e-01,5.574631012085898285e-03,-3.231132053502200341e-02,-8.140581162167120910e-03,-4.114388448732035977e-03,1.227983360653117813e-02,3.068799376487731934e-01
2.721343900307847119e-01,-2.342859983453737804e-03,-1.583156745306421587e-02,4.575842887580272838e-04,3.853464270553488271e-04,1.168725489534392509e-02,2.821930050849914551e-01
3.028560032331004681e-01,8.754078439741491691e-03,-3.581662054917680860e-02,2.787287651421920583e-03,-1.656337181082769569e-03,1.990767798596045773e-02,3.206420242786407471e-01
2.090126952995124965e-01,-1.962982249488140485e-02,-1.624828533222956450e-02,-3.706853836544428404e-02,-3.936727953830500976e-02,-4.426741394901533011e-03,2.456542998552322388e-01
2.871328389609901222e-01,-4.690269664743368372e-03,-2.464874832125119042e-02,2.231165414716743817e-03,3.546332517996633564e-03,1.200412835311199730e-02,3.030979633331298828e-01
1.967504400750544336e-01,-1.952881943315815105e-02,-1.454603780439743532e-02,-4.061337153275755563e-02,-1.862030654280601508e-02,-6.149864880976247360e-03,2.276528477668762207e-01
2.090365391310723964e-01,-2.087978445292895668e-02,-1.404600994038043837e-02,-3.310932971739551089e-02,-1.300039142952820991e-02,-5.012495506016188644e-03,2.349640578031539917e-01
1.669052339515550709e-01,-1.762566953148535231e-02,-6.973045077707948347e-03,-2.929971401535777509e-02,-3.545045419797010662e-03,-2.558620150300282801e-03,1.866337507963180542e-01
2.783378515148732246e-01,-1.166582259084035511e-02,-1.773108193060494997e-02,2.799126590059447355e-03,9.922109963277849116e-04,-1.068577655804960058e-02,2.937122583389282227e-01
2.776278613258999495e-01,-2.764311644344877306e-02,3.417864378643067913e-03,5.242507175431990532e-03,-1.006535359601192642e-02,-1.469419299048559807e-02,2.927580475807189941e-01
2.784551656043181556e-01,-1.499152197249202512e-02,-1.623149849246574572e-02,-2.929989752936146188e-03,6.640584411736580317e-03,-9.703742572845787742e-03,2.948167324066162109e-01
2.749816470729458118e-01,-1.889565078264933418e-02,-1.774121401523696961e-02,2.048326219752993199e-03,-8.750998006434044987e-04,-5.552933003519217167e-04,2.933287322521209717e-01
2.739154409994772887e-01,-2.466166176272815980e-02,-2.374532968687238788e-02,9.021858469381311817e-04,4.345432992195015151e-03,-1.889886075275809231e-05,2.982190847396850586e-01
2.794218252081396292e-01,-2.382456721877848627e-02,-1.390857454846340657e-02,6.132459778403218445e-03,-5.387786436676587562e-03,-5.803843962572546346e-03,2.989158332347869873e-01
2.739201325118465480e-01,-2.103021354707727830e-02,-1.622148873638987188e-02,4.420751329746553738e-04,-3.356167365523762261e-04,-4.895916216691598849e-03,2.927000820636749268e-01
2.740961865276325682e-01,-2.225896303747039451e-02,-2.306422045015490974e-02,7.767950883491562056e-03,-3.208228511245411925e-03,-4.027834754263918786e-03,2.971973121166229248e-01
2.734004412086862290e-01,-2.285037437775136460e-02,-1.646834145185284426e-02,7.376845491591689161e-03,-5.792405728738563020e-03,-4.341611376075860985e-03,2.936580479145050049e-01
2.107255507419082685e-01,-2.165963298467547815e-02,-1.343008624488720160e-02,-1.402267569744199832e-02,-5.976425687472323479e-03,-6.641439372512618691e-03,2.301902621984481812e-01
1.578210789716913420e-01,-6.895328003900393077e-03,-6.520735586189679855e-03,-1.240373494101522887e-02,-1.694650100452426214e-02,-2.225049964086391226e-03,1.685464233160018921e-01
2.062694387687559194e-01,-1.932412841933554837e-02,-1.181631757816042905e-02,-2.298490244136884575e-02,-1.008570653466572993e-02,-1.195787419885528278e-03,2.261625081300735474e-01
2.359893467012985080e-01,-2.562985459957821399e-02,-1.870368237144311163e-02,-1.479204868576181053e-02,-5.029741325040092831e-03,-4.725865926114965199e-03,2.597688734531402588e-01
2.194256346221185039e-01,-1.901314728705608137e-02,-1.888414335149551926e-02,-3.353576036742373506e-02,-2.763047464802496911e-02,-6.787550534185373720e-03,2.502494752407073975e-01
2.220766091022420841e-01,-1.766398918851229405e-02,-1.936710212681827525e-02,-7.409570626734880011e-03,-1.450805426199644824e-02,-7.309201219391249504e-03,2.425761520862579346e-01
2.422133686913129080e-01,-3.013064772067212960e-02,-1.927834393178734507e-02,-6.762289186857712783e-03,1.962997475601381374e-03,3.816428366708183098e-03,2.674432992935180664e-01
2.464710166577543382e-01,-2.195111299209227818e-02,-2.813194531837420742e-02,-4.765891388195605399e-03,5.666106482797012185e-03,6.262412526585114242e-03,2.720842063426971436e-01
2.705004159376662720e-01,-2.361038541287988068e-02,-2.070104250339729890e-02,8.374002803329940944e-03,-8.545904122380359319e-03,-1.193398728400752069e-03,2.934070527553558350e-01
2.775073880513025393e-01,-1.419730328010590514e-02,-1.845670954707467892e-02,-3.672404987704953189e-03,3.666111376404875694e-03,-7.437629713761558826e-03,2.942770719528198242e-01
2.899559880630249165e-01,-2.753910960271727104e-02,-9.781869303546256167e-03,1.015264260444414049e-02,-2.380406441637874116e-03,-1.196810694150911812e-02,3.102201819419860840e-01
2.779711022494629202e-01,-2.596186951312802471e-02,-2.102893739672170859e-02,7.475100906938545028e-04,1.632336685029483732e-03,8.053014807503659691e-05,3.015128374099731445e-01
2.779418375221582860e-01,-2.639139348787983286e-02,-2.071438664119487627e-02,1.039306473173546392e-03,1.677409388427032006e-03,4.773293104521241013e-04,3.015553057193756104e-01
2.795579246423068875e-01,-1.599053264787299311e-02,-1.797171176564682504e-02,7.338378574098981463e-03,-6.036345216152884038e-03,-7.389744902623820479e-03,2.972760498523712158e-01
2.781157063173143040e-01,-2.509176402252055738e-02,-2.352578649350493822e-02,6.005595124859347328e-04,8.517330194564023352e-04,9.655514966309600286e-04,3.024375438690185547e-01
2.760685430015510367e-01,-2.299671337015334049e-02,-2.527282713232109623e-02,6.805846744262246395e-03,1.063879657589644930e-02,-7.400127242987290278e-04,3.010084331035614014e-01
2.792367063726630683e-01,-2.731022299479810012e-02,-2.014971552890784667e-02,3.150898571782960889e-03,4.905666974400963928e-03,-2.572921571035487057e-04,3.031986951828002930e-01
2.476463067767730730e-01,-2.411682581761166733e-02,-1.759069884068231726e-02,-1.293946447782726682e-02,3.094954380092068517e-03,2.594135770634416974e-03,2.695838212966918945e-01
2.534463188727759664e-01,-3.169684856144966423e-02,-2.196530560918052988e-02,-2.259358110111386181e-02,4.666132762300352968e-03,-9.027562658713981407e-04,2.832412719726562500e-01
2.489397835360719624e-01,-3.273410635646119282e-02,-1.715439439213872763e-02,-3.631268581944028552e-03,5.067157190908538195e-03,1.342208846625642538e-03,2.744385302066802979e-01
1.310980606234481705e-01,1.215430678535477788e-02,-4.317909513977641334e-02,-5.319962248650964010e-02,2.052774293268202002e-02,-1.336634980623580687e-02,1.846123188734054565e-01
1.312954730685640392e-01,-2.927899519790770622e-03,2.713863636734148432e-03,-4.338077026196317243e-02,2.515302596231638876e-02,-1.213269386882514025e-02,1.589836180210113525e-01
1.801168638315272241e-01,-1.522240274372647917e-02,-8.782085305721804014e-03,-3.305017569677821260e-02,2.249168039300602009e-02,-1.474394476774265259e-02,2.058824449777603149e-01
2.744598923834725701e-01,-2.256935647472486928e-02,-3.319659310805772590e-02,-3.762176440061779092e-02,4.714488544081929002e-03,-2.628165556458075813e-03,3.095633983612060547e-01
2.095056923496827206e-01,1.865214546504952164e-02,-3.245337530469050158e-02,-5.944598045144085241e-02,1.220474733772373283e-02,2.749418317934036737e-03,2.446661740541458130e-01
2.021655652308604056e-01,1.552816395558642010e-02,-2.569904216082818937e-02,-5.261022224237921208e-02,7.557329523025626064e-03,1.873619514618061685e-03,2.295933812856674194e-01
2.060560820401572957e-01,-2.694920495411255723e-02,-1.571414297736385690e-02,-4.084586969647224786e-02,1.660115506045078612e-02,2.670786632888811967e-04,2.400667071342468262e-01
2.734931388317427547e-01,-2.289239263864902008e-02,-3.245600528469617940e-02,-3.935610983857820017e-02,1.899010586211121593e-02,-1.127775679797993419e-03,3.106489479541778564e-01
2.743666425062527559e-01,-1.816604741318612881e-02,-2.018661409202204826e-02,1.838053569244115469e-03,2.325236845434874508e-03,-5.414964453562352148e-04,2.935945689678192139e-01
2.787708853171788626e-01,-1.875071307606759885e-02,-1.233572573704171116e-02,4.359991635656672825e-03,-2.577299562990131854e-03,-7.706391164093076736e-03,2.947995662689208984e-01
2.728706751217621074e-01,-2.330747909385001704e-02,-1.971175858469045861e-02,7.436357865644284762e-04,7.948879936619978248e-04,2.263103930097197047e-04,2.944030761718750000e-01
2.763877195228924277e-01,-2.152731858372849971e-02,-2.447269475635580060e-02,8.550462768662464401e-04,1.563907723242041140e-03,4.297895675551549198e-04,2.994154393672943115e-01
2.708696220819195588e-01,-1.334936751260085153e-02,-2.271829940812739035e-02,-3.749600599536715914e-03,3.537955386945700921e-03,-3.730218979896379738e-03,2.892274558544158936e-01
2.813086518815302584e-01,-6.428516532106590131e-03,-2.198193818662684540e-02,1.311607151255573612e-04,2.906072527645738295e-03,-1.049983256652273558e-02,2.964220046997070312e-01
2.741118019889837720e-01,-1.787565822879866317e-02,-1.926154670935480151e-02,1.378674238019850446e-03,-7.786111862132000683e-05,-1.251824834076827042e-03,2.927006781101226807e-01
2.769308653685228494e-01,-2.308639863513160806e-02,-2.624097352214835310e-02,1.316495662317479281e-03,2.211975570684984651e-03,8.104868504372286873e-04,3.016431331634521484e-01
2.761004348946483056e-01,-2.017759915135212967e-02,-1.805347494325688917e-02,3.795681177942934227e-03,-4.330666318332849823e-04,-5.875078543460802993e-03,2.954711318016052246e-01
2.764414584106876793e-01,-1.961268226652801427e-02,-1.220124895249852237e-02,6.413732321233652205e-04,3.672371935832625597e-03,-9.112106112132178568e-03,2.929156720638275146e-01
2.812096606469859372e-01,-1.485983822269573706e-02,-1.420018348771419359e-02,-1.456022470286860195e-03,7.576424231528115045e-05,-6.576011070015493933e-03,2.959702610969543457e-01
2.807243719663008452e-01,-7.678164843796964067e-03,-1.334392778567920768e-02,2.164560185347615129e-03,-3.402718147130647831e-03,-1.731458964237613668e-02,2.928998470306396484e-01
2.811949396574595084e-01,-3.828331377537214086e-03,-2.960897354494640421e-02,4.546632745729305668e-03,3.157601578788998397e-03,-1.260999507210628506e-02,2.996997833251953125e-01
2.616277631935244319e-01,-3.441695643809432326e-02,-1.819088684840154679e-02,-1.043069162089318644e-02,2.236592458810258803e-03,4.097420586687111057e-04,2.888667881488800049e-01
2.824535694912615469e-01,1.456052054642562044e-02,-4.045800993946038759e-02,-8.817630671800386934e-04,1.736567149413407920e-03,-4.490761632986509794e-03,2.993404269218444824e-01
2.981203159808759606e-01,-1.140561434354411818e-02,-3.342784418981695205e-02,7.818469368510926401e-03,2.276340134624924884e-03,-5.701702112753847390e-03,3.215652108192443848e-01
2.607541535099672236e-01,-2.235756871651188582e-02,-2.439235692781931142e-02,-6.198379303140853086e-03,7.825457163399867494e-03,9.766840105920532918e-04,2.846652269363403320e-01
2.836489164796606177e-01,-4.340802474505620068e-03,-3.265824965644903433e-02,9.904120254068100957e-04,2.072110972271535255e-03,-4.195768899847341499e-03,3.032552301883697510e-01
2.829196666411936123e-01,-2.091319663378415905e-03,-3.029961766986150051e-02,-2.548856496584263678e-03,2.371806048078341830e-03,-5.665290999882120586e-03,3.003319799900054932e-01
2.835590302111209438e-01,-1.273231630713676787e-02,-2.932717844291990450e-02,-2.253061233211103853e-03,2.008835338169524549e-03,-1.006408759064732379e-03,3.049774467945098877e-01
2.795157821057024927e-01,-1.410024593606344634e-02,-3.019964215403564411e-02,6.396921913844617891e-03,5.854227127582625062e-03,-1.261534698989553484e-02,3.031494915485382080e-01
2.707742955018050957e-01,-1.970610458855995284e-02,-2.159261371846329935e-02,-1.573605239106618607e-05,-1.300897793698446887e-03,-1.556296439882608835e-03,2.914493978023529053e-01
2.701149997595626573e-01,-1.841433610965068080e-02,-1.843176599320825448e-02,2.023742472433777190e-04,1.428788215421682888e-04,1.009177457875168110e-03,2.885436713695526123e-01
2.503476201907780530e-01,-2.544788173715710478e-02,-2.144753620887181189e-02,-1.309429865516904302e-02,3.506323461602335774e-03,6.918301459820997486e-05,2.748220562934875488e-01
2.741049513454026920e-01,-3.208106141488614726e-04,-2.161443541243893152e-02,7.841700744054547201e-04,4.015851171682023710e-04,3.963786933909987063e-03,2.857549786567687988e-01
2.650008806369109626e-01,-3.206620394464475277e-02,-2.054378084903477064e-02,-7.240693082641216222e-03,1.443675111523884695e-03,2.424782216356977799e-03,2.917873561382293701e-01
2.614266513296020777e-01,-2.940681996668674525e-02,-2.268451977566972311e-02,-4.757900907797775122e-03,7.757962300052743260e-03,3.676999065996121568e-03,2.880334258079528809e-01
2.555795836381203889e-01,-2.456601928214649511e-02,-2.284605508076498204e-02,-9.424994177116081256e-03,1.193977767169274173e-02,1.207759893685098236e-03,2.805373668670654297e-01
2.600877968574773491e-01,-2.856411639903126687e-02,-2.222794494382150654e-02,-2.112814875345686745e-03,7.817841138706670134e-03,5.233433817871713939e-03,2.860245406627655029e-01
2.457224104889664251e-01,-2.409241815328792835e-02,-2.167543094239461621e-02,-9.806780492817452830e-03,6.603624998243023611e-03,4.090974220207238554e-03,2.694870829582214355e-01
2.758346560117799218e-01,-8.139270652504790315e-03,-1.985297101708796697e-02,-5.091159889355100464e-03,-4.490578984682708913e-03,7.654457993490821656e-03,2.905491590499877930e-01
2.722802713497067262e-01,-1.582685362514252292e-02,-1.258120516109159648e-02,-1.841717818448847417e-04,9.509984138134314289e-04,4.764116177920837449e-03,2.866218090057373047e-01
2.727848301478459359e-01,-1.623941921378414810e-02,-1.408862834373124373e-02,1.053825717848336750e-04,-1.320797142243161550e-03,5.435167357637060888e-03,2.881178557872772217e-01
2.708459949215811235e-01,-1.987469684238855894e-02,-8.934246178187582599e-03,-1.979648020215577994e-03,-1.473564925217777191e-04,7.517708136288383039e-03,2.857253253459930420e-01
2.869006243704827486e-01,-1.546613297477168747e-02,-1.571139798197357385e-02,6.898261334511024065e-03,7.140625954852458657e-03,1.243671557883481958e-02,3.037426769733428955e-01
2.838703276650788032e-01,-2.108299012468889400e-02,6.483740850999675231e-03,-4.141313586752595928e-03,-4.981257774781150914e-03,1.866230214062487500e-02,2.941438853740692139e-01
2.738771002908440000e-01,-5.086599644867587089e-03,-1.583003634090539291e-02,-2.199294808191952239e-03,1.997505404473394128e-03,2.055759582433836288e-02,2.867534160614013672e-01
2.862263751471874063e-01,-2.421711861187225701e-02,5.024491897514665739e-04,3.881455536396857288e-03,1.932900262146656795e-04,2.950478264253985489e-02,3.032640814781188965e-01
2.851275958777370056e-01,-2.246107008658922155e-02,-4.476632322136853137e-03,-5.614601029557443612e-03,-1.968767372004901449e-03,2.355727662269539030e-02,3.019494116306304932e-01
3.213961368410550024e-01,-1.772956308743381393e-02,-1.164502606516848449e-03,-9.007263263284758306e-03,-1.650055337533995123e-02,3.410849926737412330e-02,3.379546999931335449e-01
3.196166515925539797e-01,-1.838501130595002198e-02,-2.914012718213260245e-03,-1.722738954199622835e-02,-2.729671275334039776e-02,3.016115751659024374e-02,3.392786681652069092e-01
3.664750287763759440e-01,-2.417807282906170308e-02,-6.898294003931798590e-03,-3.267795406616286896e-02,-3.747156002824888338e-02,2.621062159355294283e-02,3.945059180259704590e-01
3.236008886593644829e-01,-1.953936278321860565e-02,-1.459428267821452629e-02,-2.182481790490245141e-02,-9.439134477596342748e-03,3.582012312326387365e-02,3.487381935119628906e-01
3.252290551999799662e-01,-6.092896452839113852e-03,-1.443545765736670150e-02,-1.251890022902163620e-02,-1.191589808252840194e-02,3.228021762917610005e-02,3.415114581584930420e-01
2.573010085828877358e-01,-3.093672528568686131e-02,-1.872805650061476479e-02,1.633605796109076358e-02,-2.008433119494337175e-03,1.355951340898268152e-03,2.837767899036407471e-01
2.530069532763893347e-01,-2.739505289463650684e-02,-2.083901422102081569e-02,5.335285946486589999e-03,5.148137395631259203e-03,-1.098722112606748255e-03,2.774859666824340820e-01
2.487645836340919847e-01,-2.829911625145919984e-02,-1.606055046005726294e-02,7.831399479116051693e-03,1.310576664987152945e-03,8.429829062241777715e-04,2.715041339397430420e-01
2.197306609222174911e-01,-2.219317452464003582e-02,-1.893676403178627676e-02,2.694415625424018135e-02,3.389243225241690000e-03,-4.662636447889659448e-04,2.448734790086746216e-01
2.463022340938563759e-01,-2.403384182098522448e-02,-2.372887352895083901e-02,-9.680160896503095871e-03,1.126615606379700874e-02,3.383943664160598414e-03,2.714691460132598877e-01
2.099319114531595365e-01,-1.100372079808026315e-02,-2.274474437633264290e-02,-1.335924676903811050e-03,3.073417000719324416e-02,-3.625618743692679211e-04,2.332036346197128296e-01
2.516807804727429487e-01,-1.581511451082687203e-02,-3.061594173973400390e-02,-3.145234024693672787e-04,9.465833691912148989e-03,-4.945291402125635187e-04,2.756848037242889404e-01
2.715719522331857538e-01,-2.646836255369847124e-02,-2.514341420332667776e-02,-1.479400044226893271e-03,3.024293268838359333e-02,-3.665264450786359304e-03,3.020358681678771973e-01
2.734244478460769456e-01,-2.772953704423902765e-02,-3.015522094518241492e-02,-5.419913267966061828e-04,1.030376269865343128e-02,5.759106436753617432e-05,3.029018044471740723e-01
2.712862115521170736e-01,-2.129419618271430337e-02,-3.050922118180407483e-02,2.033258663884630836e-04,1.068667824990834729e-02,3.262759369166910018e-05,2.978709340095520020e-01
2.841234966337495282e-01,-3.436251896899417124e-03,-1.905071462392508852e-02,3.335425004695541634e-03,-4.772479115859098184e-04,1.061724570428953553e-02,2.963051497936248779e-01
2.727631432980150983e-01,-1.476134455409255919e-02,-1.048760447678515062e-03,-1.536415837599595545e-03,3.356635698960818109e-04,1.205241993403584171e-02,2.817070484161376953e-01
2.726076556740684720e-01,-1.192638637563198101e-02,-9.539606196137112581e-03,1.517485115206539028e-03,1.907857683163063228e-03,1.762142719068416838e-02,2.850185334682464600e-01
2.799870178240148055e-01,-2.229723221940022038e-02,9.027837493409518466e-03,-3.384264990169568842e-03,-4.510342971121033932e-03,1.847428187779651468e-02,2.898400127887725830e-01
2.723090337434901365e-01,-1.361432491087265217e-02,-1.170111308115336091e-02,-4.009989423898181033e-05,-2.321060861970401096e-03,6.133886525767211738e-03,2.851978838443756104e-01
3.000508189816299409e-01,-2.397215414364958774e-02,-5.113630568080299033e-03,-6.976211252928216089e-03,-8.109420513063939420e-03,2.135245869436423402e-02,3.177216053009033203e-01
3.000223551717299264e-01,-1.019815333556498005e-02,-1.045102915221282625e-02,-3.678221423161301754e-03,-4.222186529779392182e-04,2.752782962786845533e-02,3.140537142753601074e-01
2.791809242412703895e-01,-1.946373036400886325e-02,8.001508801603704479e-03,-4.469443293711550334e-04,-1.757804658287388105e-03,1.917007151581753485e-02,2.878419160842895508e-01
2.650223062090154569e-01,-3.166409255379397381e-02,-2.035738060419155226e-02,3.071055813625066244e-02,2.373468404536393638e-03,2.839318039512003875e-03,2.960854768753051758e-01
2.659524499782315310e-01,-3.109804528331823470e-02,-2.045072960527181960e-02,3.769594031142232265e-03,1.512914523808029038e-03,1.598497999825362415e-03,2.919704318046569824e-01
2.778472445310257166e-01,-1.357876426666583536e-02,-2.722605587781262715e-02,1.748540590891907789e-02,1.775223445878256010e-03,-3.532543233655952627e-03,3.000943958759307861e-01
2.778522460795397331e-01,-2.235899948747613331e-02,-2.517525743893950230e-02,1.013996568226887413e-02,2.926171425472554304e-03,-3.566962325187734290e-04,3.021832704544067383e-01
2.636541774135253702e-01,-2.424472290940628272e-02,-2.072624430420265396e-02,1.616334431023588002e-03,1.082569557978848912e-03,-9.465130435863951361e-05,2.861757576465606689e-01
2.826958707400891724e-01,-7.236706978466872497e-03,-3.649905966624933384e-02,-4.814941979209355627e-03,6.002010823513737568e-03,6.501173839016925228e-04,3.059087991714477539e-01
2.753809554983473462e-01,-1.398585824432589664e-02,-2.672958052404579565e-02,3.521231978539823490e-03,2.393241248071149071e-04,-7.615617669571307343e-04,2.960106134414672852e-01
2.768476498049982637e-01,-2.080828848964018374e-02,-2.815431991086929375e-02,8.870197329136754114e-03,7.211197510095518695e-03,-2.235385033802289850e-03,3.020705878734588623e-01
2.931541059585081044e-01,-4.798222182753128506e-02,1.690356977877603695e-02,1.798540616735197582e-03,3.271983927470528773e-03,-8.346781380236138748e-03,3.141657114028930664e-01
3.037983413609805505e-01,-5.181588471242415395e-02,1.894992809438320047e-02,-2.043442282235800184e-03,-6.565793467175549958e-02,-7.787209275251256860e-05,3.453250527381896973e-01
3.079282046325900191e-01,-6.619205837005118220e-02,1.481428866225996399e-02,4.292096421696814379e-02,-2.025850882214312587e-02,-1.037030840885366269e-02,3.511443734169006348e-01
2.975994340181965514e-01,-3.831668814171693138e-02,1.332299519607911542e-02,1.375545325931471982e-02,-1.587897476900469382e-02,-1.046777711286234376e-02,3.159311413764953613e-01
2.904499483013821548e-01,-3.949729962480405532e-02,5.298652355871485975e-03,1.276111747708653585e-02,-2.758796525867806323e-03,-9.419128537723472222e-03,3.112379908561706543e-01
4.000398023293720851e-01,-5.352280319560484556e-02,1.235564111820913746e-02,1.803614718060471411e-02,-4.703003148206899575e-02,-1.477480937838592141e-03,4.333554506301879883e-01
2.538719257963301112e-01,-2.195341575243983656e-02,-2.782793157174920373e-02,1.553422520102482995e-04,-2.595266968241532676e-03,-4.661743757702063728e-03,2.789622545242309570e-01
2.683539873706056733e-01,-2.538964140220735521e-02,-2.827492121574980144e-02,-5.582102032254308145e-06,-1.472638706132145666e-03,-3.091970581173881464e-03,2.952564358711242676e-01
2.640112629929496357e-01,-2.578775043471043249e-02,-2.342061917251464509e-02,8.054485809456742203e-04,-1.455135977487925000e-03,-1.202855347950992091e-03,2.886446118354797363e-01
2.647944757650667058e-01,-2.873296126687087393e-02,-2.449259674984936852e-02,-2.718589078826241096e-03,-3.773038830799021852e-03,-3.312732218184875638e-03,2.915981411933898926e-01
2.686923273772648946e-01,-2.776655311499121037e-02,-2.763670257243738826e-02,-1.092846081564923183e-03,-1.979003173942438752e-04,-2.618404407175312955e-03,2.964349091053009033e-01
2.636124725776137212e-01,-2.557307244389407652e-02,-2.415824135605322553e-02,2.647494598601573819e-04,-1.189528942099104592e-04,-1.188187031465705529e-03,2.884885072708129883e-01
2.790985162142318732e-01,-3.253973295496245810e-02,-5.937395698370567798e-03,1.668761592199347879e-03,-3.777614235259323106e-02,7.324749721657595851e-03,3.065716922283172607e-01
2.299539140480630628e-01,-3.241021649797475035e-02,-1.046261998296837969e-02,-9.332093929208688798e-03,-3.144513816748072533e-04,-4.496652913536154672e-04,2.526272833347320557e-01
2.949410418823124047e-01,-4.658817916712529317e-02,1.824025416987724857e-02,-1.247057628668253766e-02,-6.159662206417555741e-02,8.370704618409113493e-03,3.328112363815307617e-01
2.397032108289281482e-01,-3.065014692758186166e-02,-7.116754317780138450e-03,-6.100119237570961368e-03,-5.220394675896224135e-02,5.826072340043499283e-03,2.750847935676574707e-01
2.618347464286414072e-01,-4.641858052398512013e-02,1.662666932397613428e-02,-1.340625279501262389e-02,-7.611938041464515192e-02,5.153459574760042503e-03,3.123495578765869141e-01
2.846576620078921094e-01,-1.403517806598404694e-02,-2.576913684168984087e-02,-3.944228814772379049e-03,1.334636979220495297e-02,-1.154432420146193732e-02,3.063344657421112061e-01
2.821565156838046207e-01,-1.430547937018683546e-02,-2.344183089539712828e-02,-4.332587581324045915e-03,5.467813180888326206e-03,-4.285655853981731010e-03,3.014678657054901123e-01
2.787185327854917460e-01,-2.427108018762244579e-02,-2.639208045803219382e-02,-2.677989475005503658e-03,5.417877325403715021e-03,2.118577736465454119e-03,3.042579293251037598e-01
2.730697828449576980e-01,-1.365527551730771894e-02,-2.758058674440573566e-02,-5.311161265219232000e-03,3.203924795113491028e-03,-3.342786706041351186e-03,2.941884696483612061e-01
2.593788243262457605e-01,-2.294574723793946225e-02,-2.155581648017808327e-02,7.254179650382990008e-03,7.595909381986860193e-03,7.457169636837637566e-06,2.822191417217254639e-01
2.616043523506216273e-01,-2.195760480237381185e-02,-2.382407217683898959e-02,7.493397475548353032e-03,8.115707418885819910e-03,-4.453282554653908824e-06,2.851423621177673340e-01
2.622795631974774722e-01,-2.222823876818409705e-02,-1.862910587460292478e-02,2.360373030442618550e-02,1.467781064338357158e-02,3.733062836593375837e-03,2.868678867816925049e-01
2.766650223002728448e-01,-2.479733818301740889e-02,-1.151881827345412057e-02,5.569846967215791441e-04,1.891156262931608951e-03,1.488710522124238322e-02,2.961915433406829834e-01
2.665358315303151815e-01,-2.501316377744855490e-02,-2.134859926106212613e-02,4.906487045853523410e-03,-3.176931505313775224e-03,7.829747025134848595e-04,2.899141013622283936e-01
2.552665178302483406e-01,-3.055913476523450245e-02,-2.156288308979777135e-02,7.634712616672117980e-03,-3.753603412897934047e-03,3.754214810578990289e-03,2.818959057331085205e-01
2.390662900957603587e-01,-2.296958835880588690e-02,-1.746184422913972523e-02,2.636141217989766000e-02,-1.224354830269054964e-02,1.037110811439895903e-03,2.641734778881072998e-01
2.363322682295120047e-01,-1.904139508779820189e-02,-2.378458844411036888e-02,3.312372185398234498e-02,-3.073228039836382874e-02,-2.136988469596984384e-03,2.694218754768371582e-01
2.368800015071520215e-01,-1.928736426315057206e-02,-2.311945959429741182e-02,4.221344187087093525e-02,3.149635900305896696e-03,-1.857035640418453664e-03,2.683357894420623779e-01
2.047605021997118413e-01,-1.794799292309952332e-02,-1.313242665049864366e-02,2.620955699164342206e-02,-1.851302486560204089e-02,5.800846638722268779e-03,2.274637669324874878e-01
2.548606211689011802e-01,-2.779914381850615013e-02,-2.105715684086477413e-02,6.846692116989251328e-03,-4.004600421571986174e-03,5.358259985474593187e-03,2.798413634300231934e-01
2.519027663315333010e-01,-2.372444747621674233e-02,-1.922827693660220105e-02,1.860295340925881627e-02,1.539384773035130135e-04,-1.186899156606995975e-03,2.753067612648010254e-01
2.509587484967804039e-01,-1.312353036876297285e-02,-2.391454922624945689e-02,1.083264880041271729e-02,-2.713979515284678252e-03,-4.956707448832389958e-03,2.704689502716064453e-01
2.430455816221492593e-01,-2.933692594125310305e-02,-1.486982578335303840e-02,1.226377250658373941e-02,-5.525292907207522003e-03,4.229001776751132625e-03,2.665659189224243164e-01
2.625669884715763347e-01,-2.569392790719984832e-02,-1.964275182606362025e-02,1.497109569816579278e-02,-8.976807556834219201e-03,-3.279739957823529632e-04,2.868817448616027832e-01
2.988771982571193364e-01,-2.172197650210701270e-02,-2.806294913750720377e-02,3.545552303858944682e-02,-7.639652721088976972e-03,-7.348429650311244163e-03,3.300989568233489990e-01
2.742371436753922587e-01,-1.566241789340665214e-02,-2.731116116196549704e-02,1.146214180488790146e-02,-2.985131372997657743e-03,-7.392530531715931288e-03,2.968825399875640869e-01
1.473282730873357316e-01,-5.876090993719745859e-03,-8.949672034509748020e-05,-1.486967267370947407e-02,-3.941336012371820727e-03,-1.153739868138331818e-03,1.527496278285980225e-01
2.713732193373155077e-01,-2.630517702719326056e-02,-2.540987637466339544e-02,-1.756198135635129911e-03,2.631648535931262363e-03,3.987842636776050415e-03,2.973625063896179199e-01
2.403384182042472006e-01,-2.174777368837225999e-02,-2.185149055226345838e-02,-3.526142726127262823e-03,1.436568798592807381e-02,5.550663647810596783e-03,2.635625302791595459e-01
2.589296109294608739e-01,-2.184038339409200002e-02,-2.791783904860263565e-02,-2.298603558825501689e-03,2.714252228523512077e-03,2.951882186909545857e-03,2.839703857898712158e-01
2.573363236270801990e-01,-3.430705657481991633e-02,-1.885230469710023893e-02,4.892855893233320416e-03,-1.782942276971333489e-04,1.589879464516431818e-03,2.843711078166961670e-01
2.438856570647495448e-01,-1.769736028046192677e-02,-2.840615196012596932e-02,-7.010741785932072048e-03,1.048910554604179021e-02,4.179260480863894456e-03,2.680886089801788330e-01
2.636966758496211982e-01,-2.004387030183739371e-02,-2.963136290129124439e-02,-2.118768994368882847e-03,1.345289823146536903e-02,4.138039761392845080e-03,2.897045910358428955e-01
2.663947548051882608e-01,-2.177669411516647280e-02,-2.310574033821392870e-02,-9.682339192318594953e-03,-4.824630741379836753e-03,-1.736836478075739110e-04,2.894455194473266602e-01
2.713850139506502890e-01,-2.262465431124538462e-02,-2.253866042700400363e-02,-6.284435485566894526e-03,-4.244567139593258265e-03,-9.266233930963155979e-04,2.942643761634826660e-01
2.655891839626195461e-01,-2.589564609786666749e-02,-2.805030748569171950e-02,-8.621808765694057540e-04,-2.309149600239354672e-03,-4.573380053863289850e-03,2.927064597606658936e-01
2.687770505248830433e-01,-2.275691813180684420e-02,-2.229316452921294156e-02,2.189129720956243543e-04,3.248054855962487632e-05,3.015348224841767977e-04,2.913030982017517090e-01
2.591914536333664865e-01,-1.685171772787513733e-02,-3.716089711470750567e-02,2.923603696401608459e-04,-9.176638732017411513e-04,-4.250731274181016647e-04,2.867434918880462646e-01
2.671664427833477240e-01,-2.410070997717696228e-02,-2.835934729570142865e-02,-2.640719868542230463e-03,-1.788745241065291432e-03,-1.932616384348758180e-03,2.934907376766204834e-01
2.695558778058294580e-01,-2.550048080684794161e-02,-2.590650582718470596e-02,-2.634034255878893969e-03,-2.116157899950968369e-03,-3.517239216029205504e-03,2.953804135322570801e-01
2.580207457288068995e-01,-2.450138086574445151e-02,-2.490513412164475915e-02,-3.296754165360318584e-03,-2.187901165274344032e-03,-3.963908534763543705e-03,2.828905880451202393e-01
2.710190869836052174e-01,-2.286545501335669750e-02,-2.322592170360358865e-02,-3.558421702603997532e-03,-4.620280553597897605e-03,-1.069371259867526753e-03,2.942441999912261963e-01
2.703080542309233003e-01,-2.253944287191728124e-02,-1.965365414496522689e-02,1.269528388810691561e-03,1.508066450562392915e-03,4.439129194802330291e-04,2.914363443851470947e-01
2.614638143497443612e-01,-2.010230685261442385e-02,-2.550289340675007677e-02,-8.987687939428644530e-04,-2.672603648087478606e-03,-1.165574826946430201e-04,2.843469083309173584e-01
2.729275289032789265e-01,-1.225742359609369170e-02,-1.330151575687921195e-02,2.638772537436288781e-03,-1.611799748127557214e-03,-7.841900848866285162e-03,2.860812544822692871e-01
2.783997675862457388e-01,-1.280459755680347922e-02,-2.196683702617921452e-02,-8.736062286057318625e-04,3.691336982256487875e-03,-8.437285048461914266e-03,2.963254153728485107e-01
2.919989167142786890e-01,-5.482818845124443063e-03,-1.909655334647902825e-02,1.141720541726769955e-04,4.591959702094501952e-03,-1.434228530182943794e-02,3.056320548057556152e-01
2.844632287599160314e-01,-2.110776784737961043e-02,-1.409934845476064347e-02,8.146614233120822932e-03,-2.112443924633782607e-03,-2.183748544057511828e-02,3.048348724842071533e-01
2.779919122735102222e-01,-1.218430557365317302e-02,-2.224560252443419373e-02,1.562683282789312624e-03,-1.441465833260473760e-04,-8.827200918023643539e-03,2.957434058189392090e-01
1.689685487678966591e-01,-5.478483748834889200e-03,-1.703022252562710892e-02,9.241308988008373627e-04,-3.539607600004111843e-02,-3.254509347418276487e-03,1.907180100679397583e-01
2.261408572812135254e-01,-1.616847623308964588e-02,-2.497480050440978316e-02,-7.178940795891519330e-03,-1.122070009550302228e-02,-6.055034287214780542e-03,2.481280565261840820e-01
2.806884670258968928e-01,-1.714123959406632647e-02,-2.456042482754804135e-02,-2.393898305829221095e-03,8.148823936488646530e-03,-1.923338922678862481e-03,3.019846677780151367e-01
2.225469588275242327e-01,-2.254912130980540885e-02,-2.303676566788261104e-02,-1.630908819782601882e-02,-3.684070278681059879e-02,-1.379037293996524232e-03,2.550827860832214355e-01
2.581588762428664863e-01,-1.597007763829955129e-02,-3.715464161585781133e-02,1.996832197583337150e-04,-1.275251128181103784e-03,-1.285989796282273649e-04,2.853205502033233643e-01
2.917975203990272326e-01,-2.152595069247127679e-02,-1.927631258921957969e-02,4.854650272674396368e-04,6.227170148241343867e-04,-5.631560355296777974e-03,3.123600482940673828e-01
2.591178267888301634e-01,-2.732548464564996116e-02,-2.263639328116358318e-02,5.923239833357902065e-03,1.206218337998521233e-02,-1.610372251435507936e-03,2.850931882858276367e-01
2.820823285812434911e-01,-1.016160658762568780e-02,-2.511488137046653801e-02,1.965824371819200559e-03,3.417511130737327894e-03,-9.069853435795907290e-03,3.004888296127319336e-01
2.648283676518801144e-01,-2.885523219165503361e-02,-2.231421378057976690e-02,-8.281813908474721514e-03,4.922360635940358289e-03,2.235102288759492975e-03,2.909730076789855957e-01
1.945096443834290756e-01,-1.862457697183743377e-02,-1.774215022155302413e-02,-2.449286421556014573e-02,-4.286086979886336717e-02,-7.635771898892853779e-03,2.296185493469238281e-01
2.603069865100393621e-01,-2.521227776789583541e-02,-2.479781488024491998e-02,-3.590972652910575866e-03,2.269402690769435280e-02,-6.918970958864887645e-03,2.883234918117523193e-01
2.559935983725619146e-01,-2.715687624417870150e-02,-2.108604696038542115e-02,-1.349993962659227706e-02,1.204280053103044985e-02,5.065836203659287995e-03,2.820477187633514404e-01
2.612981026088404546e-01,-2.588685996985318205e-02,-2.236500240975626552e-02,-8.840514531709951079e-03,4.743767739139220611e-03,3.822011811010510643e-03,2.860454022884368896e-01
2.682895385098922336e-01,-1.595977238656130781e-02,-2.437844768947912411e-02,-1.471572554987267412e-02,1.626301425817222243e-02,-4.585843409026551382e-03,2.911490201950073242e-01
2.948377680182319160e-01,-1.782697403136840331e-02,-2.647772158062855485e-02,-1.231422642052027241e-02,1.623507735962629456e-02,-5.394704418605515868e-03,3.191736638545989990e-01
2.590410748931361029e-01,-2.270250404370705022e-02,-2.298865632588867336e-02,-7.368208609660139435e-03,4.302192174073131599e-03,4.519169697162707302e-04,2.822749614715576172e-01
2.722729177077002349e-01,-1.389628890682384488e-02,-2.142446561353648915e-02,-5.303824517826495610e-03,5.288443436954480721e-03,-6.178464635270112387e-03,2.904937863349914551e-01
2.604940027727409291e-01,-2.617071863363655548e-02,-2.266340501013272557e-02,-6.910673782635323725e-03,5.372059479166648409e-03,2.549856586715223365e-03,2.853645086288452148e-01
1.317634402414383232e-01,-1.436751884902352783e-02,1.969418141370776754e-03,-2.773255948510816842e-03,-4.865781832315389799e-02,1.050868313343439504e-02,1.633736193180084229e-01
2.807114661507209563e-01,-2.358918697908249373e-02,-3.004733726627131785e-02,-3.871903124341817548e-03,3.819186322676243819e-03,2.248617419980665760e-03,3.077494502067565918e-01
2.388900162151575135e-01,-2.080566977556838615e-02,-2.512912888038151826e-02,-5.439944530789378972e-03,1.166442824332581014e-02,3.529881893984096290e-03,2.629023790359497070e-01
2.605401423565381069e-01,-2.264662729364574911e-02,-2.397440405886483439e-02,-5.687790061394887298e-03,7.745090476252325384e-03,1.778089729778538873e-03,2.843571901321411133e-01
2.572393881093372192e-01,-3.549493094245449731e-02,-1.814383437802509491e-02,2.171611428985803418e-04,-9.746668710492361123e-04,-1.379413611842869028e-03,2.844712436199188232e-01
2.778862396470429541e-01,-2.398170863964860233e-02,-2.277625131707629313e-02,3.725541596391610867e-04,9.021111878973545051e-03,-4.275371940101155592e-04,3.016735315322875977e-01
2.721767349496536648e-01,-2.479380340299311425e-02,-2.897123984550543929e-02,-2.228286224128238867e-03,1.291412044025040326e-02,2.600933445118411465e-03,2.999750673770904541e-01
2.120529355224411716e-01,6.540381359191216326e-03,-6.601701648807234424e-02,-5.648894105104523833e-02,3.787226449230229886e-02,-1.681342518642568729e-02,2.777326703071594238e-01
2.717414312848175362e-01,-2.617190219841739052e-02,-2.635192523905359463e-02,-1.964843579478600926e-03,2.966715612759221812e-03,3.518598768502123001e-03,2.981294095516204834e-01
2.819934209196261476e-01,-2.630753882786718290e-02,-2.381302361780501808e-02,4.249641191731542067e-04,7.565717870085444247e-03,-2.307777527199865366e-03,3.073676526546478271e-01
2.785250159304648032e-01,-2.478237429066737496e-02,-2.734942230292700116e-02,4.992133543649419913e-04,6.428962025882271891e-03,1.261058875026900724e-04,3.048037886619567871e-01
2.722129167373624758e-01,-1.914915999555440174e-02,-2.301869042754357830e-02,-1.245786662221419136e-02,-2.313787721180279432e-03,1.255019714912077033e-03,2.941439151763916016e-01
2.712169439039251451e-01,-2.288461508053438176e-02,-2.422993093084292726e-02,-3.109818805901025146e-04,-6.431214773794577226e-03,-1.068889560493695921e-04,2.949874699115753174e-01
2.738343361736063630e-01,-3.279709780606337999e-02,-9.283759886398748606e-03,-4.852913016469208307e-03,-7.174454703042593140e-03,4.286945171264708483e-03,2.960506677627563477e-01
2.575031896098695094e-01,-2.583180532048140465e-02,-8.447174198149567936e-03,-5.584931687635252134e-03,-8.546850229021693904e-03,2.553513389863904057e-03,2.756583988666534424e-01
2.672522406741077439e-01,-2.728845488159449550e-02,-2.466802199445354560e-02,-4.971439829564894448e-03,-2.924992150943564028e-03,-3.998014820864058405e-03,2.934910953044891357e-01
2.586206636451465202e-01,-2.653249964604739719e-02,-2.769749053449384324e-02,-5.723144836045375612e-03,-3.791078954801773045e-03,-4.065705371893962861e-03,2.860714197158813477e-01
2.741165860423034339e-01,-1.840736409199431045e-02,-2.027153597777638094e-02,-1.610387142048990859e-03,-8.737734850386392419e-04,1.307246718259091282e-03,2.934863567352294922e-01
2.681281191384836116e-01,-2.097213625264840453e-02,-2.325135732851078829e-02,-4.949320853872076452e-03,-4.011669234926979605e-03,-8.613060831734308670e-04,2.904601097106933594e-01
2.712038927100755004e-01,-2.118203815274816160e-02,-2.505742963286460012e-02,1.101876588528060384e-03,3.203949340548754333e-04,-3.404270761072712812e-04,2.943500578403472900e-01
2.592552536008726483e-01,-2.313753892150946512e-02,-1.823037097712362775e-02,-6.633178263117918069e-03,-9.005601202896455076e-03,3.910181486343760823e-03,2.807226181030273438e-01
2.465710756462618225e-01,-3.123955932513294842e-02,-1.666055613432658455e-02,-1.486509946149134481e-02,-4.244230937964204448e-03,-3.192340465864342003e-03,2.721922397613525391e-01
2.512870720837063754e-01,-2.566657081481363289e-02,-1.967695592013779526e-02,-2.421511672563149073e-02,5.075227768488270279e-03,-4.092650746227854443e-03,2.774292528629302979e-01
2.894450998879259385e-01,-7.584001976070994799e-03,-3.198911389091008139e-02,-2.358699873699484501e-02,-9.109301131247466224e-03,6.315876138807926740e-03,3.132228851318359375e-01
2.676511644758939323e-01,-2.236744165213311319e-02,-2.395872156067245518e-02,-1.640164235724829445e-02,-3.920416161710527266e-03,-2.071542821753518098e-03,2.923026680946350098e-01
2.710310563725042421e-01,-1.406353304562532602e-02,-2.692264143594207126e-02,-6.857801400031929631e-03,6.329102921922822450e-03,2.538121674715543806e-03,2.922172546386718750e-01
1.809647644755272844e-01,-7.493044386723948791e-03,-1.930156441996483396e-02,-4.247066689458187799e-02,-3.763640058700640223e-02,4.045928358533162211e-03,2.181537747383117676e-01
2.277737323430868710e-01,-2.338595640192940583e-02,-1.727614065685526001e-02,-1.853397967879687191e-02,-1.253619858530685173e-02,-8.753108127132062585e-03,2.516263723373413086e-01
2.202171181747993034e-01,-1.748847528819751085e-02,-1.540637258054375347e-02,-3.507219508219295429e-02,7.274386407985448250e-03,-3.249315207325010474e-03,2.447324246168136597e-01
2.636980545374696394e-01,-2.367130762133745625e-02,-2.595020192927384450e-02,-1.340792781553170211e-03,-8.468671713198594464e-03,-4.782088741078645809e-03,2.890162169933319092e-01
2.064766426169777069e-01,-2.614531612921008885e-02,-1.363008173401353273e-02,-3.567108456627117452e-02,-1.809384163836153317e-02,3.668056310385058201e-03,2.370613664388656616e-01
2.634563169680674832e-01,-2.477503808714036360e-02,-2.334171429031109413e-02,-1.791655098767497983e-02,-2.893986636995741352e-02,3.801780663013090873e-03,2.935730814933776855e-01
2.581023041143817309e-01,-2.266226212808505891e-02,-2.698428934493780906e-02,-4.387133651217238646e-03,-1.198924766693743905e-02,-4.883752926472944254e-03,2.839390933513641357e-01
2.527152781686445304e-01,-1.963753354979572152e-02,-3.219834069403933186e-02,-1.654460194068426218e-03,3.228084359493208193e-03,-3.905895490838156518e-03,2.789982855319976807e-01
2.415924355408690660e-01,-1.888987670193234547e-02,-2.978644513760818346e-02,-1.195240138709093881e-03,-5.746339580941571372e-03,-4.922272839173056670e-03,2.664285302162170410e-01
2.343140735089553894e-01,-1.264162703431333246e-02,-3.201163938449326507e-02,3.055551351400280719e-04,-1.242273116725179510e-02,-3.939310561394594561e-03,2.581775784492492676e-01
2.604543376918626030e-01,-2.040224826268337288e-02,-3.177768090087057518e-02,-3.634351104900505999e-04,-1.916738002393050897e-03,-3.106149679273569574e-03,2.867839634418487549e-01
2.599775787731514187e-01,-1.915843072052476892e-02,-3.452428588309953972e-02,-1.013598476262306388e-03,-3.016765859659709548e-03,-2.973713544164536572e-03,2.872265577316284180e-01
2.679741395554723349e-01,-2.564204107101429597e-02,-2.845388111610389070e-02,-3.547063541238901392e-03,2.929572486057669886e-03,2.165858260376323473e-03,2.951635718345642090e-01
2.672069915859497380e-01,-2.532123466689714664e-02,-2.745334288587912563e-02,8.573243394403838070e-04,5.754488711063234646e-04,1.810267535845159429e-03,2.936222851276397705e-01
2.710320760147087449e-01,-2.427933898266787516e-02,-2.553076160472854406e-02,1.682669192177665626e-03,-7.828669151585419470e-04,-2.233306907574292473e-04,2.959568202495574951e-01
2.705486599590019026e-01,-2.481556704351361997e-02,-2.891229525773547637e-02,-6.504836421191411561e-04,-3.856882236884953230e-04,1.296678385928706637e-03,2.974451184272766113e-01
2.713081254827179323e-01,-2.618326271186990906e-02,-2.816866947986829128e-02,-2.369775828823803064e-04,5.323391810425398465e-04,2.520435397124326602e-03,2.985226809978485107e-01
2.991805736987473985e-01,-8.083005169750065444e-03,-8.070373460485572026e-03,9.647418443870160731e-03,2.342193802076269343e-03,2.389137109242423646e-02,3.105078041553497314e-01
3.298623644118292009e-01,-6.149477741451081503e-03,-2.419029804483088797e-02,4.065619144946428475e-03,-6.734321417243082676e-03,2.383983325034242859e-02,3.481120765209197998e-01
2.735720427596179394e-01,-4.604414909961010438e-03,-1.514796049639637043e-02,-3.373286653558358770e-04,-6.275829814240054417e-04,1.265745434071256260e-02,2.844440639019012451e-01
2.820549948308118671e-01,-2.407438525249593064e-02,-1.037010631904750069e-02,-9.646839098960278275e-03,-1.419083231954748614e-02,1.895119146256761186e-02,3.027680516242980957e-01
2.737174622021822934e-01,-2.433934154746475453e-02,-5.335029383039674444e-04,1.121725962454375134e-04,-1.281383678723899437e-03,9.835200262241093963e-03,2.874095439910888672e-01
2.853559000236227661e-01,-7.532191446760899689e-04,-1.994064739335875414e-02,5.995983107154037248e-04,-5.744570212479887042e-03,2.761105500831982987e-02,3.001724183559417725e-01
2.597201314973107689e-01,-2.192401233349364209e-02,-1.967522395907861377e-02,-3.062524013263795940e-03,-7.453000620701595580e-03,1.262262268482955375e-03,2.808819711208343506e-01
2.713595068544694122e-01,-8.851484227058017962e-03,-1.589176206904657773e-02,-3.036217028327130047e-03,-3.099458507866707704e-03,9.289532963881597452e-03,2.843517065048217773e-01
2.754175517410928364e-01,-2.599358475689445003e-02,-6.689386256731266744e-03,2.213200278474123772e-03,3.340746922976492884e-03,-6.981858259723025713e-03,2.925700545310974121e-01
2.808687195878594167e-01,-2.825630374858460747e-02,-1.666096241826470203e-02,-2.606230152824581727e-03,-5.460705045244269862e-03,8.796011125244132187e-04,3.036782443523406982e-01
2.419394587727661805e-01,-2.276380544407202722e-02,-2.307546204441283944e-02,-2.266346986688489232e-02,-2.745155340942403988e-02,1.108945559191162953e-04,2.719413638114929199e-01
2.836507714874396680e-01,-2.965173679780080951e-02,-1.344362446722396909e-02,-1.654121325487678410e-03,1.620449530590337139e-02,-3.238039326987091331e-03,3.068721890449523926e-01
2.762259486942060804e-01,-2.752383567504201878e-02,-2.562026104283100791e-02,-1.813275970044751809e-07,-1.255595607246621235e-03,-5.576518791470400430e-04,3.028118312358856201e-01
7.267561560005543486e-02,2.608173230074051913e-03,-1.818095183974445528e-04,-3.021326910534432534e-03,-3.851714037438736665e-02,7.251639900877923303e-03,9.873485565185546875e-02
2.905110194778615096e-01,-3.757788212698146002e-02,-6.103411608590028625e-03,2.076881147411805024e-03,6.300136358968498607e-03,2.220166747559874226e-03,3.137727677822113037e-01
2.739673699015992003e-01,-2.949111132131529422e-02,-2.564978421886840443e-03,1.177990273636430425e-03,4.380989382620127486e-03,-7.248321672203275091e-03,2.913081943988800049e-01
2.795639248639781860e-01,-3.217911196121178707e-02,-8.883536253681684203e-04,-3.793922929735422792e-04,-4.478133796970180415e-03,6.303542668906525525e-04,2.974389791488647461e-01
8.883094303629726629e-02,-2.671253446805431364e-03,-2.111179419483515118e-03,-3.102247620169495262e-02,1.083747702199005201e-02,-3.936815903306431150e-03,1.077392622828483582e-01
2.716036014169731505e-01,-2.774485535718036744e-02,-1.879058810726728923e-02,6.194391090746301362e-04,-1.621413705629208210e-03,-4.815487167435103999e-04,2.949897646903991699e-01
3.191771735335365845e-01,-5.538103088359913606e-02,2.058074518555594312e-02,5.786547257104093615e-03,3.018173805645728985e-02,4.605742916879323242e-04,3.470530807971954346e-01
2.581772869448302754e-01,-2.530664188886526389e-02,-2.367183837871693342e-02,-1.423840836648414959e-02,9.001754191088392337e-03,4.028246348003374465e-03,2.842575311660766602e-01
2.664489427571223867e-01,-2.562113901909203462e-02,-2.547498258982131003e-02,3.901811708192161094e-04,2.701154078168252568e-04,2.087324821987442732e-03,2.920205593109130859e-01
2.665313581063858406e-01,-2.813904926566984654e-02,-2.362837383728470797e-02,-2.972820774987147523e-04,1.657832969098007063e-03,4.258374996056364659e-03,2.925487160682678223e-01
2.513205825172842856e-01,-1.842041126192123235e-02,-3.113164514658606219e-02,4.849053569339957862e-03,-8.870082059923062659e-03,2.748501597331297688e-03,2.769111096858978271e-01
2.589883966992335695e-01,-2.536309751868162654e-02,-2.435350856909457296e-02,4.803820214074766039e-04,2.726518397183632595e-03,4.609305374482539769e-03,2.840007841587066650e-01
2.774082411165846862e-01,-2.433315341177647029e-02,-2.420815900653976172e-02,2.202548075789455360e-03,4.732288407617493003e-04,-9.086781941106487816e-04,3.017082512378692627e-01
2.579114088708706620e-01,-2.362858868503711629e-02,-2.245746323707360770e-02,1.648386950286955845e-03,8.476490736310947696e-03,-1.468207485335754894e-03,2.813655734062194824e-01
2.668351276484275392e-01,-1.932588221913780768e-02,-3.302199439850794782e-02,1.101023330428130650e-04,1.125240923912984060e-02,-3.589001191361301021e-03,2.939617931842803955e-01
2.577712371702468030e-01,-2.150406037584723373e-02,-3.231465444264827735e-02,6.770975059637525210e-03,1.205973652241825074e-02,-3.717358712183327536e-03,2.859125733375549316e-01
2.591912085791889253e-01,-1.918975463638011858e-02,-2.806160829360662690e-02,9.681468783136358211e-04,2.952127783307297200e-03,-1.643298764374121574e-03,2.829867303371429443e-01
2.730998413589486029e-01,-2.368139848589252694e-02,-2.660947794750784245e-02,4.574259648264222475e-03,7.505478924525582282e-03,-1.181347563492575426e-03,2.986513674259185791e-01
2.741219160723783466e-01,-2.537912255349236701e-02,-1.324125522503416530e-02,-2.297516058750197405e-04,-3.922047033689530018e-03,1.400765336673180650e-03,2.937091886997222900e-01
2.798781107209091235e-01,1.108432636126038817e-02,-1.956474731317356386e-02,4.954257860128334981e-03,6.707343533685783009e-04,2.310385980855408222e-02,2.882778048515319824e-01
2.811572366876339268e-01,-2.414169616200924351e-02,-3.115758249762096144e-03,4.849044169738760861e-04,-1.044687632510254982e-03,1.019163874017385563e-02,2.958815991878509521e-01
2.853129372077298775e-01,-1.109670263085123232e-02,-2.416618793720891334e-02,-9.240183233657640882e-03,-7.820247909473058284e-03,1.337692984999552630e-02,3.047619462013244629e-01
3.265313873558721713e-01,-1.956222750424926882e-02,-1.902474471598278316e-02,8.761628724829036239e-04,1.177119334700171350e-03,2.431035903974272661e-02,3.483884334564208984e-01
2.827476230616064456e-01,7.959947585578774909e-04,-1.772396379728716220e-02,-9.034416263437518736e-04,-3.872177710565487610e-03,2.573517067720069301e-02,2.951199114322662354e-01
3.040667778587584635e-01,4.935783142807043111e-03,-3.012779185056163600e-02,3.588750269206676842e-03,5.517005193483156752e-03,1.454924484887792566e-02,3.193155229091644287e-01
2.538661713081056259e-01,-2.573133097585039719e-02,-5.277032607587495150e-03,1.387568208110818340e-03,-1.002804508730276677e-02,2.797138000358318096e-04,2.705214619636535645e-01
2.624414609201618509e-01,-2.392915020978805818e-02,-2.256714595509437538e-02,-6.084448206829502423e-03,-1.082584051869804782e-02,-9.985625611878463405e-04,2.865058481693267822e-01
2.318876750074657378e-01,-2.103227026847698244e-02,-1.722752907235153286e-02,-1.633022420355911830e-02,-5.724638529679307308e-02,-1.493496771847054559e-06,2.713893055915832520e-01
2.476419982720157176e-01,-2.585806416301551780e-02,-1.265662093561821522e-02,-1.306707454687947023e-02,-4.573828324044976190e-02,-4.624586806501968048e-04,2.795618474483489990e-01
2.628241316641116709e-01,-2.491441552197555531e-02,-2.879672443610861721e-02,-1.508871739795830669e-03,9.835116759342777976e-04,2.967689540893238970e-03,2.897616028785705566e-01
2.584260337713252254e-01,-2.783819939046941472e-02,-2.472907643610744444e-02,-5.816483848971375735e-03,5.752548270894418565e-03,5.896469761087154773e-03,2.852576375007629395e-01
2.743429266177432879e-01,-2.433026066535762255e-02,-3.167639810567358938e-02,-7.151728136035074039e-04,1.090133896593875281e-04,-2.068744072368705177e-03,3.024370074272155762e-01
2.576015059491928438e-01,-3.146432523351211374e-02,-1.991009569623616859e-02,-2.297435678541832546e-03,1.286102422455750408e-03,2.889075311301464270e-03,2.835462093353271484e-01
2.595969022712400487e-01,-2.824332944326998773e-02,-2.333067530299048897e-02,-1.304011236625571626e-02,7.971698789998527684e-03,3.863510185545347437e-03,2.867187261581420898e-01
2.686328023215702743e-01,-2.555175908566324761e-02,-2.415864488789387643e-02,-4.168426746621375217e-03,4.518655913740988149e-03,3.599979107234555116e-03,2.937497794628143311e-01
2.577344871033295237e-01,-2.894773910186883292e-02,-2.346563349532872211e-02,-6.912073403639463348e-03,5.767802974784655597e-03,5.203298070637947179e-03,2.845513820648193359e-01
2.575920086387471497e-01,-3.101903876231096313e-02,-2.331700706479633567e-02,-2.333231308094993375e-03,2.604716082559836547e-03,3.171371647639636884e-03,2.849554717540740967e-01
2.592529357369625087e-01,-2.527443500590245695e-02,-1.984606340427823301e-02,6.020853392600058855e-03,-3.280138385786160113e-03,1.789443376025961823e-03,2.821194827556610107e-01
2.779377026921827087e-01,-2.882581104179132714e-02,-5.075141161424545633e-03,-3.254064162021893386e-03,-5.903631640709506613e-03,1.875421961160357847e-03,2.958529889583587646e-01
2.549659673578801300e-01,-2.023903390793767298e-02,-2.616407168436953035e-02,-1.836754804145584227e-03,-7.982873400469315400e-03,4.623127242477789896e-03,2.786914408206939697e-01
2.803580901911013057e-01,-3.433278703381095753e-02,-3.387666151066018316e-03,1.355768919979204179e-03,4.304686354979689149e-03,-2.643743071566327565e-03,3.005526065826416016e-01
2.418978598781893752e-01,-2.436051501454881973e-02,-2.550508094250589219e-02,8.472774857986139357e-03,-1.469951701748866899e-02,6.206733207452105709e-03,2.686610221862792969e-01
2.800667466515016080e-01,-2.727680452151629020e-02,1.266550216641473825e-03,1.449239659966765868e-03,2.079706190663930566e-03,4.695980181512420318e-03,2.942577004432678223e-01
1.788772415703566154e-01,-9.572726874727655044e-03,-1.933716309660188371e-02,8.840932894619525292e-03,-2.410984545997387624e-02,3.549434639447598353e-03,1.986579447984695435e-01
1.579048982945396862e-01,-6.274738647429126126e-04,-1.218178092199365126e-02,2.656946395290676541e-02,-2.505678893853920813e-02,5.430191946560432477e-03,1.765999644994735718e-01
1.818774710343642742e-01,-1.122402049591712803e-02,-1.172416046998681072e-02,5.146252006272943567e-03,-4.650767080769509926e-02,1.863710018508207529e-03,2.096754014492034912e-01
4.330420683947373561e-01,-6.030942187283591660e-02,6.815928229065210120e-03,7.657574181623778842e-03,-2.161412461291870729e-02,1.665500325190569231e-02,4.660415351390838623e-01
2.079933746668878314e-01,-2.685012491389596190e-02,-1.184391829709574573e-02,-4.079981018507598117e-02,4.857846892995945631e-02,4.460176373000114894e-03,2.529539465904235840e-01
2.301459081910559590e-01,-1.843373972571793473e-02,-1.945906760047752537e-02,-1.337934374784881426e-02,3.018640937992300710e-02,1.601755829766411243e-03,2.555897831916809082e-01
2.350164138318972806e-01,-1.902191809030279179e-02,-2.866852047218466926e-02,-1.178669213711341056e-02,2.893870983628395177e-02,5.111385899272714861e-03,2.647388279438018799e-01
2.505069861500404116e-01,-2.430836548799868158e-02,-1.970442625101766210e-02,-1.231878829849315446e-02,2.478640849934292054e-02,-2.495673547379770210e-04,2.767272591590881348e-01
2.155506890757030725e-01,-1.785716833587434882e-02,-1.891627286657497631e-02,-3.666432096703570870e-02,1.086019990189477161e-02,7.375453530236497635e-03,2.434694916009902954e-01
2.999451069762645306e-01,-1.488134859202489002e-02,-2.565330680149094378e-02,1.172297408260961939e-02,9.490704999546756976e-03,7.088021159786538072e-03,3.216461539268493652e-01
2.649041135608215525e-01,-1.770982069933933756e-02,-1.658114741272850856e-02,1.069609940550644324e-02,1.185186914265251926e-02,9.228683306586023607e-03,2.838539481163024902e-01
2.726890241786464886e-01,-7.601587117878477740e-03,-1.493570426227351644e-02,6.225816794123048038e-03,6.952046886358270120e-04,1.557366772666943927e-02,2.855129539966583252e-01
2.389004519063175347e-01,-2.244608967527984833e-02,-2.388216701500120442e-02,2.366689660761844144e-02,3.198487718907504912e-02,-8.943427825090482369e-03,2.714199721813201904e-01
2.367967003752934341e-01,-2.544183486810730477e-02,-2.478348868677190953e-02,2.701542958758844024e-02,2.739873275795973173e-02,-4.936505929352073482e-03,2.703914046287536621e-01
2.671041672210374696e-01,-3.172948533898491130e-02,-1.653063562620291083e-02,8.126967157444306422e-03,1.027915118194962056e-02,4.668835661329591435e-03,2.925254702568054199e-01
2.562740931570359759e-01,-2.169609430761566815e-02,-1.900316691580503092e-02,1.442085668796574960e-02,1.583729811091193901e-02,2.601787685887015089e-03,2.791465222835540771e-01
2.894391484881466692e-01,-2.004433092053528598e-02,-1.954872061068518851e-02,-2.958114573659003516e-02,-2.636565460652181073e-02,1.499117675163254282e-02,3.178233206272125244e-01
2.779734985028985417e-01,-1.340856825229296001e-02,-1.965535618189660771e-02,3.477850121374888542e-04,-3.183235698630558757e-03,7.670603620397061645e-03,2.949067950248718262e-01
3.176236258947839342e-01,-2.279170006587724617e-02,-2.610434642908443514e-04,7.353798169833254813e-04,4.705362115543019856e-03,2.475826966130345586e-02,3.326069712638854980e-01
2.865233800877975412e-01,-2.524173802465431993e-02,-7.559220959325402278e-03,-1.038070027701500043e-03,-4.754468257151932102e-03,7.072609113885281948e-03,3.036749660968780518e-01
2.795844817067909549e-01,-2.802238480666821574e-02,-1.581171007798201633e-02,8.675892173283274167e-04,-8.616616425942122404e-03,1.179200676199559277e-03,3.020665049552917480e-01
2.738064372817879955e-01,-2.306721544764454845e-02,-1.715911867187541739e-02,-3.344519687574164495e-03,-4.901977664962323990e-03,1.067588890683669571e-03,2.941495776176452637e-01
2.693742833453403041e-01,-2.242009475254624906e-02,-1.876569767628843977e-02,-8.574882362777079027e-04,-1.889242974224243990e-03,1.180933767675552363e-03,2.900139391422271729e-01
2.699625851919894015e-01,-1.915687194583076680e-02,-2.109192552646552143e-02,-1.845851807866664973e-03,-8.805693186656083239e-04,1.651206842448969207e-03,2.901275455951690674e-01
2.647705214243177840e-01,-2.127647373274525744e-02,-2.764991479377040817e-02,-6.993897748569639222e-03,-1.975985401191037230e-02,-1.991309860099644419e-03,2.915760576725006104e-01
2.745572000857475214e-01,-1.983881430209930019e-02,-2.349395086481467776e-02,-1.182096610861129403e-02,-9.586463556843685674e-03,3.477764151950574895e-03,2.974720597267150879e-01
2.713091145761077350e-01,-1.329856936095491493e-02,-1.712205848652777196e-02,-2.484890875765999232e-03,3.057142881999727916e-04,1.150674721459304765e-02,2.872635722160339355e-01
2.714488717553164010e-01,-2.346674703312341681e-02,-2.316035931156146255e-02,-5.821678485101598917e-03,-5.077695446940436175e-03,1.308658120121346171e-04,2.950661480426788330e-01
2.748338725274369621e-01,-2.165057317954917349e-02,-1.895265864139637768e-02,-1.665616235003915388e-03,3.248183126421122784e-04,2.487680741929336470e-03,2.951908111572265625e-01
2.739411689189982235e-01,-1.320491958754879680e-02,-2.209567450332841632e-02,-8.294902017197327160e-04,-2.893785283843607753e-03,7.501089957343096571e-04,2.917425930500030518e-01
2.721199552641443975e-01,-1.330597826303703268e-02,-1.883379781232766281e-02,-1.386485630114635400e-03,-3.254863527665942391e-03,1.406422474160423002e-03,2.883050143718719482e-01
2.723719743173400598e-01,-1.452848214844812413e-02,-1.591061497828430427e-02,-1.107966343502326135e-03,-9.093936454934968550e-04,1.918823641142880379e-03,2.876239418983459473e-01
2.724451851549561376e-01,-1.379190099715361939e-02,-1.310732945249852566e-02,-2.155892449019920169e-03,-2.846256943066105376e-03,2.750644977217844844e-03,2.860019803047180176e-01
2.501214184740584434e-01,-2.901867079354918111e-02,-1.709690725783401255e-02,-1.747088092710770424e-02,2.068547333488323769e-03,3.677158833910535059e-03,2.751410007476806641e-01
2.727459131493266131e-01,-1.812445693124187240e-02,-1.726605583611948158e-02,-2.766448462236286050e-03,-3.586005461122131546e-03,1.942666857898819486e-03,2.905675172805786133e-01
2.727251214607886443e-01,-2.759149440982086587e-02,-2.368590214075386169e-02,9.589373308562767345e-03,-1.226346867532753003e-03,1.000261361073966635e-03,2.988574802875518799e-01
2.659481246988381065e-01,-3.254386473096779198e-02,-2.160315783944320722e-02,1.628140912641468780e-04,-3.387246889727866367e-04,1.397099924927751747e-03,2.931855022907257080e-01
2.680075758149043641e-01,-2.564618432269975823e-02,-2.177106989354427036e-02,-4.123118847819326731e-04,1.226127887831620971e-03,6.137850506035089516e-04,2.917460501194000244e-01
2.659551971447162155e-01,-3.112194913082080849e-02,-2.278037450861913893e-02,-1.434310604151452337e-04,1.332488721910027389e-05,5.802107304183428370e-04,2.929972708225250244e-01
2.669505818054069834e-01,-3.205806530030715085e-02,-2.319211371459820037e-02,1.990246277233424354e-03,-4.422752624306515809e-05,3.229483921177959006e-03,2.947489619255065918e-01
2.714134601486148379e-01,-1.800267142760496319e-02,-1.202892633350553797e-02,-1.584521358444711606e-03,-3.162767325500834108e-04,6.984095238432856852e-03,2.867449223995208740e-01
2.707597997384088018e-01,-2.709255796989323839e-02,-2.462968825853027732e-02,6.175487917638335230e-04,-9.688707941024677413e-04,1.438651938172367693e-03,2.966457307338714600e-01
2.761360499844437433e-01,-2.875171707484980299e-02,-2.504023771144404942e-02,5.625939112396582432e-03,1.940715295923282815e-03,3.138762500615169780e-03,3.032730519771575928e-01
2.544061307907244385e-01,-1.982184043396285900e-02,-1.810516190198413478e-02,9.632620487385477187e-03,5.949699951879119063e-03,-8.351930179381716543e-03,2.744576334953308105e-01
3.042156645091515510e-01,-2.648205861914573744e-02,-2.045319321815447511e-02,1.628048671655198468e-02,-3.201489643106325642e-03,-1.738966137391640895e-02,3.303584456443786621e-01
2.742112368325004268e-01,-1.899765822850978114e-02,-1.694634913081090322e-02,1.304605863334029180e-03,3.324253257692204810e-04,-2.217694296623608577e-03,2.922231853008270264e-01
2.857354014165164324e-01,-2.169978478107817410e-02,-1.285633504043817710e-02,1.366136603365142435e-05,2.111552291408265621e-03,-9.014405068362169732e-03,3.035341203212738037e-01
2.703661951052239720e-01,-6.731454262602146188e-03,-1.457136095855152136e-02,1.192883215622090980e-03,2.298327712391211959e-04,-6.129235565552222480e-03,2.813078761100769043e-01
2.969437082521622084e-01,-1.163847331963253906e-02,-1.466666570675830006e-02,-4.286979568409207512e-03,1.059131999200746237e-02,-3.142893680733935269e-02,3.154703974723815918e-01
2.765375760287985818e-01,-2.121851628679144453e-02,-1.759305366346453070e-02,9.703331493172194858e-03,-8.400819700653726352e-03,-7.429347867366717720e-03,2.970725595951080322e-01
2.901757504977986457e-01,-1.974041608510569701e-02,-1.067775193453369964e-02,6.125437112819231457e-03,-3.288814087699126754e-03,-1.156909792051717158e-02,3.063789010047912598e-01
2.714705178944820663e-01,-1.473637651184850350e-02,-2.535773019017634189e-02,6.809012507256372027e-03,3.758785784938764758e-03,-5.892184613183057244e-03,2.921518981456756592e-01
2.500379850368947832e-01,-2.613479534897035494e-02,-2.301149257706781859e-02,2.777921815478294476e-02,-1.627282567483910591e-02,1.104017735430183654e-04,2.802286446094512939e-01
2.492200752691231536e-01,-2.781369805092227809e-02,-2.007380262237103141e-02,2.035488034739614191e-02,-1.404612756377618746e-02,2.695257695234959828e-03,2.766225636005401611e-01
2.626716208473809377e-01,-6.927314622137525912e-03,-2.821109914106000038e-02,1.069253521716886923e-02,1.534152879806292055e-03,-8.453994037672826062e-03,2.818494737148284912e-01
2.352542775577397827e-01,-2.784749489724264171e-02,-1.701654010333324141e-02,8.440709245450513445e-03,-1.546525493609032754e-03,4.305524669162999994e-03,2.583926022052764893e-01
2.574200721341942111e-01,-3.487014261908071011e-02,-1.859704525964335498e-02,-1.636979107635992128e-03,1.899559306097255932e-03,4.492122912449745295e-04,2.845371365547180176e-01
2.571244201279488939e-01,-3.049875763541079476e-02,-2.134448611051434352e-02,6.487884462222776732e-03,-1.336333938426370995e-03,2.369111633984589353e-03,2.834191024303436279e-01
2.732804797197694868e-01,-2.986727738684627487e-02,-2.541492701255934628e-02,2.080993787836509998e-02,-6.417667530784785211e-03,1.686790408376071535e-03,3.033148944377899170e-01
2.663042629874851075e-01,-1.586350552984605589e-02,-2.723958363982637021e-02,1.104078897315118220e-02,5.070477413261765404e-03,-1.958767376376404148e-03,2.888119816780090332e-01
2.635057825434587997e-01,-2.766092027365905925e-02,-2.297616469829628916e-02,1.003058470473267710e-02,-8.185960645280753682e-04,4.604746224944485621e-03,2.894881963729858398e-01
2.346682456233619429e-01,-1.414624067720046674e-02,-2.794415441154406154e-02,6.764429944633281941e-03,9.146577941084902200e-03,-5.151863901289144461e-03,2.569047212600708008e-01
2.767111391500726714e-01,-3.045503634923631131e-02,-2.697881084944600549e-02,1.259655322433452310e-02,3.996932565830576753e-03,-6.854704186967769917e-04,3.063016831874847412e-01
2.851137137791019960e-01,-3.157776224502564788e-02,-4.221524098414169979e-03,2.447064588962567181e-03,-1.147421241282992098e-03,-5.158325797622274715e-03,3.041054308414459229e-01
2.857989411649234923e-01,-3.769265058946433267e-02,1.199489648195234404e-02,4.361142995453577351e-03,-1.784656953900456370e-03,-2.340382716739674348e-03,3.018695116043090820e-01
2.767144753744047447e-01,-3.367290692407426400e-02,8.830281009057569519e-03,3.234150523524556477e-03,-7.048223433451560396e-03,-4.850789088955228916e-03,2.918996214866638184e-01
2.827112779539309173e-01,-3.681541338210983505e-02,-1.626149249229838500e-03,3.563236875776279629e-03,2.964343314498671389e-03,-2.949294709682594683e-03,3.036152720451354980e-01
2.844045151862283349e-01,-3.113882548015900475e-02,-3.390121845289958968e-03,1.815246134458644699e-03,2.322454868859269309e-04,-1.667197186928304903e-03,3.026550114154815674e-01
2.808080892557990316e-01,-2.617027069577920750e-03,-2.412081927922911373e-02,-2.705301491623095331e-03,1.290453926493613599e-03,9.197155141894593558e-03,2.952416539192199707e-01
2.718590702955681060e-01,-1.237316199083728085e-02,-8.025076188914154196e-03,3.477083247792344431e-04,2.209383158981299573e-03,1.267782563101698540e-02,2.829632163047790527e-01
2.747424619772059762e-01,-2.151413917825036048e-02,-1.839151474764534611e-02,-1.321864425903518901e-03,-1.012728469487265536e-03,2.074008213896919722e-03,2.947437167167663574e-01
2.724147341891879348e-01,-2.380320891127439553e-02,-2.670385780555402377e-02,-3.569677596463775339e-03,-6.553754881896418048e-03,-1.918128237569316713e-03,2.979778945446014404e-01
2.595386889016114695e-01,-1.432655811425781467e-02,-2.335464875286254183e-02,-2.414435633743632070e-02,-2.085147698869599386e-02,6.065796163197128589e-03,2.841122150421142578e-01
2.726628897217825975e-01,-1.661111698211292786e-02,-2.392568242262803346e-02,9.333919070618019662e-04,3.986084874912023020e-03,2.927094086875781185e-03,2.931294143199920654e-01
2.074845392291775892e-01,-1.826849033108900178e-02,-1.156914688009300085e-02,3.795672342666146087e-02,-5.462421660247821636e-02,-1.918893521067104035e-03,2.505623996257781982e-01
1.831648564278677283e-01,-1.871181465739933658e-02,-1.011010029310184521e-02,1.813331408122129465e-02,-2.276997451185296464e-02,3.666398099093643413e-03,2.041418403387069702e-01
2.082145040339936359e-01,-1.634587986225491396e-02,-1.073426167611170323e-02,3.327272681419520678e-02,-5.736181353418899620e-02,-6.325809268424927197e-03,2.500222325325012207e-01
2.485504210699636118e-01,-2.652682231723704764e-02,-2.189599951175699721e-02,1.275848588599590508e-02,-1.038377385721579726e-02,5.706053604639691607e-03,2.744532525539398193e-01
1.449486139726798573e-01,3.081892224646810841e-03,-6.592746111127478770e-03,1.633811987296739793e-02,-1.289416946164227869e-02,1.449484485997046442e-03,1.513213813304901123e-01
1.499240629459813734e-01,-6.667253149496912834e-03,-7.757591597854898713e-03,-8.465084572254148038e-03,-2.042590170026525875e-02,-2.931974591567644648e-03,1.618183553218841553e-01
1.477404292482863424e-01,-3.669293394352936277e-03,-9.031690737033151728e-03,-1.916327940538284022e-02,-1.590754215635507146e-02,-1.882518708555566342e-03,1.601157486438751221e-01
1.060571725049674480e-01,-1.109216388316980328e-02,-4.567322000219635469e-03,-3.065641010929084920e-02,-3.297581786654539548e-02,-8.950284601268098869e-03,1.390113085508346558e-01
1.586057342399193604e-01,-4.706186410913602847e-03,-5.624308240252381963e-03,2.100026283985547554e-02,-2.396717650670719332e-02,5.581398230516084087e-03,1.730934232473373413e-01
9.416196710868769693e-02,-4.161765640179608539e-02,2.885903274967738241e-03,-6.310640487403026098e-03,-4.238892749660153059e-02,4.677952398067547653e-03,1.412429958581924438e-01
2.659574596782114941e-01,-3.014778493128397741e-02,-2.172842831264655550e-02,-6.227703873689626954e-03,2.790038239362496839e-04,-2.691920864280858677e-03,2.922233939170837402e-01
2.547178874927219505e-01,-3.034345528983291296e-02,-2.181150180304024244e-02,-3.644777065417747694e-03,-8.261848227187475289e-05,-4.664602099556800635e-03,2.810796797275543213e-01
2.592737572579892902e-01,-2.387441029840824125e-02,-2.394814461255016791e-02,-6.455108989694932978e-03,-9.655766215372462574e-03,-1.648870742652615165e-03,2.839130759239196777e-01
2.670153251582120801e-01,-3.261996931188902715e-02,-2.031429530033661279e-02,-6.683429618173157907e-03,-3.825379200639524371e-03,-3.316233783286424031e-03,2.940347194671630859e-01
2.640686983769409135e-01,-2.409061790543029491e-02,-2.317887314184462200e-02,-3.566517022051555845e-03,5.235679200082329367e-05,-1.274217179272896672e-03,2.877793014049530029e-01
2.422427146442673873e-01,-1.226183446552868428e-02,-2.974056657302623363e-02,8.163453106513117105e-03,-1.935274276451300415e-02,-6.800575685442484348e-04,2.661792337894439697e-01
2.128559682519684249e-01,-1.598465209233862483e-02,-1.722191894960585501e-02,8.198651725331788931e-03,-5.281775708391495128e-02,-4.930672496088279490e-03,2.475811690092086792e-01
1.855367471932710954e-01,-1.708850654587772133e-02,-1.193341318107533910e-02,5.151823956457588297e-03,-4.505205355511176374e-02,-1.004466882935081684e-02,2.156626731157302856e-01
2.755420898657719997e-01,-2.659797274619536689e-02,-2.505712574264723491e-02,-1.216158392034943957e-03,-1.665950037086851628e-03,-7.110405125627609207e-04,3.013962805271148682e-01
2.479235216102878836e-01,-1.426545919906228865e-02,-3.336371044823220611e-02,-7.436099621540689843e-04,-1.207490489464743515e-02,2.854273465074951260e-03,2.730909585952758789e-01
2.746998040429509125e-01,-2.479971816881110236e-02,-1.859458106940832522e-02,8.646863010268070540e-03,-4.910951294225754209e-03,-1.465917363369153518e-03,2.969564497470855713e-01
2.577314072265265432e-01,-2.257852810673911803e-02,-2.088090803216827163e-02,5.934483313129500573e-03,-6.119910156867635308e-03,8.614014084284511361e-04,2.798587679862976074e-01
2.756835266083303981e-01,-2.577301855542758757e-02,-2.338174127266241797e-02,1.953053026931246550e-02,-9.555800347380689896e-03,-2.459005783491986785e-04,3.026207983493804932e-01
2.845478389747394532e-01,-2.149991027676756428e-02,-2.860143996158949486e-02,7.542262387293587056e-03,-2.317698734191299056e-02,-9.929662740579282484e-03,3.129968643188476562e-01
2.601813749040324808e-01,-2.507568647109174875e-02,-2.549207960742622125e-02,6.114688632141244799e-03,-8.913192056360494733e-03,5.753726388749959980e-03,2.862522602081298828e-01
2.572073121986394595e-01,-2.484185932957380660e-02,-2.769732203738231591e-02,1.168184789901996132e-02,-2.525685388771923418e-02,3.297369504581555005e-03,2.876126170158386230e-01
2.356426813967665845e-01,-5.837831872326210148e-02,-5.597976641983429258e-03,2.957548090213596437e-02,-6.475025339984434580e-02,-1.683010317423055610e-02,2.996118366718292236e-01
2.869128393052642889e-01,-1.784419811623583207e-02,-1.044505249435387362e-02,-1.721226348342293992e-03,-2.049087870684757149e-03,8.737662064255887276e-03,3.015413582324981689e-01
2.738160028165697590e-01,-1.341480142992100555e-02,-1.161658447174233888e-02,-1.198407896166871255e-03,-1.326694222350141127e-03,5.100975260582385311e-03,2.864889502525329590e-01
2.722075197119684375e-01,-5.656232611542647004e-03,-1.879748709553458186e-02,-4.861557908623868060e-04,-2.034710217588496604e-03,4.613933355988578643e-03,2.847971618175506592e-01
2.731550830513680972e-01,-1.578367365564706248e-02,1.079973285526739102e-03,-2.655024119721464265e-03,-2.708413706473152775e-03,1.237872260644977060e-02,2.817805409431457520e-01
2.742270719209917162e-01,-2.519855477232432750e-02,-2.699303826440811738e-02,-1.730590711838040502e-03,-2.021183170150571765e-03,-2.720824064603246089e-03,3.003992140293121338e-01
2.812119693151464705e-01,-3.244386453844741447e-02,-6.483967714225977175e-03,2.005726628542177717e-03,-4.246692231808068228e-03,-4.451537755595109795e-04,3.016259074211120605e-01
2.979947292415494609e-01,-2.862549217975549065e-02,-1.237311108678737503e-03,4.173510680838103410e-04,5.233511507249866829e-03,2.042133554800516088e-02,3.159416615962982178e-01
3.295849626991220749e-01,-2.871453608694599091e-02,-2.810886533215539718e-03,1.225606085366530776e-02,1.495632612892719773e-02,2.646440347055796158e-02,3.507008254528045654e-01
3.069636532424007691e-01,-1.940656068730800543e-02,-1.931138522728922946e-02,1.365550954999883437e-02,-6.995482790649678456e-03,2.599776100759145642e-02,3.304850161075592041e-01
2.248855634141409543e-01,-2.436801860909308670e-02,-1.460793080098331254e-02,-2.482990917488333768e-02,-1.145219573990432366e-02,1.241363712619449229e-03,2.490733265876770020e-01
2.718962274630762899e-01,-2.202677110886074041e-02,-2.764056114275631471e-03,-1.370196516634982799e-03,-3.979386538109718797e-03,6.625118289624688100e-03,2.851049602031707764e-01
2.168163460071933779e-01,-2.444389021161359754e-02,-8.218208236352511631e-03,-2.431542109802937307e-02,1.534279676234187595e-02,4.841609118542284686e-03,2.389673739671707153e-01
2.182699943423513922e-01,-2.789512656845462291e-02,-1.157550015387712183e-02,-2.873562908241017455e-02,1.146721653327227065e-02,9.931132521852944605e-04,2.443786710500717163e-01
2.174719648777888314e-01,-2.820017629100314560e-02,-1.003365153685188693e-02,-3.560141712783249784e-02,-5.526558186572374728e-03,-5.692080458816906746e-04,2.451872676610946655e-01
2.171822679170092030e-01,-2.812290656788322962e-02,-9.757315044090261735e-03,-2.151439690794384324e-02,-3.281064496676632317e-03,-4.274655835336173097e-03,2.397550195455551147e-01
2.061145791530585025e-01,-2.265569240290014885e-02,-1.031485905692137994e-02,-1.186591291256281974e-02,-7.939793937335525714e-03,-3.538436304335498806e-04,2.242249250411987305e-01
1.775513621187096991e-01,-1.768579109308396347e-02,-8.026110620799276063e-03,-3.731804190847321651e-02,-6.390565972135824925e-03,-2.629126683363614252e-03,2.016087621450424194e-01
2.336774941620978485e-01,-1.838819961376612910e-02,-2.066328868013141140e-02,8.987874618270308077e-03,-4.547471427295458890e-02,-1.523198942148060219e-03,2.656480967998504639e-01
2.769648287342962867e-01,-2.848745609699032677e-02,-1.741154378124108726e-02,7.909880955692959875e-03,2.081023550931021331e-04,-2.829416635764049875e-03,3.004204630851745605e-01
2.854086837284658396e-01,-2.714598332068821063e-02,-2.167585819616124621e-02,1.896577453664291188e-02,-1.325780158071680412e-02,-4.950161549760472186e-03,3.125548660755157471e-01
2.922986646515814968e-01,-2.695069215637596605e-02,-1.986327010425908979e-02,1.647573895180822964e-02,-6.500268084743922835e-03,-6.505540318238253218e-03,3.174520432949066162e-01
2.769691346879361582e-01,-2.574998806407226282e-02,-2.867068771673705885e-02,-9.567319721811627740e-04,-8.287895352550111268e-04,-4.581724898125768002e-04,3.041989207267761230e-01
1.394160821811802620e-01,-6.298977655250122265e-03,-4.685397441961038079e-03,-3.352489608056048731e-02,-2.600285740906782897e-02,-6.633238672936110115e-03,1.628881841897964478e-01
1.578955451148852107e-01,-1.547363253678624151e-02,-6.274213666571111514e-03,-3.722573337972591434e-02,-2.076079990672185724e-02,-3.107820211908053024e-03,1.844610571861267090e-01
1.999695539797161359e-01,-2.100175974029287740e-02,-8.932514729648927121e-03,-1.349314855132190474e-02,-7.073133734832922487e-03,-3.757017005802260230e-03,2.169001102447509766e-01
2.174846998579083035e-01,-1.556992903824822028e-02,-2.073513460827942911e-02,-1.068459651321698387e-02,-2.575982525184209240e-02,-8.747772418901159433e-03,2.410553246736526489e-01
2.089292621234535852e-01,-1.835219403020367512e-02,-1.717176056363532710e-02,-3.985237929673166035e-02,-3.848140576797311196e-02,-3.182639472164672505e-03,2.462264001369476318e-01
2.049440847403623256e-01,-2.123122722762549319e-02,-1.328623804873393932e-02,-2.548891995244333131e-02,-1.187046858025182609e-02,-7.791734142594915723e-03,2.279810160398483276e-01
2.025414275100429762e-01,-2.138126801250635201e-02,-1.273652456344558093e-02,-2.458474146674011901e-02,-1.456115902002161344e-02,-6.770166966618519806e-03,2.255375087261199951e-01
2.404079731234511075e-01,-2.448464680523271264e-02,-1.952335651404953076e-02,1.355031985794604051e-02,3.287141719163562403e-03,-6.633450239842833031e-03,2.638062834739685059e-01
2.709068005878155216e-01,-2.404090680533581270e-02,-2.726932915663013435e-02,-1.206410087243385033e-03,-4.129915199089466003e-04,-4.652030610297683624e-03,2.966927587985992432e-01
2.716097356928780515e-01,-2.530434948327192624e-02,-2.330253443679761172e-02,3.566618444368181923e-04,-6.195275515975854578e-04,-8.165293247187473081e-04,2.959242165088653564e-01
2.768344309600325182e-01,-2.359850851895999024e-02,-2.488766667048740444e-02,-1.409298055740991701e-03,-2.377477443782332299e-03,-2.622417877696063115e-03,3.011519014835357666e-01
2.789100801654242900e-01,-2.576898635295536699e-02,-2.358664306399091415e-02,-2.063327442850431022e-03,-1.131060309845194779e-03,-2.164234048627899139e-03,3.036442697048187256e-01
2.712472434776687091e-01,-1.589962360124765051e-02,-2.442115598966480838e-02,-2.666804169969438747e-03,-3.325343530745911765e-03,3.495846149486124370e-03,2.916574180126190186e-01
2.539774709726763668e-01,-2.083525010771325459e-02,-2.876777962973893488e-02,1.717770817499316045e-03,-3.632691046566348609e-04,-4.633685510482817710e-03,2.789956629276275635e-01
2.438311346590549267e-01,-2.494366480134198316e-02,-2.190045982036824268e-02,-1.339213831282848668e-02,8.056996365707893085e-03,5.476905920428620268e-03,2.688010334968566895e-01
2.511584037219787291e-01,-3.113961667885406515e-02,-1.786545530367542045e-02,-2.844295324629762898e-03,5.837934376154314646e-03,1.652054511875914074e-03,2.761445343494415283e-01
2.403159111423414096e-01,-2.651799472380951539e-02,-1.574461817500677485e-02,-3.781876254893612455e-02,2.886450471664989137e-02,1.319329251348420320e-03,2.742939591407775879e-01
2.771260317427592379e-01,-1.354774928445340310e-02,-2.685954395769107883e-02,-4.428962444200614489e-03,8.207723827258537816e-03,-1.372093981080004790e-03,2.980007231235504150e-01
2.172120783934299026e-01,-2.756264541467651208e-02,-9.117486894509946316e-03,-2.309523172745376121e-02,-3.135641050117184917e-03,-6.562582902922116596e-04,2.395223081111907959e-01
2.655128546109687404e-01,-2.491102426351017585e-02,-2.208606469276233608e-02,-2.010103362490385168e-02,-1.307273003631523106e-03,-1.674320772234781304e-03,2.911344468593597412e-01
2.580801967242515871e-01,-9.910560798555956286e-03,-3.748812564299992822e-02,-1.751463556610034084e-02,-8.997388910995536213e-03,2.009269324408335098e-04,2.848391830921173096e-01
2.189151922588057908e-01,-1.732480226618864083e-02,-2.064395041622892057e-02,-3.489483650183254626e-02,4.300557518079150751e-03,-1.247155650994029308e-03,2.455963492393493652e-01
2.723869221630139670e-01,-2.596866557393737174e-02,-2.347569320135789450e-02,-1.749733173043759721e-02,5.819253288899529225e-03,-3.023204879640615378e-04,2.988290786743164062e-01
2.207724713929729299e-01,-1.674535425596733462e-02,-2.687758305561521732e-02,-3.350210161216559540e-02,3.654534211088177401e-03,1.054496250254556046e-03,2.496688663959503174e-01
2.815009178353359842e-01,-3.297118897650974656e-02,8.385052608312654199e-03,3.651803638056531562e-03,-2.102093014271910667e-03,-5.026596603230279459e-03,2.961869835853576660e-01
2.723475530412344803e-01,-2.541747963951129785e-02,-2.781336380643519013e-02,-4.020102559694844677e-05,-5.649599066141174075e-04,-3.595748548453756108e-03,2.990366518497467041e-01
2.860602585202971504e-01,-3.931166839051894457e-02,1.123203823313279059e-02,5.277595423327830632e-03,2.447279170840064764e-04,-1.186671480348154735e-03,3.034205138683319092e-01
2.810292306605579604e-01,-3.599589895103452730e-02,2.176400961779395571e-02,1.754065877698685830e-03,1.932484127020144341e-03,-4.515633117415023684e-03,2.925942540168762207e-01
2.790693440972535910e-01,-3.178738898892377596e-02,1.342997712826085599e-02,1.950776838020469410e-03,-3.130490174091796196e-03,-1.089136210104949508e-02,2.915768921375274658e-01
2.808794895077597609e-01,-3.436917075752116135e-02,1.005114035253509841e-02,2.019324282565577999e-03,3.491671736457789728e-03,-1.442050843687893262e-03,2.956458926200866699e-01
2.468673723351852978e-01,-2.057790832791149549e-02,-1.773239188745209804e-02,5.185410860374943705e-03,9.309756975320519420e-03,7.513902997418135101e-04,2.666766345500946045e-01
2.525043690690911280e-01,-1.782455474967235831e-02,-2.878753508868421573e-02,3.096087457885076180e-03,7.241705779556434353e-03,-3.450363017722250878e-03,2.763753235340118408e-01
2.599339000608744676e-01,-2.104886156056903768e-02,-2.242243713383001991e-02,-6.860264822769062982e-04,4.636972236868216503e-03,1.007774283359721610e-04,2.817890942096710205e-01
2.734034216441597609e-01,-2.299152027834698575e-02,-2.669408948459967013e-02,-6.589465664553804209e-04,4.319371300897750961e-03,-9.764081952968791528e-04,2.983642518520355225e-01
2.684680122536306501e-01,-2.892527299478088454e-02,-1.686692909873370450e-02,9.577019966556634192e-03,2.305551770705286871e-02,3.450143165300159978e-03,2.948010265827178955e-01
2.593644214666123160e-01,-2.232578711001953486e-02,-2.511652140119735588e-02,8.743346482279297158e-04,3.732642825690604856e-03,-6.346827600230319421e-04,2.831758856773376465e-01
2.693874229171551171e-01,-1.853135969026707686e-02,-1.959649399360378907e-02,-4.732991478789319150e-04,9.430478870402470536e-04,3.938430825328333162e-03,2.885392606258392334e-01
2.381786098454044265e-01,-2.594575116105299339e-02,-2.317632359984410362e-02,3.868595301209121727e-03,4.193866860658307383e-02,-3.393639514182965247e-03,2.727524042129516602e-01
2.604247186335771902e-01,-2.080642360072079700e-02,-2.674204453248377189e-02,-9.842875119934347671e-04,2.066687116346306499e-03,-1.576805093206342734e-04,2.842732071876525879e-01
2.595514663553897261e-01,-1.991205522717033605e-02,-2.692598492867376292e-02,1.037539654845696848e-03,1.243344018011929364e-03,-5.411696074939063573e-05,2.830495834350585938e-01
2.701320528924311404e-01,-2.611050535747910795e-02,-2.415354710716331732e-02,-1.765342557150029656e-04,-1.152549426941701502e-03,-9.062528628593658495e-04,2.952800095081329346e-01
2.700244323685160319e-01,-2.724309144693388973e-02,-2.829005748644673746e-02,-1.912640760820838470e-04,-3.059184241552321713e-04,-1.272226333348126445e-03,2.978011965751647949e-01
2.667983056292388966e-01,-2.468521753165565935e-02,-2.574407213733365118e-02,5.420768474799680979e-04,2.642493884763583243e-04,-7.291920751776997120e-04,2.920189797878265381e-01
3.890719484141685336e-01,-6.326999986253753483e-02,3.532332087622935823e-03,2.423640610297575493e-02,2.902371973807151700e-02,7.479334097614897744e-03,4.281535446643829346e-01
2.714510688705551456e-01,-3.145054582496097095e-02,-2.274561665647846509e-02,1.774111121342734562e-03,-4.554729966872288351e-05,-2.186699285804945530e-03,2.986841499805450439e-01
2.684245329321689466e-01,-2.564669296912272523e-02,-2.829160352913265286e-02,-1.108237271047548156e-04,-3.204447876210468572e-04,-1.197669412699590595e-03,2.954104244709014893e-01
2.686524099761988804e-01,-2.492891871755821553e-02,-2.991968614958043227e-02,-1.296823389577977633e-03,-3.760504995964418051e-04,-7.714816844456024846e-04,2.961204946041107178e-01
2.508849152264296389e-01,-1.762010187858382981e-02,-3.118502449022514389e-02,-1.590653803274358412e-04,-2.037184184175560046e-04,2.946784448827555886e-03,2.755856513977050781e-01
2.685469552463297660e-01,-2.460583440760190366e-02,-2.930501252237849297e-02,-1.913098756780176677e-04,-9.741862149473059802e-04,-1.495716907955900368e-03,2.955467700958251953e-01
2.823849460424829871e-01,-3.409933761331523927e-02,-2.309770300914147645e-02,-1.604282179179719083e-03,2.982993497583945330e-02,-8.643002599979424105e-03,3.157574832439422607e-01
2.762096431130166563e-01,-2.384937417784904756e-02,-2.469130430303748125e-02,-1.741789095118960982e-03,9.215295364773115009e-04,-1.448392083495565882e-03,3.005107343196868896e-01
2.647550686326093916e-01,-2.521771671461264797e-02,-3.425926888834372741e-02,1.694940195523798182e-02,4.844485773646394627e-02,-1.004252029462726625e-02,3.082091510295867920e-01
2.763474555559297663e-01,-2.955213500704959029e-02,-1.746754684234248789e-02,1.191543762661404458e-02,2.642929800828438744e-02,3.734306893689105962e-03,3.042814731597900391e-01
2.611193726963915163e-01,-2.089192623218853739e-02,-3.112069202522363409e-02,-4.293757657502804415e-03,1.571642782042938702e-03,2.148692045578429709e-03,2.873955368995666504e-01
2.610247118258499643e-01,-2.304908744027424350e-02,-2.168759948063596343e-02,5.460731029113456789e-04,8.156333015002818418e-03,-3.033788472763053576e-04,2.837494611740112305e-01
2.724535371498688630e-01,-2.328167387914274744e-02,-3.197195040350830908e-02,3.289838318587342170e-04,5.884272134948441597e-03,1.252416435233093608e-03,3.003560602664947510e-01
2.591525194808455557e-01,-2.255106644026276530e-02,-2.908793510010053429e-02,-2.612827655035387768e-03,4.813097298875489150e-03,6.335083924499853442e-03,2.853970527648925781e-01
2.592262801445782694e-01,-3.165194474701726879e-02,-2.013478036998130050e-02,-1.092011212093535596e-03,-1.852632725362424800e-04,-1.870003606022052709e-03,2.853188812732696533e-01
2.840004856749803741e-01,-2.204746180181965665e-02,-3.279364530472325678e-02,-8.386529076068871894e-03,1.040777386851928291e-02,1.755046532148910347e-03,3.124338090419769287e-01
2.760873055418266442e-01,-2.637319388622082206e-02,-2.675806504892377924e-02,-4.657184718751675775e-04,3.040523494723913690e-04,-2.165538156723365460e-03,3.026778995990753174e-01
2.775822299306070495e-01,-2.698344392264211133e-02,-2.676026492429110781e-02,3.335364771464745660e-04,6.064519724072319233e-04,-2.108095380829882320e-03,3.044784069061279297e-01
2.739118123396645510e-01,-2.520255168064525209e-02,-2.696195218868976951e-02,8.444463737355419703e-04,1.111832088706788757e-03,-2.728053527556166969e-03,3.000448942184448242e-01
2.750535734378565245e-01,-2.549760572377872403e-02,-2.635598097165281484e-02,-1.840266672369617572e-03,-1.163405542541416909e-03,-2.727803003306401592e-03,3.010419905185699463e-01
1.390007434261684161e-01,1.031236922321584343e-02,-1.315057382896957228e-02,-7.146586268919873086e-02,-9.148391714472006372e-03,1.681954791637321409e-02,1.911870688199996948e-01
1.576920132292916610e-01,-1.129891458235549040e-02,-6.782674991186288249e-03,-3.843665754107088856e-02,-2.075655488510211311e-02,-2.725484800344600295e-03,1.831994652748107910e-01
1.790271853025796611e-01,-1.515891690561478600e-02,-8.314353364773416355e-03,-3.319741066704293142e-02,-7.279045729707904824e-03,1.458855451024851802e-04,1.997278034687042236e-01
1.119821501386697588e-01,-1.596760692157313255e-03,-1.589698803132367361e-02,-5.178945952194235341e-02,-1.280056290287930922e-02,-7.165009816114013136e-03,1.530388444662094116e-01
1.112042302295410262e-01,-1.807715089073957948e-03,-2.637425627211091583e-02,-2.915343962893992419e-02,6.017626967038765783e-03,-1.507805225472333768e-02,1.396136581897735596e-01
1.364333908709509657e-01,-6.964656904330318588e-03,-5.368626508446473766e-03,-5.858531292941830670e-02,-8.974582584884573111e-03,4.224075657815246597e-03,1.758651584386825562e-01
2.781624858359456054e-01,-2.476416391632509095e-02,-2.731950593580895204e-02,3.770877700174273331e-04,-1.329145923146270690e-04,-7.697764000393287134e-04,3.042160868644714355e-01
2.693131158367656486e-01,-1.988604800038205889e-02,-2.583082165732328295e-02,2.926209931784878784e-03,-4.630658366514432689e-03,-2.184677035300263846e-04,2.923711240291595459e-01
2.785656900518423962e-01,-1.104069777951831310e-02,-2.986665506010581506e-02,2.156001711621957813e-03,-1.162261280511202310e-03,5.088547356628061839e-03,2.996232211589813232e-01
2.712161297698483242e-01,1.777761884510647983e-04,-2.689816220538236713e-02,5.811408898781820348e-03,4.408225108309637291e-03,9.077106497836761115e-03,2.862521708011627197e-01
2.807328525457021828e-01,-3.532925202708689372e-03,-2.857695143746816213e-02,-6.690580068464436168e-03,2.348073179339073540e-03,-3.899532770437711283e-03,2.979091107845306396e-01
2.780748370042780415e-01,-2.210119998158543986e-02,-2.623081973218431562e-02,2.481518890495341620e-02,7.556497967527983639e-03,-1.175827351885847232e-03,3.055898547172546387e-01
2.657295712730913251e-01,-1.492830370934561390e-02,-2.822110632389726592e-02,2.901764297763895911e-02,-1.178694775306775300e-02,8.653569785662559161e-03,2.929911017417907715e-01
2.593229062695678322e-01,-2.389542246951979754e-02,-2.220974923281159030e-02,1.116849451585922443e-02,-6.399492264112662627e-04,1.358930987249313280e-04,2.830433547496795654e-01
2.806654065720407543e-01,-1.700699751071391153e-02,-2.838784858863838134e-02,2.822478386607410461e-02,6.277772275795336261e-03,2.816149244061698365e-03,3.076655566692352295e-01
2.901803682427105402e-01,-1.968058814496634334e-02,-3.612219772770450255e-02,1.897369065003236960e-02,3.497597958579950518e-03,6.955165160662371343e-04,3.201513886451721191e-01
2.716225383309285313e-01,1.136791867810113543e-03,-2.885141732347795696e-02,5.206741258606302145e-03,5.821443892841150769e-03,6.029022143058805454e-03,2.871676385402679443e-01
1.929732811856466057e-01,-1.790223898686969795e-02,-1.612783504030851356e-02,-1.292078258193881703e-02,-2.984108188426745634e-02,-5.943947783853859197e-03,2.176597267389297485e-01
2.270654940704249225e-01,-1.209460192894873387e-02,-2.699581098331828299e-02,-1.673128248096778328e-04,-4.844359111253568762e-04,-3.685059906995458850e-03,2.470321804285049438e-01
2.590852167980026710e-01,-1.683468513329151872e-02,-3.629676233086959192e-02,7.637824883620003211e-04,-2.265303243692015113e-03,-9.244950862371513218e-04,2.861821949481964111e-01
2.126745908018074782e-01,-1.085082728164352139e-02,-2.330105399615825523e-02,-4.833587390610938860e-03,-1.676484230652322202e-02,-8.971517662554196870e-04,2.319854497909545898e-01
2.090414133866100865e-01,-2.102352213566342776e-02,-2.788145728904381504e-02,-6.996106999869135604e-03,-4.757296028956887329e-02,-5.918587537002391666e-03,2.481857389211654663e-01
1.882228551165258390e-01,-8.292588207807913281e-03,-1.995004774214563514e-02,-2.122042057760076608e-02,-1.987007404218752576e-02,-5.391463277910011828e-03,2.089681029319763184e-01
2.006847501717419491e-01,-5.328961859402714385e-02,-6.709855179986637386e-04,-1.290162302908495675e-03,-5.414616666074210244e-02,8.815786853499950337e-03,2.508814334869384766e-01
2.735764787906596052e-01,-2.668240317582741550e-02,-1.840642446354801010e-02,1.940311962764428196e-03,1.263743784877840786e-03,-4.684441601232634334e-04,2.962358891963958740e-01
2.677163495584984898e-01,-2.390253892895867482e-02,-2.223015214362564218e-02,-2.366601788435310390e-03,-1.623068227704329430e-02,1.573582991670351757e-03,2.921835184097290039e-01
2.534902455030662027e-01,-1.876848159528916871e-02,-3.286757672927524687e-02,-2.802369302095574551e-03,-8.803069651166065684e-03,-4.586215418246343198e-03,2.801452279090881348e-01
2.460771128526964835e-01,-1.784120941694657125e-02,-2.807961962359646624e-02,-3.309034514794248222e-03,-1.320678687909966967e-02,-6.018989932050976092e-03,2.704156041145324707e-01
3.237767604668750354e-01,-2.240997026869318010e-02,-1.012068412111974403e-02,2.092041249587077781e-03,-1.737399521562591007e-03,2.452791381955637950e-02,3.428832590579986572e-01
2.732465741727418407e-01,-2.245536844900393458e-02,-1.964664623807270416e-02,-8.562956699542672743e-04,2.535627534902400518e-03,5.489991804518575512e-03,2.944976985454559326e-01
2.714126076637117801e-01,-2.835871289515659588e-02,4.883479667193504903e-03,1.258045771831827571e-03,-1.421166879149136919e-02,1.081783246222938442e-02,2.862945497035980225e-01
2.724844357660397565e-01,-2.344469259804539407e-02,-1.572537440241134066e-03,-1.568701400443298132e-03,-8.379883178816319471e-04,1.042481814607869664e-02,2.862085700035095215e-01
2.554960737973843155e-01,-1.562932058678054292e-02,-3.711672983185343444e-02,3.250861962307044397e-05,1.312982054132306575e-04,-3.586480482990833055e-04,2.824834585189819336e-01
3.310035412937836208e-01,-3.144828970286350778e-02,3.962894274074715839e-03,5.979950342500279376e-03,8.141383555794391713e-03,2.102550992332879315e-02,3.484577238559722900e-01
2.991805096858163870e-01,-3.170839069260705800e-02,3.418414535423311418e-03,-2.229214727988668241e-03,-1.260463921829999175e-02,1.858155660984529486e-02,3.172154724597930908e-01
2.373959825026167036e-01,-2.059445499937102853e-02,-8.572598504683545673e-03,-1.219638032843064525e-02,-1.797969780488179597e-02,5.411597139930291941e-03,2.551587522029876709e-01
2.495160634737014771e-01,-1.885848617428988183e-02,-2.042886225444406900e-02,-1.628012406492877068e-02,-1.879735511284287564e-02,1.415483069675276852e-02,2.736878395080566406e-01
2.706231683184471271e-01,-2.569234632680836294e-02,-2.596187947804930174e-02,-1.483733362098662439e-02,-9.169419922834700851e-03,-2.493957115959337823e-04,2.979860603809356689e-01
2.228986820471338948e-01,-2.085950601836664142e-02,-1.921642465326421634e-02,-3.195965062483653585e-02,-2.489390693336423696e-02,-3.271282774630276079e-03,2.529342174530029297e-01
2.452819276193757003e-01,-1.702774296564583956e-02,-2.111293401915156909e-02,-2.051898697969847113e-02,-1.508563906105439903e-02,1.547224315509513736e-03,2.680440843105316162e-01
2.633450746418647404e-01,-2.082837523735840690e-02,-2.920167743187337961e-02,-3.626254924238172628e-04,-1.309194833336468043e-03,-1.503005883409409284e-04,2.884609699249267578e-01
2.367868238371740042e-01,-2.400042362065779589e-02,-1.983642743308201839e-02,-2.580390919290847379e-02,-4.538548146252562032e-02,-2.875400066837902578e-03,2.741227149963378906e-01
2.316085816317301482e-01,-1.538636104837855234e-02,-2.791092041691346781e-02,-1.018192399706977468e-02,-1.704653829704806320e-02,-5.154566619300002088e-03,2.559674680233001709e-01
2.449868729979615412e-01,-1.378087995465741844e-02,-3.246711022679009406e-02,-1.223428970762731847e-04,-6.356683943140442605e-03,-2.105885356822355999e-03,2.688491940498352051e-01
3.114593336734017837e-01,-4.214823164945857847e-02,1.407914717428876417e-03,1.058173895334536645e-02,1.180454115543580398e-03,-7.609376242900605172e-03,3.347349166870117188e-01
3.096086056408582921e-01,-3.871746907788856107e-02,9.932912679293678937e-03,1.574145314626804746e-03,-1.406362586740174392e-02,3.693106635663210690e-03,3.277093470096588135e-01
3.060498590987055789e-01,-4.476904492504629740e-02,1.840877739143176317e-02,-1.036391059097936185e-04,-3.154970040857036501e-02,2.094961972806854214e-02,3.304606080055236816e-01
3.390410978250528173e-01,-6.878837812753926806e-02,1.447759195881324901e-02,1.601713297525682311e-02,-2.737509092585181658e-02,1.124097856302141811e-02,3.777521550655364990e-01
3.015006294109380813e-01,-3.822554173306524916e-02,5.915067639040108571e-03,8.534862805763554234e-04,-1.954440364290049945e-03,3.597080545589189608e-03,3.200297057628631592e-01
2.589380431234876156e-01,-2.932871757424405923e-02,-1.852524519013561133e-02,-6.837811572481852784e-03,8.724815218059084158e-04,4.919121679150728101e-03,2.833995521068572998e-01
2.136791880102918428e-01,-2.776700683377122947e-02,-7.987621147934276244e-03,-2.867523181575333535e-02,5.874073632246126601e-03,2.018093751653540291e-04,2.376600056886672974e-01
1.415331921969710804e-01,-4.907269631364535867e-03,-3.834218446467835273e-03,-1.613473517697412707e-02,-1.161403176402956913e-02,-1.361041453764658560e-03,1.499333977699279785e-01
2.149915614868009306e-01,-2.393064669058987681e-02,-1.002714329407530802e-02,-6.110236224261746119e-02,1.916304958902767270e-03,-3.182537891142808023e-03,2.553373575210571289e-01
2.446647858313127644e-01,-2.218438166704780889e-02,-1.630305134050832883e-02,-1.758339484078045092e-02,2.039554616130045701e-03,-2.369751953558033524e-05,2.657322883605957031e-01
2.395872983538449019e-01,-2.681025046534425693e-02,-1.734310215264008026e-02,-1.037858506484534357e-02,5.410154679442297047e-03,4.186366727297535090e-03,2.626762092113494873e-01
3.063745361352304131e-01,-1.945087409330900630e-02,-2.052420554000386477e-02,2.372826754955948206e-02,-1.202524447661367782e-03,-1.043511946802495177e-02,3.294437229633331299e-01
2.480914774177648829e-01,-3.329703933603422872e-02,-1.561396521884704514e-02,-7.151955349480076593e-03,9.248528212735030764e-04,-1.126716694469998914e-03,2.732694745063781738e-01
2.805193186065766398e-01,7.813131448316773531e-03,-3.091207775212551079e-02,-8.162943783572125999e-04,1.501122325559072672e-03,2.773251962099323401e-03,2.940420806407928467e-01
3.087977150968538864e-01,-4.056061627012164106e-04,-3.492342233492737313e-02,3.082722243133806904e-03,-1.276887839392115481e-03,7.909236789213180963e-03,3.281649947166442871e-01
2.714989598204167187e-01,-1.645676628611546233e-02,-1.518065471221299867e-02,-1.770060066202367322e-03,-1.903037142858179497e-03,5.959497273078782258e-04,2.873569130897521973e-01
2.881223165422885923e-01,1.163665433786265080e-03,-3.734072260637535945e-02,1.476398456656493078e-03,7.796029227648736126e-03,8.304939960772294086e-03,3.086629509925842285e-01
2.493086242160225119e-01,-1.883285171617292419e-02,-2.708378755733839571e-02,2.639081823529158127e-02,2.153532582254038055e-02,-7.509959441867539165e-03,2.789807915687561035e-01
3.270687277668665738e-01,-9.679919437059564258e-03,-6.514342373857534563e-03,2.612281382305728719e-02,3.131098410656454889e-02,3.616067515909609370e-02,3.482165932655334473e-01
2.777883526987584561e-01,-6.784238950933108026e-03,-2.381689614634743823e-02,1.144063604165688900e-03,-6.471041738402379031e-04,8.421527451937554920e-03,2.938309907913208008e-01
2.775160084047578746e-01,-7.726971952794481346e-04,-2.328828934927336392e-02,-3.680265209783347216e-03,-1.382857179867609228e-03,1.332251844703592931e-02,2.911979258060455322e-01
2.520032335740579610e-01,-1.857809826512880902e-02,-3.244888860157797705e-02,-1.614266041855304864e-03,-5.041033018748307046e-03,-1.572971277107685587e-03,2.779411971569061279e-01
2.801783254334450080e-01,1.907516959710403581e-02,-3.205977039695065423e-02,-3.267877344101600273e-03,6.144522657247678508e-04,1.592313452511540453e-02,2.914359867572784424e-01
2.647296113252494143e-01,-2.127603038159714410e-02,-3.050603355769461456e-02,1.465374423215535127e-04,-4.816220380931217522e-03,-2.708479559776935056e-03,2.908881306648254395e-01
2.842030397052169866e-01,2.402799847219722063e-03,-2.587098898448522699e-02,-1.357693785236807529e-03,-1.353253888511648595e-03,1.418420096373483076e-02,2.979814410209655762e-01
2.776230423318774010e-01,-3.577607280277761426e-02,1.694259409283846440e-02,-5.513186391138640951e-06,-6.460169009437390954e-03,9.699427874031101016e-03,2.913480997085571289e-01
2.809839281283517121e-01,-3.618995362304175401e-02,3.297060252663949753e-03,3.935545900165756967e-04,2.782613917515811778e-03,3.811996560112684319e-03,2.995021343231201172e-01
2.790588665643349842e-01,-4.348417344200111723e-02,7.334957849642803618e-03,1.545873084594748606e-02,-1.741431942056160739e-02,1.230063702520060517e-02,3.038187623023986816e-01
3.024571383039447170e-01,-4.324139846255989350e-02,-6.188062868820745632e-03,9.006016514453381305e-03,-2.284544352414647622e-02,6.848632686602205977e-03,3.316940069198608398e-01
3.186450661544886209e-01,-4.699474172328291233e-02,1.417335050866934398e-02,5.665781296269539226e-03,-1.719588417094738628e-02,1.686559644879607328e-02,3.419141173362731934e-01
2.936836706603158653e-01,-3.937713914944879212e-02,1.423069432809766222e-02,7.614826806832186235e-04,-3.540376346029709687e-03,3.965771399562203949e-04,3.098200261592864990e-01
1.340693394489528845e-01,-3.864920434915079805e-02,-2.099103047137421130e-02,-2.218010768651304185e-02,-2.815750441684177624e-02,8.264008405225667028e-03,1.765018403530120850e-01
2.991491694451547945e-01,-5.092627528210907917e-02,2.351449524644164124e-02,6.122470289693137183e-03,5.846120350706095030e-03,5.194475608793425875e-03,3.198910653591156006e-01
2.684772464338180398e-01,-2.444534439558669614e-02,-2.295065549603073074e-02,-7.511893841995822413e-03,-3.904457433064512269e-03,-1.957193209406057031e-03,2.925654947757720947e-01
2.634544654917894135e-01,-1.877853440153515185e-02,-3.617861326192278737e-02,8.266558040264356325e-04,-1.677676093779679675e-03,1.487705160309027311e-03,2.913524210453033447e-01
2.850635348948404868e-01,-2.864177449094292005e-02,-1.743200489035087730e-02,3.451604855488138272e-03,-1.095934464974409120e-02,2.091499386191160350e-03,3.089163303375244141e-01
2.361452596514569124e-01,-2.211342737264779257e-02,-2.120671271395696555e-02,-8.572353930740088737e-03,-1.662942345122271279e-02,-1.691513364562614429e-03,2.598516047000885010e-01
2.462459826635209625e-01,-1.691562956472184021e-02,-1.731204623853090097e-02,-2.366252938869346095e-02,-1.778795031437865534e-02,8.079037490607057434e-03,2.686695158481597900e-01
2.897278687195471436e-01,-2.345582173797054748e-02,-1.317478438323435586e-02,-2.508131583639884934e-02,-3.334201351379287998e-02,1.516556327865896739e-02,3.176195025444030762e-01
1.691579018196154305e-01,-1.489243312906417260e-02,-1.110335547715936289e-02,-4.680232739299082338e-03,-1.762812068124357950e-02,4.993980041931768248e-03,1.851061433553695679e-01
2.468183548900720337e-01,-2.187856463579844479e-02,-1.905362356072558272e-02,-6.885319480621068106e-03,-1.289565743446651445e-02,1.075206522136673299e-03,2.684986889362335205e-01
2.541722123722297000e-01,-2.084257043759057959e-02,-2.261832895841946189e-02,-4.280244817306631117e-03,-7.306029257963054038e-03,7.084022968109111472e-05,2.762964963912963867e-01
2.319733845045002241e-01,-1.061690864012782010e-02,-2.932582404069331017e-02,-6.687309779652103950e-03,-2.636173929699119761e-02,-5.935450212585683749e-04,2.568242847919464111e-01
2.839655660380906443e-01,1.136562465601384520e-02,-4.276352832563043438e-02,-3.316130865066121633e-03,-6.253424385655925212e-03,4.693216877420531251e-03,3.036653995513916016e-01
2.845210660508817879e-01,7.027975201322755883e-03,-2.589009692127233753e-02,-1.301751490291022705e-03,-1.053961987787867521e-03,1.752390448323374109e-02,2.969010472297668457e-01
3.001677360886947366e-01,-7.300656096104862769e-03,-4.445173620628389832e-02,-6.528704617923748385e-03,6.613050886311411941e-03,7.581593882752066943e-03,3.282853960990905762e-01
2.318130524471208043e-01,-1.674468226974452911e-02,-2.553818710710287210e-02,-3.571814678708266216e-03,-1.136410877043071872e-02,-6.882063374081007386e-03,2.541884183883666992e-01
3.099724049234841572e-01,-4.454468572892211764e-02,8.966452367583088723e-04,-2.983464365229179707e-04,-1.257348713392946425e-02,3.544956301085781455e-03,3.348877429962158203e-01
2.693138371274972909e-01,-2.695833502790992431e-02,-1.112945064135151263e-02,2.751177543176448314e-03,1.607207575797766708e-03,-1.272759183760512492e-03,2.887445390224456787e-01
2.948096567911502319e-01,2.052710867351170698e-02,-3.828754211289386866e-02,1.159437091827073864e-02,5.585763835174754541e-03,2.574969174342466721e-02,3.119422197341918945e-01
2.911024096186178856e-01,9.702346171585357615e-03,-4.062772402246150882e-02,1.118717944532459513e-02,7.178177087659432659e-03,5.526342879519178033e-03,3.106503784656524658e-01
3.016899593048056882e-01,1.079858023996387029e-02,-4.229440128530614906e-02,4.483910332064359322e-03,6.109042292399102618e-03,7.787673780282743097e-03,3.213022947311401367e-01
2.810150977424962226e-01,1.100582761956837852e-02,-3.065729396381100536e-02,-2.608174964098665914e-03,-1.366953589494742478e-03,6.250400606582699574e-03,2.933146059513092041e-01
3.103009222108781273e-01,1.974313148380223149e-02,-4.705098008891503425e-02,4.746375178827248742e-03,1.992708871356210429e-03,1.137328461383778529e-02,3.297883868217468262e-01
2.753229494946491940e-01,-2.357437779169635483e-02,1.875776483667102035e-03,2.435919856500765236e-05,-5.810309357411959667e-04,5.594386342400533944e-03,2.871850430965423584e-01
2.536042848883067746e-01,-2.428640721006247727e-02,-2.390279004161709187e-02,7.804801910932730388e-03,-2.305080369607344446e-03,-2.297498645208962461e-03,2.780850529670715332e-01
2.506457354086386591e-01,-2.693641267183530252e-02,-2.186584989570404536e-02,1.240663472312436739e-02,-8.927552625823700211e-03,6.132829965400243485e-03,2.765569984912872314e-01
2.732784407784781822e-01,-2.611125642732463337e-02,-2.614034220243788287e-02,2.591017408602174811e-03,8.325567368364660307e-05,2.623024656197783886e-03,2.994723618030548096e-01
2.132794219399901658e-01,-1.342630240423259291e-02,-2.069180524258329434e-02,2.367598051675547446e-02,-1.361263403291299544e-02,5.981790978529331199e-03,2.354576736688613892e-01
2.653307070241875953e-01,-2.646180534783014460e-02,-2.577551267142555447e-02,2.322211115695361084e-03,-7.459110634715710245e-04,1.995951940702226767e-03,2.915010750293731689e-01
2.600240378913146744e-01,-2.493882574255809614e-02,-2.514910977847840956e-02,5.664140986785029357e-03,-2.145039664454251229e-03,3.049797277757076378e-03,2.853099405765533447e-01
2.666096703038628446e-01,-2.246106168300361638e-02,-2.588207533712282016e-02,5.756682153544028131e-03,-1.368564328773888604e-03,1.667409095561952354e-03,2.909912168979644775e-01
2.619562123974152335e-01,-2.725882073082061541e-02,-2.379206382257352537e-02,3.318747612603612732e-03,-5.404408668967244748e-03,4.270509013415640584e-03,2.878021895885467529e-01
1.972629211505615987e-01,-1.687603402400739139e-02,-1.437808442488421046e-02,1.618239842148736646e-02,-2.271485386509227919e-02,7.931769331326628649e-04,2.183167785406112671e-01
2.646163815269982900e-01,-3.404285343339112646e-02,-1.948755835853142881e-02,7.766444180338538976e-04,3.528098033501212241e-04,8.570185212867695822e-04,2.916616201400756836e-01
2.654314135507818140e-01,-2.810195720192756874e-02,-2.364789386003383898e-02,2.017933029124378656e-03,2.145389179245808599e-05,2.170514357344145717e-03,2.913770973682403564e-01
2.690561105432474065e-01,-3.028061121646409559e-02,-2.202150332898798746e-02,5.704202223782247304e-03,2.469306603952519177e-03,3.431044775086049877e-03,2.955497503280639648e-01
2.593367836159207185e-01,-2.321582392247274751e-02,-2.870706689193862349e-02,-8.450638396940430945e-04,-2.038353773749206326e-03,4.034206168568166620e-03,2.854489982128143311e-01
2.692964862528956504e-01,-1.177039823442137256e-02,-1.313018128417001162e-02,-3.281153718537920195e-05,-1.105770173740482348e-03,6.227900355444658271e-04,2.817578315734863281e-01
2.136861979083688190e-01,-1.692295899218843047e-02,-2.019553433161076772e-02,2.149568206680812013e-02,-1.533173690907682282e-02,4.737491033109598321e-03,2.368642836809158325e-01
2.585230627722875374e-01,-2.832139250267912134e-02,-2.234065754177892715e-02,5.515953777416661950e-03,-9.294009399463030140e-04,4.322831949646430139e-03,2.841652631759643555e-01
2.095118603204737806e-01,-1.662918480501909824e-02,-2.405160081070556455e-02,8.619555688143770364e-03,-3.640834542197276397e-02,-2.902314915938739807e-03,2.389523833990097046e-01
2.250030424998556156e-01,-1.633466757374235634e-02,-2.247813118995366233e-02,2.657012220815260090e-02,-2.791765620474871701e-02,2.301879729734254525e-03,2.534487545490264893e-01
2.392038856539534242e-01,-2.382902796908410725e-02,-1.469718184434454233e-02,9.759107959130985943e-03,-2.329390636866379271e-03,7.162328112998186253e-03,2.594679594039916992e-01
2.174667965267303715e-01,-1.418644919977239682e-02,-2.100575474327551206e-02,9.739503600090116536e-03,-1.198734092827301659e-02,6.318544054617386725e-03,2.369069010019302368e-01
1.500520962165851346e-01,-4.478533607236004355e-03,-6.724935421997348117e-03,1.701542847038954240e-02,-1.667839831321623820e-02,5.023459372811186737e-04,1.610457599163055420e-01
1.937105997158282966e-01,-2.095881730077371607e-02,-1.401679047702454606e-02,2.250163056707379580e-02,-2.158449337919375946e-02,-1.154222241976889151e-03,2.180860936641693115e-01
1.799570124793819781e-01,-1.157719247640882909e-02,-1.269414268004609436e-02,3.657345156870378533e-02,-2.387550760331265051e-02,7.547887457054999402e-03,2.068681120872497559e-01
2.133230203923009438e-01,-1.428001540898647670e-02,-2.077034431643150214e-02,-9.414812131269547149e-03,-3.878238964954241336e-02,-1.135368299670785029e-03,2.410487234592437744e-01
2.124073479893635596e-01,-1.400991539953126697e-02,-1.856034602215743401e-02,1.364789520560812444e-02,-2.366945538611375799e-02,5.971779225660403534e-03,2.337996810674667358e-01
1.871077792630118919e-01,-8.811994239738177304e-03,-1.678995990206935685e-02,2.667054513321869338e-02,-2.521498738153971075e-02,5.189783089265937420e-03,2.100794762372970581e-01
3.104777651197374033e-01,-3.746147054524792686e-02,5.985212543065346336e-03,4.305481682402689109e-02,2.931360650487786768e-02,2.541384357947303052e-02,3.433789908885955811e-01
3.124851504323712947e-01,-2.740542755173400180e-02,-8.767320664060329616e-03,9.933071819580845813e-03,4.567806269357201077e-02,2.685027667892499886e-02,3.438841998577117920e-01
2.774882640810762968e-01,-3.151812885121491048e-02,-3.724912122733542441e-03,-5.349053691649617451e-04,-4.301204406491147478e-03,1.826466379427449859e-03,2.962017953395843506e-01
3.896441569173003661e-01,-2.799803591445906847e-02,-5.477093361158924534e-03,-7.675139787886510467e-03,-7.552351790316136002e-03,2.702619521774027311e-02,4.099580347537994385e-01
4.260886471310810775e-01,-3.738945038274277266e-02,-6.363852919811452402e-03,2.103560505890951504e-02,3.261104542822837807e-03,2.450180861680999883e-02,4.522778689861297607e-01
2.846362194922945066e-01,-3.241411797076468315e-02,-1.342345460926018530e-02,3.421859224159437725e-03,1.647553889590805398e-02,1.300881675502687249e-03,3.093785643577575684e-01
3.993821131083816200e-01,-2.804956211326456450e-02,-2.184544963301979226e-02,-1.050731600170369540e-02,3.621422405320095204e-03,2.937369136870740874e-02,4.278358221054077148e-01
4.636366244715828255e-01,-2.902169701129983514e-02,-2.205902996772529656e-02,-3.027324429418046248e-02,2.132071536716001123e-02,2.896597629806220431e-02,4.959442317485809326e-01
2.613370982328403480e-01,-2.355001273584364507e-02,-2.990773723521344962e-02,-2.143168773286275707e-03,-3.772923064940226015e-03,-4.989690097792717251e-03,2.883461415767669678e-01
2.653499281313991265e-01,-2.817702197482566118e-02,-2.510123394386991336e-02,3.131922040896257528e-05,-2.945953856662695929e-03,-4.832648263327071238e-03,2.921657264232635498e-01
2.701708075804850617e-01,-2.115492022850398723e-02,-2.548945464747612299e-03,3.571940947377646829e-03,2.972261228607877333e-03,2.949179642531240576e-03,2.826434671878814697e-01
2.489639032107021643e-01,-9.965843369038593358e-03,-1.809143837907169206e-02,-2.144241220898823047e-02,-1.285424088149839626e-02,9.981600249315575324e-03,2.671863138675689697e-01
2.557048765996119410e-01,-2.568328614887474548e-02,-2.412005024580519963e-02,-6.561035657800848298e-03,-6.572399312553945001e-03,-4.557073244080372260e-03,2.811812460422515869e-01
2.581384134932932506e-01,-2.110262510702692884e-02,-2.855185298790741122e-02,-2.363041376176970836e-03,-3.113305493153160040e-03,-2.969144300372784321e-03,2.831668257713317871e-01
1.668147768005336651e-01,-1.040456601654259072e-02,-3.402998136382245908e-02,-4.593552374436898900e-02,-8.928909455815058072e-03,1.646760681994036482e-02,2.086496502161026001e-01
2.446433669596731475e-01,-1.497223465734855152e-02,-2.591946355528763901e-02,6.011712295861322206e-03,-1.157383510340916598e-02,7.440409598945852375e-03,2.665305435657501221e-01
2.626466150494189966e-01,-2.217817932117695234e-02,-3.007198217507787985e-02,-1.510780347290798745e-03,-2.746415931652851534e-03,-4.165155700468752692e-03,2.889936864376068115e-01
2.647927241720319236e-01,-2.124905960790930692e-02,-2.304521220179674146e-02,-2.927261410758165427e-02,3.846790088833831889e-02,-6.347664738702075461e-05,2.989095449447631836e-01
2.328136907518251475e-01,-2.523897395690323509e-02,-1.365994390507228873e-02,-1.662176321443605345e-02,3.858395830309660143e-03,6.307530170526763277e-03,2.544211447238922119e-01
2.009860034001703377e-01,-1.471250308538166185e-02,-1.250550164767084971e-02,-2.345327726910050037e-02,2.818223896837131898e-02,5.127566863052707494e-03,2.239786386489868164e-01
2.016126358600218715e-01,-1.609462665361049982e-02,-1.968802619660212083e-02,-2.534689323017050647e-02,2.577827341931173202e-02,5.123498070445653418e-04,2.282836288213729858e-01
1.696387963853788483e-01,-7.325565631274441603e-03,-1.180113751950198631e-02,-4.799325058443349584e-02,1.457766717800649744e-02,-1.776382448065864234e-02,2.015506774187088013e-01
2.013591415704152343e-01,-1.483346289392356576e-02,-1.578860587569011487e-02,-2.322851115231488323e-02,2.924845526912568661e-02,3.884935035261914867e-03,2.262234240770339966e-01
2.341698411358535126e-01,-2.351029804849737170e-02,-2.049868238440145929e-02,-1.004224958988426258e-02,-1.178508792701452555e-02,-6.535015713174645129e-03,2.578360140323638916e-01
2.315324237808090435e-01,-2.196750430446714475e-02,-2.113741025025234199e-02,-7.706915749059468912e-03,-1.005398220495344087e-02,-6.975107121567182024e-03,2.543223798274993896e-01
2.786254055621397163e-01,-2.810013726451114635e-02,-2.511019451571588901e-02,3.047121729026183029e-03,1.097646342769258501e-02,-2.010753858123534576e-03,3.058983981609344482e-01
2.522042527887461416e-01,-1.822582858997207067e-02,-3.157459440387319627e-02,5.507978089891512816e-03,-1.206954127793427416e-02,2.095673824664085003e-03,2.783194780349731445e-01
2.682690363415427548e-01,-2.407560984823883810e-02,-2.508388500890035289e-02,5.283972321337883013e-03,-9.371823622534563442e-03,1.409722827304533879e-03,2.934525310993194580e-01
2.639037805886044197e-01,-2.033064178682422729e-02,-3.297906643216959310e-02,1.465294935244621996e-03,-8.904281567207768602e-03,-6.493907634762389504e-04,2.911870181560516357e-01
2.686686608491574701e-01,-2.209936470083140314e-02,-2.527819647837303840e-02,6.128501355742238359e-03,-8.046303823484273268e-03,-1.158255934222158579e-03,2.929016649723052979e-01
2.644434663356924342e-01,-2.105142260021135303e-02,-2.922822985600087575e-02,3.639886835511410221e-03,-3.088990350680740748e-03,-8.728274537740898743e-04,2.897917926311492920e-01
2.505078234853170827e-01,-2.837999173900956906e-02,-2.022146479036775191e-02,8.257089896254916211e-03,1.503931231512374176e-03,-3.985953706596129893e-04,2.752843201160430908e-01
2.345978024848798804e-01,-2.036827617375717991e-02,-2.263955946680847042e-02,1.698156259766462131e-02,2.067888652587574969e-02,-6.546078965166513865e-03,2.605158090591430664e-01
2.602647323720248540e-01,-2.589291174130972650e-02,-2.196755448311631109e-02,5.539556534464256006e-03,-1.219892440880713429e-03,2.382080894498139366e-05,2.843850553035736084e-01
2.547883800417329314e-01,-1.601994783642483877e-02,-2.115869083474064549e-02,7.068075249661635168e-03,2.431472309213456116e-04,-1.043456601617750740e-03,2.736941576004028320e-01
2.704865630800978860e-01,-2.136100018112563337e-02,-2.797289967902417962e-02,2.420962617223475569e-02,8.229533876627439723e-03,2.916340671066407534e-04,2.985132038593292236e-01
2.719327154806814306e-01,-2.356926683895910202e-02,-2.242663927551524772e-02,9.177328408222422233e-04,2.285314074820489743e-03,-8.662256602028079854e-04,2.949669957160949707e-01
2.609515651913534851e-01,-1.969533679712388852e-02,-2.336831232698562133e-02,2.458463227989265976e-02,1.152429954240366365e-02,-2.697825206656755560e-03,2.864270508289337158e-01
2.581657107600330292e-01,-1.895553768274595152e-02,-3.290737040105465305e-02,3.611658993706940097e-04,4.605888237493017913e-04,-2.178246025966279042e-03,2.843808233737945557e-01
2.521337319659822107e-01,-3.133546221041386137e-02,-1.350614028612732997e-02,9.595777079492920705e-03,3.723613151500374495e-03,-2.826808044927155410e-03,2.756091654300689697e-01
3.063418028871336962e-01,-2.447110071776203988e-02,-1.142909553732360250e-02,-5.029858658102570601e-02,-6.734393205210946476e-02,4.097757475151433959e-02,3.626647889614105225e-01
2.296752632635907232e-01,-2.132742584186918255e-02,-1.241971325699610385e-02,2.298328977650370558e-02,5.736674058793041599e-04,2.193332449036343359e-03,2.498918771743774414e-01
2.393953556304000974e-01,-2.800471532677886732e-02,-1.663371293197701828e-02,7.840286191686036965e-03,-3.722953282333384302e-03,3.867009923395451493e-03,2.624163627624511719e-01
2.358952775207351638e-01,-2.780822923772237332e-02,-1.484811574420294433e-02,8.038113082657989336e-03,3.505375624326736821e-03,2.155559921580929659e-03,2.579428553581237793e-01
2.704112799907409936e-01,-2.295369710424458032e-02,-2.871383090492399259e-02,6.829349003578283686e-03,4.477654637608330900e-03,2.675395107607992946e-03,2.966606616973876953e-01
2.742988928341575372e-01,-2.400568878913983406e-02,-2.463353444915915291e-02,7.380920002889449980e-03,3.851299713278148219e-03,-2.842754324352820498e-03,2.990075051784515381e-01
2.686607690472491150e-01,-2.667280783360152785e-02,-2.518574144114084368e-02,8.499812497613824097e-03,-5.677897349731647614e-03,2.886458672210650157e-03,2.951667308807373047e-01
2.712163212498905907e-01,-2.309577071209584220e-02,-2.478416844494715776e-02,8.541221391513472566e-04,2.898832272630884072e-03,1.743387184050458302e-04,2.952064871788024902e-01
2.757248038544684587e-01,-2.485759643655337248e-02,-2.468390473000359187e-02,3.415949446032178795e-03,6.887371671456992209e-03,-2.517441867823807643e-03,3.008220791816711426e-01
2.777363757775298536e-01,-2.417266843271004273e-02,-7.133028268133084770e-03,-4.085931301718735177e-03,-6.280430697440592298e-03,4.430185857283367237e-03,2.941467165946960449e-01
2.944966149065258998e-01,-3.761729779857539424e-02,-6.024007407186116048e-03,1.971528420319806907e-03,3.200555167117051427e-03,1.986872177643894644e-04,3.175653219223022461e-01
2.763030935670884869e-01,-2.580159989502274487e-02,-2.715757468602933433e-02,-1.355295765378577641e-03,-2.551730474989903413e-04,-8.350664143793558921e-04,3.027978241443634033e-01
2.842532596576554105e-01,-3.619937757598373773e-02,-5.996283948932298880e-03,4.875923164831420971e-03,1.157039432013737094e-02,-6.485593752621639056e-03,3.074452579021453857e-01
2.943928031023512193e-01,-3.109804712963584739e-02,-2.221821535302331840e-02,-7.012724596635957347e-03,5.297177619564030424e-03,-5.691846083335577559e-03,3.216547071933746338e-01
2.725071950145760979e-01,-3.130930096546757913e-02,1.704015240517535446e-02,-4.116506776712660037e-04,2.447802401246931825e-02,1.068274077634043208e-03,2.859269678592681885e-01
2.880625382060635342e-01,-4.200314555344525358e-02,1.045375705863350879e-02,4.017170818369959935e-03,4.902004735568241687e-04,-9.172529038365143106e-03,3.077050447463989258e-01
3.101042082939551858e-01,-4.415099702878050314e-02,2.365740175894261166e-02,7.876618679525489858e-03,4.183994460841479468e-02,6.018310654765743166e-03,3.340954482555389404e-01
2.656522517986738552e-01,-2.520340056899685044e-02,-2.610692519725985039e-02,-2.721578934792599769e-02,-1.989726348546935406e-02,5.307601086485601999e-03,2.972455918788909912e-01
2.647947269926322900e-01,-1.819013237078377643e-02,-2.643833418046900863e-02,-9.681594136239956780e-03,-2.031043029773228065e-02,4.177352708342476316e-03,2.899201214313507080e-01
2.607381962876920145e-01,-2.199115664751920274e-02,-2.858765846457667070e-02,-1.672197569730583073e-03,-3.722875843431235933e-03,-1.878747203593051328e-03,2.861904799938201904e-01
2.801788542703773088e-01,-3.011840822559766484e-02,-4.521047565312921734e-03,2.073423479020409729e-03,-3.995714659477618384e-03,-3.555693064372607466e-03,2.984887659549713135e-01
2.666606035088467941e-01,-2.301350965415276117e-02,-2.655610219199257271e-02,-7.198493327613968596e-05,5.745397519851143647e-04,-2.972982283101384664e-04,2.914637327194213867e-01
2.616146854187841875e-01,-2.138238228875097291e-02,-2.855837401350626303e-02,-5.332565013769109815e-04,-3.288427003392666807e-03,-1.285049674283425883e-03,2.867191433906555176e-01
2.530386229303329682e-01,-1.925301132317300268e-02,-3.043210561367422351e-02,-2.282906893179663822e-03,-3.167079491705104312e-03,-2.152799296331448908e-03,2.781569957733154297e-01
2.481236442662448916e-01,-1.394160510512672257e-02,-3.482130718153486626e-02,-1.166942215197364074e-03,-2.585457044292922401e-03,-1.102575040110937094e-03,2.731552422046661377e-01
2.638601419839085027e-01,-1.972944954412939045e-02,-3.161993403628753085e-02,-1.208942506974795871e-03,-8.175512577281981996e-03,-3.249897231706622060e-03,2.901259064674377441e-01
2.552371308836779429e-01,-1.861091580972992765e-02,-3.016916418477622042e-02,-2.434053274267711665e-03,-1.761191972747755408e-02,-3.096385000795423299e-03,2.815468311309814453e-01
2.501877383792963094e-01,-2.476354810345918200e-02,-2.512532500376005173e-02,-1.031134107468108935e-02,-1.175634559266184806e-02,-4.820619006686407450e-03,2.765883803367614746e-01
2.617103269082493577e-01,-1.959202043954461070e-02,-3.038409630793262317e-02,-9.774923289579103350e-04,-3.273567999641244577e-03,-1.799121001453672349e-03,2.869286239147186279e-01
2.711258626407218597e-01,-2.148746532117844221e-02,-2.292879827295583872e-02,1.003883076774792589e-03,9.583305459019717063e-04,-7.022409823238931524e-04,2.933490276336669922e-01
2.626285575005062323e-01,-2.439658432006287792e-02,-2.579115867902276316e-02,-3.430432524868417578e-03,-7.627715154989616816e-03,-5.363189839613032722e-03,2.882391214370727539e-01
2.692714002597841327e-01,-2.163798151767823419e-02,-2.267399108900955418e-02,-5.178735948253407502e-03,1.074103828510561453e-03,1.761526202384557701e-03,2.915886640548706055e-01
2.597335348696659940e-01,-2.821371050822091275e-02,-2.320093410902443476e-02,-4.122369393737257068e-03,-3.820159068321544657e-03,-2.468869061438055436e-03,2.856718003749847412e-01
2.403175599668240792e-01,-1.538586386470691680e-02,-2.217453343556650969e-02,-2.607466492380695888e-02,-4.065816074490260362e-02,5.267101058418610822e-03,2.724855244159698486e-01
1.810854893183082570e-01,-4.130092737352812626e-03,-2.632949111022696298e-02,5.480508776959412687e-02,3.852104372270918897e-02,2.160678547120349624e-02,2.318884730339050293e-01
2.680425421186085067e-01,-2.365077627208365951e-02,-2.954598166712892049e-02,-1.282149868305383330e-03,-2.838877951569867240e-03,-3.260125966939158518e-03,2.947886288166046143e-01
3.527016177866478808e-01,-2.575640629369629897e-03,-3.427542914280853892e-02,3.949357945904663492e-02,1.242381190065087668e-02,2.536324330380215764e-02,3.815248012542724609e-01
2.610408313742731412e-01,-2.571811468982325433e-02,-2.497152510784163282e-02,2.629805503512161469e-02,-2.443342826206252108e-02,-1.209678366919838969e-03,2.930653393268585205e-01
2.333709334473429153e-01,-2.194583069655343943e-02,-2.175294294689349150e-02,-5.002361790681664547e-03,-3.835781814480539176e-02,3.621567413042536929e-05,2.638683021068572998e-01
2.528220868913274577e-01,-2.045707920800209079e-02,-2.719606285257490652e-02,-1.634966483038276762e-03,-1.450267493671997254e-02,-2.638804066306634465e-03,2.779000401496887207e-01
2.518674765214772293e-01,-1.652738338652975925e-02,-3.468030321835201268e-02,2.649695967241307969e-03,-4.647413544132593562e-03,-7.878904889116163449e-04,2.780740857124328613e-01
2.813400006624599548e-01,-3.023330600476964447e-03,-3.540331720122030790e-02,5.785850338977222528e-03,-1.807775171600838754e-03,4.431464906182450668e-03,3.021386861801147461e-01
2.356373440406749897e-01,-2.144299297828526629e-02,-2.304794244845731477e-02,-5.401125831968380149e-03,-6.167707448927925787e-03,-6.871121673505818823e-03,2.585512697696685791e-01
2.268354701778089455e-01,-1.624698194325412126e-02,-2.419546352159986091e-02,-1.311436754638998017e-02,-1.488505141860580611e-02,-7.764627136619133181e-03,2.498918026685714722e-01
2.595718637322200761e-01,-2.820588830950737647e-02,-1.968200831625399605e-02,4.591190601265593071e-03,3.329655166705113196e-03,-2.265005419562878420e-03,2.838090956211090088e-01
2.613095237609377453e-01,-3.178401704066462219e-02,-1.864625205070198632e-02,-5.772954241736420224e-03,1.924412243932817432e-03,-3.269587661454463699e-03,2.870000004768371582e-01
2.096889848173723592e-01,-2.160273417572412813e-02,-1.381504331587328493e-02,-1.465630654413333303e-02,-1.838903071249885571e-02,-6.096131875788651962e-03,2.313561290502548218e-01
2.537168070676893983e-01,-2.540347066129820808e-02,-2.060811751666813407e-02,-6.084681708329043627e-03,-6.613310370722149008e-03,-5.944597330947613313e-03,2.773822844028472900e-01
2.784960772684544894e-01,-1.388860347970530262e-02,-1.562628887887521079e-02,8.335014684871579552e-03,8.970995302012181594e-03,1.181103043127499849e-02,2.947342097759246826e-01
2.803683542330791534e-01,-1.745377591917335325e-02,-2.884887580326589429e-02,6.200132311547380468e-03,5.210313306021694367e-03,1.725023401627008351e-03,3.040185570716857910e-01
3.072732030454193852e-01,-2.509439232861593316e-02,-3.406326018003669187e-02,1.336647856632752589e-02,1.065366719596126319e-02,2.795730173465460922e-03,3.382743895053863525e-01
2.738421767974030807e-01,-2.566320183711617853e-02,-1.497433512779891562e-02,-5.155226896461982504e-03,-4.175842538632237692e-03,3.053627568935649191e-03,2.945782840251922607e-01
2.753238148300164445e-01,-1.399074616029487295e-02,-1.942859812123889918e-02,1.807343937356958429e-03,8.613995637153230075e-04,5.167057886408601107e-03,2.922291159629821777e-01
2.614553565119432932e-01,-2.234527877703863796e-02,-2.800992976563450310e-02,-3.120794340712966389e-04,-2.471144355247623190e-03,2.571822920023432088e-04,2.867077589035034180e-01
2.322603242173151283e-01,-1.597930934640406919e-02,-3.019499596546953990e-02,-5.078783600524914210e-04,-1.795290392167416330e-02,-5.206559689251521019e-04,2.575313746929168701e-01
2.687898436381042644e-01,-2.312204272798756843e-02,-2.528616151703141912e-02,-7.744922463697677915e-04,-7.899741517662324519e-03,3.904596543203746393e-04,2.933230996131896973e-01
2.667871313677659950e-01,-2.371757581352293420e-02,-1.883832600837061222e-02,1.503167326113699328e-03,-1.601118162033938249e-03,9.944895967886700078e-04,2.881263196468353271e-01
2.764728902949799005e-01,-2.980766914715052285e-02,-1.909056448025817088e-02,4.029973803802414448e-03,7.475535734399523999e-04,-4.299784184222788896e-04,3.011497259140014648e-01
2.517649391399614522e-01,-2.503132581086416064e-02,-7.367792455039268162e-03,2.365523862083261132e-03,-9.481048720632620150e-03,1.306070486455829498e-03,2.689433991909027100e-01
2.698885629470898495e-01,-1.465391411161152957e-02,-1.498506885595200788e-02,8.677435329327168670e-04,4.489471537858918948e-04,-6.423519167523978344e-04,2.847154140472412109e-01
2.561421165626790453e-01,-2.280061264706782775e-02,-2.393865539815646926e-02,-1.751383849691838610e-03,-8.694634509566239594e-03,3.974190436277469070e-04,2.799361646175384521e-01
2.821847405614624771e-01,-2.192537156030277545e-02,-9.061062833360652990e-03,5.558555581416710530e-03,1.961612856010833562e-03,8.936485019677286798e-03,2.984628975391387939e-01
2.695624051685359679e-01,-1.835776910934182327e-02,-1.696038843184699552e-02,4.405083517896768615e-04,-1.027161959967522751e-03,6.387995456458774469e-04,2.872326970100402832e-01
2.588339929824985952e-01,-1.976496893743402705e-02,-3.297935383736004533e-02,5.644771561611227392e-04,-5.483613144500140181e-04,-7.077417470428280007e-04,2.854415476322174072e-01
2.300539638327588621e-01,-2.004486107178549137e-02,-2.048731435403641776e-02,-1.230555604686380845e-02,-2.497902039585591857e-02,-5.474289694863144205e-05,2.549243271350860596e-01
2.741762754362233045e-01,-1.076592275216323169e-02,-6.143551425066576255e-03,-2.236867489298202238e-03,-2.524605306724574203e-03,1.322283469741888928e-02,2.836458683013916016e-01
3.191475298308088515e-01,-2.847899570159484472e-02,-2.992581899301030579e-03,9.276923127172954258e-05,-8.376998928269277500e-03,1.884057535292571126e-02,3.375047445297241211e-01
3.092946381432205571e-01,-1.344775938926526249e-02,-2.131851384160926566e-02,-2.044849299699559933e-02,-7.147895897918324359e-03,2.308770836466964710e-02,3.313180506229400635e-01
2.741355845830957261e-01,-5.516694098493632459e-03,-2.410553886113511735e-02,-1.166143676075491508e-03,-1.762769964512892265e-03,5.943065853298936697e-03,2.896009683609008789e-01
2.733804666183299314e-01,-2.577690536665447341e-02,-2.311557683563726651e-02,-8.942722608943335164e-03,-1.146338358924185209e-02,-2.871633117278017764e-04,2.988987267017364502e-01
2.696800767186692260e-01,-1.115324776014584018e-02,-1.993087201287079002e-02,4.551245917557387045e-04,1.612238325739531481e-03,2.809456910912688701e-03,2.853796482086181641e-01
2.733849845698781422e-01,-1.608740558376035856e-02,-1.968580570795573637e-02,6.706407531605923945e-04,7.119399780978010774e-04,3.276061354125892489e-03,2.913484573364257812e-01
2.681960080549773418e-01,-1.475105587743412439e-02,-1.277298364523275775e-02,1.455754628893347414e-03,9.150273302250045739e-04,5.239724398983113332e-03,2.821249663829803467e-01
2.432626621966271496e-01,-2.495130534740110095e-02,-2.126297430867392368e-02,2.487566597745196131e-02,4.534973058446422484e-02,-4.342263772603915592e-03,2.811509072780609131e-01
2.718232829015334584e-01,-2.781854759332132165e-02,-2.511062145223513786e-02,-2.556432891556958660e-04,2.199855943541651621e-03,8.162709272808155170e-04,2.983250916004180908e-01
2.726189843236135335e-01,-2.185419493917273304e-02,-1.188775122298847686e-02,1.523314604667110874e-03,-5.090381520646790163e-03,7.309112069101289348e-03,2.900412082672119141e-01
2.584552458654243434e-01,-2.105883818582832134e-02,-2.374362924461369262e-02,8.071713931884293798e-04,1.278219280158035195e-02,6.749770052437495524e-04,2.817432284355163574e-01
2.702303695525786198e-01,-2.402651484322429476e-02,-3.023373225846824608e-02,-1.702396809567051968e-03,8.391020248108843269e-03,2.947570589660417333e-03,2.978223264217376709e-01
2.633465353693971167e-01,-2.347887985866201066e-02,-2.897280640968097343e-02,-4.679645236227521557e-03,4.477798054504812837e-03,3.457293357256368323e-03,2.898904979228973389e-01
2.741965509821587821e-01,-1.993384930188848991e-02,-2.503268222618966476e-02,9.367262177817599952e-04,2.951230682955097639e-04,2.754395108605814206e-04,2.967179417610168457e-01
2.657041478948561353e-01,-2.630598423965341270e-02,-2.604034426507031985e-02,-8.945300292136446757e-03,1.670863294956132644e-02,2.757287163443000212e-03,2.937563955783843994e-01
2.593885475601177548e-01,-2.189780143146419222e-02,-2.222766517030859423e-02,-5.210880135105204567e-04,4.473264982326363715e-03,7.408032268834403682e-04,2.815624177455902100e-01
2.679411466090327321e-01,-1.697833481862763561e-02,-2.383779468329519369e-02,-5.421306881681698005e-03,8.701098760703636359e-03,-1.910972729821859995e-03,2.889754474163055420e-01
2.721593256707260933e-01,-1.766049378352321786e-02,-2.384822502386500787e-02,2.140229103511715695e-03,1.217721831016592676e-04,-4.638568196697015911e-04,2.929873168468475342e-01
2.723465281607032051e-01,-2.368613067251015836e-02,-2.597037058678970667e-02,1.156553770619064055e-03,-1.193085347125872079e-03,2.146495354856523723e-04,2.971955239772796631e-01
2.669210716950162210e-01,-2.245050260604811165e-02,-3.009820232358159653e-02,-2.077917734450476436e-03,1.142389944190159295e-02,2.615301432082153474e-03,2.939938902854919434e-01
2.704489505308524944e-01,-2.244727359428798363e-02,-2.601739282412811327e-02,-3.939174182813594272e-03,1.015311555606877641e-03,1.215894760086460484e-03,2.947892546653747559e-01
2.695913602627624805e-01,-2.259602214136514908e-02,-2.670880125797965576e-02,3.201519803362509221e-03,1.778377955522177697e-03,3.804000495699874141e-04,2.943344414234161377e-01
2.638362100704833568e-01,-2.175081807196126149e-02,-3.137330146584892121e-02,-1.615040671186483874e-03,7.630451274568142428e-03,4.023322910945875339e-03,2.909151911735534668e-01
2.558635518121687991e-01,-2.304080483771864252e-02,-2.578367317428610639e-02,-3.240098521313280328e-02,6.339150731146137334e-04,-2.654102483075096398e-04,2.858514487743377686e-01
2.767233772619812071e-01,-1.584338648248098669e-03,-3.550887765967314369e-02,-1.276869882414127799e-02,1.243494337288776792e-02,-1.114407716218844633e-03,2.983357906341552734e-01
2.732468879145808494e-01,-1.003249573953393647e-02,-3.499240325975741528e-02,-2.531807739841035812e-02,9.533156263365245506e-03,-4.450103664756017985e-03,3.003263175487518311e-01
2.583283126912397920e-01,-1.999027337363287748e-02,-3.002535761653289670e-02,3.482911665583180577e-03,-2.120509593813434471e-02,-4.564378603778507237e-03,2.860117852687835693e-01
2.556466492306957994e-01,-1.926947897645120422e-02,-3.251430685321685110e-02,-3.006910721860189036e-03,-6.724796395818056181e-03,-3.958537796151373814e-03,2.821441590785980225e-01
2.778719841523643597e-01,-2.329154062782932966e-02,-1.758667030464032555e-02,-7.544540796072342348e-03,-8.705510279967652865e-03,2.367210245128337567e-03,2.990465462207794189e-01
2.246036498303390361e-01,-1.561855348225545115e-02,-1.957730465009034637e-02,-1.687786035440005938e-02,-4.639039905067397079e-02,-3.425867227308641936e-03,2.569423317909240723e-01
2.749197685795502499e-01,-2.641023924992288996e-02,-5.112385123463403236e-03,-5.892278305304191575e-03,-2.014168942499570611e-02,4.666869695993512528e-03,2.936362624168395996e-01
2.584238938134753583e-01,-1.974011063922782860e-02,-2.899814224258376316e-02,3.409915691580510215e-03,-2.261712846806812529e-03,1.757549459187138523e-04,2.829955816268920898e-01
2.446567466837867300e-01,-1.986034590443731818e-02,-2.637207822246900868e-02,-1.306057892766624741e-02,-1.845053233955015054e-02,-3.328929394599685829e-03,2.707404792308807373e-01
2.632427019279635072e-01,-1.998930226157273615e-02,-3.145838325793189061e-02,-2.188185984332732554e-03,-6.317335646135290549e-03,-3.591969075992290129e-03,2.894358634948730469e-01
2.714443441381089173e-01,-2.360017741080380760e-02,-2.422530710125268827e-02,6.326857782498380729e-04,4.965401928057525506e-04,-1.745952088292902337e-03,2.953763604164123535e-01
2.794124224058055495e-01,-2.810639307850952562e-02,-1.116916239754005280e-02,-2.266187490221513445e-02,-3.427326234198105337e-02,1.507117931245527571e-02,3.088563680648803711e-01
2.754095362683952608e-01,-2.482677029157182025e-02,-2.301646685071181975e-02,-1.459967912128842240e-03,-1.510051446717170995e-02,-1.052256450170636123e-03,3.004919290542602539e-01
2.708022628129030940e-01,-2.578148037883250254e-02,-8.912394345174240451e-03,-2.720439824500936986e-03,-4.829210686105446342e-03,8.447705404836684806e-03,2.890495657920837402e-01
2.433653188471381901e-01,-2.338812006497879847e-02,-2.144048978416682183e-02,-1.516332223548894770e-02,6.344176109358633242e-03,-3.175661065073219144e-03,2.673619985580444336e-01
2.240986416781122759e-01,-2.901339144902739808e-02,-1.419183176687037473e-02,-2.351523035011321081e-02,5.334295871362112638e-04,-2.412549498235423782e-03,2.494214922189712524e-01
2.489366619231304645e-01,-3.093783996874183151e-02,-2.764716539956485475e-02,-3.301395830154853217e-02,-5.434966682734410082e-03,-5.473785853130909776e-03,2.843727469444274902e-01
2.292062901122134122e-01,-2.648102645946115441e-02,-1.712068938399959050e-02,-1.406521709538225209e-02,-1.702971426365712526e-02,-5.328493207636760334e-03,2.542026937007904053e-01
2.826953502369219384e-01,-2.602574956338417345e-02,-2.332598501958700610e-02,4.564793349494498595e-03,-5.510830711460620000e-03,-1.913916375646838169e-03,3.076477646827697754e-01
2.851516708148015278e-01,-3.038870364313385475e-02,-2.511586472440281714e-02,-2.931365764444277206e-04,4.720857185794252557e-03,-1.375685309804562835e-03,3.130535483360290527e-01
2.745426309382008045e-01,-1.963726499211754239e-02,-1.869195703701735656e-02,-1.072725267496355429e-03,4.494067582925732369e-05,1.579385896884691722e-03,2.937270104885101318e-01
2.756443651357688429e-01,-1.822464989663027946e-02,-1.043356547533830225e-02,-3.648032504010748772e-03,-2.043119940987518732e-03,7.411039882845510580e-03,2.904261648654937744e-01
3.000285733777041663e-01,-3.032393659123830409e-02,-2.076769680604743928e-02,-7.972615615391533475e-03,1.926121031910358466e-02,-8.741575556113495224e-03,3.280245363712310791e-01
2.692293412209416648e-01,-2.269912146199273839e-02,-3.339679536514890412e-02,8.448621271166880959e-04,1.893923289359178159e-03,1.095358335320946626e-03,2.974493503570556641e-01
2.680240175645816625e-01,-2.382145118087181102e-02,-3.155989219643683119e-02,-3.379618383255090673e-04,-2.156430207297901805e-04,1.714333620727429052e-03,2.958063483238220215e-01
3.223198161698058728e-01,-1.411413199533806395e-04,-3.105041318528362071e-02,-8.894889314831736643e-03,5.795202487857688224e-04,2.363498099215730411e-02,3.417860269546508789e-01
2.410434944711308258e-01,-1.663513025512249055e-02,-2.310732648235815090e-02,1.048401983318785619e-02,7.599471312373774420e-03,-1.011746668311018721e-03,2.619427144527435303e-01
3.026208105012664351e-01,-1.939544321590924714e-02,-2.123980174287989908e-02,1.242377624980618885e-02,1.087640708373138580e-02,8.516105339161585477e-03,3.245416581630706787e-01
2.703214940830995783e-01,-1.636417206583078154e-02,-1.758742905117204047e-02,5.505075004379991928e-03,-1.176636295668141230e-03,-7.790262187636886985e-03,2.877811491489410400e-01
3.027522697849971967e-01,-2.549225174349745160e-02,-2.432127615394041875e-02,1.456691234880422639e-02,1.166784280978658880e-03,-1.280176291492139511e-02,3.293839693069458008e-01
2.712670065699962496e-01,-2.515484294826465794e-02,-2.265176450596778635e-02,3.285658670724942929e-03,1.708356904557231052e-03,-8.321355176439603168e-05,2.952480018138885498e-01
2.646684170810699177e-01,-3.051486249440307774e-02,-1.657302788382584990e-02,2.196574129206829706e-02,-5.323276729097778728e-03,-1.780391129816093947e-03,2.911256551742553711e-01
2.125525697049004958e-01,-9.261493186817279510e-03,-2.400639030220313996e-02,-5.725004679967900245e-02,-1.445052197767972280e-02,-4.972115465422434358e-05,2.512940168380737305e-01
2.082875207997065270e-01,-2.575697816632038784e-02,-8.794363594083434710e-03,-2.223575450175413817e-02,1.623008158282339929e-03,-1.101800540747222825e-03,2.293237447738647461e-01
2.117375677218344687e-01,-2.872416389302402673e-02,-1.062729519223083730e-02,-1.899114309667692541e-02,1.823232643785009394e-03,-3.810102062114732301e-03,2.343784272670745850e-01
2.122201778936319561e-01,-2.728261395999269368e-02,-1.309772972737001384e-02,-3.812830542236074483e-02,-7.221184241180669469e-03,-6.151990309243890453e-03,2.424804270267486572e-01
1.923775393551526713e-01,-1.356014757894363765e-02,-1.406136335393380621e-02,-9.893254528283572033e-03,-3.375840612351688891e-02,-2.431633389323360327e-03,2.150443196296691895e-01
2.348503755339325649e-01,-2.061194907864283277e-02,-2.019634562187906657e-02,-9.093810715719670076e-03,-1.705700507529359436e-02,-3.430130194963194878e-03,2.575096487998962402e-01
2.405428786427579457e-01,-2.231523510901604890e-02,-2.228111028842133523e-02,-1.263827376170035578e-03,-1.111595524406339911e-03,-6.530057299865939073e-03,2.631004452705383301e-01
2.362487729628220123e-01,-1.681789810707824684e-02,-2.671866916337796438e-02,-4.533934726081489952e-03,-1.486568960448760024e-02,-6.534724270608771070e-03,2.598058283329010010e-01
2.643360717772508250e-01,-3.320372886465979001e-02,-1.939383924764473410e-02,-2.136552741020094487e-02,-3.332931866860369317e-04,-6.259537952978632552e-03,2.934263050556182861e-01
2.754869820473256903e-01,-1.996474283183538589e-02,-1.700140657877877159e-02,-2.005828744813212706e-03,-2.458945984952823870e-03,1.764002268486719593e-03,2.940485179424285889e-01
2.314126458935047426e-01,-1.159648072155845810e-02,-2.819020094490072570e-02,3.245792763294943258e-03,-2.381219361751344766e-04,-2.050852509404699989e-03,2.518047094345092773e-01
2.452723000732365266e-01,-2.222761162106623445e-02,-1.858970678850715985e-02,7.906202251872183895e-03,-1.377761487842267193e-02,-1.536894980852237776e-03,2.671336233615875244e-01
2.581829905738907138e-01,-2.755187617047605286e-02,-1.576940029684413547e-02,-1.940513011474824176e-03,-1.210382532995299930e-02,1.500070002673344234e-03,2.808453738689422607e-01
2.496281297581113556e-01,-1.768818644751521396e-02,-3.249679384401904514e-02,1.756400484970137971e-04,-1.568316926200192737e-02,-2.846907988760166274e-03,2.764022052288055420e-01
2.722530861027402382e-01,-1.554602671767749134e-02,-1.393565549773650991e-02,-1.547230557779701683e-03,2.154108944296653956e-03,-2.162285227201393017e-03,2.870585024356842041e-01
2.148477688684832798e-01,-1.747155872074705740e-02,-1.682128464060586581e-02,-1.495291265263400809e-02,-3.455797921447892329e-02,8.451208779894651881e-04,2.409923076629638672e-01
2.762857913305493684e-01,1.157469031594168807e-02,-2.955594101151981512e-02,-1.504374276054978518e-03,-1.116217414591406639e-03,4.549107448880112918e-03,2.876178622245788574e-01
2.760674242081828655e-01,-1.509988492807765037e-02,-2.139620886007474743e-02,2.790047659580817841e-03,2.723932827445501095e-04,-8.013151542530273785e-03,2.947329878807067871e-01
2.281065500089244358e-01,-2.179108728597708988e-02,-1.875313059548741612e-02,-6.967380035623017137e-03,-2.441468695247941620e-02,-6.895878843226324086e-03,2.525379359722137451e-01
2.300384700305784236e-01,-1.792499671682548645e-02,-2.238713978056497411e-02,-8.237865419615752333e-03,-7.103797919986351225e-03,-7.884861294252172928e-03,2.513040602207183838e-01
2.547434972835064260e-01,-2.899537725588591242e-02,-1.818485075950034002e-02,9.109608507878891662e-03,-2.443251016062043964e-04,4.361282529250932322e-03,2.790402173995971680e-01
2.606053520168850612e-01,-2.704217374199141544e-02,-2.326261577955711368e-02,4.710237733543933859e-03,3.989396324808856548e-04,5.840336302971398628e-03,2.860726714134216309e-01
2.612839220767286808e-01,-2.711660268747051461e-02,-2.370099505223033365e-02,6.299359315415040475e-03,-3.131501664140822708e-04,2.303119784289200597e-03,2.869437634944915771e-01
2.727047344371079651e-01,-1.928688977482558020e-02,-1.922460732899812508e-02,1.576969184397758678e-03,1.043088209329132111e-03,-3.647313960945942294e-03,2.920471727848052979e-01
2.675631898427300870e-01,-2.517780304723853113e-02,-2.440681166590284723e-02,6.240266691222146316e-04,2.393376316603781397e-04,1.990291579112204740e-03,2.923788726329803467e-01
2.988764343694175207e-01,-2.799853003490962444e-02,-2.150351626159026364e-02,9.625636558511625751e-03,-1.081460485116250356e-02,-1.520828767396587358e-02,3.257131874561309814e-01
2.636680056876764544e-01,-2.589071533118904311e-02,-2.740797555848993594e-02,2.405572298416559177e-03,-4.942740628868185979e-03,4.635421580463348207e-03,2.905873358249664307e-01
2.693716694477771845e-01,-2.561302195256673353e-02,-2.729826636425083941e-02,4.345801516269478387e-03,-3.181104455539829085e-03,3.773371596663758088e-03,2.960501015186309814e-01
2.121578432180548368e-01,-1.521156039926563341e-02,-1.852297978465143602e-02,2.137479708668403242e-02,-1.383751968946849570e-02,7.937160280214461405e-03,2.336553037166595459e-01
2.788563732336268308e-01,-1.678589331384648664e-02,-9.717820843467270264e-03,7.456808746039525829e-03,-2.591042900336817684e-03,-1.303411267293917708e-02,2.933620810508728027e-01
2.858333349621460795e-01,-2.336263060850883588e-02,-2.700809249282014324e-02,2.408221712637880277e-02,-1.928757274438148983e-02,-1.012820339354547974e-02,3.160794675350189209e-01
2.394338379857316457e-01,-8.565204409710522326e-03,-2.685866575278658686e-02,-2.520561065374387136e-02,2.172406021442276763e-03,-2.585972649296397214e-03,2.613716125488281250e-01
2.727541223203896470e-01,-2.569655613397185678e-02,-2.373640623194475663e-02,-1.212348561725681492e-02,1.083062549639456952e-02,1.422825399832694038e-03,2.988152503967285156e-01
2.636574812921584354e-01,-1.446886922951801102e-02,-2.897465580272493013e-02,-1.600906344477635510e-02,2.508384315324140718e-03,-1.776037794288198423e-03,2.870476245880126953e-01
2.561504670693399710e-01,-2.265408557063602890e-02,-2.272528240236348918e-02,-3.515287708936475769e-02,4.498227864743240163e-03,-1.427881900794529231e-03,2.855272889137268066e-01
2.695560469255713354e-01,-2.348328080466065282e-02,-2.580169718067180928e-02,1.939107054976903916e-03,3.852763815750618465e-04,8.357510402809313968e-04,2.942288815975189209e-01
1.449242344909746905e-01,-1.909954845925394828e-02,1.406856520262362437e-02,6.184393914931223500e-03,-5.153202713419011149e-02,5.510728654614303196e-03,1.753170192241668701e-01
1.420865917559496205e-01,-2.366566587129258215e-02,-6.446738641793084423e-03,-9.572725269454775143e-03,-3.411559535023851730e-02,2.090571923618398179e-02,1.731874942779541016e-01
1.201905523566993150e-01,-8.076409942880689863e-03,-5.056826253363386203e-04,-1.156995942373716460e-02,-4.170713163023623965e-02,8.586827613637600803e-03,1.462186872959136963e-01
2.114019288063915814e-01,-5.464399678266215754e-03,-2.356706056451547682e-02,-2.060854758849991510e-03,-1.684336351192382980e-02,-1.428802005510837079e-03,2.283736616373062134e-01
1.764964538104575875e-01,-3.652096990896330775e-03,-1.161460379614920324e-02,-4.882460690978120132e-04,-1.793946733518577297e-03,2.125945495153502580e-03,1.843238025903701782e-01
1.217324042605176654e-01,-1.440343457959121498e-02,5.451879272732586268e-03,-2.502917982951151019e-02,-6.542017964509193317e-02,-4.151306421188458249e-05,1.759061217308044434e-01
1.737861933864498498e-01,-3.089778368144897869e-03,-1.777672532735687094e-02,-4.987371188868218799e-03,-3.644764606960565478e-02,-3.628914019835542942e-03,1.954430937767028809e-01
2.537223348396403511e-01,-3.214204119747002264e-02,-1.695572880102406976e-02,-4.628759263692502381e-03,-5.892715059373998749e-04,-3.108535414021679297e-03,2.787510454654693604e-01
2.339196207499943392e-01,-2.706959081756206420e-02,-1.593983734454784695e-02,-1.120228839351520081e-02,-8.304578616048984788e-04,-5.454963013032850146e-03,2.565196156501770020e-01
2.667606574969519362e-01,-2.339046262696814482e-02,-2.917740495937973244e-02,-1.351879956847277251e-03,4.435288812554605102e-03,3.377363719717961857e-03,2.932558059692382812e-01
2.623809644114482587e-01,-2.885420722326380305e-02,-2.245749475248200178e-02,-6.078551587439566355e-03,-1.578972989549851233e-03,-6.181454124721182455e-03,2.884941101074218750e-01
2.593809867842718497e-01,-2.813752780400967379e-02,-2.190850131361161968e-02,-1.807742726020707298e-03,-1.240186464130666735e-03,-2.544106451794742648e-03,2.845146358013153076e-01
2.608684822616449406e-01,-3.199078969056154409e-02,-2.246102287746411241e-02,-2.886198188316311305e-03,-2.475917404063924902e-03,-4.660578964755150190e-03,2.884008288383483887e-01
2.505871662792746868e-01,-2.468285828270268267e-02,-1.445315767497810933e-02,-1.921985724858862876e-02,-1.054194830448652691e-02,5.121726824653538221e-03,2.730981707572937012e-01
2.547938055049969730e-01,-2.348444256414811138e-02,-2.484474870857346362e-02,1.050532185167337221e-02,2.207168386593371182e-02,7.749792010729614168e-04,2.821587324142456055e-01
2.922020388926647172e-01,-4.960235199960444374e-04,-3.075382155161451858e-02,7.248368047474541484e-03,2.215624353580424293e-03,1.089806249330402613e-02,3.097946643829345703e-01
3.329863663544311847e-01,-3.431732271767512499e-02,-4.020464254265165849e-04,1.365487802346378177e-02,3.161596029068100382e-03,2.550434404869965366e-02,3.551701009273529053e-01
3.539457536651199332e-01,-3.222309857084770801e-02,1.686039888788071206e-03,2.316302275514926963e-03,-5.359154153257945918e-02,3.378535795022100108e-02,3.863135576248168945e-01
2.781680424016341191e-01,-2.450008433613995451e-02,-8.315249579863584484e-03,2.763056738424833712e-03,-2.733100821450102844e-03,-1.350210364078806725e-03,2.949950695037841797e-01
4.422085471175939420e-01,-5.026972252968886501e-02,-1.985344916478948285e-03,5.421431082020973340e-03,3.906570563290571139e-03,2.558048240145477034e-02,4.724238216876983643e-01
2.983773570699159716e-01,-2.544109389219748052e-02,5.412365740898275601e-03,1.574561251558818237e-02,-4.751681672738912107e-03,3.353455805955527641e-02,3.162350654602050781e-01
3.148279061826746994e-01,-4.177479779666212756e-02,8.884620059698589145e-03,2.116278934041642204e-02,7.142825055036678555e-03,2.634382552205837696e-02,3.394778668880462646e-01
4.275370243269042136e-01,-3.046667338686573356e-02,-1.284600551842243754e-02,-1.762631955825726127e-02,3.141033127616300880e-03,3.045503508461368247e-02,4.535986483097076416e-01
2.469965981153481593e-01,-3.325225840505725838e-02,-1.441916681928757937e-02,-7.371565216241778018e-03,2.691699619826714782e-03,-1.083159304012626747e-04,2.716633081436157227e-01
2.578333496006902648e-01,-2.217194470662520178e-02,-2.675294367793853989e-02,-2.612717561013042956e-03,-1.246305013317911166e-02,-2.829990460172367769e-03,2.832263112068176270e-01
2.903107033878459253e-01,-1.129300266518214191e-02,-3.404848234860610723e-02,-2.203278123760775767e-02,3.436524515441013051e-03,7.163299734828925715e-03,3.162142336368560791e-01
2.716159087085409096e-01,-1.982348519445144286e-02,-1.509748979819644510e-02,-1.866138188336694155e-03,-4.962187911223487138e-04,9.029059459284612815e-03,2.895473539829254150e-01
2.695598522869370184e-01,-2.574184777333768381e-02,-2.248759847063003248e-02,-9.427123314835300985e-03,2.757780413893867516e-05,-9.888452560188353870e-04,2.941466271877288818e-01
2.735979943283339266e-01,-1.510343722859351645e-02,-2.572711212171273354e-02,-5.662112192514986118e-03,-4.254238416148374904e-03,3.210256189749543208e-03,2.944653332233428955e-01
3.121638871971201268e-01,-3.017244244681535625e-02,-1.276876196660656215e-02,-6.339673442249273323e-03,-1.460581961660845432e-02,1.724240512661888089e-02,3.364396095275878906e-01
2.729780023719269311e-01,-1.788225229162632157e-02,-2.191853940886859253e-02,-1.448925077133459338e-03,1.846332636016483845e-03,-2.866044219728032093e-03,2.929695248603820801e-01
2.727015170395911126e-01,-2.115920173853365338e-02,-2.012172611987117499e-02,1.319431973463381117e-03,3.555005426616026330e-03,-3.887222860257584858e-03,2.934941053390502930e-01
2.665998952025977475e-01,-2.312605981236223740e-02,-2.764267632947056685e-02,1.132042687800887846e-03,1.167411829153612232e-03,2.505708285616230907e-03,2.920562922954559326e-01
2.902686731804560161e-01,-2.605993973854490997e-02,-1.891556386168362358e-02,-1.289062198356384116e-02,2.082141419236568231e-02,-6.168696869468433437e-03,3.158609271049499512e-01
2.369039748658893774e-01,-1.684024674972148250e-02,-1.628174881070935942e-02,-2.098886287498875555e-02,1.614204815050463218e-02,-2.357364097841438758e-03,2.576134502887725830e-01
2.763896281083515483e-01,-2.421732673019251492e-02,-2.937696994453971311e-02,8.953117825487618819e-04,-9.426582098843853431e-05,-9.966547813586811282e-04,3.032286167144775391e-01
2.749076371925096574e-01,-1.355639609353362363e-02,-2.640183435154194735e-02,-3.829512667293974611e-03,2.379932868109012594e-03,-6.960365498148613113e-04,2.952022850513458252e-01
2.717621995613905828e-01,-1.785521866084592568e-02,-2.594244754762463356e-02,-1.004765278211252125e-02,1.820598393815574430e-03,-1.617280024890241363e-03,2.942898273468017578e-01
2.695288540442430936e-01,-2.264836411677371986e-02,-2.672409727090095666e-02,2.400539398390097532e-03,1.198871184498403325e-02,1.108890365626907836e-03,2.950036227703094482e-01
2.646036353330405433e-01,-2.588573656887624419e-02,-1.764974974537891761e-02,1.561793742324838006e-03,1.902681048247708770e-02,-5.154350358767764879e-03,2.885004580020904541e-01
1.731521176266745954e-01,-1.421070774181423801e-02,-3.500024219743755327e-03,-3.298524588332752555e-02,3.078960903904696695e-03,-4.603198591516602378e-04,1.910652220249176025e-01
2.524915575362461917e-01,-1.910875983555511415e-02,-2.931955825706425434e-02,-2.239522815672921000e-03,7.421409822833379896e-03,6.226859570622226506e-04,2.771744728088378906e-01
2.128115888634900255e-01,-2.018790728607523788e-02,-1.904513129265943128e-02,1.374121543457932368e-03,3.575030490648844345e-02,1.659491543094379932e-03,2.405659705400466919e-01
2.733682844831850645e-01,-2.566223809952503099e-02,-2.602854552901294471e-02,2.332861493897001297e-04,1.395165718507772323e-02,-8.091172290798205819e-04,3.001916110515594482e-01
2.749203705444558388e-01,-1.842923517363133368e-02,-1.166073413698501260e-02,-1.883245579064382353e-03,-1.281751038803352486e-03,6.362313805424586917e-03,2.902607023715972900e-01
2.795422610951125986e-01,-9.899636301367309432e-04,-2.708820710725740044e-02,-2.394806103894998699e-03,-3.442890340381696453e-03,8.725615332638953642e-03,2.949271500110626221e-01
2.794676613884700123e-01,3.379602540931336829e-03,-3.218150693304838716e-02,-1.484963275141354747e-03,-1.361391353185911713e-03,1.113647021826116336e-02,2.961274087429046631e-01
2.813067824468347133e-01,3.528283691450043169e-03,-2.674668861755091775e-02,-2.901713391958053462e-03,-1.803439916408207996e-03,1.381310155069998165e-02,2.951179742813110352e-01
3.073412245513615915e-01,7.427965584714327218e-03,-2.850552306004211500e-02,-1.492285285892813382e-02,1.226419908656494525e-03,2.298479606679559167e-02,3.229142129421234131e-01
3.240210702727415737e-01,-2.445404320051278169e-02,-1.376568532813993162e-02,-5.824680675977903475e-03,-5.609531801956644387e-03,2.076132588831928680e-02,3.454183042049407959e-01
3.140887416955069900e-01,-2.281015412534811992e-02,-7.999870033938885627e-03,-6.543463578813418433e-04,3.191777370527511259e-03,2.392375858315809456e-02,3.323846161365509033e-01
2.856707262460769225e-01,-3.728455398062213710e-03,-1.767563301882256466e-02,5.437759207885860778e-03,-2.922674032756201936e-03,9.062276201835193709e-03,2.972262203693389893e-01
2.446571360544134432e-01,-3.211774554214541499e-02,-1.123414178676271358e-02,-6.563513082738908593e-03,-3.337167824910701095e-04,-3.856061758460511881e-03,2.672725021839141846e-01
2.022326975686865314e-01,-2.238272528300153108e-02,-7.709626478443296071e-03,-1.409916774255769514e-02,1.503958111758000324e-03,2.320401981296533165e-04,2.190317064523696899e-01
2.301610417809211717e-01,-3.226989724386726544e-02,-1.345532073885155611e-02,-8.940082220441033720e-03,6.150470807680148569e-04,-1.384315881843954307e-03,2.540336847305297852e-01
2.294286280669384226e-01,-3.082470898894436317e-02,-1.039719313390224942e-02,-6.571618243892306949e-03,-1.793959043350821115e-03,-3.899526378066973942e-03,2.510330379009246826e-01
2.609307546415098322e-01,-2.802125812165490171e-03,-1.871252307902654399e-02,-3.197655797141555484e-02,-1.755662779117242445e-02,2.438554077790764524e-02,2.824543118476867676e-01
2.442972442805472488e-01,-3.150644235922804570e-02,-1.112161827802135572e-02,-9.353950419260764759e-03,1.264312156342488292e-03,2.637726657580478744e-03,2.667379975318908691e-01
1.984361073600394709e-01,-2.231383304589956706e-02,-7.439041241979804653e-03,-1.210240607061499780e-02,1.779317183495646940e-03,1.089042928384684802e-04,2.147489786148071289e-01
2.169870577069045181e-01,-2.316161187270604493e-02,-2.348252811165991993e-02,-6.054118886821234502e-02,-9.509530151271775467e-04,-1.324309952719199398e-03,2.622064650058746338e-01
2.620974128484520049e-01,-2.629728500535237490e-02,-2.650211451973800980e-02,8.857045241759810923e-05,1.790456922736925662e-03,5.192452037277552751e-03,2.886540293693542480e-01
2.603793915740098552e-01,-2.835405809244118114e-02,-2.601786076833800809e-02,-2.176164222995783694e-03,9.613139115493187642e-04,4.515100928350781855e-03,2.877082824707031250e-01
2.603600931684215136e-01,-2.778959963960744850e-02,-2.413008353502987813e-02,-2.928185019868301264e-03,2.387781128535343238e-03,1.962745868619032285e-03,2.864324152469635010e-01
2.463349270642659072e-01,-2.064862497107079753e-02,-1.851930051310267389e-02,-1.050551983484051578e-02,2.570377145818300568e-02,-3.231060709052433963e-03,2.702974677085876465e-01
2.567519209759603349e-01,-1.879876582514446171e-02,-3.202759410589940681e-02,-1.041426782637437957e-03,3.891612124057764951e-03,3.342777623165377708e-03,2.825430929660797119e-01
2.483189665062392748e-01,-2.154952998315318169e-02,-2.441341804105343072e-02,-1.814496408534422775e-02,2.464183777037552703e-02,-3.014647882200460760e-04,2.764411866664886475e-01
2.537514536760204775e-01,-2.117033671486077961e-02,-2.299018699938934485e-02,2.656944619313154204e-03,-6.250724711308056764e-03,-1.516874128326267451e-03,2.760994732379913330e-01
2.818252421722599044e-01,-1.865175059234697175e-02,-1.415445406294746356e-02,2.355129337337123156e-03,1.161202409212932270e-03,-8.933997909017690059e-03,2.986895442008972168e-01
2.705180780310458832e-01,-2.258480620946980155e-02,-2.543545235366016788e-02,-3.085417101143069201e-03,2.753555071647078873e-03,6.290745415021683834e-04,2.946276366710662842e-01
2.755815436956703390e-01,-2.378834527894675699e-02,-2.241921522669865219e-02,7.191823969670017858e-03,-3.629789775546392316e-03,-6.612894446510368196e-04,2.990156114101409912e-01
1.878493247140838318e-01,-1.028545144462993111e-02,-2.120817130925130301e-02,2.181299910774430958e-02,-3.806496161462307598e-02,2.903471767050952619e-03,2.175785005092620850e-01
2.558821512942417997e-01,-2.171818906427920581e-02,-3.184262360345890830e-02,1.505577990773234592e-02,-3.033963373142314901e-02,-1.774040930095429659e-03,2.888354957103729248e-01
2.584635602143167676e-01,-2.436007986542421122e-02,-2.785552339614900952e-02,1.994860320542470034e-02,-2.662091622674515878e-02,4.685511224824434953e-03,2.904750406742095947e-01
2.365464204666230807e-01,-2.791082197279805277e-02,-1.461278673299860886e-02,8.020301884807600964e-03,-4.170440591022330119e-03,4.245005708882122752e-03,2.586444020271301270e-01
2.786919085073475966e-01,-3.265552053882683770e-02,-8.606527816925113594e-03,2.108885296429496847e-03,9.006239211497695310e-03,5.164383776858337896e-03,3.006071746349334717e-01
2.630666252306214092e-01,-3.038436712650190163e-02,-2.158953126210677587e-02,6.288621241643231781e-03,3.370669958695969581e-03,-5.075216952107412458e-03,2.895513474941253662e-01
2.779325069888159971e-01,-2.558603432812940615e-02,-2.458451647250695093e-02,-1.457364114472789159e-03,-3.013443443219564980e-03,-2.060074611045254606e-03,3.030954897403717041e-01
1.567455029601448335e-01,2.969079471376430412e-03,-2.338776978246702443e-02,5.513121379422870200e-02,1.081900148902335823e-02,8.821275030696665645e-03,1.951867938041687012e-01
2.928339358073410725e-01,-5.782653231850024000e-03,-3.194538365680835157e-02,5.910976522714321557e-02,4.189952447465528779e-02,9.843025729053298672e-03,3.372065126895904541e-01
2.706034219272999142e-01,-2.361961736882335627e-02,-2.552497097248601632e-02,-5.994722530724631415e-04,-8.538700494664399048e-04,-1.352600307299242936e-03,2.951951622962951660e-01
2.563565841583943516e-01,-2.122482445226782366e-02,-2.322829615254383417e-02,8.278330675338283970e-03,1.122762389325887523e-03,-2.429021319399678538e-03,2.789957821369171143e-01
2.512456523204611436e-01,1.349016213321789504e-02,-1.750867422857070588e-02,2.845798277810486498e-02,2.360933785346884875e-02,2.677739360029953580e-02,2.666676044464111328e-01
2.463120856749111409e-01,-3.137226657517981632e-02,-2.330266764541104318e-02,4.476017714081596821e-02,3.452589348530631791e-02,-2.397198376234417985e-04,2.907225787639617920e-01
2.701275915491289092e-01,-2.387541335557201438e-02,-2.457485996763854319e-02,-1.356750489503245763e-03,8.449081224230150936e-04,-1.093041667396811968e-03,2.943724691867828369e-01
2.742739031401678074e-01,-1.933073843549321102e-02,-1.924735729571330767e-02,-9.653861079001251847e-04,1.711375483892239489e-04,1.596887478203313279e-03,2.935808897018432617e-01
2.785127830595523490e-01,-2.573239596860223133e-02,-2.386100078831480953e-02,5.582192794879359959e-03,6.209963532946514812e-03,-1.687502487706718339e-03,3.036724925041198730e-01
2.724936537363660261e-01,-2.714447867499857059e-02,-2.683953093418005309e-02,-1.168915031726118557e-04,-1.266591733488214898e-03,-4.508909670039351440e-03,2.995956838130950928e-01
2.705511412958396811e-01,-2.452571539674441858e-02,-2.359036187941145057e-02,-1.425354036583016118e-04,-1.271343976781757774e-03,-1.331608977498219487e-03,2.946276664733886719e-01
2.758097126808852773e-01,-2.538530351388326722e-02,-2.421116443684100117e-02,2.126208581204405983e-04,-3.036397863514447154e-03,-1.602860942941702373e-03,3.006687164306640625e-01
2.204027978942213750e-01,-2.130128129721921282e-02,-2.247457633107888264e-02,-2.005886765127138163e-02,-3.831995466168006820e-02,-1.987485457381259375e-03,2.536336183547973633e-01
2.522354254530840278e-01,-3.085360503361002371e-02,-1.813178662284736786e-02,-2.734540556375751608e-03,1.528538642175040650e-03,-3.337827832899031670e-03,2.770608365535736084e-01
2.703469876559527751e-01,-2.526394276241672454e-02,-2.244800041564812276e-02,-7.241578912311034261e-03,-1.448415386455830303e-02,1.016556018499351413e-02,2.960709929466247559e-01
2.671441224835443551e-01,-2.310881072432914574e-02,-2.757169799625702744e-02,-7.536760355824206892e-04,-4.912063357009767602e-03,-3.129339020971170192e-03,2.926867306232452393e-01
2.543837894329789018e-01,-3.091191077251720376e-02,-1.974550043455912396e-02,-6.018246340809330075e-03,-5.074696459141147045e-03,-3.320640181129913288e-03,2.802705764770507812e-01
2.535497799020736132e-01,-2.417620584024869623e-02,-2.118506731726464698e-02,-5.885515576976894231e-03,2.066827349781095828e-03,-1.950248852306572670e-03,2.764744162559509277e-01
2.556214810878910115e-01,-2.878492657396775067e-02,-2.136678604522046498e-02,-1.538095976738392337e-02,-5.385009455719288324e-03,-4.829538785537195594e-03,2.823100388050079346e-01
2.365757869568845262e-01,-2.525269429049742387e-02,-1.910276415356278179e-02,-1.347303121251891382e-02,-2.845768206027508157e-02,-2.848396193851583224e-03,2.645376622676849365e-01
2.594516978847065669e-01,-2.847310516536445679e-02,-1.905422966695267950e-02,-1.271172704385184178e-03,-4.069586958717882137e-04,-1.263042857193336522e-03,2.833506762981414795e-01
2.142807674884300850e-01,-2.714440924331321114e-02,-8.958761683136695630e-03,-1.644903806781270947e-02,-2.708490854556082610e-03,-8.692813825389996774e-04,2.346536815166473389e-01
2.445934372465732587e-01,-3.296018606575780441e-02,-1.387277253232344076e-02,-8.598830836959191204e-03,-1.358184410435047404e-03,-3.837631567737468893e-04,2.689430415630340576e-01
2.477365297310394066e-01,-3.154118505065280076e-02,-1.467023399517985993e-02,-1.506376382678201870e-02,3.406930854535850030e-04,-2.570171548286745867e-03,2.725250720977783203e-01
2.289339979058231389e-01,-2.731491185523768350e-02,-1.616969837754607398e-02,-1.607241760586752138e-02,5.727544778312410392e-03,2.286207968958290943e-03,2.526278495788574219e-01
2.579190700979251960e-01,-2.193876187300532188e-02,-2.895241360545258713e-02,-3.339550377411124038e-02,3.194166316752843158e-03,8.209137773336953967e-04,2.893282473087310791e-01
2.255634163926284186e-01,-2.488349575079273901e-02,-1.511978774570385542e-02,-3.088730535331715016e-02,-1.635860461048486980e-02,-4.491842149415345778e-03,2.531780302524566650e-01
2.570630242402129895e-01,-2.404530260778540984e-02,-2.166297421557200620e-02,-1.953887518747976851e-02,-1.985442415726677498e-03,-1.531986086589904239e-03,2.819965183734893799e-01
2.596094148012105807e-01,-1.021376580096808317e-02,-2.783177734074897269e-02,-1.384704634626783906e-02,4.563438644873778899e-03,2.430883543960654300e-03,2.802215516567230225e-01
2.720816878628710134e-01,-2.356538510306227518e-02,-2.679839968972615172e-02,9.112216380007898218e-04,2.810924922064925624e-04,1.072443173835934381e-04,2.972814142704010010e-01
2.564586618557649356e-01,-1.754144591454602498e-02,-3.568638490071027181e-02,1.581870448434401609e-05,-7.337097999383946365e-04,8.018796432914448774e-05,2.835112810134887695e-01
2.685989388856119264e-01,-2.378042982534749050e-02,-2.790967854473153098e-02,1.671073475653930222e-03,-2.786107034713890956e-03,2.084855906645072861e-03,2.945415973663330078e-01
2.702730494878465839e-01,-2.999693538769307444e-02,-2.437250362238715939e-02,1.166811316506051422e-03,-1.745698611801495270e-03,5.603488800630851332e-04,2.975214719772338867e-01
2.730416566017679347e-01,-2.856211799761684822e-02,-2.296597538096190050e-02,2.191562818198651390e-03,5.865840468205154755e-04,-4.010143714935535987e-03,2.989515364170074463e-01
2.600807761068609225e-01,-2.625120202153170823e-02,-2.231938421821072494e-02,-1.083904282539141940e-04,-4.960431310006914625e-04,-3.708557959563970295e-03,2.844603359699249268e-01
2.439040135344993643e-01,-2.836250274008408900e-02,-1.992734349947535011e-02,-5.649471052536333450e-03,9.093399748564285484e-04,5.106658062086218142e-03,2.684772908687591553e-01
2.568986823105959827e-01,-3.528769354072384956e-02,-1.726343588140608065e-02,-1.527181828292121808e-03,1.235541089720576828e-03,1.526165599928946427e-05,2.836245596408843994e-01
2.380959070119888776e-01,-2.167930166968486116e-02,-1.319553980164929474e-02,-1.395474442127983897e-02,-1.429998171266575954e-02,8.121503609840484070e-03,2.583540380001068115e-01
2.681561735526277190e-01,-1.767376201430838345e-02,-2.538110329949962163e-02,5.866529723986818731e-04,1.671466777813017911e-03,1.628465980616687842e-04,2.897768616676330566e-01
2.590382218707780737e-01,-1.787600644442111086e-02,-3.490735653592630383e-02,-5.199149255479379970e-04,-8.645222647476104999e-04,-1.013949218979728331e-03,2.858214676380157471e-01
2.529290527005276790e-01,-1.758661280083875789e-02,-3.334595523968457431e-02,-2.296534714190814810e-03,-3.081940165005871406e-03,-2.920713663935944112e-03,2.788550555706024170e-01
2.628002910066095654e-01,-2.153223752988245310e-02,-3.282260060033334592e-02,-7.252721919360203585e-04,-7.237121043047530389e-04,-1.118035954323127546e-03,2.901543974876403809e-01
2.595377630617875520e-01,-2.009279008878242512e-02,-3.348550100788670603e-02,-2.853254726113503472e-04,-5.052271925949761199e-04,-5.517091048899924700e-04,2.865650951862335205e-01
2.577718284729594300e-01,-3.530594520365266942e-02,-1.819501790028595078e-02,-3.855145319118873613e-03,-1.289405306399226498e-03,-1.654144248486176918e-03,2.850093245506286621e-01
2.592403977666927206e-01,-3.496523226509096194e-02,-1.790152373348614934e-02,-1.348284310390346396e-03,-9.633218183662630493e-04,-1.298987100059680305e-03,2.860789895057678223e-01
2.567920501972829062e-01,-3.644643523898205562e-02,-1.584205096327014062e-02,-1.138342282288501255e-03,2.418059370087971517e-04,-6.485182732986943853e-04,2.835077941417694092e-01
2.509148633563474950e-01,-3.525838243643161785e-02,-1.527776044209867845e-02,-4.211473045161822498e-03,-1.343311455894937978e-05,-1.484743938971409697e-03,2.768325507640838623e-01
2.625097336772280743e-01,-2.032683698781982684e-02,-3.372118287654526925e-02,1.018040533435219611e-03,-8.368590679735846789e-04,1.320414872883518510e-03,2.897840440273284912e-01
2.615046984101675465e-01,-1.918429857236621239e-02,-3.369131334155038571e-02,6.902734892588059234e-04,8.057692592954519069e-05,3.830986984938002451e-04,2.882197201251983643e-01
2.619648353302541643e-01,-1.830844005905118976e-02,-3.402808009187584248e-02,7.402108112562756333e-04,-3.621392360856681529e-03,1.990240106442958939e-03,2.885461449623107910e-01
2.614135497370588812e-01,-1.830127025668640273e-02,-3.585147517163464470e-02,1.117690598413233639e-03,-8.195144812208753505e-04,8.698278151288358403e-04,2.889039218425750732e-01
2.792049055128695834e-01,-2.726632356367295063e-02,4.263472519309086106e-03,9.825189066698962123e-04,3.358726825761934012e-04,-6.692668536064460758e-03,2.922214567661285400e-01
2.831657641595508590e-01,-3.237969382772235005e-02,3.280579540032191321e-03,2.371366609613317911e-03,-1.860067823368880154e-04,-4.266080733962032863e-03,2.994323372840881348e-01
2.902282149751758689e-01,-3.821898382465149790e-02,1.870560838301207895e-02,9.006627614223554953e-04,-6.551149482220761620e-03,-3.654930170015497585e-03,3.042901754379272461e-01
2.787441255267502083e-01,-2.850555981145813655e-02,1.179220618401871645e-02,6.266148376679871678e-05,-9.109749279094301808e-03,-1.072605381899120747e-02,2.902394235134124756e-01
3.127443078985879810e-01,-3.649358756715648244e-02,-5.009743121761306428e-03,2.001781485875271660e-03,-6.976189866835900847e-04,-1.469603063625495032e-02,3.355955779552459717e-01
2.536484822621505875e-01,-3.271601567906466668e-02,-1.706512432762775922e-02,-3.798014589146163009e-03,-5.368771082396216416e-04,-3.405609770602231311e-03,2.790101170539855957e-01
2.547307583735190506e-01,-3.547439609960933993e-02,-1.607624505831804773e-02,7.958443696176037007e-05,2.697664549134755471e-04,-1.172461038233098404e-03,2.810164391994476318e-01
2.545457955814193207e-01,-1.667072558758037060e-02,-3.542953915714122659e-02,8.069542089951560601e-04,-9.938340506748615227e-04,-1.310549663194682593e-04,2.810746431350708008e-01
2.549369178830704352e-01,-3.666676057938433875e-02,-1.643012785836731049e-02,2.654411030537067850e-04,2.043727008332901925e-04,-3.059219798739172633e-04,2.820315062999725342e-01
2.657396385807375694e-01,-1.276823252352693450e-02,-6.394259552639405819e-03,-3.691679226493935206e-02,-3.210897403174983039e-02,2.604134784492233637e-02,2.916299402713775635e-01
3.037595911846933117e-01,-1.048085242339499845e-02,-1.815058649591172468e-02,-1.299018769488497448e-02,-7.074844261414353977e-03,2.444103915355936435e-02,3.219697475433349609e-01
2.806121061166990671e-01,-2.445143101715946399e-02,-1.833304236773261597e-03,1.812132683255790206e-03,6.250503918671615911e-04,1.048096646217200854e-02,2.949846684932708740e-01
2.986638584732269064e-01,-3.906087291771345726e-03,-2.613252219128989196e-03,-4.733363799713391842e-03,-2.253605792348606536e-03,3.088808256686768894e-02,3.067633211612701416e-01
2.812218633786577882e-01,-3.258858525600649703e-02,9.174150531095118244e-03,-4.825122016447087013e-03,-4.653189573936270321e-03,1.588092677179814630e-02,2.966596484184265137e-01
2.864222736468342578e-01,-2.965610949797056750e-02,6.479618502232831201e-04,-2.738756077194973680e-03,-1.392356304612796551e-03,1.411558822786311389e-02,3.031030893325805664e-01
2.608498880432258415e-01,-2.230149903654429777e-02,-2.232041790856149899e-02,5.955830012955518234e-03,-1.358993475410137132e-02,9.351677254663309834e-04,2.843293249607086182e-01
1.966816321258678668e-01,-9.426942624571277296e-03,1.593497921640152359e-03,3.952915845397678846e-02,-5.300974764071297862e-02,-1.484585046244010428e-02,2.326150238513946533e-01
1.262365605512358602e-01,-1.895781390572206376e-02,-2.982612633202548491e-03,2.837763133803494764e-02,-4.049963082350081789e-02,8.776708445225257088e-03,1.630482375621795654e-01
1.239243336920588939e-01,-2.489007639238857705e-03,6.218204263121807074e-03,2.107807420440402021e-02,-3.124559025771554005e-02,-8.533704705867046700e-03,1.394117325544357300e-01
2.556765759327976895e-01,-1.725562138732793238e-02,-2.465841276365102197e-02,-1.599948034814142536e-02,-4.969899254358139430e-03,2.170031875074815778e-03,2.782506346702575684e-01
1.367454501594633220e-01,-1.737146540543418882e-02,5.317640540194318310e-05,5.349278981082208895e-02,-2.179474514094343132e-02,-2.177396792909185030e-02,1.811132133007049561e-01
1.883270829193580964e-01,-2.673733082751990342e-02,-1.952008188066789440e-02,1.953045246003273783e-02,-1.833956815780280955e-02,-1.567351643602959369e-03,2.165948301553726196e-01
2.584904458671415384e-01,-1.878791291934023278e-02,-3.559436803777783764e-02,-1.651751597751934669e-03,-3.341536081062516927e-03,-1.726296212793389457e-03,2.861405909061431885e-01
2.506112504265227692e-01,-1.552390741159705156e-02,-3.530744043842559687e-02,-1.008636177886700233e-05,-3.106063405997317416e-03,-1.594376518730601655e-03,2.766242325305938721e-01
2.699775566788675807e-01,-2.706529938973664673e-02,-3.080993886478870791e-02,-1.298660045884373433e-04,-5.677544247656431088e-05,1.987249457286081357e-03,2.989526689052581787e-01
2.694639420498546878e-01,-1.611548726227773898e-02,-2.173267520265359520e-02,-8.594521571163675749e-04,-7.091818797219504771e-05,1.267214620950556179e-03,2.884412705898284912e-01
2.598106447882089221e-01,-1.808958246944396275e-02,-3.572233233142436959e-02,-4.641497449257082127e-04,-3.352912240221315923e-03,-1.755398856878325484e-03,2.871989011764526367e-01
2.767398118687856012e-01,-6.101428016094256890e-04,-3.272945327507575941e-02,-3.655256992927678403e-03,2.420444896589232873e-04,-5.111920390505775985e-04,2.947947978973388672e-01
2.830587632703494005e-01,1.115592540666054955e-02,-3.987451621067189533e-02,-7.810670563219891270e-05,2.764790997411561372e-03,-6.224807471472455648e-04,3.007236123085021973e-01
2.856938530802086706e-01,-1.528307230620523649e-02,-3.552272776290607559e-02,1.709015918832705247e-02,-1.695072878763931139e-03,1.011861554728068786e-03,3.130117058753967285e-01
2.758344686144902358e-01,-1.950910043478508438e-02,-2.975663118336403790e-02,2.038267637626856987e-03,2.395513493447384238e-03,4.668987246626129443e-04,3.006488084793090820e-01
2.764415143936652663e-01,8.975862562941486211e-03,-3.289959634187350490e-02,1.196156824603084382e-02,2.692169426872041953e-03,3.096522911464246082e-03,2.914985716342926025e-01
2.922916455998738616e-01,-1.008444615525380672e-02,-3.119374658508972109e-02,2.273742443482823419e-03,-2.472464325134434739e-03,4.481442419363650988e-03,3.136143386363983154e-01
2.775200298277770150e-01,9.316570855051026223e-03,-3.707318435046341731e-02,5.156905725256811894e-03,5.297089174206069326e-03,1.472592228844417047e-04,2.944333851337432861e-01
2.685080434062674382e-01,-2.690534684012674260e-02,-2.249075131649592996e-02,-4.929256286191895618e-03,-1.216289365939834813e-03,-1.144286082023595165e-03,2.933695316314697266e-01
2.620740444594938934e-01,-2.065372489954350743e-02,-2.882192403574324047e-02,1.339156711747137339e-03,-1.519553825970187738e-03,5.109573600120646819e-04,2.869218885898590088e-01
2.805847346301354461e-01,-6.013456937097816368e-03,-3.217365018385243136e-02,-5.808781084687226690e-03,1.057694279474370811e-03,1.692835262292760005e-04,3.007075190544128418e-01
2.825568734503893786e-01,-1.837209590130906012e-02,-5.180582704123110060e-03,8.223832540382419731e-03,-3.993206633516924696e-03,-1.403121278768791093e-02,2.959795594215393066e-01
2.995912956451823317e-01,-2.657074715520602037e-02,-1.251009919739276555e-02,4.352532949600106116e-03,2.082294449990159443e-03,-1.829616065704205152e-02,3.210411369800567627e-01
2.635983903752847635e-01,-2.253899704416620353e-02,-3.189605822590650674e-02,1.635144162661923695e-03,-1.926016078986693501e-03,6.533360161381474799e-04,2.909639179706573486e-01
2.775918399344022847e-01,-2.716192815818538331e-02,1.628281509763643276e-03,4.654440653149042803e-04,-2.642199384274483351e-03,-1.341122634372268231e-02,2.923884093761444092e-01
2.710903491404986765e-01,-2.958670420357896458e-02,-2.514324034074473524e-02,-5.370142339265448475e-04,2.814925834100461249e-04,5.715559910432646638e-04,2.984836101531982422e-01
2.812384435349205569e-01,-3.191970570150848285e-02,6.212360321351084735e-03,1.757595056171492188e-03,3.022089515693421932e-03,-1.551445570446400961e-02,2.972195744514465332e-01
2.764483049648131519e-01,-8.177880206053131373e-03,-2.485802802637950004e-02,4.852340401913714241e-03,2.624193483003085803e-04,-4.299537136759440555e-03,2.935373783111572266e-01
2.916860537696943645e-01,-3.963971261354998221e-02,2.010674169604172168e-02,7.075189736794704198e-03,-4.984539122123714944e-02,-1.674679224100668676e-02,3.193682730197906494e-01
3.997806216462524431e-01,-4.651655203874452416e-02,-1.321593733431258855e-02,2.625149566182065700e-02,-5.553244105375860530e-03,-2.901377441644544669e-02,4.360200166702270508e-01
1.968785443594009144e-01,-2.019786009387111725e-02,-9.501899288316711933e-03,6.068546906396418174e-04,-2.380199733739773744e-03,1.389603772267281045e-03,2.119873166084289551e-01
2.997649027317861314e-01,-2.748003550860303457e-02,-2.433944319965601621e-02,6.662382100755210278e-03,1.049364656064539526e-02,-2.302911609003838178e-02,3.288250267505645752e-01
3.318473842774364302e-01,-1.381325565989446891e-02,-1.727490648109542004e-02,-9.148290918138853034e-03,5.974118455681593637e-03,-2.464644885954008977e-02,3.505285978317260742e-01
2.745554419214457642e-01,-1.861449000564026346e-02,-1.889231523177559158e-02,7.131407861717810152e-04,2.846274386897557161e-03,-1.572717952609908008e-03,2.933656275272369385e-01
1.862794399302916959e-01,-1.331052584640839143e-02,-1.760779717029804792e-02,-2.704655532191347495e-02,-1.132701723862572681e-02,-9.338455104723359930e-05,2.080667912960052490e-01
2.630917119611566046e-01,-2.593384345397410640e-02,-2.836267935492345349e-02,-8.459299317472707396e-04,5.815815702011194622e-04,-3.829664043229654650e-03,2.903288304805755615e-01
2.735143343555692663e-01,-7.177868326429456824e-03,-2.823355129040938660e-02,-9.604800860025436426e-03,-6.142110961449065432e-03,3.739148813798165005e-03,2.925294935703277588e-01
2.410293207790637771e-01,-1.451228903660628511e-02,-6.565852654878620576e-03,-5.547465925558564548e-02,-5.428440793751070081e-02,2.489735917051223713e-02,2.885591089725494385e-01
1.988888604862194820e-01,-2.801620495314778581e-02,3.704178403630006833e-03,-2.597840773443577805e-02,-6.789900533841096431e-02,3.753039693333697774e-02,2.556865811347961426e-01
2.737267019769107357e-01,-2.159509260510505957e-02,-1.732558516484024314e-02,-2.179051705187321723e-03,-3.062640088800530858e-05,-3.989823385072426725e-04,2.932354509830474854e-01
2.578845753340969216e-01,-3.670150302131013065e-02,-1.592134676185576192e-02,-2.010050538425699196e-03,4.272389829097311773e-04,-1.706516625974925422e-04,2.847876250743865967e-01
2.786108161990715204e-01,-2.525849116603752498e-02,-2.626183344851332202e-02,3.008670848066905511e-04,-4.229981944312009889e-05,-5.357640146550966776e-04,3.043740987777709961e-01
2.751013851724146142e-01,-2.297336883061860957e-02,-2.832213479232635611e-02,5.423610506737505839e-03,3.879973005531894489e-03,-6.079186009871944747e-05,3.010065257549285889e-01
2.141924907418788215e-01,-1.605381816968418085e-02,-2.231235696967273641e-02,-7.216485097595702267e-03,-9.791383081022250398e-03,-7.434711044881735578e-03,2.347407341003417969e-01
2.835507771444972236e-01,7.482482231199669154e-03,-3.492328047481244035e-02,7.281696706264124486e-05,9.446608078525109593e-04,-1.375352680821857743e-02,3.004812896251678467e-01
3.131021105626186629e-01,3.586961489868270569e-03,-3.995235721449955091e-02,2.105665819003076349e-03,2.645610101584845199e-03,-2.082075833700942208e-02,3.354194164276123047e-01
2.284035231542498046e-01,-2.228300578291450562e-02,-1.467622080589971179e-02,-7.177821755231236084e-03,-8.581359195153818661e-03,-6.843434281992020682e-03,2.480134218931198120e-01
2.935310530674042351e-01,1.496964530735064858e-02,-3.923252438760360672e-02,1.013215534293578773e-02,-1.751154048825087194e-03,-1.464917364027875334e-02,3.107956647872924805e-01
2.722012003215960596e-01,-1.903830789161865822e-02,-1.547973765880673869e-02,8.344442958375808276e-04,1.942178958154826014e-03,-7.385973143242273616e-04,2.895026206970214844e-01
2.792838643937717857e-01,3.241952128423292168e-03,-2.405773444772922598e-02,-2.609439117520086834e-03,-3.244020309815090052e-03,5.817265150972221986e-03,2.909188568592071533e-01
4.032440091364781209e-01,4.733822643675972275e-03,-4.642589543110911543e-02,-3.171278233670993957e-02,-1.369462109737424335e-03,-1.845209527812597880e-02,4.311142861843109131e-01
3.110938229881833328e-01,-8.768370739472369779e-03,-2.333385954810399121e-02,7.851779757741157717e-03,5.168785249710560782e-03,-1.603110624983651242e-02,3.289665877819061279e-01
2.753979793063070503e-01,-2.349052028900458500e-02,-1.306095562024353618e-02,6.140770496853830036e-03,2.340232576480041037e-03,-5.214937368632225657e-03,2.941716909408569336e-01
2.994529123389233494e-01,-8.144032558426314572e-03,-2.221802065241976210e-02,1.813572117106541318e-03,4.726499492018952815e-03,-1.606192258696079872e-02,3.162181377410888672e-01
2.701888977097373079e-01,-1.525076633293453998e-02,-1.234562201860750497e-02,2.104622251453655644e-03,-1.750620215408380139e-04,2.118508313540518051e-03,2.840454876422882080e-01
4.375204410762502105e-01,-1.793700887217991591e-02,-2.329667413946939769e-02,2.345659808521150316e-02,-5.277674993932044735e-04,2.845952641607822631e-02,4.625933766365051270e-01
3.063356299013186845e-01,-2.661499094047281577e-03,-1.930774547436853172e-02,-1.354256841227010136e-02,4.923559327419206860e-04,2.210495527998090903e-02,3.208064436912536621e-01
2.782387522737805874e-01,-3.942936153818352163e-02,1.480189825002053983e-02,-6.714158028693793454e-04,1.813055658197072414e-03,4.465004929758068127e-03,2.944444715976715088e-01
2.840536117339038658e-01,-3.813583646601262367e-02,2.279841671994872754e-02,-2.089731004247898528e-03,-5.038352287514173342e-03,8.111063963604187715e-03,2.969398498535156250e-01
2.717988140455261381e-01,-2.434189924989298148e-02,-2.887739767216673803e-02,-5.379723717834854592e-04,1.756855855134960981e-03,-2.396226986360358406e-03,2.984801232814788818e-01
2.856290269118650915e-01,-4.206923761732803135e-02,2.191335441033338827e-02,4.233932328291074160e-03,2.397966114960224139e-03,-4.292774056900904196e-03,3.010635375976562500e-01
2.886958380447657291e-01,-4.200767259047730184e-02,1.708702546915953635e-02,4.186067322023237849e-03,9.010455747088464556e-03,-3.755745731989692388e-03,3.060271739959716797e-01
2.590863278944948722e-01,-1.778776930894444830e-02,-3.650281114249924463e-02,-1.634548376542701632e-04,-4.871560421375709755e-04,1.596357355151230110e-03,2.867048382759094238e-01
3.005801485782873539e-01,-4.647413080546713982e-02,1.472649632386079099e-02,-2.131332936465438720e-03,6.213822101782237942e-03,-6.855159214795470031e-03,3.212828934192657471e-01
2.763636183482205411e-01,-2.375994126956575137e-02,-2.439572529166054993e-02,3.047470368698666256e-03,1.654922911384647298e-03,-3.339889963966860401e-04,3.005025386810302734e-01
2.655998532073087226e-01,-2.077464154748974445e-02,-3.250789992537773954e-02,2.245268929950966410e-03,1.402158434689784305e-03,3.409992663144052836e-03,2.925133109092712402e-01
2.772004882653168467e-01,6.651827708808732975e-03,-2.999533755937242030e-02,3.369185980357207542e-03,6.112581799320345984e-04,-2.678302995761878361e-03,2.907079756259918213e-01
2.602914734458569024e-01,-2.082579297838826893e-02,-3.095691581801345016e-02,-3.393442954455300805e-03,7.292933452936535207e-03,3.158493944235860572e-03,2.867082655429840088e-01
2.651769686596289199e-01,-2.341019787710138522e-02,-3.056250099360825756e-02,-2.400566636008187333e-03,6.423191552765170412e-03,4.059240884705817703e-03,2.925547063350677490e-01
2.794985442458134406e-01,-1.590083707992069606e-02,-2.558257790753432070e-02,-2.601060700504624667e-04,-2.013523159432578820e-03,4.287904883957050287e-03,3.004696965217590332e-01
2.691363109647977314e-01,-1.287577346211903062e-02,-1.340399422560573095e-02,-7.421597359985299374e-05,1.922032956621845166e-04,3.558620410868181677e-04,2.822774648666381836e-01
2.720639933976836122e-01,-2.423919187193389335e-02,-3.221427477072277834e-02,3.490315393883055314e-04,3.500555424072752421e-03,8.118674668059561650e-04,3.004352152347564697e-01
2.656035833165277804e-01,-2.437258469491421220e-02,-3.021466809766561179e-02,-8.929607594679291537e-05,1.378392341962075178e-03,3.151599407939127077e-03,2.930015325546264648e-01
2.488619471005194261e-01,-3.186587130991240524e-02,-1.588940860954250744e-02,7.509855716696209500e-04,4.929516391954930207e-04,1.998084002887244495e-03,2.731166779994964600e-01
2.727223280799256910e-01,-2.382090142512843789e-02,-2.945273968792422314e-02,-1.319446234916641205e-03,-7.150528260322063781e-04,-1.034803550176362089e-03,2.994155287742614746e-01
2.647664879075521949e-01,-2.500843844833267049e-02,-2.884879858986655332e-02,-1.857788447722456739e-03,2.325772680983083981e-03,2.916009609695199498e-03,2.918033301830291748e-01
2.608226868585343250e-01,-2.044356283526195528e-02,-3.261476694666248788e-02,1.533615318894829922e-03,7.968428724374729310e-04,3.589391490002954380e-03,2.876278758049011230e-01
2.585646983382107189e-01,-2.178797468792911807e-02,-3.026910637611809896e-02,2.056461931565077724e-04,-1.119760689959790282e-04,3.891355251410225959e-03,2.847680747509002686e-01
3.002623013562057408e-01,-2.743352096227313908e-02,-2.575546148632497367e-02,-1.606623101593401479e-02,6.144177356867924766e-02,-3.292029538274707928e-02,3.495545089244842529e-01
2.602314801979350722e-01,-2.879932102497073654e-02,-2.450425339601774999e-02,8.257907924762180772e-04,1.133506394253641723e-03,-4.588529524770185684e-03,2.870277166366577148e-01
2.479256493213389534e-01,-2.487824514606977455e-02,-8.853573267730702190e-04,-3.065502257063879715e-02,2.828426806451139058e-02,-2.069693588428094325e-02,2.737819254398345947e-01
2.711484447174938861e-01,-2.681309268307863203e-02,-2.957756096688979319e-02,3.666972811596349376e-04,-3.694794121840757478e-04,5.206044024582540380e-04,2.993560731410980225e-01
2.582439067587692372e-01,-1.922556185655430183e-02,-3.041063137185638643e-02,9.334183636324293841e-04,6.818940161112270991e-04,5.364420080492906563e-03,2.833871245384216309e-01
2.650433941610007560e-01,-2.633531861286241005e-02,-2.839061760695289760e-02,1.237141187411784204e-03,-6.400782657203914162e-04,3.690731032950657440e-03,2.924915850162506104e-01
2.764794534466035736e-01,-2.481679427938644766e-02,-7.546278453137739151e-03,-1.925871486071105768e-02,1.726989557259521815e-02,-2.152283689375624615e-02,2.987830340862274170e-01
2.373727680462811573e-01,-1.955909336206676508e-02,-2.984046051629418717e-02,-2.862599908399433325e-03,6.201573301083585302e-03,3.713257471390331039e-03,2.625692784786224365e-01
2.417473002894617029e-01,-2.176368635461295442e-02,-2.765185586370867699e-02,-1.818707791695826567e-02,3.642721958645714353e-02,-2.152228960483731565e-03,2.757015526294708252e-01
2.819648132212686509e-01,-3.422917853347232087e-02,-1.260063559049133530e-02,1.124164146809190218e-03,-6.062419347511987383e-03,-6.983586749850583496e-03,3.063788115978240967e-01
3.028423576240021342e-01,-2.810863737011637387e-02,-2.690821032646359412e-02,-5.557051998890403903e-03,2.077942567648680475e-02,-6.578042439447730899e-03,3.326417505741119385e-01
2.696305637788944387e-01,-2.396717586162834535e-02,-2.456457736928706337e-02,-1.112853510473783706e-03,3.794500680904395714e-04,-1.199525994521029255e-04,2.939040362834930420e-01
2.694822324238623779e-01,-2.685734005307265082e-02,-2.722084377887502848e-02,7.953123528616840498e-05,6.611669515056544646e-04,-1.682881976204821247e-04,2.965238690376281738e-01
2.653825540259663329e-01,-2.369097416400074707e-02,-1.732828554719184622e-02,1.037650145832950819e-04,8.981594127418124525e-04,3.254221918909672704e-04,2.859501242637634277e-01
2.504776449563574925e-01,-2.513535004230166292e-02,-2.413725604340047348e-02,7.059693206317247055e-04,7.870866920179065123e-04,-6.095027967384666553e-03,2.753238677978515625e-01
2.696952882816242569e-01,-2.464567335743707288e-02,-2.471086994326317232e-02,9.526805062398269880e-04,4.919023771962223977e-04,1.297891930330766111e-04,2.943795025348663330e-01
2.697321971594301981e-01,-2.615491979014361590e-02,-2.678466780389351931e-02,-5.818282780198149439e-06,-6.941181097350011125e-04,-1.329760575576249349e-03,2.962138950824737549e-01
2.293544195304858535e-01,-1.279980573637862218e-02,-2.648461524216724761e-02,5.917538220040019156e-03,-6.782405605022787977e-03,3.972404891366146384e-03,2.498603016138076782e-01
2.732562465493458270e-01,-2.225138194316890472e-02,-1.526987369211375845e-02,-7.389403964242191852e-04,3.348034421652789673e-03,-4.746090845450926833e-03,2.922554612159729004e-01
2.644124949224380128e-01,-2.347577076126136641e-02,-2.877112633827887123e-02,1.128645328610052316e-03,-6.186483923566462673e-04,-3.950889023028240736e-03,2.906612455844879150e-01
2.761007817078588444e-01,-2.773320292312897450e-02,-4.231405628443388189e-03,4.273518586117099755e-03,-1.128179044319865820e-02,-7.898570579434783731e-03,2.938546836376190186e-01
2.777684619921335640e-01,-2.072918925826761072e-02,-9.204765117862834245e-03,6.093064482332778567e-04,-3.136861144297949360e-04,-5.821510335206984792e-03,2.930814325809478760e-01
2.834174099813128178e-01,1.158597627372014160e-02,-3.063524205683212931e-02,-8.583249610967753213e-03,-3.258716282599930479e-03,1.329043067163469989e-02,2.965380251407623291e-01
1.901026399711922832e-01,-4.310428898128974839e-02,-1.869496078475658962e-02,5.070080272098440033e-02,-3.946163204306679662e-02,-3.590542791454930799e-02,2.560074925422668457e-01
2.722831830033038969e-01,-1.908561329009782204e-02,-8.330871749684692906e-03,2.091004992024682492e-03,-6.110450744133390450e-04,-4.581757856445398645e-03,2.862779498100280762e-01
2.788316346026205039e-01,-2.155611483752088720e-02,-9.065516089788075438e-03,2.081506141144394244e-03,1.150451861443698093e-03,-1.024179192875324107e-02,2.949041128158569336e-01
2.781991215040935939e-01,-1.694091635098611548e-02,-1.260035504999032496e-02,-2.465765162645910166e-03,1.451328447659137617e-03,-7.932698504746728968e-03,2.933577299118041992e-01
2.965655656112334837e-01,-2.259103008840884774e-02,-8.340267604445783522e-03,1.143362668482542739e-03,1.258200368134828467e-02,-2.889725615787758911e-02,3.170170187950134277e-01
1.864684796287476853e-01,-9.001635802524152186e-03,-5.350073904988196516e-02,6.628377312868226345e-02,1.102800389758446832e-02,-2.214781914280634922e-02,2.527924478054046631e-01
2.636845569258293720e-01,-3.368332435477094933e-02,-1.786832655062013664e-02,-3.685725198702724352e-04,-4.287283317733590763e-04,-1.646619012310164814e-03,2.897999286651611328e-01
2.591736352537528099e-01,-3.637846055463078709e-02,-1.672028200924424723e-02,-2.540913105147565246e-03,8.712327713217584129e-04,-1.004562590896883366e-03,2.862728536128997803e-01
2.590224784472549002e-01,-1.614450763246207121e-02,-3.660003799478205033e-02,8.313088345917753587e-04,3.312513338766914581e-09,4.298447320451651271e-04,2.859486341476440430e-01
2.681503163188180272e-01,-2.372055841396975007e-02,-3.148534794931871772e-02,-3.007584394326225829e-05,-1.219102804560110115e-04,1.749077437890361048e-03,2.958452999591827393e-01
2.713842271106128301e-01,-2.581258862259112885e-02,-2.801785865703745881e-02,-4.552526521823627593e-04,9.001203879632254778e-04,1.436993202201649429e-03,2.983210682868957520e-01
2.706688354546441522e-01,-2.495602107216737808e-02,-2.984880251170983489e-02,6.083190523827053386e-05,-5.731261683691371827e-04,6.102444169928012037e-04,2.981049120426177979e-01
2.786640209101333698e-01,-2.754780801407891166e-02,-2.751774649011461127e-02,-5.563755857811887584e-04,-7.307149539691488310e-04,-9.037816520661099686e-04,3.062049448490142822e-01
1.972241763838732675e-01,-6.173733884044088627e-03,-1.517697710497586949e-02,-7.838007277847350079e-04,-8.699393958781207782e-04,7.070881095448762390e-04,2.080591768026351929e-01
2.725178178628432368e-01,-2.226254403954835981e-02,-3.163654473613122797e-02,1.120346664406534493e-03,8.545390612451366462e-04,-7.603532098923362209e-04,2.995902001857757568e-01
2.717111353239770599e-01,-2.113477863147936175e-02,-6.041360744674942329e-03,-2.362849190789624750e-03,1.576965398335711905e-03,2.416160724283377293e-03,2.856715321540832520e-01
2.707169184781994531e-01,-2.631885505611412934e-02,-2.967255830684274731e-02,-1.652052236741868667e-04,-1.919474741987025322e-04,1.163739125131016882e-03,2.987338602542877197e-01
3.110746165666064544e-01,1.554278125029315283e-02,-7.252282178600122364e-02,4.594295252044794386e-02,6.656015941954889457e-03,-1.241300000810289378e-02,3.578382730484008789e-01
2.458394358998390039e-01,-2.727962806001621443e-02,-2.241452722728186353e-02,-3.792418322943218699e-03,-7.164139448886287440e-03,-5.842649219359967797e-03,2.712719440460205078e-01
2.691724937303420773e-01,-2.637049006343875068e-02,-2.424189196887854836e-02,-4.359583503680683958e-04,3.987593682181990906e-04,2.016083570449211471e-04,2.944864332675933838e-01
2.679960580151229399e-01,-2.494623724846693757e-02,-3.071843465419617225e-02,1.203622216308825998e-03,-1.152325098969558511e-03,1.365773991628228996e-03,2.958941459655761719e-01
2.631114928135780962e-01,-2.031810702259427559e-02,-3.107110358152768981e-02,2.436202869914820459e-03,-1.499374004500840605e-03,3.447868390459144384e-03,2.890603542327880859e-01
2.717006642956987794e-01,-1.641616183138841500e-02,-1.962849471233868437e-02,-2.758113838429507975e-04,8.493770199992993182e-04,-2.702782851204088913e-03,2.897782921791076660e-01
2.566205626898081515e-01,-2.008314183046254475e-02,-3.348537648313515414e-02,1.113841212434530867e-03,-3.965088872394282975e-03,2.030173469318212031e-03,2.837538719177246094e-01
2.793179700761239670e-01,-2.506532207653765221e-02,-3.355446279632789963e-02,-1.399616735571118306e-02,1.415751757418191176e-02,-2.560675264791434976e-03,3.106667995452880859e-01
2.711721431307076435e-01,-2.784451565381738936e-02,-2.872388942409438706e-02,3.949603098163666530e-04,-3.922095820297106942e-04,4.217074324125636071e-04,2.994597554206848145e-01
2.545170985626242777e-01,-3.674697868508246257e-02,-1.579715329848352390e-02,-2.110457384740937613e-05,1.648707187263931645e-04,-3.603050500431012279e-04,2.813755571842193604e-01
2.636258860435873874e-01,-2.333130160719375235e-02,-2.861178900275787584e-02,1.679151995310616515e-03,-3.643404739041243828e-04,2.070222668843600764e-03,2.896710336208343506e-01
2.608198149348902595e-01,-2.233661775701678565e-02,-3.057864106883538546e-02,1.269823338445595661e-04,-2.443695257518997514e-03,2.873400259770405186e-03,2.874404489994049072e-01
2.730517511011454346e-01,-9.574149381541399717e-03,-2.784839013763855398e-02,-1.964213895694106476e-04,2.970081854135772376e-03,-2.621775216671924993e-03,2.922726869583129883e-01
3.006828522102981127e-01,-2.057778561019538155e-02,-3.665287058801464104e-02,5.019973618999030475e-03,-2.900133378596149274e-03,-1.431835408229747801e-02,3.306765556335449219e-01
2.658368328106611722e-01,-2.426814206755444070e-02,-3.153719449480127390e-02,-1.818616221142416774e-03,3.425002027653435005e-03,2.861421911899726146e-03,2.939254939556121826e-01
2.755781180725254687e-01,-1.115314867616896966e-02,-2.779753016052026460e-02,1.863865870331849958e-02,5.108473695960345871e-04,-2.897918097531101880e-03,2.972078323364257812e-01
2.969190368036646044e-01,-1.687775784813734525e-02,-2.821111847246349225e-02,7.738106088432134683e-03,-1.780362290792714087e-04,-8.042468671494679838e-03,3.201984167098999023e-01
2.703102639008174712e-01,-2.073599023033996513e-02,-3.106856774898572593e-02,1.178183112372883749e-03,3.800937213115976147e-03,5.088365031140221553e-04,2.964291274547576904e-01
2.736359227466474420e-01,-2.442678120511547479e-02,-2.134091719768066442e-02,4.844310797953101273e-04,1.945468222185451571e-03,-8.999528798582314987e-04,2.965562343597412109e-01
1.846241044797136965e-01,-1.187511543149057103e-02,-1.212940314210569914e-03,-1.155203637412458365e-03,6.205013482239066062e-04,2.103181591968985523e-03,1.914391368627548218e-01
2.723140969956908686e-01,-1.249622516632135916e-02,-2.462797005001050865e-02,-2.340452030198057407e-03,1.704733719935504817e-03,-1.515927244740559662e-03,2.911209166049957275e-01
2.719145091071418774e-01,-2.812954276556525746e-02,-2.636822654450031445e-02,1.137696050464958165e-04,7.062030095896810198e-04,6.542733280847962303e-05,2.991698682308197021e-01
2.720836892073216218e-01,-2.583115471076415093e-02,-2.295080614771097260e-02,9.995852422553309403e-05,1.144737504286738941e-03,-3.774581845811686583e-04,2.964925765991210938e-01
2.723880810550852183e-01,-2.828328673780838853e-02,-2.543806618839590528e-02,1.077251464083051925e-03,3.608444618036247219e-04,1.089737220162151658e-03,2.992713153362274170e-01
2.726571661030336990e-01,-1.315343493873201430e-02,-2.068412927689378122e-02,1.192129277145424987e-03,-4.612598298114964227e-04,-9.911447267193539742e-04,2.896629273891448975e-01
2.729137421256740970e-01,-1.730255920794991631e-02,-2.197497247997452774e-02,2.159890081912085435e-03,-4.766366871976472110e-04,2.628472078630318264e-04,2.926059365272521973e-01
2.678805110757984664e-01,-2.774997382633129228e-02,-2.714051210978825346e-02,5.493261782385459304e-04,-3.382461127285360330e-04,1.710918711912270962e-03,2.953432202339172363e-01
2.719678724270204739e-01,-1.736406316003853700e-02,-1.814276750917977188e-02,5.987365964002453736e-04,1.290300744454475363e-03,-1.359569326210590149e-03,2.897421121597290039e-01
2.820468969340568233e-01,1.669998260968118264e-02,-3.930419266142579082e-02,-7.875409519151658176e-04,2.062497765865704564e-03,-1.570062659929365059e-04,2.973561584949493408e-01
2.724690356435252037e-01,-1.969096243932989820e-02,-2.197934554590028067e-02,7.357774321755067119e-04,-8.581047890275522207e-04,-5.501144247726887080e-06,2.933174073696136475e-01
2.628319306854448589e-01,-2.856409738476313465e-02,-2.212273054924593363e-02,-1.049654783504496650e-03,-2.008025953715628694e-03,-7.451916810605844219e-04,2.882589399814605713e-01
2.665573413480906151e-01,-1.812837752235814393e-02,-2.370015216928957058e-02,8.498021943936621709e-04,1.298993853527347997e-03,4.179534360686815858e-04,2.875255942344665527e-01
2.677311788895372358e-01,-3.157944979185681178e-02,3.019196657559286567e-03,3.237903952654123865e-03,1.813900123635052083e-02,1.436475559476075615e-02,2.864711880683898926e-01
2.673223186611284330e-01,-1.895312089600907635e-02,-2.315336106019594276e-02,1.755861854510334941e-03,-2.239044154738206987e-03,1.644315679632445517e-03,2.884546816349029541e-01
2.698047102261159624e-01,-1.995037526866980104e-02,-2.379240773740068371e-02,7.970298224496257531e-04,-1.808214100960026029e-04,-8.255661035475120530e-04,2.917020320892333984e-01
2.638764141326910284e-01,-2.725547768514781366e-02,-2.171782017335471826e-02,-2.469920492453756499e-04,1.016571886402360198e-04,-7.657374590246382364e-04,2.884063720703125000e-01
2.712888097390816489e-01,-2.555543608479247941e-02,-3.063137619226498354e-02,4.450625477115639035e-04,9.570697416225661548e-04,7.397589551362539163e-04,2.994228005409240723e-01
7.216383754479163692e-02,5.496938192712817750e-03,1.670008995033441662e-03,4.784220750211001794e-02,-8.047648735878604924e-04,1.018010429253933015e-02,1.090583652257919312e-01
1.152423157134882109e-01,-1.636147810386845425e-04,6.602340721061521200e-03,-8.593146329607311354e-03,8.863372265819255066e-03,2.312496696477467535e-03,1.142660155892372131e-01
1.273339057671110386e-01,1.349960426938100200e-03,6.548504071308830499e-04,8.565360896221242346e-03,1.649195631052685629e-02,-3.117107287298308445e-03,1.304806917905807495e-01
1.456816809858615391e-01,2.791239831176683950e-03,-2.732367901905431717e-03,5.792542818153152348e-03,1.197382294170757505e-02,-8.792974485756110308e-04,1.475484818220138550e-01
2.692783527088626894e-01,-2.709437588490255788e-02,-2.844391500318731170e-02,-7.792579856755791582e-05,-2.000926483237478988e-04,-9.469577610017579274e-04,2.970545589923858643e-01
2.695371836965942958e-01,-2.646155956366470774e-02,-2.762440373280591888e-02,-8.160693999791031111e-04,-3.421739874185472820e-05,-1.056890178263227096e-03,2.965908944606781006e-01
2.694370085483901445e-01,-2.815206838469219708e-02,-2.752366795343604011e-02,-4.634604294910677760e-04,-4.107456182498928077e-04,-6.900572943835400026e-04,2.972797155380249023e-01
2.863857843331130137e-01,-5.522875784563027746e-02,-4.895762930341815422e-03,4.799368389146448088e-02,-6.783385961710793055e-02,-3.572015364845972096e-02,3.557831943035125732e-01
2.686823587718557560e-01,-2.844798702771296484e-02,-2.745896288835110444e-02,1.735200750067581073e-04,-3.747490245262063285e-04,-7.355711120272295832e-04,2.966406643390655518e-01
2.656788008360617681e-01,-2.044957418102663627e-02,-3.373551248613795850e-02,8.093633023421578296e-04,-2.591173635233673931e-04,-1.560552702712778798e-03,2.930135130882263184e-01
2.707952201122044156e-01,-2.256072996360940219e-02,-3.235567050642093601e-02,9.606989528640318826e-04,8.364645951162225567e-04,-9.182131361003016820e-04,2.983864247798919678e-01
2.651326314586633925e-01,-2.080544744270497459e-02,-3.111543227786479904e-02,-8.330315691429580503e-04,3.955352743898909139e-03,-2.537614642407950722e-03,2.913472652435302734e-01
2.706511990732617390e-01,-2.293089268298462158e-02,-3.088932486425594037e-02,5.833454084427059597e-04,-1.097425955798153857e-04,-1.522963327105662876e-03,2.976545691490173340e-01
2.686986379202810360e-01,-2.711384549921638798e-02,-2.631763613691150139e-02,6.298597659351990287e-04,1.108374497573690011e-03,9.301152512221453218e-04,2.954278290271759033e-01
2.581868330288104585e-01,-3.357974389990173170e-02,-1.738161888860051407e-02,5.433879313356433649e-03,5.106632485253128370e-05,-7.045840547243316897e-04,2.841726839542388916e-01
2.435049835781956384e-01,-2.854586350375416803e-02,-1.672418176902044917e-02,-5.732314494793161810e-03,4.470058726854184974e-04,5.431464995629154205e-03,2.666889429092407227e-01
2.715062396333084438e-01,-2.214316459184205443e-02,-2.536314536328357350e-02,-3.370464995157288813e-04,-1.915035971140065002e-04,-5.105732232544821269e-04,2.952746450901031494e-01
2.666494108959024945e-01,-2.255793067528594209e-02,-3.318720209337823468e-02,6.268419201041664120e-04,2.807706760328358280e-05,8.111731342700734607e-04,2.946711480617523193e-01
2.726315092356113023e-01,-2.564893408918639262e-02,-2.860579631484998220e-02,5.776801454260368932e-04,7.647357281044408909e-04,1.347489050365118218e-03,2.997834980487823486e-01
2.723408783923501053e-01,-2.398311164733221701e-02,-2.579816469121602729e-02,1.150442459269366679e-03,-4.703070624185618371e-05,7.083744560590316897e-05,2.972424030303955078e-01
2.750105159299559565e-01,-6.960156727507590957e-03,-1.954776266363146553e-02,1.388319014770500416e-03,1.561752685889531821e-03,-7.316842362477114781e-03,2.887714505195617676e-01
2.336315665303717592e-01,-1.687094685811457717e-02,-2.927216686599801165e-02,-5.694408239552945818e-03,1.572545392608222861e-02,3.960199392939886542e-03,2.586465477943420410e-01
2.707129067588951443e-01,-1.286653401233930905e-02,-1.532508546827651696e-02,5.331094478823538525e-04,7.640988675865019366e-04,-2.740290953451686353e-03,2.848607897758483887e-01
2.729803425255886151e-01,-8.297594963650428701e-03,-1.792662503555930709e-02,-8.695094814121281240e-04,1.135383744061286117e-03,-4.375109175123611215e-03,2.863249778747558594e-01
2.744051344685503047e-01,-2.039931845702680491e-02,-1.707047628690801233e-02,1.645560567238684964e-03,1.748297558890589409e-03,-5.339578911911974091e-03,2.933295369148254395e-01
2.930349399071859873e-01,3.589705677035884279e-03,-3.581889419880290859e-02,3.303843571071084836e-03,-2.553773841213092307e-03,-2.223101767048320243e-02,3.134855329990386963e-01
2.661395188187636873e-01,-3.155143385713385373e-02,-2.043619737615669230e-02,-1.077361242533758580e-04,9.674219548570467224e-04,-8.314133373995769493e-04,2.923002839088439941e-01
2.816722171953918163e-01,1.102002389284192918e-02,-3.570295429759032246e-02,6.640627287017028708e-03,-6.810060121403815545e-03,-1.754476318018113185e-02,2.987912297248840332e-01
2.814857830232445624e-01,4.172404432457865742e-03,-2.950332740415667621e-02,2.171720764690036800e-03,1.807725746585822722e-03,-5.208856072684958302e-03,2.957715988159179688e-01
2.873826124483186417e-01,1.097187245626100871e-02,-4.064215676116886278e-02,2.860860906133129693e-03,1.467414083860664074e-03,-3.688778540684499539e-03,3.056229948997497559e-01
2.869933517742235818e-01,3.831656872698110949e-03,-3.687056232178381743e-02,-1.110219262623764018e-02,3.867450321001978178e-03,-1.481943086967444506e-02,3.073044419288635254e-01
2.875510706818179552e-01,1.715370928596450517e-02,-4.052635766771389703e-02,-1.175944363301521453e-02,3.418234340930115765e-03,-5.650415642947622004e-03,3.042761087417602539e-01
2.531175847663045264e-01,-1.669734263977204480e-02,-3.290905557218909427e-02,-2.180600431203946884e-04,-8.792470935564926309e-06,8.214576090703587562e-04,2.782790660858154297e-01
2.088610601563563873e-01,-2.277278923348537154e-02,-9.536996244841791648e-03,-1.271651333032680631e-02,-4.320900461011776411e-03,-1.803818840531030846e-03,2.265269756317138672e-01
2.783668068470864787e-01,-2.665093303810922576e-02,-2.685417197075642970e-02,-4.586755403383830547e-04,-3.746559528345943710e-04,-1.611591041008557227e-04,3.051212728023529053e-01
2.777000212683482516e-01,-2.697787910509941156e-02,-2.582386748870468818e-02,-2.128946469489830851e-04,9.437135260699403992e-05,-8.118354101071948489e-04,3.041060566902160645e-01
1.305565924364887609e-01,3.029992864118168094e-03,6.698848541211999130e-04,-1.589942234480361347e-03,-2.456187768094087592e-02,-2.099385000778171851e-03,1.356475055217742920e-01
2.527194880465785665e-01,-1.303113293108093540e-02,-3.355768596865518760e-02,-1.221728359743977496e-03,1.149306055508712322e-04,2.510616453787744597e-03,2.766281068325042725e-01
1.383576531314509028e-01,1.926858320928398483e-03,-7.724107287299372682e-03,-8.882135318050446426e-03,-2.151731867370716006e-02,-4.086917737401528535e-03,1.473056823015213013e-01
2.627244318089642094e-01,-1.836072659109873328e-02,-3.388015626813153935e-02,-3.351445154520544677e-04,1.794564295667724907e-04,-4.557046829791188162e-04,2.891592383384704590e-01
1.660489372181802592e-01,-2.055172135944569045e-04,-9.565552912338334823e-03,-5.733911235582005682e-03,-1.648852747327895357e-02,-3.316328001809947489e-03,1.738722026348114014e-01
1.635624415232722895e-01,-1.028406963390970930e-02,-4.309307244298871131e-03,-1.757729703830238077e-02,-7.539872530126671274e-03,-7.331783098781111466e-03,1.745803952217102051e-01
1.879436164819559274e-01,-1.310216835326204199e-02,-1.230048030319264019e-02,-9.565556954880080620e-03,-9.583627915168950115e-03,-6.448560920184416394e-03,2.023206949234008789e-01
3.199181864370161388e-01,-1.850547990172590751e-03,-2.034319650845123340e-02,-1.407649098179537123e-02,3.145823074720057464e-04,3.490135812423649647e-02,3.377521336078643799e-01
2.547169978831289594e-01,-1.995820067108124152e-02,-3.033883459548647465e-02,1.233395840107874520e-03,2.419330320914285515e-03,3.201068672040415560e-03,2.801042497158050537e-01
2.652688531079444578e-01,-1.865167384363303205e-02,-3.504971959144194404e-02,7.380764318092776239e-04,1.908790890850195314e-03,7.992754739401895098e-04,2.924892902374267578e-01
2.632304225465241787e-01,-1.888865445884792271e-02,-3.623935634133326755e-02,1.617671893549089751e-04,-6.905428051885876151e-04,9.387725670375938981e-04,2.911895215511322021e-01
2.667951658274718696e-01,-2.082128348799922035e-02,-3.360740008745016771e-02,-7.209419713921406969e-05,8.562250379771365813e-04,1.332924662031810320e-03,2.942307889461517334e-01
2.702352852232726144e-01,-2.784150097655942180e-02,-2.652885483909321607e-02,1.650482703846537468e-03,7.745868325092887877e-04,4.845209533652426563e-04,2.974405884742736816e-01
2.648020460274447818e-01,-2.061176726964704387e-02,-3.298567546942968165e-02,5.928422163963937511e-04,-2.343423291566270445e-04,5.220633929587903095e-04,2.918010950088500977e-01
2.557331209776392278e-01,-1.990171818128935732e-02,-3.043762177105654998e-02,2.026628567270336977e-03,-3.044297482396465717e-03,3.486818979862175809e-03,2.811871767044067383e-01
2.685154217501252161e-01,-2.508818339737964309e-02,-2.789826540024459289e-02,3.596737516201824365e-03,-1.672773692041864364e-03,1.360636521476734110e-03,2.951080799102783203e-01
2.667423705733384942e-01,-2.395774907885155069e-02,-2.631600786952664750e-02,2.085264909295453037e-03,1.852709407620901569e-03,-4.649691104817252086e-05,2.919263839721679688e-01
2.679650191563147654e-01,-2.350080257228838454e-02,-2.538904226369748107e-02,8.993665561984308127e-04,5.233203232366337183e-04,8.860734469541710736e-04,2.924240827560424805e-01
2.687479831337792335e-01,-2.120805413652861182e-02,-3.201085373065491735e-02,-8.552435176742282427e-04,-1.522207853121878673e-04,-6.940615539048109557e-04,2.955118417739868164e-01
2.623599883275443689e-01,-2.056288244896585515e-02,-2.882963435791167928e-02,-7.086198178507264458e-04,-3.571396878709162843e-04,-3.287320264173365300e-03,2.872052490711212158e-01
2.609756568285098166e-01,-3.236309215443583520e-02,-2.209916719180503308e-02,4.386736824873451249e-03,5.670037853157031517e-05,2.945292880831300222e-03,2.884890437126159668e-01
2.761291594870208810e-01,-2.359293222769295872e-02,-2.607572982674533080e-02,-8.722032617708094532e-04,6.261817047073872395e-04,-6.429867001515142530e-04,3.009789884090423584e-01
2.582853606918588119e-01,-1.863575920334327451e-02,-2.883227486533504469e-02,2.022884405841126297e-03,-3.202078946089382313e-03,-3.584944131905862925e-04,2.822345197200775146e-01
2.269806561046272264e-01,-1.517479108378902430e-02,-2.634773905122043958e-02,4.245398858155923112e-03,-1.688647925810806555e-02,2.507566434015442644e-03,2.497960776090621948e-01
2.779247074684498831e-01,-2.624229564019818495e-02,-2.650230700566998110e-02,-2.452854237128457141e-04,-7.382994367030466494e-04,-3.236708891136398322e-04,3.043006062507629395e-01
2.588958579403028981e-01,-2.118296966601530829e-02,-2.857022564509463514e-02,1.151921111486654955e-03,-3.445644579743460147e-03,5.151130463966849824e-04,2.839156985282897949e-01
2.566571513620310441e-01,-2.656899059432984989e-02,-2.349114284453540646e-02,2.331223487758232737e-02,-2.598513079898686837e-02,-1.007873824186692477e-03,2.881213426589965820e-01
1.793842189702971046e-01,-1.897886192868068755e-02,3.484908669063320474e-03,1.912536455066083871e-02,-5.929666285316270713e-02,-1.665964585040408119e-02,2.188031077384948730e-01
2.249346457671054789e-01,-2.082837472661200340e-02,-2.280219112067920217e-02,3.180173829404929486e-02,-3.147369583739505899e-02,1.852724995766544779e-03,2.586591839790344238e-01
2.420676912972596073e-01,-1.759032810893487730e-02,-2.666490347100228253e-02,1.248645772119887434e-02,-2.070667540422739886e-02,1.995563612282539451e-03,2.676320374011993408e-01
2.711362771095173763e-01,-2.043926502816552360e-02,-3.446874285671769345e-02,1.190615471155227582e-04,3.596526069104376798e-03,-1.638423071382443539e-03,2.989158332347869873e-01
3.416579832016768958e-01,3.328001434011837456e-03,-2.834692913228031852e-02,1.136011626877675082e-02,2.751939447753592310e-02,2.886942951338160313e-02,3.624175786972045898e-01
2.855027682226519703e-01,-2.774064688078169139e-02,-2.309497094105646131e-02,1.804701250812712141e-02,-2.157551060575434165e-02,-8.342000019058279717e-03,3.150716722011566162e-01
2.421313100324653522e-01,-1.477989919782500550e-02,-2.908649985832829910e-02,1.360056137660316765e-02,-2.080638267154292717e-02,5.208013321399691635e-03,2.679899036884307861e-01
2.722042117903463732e-01,-1.750574332552246037e-02,-1.563903508115556396e-02,-7.458727234904455761e-04,1.066469310440202852e-03,-4.198459137965754795e-04,2.887908518314361572e-01
2.710110313547245964e-01,-1.306120958502525464e-02,-1.442950456686613314e-02,3.076234310657090937e-04,6.292334861629078754e-04,-2.657745306477983169e-03,2.847986519336700439e-01
2.711779762178552211e-01,-1.437638115660204441e-02,-1.506884906858407813e-02,-3.708548122746271278e-05,1.860281161193098616e-04,-3.894910928160993718e-04,2.859022021293640137e-01
2.785255692987645970e-01,-2.635444173954429314e-02,-2.512756502139161519e-02,-2.740202493354279372e-04,4.412652879236671514e-04,-3.721877469499163134e-04,3.042704463005065918e-01
2.727395688792342843e-01,-1.857819057645562766e-02,-1.066253246726600601e-02,7.203415890909040890e-04,5.032611727892704863e-04,-8.401763127612418055e-04,2.874493896961212158e-01
2.621151913245588494e-01,-3.614982322622263544e-02,-1.856034263749598012e-02,-6.264121678045173709e-04,-4.426809791168021587e-04,1.453780178227206867e-03,2.898847758769989014e-01
2.665580164813247110e-01,-3.302877705197143632e-02,-2.131673110184903464e-02,1.032765087120346035e-03,-3.104688897113230036e-04,1.555476525225957208e-03,2.939241230487823486e-01
2.661565921706831039e-01,-3.340396843932133542e-02,-2.055489228706432192e-02,4.409742758581157657e-04,2.666010253264659586e-04,7.893810163841906858e-04,2.933517098426818848e-01
2.749938215763617633e-01,-2.414520412672999106e-02,-2.937748513603792577e-02,8.638763412167631446e-04,-1.086411298871796686e-03,-2.466730081397733049e-03,3.018290102481842041e-01
2.427904310511876940e-01,-1.824891947180154461e-02,-2.382249501641975353e-02,-1.130567636677579438e-03,-5.327738944657417659e-04,-4.974842458861236487e-03,2.640198171138763428e-01
2.705224132550768656e-01,-2.307496643871920217e-02,-2.924354486443361822e-02,-5.796726206693680493e-04,-3.782430742390112638e-04,-2.505634199429577092e-03,2.967639267444610596e-01
2.489077639446670986e-01,-3.167778058860772072e-02,-1.477581933555756344e-02,1.199277170966301514e-02,3.541084994047984449e-03,1.335776366859566270e-03,2.733970284461975098e-01
2.750884849093597762e-01,-2.489807399672076815e-02,-2.638997497065628806e-02,-1.565807315333525140e-03,-9.304929924111758014e-04,-5.406350208920909306e-04,3.007532954216003418e-01
2.749296397936248360e-01,-2.426225417644869986e-02,-2.718131325914104057e-02,-7.355812102622822117e-04,-1.501461798729231134e-03,1.017626791731482083e-05,3.006759881973266602e-01
2.689965160936335087e-01,-5.913043551240601547e-03,-1.367111353462226175e-02,-1.150589612980053040e-03,-1.805902553089031026e-03,4.759809706262428143e-03,2.790160179138183594e-01
2.707788869306275159e-01,-1.969877647399578824e-02,-3.252656570698736482e-02,1.243451906528688288e-03,2.469364167411674301e-03,-3.128095186152262015e-03,2.971872985363006592e-01
2.749333293496997177e-01,-2.054170356842972833e-02,-2.213096830805375004e-02,-2.105547660569560137e-03,-1.898919820335364089e-03,1.377963414798882911e-04,2.963136434555053711e-01
2.653409327817651819e-01,-2.057771913965969479e-02,-3.143222580576909841e-02,-3.116845512265074250e-04,1.947268976661909595e-03,-2.505854131629366762e-03,2.915498316287994385e-01
2.687844205538427733e-01,-2.026491217402340284e-02,-3.320650288673995809e-02,1.544521851569522234e-03,1.561656486393393035e-03,-1.208856003666468728e-03,2.957644760608673096e-01
2.765388515849536155e-01,-1.765294833853181533e-02,-2.661873611188737832e-02,5.050656362873459301e-03,3.582919151231117420e-03,1.555414802222488064e-03,2.989802062511444092e-01
2.756485601073962455e-01,-1.406625185823993929e-02,-2.429410323185154930e-02,2.266025624944867194e-03,-3.016029385159263356e-03,7.212631651121326724e-03,2.952984869480133057e-01
2.601624420011313110e-01,-2.448278066782488827e-02,-2.371135772677163134e-02,-2.659636618611830759e-04,-6.706539317172670366e-04,-4.892090606116272604e-03,2.843893170356750488e-01
2.841846719331039273e-01,-2.370850395773116404e-04,-1.555102143508355073e-02,-7.515832970956705730e-03,-3.768734108030584624e-03,1.337150642135772304e-02,2.936568260192871094e-01
2.718120692962735507e-01,-6.290843171886342788e-03,-1.552827364102556118e-02,-2.204538049495957490e-03,3.103976335084164236e-04,5.566512642672591382e-03,2.830253541469573975e-01
2.744432115960895313e-01,-5.785064210343401903e-03,-2.362481244895946186e-02,-1.962883370600756582e-03,-1.540566653970617834e-03,4.079523945915854155e-03,2.896790504455566406e-01
2.567745708120330317e-01,-2.985296273758483721e-02,-2.200118534829420547e-02,6.426790089254240433e-04,8.774555157504925190e-04,4.570313721170159507e-03,2.829004526138305664e-01
2.727951034174656009e-01,1.390088811390965962e-03,-2.426494202850061621e-02,9.480141664611836574e-04,-2.607778792079890658e-03,7.573875684583902465e-03,2.854416966438293457e-01
2.756118069361514489e-01,-1.672402887210873434e-02,-1.944307609491084665e-02,-3.747700234351124303e-04,5.145131670502154286e-04,8.286639748586536666e-03,2.940573692321777344e-01
2.734688926489049488e-01,-2.867752961435474091e-03,-2.145414004233753280e-02,-1.197780422344974817e-03,-1.613395630633902627e-03,2.141798245608642678e-03,2.861282527446746826e-01
2.637719050531455167e-01,-1.104232943681594803e-02,-2.624740608765965821e-02,1.555916573885689691e-03,3.899685896660586883e-03,-6.588253871365194921e-03,2.830472290515899658e-01
2.688917195935336402e-01,-1.583672118734315293e-02,-2.956855191770554891e-02,-1.454911183148594259e-02,1.730357769289484968e-02,-9.389157112674018091e-03,2.949007153511047363e-01
2.769177777772474092e-01,-2.562646344999355841e-02,-2.475943707331318411e-02,-4.357052000961919927e-04,-5.728011222052850420e-05,8.569031789312159047e-05,3.021126687526702881e-01
2.881693783081370475e-01,-2.096165119674951727e-02,-2.150010817723860268e-02,-1.470330122742395619e-03,9.035308299062147150e-03,-1.827024327727883729e-02,3.114185929298400879e-01
2.931253053672058240e-01,-2.762040517395267236e-02,-2.158266861494680111e-02,-5.661781774897121575e-03,3.180969275613410724e-02,-1.539072546546673900e-02,3.237592279911041260e-01
2.785025482676949937e-01,-2.546271847163920909e-02,-2.584461886758881999e-02,4.085945760040151807e-04,-2.075979272140539202e-04,-4.281388405630800228e-04,3.041583299636840820e-01
3.188280484638633672e-01,1.686256606202080066e-02,-4.845035831590094322e-02,-3.516687277529510769e-02,3.462736752002956546e-03,2.140578673616742519e-02,3.468312323093414307e-01
2.763506690830247470e-01,-1.399862984323836657e-02,-2.784327625740258549e-02,-6.280714183162561248e-03,5.464260626492889114e-03,1.931250337864704120e-04,2.978627085685729980e-01
2.726866166308834494e-01,-1.654653990022390830e-02,-2.219868379526235280e-02,2.592523164408103674e-04,1.541764371284633835e-03,-2.605778640777871302e-03,2.921476662158966064e-01
2.735093622560597626e-01,-1.617738066150141429e-02,-2.594463163842328224e-02,-1.452987372654954189e-03,4.947278823754049613e-03,-1.973611046077535999e-03,2.948468923568725586e-01
2.623445010770697472e-01,-3.014813504499914976e-02,-2.225273591594846556e-02,5.085278065687744891e-04,-1.877007187740541193e-04,2.349939290365306126e-03,2.886561751365661621e-01
2.779390155124542572e-01,-2.600983726701400212e-02,-2.640890883425110747e-02,2.148530214317114786e-04,2.668339958035612579e-04,-9.142536385018827302e-04,3.041532933712005615e-01
2.594109307276433740e-01,-1.901721025344385585e-02,-3.395076413493658407e-02,1.596862054639460165e-04,4.818706402735051762e-03,1.185524216090911090e-03,2.863164544105529785e-01
2.648219963725495507e-01,-1.939805344680013699e-02,-3.334099907168817933e-02,3.258854898198409252e-04,-3.400356680240327711e-04,3.969568734365337237e-04,2.914437353610992432e-01
2.628583244102398186e-01,-1.918659088298467486e-02,-3.448552030232074350e-02,4.790609567286037949e-04,5.664728138262839442e-05,1.101364906033082836e-03,2.900046706199645996e-01
2.653219629979828853e-01,-1.937749217492315545e-02,-3.472494191577389644e-02,1.431584262093634299e-04,1.403002366538142484e-03,6.583663871895591331e-04,2.926875352859497070e-01
2.969488770492689778e-01,6.244519583013613540e-03,-4.158870003194342635e-02,-7.757773477915369531e-02,-4.819670546223599195e-02,2.881861546246661590e-02,3.580748438835144043e-01
2.653746018787648264e-01,-1.825769429055863757e-02,-3.476000606258412839e-02,3.402303452205718151e-04,1.774987060815124643e-03,-4.040782852654753476e-04,2.922507226467132568e-01
2.612726458266783069e-01,-2.057340940712348853e-02,-3.077976530545496747e-02,-7.442005058459573354e-04,3.621015373051652067e-03,3.351220675144878612e-03,2.872153818607330322e-01
2.657018216325625071e-01,-2.453670841217227283e-02,-3.059254633633917697e-02,-9.054564448874263902e-04,3.276542299840196418e-03,3.355793916166797085e-03,2.934300005435943604e-01
1.553032269277633548e-01,-4.629270428538970195e-02,-9.606113781879394020e-04,1.174089073960572771e-02,6.424633844092662860e-02,-2.930421511776536495e-02,2.212005555629730225e-01
2.608908708685919731e-01,-2.185238041885805005e-02,-3.150280785434492192e-02,-3.483883604571490320e-04,2.374864899680952969e-03,2.651822921362647061e-03,2.877565920352935791e-01
2.697974906341598089e-01,-1.523846642639782589e-02,-1.367749224879802328e-02,1.685167951618218418e-04,-2.834732370576159024e-04,-2.865919145549658239e-04,2.842596769332885742e-01
2.664872416479173722e-01,-2.371455875810153657e-02,-3.042063845448569892e-02,5.750879261852741503e-04,3.061206933594764448e-04,1.017308545680952218e-03,2.936197519302368164e-01
2.664489743378000153e-01,-2.256828555924565716e-02,-3.173138800834759965e-02,8.519498989955165500e-04,-2.398148466031032461e-04,6.154386026398300184e-04,2.937119603157043457e-01
2.245218273817249643e-01,-2.040959905816236430e-02,-1.575257247741751465e-02,1.384702187352078104e-02,3.104583597167868275e-02,-2.392616789255461250e-04,2.496785223484039307e-01
3.052500895127047142e-01,-3.994568090843225727e-02,-4.037217131913156676e-03,1.564419784354203818e-03,-4.889529264623363250e-03,5.383671414442082678e-03,3.289682567119598389e-01
2.711593939772679041e-01,-2.968010876478410776e-02,-2.317417459726001105e-02,3.211323998097525938e-03,9.977158240627428867e-04,1.176986175732750925e-03,2.977038323879241943e-01
2.846745769215679456e-01,-2.397532898699503146e-02,-9.208133498842557829e-03,-5.594591137098029431e-03,-6.596199684800154589e-03,1.687378285221410520e-02,3.033208549022674561e-01
2.953957153051175455e-01,-2.626604986063149627e-02,8.411008941688613572e-04,1.780106348988599353e-03,-8.274828653390672861e-03,1.212418935384736857e-02,3.100607395172119141e-01
2.696090764042469168e-01,-9.819192705098456209e-03,-2.287988243657483600e-02,-1.976375500628129497e-03,2.071892084591191660e-05,2.500181815290158059e-03,2.862354516983032227e-01
2.784412723477842633e-01,-3.461772862813272678e-02,1.029536339148709456e-02,2.505291957945640982e-03,-8.148780952181871109e-03,1.522104160813326720e-04,2.935656309127807617e-01
2.531238360975979207e-01,-1.673232192098358939e-02,-3.071649950727448064e-02,-3.555022580338241785e-04,4.565970311394597098e-04,-1.912166134970325797e-03,2.771346271038055420e-01
2.808517485220812793e-01,-2.948250902566679210e-02,-1.552013569831874051e-02,2.488222642241608509e-02,2.803308494512433968e-02,1.023479205973512780e-02,3.109638094902038574e-01
2.633902392958903382e-01,-2.841153174447572094e-02,-2.433327070822842442e-02,5.685280706171587156e-04,7.728814688464088556e-04,4.484861479796177323e-03,2.898930311203002930e-01
2.726774868782010364e-01,-3.301700181995437244e-04,-2.194671921564045336e-02,1.324465172596770357e-03,-1.276051627205481397e-03,1.145161204995796649e-02,2.851411998271942139e-01
2.947593488657010985e-01,-2.676003554573364029e-02,-3.644054744473684826e-04,-8.437144783408895635e-03,-2.947293887505289881e-03,1.357555512673358847e-02,3.104468286037445068e-01
2.878565408066134923e-01,8.188817125679884179e-03,-3.552280226083534553e-02,-2.518696137665584617e-03,4.232995612704479847e-03,1.192099276673341292e-02,3.047106564044952393e-01
2.259823057048041817e-01,-2.658741019114974069e-02,-1.203810658979716230e-02,-2.984936955821986004e-04,2.801656034556312616e-05,-4.311739474020708299e-03,2.457325160503387451e-01
2.371277271032757317e-01,-1.609183155847895841e-02,-2.239343651879981134e-02,-3.088353849399547694e-05,-1.758033817005128961e-04,7.323939247118678615e-03,2.567422091960906982e-01
2.778246367525785132e-01,1.549325440301480006e-02,-3.741120939754838393e-02,3.393259712251430610e-03,9.168084999197280861e-04,1.716216827277118563e-03,2.924740016460418701e-01
2.722566152405757611e-01,-2.443221997978360649e-02,-2.801289277286875268e-02,-4.112067298736156538e-04,3.841761245309233499e-04,-2.548211966821346819e-03,2.985295057296752930e-01
2.801222242668390816e-01,8.292874999090843469e-03,-3.553813363019489580e-02,-6.359892384172682401e-04,-8.736507385226320588e-04,5.852587953466137881e-03,2.963666021823883057e-01
1.706981384497726906e-01,-5.947267467700370625e-03,-5.694144406021769966e-03,-1.144907391755534392e-03,2.767348959372700084e-04,1.611280205950624267e-03,1.765528321266174316e-01
2.749388878096843403e-01,-2.597198234955759577e-02,-1.380943864611715310e-02,-8.247176412538995745e-04,3.594060890618682585e-03,1.133407293371321498e-03,2.950933575630187988e-01
2.626760034405767330e-01,-2.924586329016663766e-02,-2.007826552192838732e-02,2.848509763070654777e-03,1.148258482567967231e-03,-1.467015678400043722e-03,2.875081896781921387e-01
2.703550269549855889e-01,-2.344506886152396274e-02,-3.091159057069008120e-02,-4.159942004274167307e-04,3.926542472426504914e-03,1.548438022464610755e-03,2.976942658424377441e-01
2.746231015150740751e-01,-2.374654667026770971e-02,-2.718706321727436259e-02,-8.927149387846584818e-04,1.755920083023966398e-03,-1.253458044863942902e-03,3.001319468021392822e-01
2.639580841380813059e-01,-3.245143700855424029e-02,-2.115785615233599370e-02,6.005518292158952250e-04,5.619844781318634932e-04,9.601889598957406412e-04,2.909354269504547119e-01
2.702642141093323236e-01,-2.529465911298740821e-02,-2.565955261266268661e-02,-2.416393963231212752e-04,-2.885247105101540932e-04,-1.849977687402351231e-03,2.957595586776733398e-01
2.806342464319692143e-01,9.787618096610592455e-03,-3.276327373699877699e-02,3.815764927759401773e-04,1.776165856202366073e-03,9.420266684679053093e-03,2.949056923389434814e-01
2.807494073888187058e-01,-5.123576804102913940e-03,-2.960043519396110545e-02,-5.828452678923138654e-03,-2.726530997815465682e-03,3.363438781638935712e-03,2.991285622119903564e-01
2.747924242659864902e-01,-2.210211897254434066e-02,-2.054453714841289469e-02,-1.881197402161805411e-03,-1.701787962074079001e-03,6.364333259563472508e-04,2.961534857749938965e-01
2.820446792703541483e-01,-2.924910724935031459e-03,-3.566602392039619485e-02,-5.451642920428979161e-03,-9.631339445444636084e-04,8.578675033142001095e-04,3.028267323970794678e-01
2.747690599770425957e-01,-2.103614856553703838e-02,-2.114999481071298815e-02,-9.132297179817077185e-04,-8.735674057535754936e-04,2.298978516097806442e-04,2.958705127239227295e-01
2.829484894071289114e-01,-3.439139330619872537e-02,-1.658167378928120106e-02,4.930680740172574406e-02,5.182857990750878302e-02,1.850325039312079520e-02,3.342891633510589600e-01
1.912951223549648472e-01,-1.931365293830296370e-02,-9.920110303489285131e-03,2.552440273561450840e-02,2.574589803979025781e-04,3.884030053144096883e-03,2.108693271875381470e-01
2.610110720206986201e-01,-3.227307976478119289e-02,-1.762672871919182538e-02,4.035111342506094116e-06,-1.491960017352965927e-03,-3.510005013419199849e-03,2.863183617591857910e-01
1.168996598724707653e-01,1.216181918003522017e-02,-4.859927953424596214e-03,4.167074342134350490e-02,-5.986561223463243708e-02,-6.228056260721558102e-03,1.706457436084747314e-01
1.284483377454487818e-01,-4.968484145837392951e-03,-3.632465451471872386e-02,4.689595357392297575e-02,2.522344617556906976e-02,-2.194244109393024209e-02,1.814317256212234497e-01
2.784479384710627503e-01,-2.694378538247058086e-02,-2.649045262231777831e-02,-3.590080957893088467e-04,-4.127040064494990950e-04,3.143377463584062393e-08,3.051667809486389160e-01
1.452645808380398917e-01,5.825225786939780548e-03,-1.399057259927728725e-02,2.559788040840729056e-02,-8.525699304370332621e-04,2.106712964815894988e-04,1.567391753196716309e-01
2.286209368244333517e-01,-2.227616646323356264e-02,-1.620027090574310824e-02,1.112374770641294660e-03,-3.659138590616712911e-04,-5.230635681532582945e-03,2.480887770652770996e-01
2.334688199063673364e-01,-1.147430926124989869e-02,-5.538945628497979334e-02,7.476113714584350922e-02,-1.623265354344117714e-02,-2.233900975758447427e-02,3.028822541236877441e-01
2.276579655143178560e-01,-1.893599231350938383e-02,-1.829281490278041045e-02,3.857033122773630140e-02,4.192470676076907356e-03,-1.099982906224738479e-03,2.552836835384368896e-01
1.561415764793471772e-01,-5.887981749683600385e-03,-5.942060592131308272e-03,3.237827245238220075e-02,-2.575179559809677096e-02,8.572791108353098807e-03,1.778126657009124756e-01
1.620420253392691190e-01,-5.616998376851638219e-03,-7.829399020537988751e-03,2.705536072092713448e-02,-1.687407697619190683e-02,8.365314675165822986e-03,1.781726330518722534e-01
2.602625208482208796e-01,-2.914231563876472364e-02,-2.304036177332705049e-02,-1.535977103728461152e-03,-2.465625313765424059e-04,4.606637656064244829e-03,2.865264117717742920e-01
2.320718297316092804e-01,-1.156009667333221524e-02,-2.768585281897660566e-02,-1.182487249499599661e-03,1.061816461780611467e-02,2.704485083178087535e-04,2.527606785297393799e-01
2.345380024718291823e-01,-2.660581617903977347e-02,-2.020636890699113730e-02,-9.887167722354366084e-03,-1.190753651322431529e-02,-5.305461434186456784e-03,2.595552802085876465e-01
1.972166760245493700e-01,-1.209869458387632934e-02,-1.581206275557515972e-02,-2.318368929151458802e-03,1.484181719843736050e-02,4.808252171277604785e-03,2.129561007022857666e-01
2.409276480113793362e-01,-1.455985626637885944e-02,-2.962517720420676515e-02,3.786470364507373183e-03,5.294941825432164517e-03,2.433730254178791130e-03,2.636184990406036377e-01
2.252139514519335972e-01,-1.493197754875531802e-02,-2.740623700655929473e-02,-1.087305121482254593e-03,2.328330204892500518e-02,3.210184275955302920e-03,2.499642223119735718e-01
2.582396242570559330e-01,-2.933797176479828461e-02,-2.116449951938285945e-02,-5.848445975422143089e-03,3.548835942729895200e-03,2.115995642588507433e-03,2.838503122329711914e-01
2.570701265476912356e-01,-2.101304852381220833e-02,-2.958059281626096437e-02,7.353713327218507068e-03,1.133293361584422447e-02,4.978126197436875044e-04,2.834332883358001709e-01
2.705795117302003394e-01,-2.594800431809458907e-02,-2.329538149989082707e-02,-4.432228865510465026e-04,1.702428821120999074e-03,3.041131787378563911e-04,2.952263355255126953e-01
2.390038762641106262e-01,-1.424476715269770710e-02,-2.949040939387442828e-02,-3.120162212692758480e-03,5.202590393849816468e-03,3.082521112299663885e-03,2.614711523056030273e-01
1.968689324384531314e-01,-1.206489860830058103e-02,-1.581928119064510141e-02,-2.932677477385152963e-03,1.707649097443244765e-02,4.801946876572104478e-03,2.131235748529434204e-01
2.725918636922279870e-01,-1.794845874865545754e-02,-1.880770133991432891e-02,-1.490294973623250896e-03,1.685023034063918256e-03,-2.205952793770196447e-03,2.910220623016357422e-01
2.716698801635287208e-01,-1.645803042549448536e-02,-2.196498700127619275e-02,1.196657787303983351e-04,1.196784358473466838e-03,-2.689587615912504386e-03,2.909652292728424072e-01
2.736886339851591354e-01,-1.993616431117142818e-02,-2.343996226640554514e-02,-8.399553774789193013e-04,1.223006111785924273e-03,-5.098648428907046439e-05,2.954034805297851562e-01
2.726586914385309979e-01,-1.379074571260556492e-02,-2.215279234562395061e-02,2.406401449073430638e-03,1.805323681083217773e-03,-2.138498773810251080e-03,2.907909452915191650e-01
2.369867077336014205e-01,-2.514260171633528329e-02,-1.213286913360345221e-02,-6.118979851281302479e-04,-6.163472657561569349e-04,7.398524957221408981e-03,2.561977207660675049e-01
2.817132060746069255e-01,-2.633647266679872700e-02,-2.472098723945739818e-02,7.184854230939390074e-03,-4.066481990010263267e-03,1.136917877638056722e-03,3.075839877128601074e-01
2.710142572168240394e-01,-8.380872169196529331e-03,-2.549566684330419053e-02,-1.606737360345506210e-04,-2.174612359165230898e-04,-2.016309396579699618e-03,2.883552610874176025e-01
2.811938396706417098e-01,-1.112183122025274529e-02,-3.581399159787024278e-02,4.732024911541055784e-03,9.240022228026190457e-03,-1.598849256241653347e-02,3.071909248828887939e-01
2.716603082775724265e-01,-1.700569689403194640e-02,-2.595907013013823428e-02,1.081069320191905582e-03,2.004365124754693261e-03,-7.328720130569970790e-04,2.932744920253753662e-01
2.768635713516466312e-01,-3.158904314006469316e-02,1.447563757427466902e-03,2.215411871124471632e-03,4.197873449700818653e-03,-1.590437095081351964e-03,2.934610545635223389e-01
2.482587556662125272e-01,-2.281506486381702781e-02,-2.405593671770273057e-02,-4.760684438342384361e-03,2.071051494308259397e-02,4.540919246163043106e-03,2.742910087108612061e-01
2.687947722536190298e-01,-2.547269595855954083e-02,-2.767527783710896361e-02,2.645870815290127763e-03,-2.885257878255699515e-03,1.405015541468289603e-03,2.954627573490142822e-01
2.733435283108997527e-01,-3.548420216558018092e-03,-2.767303674109550249e-02,1.885346480800296695e-03,2.362026350514480431e-03,1.379380537851990088e-03,2.897657155990600586e-01
2.749274982836996672e-01,-2.490948460160691269e-02,-1.773360009044745722e-02,9.269148824500943705e-04,2.347434114809074813e-03,6.628374784675018620e-05,2.963464856147766113e-01
2.731821852381260962e-01,-2.623644637412637926e-02,-2.254771074831864175e-02,2.166104382216013148e-04,2.175369023751773262e-05,1.997330350529105051e-04,2.975918650627136230e-01
2.641673859264884738e-01,-3.567386436003627814e-02,-2.070972779396304531e-02,5.004669030143580125e-03,-2.418419985584864800e-03,9.199008794569772662e-04,2.928089201450347900e-01
2.565710635687479813e-01,-3.580367761861003029e-02,-1.823237916815675930e-02,6.310111795112124770e-03,-5.168027298033731325e-04,1.616750513936710378e-03,2.842225134372711182e-01
2.552607024633807287e-01,-3.554333060473933992e-02,-1.605481670984004738e-02,6.643531364093041569e-03,-2.381116737974490940e-04,5.218991728638441548e-04,2.818028628826141357e-01
2.167267303782271226e-01,-8.136758226839707620e-03,-2.261778511369122446e-02,-1.704303469658094428e-03,6.632157351958410402e-04,3.227267601199212185e-03,2.325313389301300049e-01
1.965453453635843672e-01,-1.442828516879703094e-02,-6.213455663738737256e-03,-1.072943169238778621e-03,3.397853288565190564e-04,6.195907126791281097e-03,2.072756886482238770e-01
2.624406282874188756e-01,-3.590387264406520729e-02,-1.790271750533678485e-02,-3.648505210471586035e-04,5.409124735596652781e-04,-2.970060532476039125e-04,2.897662520408630371e-01
2.234993568988428159e-01,-1.502795852879387772e-02,-2.676697470526444300e-02,1.520391727926037953e-02,2.505875129827937753e-02,-2.433291773308876322e-03,2.498564124107360840e-01
2.707001900589497412e-01,-3.053019517580457531e-02,-2.457212639639283491e-02,2.470923259654654418e-03,1.506313472302473508e-04,2.837787873305065885e-03,2.983672916889190674e-01
2.719379464377767452e-01,-2.825109768822080258e-02,-2.642325258150456102e-02,-5.798040084455466240e-04,1.269539364096845538e-05,-3.273627946443982304e-05,2.992810010910034180e-01
2.726557874222180766e-01,-2.927563396236688986e-02,-2.640272423047003436e-02,-2.238999375028770931e-04,-6.109488547705527791e-04,4.829908026999104828e-04,3.005085587501525879e-01
2.274468859593544445e-01,-1.244711605197350301e-02,-2.362517825714775810e-02,-1.032073552675190657e-03,-7.958555652939197905e-04,-3.438551820371433306e-03,2.457563728094100952e-01
2.667016402526244945e-01,-2.129632059547351131e-02,-2.477937494816513653e-02,7.333036399790128545e-04,-6.125353800639750726e-03,-1.025609369972734766e-03,2.899575829505920410e-01
1.417150499915925121e-01,-1.229347455403512201e-03,4.658850759315637247e-03,-2.576015049404407724e-03,1.011403457425244295e-03,5.471334313163645630e-04,1.401783227920532227e-01
2.710618137000739836e-01,-2.949708268625697571e-02,-2.656262972651164678e-02,8.707331388418693027e-06,4.491602935953577312e-05,6.430069083224997919e-04,2.991045415401458740e-01
2.568527838441960753e-01,-3.279178856430356448e-02,-1.964558368593455340e-02,2.785611086149193503e-05,2.689160060989269308e-04,3.553948910356169270e-03,2.833675742149353027e-01
2.720920071995344691e-01,-2.902481441985810262e-02,-2.733653759765951319e-02,8.372183507797087800e-05,2.230263205158729796e-05,3.953457264271051047e-10,3.002762794494628906e-01
2.670595872922749692e-01,-2.370763581425600064e-02,-2.347765368213916570e-02,1.014883465428423510e-03,-6.692863215109112664e-04,5.517453030613107172e-04,2.906614840030670166e-01
2.714306508366666204e-01,-2.814185125968050871e-02,-2.805369566310550455e-02,4.355004711097084421e-04,-4.115559272600613494e-04,7.090456840631481931e-04,2.995327413082122803e-01
3.011400201563061985e-01,-4.545964929445486802e-02,-4.320696318059896734e-03,1.899574086894292337e-03,-1.376881364537437674e-02,-2.629935785480303542e-03,3.288849592208862305e-01
2.832677889571013630e-01,-3.903226074528096112e-02,9.074420026156132524e-03,1.259298910944075221e-03,-9.097029373868342067e-03,-5.615727982821513455e-03,3.017190992832183838e-01
4.094808090264132616e-01,-7.062496376100946271e-02,1.314206014538663037e-02,2.872191713103609823e-02,-3.594102270441212194e-02,-8.316264657587222817e-03,4.515075087547302246e-01
2.434938096183550393e-01,-4.009697527176947496e-02,1.815301658720275269e-02,2.403475853311645011e-02,-7.673850956583687377e-02,-2.012871835259646015e-03,2.944642603397369385e-01
3.336706589011674273e-01,-4.253439975389272654e-02,1.119740474156438736e-02,4.244599206027278859e-02,-6.181151693071962328e-02,-2.780436381280941560e-03,3.756239414215087891e-01
2.996153444778514308e-01,-4.353388777750943905e-02,1.001212850031209245e-02,9.227017745552566416e-03,-1.763218373146111656e-02,9.501041214281634104e-03,3.220298290252685547e-01
2.869297346803972859e-01,-3.971046177460174631e-02,1.635435050944564206e-02,-2.116812453282576438e-03,-8.539359226844735543e-03,4.320948129962648085e-03,3.030053973197937012e-01
2.884195561568096977e-01,7.977790415052921080e-03,-3.170010759084443408e-02,-7.015059315124221040e-02,-3.056620704463560573e-02,1.434305245972385123e-02,3.309571444988250732e-01
2.849998462686007539e-01,-4.915697823136142008e-02,4.811201956050434325e-03,1.255248076864235417e-02,-1.458669728142774485e-02,2.240036170865154427e-03,3.125149309635162354e-01
2.746947907477794160e-01,-2.101183495704279924e-02,-1.735774390872865669e-02,-4.444058550028006510e-03,-3.121561085664519442e-03,3.747686886536994496e-03,2.941187620162963867e-01
2.936982762144360048e-01,-4.260711997248989302e-02,3.392761890134002312e-03,-1.260755373033941619e-02,-6.069243819557366970e-02,3.208081597136738100e-02,3.381751179695129395e-01
2.769686759438952928e-01,-1.042013838064231868e-02,-2.781093549015750677e-02,-1.304357318309758151e-02,3.540642817337405317e-03,3.593131622506101630e-03,2.974549233913421631e-01
2.801435751351699643e-01,-2.963101281366861683e-02,-6.718627074163749380e-03,-2.228584766403229542e-02,-3.747026105075184493e-02,1.644539651771905614e-02,3.096788525581359863e-01
3.095947756772662873e-01,-1.403155689942327256e-02,-2.986991965399293791e-02,-9.002485149638304526e-03,-3.983360837505004609e-03,1.681474970550916534e-02,3.335408568382263184e-01
2.855433939532012189e-01,-4.081848621006203826e-03,-2.325086493790334830e-02,-4.958680351584819450e-03,-3.758853832977257850e-03,1.479589600918507393e-02,3.009567558765411377e-01
2.947905998870711253e-01,-2.167413645663238131e-02,3.322411969865324277e-03,-5.830933548676097561e-03,-1.097778215983545406e-02,1.655139024874561354e-02,3.068380951881408691e-01
2.698973602751953971e-01,-7.509167305065497788e-03,-1.259666889988153571e-02,-2.734139619845051689e-02,-3.803158164815077097e-02,2.974537789561577592e-02,2.960199117660522461e-01
2.664038993108435172e-01,-2.066672706091755851e-02,-3.098795325623278363e-02,7.398246348718894722e-04,-6.697782393542344543e-04,-1.198017237914693594e-03,2.923803925514221191e-01
2.626893799994893808e-01,-1.825475440706153529e-02,-3.588174824614914771e-02,4.841814422229445474e-04,-4.969020069903438714e-04,-3.933510121745391092e-04,2.901627719402313232e-01
2.669746575519681420e-01,-2.062869642999327902e-02,-3.544065129791250379e-02,-2.167406194521136155e-04,3.647989068494453084e-03,-7.834568834630429310e-04,2.953590452671051025e-01
2.736604765629596092e-01,-1.848217140354332932e-02,-2.123359232029080335e-02,-5.523561477518621182e-05,-2.180328718508501434e-03,-1.087779369355869981e-03,2.935583889484405518e-01
2.683222289422007023e-01,-1.613318926221939120e-02,-1.438501186949778243e-02,1.142197604143384802e-03,8.250180825129440221e-04,3.431504354834554143e-04,2.835964858531951904e-01
2.575274823223839826e-01,-3.339321468751339783e-02,-1.789380360733493214e-02,2.651903262511165634e-04,-1.020520588713826407e-04,1.886235404752131329e-03,2.835082113742828369e-01
2.724888746182017041e-01,-2.617393652715586938e-02,-2.750194001827178936e-02,-4.280960660092041677e-04,9.877463734366070079e-04,7.955197072047230438e-05,2.993348538875579834e-01
2.583186252302822616e-01,-1.725617279861053899e-02,-3.483286855863675091e-02,-3.891990525181378540e-04,6.661971160675643835e-03,-1.785641591976061407e-03,2.850215137004852295e-01
2.689242156277891205e-01,-3.119430457195659923e-02,-2.375463476378653072e-02,7.415946428100062210e-04,-4.592619549481058135e-04,1.323183115347351807e-03,2.964814007282257080e-01
2.689929117437698247e-01,-2.924245068056957608e-02,-2.676336189720801562e-02,2.581551983815018672e-03,-1.241012360708672454e-03,2.084568006378374142e-03,2.970669567584991455e-01
2.802449066979963432e-01,2.296815804501861624e-03,-3.396721894491941396e-02,-2.908758753775217160e-03,9.207009070224230884e-04,-1.020301286575029482e-03,2.977932095527648926e-01
2.715318634544571230e-01,-2.953774721989377294e-02,-2.558495864736672065e-02,2.348415855286019923e-03,8.954867771357351292e-04,2.024760891165485171e-03,2.991650402545928955e-01
2.667014896420342174e-01,-2.910683124944210554e-02,-2.606361856574432312e-02,2.631677698722295535e-03,-5.163409266632787913e-05,2.302204825795591166e-03,2.943608462810516357e-01
2.453697880599572667e-01,-3.413795052323032042e-02,-1.443321850652849736e-02,-1.948259784696379743e-04,3.737133932530633238e-04,-5.169819064516359896e-04,2.701972723007202148e-01
2.675447500731401584e-01,-3.523556833880191197e-02,-2.045884065425644660e-02,3.872552964239179413e-03,1.192852453134902319e-03,-1.323276334380262811e-03,2.957611978054046631e-01
2.377910843694763243e-01,-2.698757642024877945e-02,-1.645099493025015125e-02,2.403204948300374896e-04,1.191834023330360986e-03,3.930837338703964574e-03,2.597685158252716064e-01
2.485227720049595912e-01,-3.296190374828689151e-02,-1.682614257781503420e-02,-7.787070060416718606e-03,7.010092419737031693e-04,4.741551661737703375e-06,2.741083800792694092e-01
2.569757288773522053e-01,-3.470177723854359075e-02,-1.762873504982727380e-02,6.055681565829021916e-03,9.183505560354185155e-04,-1.209501514155108875e-03,2.837329208850860596e-01
2.579884879582468038e-01,-3.417511964548794468e-02,-1.748222308227681543e-02,6.951010868536791620e-03,-2.721639928408162504e-04,-1.988868273330355717e-03,2.844612598419189453e-01
2.665545333600398692e-01,-3.367954877349400855e-02,-2.066580903093788446e-02,-2.636487851154121435e-04,7.644568350645430683e-04,-1.489243524805983947e-03,2.939580082893371582e-01
2.614772231523122548e-01,-2.376794210606213154e-02,-3.079664216051547498e-02,2.831302952792010279e-04,-4.199630224022665964e-04,-4.799250147379777350e-03,2.889446020126342773e-01
2.737231456997140655e-01,-1.561467831678334250e-02,-1.732462954290910073e-02,2.463852598317532879e-04,6.859470050590790345e-04,-3.756249873045393057e-03,2.902722358703613281e-01
2.736214040627070743e-01,-1.576153635013810561e-02,-1.616992343281542510e-02,2.046362997730754706e-03,-4.561107953011999186e-04,-4.684645490522638435e-03,2.897237539291381836e-01
3.087186084551878928e-01,-2.569018792192717671e-02,-3.882678746553067106e-02,8.466590876193666459e-02,-2.739467001049667588e-02,-4.150548607506461540e-02,3.812076449394226074e-01
2.631819289493528835e-01,-3.284924209076937884e-02,-2.230915453204847243e-02,4.380402799112777260e-07,3.491201653460363603e-04,-1.557583994497200924e-03,2.909175157546997070e-01
2.720054055215449518e-01,-1.760565911413486395e-02,-1.687810245003057430e-02,-2.910398950925019521e-04,1.080203021528177744e-03,-2.838797618104696007e-03,2.892962396144866943e-01
2.277629606612086577e-01,-1.426619022027947326e-02,-2.685858665381403443e-02,2.369828039510937529e-03,-1.985729416008515796e-02,3.248241390819940014e-03,2.510295808315277100e-01
2.762876745407104595e-01,-3.940919337883860840e-03,-3.062633546128679107e-02,-2.454485108318939278e-04,4.055447947659944659e-03,-8.959835542112618879e-04,2.945676743984222412e-01
2.594743731345948712e-01,-3.347917403114708534e-02,-2.010559633485038689e-02,-6.443219092304319382e-04,-7.086436446745797901e-04,-7.333297707249416706e-04,2.865085601806640625e-01
2.708975616486889448e-01,-1.580265473439616819e-02,-1.248468323972026783e-02,1.140116957991220469e-03,3.213899847840281910e-04,-2.916971596565154454e-03,2.851078808307647705e-01
2.717713000384428534e-01,-1.502040648270627776e-02,-1.441057238856870149e-02,1.456746681182457094e-03,1.344849221051716602e-03,-5.864055204615512863e-03,2.866878211498260498e-01
2.785405954155164565e-01,-2.612923313424074523e-02,-1.609008305230308356e-03,2.706579852288586250e-03,-2.658936931413126079e-03,-2.418074011535398162e-03,2.932833135128021240e-01
1.718666781983671232e-01,1.707157191113341244e-03,-6.414504139621593493e-03,-2.323971663704102290e-03,-1.886369569428942520e-03,2.121045672161993387e-03,1.744780093431472778e-01
2.777014530090642919e-01,-2.711526385775100967e-02,2.175256044152806822e-03,7.602686552984473742e-04,2.522600718380122158e-03,-6.478915154042901720e-03,2.915298938751220703e-01
1.674837668916803191e-01,-2.116368723497787097e-02,-8.500329280502719187e-03,4.603249967974461926e-02,1.548483785808580163e-02,-1.853784818482052564e-03,2.011117488145828247e-01
2.910221603899994514e-01,-6.371169137431312302e-03,-3.916742754739546695e-02,-7.256340453034047788e-02,-2.754686687270362089e-02,3.218648128332161906e-02,3.470627069473266602e-01
2.736173757932384709e-01,-1.844245794675630767e-02,-7.493019600227343591e-03,1.535928037673047234e-04,1.770331603390510721e-03,-4.706978628784012388e-03,2.868743240833282471e-01
2.729718369942608081e-01,-1.839120881097434934e-02,-6.376136099662005341e-03,-5.639146031922438696e-04,1.280533432146974170e-03,-4.077644743925691942e-03,2.856427729129791260e-01
2.793806195964406713e-01,-2.182447093404621397e-02,-2.208223745521969983e-02,8.686216870581011870e-03,5.523163079669312150e-03,-1.564490798244932285e-02,3.030748665332794189e-01
2.736671011136446729e-01,-1.878831061740335318e-02,-1.046161664279343650e-02,1.210797541688150066e-03,-1.024010917813034750e-04,-1.246295318602195319e-03,2.883979976177215576e-01
2.027468526396921655e-01,-1.529164240935508567e-02,-7.047137172463469046e-03,2.365610715293813351e-02,-8.276698664610836068e-04,-2.175526539229323195e-03,2.179592251777648926e-01
2.879233712565018033e-01,-3.752464949875722322e-02,7.167436695674100910e-03,6.044594534012321481e-04,1.194410982190013916e-03,-3.670787344486433745e-03,3.056381046772003174e-01
3.322444712527710675e-01,2.245316791613244378e-04,-2.143943161761002747e-02,-4.014415144421953907e-03,-1.044311118811815445e-02,3.346595166812332128e-02,3.487619161605834961e-01
2.727734518262183716e-01,-2.695479780430543038e-02,-2.282146024264762596e-02,1.348825918128098182e-03,-4.934075684302808868e-04,-4.396425636932650965e-04,2.976944744586944580e-01
2.742735705706502158e-01,-1.943909015890980807e-02,-2.087567730116793308e-02,-1.354404096665511341e-03,-1.045883764739405320e-03,1.420431940490463497e-03,2.944587767124176025e-01
2.841088473059341091e-01,-2.939513623666636932e-03,-1.702024215495043236e-02,-4.395829268641681525e-02,-1.125783539209748718e-02,3.129848985678016643e-02,3.094396293163299561e-01
2.878250664577273188e-01,-2.485947533165079604e-02,-9.380047365047994301e-03,-2.873354879057129010e-03,-1.431917456083538339e-03,9.216638149188842791e-03,3.057070672512054443e-01
2.767415474368508654e-01,-1.140900241776973689e-02,-3.664543767586428413e-02,-1.685836121373866488e-03,-2.557852224437381656e-03,-9.385867419392224503e-04,3.016128540039062500e-01
2.591922478577765587e-01,-3.148593378826310130e-02,-2.197303233221528651e-02,-3.692999584176395386e-03,6.547952035648618610e-05,2.862201730920773107e-03,2.861548662185668945e-01
2.687434119891164985e-01,-3.170622106217338421e-02,-2.137388231020657947e-02,-6.372285102424690630e-05,-7.335542269180872705e-04,-5.031700635052010389e-04,2.954230606555938721e-01
3.313498702467498336e-01,-2.722835183152025329e-02,7.355201323524004908e-03,-2.154309614028009079e-03,3.469675800862558751e-03,1.866083707981245482e-02,3.441920578479766846e-01
2.511850104870567701e-01,-3.209751240991606802e-02,-1.668313465767301551e-02,3.073081387146980458e-04,-2.374822024323869482e-04,4.724836554073254670e-04,2.759005129337310791e-01
3.031862648044785780e-01,-2.717598148529037916e-02,-2.016274401536785610e-02,-1.186658611329126714e-02,1.609546655900827641e-02,-5.252059505453425536e-03,3.288675844669342041e-01
3.316522690985095889e-01,-4.314734841098644136e-02,7.956441010246159684e-03,3.308733236460311301e-03,4.137463426397374952e-03,1.698505009936857046e-02,3.533869683742523193e-01
2.758158454122873193e-01,-2.854122214623180942e-02,5.264967581179724743e-03,-5.150620125015477856e-03,-5.311459646809173207e-03,1.337299844193749927e-02,2.901510894298553467e-01
2.939450279750016604e-01,-2.668381484958831651e-02,6.762075140617246349e-03,-8.045071850015128589e-03,-9.263244954224347447e-03,1.731809485305654817e-02,3.074883818626403809e-01
2.221602249908230797e-01,-1.534907103426644270e-02,-2.092095996171064454e-02,-7.894799524582232341e-04,1.158971758594228192e-02,-5.022000576341193075e-03,2.413412183523178101e-01
2.342727399770265784e-01,-2.314471658536082499e-02,-1.241528842630290619e-02,8.590213814189159858e-03,-5.852839624634929372e-04,-2.390622327172859350e-03,2.526983916759490967e-01
2.235520134147661597e-01,-1.808595319657722855e-02,-1.885030365061284019e-02,1.483068150484708261e-02,4.329509702654772522e-03,-7.217473936748121204e-03,2.438166141510009766e-01
2.583928691284458901e-01,-3.316814397983439133e-02,-2.035464066259921878e-02,9.094592431305207128e-03,4.396972321952062959e-03,-5.107817777973750265e-03,2.860428094863891602e-01
2.768636641633990259e-01,-2.783105622547187019e-02,-2.220326617498991073e-02,4.303227098905109760e-04,-4.176677737225277520e-03,-4.989917950557963252e-04,3.020089864730834961e-01
2.794611552835581936e-01,-2.466294131112350962e-03,-2.563978952079483398e-02,-3.360778651004788734e-03,2.225742722658035310e-04,9.868069367801129976e-03,2.947533130645751953e-01
2.022997402911557996e-01,-1.409456350260340773e-02,-1.613960178203432960e-02,1.405114706073175464e-03,1.976221157371614578e-02,-3.467139271124766893e-03,2.201972603797912598e-01
3.317564656736653461e-01,-3.664458348374396990e-02,1.502345251044957808e-02,-1.938503708571362449e-02,-3.417935709032517144e-02,2.548638884156636739e-02,3.548732995986938477e-01
2.206251067782247499e-01,-2.656283158287861546e-02,-6.164217766986723746e-03,-9.669377908207940110e-04,1.033720691666048779e-03,1.144975942790660544e-03,2.376670688390731812e-01
2.764930626727551410e-01,-1.340990401203280558e-02,-3.037806148059149502e-02,-3.998331905065267457e-03,2.485123032581856590e-03,-3.665547094124676814e-05,2.988599240779876709e-01
2.628165072463969354e-01,-2.918790735565765515e-02,-2.541529382616537769e-02,3.944683995468624242e-03,7.543741892129423796e-03,-6.206074907855324563e-03,2.907097339630126953e-01
2.658839068282092821e-01,-1.859932872214682675e-02,-3.353208465021920159e-02,1.220441596996612579e-03,1.143256145290773654e-04,-4.813720128726890648e-04,2.922447919845581055e-01
2.664551768651216568e-01,-2.016999234595066859e-02,-3.470834939198125246e-02,2.203901282563610394e-04,7.178136235335884352e-03,2.405147007534609062e-03,2.944562435150146484e-01
2.650694479995028274e-01,-1.912721739225897721e-02,-3.465206600138093229e-02,5.499495965867505845e-04,7.290898596056142461e-03,2.141670664117250808e-03,2.925662696361541748e-01
2.661142457400085259e-01,-1.973358925769105876e-02,-3.386642638125135496e-02,6.783479541550706433e-04,3.880381210655610598e-04,2.348684550949727760e-04,2.931732535362243652e-01
2.721814953511722535e-01,-2.531622510295515605e-02,-2.802241469136089458e-02,1.912330062707063292e-04,1.155264169356665874e-03,1.564565957280651632e-03,2.988791763782501221e-01
2.547156576007671980e-01,-3.678217874085282224e-02,-1.542149683476805311e-02,-7.048722342247137852e-05,1.884232934487988789e-04,-1.045031271309806954e-03,2.814321815967559814e-01
2.664185127809215459e-01,-2.579410369629617228e-02,-2.058838806860799342e-02,-8.379697780998351248e-03,1.609568125116142296e-03,8.783118416255588506e-04,2.900256514549255371e-01
5.052691808101080623e-02,1.046558091836473359e-02,1.918195506465249223e-03,-1.620223465541833358e-02,7.935900044664287098e-03,-2.287448618137241999e-03,5.488677695393562317e-02
2.645183034056333149e-01,-2.087698060696840940e-02,-1.875215218389525429e-02,-3.040253761386472672e-03,-1.148897328036768825e-03,2.265511869618743335e-03,2.844216227531433105e-01
2.588748040509163406e-01,-3.434723955254610772e-02,-1.621587652029803095e-02,-3.033797448446405847e-03,2.033723066026914706e-03,2.101262403281055260e-03,2.846834361553192139e-01
2.211601150112719183e-01,-2.657872121247942254e-02,-1.026774794919585454e-02,-1.032713692926760232e-03,3.562294661712516597e-05,-1.195989565589871111e-03,2.400150299072265625e-01
2.560942237705571278e-01,-3.629876478526809780e-02,-1.661226385711803144e-02,3.301288524258408591e-04,1.090119392600028079e-03,1.007501668220060938e-03,2.830758988857269287e-01
2.624866642394233507e-01,-3.318268043787227228e-02,-2.032659437991805873e-02,-1.100201473225995586e-03,1.457496903306093302e-03,1.389594103691378039e-03,2.894828021526336670e-01
2.590708383363010681e-01,-3.418745526029177972e-02,-1.891984284717522502e-02,-1.173227414014082993e-03,1.140359520123914068e-03,4.862166867989375267e-04,2.859456539154052734e-01
2.714851068775721021e-01,-1.569459315076909833e-02,-1.493503374286384022e-02,-2.242378772489405075e-03,-1.387747763647829806e-03,7.026670354019888759e-04,2.868396341800689697e-01
2.701325940091892086e-01,-1.397697172511859487e-02,-1.447424197323976536e-02,-6.494531568468563890e-04,-1.310829371003301982e-03,2.138661764174808102e-03,2.843939363956451416e-01
2.810327098850713412e-01,6.107238982549223483e-03,-3.878001131660360756e-02,-5.296975650651306912e-03,2.971190496995186180e-03,1.547627036377672780e-03,3.000956177711486816e-01
2.698256401164135232e-01,-1.464923266297749049e-02,-1.211907370410102158e-02,-1.287206042020989710e-03,8.145392320547350216e-06,2.570040813305692756e-03,2.832620143890380859e-01
2.618345348748086776e-01,-2.897773603834299938e-02,-2.350560360813777616e-02,3.093664485193254319e-05,1.920719462001617937e-03,4.130241890858102338e-03,2.882231771945953369e-01
1.387303389776247675e-01,-2.774243834680729937e-03,-2.006274738791030687e-03,1.715186922623004179e-02,4.599750880067769417e-04,7.110619608104251730e-04,1.442226618528366089e-01
2.146906037923425603e-01,-2.401042570780380359e-02,2.310069798291652932e-03,-4.413529029237565210e-02,-8.525846019379175467e-02,4.015483881323691356e-02,2.896139621734619141e-01
2.714148028113518851e-01,-1.682534570641584792e-02,-1.498967613691730427e-02,-1.337470402395738583e-03,-1.390848654503334426e-03,7.041650298172264649e-04,2.873487472534179688e-01
7.928029791891988420e-02,-4.301037673657186200e-03,7.314811323199405663e-03,-2.135019560297406541e-02,-2.538312976819446717e-02,7.989366302430585265e-03,9.819262474775314331e-02
2.824653936157018874e-01,-2.405544190695670104e-02,-3.758534896223053590e-02,8.618837050583444404e-02,-1.917906312675700040e-02,-4.300016885369223330e-02,3.566807210445404053e-01
2.857877378716532912e-01,-3.588427252627685027e-02,8.734291222900092411e-03,8.444833595878752487e-04,-2.403184645325008324e-03,4.765218026061924204e-03,3.019912838935852051e-01
2.835962588441985899e-01,-3.691804931553890889e-02,-5.672300006609190537e-03,1.390569836575214621e-03,-3.176200535854870576e-03,-1.233087519423276207e-03,3.061562180519104004e-01
2.787898957857924964e-01,-3.723111087009264852e-02,7.349119165524359287e-03,1.446224037237638180e-03,4.447269655126376113e-03,4.201881046983571848e-04,2.963688969612121582e-01
2.936235465624290608e-01,-3.766526339513737165e-02,7.969799535209140529e-03,2.257492756759012491e-03,8.196198478321944578e-03,2.103513257913627518e-03,3.113624155521392822e-01
2.773041195018831617e-01,-3.295422931155436719e-02,1.095689951433242992e-02,1.468393044245815474e-03,6.023188353022364445e-03,1.009252086165092141e-02,2.915227711200714111e-01
2.858961881221721013e-01,-3.796719598721412514e-02,1.468056821503517517e-02,2.530172412663607515e-04,-5.108293499035328547e-03,9.527761150094668074e-04,3.011474609375000000e-01
8.043377815640177786e-02,-2.968089677408837501e-03,2.041252678679056007e-02,-1.050095027865653903e-02,5.831473403719167337e-02,2.729461253907479543e-03,1.269154101610183716e-01
2.682211251668088492e-01,-2.175414010764008255e-02,-2.651873130965849701e-02,-8.131001292889011769e-04,-7.250245743989589334e-03,5.886394208744677231e-04,2.926613986492156982e-01
2.747464337371886556e-01,-2.769052228201308863e-02,-2.266690393282642935e-02,-3.819854074557314447e-03,-1.528433594414283642e-02,-1.981529240517061231e-03,3.012148737907409668e-01
1.797911705764665136e-01,-9.316465867570677961e-03,-4.497618968057934263e-03,1.079622714889219397e-02,9.420816949278791250e-03,2.829942942625552488e-03,1.884505152702331543e-01
1.836221766716585602e-01,-9.940866141553955648e-03,-5.037250459175413031e-03,3.334232515758745602e-02,-3.893911801211235452e-02,-1.058892594680495292e-02,2.115698754787445068e-01
2.617901910110844721e-01,-2.120087464256477372e-02,-2.912056438245423651e-02,-8.209265672773792934e-04,-2.319638759416898025e-03,5.654102217269739352e-04,2.870661616325378418e-01
2.610845749666796944e-01,-1.933092626401931857e-02,-2.903720634200775141e-02,-6.284406032389688347e-04,-1.020452112318922426e-03,-7.561712041246538467e-04,2.854030132293701172e-01
2.698757919579377607e-01,-3.255684389693205838e-02,-2.074506681020528431e-02,3.474186128756062003e-03,1.756261383455973418e-03,1.084023490990870938e-03,2.967856824398040771e-01
2.581592666190993812e-01,-1.793214448479077405e-02,-3.230679273247537286e-02,1.680473949070024429e-03,-2.001257340859961126e-02,-3.147324196008908712e-03,2.857297956943511963e-01
2.685174484847102083e-01,-2.428689798786616560e-02,-1.794133864239200182e-02,-5.111031302958570188e-05,1.684616981224853647e-03,1.470338287779790086e-03,2.897095978260040283e-01
2.772665937886602538e-01,-2.543935507797244477e-02,-2.511116165088267405e-02,-8.394435081015337672e-04,-5.956989625871926541e-04,1.506111860764433282e-04,3.025473654270172119e-01
2.768435378521250656e-01,-2.439413787386117416e-02,-2.541137090166158130e-02,-2.273660829692604815e-04,-4.743660905615917998e-04,-1.036304868194771816e-04,3.017490208148956299e-01
2.771794787806248217e-01,-2.544764350966749467e-02,-2.484853165658326701e-02,-4.833653680384045800e-04,-9.065728252801415546e-04,-6.259685270039620924e-07,3.023332357406616211e-01
2.276171546382783906e-01,-2.243568732937163690e-02,-8.296525239514102035e-03,3.989736253349437153e-04,-2.453253825960728489e-03,7.946210925502166433e-04,2.433335781097412109e-01
2.747892390712730615e-01,-2.155222925504979292e-02,-2.073094720985389772e-02,-8.923966102170552157e-04,-9.366819398833093908e-04,2.361967553277036355e-04,2.959404587745666504e-01
2.578033235220814623e-01,-3.696052368383259679e-02,-1.599422064469417648e-02,-1.445223080754987803e-03,-3.895551924091662701e-04,7.335309227167669584e-05,2.848717868328094482e-01
2.505451562545093491e-01,-3.255269119657630550e-02,-1.769134735072459830e-02,2.673472048670621441e-03,2.098266022244471996e-03,3.040174622196648024e-03,2.760804593563079834e-01
2.621073963786087480e-01,-3.370073130140624484e-02,-1.659738092516067909e-02,-7.035909623990340214e-03,9.916749389084821096e-04,-1.094300000223424885e-03,2.879074811935424805e-01
1.928356753411096525e-01,-2.959408115616901647e-02,-1.081688205378091017e-02,-2.790192906800773726e-02,2.234812338442911800e-02,-1.566698002406071918e-02,2.241008728742599487e-01
2.624993767443707382e-01,-3.335093933007268752e-02,-1.825015668404326996e-02,8.817583796229926107e-04,1.491033111326715540e-03,-6.581997118154027816e-04,2.886142432689666748e-01
2.546231406254126917e-01,-3.091588984286966491e-02,-1.921296704088269747e-02,2.096953135665257151e-05,2.477742233916000077e-04,-3.627734660096179186e-03,2.799420058727264404e-01
1.185659320354138790e-01,-3.398072200505232454e-03,5.486128798921172112e-03,-1.276138966797052410e-02,5.209885401411750230e-03,1.829740405071986155e-04,1.201693937182426453e-01
2.600509580060758053e-01,-1.922055991956542198e-02,-3.461463431321606943e-02,-1.031655833174546311e-03,-8.074984040907712875e-04,-1.207596830059483187e-03,2.872946262359619141e-01
2.733094658662873488e-01,-1.872876383013731549e-02,-2.671216549910712668e-02,2.177856770221757183e-03,8.512349078392629411e-04,8.337503990776909965e-04,2.961418628692626953e-01
3.074948645277300607e-01,-4.032582112228239035e-02,-3.189998612042041493e-03,-4.509442848993594185e-05,-6.104077944839949622e-03,-1.330069619809226382e-02,3.317894041538238525e-01
2.256882420374640985e-01,-2.694162587756850080e-02,-9.429009832226081800e-03,-3.261102408562109047e-04,3.963579802486892536e-04,-3.030229302162399871e-03,2.444026768207550049e-01
2.695106205921043441e-01,-2.405441506799996243e-02,-2.260102889689949435e-02,-2.199603407469488767e-03,3.464398387711304132e-05,-5.115639606662984989e-04,2.928671836853027344e-01
2.888846346181918046e-01,-3.296468761523563273e-02,-1.324323936318064221e-02,-8.853857247547058940e-03,1.000849987670004645e-02,-3.916488216581040516e-03,3.133852183818817139e-01
2.613946900707013188e-01,-2.609346592929187580e-02,-2.131403067441015042e-02,4.901751815881041745e-03,6.562471851413198901e-03,-7.346744953044654584e-04,2.854840755462646484e-01
2.546425983119171566e-01,-3.544416977243596001e-02,-1.621411804613875907e-02,-2.806085057224366459e-04,3.048216246231131481e-04,-7.395375663235716603e-04,2.809695601463317871e-01
2.587218195246352437e-01,-3.276045229174925910e-02,-1.003355838727984506e-02,8.035917531859807991e-04,-4.192481944836161096e-04,-8.582006314785211448e-03,2.812069654464721680e-01
2.793157690074178912e-01,-2.309527373502098802e-02,-1.860361150292608179e-02,-6.966215730262967712e-03,1.310105028513007010e-02,-3.228032754282677153e-03,3.013404011726379395e-01
2.695510709162194374e-01,-3.272602288727845254e-02,-1.486974022050162325e-02,5.067328656776980307e-03,3.422025957099376903e-02,-7.244059964356285540e-03,3.000671267509460449e-01
2.806427537898091296e-01,-3.398009777643354323e-02,-9.934798130069311117e-05,-2.733782255946452539e-03,1.714338895164920634e-02,-1.088263575339552640e-02,3.012228310108184814e-01
1.643470425837718352e-01,-7.669897810604467403e-03,-3.589835081843052722e-03,-1.518778098194690368e-02,-5.011056762242158125e-03,-2.774970489642051598e-03,1.723225861787796021e-01
2.745194872693937915e-01,-1.198018387880038504e-02,-3.186887528171490624e-02,-8.024937350056679172e-03,2.760293100907272156e-03,2.926695277579521425e-03,2.973507642745971680e-01
2.587327694789242072e-01,-3.289154593756167533e-02,-1.949566514988911037e-02,-4.735311896815848007e-04,4.116341507372760374e-04,-8.226536581537277106e-04,2.851680815219879150e-01
2.076108393225937487e-01,-1.675880697991399826e-02,-1.546618408275371448e-02,-1.014426692571824586e-02,-9.904756357503801539e-03,-8.142111795228890170e-03,2.255111932754516602e-01
2.688970558506855735e-01,-1.756687376014950952e-02,-2.776211776672159182e-02,1.085670832794812879e-03,-3.999000057047878524e-03,1.016222027083199834e-03,2.917888164520263672e-01
2.088359345118310784e-01,-1.642042171203392242e-02,-1.544350907397046280e-02,-9.155047708089612477e-03,-1.045997550282262538e-02,-8.633194209747658762e-03,2.265493273735046387e-01
2.917822926778194104e-01,-3.237440810390759816e-02,-3.258944001833630200e-03,-3.629239963925571383e-02,-6.766556063682256650e-02,3.592880395214824440e-02,3.435800373554229736e-01
1.876535625314602607e-01,-1.326629696429386385e-02,-4.912202104077154075e-03,-7.959913630626855091e-04,-3.238218981071116880e-03,-2.096701512110541767e-03,1.969939768314361572e-01
1.476318863968000272e-01,-6.405474553356937939e-03,-2.260016537372781797e-03,-1.637011190415387993e-02,-5.357985790072104966e-03,-2.796535441801070720e-03,1.549827903509140015e-01
2.165593376239237644e-01,-2.302627766884647598e-02,-1.602666791670052937e-02,-1.241650325629897224e-02,-6.804263085107476253e-03,-6.917635293230034975e-03,2.377356141805648804e-01
1.948349112470046385e-01,-1.258139454646933775e-02,-1.305398086996516216e-02,-1.287915843614446032e-03,-4.525651288587263571e-04,-5.340754669453725602e-03,2.078723907470703125e-01
2.166872779367434720e-01,-2.361227854916542190e-02,-1.573213283437328858e-02,-1.287292924894741647e-02,-6.629956803007044756e-03,-7.919903168939687599e-03,2.381796836853027344e-01
2.136966963224544713e-01,-2.349489432397296185e-02,-1.535287433226434350e-02,-1.406567477605955366e-02,-9.126289408031739575e-03,-7.968852105417706042e-03,2.354332804679870605e-01
2.711800526079949369e-01,-2.560832703888439588e-02,-2.481326086487424532e-02,1.558140364162614736e-03,-8.302382184177221295e-04,1.764393956460528893e-04,2.964075803756713867e-01
1.643475934049247744e-01,-1.644654940357669071e-03,-2.070060460691067195e-03,5.808930586957203454e-04,7.832516785844215092e-04,2.018850952155581578e-04,1.662143021821975708e-01
2.680711670120754508e-01,-1.334414753061377579e-02,-1.306292249324317312e-02,1.095074347943682681e-03,-2.555602124538816893e-04,8.746731234324234272e-04,2.812856435775756836e-01
2.720381462259691130e-01,-2.319523607990402192e-02,-2.675896589180612462e-02,-5.190419577168860411e-05,2.523495128179091421e-04,1.690351312056103056e-03,2.970460355281829834e-01
2.737384336469699253e-01,-2.100982247915678114e-02,-2.293237267642771193e-02,-4.085998045131041347e-04,-3.040265492655792331e-05,1.800939762828211938e-03,2.957315146923065186e-01
2.726774391669961606e-01,-1.965692149881435868e-02,-1.947976811404600328e-02,1.113223291600074806e-03,-8.142415547402212603e-04,1.990870838642226951e-04,2.922557890415191650e-01
2.784806092564781066e-01,-5.157299086446978653e-03,-2.955805773947453585e-02,-2.571586722425394864e-02,4.774025955979842480e-03,2.021996067353405268e-03,3.000523149967193604e-01
2.700413658849930565e-01,-2.100193581123536990e-02,-3.679655075687150723e-02,-3.743371437968429083e-02,-5.221153325841961564e-04,1.333104019394287711e-03,3.062067627906799316e-01
2.721314709914838814e-01,-2.147636290389065561e-02,-2.370114745955539948e-02,-1.373314965805332239e-03,2.306247414532226238e-04,-2.654433046955682277e-04,2.947367429733276367e-01
2.608686832578347436e-01,-2.774937352179671080e-02,-2.904602748101270393e-02,2.788235196075276867e-02,-2.411556885873258199e-02,-2.061929350382542096e-03,2.962532937526702881e-01
1.952456942904155501e-01,-1.040094484784326312e-02,-6.539227516708698285e-03,6.599511744943642813e-05,-9.389100312340243129e-04,2.279215901552258863e-03,2.037879973649978638e-01
2.633873195690425995e-01,-2.079852213845398423e-02,-3.354131703383299301e-02,1.758461058256306688e-03,-1.387108331916198480e-03,1.573916295528951861e-03,2.908053994178771973e-01
2.666687411308552580e-01,-2.451080568413414873e-02,-3.077389034928737499e-02,4.435166551827032571e-04,2.755805508019377927e-04,1.639891387660821070e-03,2.943761646747589111e-01
2.633252605074098418e-01,-2.241998154266165721e-02,-3.115747394631381006e-02,1.514861280246921314e-03,-5.135879809281351880e-04,7.398621961499930429e-04,2.902286946773529053e-01
2.715613886540553246e-01,-2.381597836742771479e-02,-1.744906557829475902e-02,1.379068717803876238e-03,2.853077855699296013e-03,-2.788326796153203085e-03,2.923373579978942871e-01
2.776145189977241579e-01,-2.219819877437056999e-02,-2.800085330367435565e-02,1.744958643990134669e-03,1.641399338916427024e-03,-4.575862943943869669e-04,3.027852177619934082e-01
3.971630225159756833e-01,-2.778810655853344858e-02,-8.455303285024723392e-03,5.564454628761492105e-02,1.577657666229313055e-02,3.658469370258773945e-02,4.321951866149902344e-01
2.373350496116380104e-01,-1.730312104458087141e-02,-3.156052739512101024e-02,-5.874399497695993559e-03,-1.135181455188861120e-02,-5.305682993554057536e-03,2.631518840789794922e-01
2.712635974501088620e-01,-2.602215224312483255e-02,-1.379040154069632873e-02,7.875256967707884928e-04,2.580001128215437135e-03,1.840783630363992040e-03,2.914173901081085205e-01
2.676405889877305766e-01,-2.454684971857469533e-02,-1.302143703153565979e-02,-4.054819581473624655e-04,-1.107809829866717192e-03,-3.770911274937687255e-03,2.866802811622619629e-01
2.656177888903816786e-01,-2.592089416645003419e-02,-2.299703091683946710e-02,1.622476398957714550e-04,-3.351814382316333158e-04,-8.879366406306351872e-05,2.900885641574859619e-01
2.604432950466140095e-01,-3.123504291976310354e-02,-2.263157987086147904e-02,-7.229003051901885038e-04,-7.531244815179298936e-04,-1.808323554365062237e-03,2.874959409236907959e-01
2.650570069944929164e-01,-3.025493399193077138e-02,-2.495241156927571757e-02,-1.349163155212722894e-03,-1.308315330409378242e-03,-2.506414580493799941e-03,2.927469909191131592e-01
2.251353034794121022e-01,-1.365423692555046975e-02,-2.618000147546940826e-02,-2.809516602928231722e-04,-1.141980622499170388e-03,2.899211869500580106e-03,2.453522533178329468e-01
2.567776544376635384e-01,-2.249607637873508870e-02,-2.751575989564460090e-02,-2.315864733757759032e-04,2.899755904538111576e-04,5.132741170814387500e-03,2.819580137729644775e-01
2.267254461916085317e-01,-2.662274354307461732e-02,-1.396972385026980235e-02,-8.925961886352756433e-03,-3.790766099584441488e-03,-6.061083746482670911e-03,2.480566948652267456e-01
2.654877452576763219e-01,-2.848079282992034555e-02,-2.471802547002847905e-02,1.121425027805254089e-04,3.185615283633050679e-04,-1.643651705667163905e-03,2.921198010444641113e-01
2.606853647233677851e-01,-2.785757892549770021e-02,-2.487175485983281198e-02,-2.705504950346545017e-03,5.417583551267382775e-04,-4.863937232000587613e-03,2.872250378131866455e-01
2.718883026944570735e-01,-2.311232609759444889e-02,-2.659486280485418019e-02,2.013434391297276409e-03,7.526925091015573832e-03,-2.349538888665286297e-03,2.970918118953704834e-01
2.704246726269843304e-01,-2.884569013943559523e-02,-2.674402268893287526e-02,3.074095360118227335e-04,4.889580022484268712e-04,1.025551172865725268e-04,2.982268035411834717e-01
2.701469044236190498e-01,-2.849191489944734312e-02,-2.676227172793978204e-02,-4.955360822145033059e-04,1.927063013594459235e-04,4.678882102493098411e-04,2.977803051471710205e-01
2.704879619453481321e-01,-1.814943502400433173e-02,-1.650020959996263692e-02,2.079416587302314583e-03,-5.397979541076408302e-04,1.277072577308184086e-03,2.878488898277282715e-01
2.718402740632430703e-01,-3.057256729396605477e-02,-2.326429344730909787e-02,4.445606968936027283e-03,-6.483167713557949022e-04,-2.910819406813975555e-03,2.989695370197296143e-01
2.718591397151298716e-01,-2.897332081894324340e-02,-2.601493770422994012e-02,2.124969015270925681e-04,-7.998710526439624987e-04,1.998919777155889110e-04,2.993678748607635498e-01
2.701135747098563078e-01,-2.509105053913228411e-02,-3.044473433125823025e-02,2.499438833994747488e-03,5.927190244982707230e-04,2.599088057853509142e-03,2.979847788810729980e-01
2.548461198318029974e-01,-3.312064580132903502e-02,-1.868350194003041975e-02,-5.509463193718714714e-04,3.533638497985809352e-04,-4.568275631584075083e-03,2.811401188373565674e-01
2.700459446327520552e-01,-2.514478459890549800e-02,-2.954278554048864192e-02,2.533618062536498183e-03,-6.452657057227050019e-04,9.193127097932357258e-04,2.974528670310974121e-01
2.396079086703788441e-01,-2.473290877840410296e-02,-1.826358778224099200e-02,-2.673990394978689841e-04,1.787086709722213846e-04,-5.876386380245310001e-03,2.613651156425476074e-01
2.712713209543748394e-01,-2.637486232450123036e-02,-2.861774982105201592e-02,1.601416295334977865e-03,2.056498434942040582e-04,7.258850490026078593e-04,2.987896800041198730e-01
2.695627167500107557e-01,-2.662707893677825066e-02,-2.814399272378552419e-02,-9.808321507197885144e-05,-2.030560255361497891e-04,2.576488655987535059e-04,2.969517409801483154e-01
2.676143907758253837e-01,-2.458312171519792810e-02,-3.033200914304923224e-02,1.111644160184259694e-03,-5.419594389919951596e-04,1.004801116968461220e-03,2.951268553733825684e-01
2.685107735385949823e-01,-2.863742969452669207e-02,-2.513845528441906174e-02,-2.598997851160558402e-04,-9.179984327059207382e-04,-1.693134986955849514e-03,2.954334318637847900e-01
2.677106443061287866e-01,-2.846182927127155482e-02,-2.630865580725166852e-02,-5.134135638709961586e-05,2.396290542742439997e-04,-2.977682681195520722e-04,2.951025366783142090e-01
2.702576612659955968e-01,-2.454955810743586486e-02,-2.502135312662691347e-02,3.007880608905339013e-04,8.137202071614853217e-04,6.144679967425955586e-06,2.950472235679626465e-01
2.702878314624601597e-01,-2.255825935946552396e-02,-2.310830254175182119e-02,2.164007679968407661e-04,-1.347138958682560315e-03,2.973232860239084416e-04,2.931314706802368164e-01
2.688785093561755213e-01,-2.844236994190110779e-02,-2.721592776869781460e-02,-4.233704896052172429e-05,-1.187743976823859757e-04,-6.634571317897858993e-04,2.967118620872497559e-01
2.693123976314207857e-01,-2.824340833738421541e-02,-2.714093934915626227e-02,-5.214985373666157368e-04,-7.505588524140845413e-04,-1.152994809701984131e-03,2.970170378684997559e-01
1.962136224028582232e-01,-4.612908920433908544e-03,-1.522102273839069653e-02,-7.454654530863224268e-04,-1.786954554787597692e-03,-2.729712051923588283e-03,2.064166218042373657e-01
2.680835022723125904e-01,-2.661849332029064819e-02,-2.587163647726252458e-02,-1.368740033036658442e-04,8.768320194674453661e-04,-1.003862759788065476e-03,2.943384349346160889e-01
2.697909620620223548e-01,-2.704297549616697938e-02,-2.718517033398998306e-02,-8.250697488475229361e-06,6.482465338498450812e-04,-5.460231945438320393e-05,2.969071865081787109e-01
2.689800226793610527e-01,-2.719665672037123449e-02,-2.845873897836316557e-02,-2.096342183428303533e-04,-5.270634982489808023e-05,-6.122260302524579851e-04,2.968118488788604736e-01
2.733868227730280043e-01,-8.967076564056333798e-03,-2.671258331070698600e-02,-3.513208645711814182e-03,2.411208305450236906e-03,2.996171763188131779e-03,2.917713820934295654e-01
2.701372388315302908e-01,-2.848496279477842619e-02,-2.771325228882007274e-02,2.705526016852255358e-04,2.121973663509988414e-04,-3.907220223673115930e-04,2.982384562492370605e-01
2.744340125867442692e-01,-1.920619934525857886e-03,-2.436574843480643349e-02,2.007496165684521331e-03,-1.164145390553554885e-03,4.425912386035037865e-03,2.883633077144622803e-01
2.779895653408231970e-01,4.965807837745556119e-03,-3.656151284862160789e-02,-6.741977519711239014e-03,2.618911926209857750e-03,2.263542178591885536e-03,2.962714135646820068e-01
2.704393501416662016e-01,-2.770369548708841168e-02,-2.825940087546817414e-02,8.672306251201568196e-09,-1.723379767035933285e-04,-2.226591782097287365e-04,2.984216809272766113e-01
2.666681719314819565e-01,-2.616334196310182714e-02,-2.333953770826760477e-02,1.113076457529594242e-03,-5.790312078911532732e-05,-1.155184151193292116e-04,2.914363443851470947e-01
2.641822440043405384e-01,-2.346705336363914818e-02,-2.719847433096282685e-02,4.525115936192217192e-03,5.380482692752282367e-05,1.216007470471222596e-03,2.896467745304107666e-01
1.931235995319359466e-01,-9.400384740209391521e-03,-2.464137788190494394e-02,-9.981876218173844212e-03,-3.161046725257442985e-02,-2.488864349117726835e-03,2.182889878749847412e-01
1.970705453386585593e-01,-3.008959433971281072e-03,-1.713230025687136060e-02,5.689250580160851731e-04,-1.646479438548692975e-03,1.400555200096683956e-03,2.075380831956863403e-01
2.586325112987741259e-01,-1.689756680990447957e-02,-3.428239635037991229e-02,2.637584910675552004e-03,-8.962013326076719022e-03,1.058963850270684811e-03,2.850864529609680176e-01
2.265187569289074387e-01,-1.043115292749767498e-02,-2.820127105560620018e-02,4.838125951810423424e-03,-1.032580288734849874e-02,-1.865804448461213464e-03,2.471278905868530273e-01
2.561876469431102477e-01,-1.772762904848625143e-02,-3.642604250943111410e-02,1.415434533494536662e-03,-4.191804071162955042e-05,1.137442534541597194e-03,2.837443947792053223e-01
2.796197549999678289e-01,-3.729757162128205517e-02,5.347640679800230723e-03,-2.106547799555048318e-03,4.523454713087161905e-03,2.456180966134184455e-03,2.980486452579498291e-01
2.494754771721499065e-01,-1.514556364743761818e-02,-3.447603576198447761e-02,2.050768404664024634e-03,-3.587910730432268200e-03,1.315782134539406675e-03,2.748993337154388428e-01
2.724248347514459656e-01,-2.103740618643143434e-02,-8.102549719501861425e-03,1.997456062162361080e-03,-2.044156575887461948e-03,1.986123914590384558e-03,2.872765958309173584e-01
2.387712997131555548e-01,-1.817915464850895779e-02,-2.481356729390557514e-02,1.016350323347005893e-04,-2.180929029647971432e-04,-6.035171038863879761e-03,2.605412006378173828e-01
2.486606033568580509e-01,-2.343833538501634284e-02,-2.362090566052131579e-02,1.707314490596621790e-04,2.164539430743698677e-04,-5.233585578050796265e-03,2.723415791988372803e-01
2.525254007553954794e-01,-1.971651397649751281e-02,-3.016771546741919829e-02,2.797277296921591837e-03,-7.027156369724002830e-03,3.813213437587098693e-03,2.780024707317352295e-01
2.473185630531654633e-01,-1.954376273092219007e-02,-2.757082128405145827e-02,2.272855273518000624e-03,-2.215597161219036958e-03,4.927688109761851898e-03,2.711551785469055176e-01
2.627840995059685936e-01,-1.965315840960005223e-02,-3.474440667912943870e-02,9.190066370599826642e-04,-2.307413923927861214e-03,-1.083946309972490512e-03,2.903151810169219971e-01
2.336345908537384164e-01,-1.392218474854431398e-02,-3.065695622395556152e-02,-2.526352901736394260e-04,-1.187123402841515525e-02,2.834184607681338418e-03,2.572047412395477295e-01
2.683477582939323702e-01,-2.775968937328883446e-02,-2.831991795989508010e-02,-1.219333551145199970e-03,-1.359532016092950641e-03,-1.788859182237984968e-03,2.964210212230682373e-01
2.586620140927433642e-01,-3.505915553625105208e-02,-1.685842583488662838e-02,-5.982666639270649853e-04,6.067093834636021069e-04,5.393390522788838121e-04,2.850622832775115967e-01
2.551092849250661820e-01,-3.598886546420250465e-02,-1.432839671323714315e-02,-4.241537466163087383e-03,-7.425972075969323799e-04,-2.897138747377346482e-04,2.809944152832031250e-01
2.513841882435111641e-01,-3.558345415442371040e-02,-1.547476577477426007e-02,-3.427300117861916719e-03,-4.279152635442422275e-05,-1.228340634186713418e-03,2.775320112705230713e-01
2.585547680119422154e-01,-1.934335363787170747e-02,-3.543567176892613302e-02,3.486015928524909273e-04,5.213343730376838927e-04,-5.471551741990095079e-04,2.862873375415802002e-01
2.563769118882097686e-01,-3.556525607999572181e-02,-1.703385161029012662e-02,-1.638310171557947996e-03,4.846821922287418817e-04,1.191264039999855083e-04,2.831472158432006836e-01
3.284360429934624626e-01,-2.940512561638600197e-02,-4.771826258558542477e-03,1.656891790966626143e-03,-5.470593183479961416e-03,2.525581628096133791e-02,3.490757644176483154e-01
2.418988401082028394e-01,-1.452470950852764731e-02,-3.171588090847142494e-02,3.945580108770693588e-03,-4.703228830575779213e-04,2.102879440372916291e-03,2.655511796474456787e-01
2.662097148726532136e-01,-3.439196635364333288e-02,-2.017642936712324420e-02,1.407089437738010592e-03,7.215008588998301923e-04,8.786748817630827667e-04,2.937687039375305176e-01
2.768367238444284784e-01,-2.178818488561926059e-02,-1.328486532147707400e-02,1.662350054338171054e-03,9.632483282790300569e-03,-1.616442073096523158e-02,2.962774932384490967e-01
2.618343150142978804e-01,-2.119395492488572452e-02,-3.298545982673724286e-02,-4.340871664934944398e-04,-1.717494424756422450e-05,-1.707500043842039841e-03,2.891205251216888428e-01
2.869798977375909166e-01,-2.582164706343706428e-02,-1.388882005500838290e-02,-1.363436031347237728e-03,4.706933215726084949e-04,-3.864407072813753549e-03,3.070922195911407471e-01
3.153028010046841079e-01,-2.758521157278118197e-02,-2.074149785207254904e-02,9.713588638772146719e-03,1.653081014177984129e-02,-6.034303286455457854e-03,3.412982523441314697e-01
2.993488013138020376e-01,-2.539741842793319382e-02,1.017881456360503201e-03,2.105714956254254016e-03,-1.154935651115526936e-02,-1.034653972689484822e-02,3.135509788990020752e-01
2.660733235407273245e-01,-2.991611493967923086e-02,-2.361906996590242003e-02,3.741522508383852649e-04,2.826210665461581137e-05,9.851816190425519322e-04,2.928973734378814697e-01
3.563323408232274003e-01,-2.973201872255470946e-02,-7.521431374982123774e-03,-3.451093518625614892e-02,3.269995351636030556e-02,-3.704961715752019130e-02,3.896962702274322510e-01
2.657509177467956563e-01,-3.352296328885770449e-02,-2.245954582466171134e-02,-3.767178275582322737e-04,5.099001500770646879e-04,7.615585777850346219e-04,2.939034104347229004e-01
1.597853246567871310e-01,2.556522843513708843e-05,-1.835244710958687520e-03,8.804792560899279204e-05,1.858835631603886115e-05,-1.533763162289539499e-03,1.607202738523483276e-01
3.107894873410760872e-01,3.581330973999721778e-03,-4.708504277048691788e-02,2.187578801075160118e-03,1.067680258594038388e-02,-1.135700998164350731e-02,3.365298509597778320e-01
2.959940588728755539e-01,-3.026993582816431272e-02,-3.060368394195628339e-03,9.293970159642490556e-03,-4.319209291627633569e-03,-1.549395458736095230e-02,3.151925504207611084e-01
3.669418746255269093e-01,-4.683424750621326127e-02,8.918574498726197786e-03,1.142977097592349882e-03,2.547870437598324933e-02,1.576774760418163043e-02,3.923609852790832520e-01
2.492517076626857286e-01,-2.530040651080693592e-02,-6.389144142179614683e-03,-2.875021728946784705e-02,2.169474657082251859e-02,-1.865898470197299361e-02,2.747372388839721680e-01
2.699401625591855147e-01,-2.685912112655081119e-02,-2.787197580318270806e-02,8.819785439345028582e-05,-1.293501605324306808e-03,1.447203566450001259e-03,2.973260581493377686e-01
2.708058552999929036e-01,-2.953474253952362294e-02,-2.662949799543540275e-02,-1.761735252687472622e-04,-5.440528932187864257e-04,1.181187552391612479e-03,2.989072203636169434e-01
2.594542025801712670e-01,-2.544033383827087880e-02,-2.749168674729965400e-02,1.625615919289239743e-03,-2.849700056269708986e-04,3.988091893691829773e-03,2.860234379768371582e-01
2.723193315311911444e-01,-2.838911797522014613e-02,-2.619384483673822817e-02,6.043638953507544237e-03,-1.034898937097438083e-03,3.674459912317459571e-03,2.998725473880767822e-01
2.323906393871698894e-01,-2.827701288551948133e-02,-1.364230988160457236e-02,1.237520444901200889e-02,-5.372873747628364831e-03,3.047863661651945520e-03,2.547958195209503174e-01
2.629412770627134188e-01,-3.046919920791479885e-02,-2.307791270114939453e-02,-4.931524863131328410e-04,5.527321892065422586e-04,-5.987097975799643163e-04,2.897902429103851318e-01
2.406197206862408511e-01,-2.013637896923194115e-02,-2.087485919394684031e-02,1.086529329701962747e-02,-4.501356453196215558e-03,7.626842291734711905e-03,2.622523903846740723e-01
2.610317548992774350e-01,-2.775798086175890189e-02,-2.312110047174931182e-02,5.244769029460610854e-03,-3.533472761826605664e-04,3.480165840852481301e-03,2.867074608802795410e-01
2.681213158375989059e-01,-2.691006893038437597e-02,-2.751933367486059101e-02,2.494327664137255133e-04,-1.741292571178122022e-04,-9.387640738481203536e-04,2.953414320945739746e-01
2.652983460829104190e-01,-3.193267160248926262e-02,-2.309011622841793121e-02,2.518949184921871146e-03,-1.191772130892282270e-03,3.188733090882832095e-03,2.930016815662384033e-01
2.479918570227740149e-01,-2.580059894111369490e-02,-2.252965447549548639e-02,4.546073177240568010e-03,-1.236936239628064248e-03,5.486971274613161413e-03,2.724598348140716553e-01
2.108471583555306395e-01,-8.246395732704012160e-03,-2.576922229425482325e-02,4.202335308738889240e-03,-1.266245706320287025e-02,-3.379514910182963524e-04,2.295266985893249512e-01
2.539311502997088632e-01,-1.779345486474394333e-02,-3.346791613730594472e-02,-9.791041440882362521e-05,-3.793610511513299810e-03,2.279060458418867823e-03,2.799961864948272705e-01
2.621937603070846334e-01,-2.041536691644724177e-02,-3.389132411110844234e-02,1.291651416280255489e-03,-3.671239865559966335e-03,1.992938635800343885e-03,2.896813750267028809e-01
2.541957413153291823e-01,-1.549276177028854895e-02,-3.530660096386932512e-02,1.018285779841357396e-05,-1.011231359016651527e-04,-9.611819290103680623e-04,2.801264822483062744e-01
2.681397402053845580e-01,-2.266393137903831290e-02,-2.147025183267688153e-02,1.300635978784495800e-04,-2.329042700491202288e-03,1.370227991549704660e-03,2.902464866638183594e-01
2.389566983255407562e-01,-1.695413339187044899e-02,-2.744476502440784671e-02,3.553234884100725847e-04,-8.276603179725799345e-04,-6.830753693465197764e-03,2.615864872932434082e-01
2.598075354509413737e-01,-1.856532158227383600e-02,-3.523248462895416100e-02,-3.274789083039395736e-04,-3.602244575454687154e-04,5.149400734631491647e-04,2.870721817016601562e-01
2.539337712170417483e-01,-1.494706292061762087e-02,-3.548299767751036948e-02,2.483103183364163222e-03,-2.562392349618030848e-03,-1.149581437362914328e-03,2.797901034355163574e-01
2.599668070739289405e-01,-2.201198383370504830e-02,-2.669420701124652906e-02,2.032516585755589269e-03,-7.504759984400696110e-03,1.046876597743177760e-04,2.846675813198089600e-01
2.648091561532031069e-01,-2.349272288312488632e-02,-3.310112757264864480e-02,2.723965440359359287e-04,-3.753106603185558119e-04,-1.987226830697172864e-03,2.932454645633697510e-01
2.740430075505305707e-01,-1.592984989669136986e-02,-2.423660698393036161e-02,-5.745686976328458033e-03,1.753198397039557076e-04,6.865841412424503101e-04,2.943850159645080566e-01
2.716583155180838371e-01,-1.879486848917030772e-02,-1.927251201043879425e-02,6.585416924637342573e-04,-6.310019413419783911e-04,-1.364505369150868959e-03,2.907061874866485596e-01
2.562029561679258771e-01,-1.723238650834527097e-02,-3.451939967357064987e-02,1.571106346345661363e-04,-1.278062088646995942e-03,-7.574375533603613497e-04,2.824876904487609863e-01
2.548721140582737021e-01,-1.717232858283399000e-02,-2.899002635001969586e-02,4.125735575120389304e-04,-2.817680184860620746e-02,1.481173309577983165e-03,2.824033796787261963e-01
2.694241452895077549e-01,-3.505135085574664910e-03,-1.521562314637357749e-02,-4.837029859484449825e-04,-1.243392559158963771e-03,5.254910629344580579e-03,2.791269421577453613e-01
2.546664560034800351e-01,-1.867558018148944565e-02,-3.003920375809759902e-02,7.407098651808594059e-03,-5.818571745402209387e-03,2.299305918060271653e-03,2.797019481658935547e-01
2.601502888698370985e-01,-1.708587302423622556e-02,-3.633035604319727330e-02,1.030713448028143389e-03,-7.560398374864475040e-04,3.252588776829107059e-04,2.873512208461761475e-01
2.959892917313534655e-01,-3.470988908216890434e-02,-2.688270576602300177e-03,3.482045477301421582e-02,4.680092170822765935e-02,3.711748757836345891e-02,3.378450870513916016e-01
2.649073520512378321e-01,-1.936473003690578065e-02,-3.434701849167270948e-02,2.426744565351595718e-04,3.104190947238326566e-03,1.015380779001506719e-03,2.921066880226135254e-01
2.687684886842278686e-01,-2.269430429356074364e-02,-3.094737773735636854e-02,-7.095051296484956383e-04,9.826891789498602703e-03,3.060107619256953720e-03,2.962152063846588135e-01
2.399426480035283804e-01,-1.642506384391276275e-02,-3.022716604330905055e-02,6.475029047683918213e-04,5.824595521712728693e-03,3.403804341554613876e-03,2.638012766838073730e-01
2.599149171160826111e-01,-1.761777116722545999e-02,-3.369838751264742083e-02,-2.703143893123327330e-03,-3.246420263668863080e-05,2.658369497061011544e-03,2.859877645969390869e-01
2.672750832881508609e-01,-2.110142004605541910e-02,-3.389153033584697827e-02,-1.095610218033499412e-04,1.260502735040071277e-03,1.163647845401521649e-03,2.949946224689483643e-01
2.653321234617436186e-01,-2.101289023329190597e-02,-3.320491014541002150e-02,-2.365520400525347017e-04,2.574112622270283732e-04,1.263738690640948872e-03,2.926403880119323730e-01
2.995398985739505804e-01,-4.706562917324183526e-02,2.242319042800000606e-02,-1.165176388172659569e-03,5.003158535793540349e-03,2.308310619909873483e-03,3.177641034126281738e-01
3.309995257544157132e-01,-5.504991199047595818e-02,1.847766399879513521e-02,4.083642945218923272e-03,-7.632415409283621133e-04,1.273602464930121293e-03,3.551222681999206543e-01
2.244357358203285802e-01,-1.159961619865854110e-02,-2.286809115600826892e-02,3.118710616298101652e-04,-2.456994335243879854e-04,5.936481528621859356e-03,2.420859783887863159e-01
3.407169570951291693e-01,-4.276543518160383361e-02,1.462398512591948918e-02,-5.981219729417906576e-03,-2.143149876287238700e-02,3.163198485552227209e-03,3.603605628013610840e-01
3.212723134361079036e-01,-5.903950788319820009e-02,1.383232137273786300e-02,-2.767372513683689483e-03,-1.852203049513717614e-02,1.319672463539063242e-02,3.518636226654052734e-01
2.348954416864815209e-01,-7.981708397096026752e-03,-2.720148625196003311e-02,1.852800420615248293e-03,-3.653207686250469974e-04,2.279177956290966839e-03,2.530870139598846436e-01
2.635198467955713331e-01,-2.787951098259187910e-02,-2.169333897702103997e-02,3.568459205878785545e-04,-3.851624169422731159e-04,-3.116696104873560753e-05,2.883574962615966797e-01
4.108699896194313306e-01,-6.056122433399430127e-02,1.280188408716825821e-02,-1.596164259223302115e-02,2.305749085580266131e-02,-3.570186214357681494e-05,4.420442879199981689e-01
2.765697958919411947e-01,-2.431875541606411117e-02,-2.448199995063185530e-02,-1.765095777005268069e-04,-6.124702982900683176e-06,-8.153208810088062933e-04,3.009736835956573486e-01
2.758632827687401146e-01,-2.690522348861915103e-02,-2.587871583493607519e-02,1.175606561676966703e-03,-1.304399153508913186e-03,-2.621484860094937426e-03,3.023059666156768799e-01
2.775361087881946798e-01,-2.603275674541166707e-02,-2.747289409720729547e-02,-7.951081847558062396e-04,1.170612818790783133e-03,-1.935876703343137857e-03,3.043198287487030029e-01
2.779743731345485913e-01,-2.696174720925532953e-02,-2.572908377201937880e-02,-8.014541378589314655e-04,-2.025390326930434019e-04,-4.180568969384402243e-04,3.043258786201477051e-01
2.775987973227587169e-01,-2.594076124628888480e-02,-2.755251828522577162e-02,4.376406149439953470e-05,-6.341164059379091533e-04,-1.100950185918943497e-03,3.043566048145294189e-01
2.607786945379428345e-01,-2.018097988807804333e-02,-3.300529474506580518e-02,-2.488760229710037684e-04,4.727303078001360553e-04,-4.351343448188219314e-04,2.875888347625732422e-01
2.636180221450059591e-01,-2.680152170985913851e-02,-2.765597521979699935e-02,-4.558247214969195736e-04,6.680256324178715857e-04,2.891443766240155144e-03,2.908942103385925293e-01
2.589072272260005136e-01,-3.072829102663382494e-02,-2.228368586209691915e-02,-1.717887170932576660e-03,-1.929667889953792879e-03,-3.422530765915256581e-03,2.856034934520721436e-01
2.140751610269762961e-01,-8.971021267331583116e-03,-1.745384755165137192e-02,-9.727183551547173416e-05,-5.783351760463865867e-04,6.244798532551670486e-03,2.276656478643417358e-01
2.621983348008639636e-01,-3.030359309472255291e-02,-2.346364806055797891e-02,-1.363999424767713424e-04,2.208464055867759897e-04,-2.969323724258503706e-03,2.891887128353118896e-01
2.628963745730014123e-01,-3.253096680003443597e-02,-2.157381352446213763e-02,-9.022915732341005388e-04,-9.739181608048627474e-04,-1.415943582219573570e-03,2.901234924793243408e-01
2.084030323512904292e-01,-2.852647312592390683e-02,8.288824115558146577e-03,2.521881078209810625e-02,8.458767017435769864e-02,5.501075216906135650e-03,2.687606811523437500e-01
2.697901335774233189e-01,-2.961144725855788251e-02,-2.303106982669159142e-02,3.249334039032168980e-03,2.597909534710751288e-04,1.176363542739574134e-03,2.962270379066467285e-01
2.780237270432790453e-01,-3.705138173430289061e-02,9.423069165739511588e-03,1.721123406140840327e-03,6.860443647514872373e-03,1.893549701851396675e-03,2.948730289936065674e-01
2.654067399035794361e-01,-3.094280721592948535e-02,-2.245999496388002836e-02,-4.965871260113487564e-04,5.029936417734419797e-04,2.199464092373294277e-03,2.922278940677642822e-01
3.117422583446484152e-01,-4.349929045534908778e-02,1.543501434752010681e-02,2.519634213441677290e-03,-1.123400670039537488e-02,1.638688874692917352e-02,3.315677046775817871e-01
2.713233566899133642e-01,-3.020102574813410268e-02,-2.575423325960099485e-02,1.165172360598517752e-03,4.696721513382086464e-04,8.506514790028385986e-04,2.993372976779937744e-01
3.909180479212738812e-01,-5.652528747736654258e-02,8.178705098683347607e-03,2.436953311163374269e-02,-3.472531987626139433e-02,1.322742926198474354e-02,4.258694946765899658e-01
2.805463734039285173e-01,-4.102983816709518394e-02,1.777155821079325071e-02,1.046580238107509267e-03,1.000648778853177297e-03,-1.645376780072389214e-04,2.965908050537109375e-01
2.893323571457547816e-01,-4.116844618118822852e-02,1.590058724969065085e-02,2.253433100654930570e-03,-2.202994735218008222e-03,-3.990754248819100743e-04,3.060336112976074219e-01
2.847587455224840358e-01,-3.788173930966529102e-02,8.884045751504504596e-03,1.304123721157517948e-03,1.610576592489492212e-03,-3.762033803219967990e-04,3.020077645778656006e-01
2.832901856619024494e-01,-3.846235335597902871e-02,1.805394295013716677e-02,2.976287491601432942e-03,-5.089409254540395089e-04,2.018188103505756670e-03,2.976140081882476807e-01
2.680028246804399550e-01,-2.631944674838219977e-02,-2.864735714684729651e-02,2.069992530982094113e-04,-3.898254699682083949e-04,-4.533226555774900069e-04,2.954951226711273193e-01
2.970012255310324756e-01,-4.217238498104775024e-02,5.801576485133491667e-03,-2.283101323693131503e-05,6.404823049653454552e-03,-1.228669715239114838e-03,3.181137144565582275e-01
2.637828444926069715e-01,-2.662376287421210075e-02,-2.675571223305618640e-02,3.230727379058308257e-04,2.082569709738256274e-04,-2.211871781572271115e-03,2.904986441135406494e-01
2.822696098756606320e-01,-3.627514003050558156e-03,-4.696720527896927622e-02,6.001468180144143780e-03,7.972060601044451966e-02,-3.524458286042370103e-02,3.448288142681121826e-01
2.736549352130927537e-01,-1.091864680425526368e-02,-3.303474414609100518e-02,-1.062024269287870429e-02,1.209106513571228496e-02,5.956088076639004612e-04,2.975616157054901123e-01
2.764499993151244284e-01,-1.490202862523548610e-04,-2.776802849331327927e-02,-1.220300945740706959e-02,5.347772568895534616e-03,-7.264776009963667611e-03,2.925749123096466064e-01
2.695682763245207392e-01,-2.842908846419547886e-02,-2.860938817322267180e-02,1.661697650655447175e-04,2.695880447433919558e-04,-7.516211174009859112e-04,2.980909049510955811e-01
2.676865947737389062e-01,-2.746322688531238621e-02,-2.075662110712933606e-02,-6.059114956115761209e-03,-2.413348926210660958e-04,-2.021152960505384258e-05,2.920432388782501221e-01
3.092889527489752766e-01,-2.988291981075835713e-03,-3.474678745168491290e-02,5.533656550927301687e-03,4.470809256810532976e-03,-1.377645154832455102e-02,3.304002583026885986e-01
2.764328660479382638e-01,-2.385359528791416994e-03,-3.556342581769461608e-02,-1.787860095855634338e-02,3.411676701562307151e-03,-2.252927574624663011e-03,2.984964251518249512e-01
2.782311930350170881e-01,-2.203551113948844231e-02,-2.480082077717411793e-02,3.516767267488166019e-04,1.220147853484597814e-04,-8.431711760251889808e-04,3.016631007194519043e-01
2.713087472880167383e-01,-2.907401687294840220e-02,-2.677142211880254030e-02,4.535939131351473218e-04,-4.355200821488070754e-04,1.174199834979514252e-03,2.992469966411590576e-01
2.951438739309248938e-01,-2.276322980037062682e-03,-3.911658015338248529e-02,-1.343081983308803268e-02,1.411204703244772415e-02,3.283770491812304515e-03,3.192866742610931396e-01
2.755765262820778494e-01,2.370907175619496599e-04,-2.732670854061268473e-02,-1.103510793107105419e-02,6.025809540657531792e-03,-6.798049691025835096e-03,2.911595106124877930e-01
2.727859516623438729e-01,-2.866950280354220448e-02,-2.591290073096029489e-02,7.910006358855080225e-04,4.400036524125958528e-04,6.420913581498694780e-04,3.000928163528442383e-01
2.705482163421503161e-01,-2.652866319206088896e-02,-2.564162979857950719e-02,1.051748700844286604e-03,5.034512385711959219e-04,1.433564007019413281e-03,2.966516315937042236e-01
2.611304437424905034e-01,-2.356960486920731124e-02,-2.839347451211292339e-02,3.871476677748135389e-04,3.329611073830538912e-04,-3.342645239009768565e-03,2.872020900249481201e-01
2.711774053262141493e-01,-2.805294512464508172e-02,-2.768772710175013141e-02,5.925419634599390310e-04,-4.057909957557546553e-04,1.109950697633290068e-03,2.990566790103912354e-01
2.716097351397177562e-01,-2.902146939794965352e-02,-2.815554868090565377e-02,-3.854223147225328220e-04,4.572628494532997474e-04,2.484631852792937886e-04,3.002012670040130615e-01
2.720430624675309605e-01,-2.821925518206375161e-02,-2.716826380704975841e-02,7.053614005506931434e-04,-4.851495614023361722e-08,-3.040814885971112203e-04,2.997411489486694336e-01
2.691100017675502887e-01,-2.815784629482266654e-02,-2.769913028102416463e-02,1.541514469489831682e-03,-1.879180715061826851e-03,1.803073968003566282e-03,2.970849871635437012e-01
2.681267590131458656e-01,-1.466136695442936400e-02,-2.762101894882422470e-02,4.771220802061470687e-03,1.891452593584091665e-02,1.134838701689067433e-02,2.921127080917358398e-01
2.720149529748583372e-01,-2.158228653967173005e-02,-6.211284116586723858e-03,-2.885754593351833302e-03,1.617200867195453962e-03,2.305227712994327178e-03,2.863066494464874268e-01
2.713087494976595959e-01,-2.003937036514101544e-02,-1.874243706254646868e-02,-2.464148548452846279e-03,-3.060888596353480810e-03,4.022574673368398482e-03,2.908649444580078125e-01
2.633105404613311773e-01,-3.416265249929996417e-02,-2.034226638365908835e-02,-3.054911449631099712e-03,9.853194624502412038e-04,2.345271996191118213e-03,2.908909022808074951e-01
2.471797795658297325e-01,-1.547899217022009888e-02,-3.267720935327424192e-02,5.737161302757163694e-04,-2.598193939114271859e-04,-2.755868104301566809e-03,2.717106044292449951e-01
2.645712323394619481e-01,-3.036241671107767215e-02,-2.432000824313598764e-02,-1.741258924845307410e-03,2.564402279410464298e-03,2.571919784733835406e-03,2.920426726341247559e-01
2.674845478713889224e-01,-3.012587240073866246e-02,-2.490331991078865992e-02,-8.748600985142198760e-04,1.351389454229397300e-03,1.351741807956739760e-03,2.950562834739685059e-01
2.619505188183848254e-01,-3.057080937106133878e-02,-2.243881758225471645e-02,-9.768519958165617408e-04,1.643322843784964166e-04,3.048584398109508483e-03,2.885946929454803467e-01
2.443421787353662333e-01,-1.841774719372034352e-02,-2.210328685647316993e-02,1.782347959510283478e-02,4.830874326130362058e-03,1.818433694391172108e-03,2.665665745735168457e-01
1.344592258804060969e-01,2.760448187663501474e-03,-6.445210857645232438e-03,3.348017739994517492e-03,-4.418440840120206603e-02,6.146282394050650924e-04,1.566308885812759399e-01
2.614768485638728768e-01,-2.031854799396033695e-02,-3.283115792147631162e-02,1.051158312589443216e-03,-4.314270762522610849e-04,1.247696366480241081e-03,2.882702648639678955e-01
9.455160623021018063e-02,-1.512685338599682738e-03,7.733913987718953748e-03,-1.044640270785770217e-03,-2.568887348431126566e-02,-1.518116396555818258e-03,1.020564660429954529e-01
2.362580520514579452e-01,-1.358758482151478653e-02,-3.201099568422263730e-02,5.171848847374761662e-04,-1.206519179066876425e-03,-3.216359381940273694e-04,2.595587670803070068e-01
2.733293900549067512e-01,-2.192737049504421554e-02,-8.724841125404003694e-04,2.819328900633176829e-04,-4.987065715854807342e-05,3.062641375501730899e-03,2.853623032569885254e-01
9.161543001464710068e-02,-2.156115820756653728e-03,-1.894790926133654851e-02,5.154376500020049247e-03,-4.130734697719552068e-02,1.023813939850301905e-02,1.271326541900634766e-01
2.639123417500637281e-01,-3.391655688266226321e-02,-1.927741263239902969e-02,6.917534080805703414e-04,4.651378850236990905e-04,2.928188772358073519e-04,2.907898426055908203e-01
2.241523676846701729e-01,-1.908057126017692617e-02,-1.903635981356530116e-02,1.490116818840435398e-02,-1.675887021944135261e-02,7.385425434775462310e-03,2.466249316930770874e-01
2.608472440566019790e-01,-2.143076206901450842e-02,-3.169796792087550830e-02,-4.211579606652393810e-04,8.981195054090083368e-07,-8.993518437028210971e-04,2.875542640686035156e-01
8.943011932610392400e-02,3.098164145918451406e-03,7.488656088227033103e-03,1.539873316629813277e-02,-2.807573674350441820e-02,-5.335407470532355610e-04,1.008484065532684326e-01
2.633444767001527076e-01,-2.248761651263751771e-02,-3.061953343968566721e-02,-1.827126058885833047e-04,4.726641865481664810e-04,2.247363436998669941e-03,2.900110185146331787e-01
2.525359154272364126e-01,-2.171072594154808966e-02,-2.843669361313624910e-02,5.075512083204707786e-03,-2.330883470066511323e-02,-1.982946515252695732e-03,2.807490229606628418e-01
2.786539164228524212e-01,-4.779053279278869248e-03,-2.509286192404296123e-02,1.074896651146098510e-03,2.059114037045151578e-03,-3.381680544485778268e-03,2.942022979259490967e-01
1.878567845356217680e-01,-9.834041805770729616e-03,-1.548247372059601001e-02,1.272281159504787609e-02,-3.756829460892170680e-02,1.252071614945550644e-03,2.120251208543777466e-01
2.570846605311361555e-01,-2.764918461074956924e-02,-2.126839281008317817e-02,5.025180060100126016e-03,-2.002023530712901053e-03,3.420398473134548742e-03,2.818157672882080078e-01
2.544871520516657215e-01,-1.533623512316110993e-02,-3.707502142502690223e-02,5.226790739824283254e-04,-9.646477971509445463e-05,-1.097891249387512684e-04,2.813249826431274414e-01
2.544584715595299418e-01,-2.938952470395037042e-02,-2.112190568634039756e-02,-4.004357752762400212e-03,-1.232309624059200592e-03,-2.185960059316313826e-03,2.799254953861236572e-01
2.712912766625712457e-01,-2.902945874208077981e-02,-2.579365601666464003e-02,-1.431804139601590333e-04,6.355838692081306049e-04,7.813714415876736510e-04,2.987211644649505615e-01
2.717349637360073067e-01,-2.715484827817900293e-02,-2.637141648897131652e-02,1.139625994588320135e-03,-1.361860658683217672e-03,-2.263810969389360448e-04,2.985149621963500977e-01
2.641943305255165519e-01,-3.365044012436053944e-02,-2.069354682988444605e-02,2.983498996295362842e-03,8.861306207842954436e-04,2.888335472023759610e-03,2.916750311851501465e-01
2.778772219688141476e-01,-2.972899145577434510e-02,7.965461724195488369e-03,9.737180760864489262e-04,1.663481532295163099e-03,3.338488975241381707e-03,2.906750440597534180e-01
2.690107137349301292e-01,-3.290057315800080928e-02,-2.269449058335114289e-02,2.131710398817087630e-03,8.050698200799912734e-04,1.092968084489961186e-03,2.969720959663391113e-01
2.676493423189174603e-01,-3.099509325666321979e-02,-2.373367338457546549e-02,6.467618668992323409e-05,-1.113163404706461724e-04,1.624357969616855874e-03,2.950942516326904297e-01
2.329859754782264702e-01,-3.069791030799888520e-02,-1.022338103869852022e-02,-1.067429707729390491e-02,-7.965495826249679171e-06,2.830282021540260397e-03,2.547850906848907471e-01
2.715337762913558883e-01,-2.955050217718914463e-02,-2.705802687269782958e-02,-3.926471015758595771e-04,4.734383094789681307e-04,5.646611924976822298e-04,2.998493015766143799e-01
2.382195410940549929e-01,-3.016630630877936703e-02,-1.414941206456965528e-02,-7.864194055069845951e-03,4.604548301695679698e-03,4.106069291856507229e-03,2.613207101821899414e-01
2.692239940052973401e-01,-2.947031138080861978e-02,-2.618978432229920883e-02,-3.061347597827845999e-04,3.973245529077403773e-04,1.345059455546463410e-03,2.970780432224273682e-01
2.520724792725126950e-01,-3.529441838705453527e-02,-1.617901914188678292e-02,-3.283407927398649100e-03,1.226924953995848794e-03,6.584563535104302106e-04,2.783705294132232666e-01
2.573268988591797535e-01,-3.412344973614446497e-02,-1.812538864592801169e-02,-3.214796639112870932e-03,1.761961014025146318e-03,2.981482952143770654e-03,2.839077115058898926e-01
2.479863025719088732e-01,-3.431729078869129312e-02,-1.476772917580308764e-02,2.457898795431907760e-04,1.066063898782220864e-03,1.586446986149156078e-03,2.730745971202850342e-01
2.647555285838527617e-01,-3.495582938095288805e-02,-1.924705729202086379e-02,1.487814883880433535e-03,-3.174126391625806533e-04,6.889210315700250225e-04,2.921881675720214844e-01
2.403582502990005698e-01,-2.854146548260538818e-02,-1.690150374874360706e-02,-4.499976080065927996e-03,1.864929229581763302e-03,4.785508816107212141e-03,2.635383307933807373e-01
2.700881075167093082e-01,-1.902681581783319253e-02,-2.109110786370478607e-02,2.386782277722629994e-04,-9.389400547730475128e-04,1.259835140228619246e-03,2.901656329631805420e-01
2.552665039842766936e-01,-2.225164032279478010e-02,-1.631348962071213493e-02,-9.537673116691649383e-03,-1.051841218111720759e-02,2.224765222290350265e-03,2.757232189178466797e-01
2.687580791619001430e-01,-1.441355562917467914e-02,-1.761119876237740578e-02,1.349763851618699035e-04,-1.432277734935614403e-04,1.698949016415619460e-03,2.847993373870849609e-01
2.695319688582450413e-01,-1.882489692935949976e-02,-1.293424326770568900e-02,1.564572576309775152e-04,-1.592985274116126603e-03,5.568393715393121085e-03,2.856334745883941650e-01
2.720451952318657107e-01,-1.696427394279732825e-02,-1.990995666486086724e-02,1.395681133692368769e-03,2.182608240232088073e-03,3.688647321708735365e-03,2.905983924865722656e-01
2.690524865212712280e-01,-1.704213439274022968e-02,-1.788560144809944741e-02,-8.721492788967774318e-04,6.347793174070716837e-04,1.636754823506959052e-03,2.865374088287353516e-01
2.728086822314131910e-01,-1.735444684673453919e-02,-2.325648443939110077e-02,1.114203192691205898e-03,2.471274720100460030e-03,4.823724883350352655e-03,2.933153212070465088e-01
1.123583556242773313e-01,-2.150504647185755985e-02,-1.313579348283479969e-02,3.211082493796287712e-02,1.855692130420140071e-02,-1.851502293705060975e-02,1.484046131372451782e-01
2.679507940181788950e-01,-1.656002539594426948e-02,-2.463499022542801897e-02,-5.304709688247848803e-03,2.022105875784884019e-03,1.859630637452350591e-03,2.888184189796447754e-01
2.318217484639330250e-01,-2.345985981942851073e-02,-3.466458877603606492e-03,-4.487303871041726372e-02,-4.795752407262854344e-02,2.035860882920568701e-02,2.732186913490295410e-01
2.556743639226337073e-01,-3.541325242451441591e-02,-1.493364987286985301e-02,-3.354587393433667176e-03,-6.237378709287761140e-04,-1.233982361088456449e-03,2.814774513244628906e-01
2.100400530099504892e-01,-6.437204198537979649e-03,-2.706178483629952114e-02,-5.280024188716554018e-02,-4.777121096212354201e-02,3.919040219952595744e-02,2.675257921218872070e-01
2.017242873154377614e-01,-1.966869793154446544e-02,-1.930490808888053744e-02,-3.339169251024786539e-02,-2.184873307709888496e-02,-4.373735944605662042e-03,2.318813353776931763e-01
2.860500993103946565e-01,1.846791958222820940e-02,-4.486531395259946153e-02,-1.447184661053304774e-02,-3.710513316222742788e-03,7.509934534195732148e-03,3.056091666221618652e-01
2.915810339192412837e-01,8.421973717931893755e-03,-4.125534367140454295e-02,1.997745214705471707e-03,2.193355544806797029e-03,-2.667019998746723419e-03,3.110646605491638184e-01
2.826556259132519400e-01,1.660160815526884326e-02,-4.055751833258069983e-02,-2.428797768105094186e-03,-4.393581053480014390e-03,7.855331668899947866e-05,2.988895177841186523e-01
2.542988168380477809e-01,-1.447975099869455717e-02,-3.651567643095451898e-02,3.017317619208174690e-04,-2.459186595713258594e-04,6.839957488832654718e-04,2.804498970508575439e-01
2.885414592429550451e-01,1.344512884867182789e-02,-4.284012459657390859e-02,4.051774589932024412e-03,3.090879384218727516e-03,-2.851617825146748105e-03,3.072982132434844971e-01
2.664953527388137511e-01,-2.201998857039014212e-02,-3.132874534506020769e-02,-5.675882671704594222e-04,-1.698944202087076865e-03,-1.141871472142958225e-03,2.933036088943481445e-01
3.067530362407296374e-01,4.126120001303759666e-03,-5.003933709325320001e-02,-3.686774726563412166e-03,8.162631539886026563e-03,-3.647837694817474084e-03,3.334508240222930908e-01
2.763982176006954394e-01,1.908424765697677716e-02,-3.849472820585864152e-02,-3.456141779421134652e-03,-3.861190676727390293e-04,-5.637610188012386406e-03,2.906429469585418701e-01
2.563231721008346065e-01,-1.670762264258038310e-02,-3.557066808213238396e-02,5.167270331073688713e-04,-2.029422185693194455e-04,-5.558594441876108655e-04,2.829375863075256348e-01
2.831772528915309506e-01,2.711534027062562080e-03,-3.701580789144451322e-02,-7.047694857683427065e-04,2.946687969525942086e-03,8.475454689609928456e-05,3.023392260074615479e-01
2.589723893285704737e-01,-1.808218346734803694e-02,-3.393462904948565950e-02,-2.570184412981823749e-04,3.148420521918175643e-04,2.042632231020926736e-03,2.853340804576873779e-01
2.567097050087790988e-01,-3.329545872565090048e-02,-1.805159832399293174e-02,3.720533303462871845e-03,-9.521775038671259888e-04,2.605450065961108577e-03,2.828059196472167969e-01
2.857529744195069776e-01,9.769508705291057860e-03,-3.836039114628783664e-02,1.772135307219185191e-03,1.688012174529065048e-03,4.985265736302426157e-03,3.030824065208435059e-01
2.751875561335146991e-01,-1.183413301714603127e-02,-2.198840197735586754e-02,-2.808714725140557976e-04,-1.038252639995199475e-04,-6.911219547793374593e-04,2.922340929508209229e-01
2.698817083117794891e-01,-2.393296167441277822e-02,-2.312878946401948632e-02,1.233065824390947854e-03,1.074035726391254532e-03,-4.134957939397935177e-04,2.934279441833496094e-01
2.717661560418447864e-01,-1.892064989949493459e-02,-2.016629797437193006e-02,-7.952727574379677322e-05,3.225385027089356250e-03,-3.559218908664378827e-03,2.914304435253143311e-01
2.731940098756227009e-01,-1.757927502118077079e-02,-2.046902874696253372e-02,1.173726182898370213e-03,-4.603090490570376208e-04,-1.336243268861991027e-03,2.922461926937103271e-01
2.711941625632239838e-01,-2.594073176051517327e-02,-2.347198713893047795e-02,2.271708975671312509e-04,5.836147317507236944e-04,-5.825415945164620730e-07,2.959102392196655273e-01
2.708006164879724897e-01,-2.197236873989891204e-02,-2.440148698120510329e-02,-2.370525537037286665e-03,1.699934105201726404e-03,1.832244819091936004e-03,2.940556108951568604e-01
2.731042804352660225e-01,-1.816766494632067463e-02,-2.257751550892427017e-02,2.402213067643778864e-03,1.057516203655258337e-03,-2.770064211564867655e-03,2.935761213302612305e-01
2.382315691625219445e-01,-3.161280362632117036e-02,-1.606677201548634137e-02,-8.346489702566130611e-03,-4.422770841707144435e-03,-3.305137662267667448e-03,2.629887759685516357e-01
2.711225792935406664e-01,-2.822320253061712247e-02,-2.622648343549568994e-02,1.658710922466280317e-04,1.084489969336268741e-05,2.525498583685934048e-04,2.983528971672058105e-01
2.637513243201577429e-01,-3.523435728351964613e-02,-1.997191412498414143e-02,-5.349174550892399349e-04,5.688995812038755975e-04,7.315129364180818824e-04,2.916600108146667480e-01
2.656900013112459269e-01,-3.142719551523555366e-02,-2.417639232846709174e-02,-3.571958118772821842e-04,-1.210420639453939481e-03,-1.815229233903923375e-03,2.935839295387268066e-01
2.686627299492315712e-01,-2.825575148711373386e-02,-2.505770687541547526e-02,1.914543553431025450e-04,1.010910368601511573e-03,-6.276914016809996512e-04,2.953398227691650391e-01
2.677322319168742304e-01,-2.861181986849813119e-02,-2.279315529250741656e-02,-3.209755374336866092e-03,-1.189962390991054775e-03,-2.942415225512595017e-03,2.935821115970611572e-01
2.637286879497444669e-01,-2.201531583151239424e-02,-3.397144413545936936e-02,-2.458692450846403674e-04,1.216084272211183587e-03,6.407745335951511249e-04,2.919157743453979492e-01
2.758634646589143147e-01,-2.619730687849880502e-02,-1.360226791788608780e-02,1.433950006237673814e-03,-2.395156583189508252e-03,-8.608170400941915794e-04,2.960075736045837402e-01
2.497375024614846839e-01,-3.306587865811976001e-02,-1.682331990171323510e-02,5.164312718261290184e-04,-9.907950534892521338e-05,-3.974362590227336137e-03,2.751296758651733398e-01
2.551135187410797922e-01,-3.281763861734139642e-02,-1.908177943772890184e-02,-3.933741502611344185e-03,1.802048585744198909e-04,-2.845703158873149653e-03,2.814406752586364746e-01
2.437842193831873949e-01,-2.826645728111311373e-02,-1.958138138603791878e-02,-8.964940625383327824e-03,6.844425313735401709e-04,-5.945660391649315590e-03,2.684637606143951416e-01
2.688433692216677939e-01,-2.646593459974554141e-02,-3.069655787107758438e-02,-2.742585590521248945e-04,8.777596266172913494e-04,4.912265358086574142e-04,2.974526584148406982e-01
2.684923706154357936e-01,-2.332884944969505769e-02,-3.017720711869877059e-02,2.965031813504625234e-04,-1.211265600101892872e-03,-9.317379864767896596e-04,2.953172624111175537e-01
2.024176359392611813e-01,-8.581043023900170041e-03,-7.861631447993011612e-03,1.423426729648653855e-02,6.380152749968025228e-03,-2.380488511914863412e-03,2.124055773019790649e-01
1.705102578795465451e-01,-4.338060257847428658e-03,-4.318480192655280159e-03,-1.019431105758697052e-03,-6.675291844834761691e-04,1.449505721516108599e-03,1.748692840337753296e-01
1.216734946324741218e-01,3.402959615706468988e-03,-6.105554523450906768e-04,8.808486056338618586e-03,1.828616335004873764e-02,-1.433835902742922573e-03,1.253826022148132324e-01
2.711525769901346195e-01,-2.909759445328206906e-02,-2.646042444778558267e-02,-4.854226709481880694e-04,2.673736032819820445e-04,4.426522245433059085e-04,2.989428341388702393e-01
1.300868230046526852e-01,5.959836816410456206e-03,4.151827148681765112e-03,-1.955352642150831252e-03,7.244162112644338472e-03,3.980694135722103594e-03,1.259033083915710449e-01
1.496048452979947263e-01,1.100933138369841746e-03,-6.519168168252556517e-04,1.979229620731406156e-04,6.895961721386620509e-03,-7.508076112243571346e-05,1.498652249574661255e-01
1.511129005627099287e-01,3.125232903066897661e-03,2.245053046276430930e-03,-7.188176296164390869e-03,-1.248555278967910555e-03,2.963895963588889047e-03,1.490550935268402100e-01
2.762600997131731129e-01,-2.149525002920221750e-02,-2.313076907657621306e-02,4.438864710966466086e-04,-1.206569373520745042e-05,-8.754918561924490217e-04,2.985813021659851074e-01
1.763792182452150747e-01,-6.077809624152025192e-03,-5.738182025624552485e-03,-1.836764831208832945e-03,2.222845257961114651e-02,-2.951594432541658399e-03,1.864062398672103882e-01
2.737613472680012761e-01,-6.519986332745614233e-03,-2.370241470501813219e-02,-8.807369336303479644e-04,-3.323808144301167514e-03,8.438267512353271951e-03,2.896857857704162598e-01
3.262473886777962351e-01,-2.050084330557710999e-02,-7.916587053271362251e-03,4.746848773289662031e-03,8.490288660532340978e-03,3.447682354805053917e-02,3.462353944778442383e-01
2.733029174145010787e-01,-2.877015310055605624e-02,-2.653892196419276039e-02,1.445316639569483024e-04,-8.190183644393995814e-04,-4.492513557116794599e-03,3.010676801204681396e-01
2.672259992527655781e-01,-1.119176114312035730e-02,-1.295305955154432698e-02,-1.003611201268436057e-06,-4.741431067344186161e-04,9.818248085871309101e-04,2.793089449405670166e-01
2.836809984313191091e-01,-2.676274948634982387e-03,-1.714235488638213289e-02,-5.308310460505086432e-03,-4.152067295938489597e-03,1.115601761819551112e-02,2.947233319282531738e-01
2.571720565919334289e-01,-1.984598606540272092e-02,-3.073733174308937444e-02,1.149507191124675897e-03,-3.819320408334925406e-04,-4.906423634638949066e-03,2.827566862106323242e-01
2.801739887870594581e-01,4.107254674380028669e-03,-2.284290624552123838e-02,-5.297654356275391732e-03,-2.002035662955533452e-03,1.481189148679613529e-02,2.917766273021697998e-01
2.746046577227383434e-01,-2.299466807904833321e-02,-2.498947773570264763e-03,1.533304486096602080e-03,1.508529099296251983e-03,1.151130313085063465e-02,2.886127829551696777e-01
2.787960864055980537e-01,1.167157468223170569e-02,-3.327113633488734679e-02,2.825625238337795258e-03,3.786998779906996376e-03,5.623090524090130528e-03,2.924764752388000488e-01
2.593322140852201696e-01,-1.738685437809464607e-02,-3.531135076397205752e-02,-8.499812923411214228e-05,-9.365687371958118096e-04,-9.164662544526018962e-04,2.861117720603942871e-01
2.718498173462075007e-01,-1.863775502619088864e-02,-1.435608068087121381e-02,-9.116589206039091633e-04,-1.037096738345362869e-03,1.585151571764927426e-03,2.883935570716857910e-01
2.765006125634420497e-01,-2.451359755839084553e-02,-2.383748735945534492e-02,3.413578260282582500e-04,-1.073649961167663343e-03,-1.084426566999292232e-03,3.006889224052429199e-01
3.049604490498463161e-01,-3.270241713106997183e-02,-1.578936200840166948e-03,1.310610134578080697e-03,-2.513199800305109324e-03,1.629216344246364398e-02,3.244935274124145508e-01
1.672951858746471732e-01,-1.291491418441850780e-02,-2.777554357335745849e-03,-1.486285959143139948e-02,3.113254699355864647e-03,3.962860971287129191e-03,1.774556189775466919e-01
2.690255531326593563e-01,-1.860278374688843772e-02,-1.583866154990368202e-02,-4.251104017535968353e-04,1.517970749080523301e-03,1.461244157339810015e-03,2.862804830074310303e-01
2.664026025906934825e-01,-2.058052787067822520e-02,-3.208594636014620860e-02,8.107291647777741580e-04,-2.443004851652875314e-03,-8.737300925108474779e-04,2.929432094097137451e-01
2.768799623771847074e-01,-1.684863089923961665e-02,-2.428252070181156907e-02,1.707347267633201309e-03,-2.294596421134432324e-03,8.292288112539443349e-04,2.975599169731140137e-01
2.717838660410650808e-01,-1.072787756424962990e-02,-1.926018371722405809e-02,2.977490896018940856e-04,-1.829741025002437800e-03,1.447253317876669122e-03,2.869020104408264160e-01
1.343662004492184592e-01,1.052488115237724953e-02,-3.998259944474145955e-02,-5.899452314155990973e-02,6.273896090313814400e-02,-2.464240617550832527e-02,2.195767015218734741e-01
2.703584121303023169e-01,-2.601762817755176593e-02,-2.806367353362460015e-02,1.664068970299610183e-04,-3.949301944564743484e-04,3.254398885738856535e-04,2.974058091640472412e-01
2.540437441611168579e-01,-3.114553776490636139e-02,-1.722875583142650935e-02,-4.245361844835838887e-04,-5.605681016948410285e-04,4.332600684231317258e-03,2.785955667495727539e-01
2.635955769648084535e-01,-3.549783630637812215e-02,-1.759316909748913360e-02,-3.092057076750191215e-04,3.081789608473246913e-06,-6.068008201906494514e-04,2.905575037002563477e-01
2.541611207547228579e-01,-2.870213059707030223e-02,-2.056432542020528165e-02,7.683303031348813570e-04,5.383905393790675876e-04,4.694582660526103526e-03,2.790066599845886230e-01
2.746043848770108320e-01,-2.075193012832300676e-02,-2.016530444799082000e-02,-5.108345795320694098e-04,-5.590656652493556852e-04,9.892708093681840120e-04,2.950713336467742920e-01
2.706439613705823310e-01,-2.476862439796308213e-02,-2.905180028822677840e-02,-5.792846100404117462e-04,-5.326592701371610098e-04,-4.006197346959301971e-03,2.976613044738769531e-01
2.186536625625656316e-01,-2.568540500265895088e-02,-1.578696720883764060e-02,-2.553460304163164551e-02,2.123920071990816408e-02,3.057976835294361033e-03,2.464110255241394043e-01
1.557114882765292529e-01,-1.336227376189987048e-02,-2.251737948962560798e-02,3.931436355137930827e-02,6.946703128883065931e-03,-9.986972335470084214e-03,1.878789216279983521e-01
2.232969506504573209e-01,-2.120192071751479668e-02,-1.916402210680777374e-02,-2.322481772757922086e-02,-2.436256325269843884e-02,-2.725807510356886322e-03,2.504129707813262939e-01
1.323432496655156942e-01,1.596577074229649576e-02,-2.018044365004635632e-02,-6.202275824908393131e-02,8.028288058337679917e-03,3.249295558217802846e-03,1.755630224943161011e-01
2.560888487727009943e-01,-3.048202959363915943e-02,-2.087215490709865007e-02,-3.969766703607973540e-03,2.458128113052742911e-03,3.042889010707244130e-03,2.820540666580200195e-01
1.979223540051458508e-01,3.581670517401429332e-03,-4.457102468192782052e-02,-7.349386658574653952e-02,-1.326341757349424472e-02,2.792403464789332268e-02,2.617557346820831299e-01
2.215443064806295881e-01,-2.798307833645452547e-02,-1.094830433713153695e-02,-2.737049412902791551e-02,-5.496767081933349487e-03,-4.182362650122201748e-04,2.462560832500457764e-01
2.701243549735385940e-01,-1.382548915014601698e-02,-1.606585368323013019e-02,1.012271059503314702e-05,-1.447529820104889080e-03,4.312450351602514147e-04,2.850886285305023193e-01
2.782192839509688431e-01,-2.593630065513530258e-02,-2.658057199515172220e-02,-1.269085295382780935e-04,2.851031345337561897e-04,-7.048252768696565028e-04,3.044811487197875977e-01
2.051649273390944717e-01,-1.342010547083023753e-02,-1.229110600102267803e-02,1.541297206529551947e-02,1.039059697250301929e-02,-1.557102674744857956e-03,2.204036116600036621e-01
2.763190654308399496e-01,-2.340276322184331459e-02,-2.425916026693271388e-02,-1.798506444115833582e-03,-4.457820180446123897e-04,-6.370832772394657991e-05,3.001681268215179443e-01
2.765156045940725393e-01,-2.193617322435224837e-02,-2.512140159510151127e-02,-4.254647631440965994e-04,-1.012103977726078867e-05,-8.355547211349052253e-04,3.000614643096923828e-01
2.766964515214883624e-01,-2.553064365587710827e-02,-2.292317157699183539e-02,-1.699721800358368080e-03,-1.806691531195958069e-05,-1.195977289428124240e-03,3.009533584117889404e-01
2.734632744422940132e-01,-5.067450135484694029e-03,-2.318691214938760348e-02,1.257917291289535567e-03,-2.135472612460833156e-03,2.786392480263825185e-03,2.880906462669372559e-01
2.497894375216361540e-01,-3.213443494706455517e-02,-1.475707859271745137e-02,-2.035102451697614809e-04,-3.300294486720607885e-04,-6.087149674013684307e-04,2.736521661281585693e-01
2.787336090889402929e-01,-2.620688293367787192e-02,-2.624485902182543962e-02,2.614942799895837375e-04,9.082819056754142678e-10,1.530627946776516514e-05,3.049598336219787598e-01
2.760955940881855142e-01,-2.313329896409700714e-02,-2.356494046662689634e-02,-1.317640435366663207e-03,-2.203555942661902366e-03,-7.279467444433692942e-04,2.994806170463562012e-01
2.751269505968417239e-01,-2.065475584970331846e-02,-2.088377126832587083e-02,-1.267930305933247931e-03,-1.308613682598674770e-03,-2.036852150933297361e-05,2.959131002426147461e-01
2.769678758420280884e-01,-2.391991226018984340e-02,-2.399814230823398009e-02,3.445152684300077585e-04,-1.118695188067872753e-03,-9.465236164467343742e-04,3.009382188320159912e-01
2.580849697801026466e-01,-1.532821524764349519e-02,-3.110481968196988911e-02,-9.457509875057196203e-03,-1.296859078426658603e-02,3.522578257010682869e-03,2.830676734447479248e-01
2.572775889632553659e-01,-3.089398871279122605e-02,-2.209857555027942844e-02,3.148701131848263379e-04,-1.646468021258047946e-03,-4.220563999969432004e-03,2.839850187301635742e-01
2.466622769835462303e-01,-3.106499087876220255e-02,-1.698231345907359746e-02,-8.618564051911518920e-03,-1.971727472758773910e-03,-3.429861251720996672e-03,2.714579403400421143e-01
1.962835930567386755e-01,-1.915674986521685719e-02,-5.929311186248995003e-03,9.896241203504001476e-04,-1.286614448971936178e-03,4.034967978186095039e-03,2.092761993408203125e-01
2.708480715035872510e-01,-1.501834951929426065e-02,-1.412204734083472024e-02,2.627448079386616423e-04,2.381119535573796475e-04,-4.534907726120034240e-04,2.854210734367370605e-01
2.684894823775004769e-01,-1.254314302562434258e-02,-1.294334240774767941e-02,-5.408023778039328360e-04,1.213708391911624222e-03,1.145330507215704726e-03,2.812493443489074707e-01
2.715601629284867258e-01,-1.546640093122883530e-02,-1.541409150691123997e-02,1.320447176387968234e-03,3.379956395052218952e-04,-4.028438781026780213e-03,2.870949208736419678e-01
2.690998620560214327e-01,-1.395434515586628510e-02,-1.280014645014776464e-02,1.613398707068553113e-04,-1.215357157790946947e-04,-2.815572222794723769e-04,2.824795246124267578e-01
2.426274797279486806e-01,-1.649170554705028935e-02,-2.433407394680665858e-02,-1.425764548101172893e-03,-4.622512703804790768e-04,-4.272916494124433077e-03,2.632448971271514893e-01
2.717034942913569284e-01,-1.792649289526127010e-02,-1.523871418442274139e-02,-5.031284469752819125e-04,1.251906038557383744e-03,-5.449290260791209454e-04,2.883065044879913330e-01
2.746544628507036068e-01,-2.249266055849041823e-02,-1.905073876787798104e-02,-1.415652101960345214e-03,2.914774302021340630e-04,1.971022689096509246e-03,2.954715192317962646e-01
2.941763830569580351e-01,-2.224373781163357933e-04,-4.178902745111970352e-02,-3.115662247945200775e-02,-4.663611581513470161e-02,3.767755442838921498e-02,3.381292521953582764e-01
2.706724099003952055e-01,-1.605952686905461058e-02,-1.193815670705676568e-02,1.342589611124516704e-04,5.056136580337805943e-05,-3.048783951512140135e-03,2.847427129745483398e-01
2.744062532163212831e-01,-2.690622471591860854e-02,-2.545535307106286393e-02,1.586475913135902563e-03,4.864763104891905738e-04,-2.756742950295541002e-03,3.006413280963897705e-01
2.674212313525823337e-01,-1.117355960882733534e-02,-1.306484606487168243e-02,-5.820177763886746989e-04,4.052319758608512569e-05,1.038803371649294708e-03,2.795528471469879150e-01
2.756252628739228605e-01,-2.372499309300493686e-02,-2.352415485111963855e-02,-1.563365358410683014e-03,-2.336302895834480118e-03,8.315898974678293987e-06,2.992894947528839111e-01
2.721634415516798189e-01,-2.448246349544815070e-02,-2.375374566039321900e-02,1.150535913266326335e-03,-7.792289296156205665e-04,-8.705485421557671803e-04,2.962958216667175293e-01
2.756468962008478685e-01,-2.557394865696409336e-02,-2.393309851405128752e-02,9.555851645143532101e-04,-1.488600454479980422e-03,-7.753383928331567193e-04,3.004224002361297607e-01
2.768712420127205642e-01,-2.567850361774225154e-02,-2.478324665688638739e-02,-2.287607301038290636e-04,-1.027622812501593005e-04,2.546979626568809853e-04,3.021037578582763672e-01
2.719675697790010505e-01,-1.854030826447594649e-02,-1.068917813263399463e-02,-2.070722176698631956e-03,8.415475000310987733e-04,9.329162777610934196e-04,2.866936624050140381e-01
2.704177548723609714e-01,-2.434107124647734433e-02,-2.777586141057454550e-02,-7.677873119526141578e-04,-1.026424600193910153e-03,-3.057393313812670124e-03,2.965467274188995361e-01
2.645345207628276851e-01,-2.191205594986050942e-02,-2.934930367631216619e-02,1.188215080513973371e-02,2.046557225902756461e-02,6.709049315265900757e-04,2.931190133094787598e-01
2.561351350767506752e-01,-4.231545450493007232e-02,-1.935696410595223738e-02,2.035327509671829363e-02,-3.179321979446583096e-02,-3.808229714501926155e-03,2.950704693794250488e-01
2.683663106659738284e-01,-2.573124021721946708e-02,-2.321727111367144492e-02,6.698312248879989203e-03,-1.041839029126172440e-02,6.026895359880043079e-04,2.936352491378784180e-01
2.628043992778615334e-01,-2.850535087639073650e-02,-1.488583975966459305e-02,1.070869862854570073e-02,-1.560939750303385123e-02,2.951334207583649390e-03,2.866714000701904297e-01
2.670562839526908760e-01,-2.209842720071369948e-02,-2.507226060735941175e-02,1.383188443336136287e-03,-1.361442066973419032e-02,-3.372866482124244471e-04,2.916184663772583008e-01
2.708259632713877485e-01,-3.032313834132152608e-02,-7.699684852859156603e-03,2.694615594721476524e-03,-5.414782307664534403e-03,-7.536260712460828969e-04,2.906905710697174072e-01
2.542364069100531698e-01,-1.884700570583383583e-02,-3.433028335941230857e-02,5.979650420308810742e-03,-9.115058030404238690e-03,-8.236020923435251806e-04,2.817819416522979736e-01
2.622891530767949009e-01,-2.525305351307224888e-02,-2.166344872877876138e-02,1.204918218873392809e-02,-3.953991412241575354e-02,9.960262888462538891e-04,2.946013808250427246e-01
2.527258769540333683e-01,-2.118753274633523864e-02,-2.433587840545792247e-02,1.625497533220640004e-03,-1.246420024671049745e-02,-2.957313199959075707e-04,2.763604521751403809e-01
3.225271957402633949e-01,-5.403744951795785845e-02,2.319676286763180939e-02,8.385723527698719232e-03,4.077086531831515537e-02,6.167693957850985294e-03,3.521281778812408447e-01
3.296480796204254715e-01,-5.416464453192507134e-02,5.277247465261009074e-03,9.067513194191807735e-03,5.385391493076134399e-03,-6.854871976474335646e-03,3.584768176078796387e-01
3.305331775632273650e-01,-4.777855391811386410e-02,5.472715167278027759e-03,4.628380156677875182e-04,4.308327221472950906e-03,-1.743122156802817636e-03,3.547891378402709961e-01
2.756671087508142381e-01,2.160099863233858053e-03,-2.878179804797587060e-02,-4.466529360471111626e-03,1.630663324633461466e-03,2.474332563047747409e-03,2.903661429882049561e-01
2.983366348754105113e-01,-4.366242346645968220e-02,-1.476741861977381998e-03,-4.160982841855158203e-03,-1.302905148339991367e-03,7.742012419995296726e-03,3.233456015586853027e-01
2.912624685550020409e-01,-4.941706064322629044e-02,9.141064693643757844e-03,2.100344754729774853e-03,7.211726202934974628e-02,3.945920677322466673e-03,3.394181430339813232e-01
2.696766764543631067e-01,-1.489168139285546033e-02,-1.860295331295731824e-02,9.842979192876567113e-04,1.359851513922286483e-04,7.147718783194783503e-04,2.864498794078826904e-01
3.928787854286802106e-01,-6.182129582516304733e-02,3.380478258258656776e-03,2.044688736129137568e-02,3.024169714650358498e-02,5.673732058994470674e-03,4.306398332118988037e-01
2.680136548663684115e-01,-1.274701897521930694e-02,-1.284224513552191527e-02,1.317644255164898085e-03,-6.510419227664141590e-04,1.034577259139467329e-03,2.808255553245544434e-01
2.698830526283992892e-01,-1.632041720796412188e-02,-1.859846173097812194e-02,-8.535210072135310851e-04,2.034675273777583615e-03,1.285755725318389522e-03,2.873833179473876953e-01
2.831508778570777651e-01,-4.455869411774765476e-02,1.344747697782416873e-02,4.089536554707302179e-03,3.419570472430937501e-03,1.282074418380298002e-02,3.038543462753295898e-01
3.222987138968980703e-01,-4.709110553019454914e-02,1.105844273669448485e-02,-3.540464854578363914e-03,-2.463779676593919922e-03,1.186062209284031652e-02,3.447146713733673096e-01
3.295305038810807385e-01,1.729434725502249082e-02,-4.870055858022775963e-02,-3.165353175574196765e-02,-3.674946469982883455e-03,1.910433855018670024e-02,3.558005392551422119e-01
2.636228691072862174e-01,-3.156484347176541361e-02,-2.132574738443639151e-02,-4.233055268795219046e-03,2.523785048235316960e-03,3.248854795351354460e-03,2.903836965560913086e-01
2.882331839896127290e-01,1.971912068599744605e-02,-3.277370723563147181e-02,-4.154933510529970273e-03,-4.310940094258937545e-03,1.732685031963393171e-02,2.999309301376342773e-01
3.239942882875704311e-01,1.953794863712521312e-02,-4.939663583774264732e-02,1.282330225200829441e-02,-4.848465388517591949e-03,2.342136714564789501e-02,3.473366200923919678e-01
3.312618108439738251e-01,2.566397269943636317e-02,-5.168216348749365974e-02,5.465531393974790153e-02,2.202994920991030448e-02,1.139709496834665284e-02,3.658094108104705811e-01
1.170036864815452299e-01,-2.681416249676257801e-04,-2.640878879378577571e-02,-4.540728252023266964e-02,-1.799463412482511793e-02,1.352172702671173773e-02,1.587670445442199707e-01
2.621480185886190251e-01,-3.242868201838100539e-02,-1.902261044769490428e-02,-6.015219031312257943e-03,-6.915439839997242341e-04,-1.211124392893452202e-03,2.883061170578002930e-01
2.409850882653195581e-01,-2.792650502577398441e-02,-1.642817905140371570e-02,-1.008943768561984880e-02,2.106768721468125875e-03,2.676412185064605976e-03,2.639958560466766357e-01
2.580355981718535641e-01,-3.626412208635708401e-02,-1.748992792241740868e-02,-2.357316579493620116e-03,-2.786735887105613722e-04,-8.883554927325134970e-04,2.854099273681640625e-01
2.011138561625022136e-01,-2.215916846582004218e-02,-8.778315940167133458e-03,-1.350168700712689636e-02,-3.595893726625175139e-03,-1.978421158975901192e-03,2.182652652263641357e-01
2.704378047649346195e-01,-2.345002195758874586e-02,-2.053353478835827362e-02,-3.686400743026772321e-04,1.103883929700994306e-03,7.579214030478654239e-04,2.924503982067108154e-01
1.979757320570769696e-01,-2.039812892482319173e-02,-5.468474738237000254e-03,-1.160374560069389431e-02,2.360991098308527769e-03,2.391204905532709653e-03,2.123384326696395874e-01
2.602361518659416229e-01,-3.344863732454998739e-02,-1.981472239624584852e-02,3.601157882039807308e-03,-5.237885890258310877e-05,2.914689311541242278e-03,2.872228622436523438e-01
2.021382221712319516e-01,-2.165556380815704396e-02,-1.171515479981302676e-02,-1.446512257552243566e-02,4.600105709806866228e-03,6.164310528650195770e-03,2.208236157894134521e-01
2.406268557560910792e-01,-2.763469597406656431e-02,-2.141842801919083272e-02,-2.095395510574999537e-02,1.608968888849377638e-02,-2.218922753392060018e-03,2.691541016101837158e-01
1.974043984009328512e-01,-2.219628989927299734e-02,-4.762328566163459564e-03,-1.424011113562849429e-02,-2.178592244889862540e-04,-2.780058214669405372e-04,2.128582000732421875e-01
2.757015450827845493e-01,-3.397649899754492941e-02,7.532319647259033690e-03,-1.418008164931496256e-04,-2.413328570965202376e-03,-2.055647913883462685e-03,2.912032306194305420e-01
2.682302863227992717e-01,-2.374513049839407919e-02,-2.777900933942548112e-02,-1.597846456260097942e-04,-9.444609502667314534e-04,-1.460416906412518364e-04,2.940179109573364258e-01
2.857425360114630442e-01,-3.898812079862210012e-02,1.209901186952073993e-02,5.143182868751244169e-03,-2.177622781887552251e-03,-6.627876489882600190e-03,3.028129935264587402e-01
2.709769264810665268e-01,-2.467193383308240173e-02,-2.365425303972328031e-02,-7.710655311307232015e-04,-4.669443472994819861e-04,9.712339032463304352e-04,2.951502501964569092e-01
3.021778826760357917e-01,-3.089395507679801312e-02,-1.078068644440521862e-02,-4.269402545167599872e-02,-7.102804524090133853e-02,3.640423207839742908e-02,3.594736754894256592e-01
2.926055892662419167e-01,-4.238352674561715605e-02,2.296060151179862840e-02,8.910669947305429814e-03,-4.802065191693120211e-02,-1.466482870644343108e-02,3.199989199638366699e-01
2.664324007580429754e-01,-2.278253473024990927e-02,-3.009233939098551747e-02,-6.179731578545370188e-04,-1.748432620895191882e-03,-8.248612532644775076e-04,2.929593324661254883e-01
3.216668472159384673e-01,-3.827716670141970146e-02,1.371147247471157793e-03,-3.051911999300881660e-03,-3.534291176763711476e-03,-5.874212494065225547e-03,3.420956730842590332e-01
2.683781978289475623e-01,-2.798401972689046335e-02,-2.577305854260522611e-02,1.014213405538406162e-03,9.301717228143858008e-05,-3.470663847699183334e-04,2.952688336372375488e-01
2.705804500374577870e-01,-2.628644212099866262e-02,-2.697585363736038078e-02,-4.858402235363875037e-04,-3.899606393270459073e-04,3.172697796794124100e-04,2.972146570682525635e-01
2.699193029287673129e-01,-2.455890884146755271e-02,-2.439401319615434882e-02,1.140286259367665703e-03,-1.225939642555526257e-04,-2.752192041922271412e-04,2.944028973579406738e-01
3.231334568362628223e-01,-5.312272892685865333e-02,1.128754388613482929e-02,8.737879447098631167e-03,-1.914654114681227023e-02,-1.365068868947886182e-04,3.504447340965270996e-01
2.943110130249656509e-01,-5.340458523396618418e-02,2.012745406624402711e-02,1.224178748704127066e-02,-1.071921637151329511e-03,6.658576038669176836e-04,3.181182444095611572e-01
2.792099825102763444e-01,-3.686539131631458299e-02,6.300693969993331756e-05,-1.274941271378609393e-03,3.419799912406156980e-03,2.290238839599267277e-03,2.994175851345062256e-01
2.731636748640123846e-01,-2.080812286264122069e-02,-2.132700372896084717e-02,-9.810292981403392551e-04,1.969282268168819766e-03,-5.729361424880624913e-04,2.942579388618469238e-01
2.720853307234623042e-01,-2.502685180310358637e-02,-2.281267333930936392e-02,2.575603356131747883e-03,-3.083369520457532407e-03,6.886000345786766601e-04,2.960954904556274414e-01
2.669391833456556395e-01,-2.905779588595834573e-02,-2.673847302759919942e-02,6.327836980120981432e-04,5.209242344191551775e-04,-2.900287325159103726e-03,2.948903739452362061e-01
2.707160325893883668e-01,-2.603955393943387098e-02,-2.356005209592040850e-02,1.932050001898251294e-04,2.075204029057850074e-03,2.105129806667107803e-04,2.955459058284759521e-01
2.725944222885855472e-01,-2.216434639036631016e-02,-1.925412005783984359e-02,-4.791277144327070947e-04,1.694874668641250951e-03,-3.362111346511480843e-04,2.933309376239776611e-01
2.719880937978594870e-01,-2.321974263297618690e-02,-2.089999445428711300e-02,7.691730515273851720e-04,-1.182372075313354838e-03,-3.471249101715602773e-04,2.940655946731567383e-01
2.628008304452131849e-01,-1.733470196709593902e-02,-3.507310553945473808e-02,2.298213662356313365e-03,-3.052352168685193348e-03,-2.945488142778221441e-04,2.894888222217559814e-01
3.248128097557901883e-01,-5.497389565456992089e-02,2.275412120861121379e-02,7.533578565584094291e-03,-6.321949037831006007e-03,-4.053108588969882992e-03,3.479927778244018555e-01
2.704245380072207716e-01,-2.809861082068490501e-02,-2.775350001042822812e-02,-1.503801263473966362e-04,7.593771994820673266e-09,-2.234359973426459066e-04,2.983511090278625488e-01
2.659032697663423206e-01,-4.230268944450132906e-02,2.564651787402066896e-02,-1.099561184875519522e-02,-7.494029036897621732e-02,1.098359243788399678e-02,3.102231919765472412e-01
2.646654691173278007e-01,-3.354576721339891376e-02,-2.105318483255859408e-02,-1.372267692035001948e-05,-1.259140230987035335e-04,1.467393176500282918e-03,2.921764552593231201e-01
3.034305667132912721e-01,-4.324748614490808718e-02,2.657546068161847908e-03,1.212579087776368076e-03,-2.404535636257882931e-03,8.005630037016830264e-03,3.264853954315185547e-01
2.804622890145607172e-01,-3.354213871398573077e-02,-5.078752162125027558e-03,-2.233398147942435366e-03,4.644082130288208939e-03,7.050651177231955467e-03,3.011645972728729248e-01
3.971732627900219081e-01,-5.881984295571601740e-03,-4.068736868520936301e-02,-2.959501625661884600e-02,-1.039639751722708574e-02,2.755525637511982082e-02,4.276951849460601807e-01
2.909011255455823397e-01,-3.819262766418834998e-02,1.260990837173378565e-02,5.143606228118987461e-03,-9.350781235247251216e-03,1.626561915672328218e-02,3.087072968482971191e-01
2.671665047065455156e-01,-2.950697805037212629e-02,-2.359538465615346192e-02,-2.710198117519052683e-03,2.087750196068875741e-03,9.995023707678259324e-04,2.938271462917327881e-01
2.708871237993351055e-01,-2.206270873361566853e-02,-2.412577483249880861e-02,-2.602883470253490074e-04,-2.416099763852325361e-04,-2.965732221113236990e-04,2.939879000186920166e-01
3.002399602311009996e-01,-4.192655624023247651e-02,1.473942765123295584e-02,1.491773114089807320e-03,1.264451798768779838e-03,1.876214102424626773e-02,3.193231523036956787e-01
2.768768337099981602e-01,-2.725904749291588325e-02,-2.591407388863063710e-02,-1.493382764043363212e-03,-1.561816411910707091e-03,-1.355806255251423495e-03,3.034977912902832031e-01
2.236972640524239886e-01,-1.629215108757813002e-02,-2.205285728384380473e-02,2.542477901268621926e-05,-8.412844208599154494e-03,-7.228215179841710608e-03,2.436794638633728027e-01
2.638342869864985785e-01,-2.717409269804289818e-02,-2.468237272052588305e-02,-9.266244245274665031e-03,-4.189438067121378090e-03,-5.064961192038545425e-03,2.904379069805145264e-01
2.348768967866194934e-01,-1.599697766096135065e-02,-2.898096137491511237e-02,-5.031636179713223390e-03,-5.258990533588440638e-03,-5.613291427964370826e-03,2.581028342247009277e-01
2.428657115636584651e-01,-2.467651611035098780e-02,-2.223094993109674122e-02,3.777372923965315260e-05,-2.658020872739702643e-03,-6.598787605694533646e-03,2.666127681732177734e-01
3.264574489312903061e-01,-2.306341211626006249e-02,2.549171558776375246e-04,-3.713370751748910209e-02,4.183508640055762229e-02,-2.850338737948174272e-02,3.555037677288055420e-01
2.698345557202498912e-01,-1.076171663606642626e-02,-1.682008136947416022e-02,2.977454567307777399e-04,-1.539964168156286208e-03,1.446051732467662975e-03,2.836980521678924561e-01
2.507232927587507154e-01,-3.287713592721577816e-02,-1.239579817385348670e-02,3.003606395310883014e-04,-1.836467627614149663e-04,2.437355660725938795e-03,2.739678323268890381e-01
2.741549675473207714e-01,-2.694573995990376392e-02,-2.428649285453321482e-02,1.348367952823902299e-03,-5.450029255350705105e-04,-4.398117037003451408e-04,2.997914850711822510e-01
2.632463339586144646e-01,-3.391062450496168390e-02,-1.953828851760433527e-02,1.318342386211728738e-03,8.413599730479989118e-04,2.717537077986494553e-04,2.902508378028869629e-01
2.830924160717913640e-01,-1.993172502212205155e-02,-1.415755159614262570e-02,2.133649744288447329e-03,2.107938930573696398e-03,-8.054940832091090491e-03,3.005476593971252441e-01
3.040414684904935161e-01,-1.667947877223933950e-02,-2.002520741237173718e-02,-1.876808318438859258e-03,-3.358700046522808663e-03,-6.719560499753960726e-03,3.226856589317321777e-01
2.726967318258076700e-01,-1.666013827164290750e-02,-1.183079919109478184e-02,1.181333053705491132e-03,5.909108969020908375e-04,-1.604722916893817214e-03,2.869952619075775146e-01
2.546067447999771360e-01,-3.089614486071808053e-02,-2.172428589541715305e-02,-5.415236148111869858e-06,9.637588404325699975e-05,2.818152741269074751e-03,2.810716629028320312e-01
2.733663862534690958e-01,-1.290480342792967028e-02,-1.734259277165092761e-02,-1.551172613790848789e-04,7.091222227863963916e-04,-1.970627960587297174e-03,2.885386049747467041e-01
2.696212164843114767e-01,-7.415708696388065291e-03,-1.699158999836478112e-02,2.058368237603711264e-04,-2.731229018904742954e-04,2.203099896385984132e-03,2.819733023643493652e-01
2.912483640963950404e-01,-5.093633167373504134e-03,-3.131235068981622072e-02,3.466464424435112754e-03,2.475901499343718254e-03,-1.133946919566050128e-02,3.109917938709259033e-01
2.801575729081846600e-01,-1.203843553501976471e-02,-1.517269699451351261e-02,-3.693760817779325953e-03,4.726025998694675587e-03,-1.309773177198992472e-02,2.948334217071533203e-01
2.730627540513193008e-01,-1.884744750410011216e-02,-8.653592920068189920e-03,2.953451850156044254e-03,-1.915457383008249432e-03,-4.567001926564864984e-03,2.871228754520416260e-01
2.677485783627879812e-01,-7.371287589259201134e-03,-1.600173727196736728e-02,2.331333421440343013e-04,-7.979881016406452452e-04,2.190298628199541676e-03,2.795644700527191162e-01
2.644075075349862636e-01,-3.100626256860279650e-02,-2.291862713998771284e-02,1.096487092507931376e-03,1.234729446598864392e-03,4.825002624284825551e-04,2.914693653583526611e-01
2.514685922388517625e-01,-2.505600122789894413e-02,-2.381746314059976499e-02,6.835425579844199573e-03,-2.867501793609240595e-05,5.417275050168202100e-03,2.763206660747528076e-01
2.746023345201836774e-01,-1.808432203576872122e-02,-2.224963232722264317e-02,4.504297072772344129e-04,-2.891331711098312201e-03,-3.656074547594506891e-04,2.948356270790100098e-01
2.739381823172267749e-01,-1.947606332337294133e-02,-1.496489616171266246e-02,1.922381458853976866e-03,-8.853440546207277939e-04,-7.446527808505983177e-04,2.912108004093170166e-01
2.703048045542619793e-01,-2.312386725853472769e-02,-1.881315138144327992e-02,-1.944872502758110313e-04,5.253086751047295446e-04,7.192078333232127625e-04,2.913015186786651611e-01
2.757938771475194617e-01,-1.759829226282408343e-02,-2.491229403738026704e-02,3.956134111432402407e-03,-7.378492666990332490e-04,3.450661809773123930e-04,2.971990406513214111e-01
2.691894223635946659e-01,-1.224844001199530685e-02,-1.879708112376125839e-02,-8.220100301646776934e-04,-5.010915441501685589e-04,6.459111430629828907e-04,2.847757339477539062e-01
2.869954410133737088e-01,-2.553341229554241532e-02,-1.996540918568324996e-02,5.950194001626715919e-03,5.621510447169556293e-03,-1.103643155083114738e-02,3.106952607631683350e-01
2.701940186765544594e-01,-2.553095615440929833e-02,-2.122025444408494332e-02,-1.114962248569825037e-03,9.945162360502648145e-04,6.312692463991733663e-04,2.936067879199981689e-01
2.742971060228898139e-01,5.424577043150607958e-03,-2.888265347774471303e-02,1.767527838194030317e-03,-1.477459815820260716e-03,2.650332265722543396e-03,2.876294255256652832e-01
2.529420847511749670e-01,-2.342204036621986507e-02,-2.726933636176993858e-02,1.427457097321289459e-04,-1.868048017604809728e-03,-4.859485831178523771e-03,2.784538865089416504e-01
2.712029841085189519e-01,-1.252214587341804464e-02,-1.589524267314328110e-02,2.652816430343147300e-04,2.409485658279389170e-03,1.926568968281149735e-03,2.854770123958587646e-01
2.475785458897292457e-01,-1.144224515367486816e-02,-3.320743709306420155e-02,-2.220720556720178450e-03,-1.027010792927056035e-02,-3.454820072134155793e-03,2.712382078170776367e-01
2.607927280685372051e-01,-2.190361841844769286e-02,-2.951842583914988938e-02,-1.186197455362245686e-03,-3.090132942371679164e-03,-2.252989236994626561e-03,2.866635322570800781e-01
2.655791763362090885e-01,-2.210492432485916536e-02,-3.156885478794083100e-02,-1.211244038969679689e-03,-2.035820547777467300e-03,-2.564601684409935529e-03,2.925933897495269775e-01
2.539489992272924157e-01,-1.864541152270693392e-02,-3.354612913095565696e-02,3.297437070121832453e-05,-4.665700689364013845e-03,-2.839375451282818725e-03,2.805015146732330322e-01
2.444297922424938374e-01,-1.917969665661425904e-02,-2.849808437120221472e-02,4.802389699025261510e-04,-8.169189439080595111e-03,-5.720276896334935794e-03,2.689465880393981934e-01
2.699528746201950158e-01,-2.782842307911587154e-02,-2.783085385699698988e-02,4.222213909249550675e-05,6.652457464377043621e-04,1.136864313543699484e-03,2.977912724018096924e-01
3.500267201428730601e-01,-5.589280401121163311e-02,8.636668214874840266e-03,-1.189664918161869797e-02,-7.257580377616489054e-02,2.472498132816527278e-02,4.010003209114074707e-01
1.769654376259935102e-01,-1.393406806399347109e-02,-7.326097858380245520e-03,-8.339557948341918929e-04,-1.470338514532831126e-02,-4.049651725663574835e-03,1.895380765199661255e-01
2.683477836621064316e-01,-2.956907783046980320e-02,-2.333525857799648162e-02,-1.287815811385157943e-03,3.081608406051324620e-04,-9.259782142609484373e-04,2.948626577854156494e-01
2.942469231654549766e-01,-1.813365572210662302e-02,-3.562099014094743943e-02,2.384438518336438016e-03,-9.539060865983847379e-04,-4.907497306348468542e-03,3.216242790222167969e-01
2.916193334991406538e-01,1.076971927311234922e-02,-4.397724823836904329e-02,7.464387199318291144e-02,1.295459505392281344e-02,-8.818414342720121493e-03,3.386757671833038330e-01
2.788110914807890861e-01,-2.553151139587442331e-03,-2.782974313515690357e-02,-1.262097838374618428e-03,-3.374622912619085202e-03,1.080121733927535271e-02,2.954752445220947266e-01
3.236468224595074328e-01,1.920742900117707042e-02,-4.789909108190362752e-02,-1.216232285916797259e-02,-3.414192263321514688e-03,1.062792806311660398e-02,3.441425561904907227e-01
3.043117557800648076e-01,1.697515292849424706e-02,-4.377126578485043829e-02,2.893821016033585138e-04,-4.487652396076689419e-04,8.285864890519151465e-04,3.220404386520385742e-01
2.843133769660901033e-01,8.697967301404443963e-03,-3.573903358969041100e-02,1.561172204371889805e-02,2.286595073547829926e-03,4.978418412835211408e-03,3.016740679740905762e-01
2.781684892559820876e-01,-2.553667997813033330e-02,-8.018342960953397935e-03,1.271434591746659808e-03,6.693450977751806696e-03,-1.060066721241805995e-02,2.961413264274597168e-01
2.714410198572225763e-01,-1.626786430739798894e-02,-1.711107507742694323e-02,6.696120347898820062e-04,-7.002275267031654463e-04,-1.265175941076318328e-04,2.881363928318023682e-01
3.470867751444930982e-01,6.253880676486037182e-03,-6.225101615909137132e-02,4.906502415234700182e-02,5.923549253717415308e-03,5.432684271855495704e-03,3.893900811672210693e-01
2.701332193666515780e-01,-2.767144103531134214e-02,-2.849658695013183862e-02,2.046323758875504440e-04,1.490808979790206529e-04,-4.075341277540258690e-04,2.982192337512969971e-01
1.341019495110361004e-01,-6.652102486888918087e-03,4.359504885953560671e-04,1.377505146704845760e-03,1.101935899057442797e-02,2.029859812296917840e-03,1.387321352958679199e-01
8.377933633460310503e-02,6.008329377507358460e-03,9.440571307960884256e-03,-6.245713309228214175e-03,2.017566008151915492e-03,1.343165679708843577e-03,7.699241489171981812e-02
2.901266179561524661e-01,-2.748123876267474786e-02,6.804661568109118819e-03,1.822836695299827250e-03,1.145534689485470372e-03,1.620586710831714225e-02,3.032533526420593262e-01
1.245588609415366477e-01,2.450402653840583200e-03,6.419118175304619478e-04,-8.637489319303052679e-03,1.998792203134610798e-02,3.122556001577406030e-03,1.287874132394790649e-01
1.329720010890141635e-01,2.252045286531938195e-03,-3.020697901887345327e-03,-5.123492547853332468e-03,6.086354063407560001e-03,2.910444642035412994e-03,1.342387944459915161e-01
2.891184482083866136e-01,-3.082488150393059012e-02,-2.474166874221457590e-02,-9.277777327603954020e-04,2.619531646876945355e-02,-1.134951099848389988e-02,3.207834959030151367e-01
2.945031486277005506e-01,-3.132600658417111772e-02,-8.691486477074933381e-03,-2.619764918269634497e-03,8.952352287307016945e-03,-1.271162622580541794e-02,3.163032531738281250e-01
3.031715904782268378e-01,-3.474162082367357463e-02,1.070527373012317152e-02,-7.170729564035367709e-03,4.242130168850783561e-02,-2.118914010011250029e-02,3.283192813396453857e-01
3.041238702808751193e-01,-4.270019109415021386e-02,-5.339626007806255736e-03,2.210496361413066303e-03,2.179582719460000304e-02,-5.022028616571130519e-03,3.320251405239105225e-01
2.814108257334070329e-01,-3.407721976889588333e-02,-1.012202374142701089e-02,7.379485831199094443e-04,3.412944838399892961e-02,-3.752758783945214002e-03,3.099795579910278320e-01
2.739404976858976770e-01,-2.576795478802189343e-02,-2.386262791178805909e-02,5.303006824655599099e-04,-1.753072788720339958e-03,-5.287778310821337991e-04,2.987785935401916504e-01
2.756588258130753255e-01,-2.587138251221376972e-02,-2.371050533012300510e-02,5.299016256623434885e-04,-6.360289942700967725e-04,-5.286437351071965503e-04,3.004604279994964600e-01
2.744859100625263726e-01,-1.681515721559480314e-02,-2.260373372345342302e-02,1.780557281689223482e-03,-2.716861850987331919e-03,7.817364790756030791e-04,2.942949533462524414e-01
2.608158949536366622e-01,-3.333900969437125772e-02,-2.059810925685227889e-02,3.861067247573522591e-03,-5.375899545986416624e-04,2.840320646677452383e-03,2.881170511245727539e-01
2.011657910457702036e-01,6.068955405664572256e-03,-2.651425650482142071e-02,-6.142404949611991738e-02,-2.481491526591786748e-02,6.652278797482972204e-03,2.424461990594863892e-01
4.177712408507998076e-01,-1.940189866752298209e-02,-2.404538345127585353e-02,-2.107571603288366235e-02,-1.400354247817284584e-02,3.233792509177176727e-02,4.452302753925323486e-01
2.180920709288350079e-01,-2.327845722562311981e-02,-2.885124725760940256e-04,5.965899959793609375e-02,-4.987666539940839583e-02,-1.987186871748472874e-02,2.693779468536376953e-01
2.713219741722002198e-01,-5.063498391913112684e-03,-2.123163341044108365e-02,1.405592216758981203e-03,-2.244802639822277793e-03,2.652505494511756511e-03,2.848879098892211914e-01
2.692938009325032689e-01,-5.671209362732854142e-05,-2.168708149328027468e-02,-4.204948340900767269e-04,-2.483550132800472175e-03,3.901081059300917728e-03,2.809064090251922607e-01
3.683480848327560508e-01,1.404555595083956110e-03,-6.140131293178913152e-02,4.658443640218606907e-02,2.869222541200368293e-02,1.277349575845507408e-02,4.136518836021423340e-01
2.116941732753422623e-01,-1.975573684721869394e-02,-2.615962734598055450e-02,-4.185940210414342694e-02,-4.524200284330440192e-03,-6.301959673207706801e-03,2.460272908210754395e-01
2.022664229490162835e-01,2.987997048280038870e-04,-1.906396190045554773e-02,-6.183508390576039626e-02,-2.140075935151670300e-02,2.161327564382952565e-02,2.435623109340667725e-01
2.635310503614742839e-01,-3.354332621177197327e-02,-2.001234642882349091e-02,-1.189258530371557548e-04,5.824926869252724073e-04,1.652663021867298732e-03,2.905612289905548096e-01
2.105685640268544490e-01,-5.173484784504731038e-03,-3.448741484323478157e-02,-5.451776817485232129e-02,-2.839976733015076027e-02,3.279664086566617259e-02,2.613259255886077881e-01
3.318973597645201723e-01,1.366871358282836790e-02,-4.658090171355117048e-02,-2.128210740288908037e-03,6.970058395456408401e-03,-1.179137492607819533e-02,3.530567586421966553e-01
2.715968338895475842e-01,-1.000966656499842344e-02,-2.147593612453640999e-02,-2.377442034556689551e-03,-1.819652494268006351e-04,1.641544030210304083e-03,2.875548899173736572e-01
2.750169219303778556e-01,-1.196057940170389133e-02,-2.680841379887639875e-02,-5.953393142801124624e-03,2.901723071627823180e-03,-4.732577911798469916e-04,2.949064373970031738e-01
2.730417615938575127e-01,5.584919396135465397e-03,-3.044613471483675893e-02,1.391271558883845150e-03,-3.721165036572913337e-03,3.791941805976064162e-03,2.873301804065704346e-01
2.867928006798926566e-01,1.988297627655205568e-02,-3.991254487711501375e-02,3.489608276539868208e-03,2.514637669910957992e-03,-6.123933931479728227e-03,3.015698492527008057e-01
2.819819735678410488e-01,1.391502046083417654e-02,-3.460507976047116907e-02,-4.296106749214232377e-03,2.421866161815330182e-03,-1.654331019506803278e-03,2.954689562320709229e-01
2.841181597452661078e-01,7.807838795052673975e-04,-3.279052814607660848e-02,-1.189158306218693361e-04,1.358605270226913471e-03,-7.393066406231595458e-03,3.018089830875396729e-01
2.762567892334415465e-01,-1.550044238675428454e-02,-2.561633485255442044e-02,3.898339228091736268e-03,1.781156277908728033e-03,1.358514766679771871e-03,2.970465421676635742e-01
2.720836309109641027e-01,-1.740482863087779164e-02,-2.206126383286607928e-02,2.946398127619421353e-04,1.532451606225225397e-03,-1.289563665441633951e-03,2.918655872344970703e-01
2.707667999579936313e-01,-9.967451053129267047e-03,-2.142889024415774168e-02,-2.469136110622456321e-03,1.565975832822442786e-03,1.980752553782957111e-03,2.867021560668945312e-01
2.824637336248128072e-01,5.578109581540743878e-03,-3.620458535424458946e-02,-2.918192108763303927e-03,3.008286353194433976e-03,5.020791738514170967e-03,3.001812696456909180e-01
1.930307545338131037e-01,-1.498890904078420405e-02,-9.116706860287163150e-03,2.031156715211801869e-02,5.557674945879493081e-03,-7.432109917644377263e-04,2.083677798509597778e-01
2.720378671988618047e-01,-1.982263309739708268e-02,-1.929120901840138125e-02,-6.107166653008164713e-04,5.533982539278536547e-04,-1.298305868935962495e-03,2.916073203086853027e-01
2.809638781244688799e-01,1.592570631019479821e-02,-3.583383485996538553e-02,-5.331991266828325221e-02,-5.124237520213765530e-03,2.131202698050852287e-02,3.108262419700622559e-01
3.016589217559226266e-01,2.602285318771349609e-02,-4.858158621952060607e-02,4.795158921886170239e-02,6.486143555492067912e-03,5.673812749604393614e-03,3.304929435253143311e-01
2.703315427693749884e-01,-2.440816138976684146e-02,-2.335811940766005512e-02,-3.107423823169507167e-03,1.261124987992726290e-05,-2.593613640197531961e-04,2.942656576633453369e-01
3.253467145844073927e-01,2.146214490638809202e-02,-5.434779122887187230e-02,-1.387829801808662666e-02,1.521608140338556346e-03,5.671970487902682802e-03,3.490153849124908447e-01
2.808688480346751559e-01,-1.531401342801791410e-02,-3.206259682142659218e-02,8.040546807254240645e-04,5.612932076491532240e-04,2.843268839495749966e-04,3.049074709415435791e-01
2.740118866655701924e-01,-1.397320319999739713e-02,-2.611455106840822327e-02,-5.233207253046943778e-03,2.272297821470103691e-03,2.859197486550114090e-05,2.944095730781555176e-01
2.984190500092399057e-01,2.376567941685633900e-02,-5.390024935161430442e-02,-1.063980194740328858e-03,5.010967514498152267e-03,3.453080157110189306e-03,3.207992911338806152e-01
2.635540736806337714e-01,-3.314116986406145937e-02,-2.152746185398833612e-02,-2.889308684917903363e-03,-1.477259160513993020e-03,-1.279818166472162285e-03,2.911249101161956787e-01
2.226183184091224954e-01,9.627145755864985333e-04,-4.127396932426238840e-02,-7.260061720908084215e-02,-3.652434878106596700e-02,2.989291451613019374e-02,2.877021729946136475e-01
2.741624579402083262e-01,-1.442518375941735653e-02,-2.682727937841182519e-02,-4.347337458737460074e-03,1.281888916431903579e-03,3.111480860398727327e-04,2.950892150402069092e-01
2.890194359985656103e-01,2.632179367776381340e-02,-4.150754415867610736e-02,6.968921100260356757e-03,1.683848509308884505e-03,-5.511549699902792976e-03,3.027784824371337891e-01
2.862702742166726155e-01,1.582972486040419569e-02,-3.738369788052289810e-02,-2.033794847689724631e-03,2.270138764303180528e-04,1.274053947789114370e-03,3.006297647953033447e-01
2.768008219885693677e-01,1.442680007174323986e-02,-3.846312868124426854e-02,-1.909381145377637371e-03,3.221286014060558561e-03,5.629780587931416252e-03,2.926628887653350830e-01
2.863579882887604677e-01,1.024405172660275420e-02,-3.658384424297783655e-02,-4.872196730687484122e-03,-1.380063290207701786e-03,3.189061540049345066e-03,3.024384677410125732e-01
2.588059586764959175e-01,-3.668247823716151712e-02,-1.711392367964242878e-02,-2.146078717150437173e-03,2.654461828983361985e-04,1.687061881525321971e-05,2.862308323383331299e-01
2.890654105805922081e-01,9.139458596456581652e-03,-3.805536693395208947e-02,-3.783277355445030976e-04,-5.453852242479189641e-04,6.514881033102248517e-03,3.064728379249572754e-01
2.366163516093434671e-01,-2.229052220906609094e-02,-2.175545150561361551e-02,-6.674157275502322351e-03,-4.297826009045609130e-03,-7.068613612164553056e-03,2.592941522598266602e-01
2.601233846926754301e-01,-3.168281282997537085e-02,-2.049093266762112842e-02,-9.534853289693138220e-04,-5.802716286227926424e-04,-2.024018395049884556e-03,2.864023149013519287e-01
2.352774490942939889e-01,-1.726097685811700533e-02,-2.330485315461715279e-02,-4.023593011279844901e-03,-6.262123873504666684e-03,-7.086476205653662909e-03,2.562330067157745361e-01
2.096878455912195016e-01,-1.383148794474062249e-02,-2.229602779695182002e-02,-1.275481396720162461e-02,-1.509257527990231010e-02,-6.624160651998373291e-03,2.307110279798507690e-01
2.308711404478384355e-01,-2.215298494617924663e-02,-2.161208884583580569e-02,-8.930693398168128641e-03,-7.162401055004912614e-03,-7.345333674860431324e-03,2.538497149944305420e-01
2.825065590443939789e-01,-3.178315457172789515e-02,1.144374327738173491e-02,2.495440979525305730e-03,-6.116418704987856489e-03,-1.104764967860566785e-02,2.959018051624298096e-01
2.825128891300752176e-01,-3.808446564164966186e-02,2.756156216754540589e-04,4.435386392004579334e-03,2.766499234556718187e-03,-2.121274707761870628e-03,3.033998906612396240e-01
2.504256421869757165e-01,-3.071632357093348475e-02,-1.838006564313050817e-02,6.163122474600329784e-04,6.323562227137012560e-04,-5.164740935360919924e-03,2.753309011459350586e-01
2.500214026993520799e-01,-3.165995451680926609e-02,-1.698957104646366123e-02,-1.613567745927134347e-04,-5.985082302274032052e-04,-1.595973072712809178e-03,2.746562063694000244e-01
2.610300287323433777e-01,-2.923647147662378210e-02,-2.081012089026969270e-02,-5.705807291339465813e-04,-8.871909467488997038e-04,-3.591670365778245732e-03,2.862198352813720703e-01
3.236478456272597892e-01,-7.387448231698739987e-02,2.179152549992371957e-02,3.126896251892526124e-02,-7.266792907612455721e-02,-4.160859705000562528e-03,3.846734762191772461e-01
3.036272745385431016e-01,-4.093732572782193824e-02,2.654919566147842525e-03,1.364765904449973021e-03,3.484928279580297265e-03,-1.745043581459267482e-02,3.264357149600982666e-01
2.760871844635775507e-01,-1.671065099679437671e-02,-2.651999954583288133e-02,5.398788771294027629e-03,3.516998603120232054e-03,1.019956217385479657e-03,2.980379462242126465e-01
2.735749549574486572e-01,-3.126791819631738467e-02,-2.455230850441081358e-02,2.931582534639430235e-03,-6.019671346297215606e-04,-5.771378941487004889e-05,3.015857338905334473e-01
2.627106962242007349e-01,-3.541593663874041675e-02,-1.811075861526879882e-02,-4.611031211502602135e-04,1.295527836141842923e-03,-2.837656062910382665e-04,2.898719310760498047e-01
3.099127546437541181e-01,-4.010990967095409698e-02,1.309778630541325040e-03,6.027395071068281963e-03,7.530500889128664442e-04,-9.864402825345704520e-03,3.318677842617034912e-01
2.799659787186978832e-01,8.143589203057008397e-03,-3.566974410846454613e-02,2.483365790647655384e-03,1.440783023090895574e-04,7.536165976033409744e-04,2.962038815021514893e-01
2.626682904597783530e-01,-3.865186344165311150e-02,1.042796724319536295e-02,2.905931224963511500e-02,-2.231332241943921602e-02,-2.281163939283515837e-02,2.898310124874114990e-01
2.754142687671838341e-01,-3.096956964640540377e-02,-6.042149918813466414e-04,3.877305550639035397e-03,-1.576111836719304091e-02,-1.108352487915567489e-03,2.937408387660980225e-01
2.728147937577437565e-01,-2.185031235972102748e-02,-1.680500571941671850e-02,2.013716742478066906e-03,-1.496771775531676460e-03,1.038825629481627145e-03,2.922129929065704346e-01
2.771436490739401237e-01,-1.648013055857222575e-02,-3.144512677552198376e-02,5.498923398553448236e-03,1.221142760873099265e-03,7.213585658017179650e-05,3.015429675579071045e-01
1.726830312712198112e-01,-7.118674858810722372e-03,-1.092887755136481842e-02,-9.110891945025376831e-03,2.662785315044060436e-02,1.180734283884060697e-03,1.881716996431350708e-01
2.379967168473307026e-01,-2.142020868690219793e-02,-2.067064768195038538e-02,9.991225049771146956e-05,-5.081172047504052894e-03,6.061565264725885839e-03,2.594050168991088867e-01
1.212319444043724742e-01,-7.183767624969333854e-05,-7.022456771156239397e-03,3.752505738011610581e-02,2.858235148674829335e-02,7.326647131536813493e-04,1.492746025323867798e-01
2.732539671391488456e-01,2.227545938120162328e-03,-2.766161225473963425e-02,-4.426502253033365655e-03,8.614598616030990546e-04,2.455375655325174426e-03,2.872777879238128662e-01
2.325303900665798840e-01,-2.626538820363065463e-02,-1.258980790095864943e-02,-1.085344742469672354e-03,-1.226824388950522021e-03,4.653302456593001041e-03,2.523808777332305908e-01
2.058973025236802146e-01,-1.692050874444875341e-02,-7.237563563460211458e-03,1.577234136771059683e-02,7.340739064331110522e-03,-1.196457376418532358e-03,2.202186584472656250e-01
2.047201561184995577e-01,-2.115399617459390313e-02,-7.615706361334198538e-03,2.952958138919374587e-02,-1.824934001076046475e-02,2.938643268072555371e-03,2.275642305612564087e-01
2.702535416226349296e-01,-2.125104701321377243e-02,-2.327714234157739204e-02,-3.295479191248742675e-04,-1.092592713934576040e-03,-1.254788991547378446e-03,2.925376594066619873e-01
2.779173517189630349e-01,8.111017912990445278e-03,-3.321022037962217954e-02,3.413096165829818639e-03,3.842725005668056262e-04,-4.064245678857692900e-04,2.927243113517761230e-01
2.820070653895681567e-01,1.748400086488885452e-02,-3.618085992071551349e-02,3.670270352903987716e-04,2.492703980473307337e-03,2.450554514559143311e-03,2.951017022132873535e-01
2.769353770411976390e-01,5.380848776434660197e-03,-3.062040304082211395e-02,9.092458260585964576e-04,-9.436139018373656834e-04,3.179574895067230518e-03,2.912897765636444092e-01
2.343274133865529407e-01,-2.572584099271703340e-02,-1.641702568677225194e-02,-1.124986410234799601e-03,8.167917707840664787e-03,-4.374246523186276457e-03,2.560369074344635010e-01
2.811923454666191979e-01,-4.621110786944701565e-03,-2.853587710978147673e-02,3.542273795519007736e-03,4.766769792245787764e-03,-1.123977139567487737e-03,2.986737489700317383e-01
2.069560161021883060e-01,-1.725022922125768465e-02,-1.505939321591261149e-02,1.581531579627177761e-02,7.662019946057089387e-03,-5.014226261972106434e-03,2.253529727458953857e-01
2.816272784419101560e-01,1.599566498190348185e-02,-3.919408906533805581e-02,-4.437761843918659049e-03,1.412136619026489607e-03,9.593502332098719681e-04,2.972104251384735107e-01
2.750855420020371644e-01,-1.376575366390624111e-02,-3.064192555498516934e-02,-5.113927115440172061e-03,2.328673112043729725e-04,-9.614725610569624988e-04,2.977851033210754395e-01
2.305122275043919866e-01,-2.234352527846081293e-02,-1.634662598001618283e-02,3.168548369944141491e-02,2.454859785477388548e-02,2.386349714038969293e-03,2.594080567359924316e-01
2.575889210705187837e-01,-3.429624104173319143e-02,-1.829201848054684554e-02,3.660157872722567834e-05,-1.380617528064495992e-03,-6.161430124178422394e-04,2.842332720756530762e-01
2.717126900989729199e-01,-1.443599151791605251e-02,-2.435072823474819514e-02,-4.927645727136385420e-03,1.282159575707896449e-03,8.950572588824294833e-04,2.913702726364135742e-01
2.686580110444683478e-01,-2.249680254488729825e-02,-2.810173082997823035e-02,-7.035908663285329228e-04,-5.910112804910450058e-04,-8.956381606931731023e-04,2.940057516098022461e-01
2.773371503563270557e-01,6.424215231071062071e-03,-3.344662930186631522e-02,-6.392871324006365631e-03,2.789342422212203777e-03,-7.648563932814378625e-04,2.931428551673889160e-01
2.498522293559914953e-01,-3.046049899585995258e-02,-1.682215826399317826e-02,-3.026124979526095913e-03,-4.914788570476134877e-03,-5.381384898740695921e-03,2.740894854068756104e-01
2.595713283967990836e-01,-3.338376370446161090e-02,-1.709109550380501219e-02,-4.915366074153802896e-03,9.402108318646771028e-04,-3.614760494706876440e-03,2.853584587574005127e-01
2.457956445572798132e-01,-3.323738890851696270e-02,-1.448013973883838235e-02,-7.533975302730689522e-03,3.553029552676462838e-04,-1.458325370619430227e-03,2.704707384109497070e-01
2.746880791799016230e-01,-1.426570144365769954e-02,-2.698327822197502113e-02,-9.211177435184085896e-03,3.537976505913114321e-03,-8.997016041096247486e-05,2.960117161273956299e-01
2.222272749428660932e-01,-2.178170055460681986e-02,-1.648292447810964512e-02,-2.688456327850298824e-02,-5.074651536890691962e-03,-1.089992476144028633e-03,2.460176199674606323e-01
2.631025434598949220e-01,-3.393885969116988699e-02,-1.893116920552820326e-02,-9.770236511928291276e-03,-2.314675575207002451e-04,-2.353313730344793429e-03,2.903516292572021484e-01
2.687074381883800545e-01,-2.640824693512187904e-02,-2.114922179269689007e-02,-6.354830382534253953e-03,2.097312608751746108e-03,-2.393701786149403095e-04,2.927514612674713135e-01
2.501952204352381193e-01,-3.587462002145887230e-02,-1.539865569336681950e-02,-3.829194409792797092e-03,-6.229198185567823504e-04,-3.063903060621632154e-04,2.764834463596343994e-01
2.577720136382497529e-01,-3.610643105621900995e-02,-1.661456906346814311e-02,-7.651889484572227873e-04,7.143956523862312388e-04,5.911368078453236490e-04,2.846411168575286865e-01
2.488579600837086958e-01,-3.524786191426326765e-02,-1.458814656341130001e-02,-3.705466440098216692e-03,-1.187847025664672766e-04,4.581660922200008726e-04,2.744362652301788330e-01
1.993468198816276682e-01,-1.011975700885904550e-02,-1.453315747667310864e-02,1.016794790627998171e-02,1.075396719173662453e-02,-4.331452318976303228e-03,2.133859694004058838e-01
2.635248059421118061e-01,-2.900366384493865968e-02,-2.183255354792026925e-02,-2.228067573079246626e-03,1.934775066398789368e-03,2.855173373536797041e-05,2.890548408031463623e-01
1.513226079323668483e-01,1.070268627824867702e-03,2.761005543395082806e-03,1.089420251773430028e-02,-6.032646513613541470e-03,3.989693393881325878e-03,1.511210352182388306e-01
2.001511438160137046e-01,-9.416182257405147915e-03,-1.455692005382984433e-02,-7.046330458985972447e-03,1.638248429205896306e-02,4.196671323336039275e-03,2.145440876483917236e-01
1.672223522730433842e-01,-7.803097748209489315e-03,-4.324674189904689769e-03,9.667216533661142364e-03,1.205920309138207129e-02,-2.043383681959195456e-03,1.754034161567687988e-01
2.700276491368456266e-01,-2.934099431832851157e-02,-2.135335155380631289e-02,1.252213678660371934e-02,1.411757702705184869e-04,-9.167172488719567327e-04,2.962551712989807129e-01
2.389334565930226195e-01,1.023696129563034241e-02,-6.534567719604522651e-02,-7.356261157232517334e-02,2.782500304401250985e-02,-1.213391976911890567e-02,3.070815205574035645e-01
1.406782340131987885e-01,-3.931632841140654533e-03,-1.749452122576933277e-03,4.891328303009932071e-02,1.285423452153006997e-02,-2.196569624959125895e-03,1.681930720806121826e-01
2.027553744818941239e-01,-9.701344336128917001e-03,-2.593655187357563063e-02,-4.115156043411069900e-03,-1.369185289330376518e-02,-1.989309239304106348e-03,2.224315553903579712e-01
2.697629570382868991e-01,-3.293620578838592217e-02,-1.999216933814157438e-02,4.594155558451689346e-03,1.895077622218003903e-03,7.959289780594687013e-04,2.965673208236694336e-01
2.710836027271644189e-01,-2.900488354256121337e-02,-2.328538100685911827e-02,9.740932867294501731e-04,4.177832999544843409e-04,1.719223408164160757e-04,2.972758114337921143e-01
1.564844797830343970e-01,-4.851213467090879916e-03,-1.533200479083095258e-02,2.401957344522698268e-02,-1.950910621066296625e-03,-1.448490233315113951e-03,1.719840466976165771e-01
1.491694801224583145e-01,-1.216218348656560033e-02,-2.876808178169300290e-03,1.937781090303099252e-02,5.124013532802623380e-03,-1.515353735879509554e-03,1.607117056846618652e-01
2.025715002403696563e-01,-1.060546355550982811e-02,-1.422126500787687653e-02,6.314441428483760256e-03,-1.502702729550148622e-02,5.695615385815640079e-03,2.170775681734085083e-01
1.341403058985859709e-01,-5.159583887848775974e-03,2.924360795031472060e-03,1.108600436837119466e-02,-7.572410523049280875e-03,1.685874288911864180e-04,1.374209821224212646e-01
2.741561765256990690e-01,-2.517546271492523968e-02,-2.913529634511680122e-02,6.664623964872458568e-04,1.498686935451916825e-03,-1.986213026925879189e-03,3.013640940189361572e-01
2.761996364429519790e-01,1.785515106143475972e-02,-3.705636427970618318e-02,1.936172605262931681e-03,-1.416115425732779667e-03,2.726690366164853576e-03,2.897978723049163818e-01
2.725749903962114140e-01,-2.571085250294326274e-02,-2.690992783769212415e-02,9.632234874326461697e-05,4.272919943313265197e-03,-3.955586025321877926e-03,2.990573346614837646e-01
2.688040455838356380e-01,-2.183583507581406125e-02,-2.759695542008686053e-02,2.178710652806764309e-03,-7.705462497065072858e-03,1.445417419252632884e-04,2.938903868198394775e-01
2.753264318923206444e-01,-2.480330782657268196e-02,-2.014455100427212098e-02,-1.154556232650759493e-03,-2.074723711882690922e-03,-8.035882995716791405e-04,2.978593409061431885e-01
2.863518764474360934e-01,-3.412936604290153775e-02,-1.273637722008968964e-02,5.798190220378190247e-04,-4.958253919306496865e-02,7.936056904707410042e-03,3.222965598106384277e-01
2.530167129543217097e-01,-2.846488952305589737e-02,-1.861473463465837530e-02,8.057833690543768357e-03,-2.340626365094315188e-03,-3.154498111077627502e-05,2.770695090293884277e-01
2.749458779709134104e-01,-2.495618469622884472e-02,-1.931615267130831759e-02,-8.963250344227256371e-04,-3.176527517724236915e-03,5.908286899998511487e-04,2.971789538860321045e-01
2.698153493416889370e-01,-3.272372186063675359e-02,-2.060881483473712972e-02,3.487155353997487169e-03,7.424257194082328629e-04,5.876764291473103282e-04,2.967332005500793457e-01
2.756598017646586518e-01,-2.434728336929231629e-02,-2.749064395789468929e-02,-1.845867691430057528e-04,2.196966001193915909e-03,-1.660608200763604141e-03,3.016289472579956055e-01
2.752189772038223792e-01,-1.896667975026893049e-02,-2.304153003940338784e-02,-2.400752672327442338e-03,-2.624179693371564513e-03,1.026307818015655387e-03,2.963134646415710449e-01
2.745894996727778481e-01,-2.328061788438540169e-02,-1.875070772638334771e-02,-2.877313834769811268e-03,-2.417943563508904558e-03,8.892729160962715203e-04,2.957068681716918945e-01
2.582841246825634540e-01,-1.874390703014555681e-02,-3.233538748954267739e-02,2.231206426498511756e-03,-4.385469203178570235e-04,-3.108316734793487631e-03,2.841460406780242920e-01
2.144081063003704102e-01,-1.126422601672145973e-02,-1.775950292392247665e-02,-1.001126370228781385e-04,-5.793204028519271945e-04,4.768953401212449802e-03,2.291402667760848999e-01
2.785710579896641947e-01,8.401265616262532099e-03,-3.871516872559641054e-02,3.337267459352102027e-03,6.122707193890675669e-04,5.987980783237419101e-04,2.966087162494659424e-01
2.719998267368020084e-01,-2.712526468722448181e-02,-2.408125299626759364e-02,7.240486632165135314e-03,7.376717517313386221e-03,-2.842160822650952826e-03,2.981933951377868652e-01
2.756403670646193071e-01,5.324513982377751531e-03,-3.165783882417361195e-02,-7.211865344236893793e-03,1.619355354115416734e-03,9.672120641606726061e-04,2.908641993999481201e-01
3.158415273046435434e-01,-1.012168844153304992e-02,-4.292075343732856818e-02,9.905037386395448840e-03,1.309246669725320144e-03,-1.494783906044762876e-02,3.449476361274719238e-01
1.195720552893074218e-01,1.353540805892291393e-02,-1.279000048490729069e-02,-5.395690960744026210e-02,-1.985697079816723179e-02,3.669485303876010400e-03,1.571165025234222412e-01
2.345444765947365673e-01,-1.743324918543816271e-02,-2.887060965913369748e-02,1.488960075143529529e-03,1.221120310078275921e-02,-3.035877124873769504e-03,2.588188350200653076e-01
2.758859554477104403e-01,-1.230436237934602606e-02,-2.610698657553292557e-02,-3.022052890238627939e-03,1.809002507041292725e-03,-1.711087267883813030e-03,2.954114973545074463e-01
2.692785454491751773e-01,-2.620211897688784486e-02,-2.515107075029650308e-02,-6.342161497632009190e-03,5.487466618037428235e-05,-1.211547020436080663e-03,2.951684892177581787e-01
2.754403222496222825e-01,-2.091193296458579431e-02,-3.215252063181645026e-02,2.097834377683116362e-03,1.397860751549912656e-02,2.266838301967314621e-03,3.031452000141143799e-01
2.575130078652608789e-01,-1.795878644135844027e-02,-3.549441110409282119e-02,7.128683489486996533e-04,5.708391404529895852e-03,-8.066714664904769050e-04,2.848227620124816895e-01
2.347284213380247953e-01,-1.428200410306590395e-02,-2.913523044290718123e-02,9.444290038685529323e-04,8.356082785996596721e-03,2.449824971773141742e-03,2.572072446346282959e-01
2.574288557087434093e-01,-3.356789078704225382e-02,-1.859518293107639830e-02,-3.933467576139439495e-03,-2.591877247987925577e-03,2.974794285844547799e-04,2.839244902133941650e-01
2.761812590622411134e-01,-2.602475921705094120e-03,-3.092724672783608852e-02,2.691487733790130007e-03,8.708130759374338708e-04,-1.538490313641672092e-03,2.940242588520050049e-01
2.849542456617708552e-01,4.999347045114885257e-03,-2.452990250420045149e-02,-7.267127097793461832e-02,-5.110218704190781086e-02,2.565243809537904457e-02,3.364005982875823975e-01
2.003520845106701309e-01,8.435983318871034808e-03,-2.040178712109923242e-02,-6.100637613504329704e-02,-5.842432887401578789e-02,2.704741985379797292e-02,2.584532201290130615e-01
2.132569971508052609e-01,1.089343834855127646e-02,-3.343455171475036292e-02,-4.368319453769695798e-02,-1.955813474800625895e-02,9.820676796577179624e-03,2.429977655410766602e-01
2.759596879270888592e-01,1.682759606137400332e-02,-4.279794611335405174e-02,-7.098991025345405270e-02,-1.392406524332849907e-02,4.821949406255126615e-03,3.192579448223114014e-01
2.785611151492371484e-01,-1.632006787787655677e-02,-3.046782450557936062e-02,-3.647253651597293089e-02,-1.702048139096564924e-02,1.059553407747287901e-02,3.106824755668640137e-01
2.714532068201355730e-01,-2.122640855425426964e-02,-1.518957851074703713e-02,1.895834810991953168e-03,5.152288669660811814e-05,3.073403638012372260e-03,2.897759079933166504e-01
2.739823948299809908e-01,-1.417374654877862072e-02,-5.880637224188828283e-03,-6.349211715805611403e-03,-9.118300602627721352e-03,1.841687625224927224e-02,2.865326106548309326e-01
2.718563712294417289e-01,-2.354201624648546987e-02,-2.617281436794487159e-02,6.091948196898072090e-04,-2.002529952269213858e-03,-6.131367287046772399e-04,2.967465817928314209e-01
2.716801290172727312e-01,-2.372174031952366258e-02,-1.050335283155960642e-02,-5.586773264234885447e-04,-3.864351669119762880e-04,-3.816084280560617568e-04,2.890226244926452637e-01
2.703815608533202686e-01,-2.124713969726188534e-02,-9.841260569265097846e-03,1.789262331227701314e-03,2.039611610253642092e-03,1.608234707330529270e-03,2.861484885215759277e-01
2.592235252027382253e-01,-3.518969899485017983e-02,-1.828367515370013519e-02,-1.168807957795877771e-03,-1.100211157605328338e-03,-1.291407633073743226e-03,2.863570153713226318e-01
2.685791989056818263e-01,-2.317538412859113106e-02,-2.337861469758029109e-02,-7.622608397237736529e-04,-3.378661614755351910e-03,-2.569656950273249869e-03,2.919518351554870605e-01
2.861431457399744027e-01,-3.569517270749689164e-02,-2.492391352290290740e-03,3.275881159348208258e-03,1.575636559188697133e-02,-9.513861583036247946e-03,3.082935810089111328e-01
2.855365017710272957e-01,-3.383969736563138819e-02,5.504644654392709668e-04,4.317411238233358553e-03,-1.744301780943217396e-03,-1.646586175541721146e-03,3.037657439708709717e-01
2.762035914395251091e-01,-2.644755524671842106e-02,-8.164528787162977919e-03,5.109992735147510408e-03,6.862008253252612627e-03,-1.257349242625270362e-02,2.951143682003021240e-01
2.949040008135352386e-01,-4.361672024665882996e-02,1.819320012453876090e-02,5.230120569320673499e-03,3.684544966864190509e-05,1.427045441737051555e-04,3.123698532581329346e-01
2.857970909227217637e-01,-4.023893733247255189e-02,9.951438504507068017e-03,3.025194209942187046e-03,-4.549320670921138884e-03,-8.154209878016505791e-03,3.045385181903839111e-01
2.931086445264645124e-01,-4.464090162173511844e-02,1.621817691997269606e-02,7.609441780508395536e-03,7.165018416721228699e-04,-8.520260968742185415e-03,3.124363720417022705e-01
2.727590506878910803e-01,-3.278512459365029441e-02,-2.539303929252209602e-02,4.572283234570289311e-03,4.588995598728244510e-04,8.459437630403615150e-04,3.020244538784027100e-01
2.053992372496442897e-01,-9.188354410398488770e-03,-2.323159138494655662e-02,3.815137635940237231e-04,-1.850684643708048333e-02,-5.553457620363211396e-06,2.242465168237686157e-01
2.094925173014229869e-01,-1.202607488845239270e-02,-2.816367322708966670e-02,9.424709276280189563e-03,-3.691709999490223881e-02,-2.346636779255293574e-03,2.393267601728439331e-01
2.648128262008213052e-01,-3.430240789532439105e-02,-2.033304800874911888e-02,1.391345002129583180e-03,-2.140343308883369032e-04,8.767974509424252341e-04,2.923950552940368652e-01
1.989712301502761516e-01,-6.043660699569949890e-03,-1.381087979512088393e-02,7.909134637400372023e-03,-1.479249569584482546e-02,4.687360293255935818e-03,2.111725807189941406e-01
3.894639776951829280e-01,-7.434365729335878914e-02,1.038240263259776475e-02,1.363249120039487436e-02,-4.060130884034818949e-02,8.370726591110076026e-03,4.344106018543243408e-01
1.745887792784363290e-01,-6.078278934184763727e-03,-1.801950051755180082e-02,2.286577257815653602e-02,-3.401211379080382180e-02,5.809976515511106575e-03,2.002019882202148438e-01
2.770119088197517399e-01,-2.283024425334037599e-02,-2.749527668369926292e-02,5.030645082224241560e-03,2.217063177759333748e-03,1.382533571548388504e-03,3.023611307144165039e-01
2.714325632410860001e-01,-1.518375708916840094e-02,-1.507388228305563127e-02,1.043171804722516343e-03,-7.196887435462692717e-04,-2.599658682908044267e-03,2.866051793098449707e-01
4.459632746909926171e-01,-1.755490075072879685e-02,-3.573813974602801924e-02,1.503018417387846223e-02,3.260641277619669848e-02,2.943287276399400923e-02,4.796604216098785400e-01
1.680542759164138922e-01,-7.990780235552913391e-03,-1.502464347753876273e-02,-6.739622759323540477e-03,-4.013729207719422820e-02,-2.639176854052787281e-03,1.930538415908813477e-01
1.437000994606408288e-01,1.221831926291133685e-03,2.272748068175081682e-04,-1.770455131437180789e-03,-1.045894354063717224e-02,-3.795556038931670664e-03,1.443036347627639771e-01
2.593730081707237289e-01,-1.844930574001107937e-02,-3.656996080258506643e-02,-1.839299487139300546e-04,6.865280611792625538e-04,3.638620063399002373e-04,2.873148620128631592e-01
2.766797999173487010e-01,-6.529159036012574524e-03,-2.836724245079422224e-02,5.693916487844039725e-03,3.702232812375169484e-03,-1.581812323549540607e-03,2.949827909469604492e-01
1.992336629635342860e-01,-5.546918419977482639e-02,1.527157018577583042e-02,5.256751800965656779e-02,-7.317846356889391723e-02,-1.865812408617213355e-02,2.779560983180999756e-01
1.393580193137132217e-01,-5.870096760773740874e-04,3.490261703407299132e-04,-7.433079142808446046e-03,-7.558530975297643797e-03,-2.724218473652782399e-03,1.407618671655654907e-01
2.571884811073443244e-01,-2.208303552124575575e-02,-3.102077045970277891e-02,-2.563420641273321944e-04,6.967978808476566182e-04,3.406254897734074197e-03,2.839101552963256836e-01
1.667974942878955869e-01,-2.936883547968963115e-03,4.833024450802414496e-05,-1.751433504290123868e-04,1.084439460372659848e-02,2.547972303490979220e-03,1.693645417690277100e-01
8.169349176350423902e-02,-3.685074800391999195e-04,6.676270418263845208e-03,5.083652667303606605e-03,-5.138248983878340032e-02,1.321127142057388053e-04,1.191795095801353455e-01
2.746000863049837815e-01,-1.361251784353968708e-02,-2.420431739804709825e-02,3.082243432941635369e-03,1.495688264180814169e-03,-1.320222536241637485e-03,2.937206625938415527e-01
2.690727609243614982e-01,-2.519466741533005205e-02,-2.538999225190656517e-02,7.388106786007002727e-04,-6.425001080453338065e-03,-7.980007020026570579e-04,2.945814430713653564e-01
2.202133444793256678e-01,-1.838900833903160670e-02,-2.017897085899121590e-02,1.094143288428290998e-02,-8.458050846171951895e-03,7.490587031002538150e-03,2.410466074943542480e-01
4.545402533353940511e-01,-4.978106842179144675e-02,5.900140201441361754e-03,8.154882816037288540e-03,-3.529840651476854468e-02,2.137255958392478977e-02,4.844243824481964111e-01
1.614411303572144130e-01,1.068702747949810961e-02,-1.803394486353214476e-02,5.731600015947439786e-02,-8.065649859063316832e-04,-2.248679797006204479e-03,1.943038702011108398e-01
1.650073481196561165e-01,-7.227605709788670341e-03,-1.514211575199618520e-03,-1.370858297127496538e-02,-3.246942408246326559e-03,-1.155733903119109812e-03,1.712100654840469360e-01
1.658602743536172763e-01,-4.893542940711495537e-03,-2.774885573886970436e-04,-1.622118942082208595e-02,-6.982930282950136885e-04,1.310031553799283037e-03,1.708389818668365479e-01
6.426230772831492688e-02,-2.932028796305418544e-02,-1.776252780004786841e-02,5.674145047754351051e-03,-1.114774720661821684e-03,6.737019069283489009e-03,8.970037102699279785e-02
2.689517278231707276e-01,-2.818937531906416660e-02,-2.063873449353256784e-02,-8.652891161906142367e-03,2.910390072743551312e-03,-1.915295819238409985e-04,2.938645482063293457e-01
7.688845815888620261e-02,-8.326090072842746992e-03,-2.117152915607833225e-02,-5.635731616839096889e-03,1.594789712262987408e-02,-2.549353357269452947e-02,1.064386889338493347e-01
1.423372467382860995e-01,-8.629019935115639361e-03,-2.768954921961039317e-03,1.997838004298703452e-02,1.401976246496829115e-02,3.273761917145725283e-03,1.541418284177780151e-01
2.785569235102858809e-01,6.627406157849083379e-03,-3.801627424135969879e-02,-6.450656305134061172e-03,8.213099660006694227e-04,-4.431815914426617841e-04,2.969951331615447998e-01
2.732642680093941845e-01,-1.859581739917642862e-02,-2.140207497686102966e-02,-7.679073482712864490e-05,-4.214739005193246990e-04,-1.856084858054171151e-03,2.932918369770050049e-01
2.762347105104258627e-01,3.688515921306242951e-03,-3.386741454585417976e-02,-4.253972753482507252e-03,4.526676668741250621e-04,-2.194943830752876194e-03,2.932523787021636963e-01
2.630042969916306372e-01,-1.937256689047786584e-02,-3.220519468665282437e-02,9.241883033785046591e-04,-1.812254581697929096e-03,2.290693581105637030e-04,2.890286743640899658e-01
1.102415504097483956e-01,-7.644362241245039602e-05,5.831668062496790650e-03,-1.250397132568539273e-02,1.261127165231925966e-02,3.366148908347736234e-03,1.119525283575057983e-01
1.425194730079941130e-01,1.591032219372526257e-03,-6.923791106115011196e-03,2.348350013669506589e-02,1.169623163542308358e-02,-1.740905120270887273e-03,1.523391902446746826e-01
2.705090549700204794e-01,-2.326283793176575632e-02,-2.901407011509289646e-02,-6.205221165432368456e-04,-8.182908639049103912e-05,-9.522211733945873738e-04,2.966958880424499512e-01
1.267413247695231837e-01,3.611651713176802780e-03,-6.302775949608790951e-03,1.246665596532633936e-03,-2.166691811980580792e-02,-2.273085696658574679e-04,1.337652951478958130e-01
1.217224076905874530e-01,4.752695059947402434e-03,4.567702995131248112e-03,1.990391342590944190e-02,-4.826928043913287364e-03,4.140921843998677035e-03,1.225292757153511047e-01
2.378863958925092892e-01,-3.493838670583938877e-02,-1.336874960580619609e-02,2.181577207664009074e-02,-1.141314833649913207e-02,-3.658282579553630244e-04,2.661443948745727539e-01
3.031616888451539316e-01,-2.936883011467064652e-02,5.315356442734259224e-04,-3.954218789825068858e-03,-7.912306822681491533e-03,7.149693385705589363e-03,3.192426562309265137e-01
2.709615278676289485e-01,-2.798410001276988024e-02,-2.598209507747750724e-02,-8.343412811001857388e-03,9.226246645393999975e-04,-1.337076008904160155e-03,2.983132004737854004e-01
2.727103286427505213e-01,-3.043756206304114309e-02,-1.726065145669919421e-03,4.138732056932082314e-03,1.779829984430113515e-03,3.361234333977871237e-03,2.900240421295166016e-01
2.825410589936476757e-01,-2.782435626916718308e-02,-2.537420467308634797e-03,-3.124535140335947189e-03,5.809447662631712223e-03,-7.049963990077760898e-04,2.987473011016845703e-01
2.832805945801629144e-01,-3.131947902233483960e-02,8.517716335455505217e-03,1.252946314617385971e-03,2.480598372955058854e-03,4.094503055200827621e-03,2.968179285526275635e-01
2.732251304431313477e-01,-2.739176273026844299e-02,9.605346688944138567e-03,-2.343674655244688387e-03,-7.335869529260463651e-03,1.035777794008934174e-02,2.848106622695922852e-01
2.617080643762483283e-01,-3.488877960433331427e-02,-1.741448707317216904e-02,-4.165667458803723813e-03,1.139958719291802713e-03,-1.838610359373361218e-04,2.883544266223907471e-01
2.677607986765211945e-01,-2.828411635941864566e-02,-2.316385275434823532e-02,-5.263957234164508628e-03,5.269098717649120522e-03,1.482879795736352776e-03,2.938128709793090820e-01
2.573202208488492571e-01,-2.719600408824207616e-02,-2.174463104310497830e-02,2.365996613645869346e-03,-1.588445448712393158e-03,5.671702094473078486e-03,2.820444405078887939e-01
2.462966783949506744e-01,-2.519568380775173699e-02,-2.274707004314105441e-02,1.188003296355385346e-02,-3.630707376623679671e-03,4.888634594114803569e-03,2.712636590003967285e-01
2.695594239205544307e-01,-2.541060701235507702e-02,-2.341964902936964632e-02,-1.509360407752581492e-04,1.082086287011551577e-03,7.914619258931792419e-05,2.939857244491577148e-01
2.504865109514085586e-01,-2.335165903422739553e-02,-2.598754490792895555e-02,6.800308359982929233e-04,7.607611344262660063e-04,-6.057782522196263932e-03,2.753712236881256104e-01
2.659463771793698639e-01,-2.422302657718067298e-02,-2.238091545016460127e-02,4.840275805921139966e-05,1.752572265418955461e-03,1.505380514445899681e-03,2.892804443836212158e-01
2.700453425063852331e-01,-3.245635925333001381e-02,-2.260747091455252156e-02,3.488741185732319346e-03,7.442276981022899257e-04,1.417414967003914096e-03,2.977736890316009521e-01
2.743911179756737262e-01,-1.707155642566278442e-02,-2.568471403363917216e-02,2.740056262207752301e-03,3.878832173156687366e-03,9.823938915820983227e-04,2.959825098514556885e-01
3.162973356926143120e-01,1.438242840637982134e-02,-3.878244242879622106e-02,-7.032787542558478766e-02,-1.184071787655241112e-02,2.433804952847767530e-02,3.564632534980773926e-01
3.038689797871331200e-01,1.016038632705036637e-02,-3.473054302585257269e-02,2.734503411173746200e-03,7.249910654304251439e-03,1.184013409960955540e-02,3.194768726825714111e-01
2.650583474944799289e-01,-2.900931862039742015e-02,-2.591505797743966222e-02,1.020219882296432949e-02,-6.880454750279363417e-04,2.415249413071722182e-03,2.930983006954193115e-01
2.788911849105497609e-01,-6.422898537738211400e-03,-3.224751611638698723e-02,5.276423834952693494e-03,2.727141845692988061e-03,-7.471136499742964858e-04,2.992435097694396973e-01
3.287563572392118716e-01,1.361203550624712211e-02,-4.354931388694632810e-02,-4.198595720269916037e-03,3.648849177652476079e-03,8.599949191349050281e-03,3.477242290973663330e-01
2.908756426813735585e-01,1.813995763133387229e-02,-4.215910593418320529e-02,-1.051740234985366201e-02,-1.538786634489632162e-03,9.835384081698607048e-03,3.083757460117340088e-01
3.094361781416214985e-01,2.880705934389807266e-02,-5.749018868341856936e-02,-4.094409074890657113e-02,-5.860518745506729590e-04,4.779946110359599258e-03,3.398768305778503418e-01
2.746004091261690094e-01,-2.364011456913113485e-02,-2.363736370263248843e-02,3.447976167307448443e-03,2.213536752266683730e-03,2.867579092652548919e-04,2.983239889144897461e-01
2.865026308426703028e-01,1.535087195909978774e-02,-4.080733313983661570e-02,2.857215875059425283e-03,1.193184899132476934e-03,2.151045017689963076e-03,3.032277226448059082e-01
2.483271063336923157e-01,-1.753512240218321749e-02,-3.192153595540778155e-02,4.044349439778436575e-04,-9.314052115995945940e-05,1.595360839657284768e-03,2.733544409275054932e-01
2.819966905607955709e-01,8.090550385092792895e-03,-3.434290721771532384e-02,-4.702237295096476505e-04,2.595115658385689552e-03,-1.808913099631176673e-03,2.974535822868347168e-01
3.021241676008145083e-01,1.802949652780304335e-02,-4.282544412277966561e-02,-6.684135711052974216e-03,-1.208852745216978421e-02,9.130929908807620607e-03,3.201940357685089111e-01
2.666752447367921608e-01,-3.303144623499762456e-02,-2.195508014988770129e-02,1.469240112727516036e-03,-8.263627890096575770e-05,3.025927888388565707e-03,2.943825721740722656e-01
1.820429739155452475e-01,-1.102362233386658397e-02,-1.022174499455406893e-02,1.852333593872885348e-02,-2.277263680411740349e-02,5.916611012789657793e-03,1.995261311531066895e-01
2.864203075503490847e-01,1.629112737857457693e-04,-3.340982848072407418e-02,-2.340702142646620704e-04,5.033814493297717949e-03,6.780784488647283864e-03,3.047868013381958008e-01
2.814560263158388809e-01,1.834012169399081016e-02,-4.062473264067989476e-02,-2.462942274937829096e-03,-1.610084835742812102e-03,2.961245294576456046e-03,2.971089184284210205e-01
2.709793020455747437e-01,-2.650478313058227120e-02,-2.472158513054169282e-02,1.322326151993423460e-03,-5.994772716478194256e-04,1.034549614713289661e-03,2.966125905513763428e-01
2.858227898702542236e-01,1.513538251588472661e-02,-3.772694533110845794e-02,2.598030639589708323e-03,8.004558867673918767e-04,1.724887143471256178e-03,3.006764948368072510e-01
2.718314517468628511e-01,-1.531842772056735136e-02,-1.780836763368016940e-02,1.317610251542587632e-03,-5.260978086345412729e-04,-5.917121423046785549e-04,2.884151935577392578e-01
2.781938728977139674e-01,3.468754631663156784e-03,-3.199283782537759580e-02,-4.489930925796249174e-03,2.708097516406422420e-03,-2.392412251458414432e-03,2.942333221435546875e-01
2.861696665889634783e-01,-2.533712489556425029e-02,-4.204294513012296619e-03,7.248861741659083646e-02,-5.687738624754000438e-02,-2.011951644084133614e-02,3.429042994976043701e-01
2.846803229029901683e-01,1.187128958172951887e-02,-3.332807582404564983e-02,5.168463025879733996e-03,-4.283534794636626440e-04,3.298996863856027296e-03,2.981809675693511963e-01
2.865285873333598965e-01,1.199402894860565616e-02,-3.724940131870599358e-02,1.807496023335595191e-03,3.079622834069485745e-04,3.557544667146391674e-03,3.022601902484893799e-01
2.808716192374752785e-01,-2.146209703688327364e-02,-1.260522961688463617e-02,-6.236792126999703785e-05,2.645700176936896953e-03,-8.985532157193439756e-03,2.984453439712524414e-01
2.227595552552280034e-01,-2.183612147023955563e-02,-1.451988668777483282e-02,1.455143312423873986e-02,-1.558854910934850480e-03,5.135631891027048895e-03,2.425132989883422852e-01
2.688958298818480142e-01,-2.304486403363435743e-02,-2.708903379227471653e-02,2.024300904907592579e-03,-7.640104449368089606e-03,-1.138179005495746070e-04,2.943022847175598145e-01
2.839657991673089077e-01,-3.559308767736316104e-02,2.773083674814422195e-03,2.317781022211914694e-03,-8.547717572426725844e-05,-5.837535142211666521e-03,3.024036288261413574e-01
2.843410924291711606e-01,-3.011344407388436006e-02,4.705732327206113563e-03,7.155872381766470837e-04,1.470926102531214643e-03,-1.024828832248889619e-02,2.991121709346771240e-01
2.916729624519486253e-01,-2.911293942503159760e-02,-2.506070316078107263e-03,-6.607544309611680829e-03,-4.298972236122058400e-03,-1.305010972261741974e-02,3.094733357429504395e-01
2.780145707358023799e-01,8.225391670723974924e-03,-3.292898839360894336e-02,5.332804286208986649e-04,1.086187980615269935e-03,-2.113277654565055581e-03,2.925759553909301758e-01
2.567031976092349344e-01,-1.580797317058130202e-02,-3.686452428565614725e-02,-9.402451625234892760e-05,-8.843943002903077461e-04,-6.298633685842515634e-05,2.836304903030395508e-01
2.567704213479592434e-01,-1.926969351051414925e-02,-3.114844014651317605e-02,-1.061577459797566087e-03,5.086180991264777768e-03,5.753562959341329726e-03,2.824863791465759277e-01
2.445508433523323755e-01,-1.271439207636963775e-02,-3.299224304327284807e-02,4.207814806768986294e-04,-7.976594322956411659e-03,-3.204259923702401126e-03,2.683944702148437500e-01
2.513912835072637519e-01,-1.445282122541081959e-02,-3.534054591258657674e-02,-6.152045049727660224e-04,-5.786877524585367499e-03,-9.546586221309690760e-04,2.770678699016571045e-01
2.707111902281991722e-01,-9.596919914239401828e-03,-1.956335388100426120e-02,5.130719160476119320e-04,3.970567596322593180e-05,-2.119037763029166157e-03,2.854468524456024170e-01
2.907922823469447637e-01,-3.058705012923090827e-02,-9.062123862154408682e-03,1.360402373358885614e-02,-4.534139930793125266e-03,-1.158820811122117204e-02,3.128099739551544189e-01
2.457530613053339474e-01,-3.139524794379355832e-02,-1.557045744842289192e-02,-9.205860513591877098e-03,2.458168477279532027e-03,2.521503905723752968e-03,2.701244950294494629e-01
2.321084742709803306e-01,-1.214253891813796282e-02,-3.118162337480223645e-02,-3.442198936495986491e-04,-8.928225153137313297e-03,-3.048710378342057818e-03,2.548308074474334717e-01
2.592557875459688410e-01,-3.280101833307250137e-02,-1.934373706279556016e-02,5.848606728924116930e-04,5.258645759783839302e-04,-2.190048148859942163e-03,2.855945229530334473e-01
2.347213697685612832e-01,-1.652881078602730369e-02,-3.113227365243136091e-02,-2.086639567715444475e-03,-8.619330517076931319e-03,-4.141369097200246763e-03,2.594155669212341309e-01
2.729063489164710310e-01,-1.773113764614821231e-02,-2.727101858979137650e-02,3.059443701370471048e-03,-3.839708283639478928e-03,-3.947245657915201319e-04,2.956460416316986084e-01
1.846917316275265841e-01,-1.167732784009380131e-02,-2.075210089717037520e-02,3.658796403726576746e-02,-3.319821542294539712e-02,-1.835838841058406654e-02,2.208136320114135742e-01
2.578947456780322223e-01,-3.635728765450341182e-02,-1.738463525421396483e-02,-1.562846479968348979e-04,-1.177315436503025524e-04,1.733301989418325291e-03,2.852553427219390869e-01
3.490353584858456593e-01,1.311623451629909121e-02,-5.270014396672068058e-02,5.587545125719725614e-02,-1.756579823753291140e-03,-3.415871469165232717e-03,3.856071829795837402e-01
2.722427429397098475e-01,-2.616985927209092289e-02,-2.584420763232901652e-02,-6.103255449595962161e-03,1.210855056723266106e-03,-3.768090968066879678e-05,2.984445691108703613e-01
2.614221159134080263e-01,-1.363612165531440101e-02,-3.247096907613326866e-02,1.287427435839703233e-02,-1.283844716911327309e-03,-1.562246721178588626e-03,2.858355641365051270e-01
2.886062850756936360e-01,-6.629441112606701547e-03,-3.363661295057659983e-02,-1.883516362943518565e-03,5.102424716293654100e-03,2.839426711123921396e-03,3.098062872886657715e-01
2.635576167675949821e-01,-2.998558003961061813e-02,-2.034915569664852431e-02,7.974506946099291921e-03,-2.239766430042825374e-03,1.131797863812306982e-03,2.892082929611206055e-01
2.527251792588749435e-01,3.176697648267154395e-03,-3.147603551809863287e-02,6.208675750778015756e-02,3.835737378716990581e-02,6.996569169078153613e-03,2.970653176307678223e-01
1.518260272300681613e-01,-8.577301350084054476e-03,-6.840047667177058532e-03,1.164512974720970442e-02,-4.126654055072014743e-02,-2.071041499007363019e-04,1.759810298681259155e-01
2.173456444203027693e-01,-1.920539101188689646e-02,-1.389831979003983142e-02,8.622636209260823442e-03,-5.624881607270742351e-03,6.305131821786192324e-03,2.348752766847610474e-01
1.476974591295535377e-01,-1.181330940412103625e-02,-3.266267715223712675e-02,-3.310904313804271387e-02,4.611631214502013437e-02,-3.469328233293088315e-02,2.061157971620559692e-01
1.459476876955073110e-01,-2.487637107189138996e-02,1.456282709614863113e-03,5.518226262577212438e-02,-3.375339168486582442e-02,1.246852248078209220e-02,1.959477663040161133e-01
1.493013725541554038e-01,-7.295110748938460343e-03,-6.958810098120632448e-03,-1.136401307092966282e-03,-4.207051813190296891e-02,-2.039911295690224197e-03,1.726153343915939331e-01
2.573303686316721905e-01,-2.363842800191665039e-02,-2.814055785472499571e-02,5.578728631525138202e-04,7.549595050724815931e-04,-4.360377229028371271e-03,2.833520174026489258e-01
1.810513651445269656e-01,-1.729471595898865455e-02,-8.602072833437307553e-03,4.390513638932704021e-02,6.629531877321964348e-03,-2.805857652760455640e-03,2.088804244995117188e-01
1.638963007058551469e-01,-2.141768079623108945e-03,-8.621880623886579720e-03,8.743168002986956983e-03,1.152841148114003983e-02,-3.209999970592429183e-03,1.713053733110427856e-01
2.708969383162602718e-01,-1.446661827829112679e-02,-1.519201780028972548e-02,5.139333437269811775e-04,8.062224607442519892e-04,-9.443911715482748714e-04,2.857364416122436523e-01
2.629901164540562331e-01,-3.293211183287460264e-02,-2.077430138846107777e-02,4.071082195227772425e-07,-1.197274963996413852e-03,-1.524850074922070404e-03,2.900539338588714600e-01
2.614133097431604047e-01,-3.317369878083892276e-02,-2.163446319932764428e-02,-5.300792850962585470e-03,-3.755914095068598781e-03,-3.450955623557307693e-03,2.892709672451019287e-01
2.663272907863670769e-01,-3.274557016735696324e-02,-2.270098743098238059e-02,1.307175582012964129e-03,-8.145328614167963738e-04,1.049320030195310515e-03,2.941969335079193115e-01
3.352511705961551125e-01,-3.301019426366560983e-02,-1.104240154994498568e-02,5.081708403059698349e-03,-1.526860309514192771e-02,-2.615972404727156739e-02,3.617167174816131592e-01
8.939992298457945241e-02,5.821385597812811508e-03,4.223165710457027489e-03,-3.531140631619316197e-03,-1.847043641298114561e-02,-6.028052402223031897e-04,9.046254307031631470e-02
1.880699346459490107e-01,-1.859335576164100612e-02,-8.644496817093033636e-03,2.238751385309088737e-02,2.380891417566534732e-03,2.001061087832370876e-03,2.056337893009185791e-01
2.853724108704558393e-01,-2.781744471120675688e-02,-1.621552240705176340e-02,4.809045979988936514e-02,-5.188892870634336657e-02,-9.642723759470877426e-03,3.314864933490753174e-01
2.697388848388831972e-01,-2.707240788148564115e-02,-2.579245187515834259e-02,1.404484259301882814e-03,-2.211757589046080968e-03,2.953382900116225101e-03,2.962523102760314941e-01
2.763850080738401438e-01,-1.513719311672821755e-02,-3.193931922548551294e-02,3.996859460035122151e-03,-1.902132308029259606e-03,2.172984478564177636e-03,3.003974854946136475e-01
2.702460999197051073e-01,-2.958466740339775469e-02,-2.407708323328407174e-02,1.888945978503679072e-03,-1.583966720310160062e-03,2.053300949118609751e-03,2.971672117710113525e-01
2.698401837753138244e-01,-3.120177366410607778e-02,-2.182695655559226122e-02,2.922795945642636412e-03,7.586039676403398720e-04,2.031831912819017424e-03,2.965327501296997070e-01
1.871716600880170833e-01,-1.735930109412189837e-02,-4.577923238574185816e-03,2.525436226361942385e-02,-1.318942734309266852e-03,-7.705194048670016864e-04,2.032300084829330444e-01
2.941981392827599517e-01,-4.747573089311288297e-02,7.308902775013587094e-03,9.916891457871260598e-03,3.173310181979516198e-02,-1.724337138117328777e-02,3.243947029113769531e-01
2.349627651781660553e-01,-2.855208768431047317e-02,-1.225388232580250369e-02,1.082823658797714070e-02,8.982666364597403745e-04,1.190218561198807742e-03,2.564552724361419678e-01
3.323978452842175080e-01,1.188270037687080838e-02,-5.141102602442404468e-02,-1.257177694718699399e-03,4.534624544752467214e-03,-5.819911761667567220e-03,3.566380441188812256e-01
2.593091157915461409e-01,-3.405791006116688779e-02,-2.005797463145216064e-02,-1.290227694401613161e-03,-1.283832447586584925e-03,-1.047755117468424351e-03,2.866466939449310303e-01
2.787868211800189622e-01,5.488825632514890418e-03,-2.780495003534166898e-02,-3.094403004165051461e-03,1.939596957830006310e-03,-1.494468811277209486e-02,2.925908863544464111e-01
2.728464609771895644e-01,-1.839366840940165337e-02,-2.115756838354170000e-02,1.279256898578278508e-03,4.859765335233436111e-04,-9.537923134923035869e-04,2.926461398601531982e-01
2.728213961083653105e-01,-2.644576645064677933e-02,-1.143602197386674180e-02,6.700088533943902424e-04,-6.462387324889791278e-03,4.818408517366308584e-04,2.922696173191070557e-01
2.841994385532730094e-01,1.433723250667898186e-02,-3.639615678224955575e-02,-2.016560218932378010e-03,2.837902101737940774e-03,-9.078789502270220510e-03,2.989550828933715820e-01
2.847242120297240886e-01,1.089362320652129124e-02,-3.490006081827790041e-02,-3.226042161335818548e-03,2.121272546130883140e-03,-5.324371772290667666e-03,2.995826005935668945e-01
1.758741634936653031e-01,-2.831251994693741170e-02,-9.296940712142043317e-03,4.199962354306414208e-02,6.117033632273782828e-02,1.969086621299265608e-02,2.363294064998626709e-01
2.685765976575544833e-01,-2.706676282606640394e-02,-2.809871271696672002e-02,-2.301620931534657452e-04,6.302976309363395643e-04,1.603059167875657814e-03,2.961759865283966064e-01
3.221629658777416250e-01,-1.414566736032768501e-03,-3.857842913963741016e-02,-1.703227925799904660e-02,9.287591126788341533e-03,-2.261224898725905721e-02,3.475226163864135742e-01
2.727676951222292034e-01,-2.458523604986868893e-02,-2.364537835286473211e-02,1.674056294908124552e-03,3.466935706063483812e-04,1.889998038503762346e-04,2.968990504741668701e-01
3.160625231722489770e-01,-2.334832709167741771e-02,-1.403855339629818400e-02,-1.158733030660291131e-02,1.417277229800566890e-02,-2.733352183162391508e-02,3.396664857864379883e-01
2.837030929450077843e-01,5.348676606980476422e-03,-4.084842078465392157e-02,3.265407974986684822e-03,1.143216787303372520e-02,-2.152561062590826330e-02,3.070645630359649658e-01
2.798859053281753106e-01,3.695081485930701293e-03,-3.037162857221042955e-02,2.629414357553975539e-05,2.079758813177824250e-03,-7.362442378716126459e-03,2.950024008750915527e-01
2.781524928391475582e-01,-3.051416384189600817e-02,5.679476508157310644e-03,-2.023725771536028298e-03,-1.991681778295199129e-02,1.000156148427328376e-02,2.948147356510162354e-01
2.445959922738310810e-01,-2.683898484820809727e-02,-2.071282360923881738e-02,8.365181301378704290e-03,-5.453184842069762686e-03,5.657532299513010586e-03,2.691594064235687256e-01
2.736588793363128325e-01,-1.215947112015523801e-02,-2.647703731555643702e-02,-2.553932862688086843e-03,2.712379262805717948e-04,-1.621068940699053841e-03,2.932865917682647705e-01
3.289035866423349885e-01,-5.321132819041118900e-02,2.054001455670666221e-02,6.725989909333839924e-03,-1.776968425666725776e-02,1.096082763290111631e-03,3.526417315006256104e-01
2.818083368790807453e-01,-3.304813389292907133e-02,1.402189139931467321e-02,-1.505042807717195917e-03,-8.407634232426811072e-03,1.333865872992070524e-02,2.954361140727996826e-01
2.739638706710629812e-01,-4.569789792672321327e-03,-2.436565097931168988e-02,2.209012472484091563e-03,-2.851483818617582392e-04,-3.500192031220370967e-03,2.890299856662750244e-01
2.823924759309713872e-01,-3.227203485114182868e-02,1.066733321366772347e-02,5.759762005318643234e-05,2.726140526533335755e-03,4.635588046656263436e-03,2.956904172897338867e-01
2.770969297881992199e-01,-5.416469597878276199e-02,1.671012329015916786e-02,3.514238631263101598e-02,-3.796552717049351405e-02,1.270687495987800342e-02,3.159001469612121582e-01
1.555989200709138043e-01,-2.075059348551552829e-03,-9.956141367279985888e-03,-5.669991833799876459e-03,-2.376457183179928045e-02,-1.141712039689455086e-03,1.672138124704360962e-01
4.345496385111533022e-01,-7.490751287974239947e-02,6.857825964940611474e-03,2.837171549603040299e-02,-9.390645525674517352e-03,9.304752268547468452e-03,4.769857227802276611e-01
2.690374884072126438e-01,-1.244927905785710165e-02,-1.126311962316996207e-02,-1.534277723877262726e-03,-9.366667409257132051e-04,4.459882819165420474e-03,2.810190021991729736e-01
2.983875141873521541e-01,-4.202133916292691285e-02,6.280799953787580270e-03,9.964469825252559101e-03,-1.081459516646216803e-03,3.406363218924921953e-03,3.195387423038482666e-01
2.836625070283242955e-01,-3.142656971091539742e-02,-4.739628106567625454e-03,2.753148108082489648e-04,3.968619343581144925e-03,-2.561211339490455149e-03,3.027403354644775391e-01
2.830535289591079584e-01,-3.265320041774258386e-02,6.431332242468223992e-03,2.025072538488240700e-03,-4.006382616204636968e-03,-5.483286899610313736e-03,2.983449995517730713e-01
2.753690980583367032e-01,-2.958288775078962707e-02,2.138033630353225467e-03,-1.254128166313493763e-03,-1.043310457249177091e-03,-8.166315464089940468e-03,2.907518148422241211e-01
2.689549944981241558e-01,-3.058382370719209264e-02,-2.491334645447351726e-02,-1.232818970380033380e-03,5.302757347614764621e-04,2.618548151050532815e-03,2.967879772186279297e-01
2.828666876654507556e-01,-4.185795819733448275e-02,1.609716427888108203e-02,2.733546964984331484e-03,-2.056708095323928846e-03,-1.607889894703626874e-03,3.000471591949462891e-01
2.562757194192907262e-01,-2.221254548396495165e-02,-2.780752493269166015e-02,1.037196048603080954e-06,2.714244561670736602e-04,3.832118249831823441e-03,2.814061641693115234e-01
1.695885352008695557e-01,-1.445609940617050004e-03,-9.527751289312907934e-03,4.141449712321645959e-04,-1.394071079083398709e-02,1.250619605192226534e-03,1.768857240676879883e-01
2.247843813285624603e-01,8.447919385520849533e-03,-3.524055984996160573e-02,6.423097826726971438e-02,2.038122188944297211e-02,2.287057680176896469e-03,2.679557502269744873e-01
2.132052406809672729e-01,-1.685713999711699329e-02,-1.204214741883599671e-02,3.167918245459425824e-02,3.101476149097015522e-02,-3.045226747427462639e-03,2.403506040573120117e-01
2.624309199765565426e-01,-2.448177677918284001e-02,-2.409448079736699333e-02,-1.084776035885543638e-03,5.531759455317863949e-03,-2.142178553038880540e-03,2.869094312191009521e-01
2.466113392569403706e-01,-3.425614138906839246e-02,-1.393916081585741540e-02,7.534850536025835806e-05,-9.414492698803845518e-04,-9.244878135984330777e-04,2.712898552417755127e-01
1.520297859892226766e-01,-1.613787794519545848e-03,-1.544637508459598130e-02,2.445369412494992345e-02,5.303548515859300531e-03,3.803751723415638337e-03,1.668673604726791382e-01
2.726598307568116608e-01,-2.510004120995688870e-02,-2.936577207769737463e-02,3.311252073840746332e-04,6.382885081231271093e-04,7.369924402104650928e-04,2.999207973480224609e-01
2.717628882257333567e-01,-2.422742612290601505e-02,-2.417697944823381240e-02,-2.753951681123761701e-03,1.861103916503623230e-03,4.093067808588341503e-04,2.960219383239746094e-01
1.877907541449171380e-01,-1.838684487759034702e-03,-2.260279153924303619e-02,3.371910403241305115e-02,-1.023392063622201135e-02,-3.965914503704408116e-03,2.100006639957427979e-01
2.550572238001586056e-01,-2.385359265429110032e-02,-2.095308745021803865e-02,1.313133939941511091e-02,-1.524788826886129892e-02,-3.883667956554800148e-03,2.797333002090454102e-01
2.653068355149498236e-01,-1.855725183258107036e-02,-3.459890024645732864e-02,-2.312720151365257881e-03,-7.507810357486439934e-03,-1.453324017703104369e-03,2.925427854061126709e-01
2.673996348903426856e-01,-3.159868935666478029e-02,-2.278521163599168953e-02,-3.778804079998795214e-04,2.089426415069220444e-03,1.013637305742026923e-03,2.947186231613159180e-01
1.550520641563999935e-01,-1.016485447569674683e-02,-4.413557319416096247e-03,4.354836729919187022e-02,-1.845751028778534406e-02,2.437212503273921034e-03,1.819580644369125366e-01
2.464958955373683647e-01,-2.151424880054443600e-02,-2.640517243373033396e-02,5.797946570553547119e-03,3.649530141608415407e-02,1.330988353273822051e-03,2.779677212238311768e-01
2.324574156462359820e-01,-1.105811253980706899e-02,-3.028291220036997966e-02,2.099056333040900599e-03,1.078559197541014217e-02,-1.675375970073814637e-05,2.543877959251403809e-01
1.971783338839103172e-01,-1.034471953003758549e-02,-1.524906714497502314e-02,-2.914299127819618574e-03,2.021317798640128241e-02,3.019483320255793562e-03,2.130403369665145874e-01
2.741912608543091157e-01,-1.110137379531044022e-02,-1.966205976714276160e-02,-8.177758183018099623e-04,1.469324841678427626e-03,-1.809724656181121560e-03,2.896994650363922119e-01
2.514789830217624145e-01,-1.808109628920985534e-02,-3.097481828405851401e-02,-4.879158441177369569e-03,1.809319000685380777e-02,4.463278935283434244e-03,2.782405316829681396e-01
1.905064716885476461e-01,-8.711420841153311168e-03,-1.546977372611370305e-02,1.371167639247300625e-02,3.019888842260461809e-02,1.160076382122875128e-03,2.106746733188629150e-01
2.783502916990217013e-01,-3.842557385300784945e-02,1.314247935442640347e-02,8.596611160622129625e-04,-4.582389726408068326e-03,-3.943181207267501721e-05,2.945096194744110107e-01
2.721902136007048889e-01,-2.203775815297995266e-02,-2.110699721713985011e-02,1.363105076478982741e-03,-3.369882755824854135e-04,6.573885030888606791e-04,2.937759757041931152e-01
2.515288928220896780e-01,-1.212373493270424429e-02,-3.129136967323450924e-02,-2.227509470425900404e-03,7.892890387521013171e-03,9.935647347662198217e-04,2.741139233112335205e-01
2.035920003680001256e-01,-1.379699840270925959e-02,-1.737228442039311094e-02,-4.115488174120361838e-03,1.421879524767361708e-02,8.048650590179342104e-03,2.211326807737350464e-01
1.897497957467419449e-01,-6.720823765765368552e-03,-1.473676987844503572e-02,-9.018284721984824899e-04,1.968713010980088080e-02,2.099537652577578625e-03,2.035147994756698608e-01
2.042269162728381493e-01,-9.181110775928008616e-03,-2.246101177543302629e-02,-2.669677119819493702e-04,-1.336638873935577787e-02,-3.303246115228172623e-03,2.216355353593826294e-01
2.727579182757134402e-01,-2.011712153230149625e-03,-2.494578757903836985e-02,-1.843251740518423668e-03,3.274897122828778970e-04,-3.628545045998431140e-03,2.870120704174041748e-01
1.084770863371178201e-01,2.088365548082865564e-03,4.796307403531235858e-03,6.719518517153771908e-03,-1.457619552049338116e-02,1.989154064552340392e-03,1.087314188480377197e-01
1.514218404895825709e-01,-2.372798781592889983e-03,2.374279349426938746e-03,9.167267627049809423e-03,-6.651729683118594132e-03,2.170502941391877581e-03,1.527882069349288940e-01
2.736789167413108403e-01,-1.565301389912696073e-02,-2.316784223480848615e-02,-9.554066344041511807e-04,-2.103762309906499674e-04,-1.975425692388077157e-04,2.931666970252990723e-01
1.641665284020398241e-01,4.359629537465659066e-04,-3.522178435967221466e-03,1.141675116433871900e-02,-1.115565697275656054e-03,3.192766112028338522e-03,1.670232713222503662e-01
2.886210335138089667e-01,-4.367716848001076957e-02,1.803243034563500879e-02,3.320080401502282369e-03,6.689049403215066233e-03,-8.284099183135589873e-04,3.064205348491668701e-01
2.723046495706081815e-01,-2.594160922570037942e-02,-7.883299853347389141e-03,2.122233885819983616e-03,-7.726554823391042909e-03,-4.534033911789693393e-05,2.899719476699829102e-01
1.505449486343054533e-01,-5.831528115360661013e-03,-7.367264609500968897e-03,2.112382502022042488e-02,-2.192768329330837054e-02,1.774676825527866323e-03,1.657910794019699097e-01
1.740561122258925952e-01,-1.080199298668411967e-02,-1.205686392238004834e-02,1.802901438164279668e-02,-3.021337157628599390e-02,4.137532902442108210e-03,1.953742653131484985e-01
2.285214126640855437e-01,-1.946163680005441599e-02,-1.476639014810782191e-02,2.784757878329474634e-02,-5.191122423998117269e-03,5.906141317351081346e-03,2.507294416427612305e-01
1.670083696529583994e-01,-5.909777793907222687e-03,-3.212591650018123413e-03,-7.525642879753125956e-04,1.096031697007571150e-03,6.042967531588605383e-03,1.719198226928710938e-01
1.884424389897632890e-01,-9.675595846520113064e-03,-1.101930438388667999e-02,7.718359479623498193e-03,-1.232327272325113229e-02,4.281419702089343977e-03,2.005195170640945435e-01
2.728348531285250678e-01,-1.743599637373519085e-02,-1.375298185420266439e-02,7.001161926419658321e-04,2.247754397407000998e-04,3.656207513373550561e-03,2.885192930698394775e-01
2.698729960420743756e-01,-1.366741208487348702e-02,-1.518263860481465499e-02,9.350985951525634732e-05,5.558927597492671841e-04,-2.722072881220583885e-04,2.843031287193298340e-01
2.702550975535845668e-01,-1.620907539175155121e-02,-9.744885459159649543e-03,-9.250113484829750043e-04,-8.688348671358112583e-04,1.043336538828975972e-03,2.833016812801361084e-01
2.730906491270726488e-01,-1.931997934430307318e-02,-2.375134551075823441e-02,7.955137856747046283e-04,6.695952515334889586e-04,4.712262929653166020e-04,2.946579456329345703e-01
2.713416375981425044e-01,-2.073636831680344961e-02,-1.159657438016015174e-02,1.141473910654878165e-03,1.910041827683041805e-03,1.067392432683899467e-03,2.876487970352172852e-01
2.675135638029120244e-01,-2.880585567262483604e-02,-2.645380853369130869e-02,3.661959947118612058e-04,-6.712873515459402652e-04,7.674545935008663874e-04,2.951563894748687744e-01
2.692870110650641413e-01,-1.393956089253899078e-02,-4.178738075424001663e-03,-2.004575998218763918e-03,-1.947791055757147095e-03,5.356386560992746487e-03,2.786710560321807861e-01
2.754032802760540410e-01,-2.315189228336157756e-02,-2.630503072815569554e-02,2.332056340593834272e-03,1.421027670445337105e-03,9.798178805950916517e-04,3.001862168312072754e-01
2.699947124351218530e-01,-1.192439681908859239e-02,-1.253403994161009227e-02,-1.956996553890993310e-03,-1.553580414996851705e-03,4.085237877263464372e-03,2.823462784290313721e-01
2.723889560601262527e-01,-2.127273092105848307e-02,-2.552317980738894043e-02,-8.327770938107739674e-04,3.987067272863721048e-05,7.626207686164917284e-04,2.958163022994995117e-01
2.701316883389051626e-01,-1.394460581639342389e-02,-1.101978948498499866e-02,-1.164066217284511189e-03,-7.489035806008390896e-04,1.687256803815854198e-03,2.826505005359649658e-01
2.702245531670829370e-01,-1.381928062244607014e-02,-1.189119332955151931e-02,-1.174308001469431990e-03,-1.140736981844057280e-03,3.297440368718366609e-03,2.831565141677856445e-01
2.503964008247400730e-01,-2.539070510207835918e-02,-2.317364454125911410e-02,-9.214521813177285043e-05,6.399502173216381398e-04,6.300511610976273873e-03,2.749042510986328125e-01
2.683761792917196409e-01,-1.215259034269347560e-02,-1.200528235263785548e-02,2.256345913540848898e-05,6.271880932335715652e-04,4.099992986853615538e-03,2.805471420288085938e-01
4.358469947012006962e-01,1.255655198234420511e-02,-5.197514578915521377e-02,1.727792839193900264e-03,-2.711911224948591013e-03,1.571153715530365647e-02,4.598112404346466064e-01
3.129163160792319265e-01,1.876345737109302858e-02,-6.949724804515555743e-02,-9.548944797617589346e-04,-3.483476471344444658e-02,1.702796279167565277e-02,3.532576560974121094e-01
3.049234673435260445e-01,9.474038432444487068e-03,-4.552352370492113165e-02,8.199428364382796430e-03,7.658605485611225464e-03,-1.228565927094424880e-02,3.277111053466796875e-01
2.884654975226125240e-01,2.135065232083878384e-02,-4.256347786637570962e-02,-3.633807459563410079e-03,1.551137914562089430e-03,-3.614472029158922323e-03,3.042922914028167725e-01
3.184774883042721383e-01,2.071268063816872340e-02,-5.138911698066922495e-02,-1.107574930282743475e-03,5.809841554560337372e-03,-3.911276630811887089e-03,3.398275375366210938e-01
2.910382172350878260e-01,1.243257887043815180e-02,-3.698427898808240299e-02,-2.101511151384659673e-02,-5.534275060985164468e-05,5.540360276506954736e-03,3.086226582527160645e-01
2.898062031212793044e-01,1.240206880200411810e-02,-4.160099893723642750e-02,-2.193257879949769146e-02,3.120318271653130943e-03,6.912767099590791560e-03,3.105893433094024658e-01
3.159211227767729779e-01,3.881076639018932184e-03,-5.141530440523886525e-02,1.683436038238065799e-02,4.831446056673058265e-03,-5.638245717322369968e-03,3.445242345333099365e-01
2.816394710924180478e-01,1.869904877597546033e-02,-4.241322598753108353e-02,-2.781071030298586100e-03,3.749840662412962967e-03,6.484785521001467084e-04,2.983419299125671387e-01
2.724240423551275159e-01,-2.846537041891991637e-02,-2.339018375928135496e-02,4.644707863291310706e-04,9.446457872659323827e-04,-4.949886238127107138e-04,2.983909845352172852e-01
2.891507440958341890e-01,6.915780855072342637e-03,-3.830688569366119678e-02,-3.436940284416925215e-03,7.934633300378894898e-04,-1.400992416024027503e-03,3.074220120906829834e-01
2.862803647016233244e-01,1.671141970134001897e-02,-3.696285805491253407e-02,-1.495594605988782855e-02,1.640586864642657903e-03,-3.116841855052451555e-03,3.012067675590515137e-01
2.687616286313267988e-01,-2.239187185907194622e-02,-2.355214964428871405e-02,-7.000170970350282768e-03,6.617117718840189085e-05,-1.292076879319088321e-03,2.919958233833312988e-01
2.871633770948173181e-01,6.378796471981654226e-03,-3.390018145000375793e-02,2.606117317933038212e-03,8.769572702308208335e-04,-2.158107790430224132e-03,3.029995858669281006e-01
2.751693163791121277e-01,-2.464115590555483737e-02,-2.913448643341552680e-02,-3.812885560565935916e-05,-3.578643846034595954e-04,-1.218650149855971974e-03,3.020902276039123535e-01
2.739132876542462736e-01,-2.374372825442080948e-02,-2.751169459191035727e-02,-8.425509590643166400e-04,-1.240972979970052931e-03,-4.736443752980024129e-05,2.995700538158416748e-01
2.727550370083058340e-01,-2.273084320588217300e-02,-3.077810768146133080e-02,2.182038410877860457e-04,7.018659166684112919e-04,-1.264288520700507365e-03,2.996012866497039795e-01
3.083101991449712087e-01,-9.335530634600075484e-03,-5.542722389727700039e-02,3.517859444383549666e-02,4.500074110697470375e-02,-4.065225253215413309e-02,3.638814389705657959e-01
2.744520006821634661e-01,-2.346880375221496728e-02,-3.171458851738519213e-02,1.832144841039451747e-04,9.602290242831774091e-04,-2.085234602483216574e-03,3.021544218063354492e-01
2.761617772420588146e-01,-3.314015194899638805e-02,-7.133322101734423937e-03,-2.451133633324391499e-04,-8.021321929200783685e-03,1.901157444385033327e-04,2.974783778190612793e-01
2.696868569237610980e-01,-1.498550390154750056e-02,-1.361343069261237992e-02,5.339620524072086942e-04,1.543190548400870995e-04,-2.665195175772237563e-04,2.839908301830291748e-01
2.584752030784759902e-01,-2.346908939009860473e-02,-2.642735944567434214e-02,2.325346723647976881e-03,2.233890653066070500e-03,-4.617980501379706677e-03,2.836028337478637695e-01
4.090849782359968212e-01,1.891208321836573836e-02,-6.019931095481323435e-02,-4.580995472510015348e-02,-1.605221863660482098e-02,1.818242960910486893e-03,4.432146549224853516e-01
3.907335950717253370e-01,5.094414735229785274e-03,-6.711832590450425573e-02,1.284564096352399862e-02,2.013465323663648013e-02,-7.688564068216067506e-03,4.285660982131958008e-01
2.709970821088354964e-01,-1.357623568994992258e-02,-1.786163716410538171e-02,2.343817547911274720e-04,-3.638448970261243818e-04,-7.008778129558205323e-04,2.867435812950134277e-01
3.069254721414987896e-01,1.029553493480060700e-02,-4.476028567900691701e-02,-1.369902976619869969e-02,8.571339591339778227e-03,-1.123298768885042098e-02,3.294140398502349854e-01
2.856180618420600670e-01,-1.432222202742333694e-03,-3.101464236362694304e-02,-3.539970954993236323e-03,3.555897940137265484e-03,-5.656620362350299296e-03,3.032097518444061279e-01
3.056476683573131625e-01,1.221705407874525140e-02,-4.004820207670745091e-02,5.453968189452443327e-02,-2.886352278439502372e-03,-2.451990727606993478e-02,3.390012085437774658e-01
3.359213456875791981e-01,1.977641881162395254e-03,-4.135401017122214418e-02,6.693892727537124193e-03,-5.399138403434435539e-03,-1.236524502337772377e-02,3.585344254970550537e-01
3.118051447638664486e-01,-4.247227855451715661e-03,-2.946299617181988295e-02,4.995787339341840883e-03,-6.146426962231936681e-04,-1.230191855665588828e-02,3.301885128021240234e-01
2.939616470281747884e-01,-3.098089808711471105e-02,-1.307403863721295911e-02,8.728086064925001924e-05,1.034879793073906901e-02,1.904264750307072245e-03,3.168939948081970215e-01
2.722214478061157905e-01,-1.630079950838402014e-02,-2.223597975290972362e-02,-2.483457408061032234e-04,-9.528894349005124706e-04,2.429016615750614106e-06,2.915401458740234375e-01
2.912648702485772789e-01,-3.975907435024883529e-02,-2.142632941060383656e-02,1.669847127576721234e-03,5.535496293012130177e-03,-5.084392782515911521e-03,3.225247263908386230e-01
2.953494343658161769e-01,-4.234549156487790733e-02,1.870912986478945328e-02,3.913078952470466602e-03,6.948812313343042876e-03,1.424269251527987730e-02,3.129649460315704346e-01
3.144948442644482922e-01,-5.279526731551575924e-02,1.828688276631473819e-02,7.439886241852319143e-03,-7.733248063591951008e-03,4.604361111626932915e-03,3.380177319049835205e-01
2.732620937096902902e-01,-2.359036787976491467e-02,-2.393520750662979368e-02,2.785006598162846105e-04,1.480578164392186685e-03,-3.575421831545720749e-05,2.970364987850189209e-01
3.084615198363124811e-01,-1.247272592132005198e-02,-2.260839411380888286e-02,7.452739199506071277e-03,-3.193450588309374762e-03,-2.788007483848471690e-02,3.299750387668609619e-01
2.849226130622399822e-01,-3.885668047607312992e-02,1.154689502988158478e-02,-1.445917694310534969e-03,4.871471457868720850e-03,1.030747209822420289e-02,3.024072051048278809e-01
2.832850823097582404e-01,-4.451233218276526293e-02,8.982018559422960680e-03,5.210795018852122824e-03,7.092615112677461142e-04,5.311767158152159128e-03,3.048689663410186768e-01
2.709968621521626764e-01,-1.649464241130850495e-02,-1.769918636070888507e-02,-2.733665802921116019e-04,1.012967654873278903e-03,1.576328748277370238e-04,2.881015241146087646e-01
2.733235215984598510e-01,-2.063806120737926575e-02,-2.410965321582059229e-02,2.070050799467672981e-03,1.335078715517483113e-03,-9.613764634138014789e-04,2.957481145858764648e-01
2.648995400601565908e-01,-2.916051242847252090e-02,-2.381630044616851738e-02,2.344292980993211133e-03,-7.920775382731002181e-04,2.435137842130288659e-03,2.914867401123046875e-01
2.714443598282318959e-01,-2.616082674825781496e-02,-2.836412135971443094e-02,1.104650685107560896e-04,-3.632057293143189686e-04,1.740572349301066767e-04,2.987138032913208008e-01
2.689438983700591090e-01,-3.011092337641295413e-02,-2.498653792377480976e-02,7.709856665827468638e-04,-5.014002140211203150e-04,9.534391289522249190e-04,2.965347170829772949e-01
2.716305191631813720e-01,-1.556414756950236233e-02,-2.559036726982640009e-02,-2.459566472213816062e-03,2.396085545989528384e-03,-2.748432506106151637e-05,2.923972606658935547e-01
2.693456354728461788e-01,-3.098011978037062963e-02,-2.559050424844143412e-02,-4.751196068638676188e-04,4.564343691866502460e-04,8.380542222112595616e-04,2.976732850074768066e-01
2.655082236232939596e-01,-3.069841413550003506e-02,-2.272690024793795616e-02,-1.856866878627934717e-03,1.067591023189241222e-03,7.854581979548763953e-04,2.923291325569152832e-01
2.720858842883475681e-01,-2.470518808346032491e-02,-2.298676296530564878e-02,3.010082310384395565e-03,-2.933872395740982214e-03,5.201457318169470630e-04,2.960265278816223145e-01
2.720026539537939714e-01,-2.141374423268524452e-02,-2.275503779029952600e-02,-8.207646191018052803e-04,1.461884875672403612e-03,9.025116091214325663e-05,2.941037118434906006e-01
2.658506101351285622e-01,-1.875860760751840717e-02,-3.434352797616277431e-02,-1.186122963403268523e-04,1.171818670766484275e-03,7.415268996914348252e-05,2.927201390266418457e-01
2.727688619696289063e-01,-2.246784181945381265e-02,-2.843479129140126516e-02,-3.565764381658958148e-04,2.089282007874837966e-03,-3.282250466526128937e-04,2.982880771160125732e-01
2.639688931685424955e-01,-2.129362127161621432e-02,-2.681854968705305042e-02,3.105407373553753709e-04,-3.995314685610560647e-04,-8.327340027650467769e-04,2.880696654319763184e-01
2.694557219213438715e-01,-2.290188196235640183e-02,-1.866263381583863068e-02,3.157395718973415432e-04,6.205730677493695056e-04,-2.463733244670194764e-04,2.902640104293823242e-01
2.632770111075477537e-01,-2.056892476399820036e-02,-3.194880967290246454e-02,1.382540578514094350e-04,-6.550895784787039329e-03,-1.171030477684053541e-03,2.899328768253326416e-01
2.625081090719664778e-01,-3.134153885875183565e-02,-2.234409851147575732e-02,4.774422600561863432e-04,-5.857016399487043751e-04,9.879893165057977971e-04,2.894638478755950928e-01
2.569438978498151949e-01,-1.935007458516076195e-02,-3.318552226814551476e-02,4.087916093725383200e-05,-1.603545749507311741e-03,-2.864072699878282124e-03,2.835220694541931152e-01
2.529001312109338540e-01,-1.766832458420274088e-02,-3.295645188238073564e-02,-1.274276440494614927e-03,-9.083478526143455925e-03,-4.409715572850410152e-03,2.790846526622772217e-01
2.659212502251916965e-01,-2.136769368588807561e-02,-3.084942398881623804e-02,-7.827982259271581349e-05,-2.459234476763622751e-03,-1.807629427616028574e-03,2.921930849552154541e-01
2.595978355529210413e-01,-1.803632311133553101e-02,-3.369008682093682649e-02,-1.328008946863284273e-03,-2.427813071100261115e-03,-2.905212235327093648e-03,2.858672440052032471e-01
2.712174344573204388e-01,-2.709698517080658120e-02,-2.906730409033335405e-02,1.878840866301496740e-04,-4.540326855388915426e-04,2.863568527796845763e-04,2.993060648441314697e-01
2.460434567743565726e-01,-2.480042562173638554e-02,-2.404928022163080326e-02,1.116438333242989085e-02,3.967192943095285834e-02,1.240236302660357743e-03,2.797385454177856445e-01
2.531102046552367035e-01,-2.993230215143048711e-02,-1.262186755440930508e-03,4.063568624090196924e-02,5.507853448428447207e-02,9.240085916643258138e-03,2.951796352863311768e-01
1.944224772735393958e-01,-1.420905344317577312e-02,-1.090564204580357632e-02,2.177470699661223502e-02,-1.389292620441514442e-02,3.210517931712642773e-03,2.118518501520156860e-01
2.692594462810553591e-01,-2.760587568330641339e-02,-2.621733009206894671e-02,-7.417144260017537096e-04,2.236669650824495019e-06,6.087791347379308210e-04,2.961781620979309082e-01
2.690816837860713351e-01,-1.475713565449590647e-02,-1.375493482625873842e-02,-1.869897308399719096e-04,-1.308978333183070247e-03,4.960481299023536926e-03,2.834785282611846924e-01
2.718308924072666555e-01,-1.614059197061576412e-02,-1.932598949577432612e-02,-6.926082506075006192e-04,1.138002275381717096e-04,-1.027302516366083692e-03,2.895853519439697266e-01
2.768270151974148163e-01,-2.131827643430131425e-02,-2.652212116470298309e-02,5.720972390945244877e-04,2.065360576546070026e-03,6.721100231159507369e-04,3.008061349391937256e-01
2.740589228914447339e-01,-2.094043041719895193e-02,-1.964276244692585160e-02,-7.076764087432575213e-04,1.428453491147215881e-03,-6.739496805896265071e-04,2.943679392337799072e-01
2.731857124873756648e-01,-1.527614542138508447e-02,-1.672264505964095316e-02,1.406027530931629405e-03,-1.348372814423663734e-03,-1.495126187778384472e-03,2.892191112041473389e-01
2.731494298781554919e-01,-1.513910394411173421e-02,-1.657606962618723978e-02,2.008302249706275192e-03,-1.369285426808997900e-03,-3.654071990980676914e-03,2.891096472740173340e-01
2.731903126377545066e-01,-1.828616885493659916e-02,-1.642812748140129453e-02,-1.583917852632256039e-03,2.079685991686946111e-04,5.482751288022555142e-04,2.905666530132293701e-01
2.782624156970461282e-01,-2.668526718891735261e-02,-2.616049627868859140e-02,-7.586609969473837815e-04,-9.623034101977734318e-06,-4.528676013277071100e-04,3.046894669532775879e-01
2.724567709366821910e-01,-1.869383082903255944e-02,-1.906225052945688392e-02,9.696735710983478093e-06,-7.069942762670537902e-04,-1.708942142879940271e-03,2.913525998592376709e-01
2.834229204689380222e-01,-3.097707122040119221e-02,1.189752774096068666e-02,4.170527366208060666e-03,-6.042371390817667665e-03,-1.128419905338263508e-02,2.962254583835601807e-01
2.826225129483435627e-01,-1.905167429864984552e-02,-1.921172732265476191e-02,2.336714726619844740e-03,1.488653291543686700e-03,-1.104757477856357743e-02,3.023984134197235107e-01
2.821466736547960097e-01,-1.264909541802998472e-02,-2.193557148445401950e-02,4.790245698085117756e-04,1.049079707524032921e-03,-1.009828410775838285e-02,3.000638484954833984e-01
2.421089416951219542e-01,-2.229303025015866302e-02,-2.317997226402331024e-02,1.148328452331866603e-02,-9.160474747766514988e-04,-7.255611367307250072e-03,2.658942341804504395e-01
2.724441644046593503e-01,-4.578732091877285582e-03,-1.984635744943392954e-02,-1.176203703511034164e-03,1.812256320996055194e-03,-5.142150462913427054e-03,2.851273417472839355e-01
2.768065996416254615e-01,-2.641137954178397751e-02,-2.678200470998805260e-02,-9.032658067680381098e-04,-6.525717858422283232e-04,-1.138178623274435424e-03,3.034160137176513672e-01
2.706733708299605135e-01,-1.117063319704168778e-02,-1.261192488310766691e-02,1.299608088758984594e-03,3.594520687541571122e-04,-8.104560920972192842e-03,2.829255163669586182e-01
2.771930246432411371e-01,-2.726399744201456199e-02,-1.393061409239532145e-02,3.569446247940664084e-03,-5.998494027858674617e-03,-6.828599539500072738e-04,2.982616126537322998e-01
2.735164072669061808e-01,-6.591240070854070821e-03,-1.876888025162025408e-02,1.854618169902881412e-03,-1.205393214430055442e-03,-4.783428328533795813e-03,2.865361273288726807e-01
2.752363548749935385e-01,-2.422292708437812081e-02,-1.529702892644489720e-02,-2.514901734228316543e-03,1.273976617886843051e-03,5.527989643980147499e-04,2.951395511627197266e-01
2.734692916681776831e-01,-1.466181850146509869e-02,-1.950539006261271802e-02,-7.437759623202341462e-04,5.672075259823094844e-04,-7.863039975603145632e-03,2.909066677093505859e-01
2.571333838799942373e-01,-2.788998634936744325e-02,-1.880135786384740104e-02,5.385691866916137577e-03,4.345422148697975200e-04,-1.664008910842883562e-03,2.807602882385253906e-01
2.397015190251927386e-01,-2.815691000675658862e-02,-1.436662440388931927e-02,6.238085113440323959e-03,5.573262170428578853e-04,-1.866046154796910861e-03,2.614815235137939453e-01
2.763557468637570791e-01,-2.172673921476908632e-02,-2.310341961382092468e-02,-5.589000486088288545e-04,2.473116849484586870e-04,-1.996415214248571982e-04,2.987752854824066162e-01
2.640425313444199618e-01,-3.319197289764075354e-02,-1.855141507414677371e-02,5.564012458685984285e-03,2.163176687574111523e-03,-2.198647346401298025e-03,2.904004752635955811e-01
2.767944712223941450e-01,-2.139674563224139292e-02,-2.376316144394818863e-02,5.282191238807411879e-04,2.082096507018616337e-05,-1.087005637956275309e-03,2.993887662887573242e-01
2.323390128829824208e-01,-2.932583087394137478e-02,-1.493349253047838998e-02,1.171831400498434504e-02,1.132866932070747141e-03,4.774358873544006909e-04,2.555898129940032959e-01
2.648779627428727856e-01,-3.382557850345600803e-02,-2.014021019718743866e-02,5.252022742450515418e-03,2.551045664446703002e-03,-1.089806723800574619e-03,2.922825217247009277e-01
2.656846378085340188e-01,-3.150985341345162449e-02,-2.021261787226205642e-02,1.185593047499167499e-04,2.599777835716816552e-04,-9.134422385295047284e-04,2.917146980762481689e-01
2.658477087252876236e-01,-3.381267027588863439e-02,-2.081738340592606540e-02,4.908847302990518129e-03,1.794571654914034042e-03,-5.062969683411164311e-04,2.935196161270141602e-01
2.700120479846039867e-01,-5.086652926330814672e-03,-2.607673259439556579e-02,3.293433492981735853e-03,3.715531347309267499e-03,1.214689721385986019e-03,2.863085865974426270e-01
2.709322844525502427e-01,-3.136249089946967217e-02,-2.260523023535720988e-02,1.541389288585180272e-03,1.067692890714013691e-03,-2.350989092610015520e-03,2.980581820011138916e-01
2.721663039468726897e-01,-3.245100829018406074e-02,-2.127487881508301204e-02,3.957946803795661488e-03,1.648465864098762812e-03,-8.378505027504028419e-04,2.992815077304840088e-01
2.722568955829179904e-01,-2.827706856086843745e-02,-2.217258986866572912e-02,8.864359631996483399e-03,4.694935498658370579e-03,-1.493697743492066301e-03,2.980467677116394043e-01
2.723295059865791790e-01,-2.268016220908516956e-02,-2.826673792540343455e-02,-2.194034730481712533e-03,3.986061829448404870e-03,1.654595937589635620e-04,2.979466319084167480e-01
2.892884002852065262e-01,-4.174553569856701007e-02,1.094658994243648265e-02,4.138812047031978532e-03,2.037100613960005199e-04,-2.039649972619996410e-03,3.081899285316467285e-01
2.783836582793824954e-01,-2.274663367587835550e-02,-1.448910463493453815e-02,3.554962389088776875e-03,2.789449997147649442e-03,-6.465189159549297043e-03,2.974015772342681885e-01
2.785229501997920076e-01,-3.115378427162540653e-02,1.158287840019311954e-04,-4.079434054556351787e-04,2.362078215652028013e-03,-2.335409969835950360e-03,2.953431904315948486e-01
2.723315461548495575e-01,-2.238085691915642217e-02,-2.839898470633314687e-02,-1.638617820814973133e-02,4.398148578329902358e-03,1.032227330929024779e-03,2.992189526557922363e-01
1.942539531883901993e-01,-1.291596714316461947e-02,-8.187176677066157482e-03,-1.429959598473845312e-03,-8.026458891103661116e-04,-4.271001565529970907e-03,2.049996703863143921e-01
2.742897319512317966e-01,-2.285201047245670469e-02,-1.532440071204835275e-02,-2.260645583151433321e-03,1.248730808022458817e-03,5.924943741299534133e-04,2.934862375259399414e-01
2.591226655711490467e-01,-1.932924377508407621e-02,-3.557392817257855333e-02,5.049982883282096071e-04,-1.271542420838544064e-05,-1.916378051783700206e-03,2.869398891925811768e-01
2.742965058429671643e-01,-2.186529136290482622e-02,-1.213513608968894153e-02,-4.542778920312103355e-03,-2.216080256979897911e-03,4.548003912717106002e-03,2.916564345359802246e-01
2.644974666625631299e-01,-2.358623941039557359e-02,-3.067696656246426956e-02,2.708569016164029397e-04,-4.612214824904820780e-04,-6.855400162556583854e-04,2.916975915431976318e-01
2.615138790008543213e-01,-2.759176559720318000e-02,-2.164197934175052240e-02,-1.411142278301669032e-03,1.891919467318352137e-03,-8.193387527394359088e-05,2.862063646316528320e-01
2.680495532114741675e-01,-3.054172619154815749e-02,-2.676448581072196631e-02,7.332380548311853436e-05,2.735677177508922544e-04,-1.711783678522326574e-03,2.967359125614166260e-01
2.231811756857207396e-01,-2.734857939391688308e-02,-1.307747631281938605e-02,-2.132679556312230135e-02,1.161764059199737673e-02,1.289763280722331642e-03,2.473214119672775269e-01
2.612987728462818904e-01,-2.847201580724127712e-02,-2.192852800992629858e-02,-2.239817702075258023e-03,2.858428651129310289e-03,7.188487370490915856e-04,2.866268157958984375e-01
2.507035399940296116e-01,-3.395229942311737970e-02,-1.571993572653765381e-02,-4.037631856112960764e-03,2.244926482130333873e-03,2.114273387271271756e-03,2.761319577693939209e-01
2.784897003663399095e-01,-2.612084436615189076e-02,-1.854142663452261475e-02,4.540613214326022842e-03,-6.143085514153059055e-03,-1.154851085869158626e-02,3.018467128276824951e-01
2.564113012436951555e-01,-1.577450351764182745e-02,-3.716174800981664195e-02,5.952623322457761866e-04,-3.466147665607461118e-04,-9.243863231019613328e-04,2.834921777248382568e-01
2.775944674265645729e-01,-1.962216543679473624e-02,-2.071309663751508268e-02,-7.153805675809731587e-04,2.097947613322046975e-03,-3.728689804889663475e-03,2.978583574295043945e-01
2.663702671189698834e-01,-2.511407255923804593e-02,-3.069279544675765359e-02,7.635939818462260864e-05,2.031017275855329118e-04,-1.348644465673417333e-03,2.943228781223297119e-01
2.693520668803091045e-01,-1.166623466502361706e-02,-1.633620721798481612e-02,-1.942655418140233864e-04,2.683200626262289158e-04,2.380667001182697542e-03,2.834127247333526611e-01
2.722925434580577564e-01,-2.214819191223570127e-02,-8.384657891867486335e-03,-9.989151030550280121e-04,2.223458420285736106e-03,-2.919171885662073980e-03,2.878812849521636963e-01
2.712645871042929091e-01,-1.492478405099183225e-02,-1.476816271474727660e-02,-9.733477574776509735e-04,1.698968411360671357e-03,-2.643041846996694189e-03,2.861678004264831543e-01
2.737874315974682116e-01,-1.467463399285222347e-02,-1.800253623240813394e-02,-2.078853131781506144e-03,1.536840438033786581e-03,-1.600017451382148258e-03,2.901881039142608643e-01
2.729307868186185426e-01,-2.305163063295870285e-02,-1.700381560497050970e-02,1.393438473856265089e-03,-1.116929510159031134e-04,-3.373250446988427121e-03,2.930735647678375244e-01
2.725479663403278519e-01,-1.866254233294875609e-02,-1.072317771327913061e-02,1.950917075390755200e-03,-8.587863067163416155e-04,-4.761262312599034811e-03,2.874651551246643066e-01
2.684123435091495535e-01,-2.239053994072824627e-02,-2.030942504900647150e-02,-7.185004961004359467e-03,-9.752933370400344165e-03,1.840188187687521537e-03,2.905440628528594971e-01
2.633072918142126406e-01,-3.292246481754908249e-02,-2.336323352145351639e-02,5.079512622151644469e-05,6.467056109755385225e-04,-2.129263273252473328e-03,2.915931940078735352e-01
2.743480055280851371e-01,-1.505389750782931690e-02,-2.078029803432508704e-02,2.810820714628326899e-03,7.510166537985019574e-04,-2.496220901774296678e-03,2.923825681209564209e-01
2.703762085411455240e-01,-7.137646009696907434e-03,-2.090261662793693742e-02,-3.048987838181788264e-03,1.739115338593333338e-03,1.836743904729658651e-03,2.847287654876708984e-01
2.725882835074319166e-01,-1.962748055477180065e-02,-1.782283728672692802e-02,-7.038832602404956939e-04,8.603416717852245977e-04,-1.769310925864123283e-03,2.913401126861572266e-01
2.546027871077733984e-01,-1.936921641549313455e-02,-3.066057831665547351e-02,4.282988377854617980e-04,-9.270147921408882689e-05,-3.599743059807351646e-03,2.798590958118438721e-01
2.708743379020031039e-01,-1.106487318257123875e-02,-1.151681759805300853e-02,-5.382481979396598485e-04,-7.250156530792401790e-04,5.753831901737753093e-03,2.823457419872283936e-01
2.746134288942053692e-01,-2.915463402627296863e-02,-1.875314369040176343e-04,-1.138820261090770297e-06,-1.139703441858924823e-03,5.293082539791369757e-03,2.905215919017791748e-01
2.560143962983248977e-01,-1.873012581238960028e-02,-3.378919943961207484e-02,-2.086276723697563003e-03,-7.474838886437530779e-05,-4.124640168188524361e-04,2.825992107391357422e-01
2.468619524828104539e-01,-1.303730455843829517e-02,-3.271210416097494744e-02,1.158090449659689332e-03,-2.354785058443613637e-04,-1.401180262927330649e-03,2.702929377555847168e-01
2.734736590666119183e-01,-2.328878015076665808e-02,-2.121294677511804949e-02,7.069756704265838096e-04,1.914056301695590302e-03,-3.353697216314226615e-04,2.957516610622406006e-01
2.725284587917109480e-01,-1.662553817814027557e-02,-2.053321788419529281e-02,1.468940447360429205e-04,9.401464940992307080e-04,-2.615858565704869219e-03,2.911674380302429199e-01
2.509066632938807828e-01,-3.241896870094912453e-02,-1.541070851752388005e-02,2.709090618466334505e-05,1.306709440086082892e-03,3.969380178594781650e-05,2.752252817153930664e-01
2.567618814903108726e-01,-3.540905707552624571e-02,-1.557649743172280499e-02,5.883956989728589965e-03,1.064608446476070398e-03,-1.420436836788574052e-04,2.829664647579193115e-01
2.586384122039883104e-01,-2.837489801401890666e-02,-2.087826044643546763e-02,4.839683428263148041e-03,-1.786376976541720427e-03,4.205268883319919016e-04,2.834811806678771973e-01
2.341109481334003040e-01,-2.752621505010666159e-02,-1.627433299017926049e-02,8.561377434606711953e-03,-3.939547416968728483e-03,4.005262052957158508e-03,2.568098008632659912e-01
2.342674814819382390e-01,-2.763496063587458917e-02,-1.429426648171756853e-02,8.589476708101041746e-03,1.102424410556360245e-03,1.870870785225231146e-03,2.559538781642913818e-01
2.708269388185917670e-01,-2.062330297709034921e-02,-1.663439783815766349e-02,3.792911181906516807e-04,-1.978381180692359055e-03,1.319376182285135154e-05,2.894974350929260254e-01
2.722458393640504459e-01,-2.069864476764868289e-02,-1.560919489185454145e-02,1.246785648386300634e-03,-1.263151231398237061e-03,2.455524678956203053e-03,2.904806137084960938e-01
2.699738518522555308e-01,-2.181238013842141943e-02,-1.784933294532929648e-02,-4.892302303835283387e-04,-6.937675258275132319e-04,5.185192296112527003e-04,2.898301482200622559e-01
2.685704818630954560e-01,-1.828075578690951941e-02,-1.208572305705186978e-02,-6.470092151647834902e-04,-6.658475553317641992e-04,1.405651685599640160e-03,2.838194370269775391e-01
2.676279629444504593e-01,-1.611947966931999432e-02,-1.288190275048857469e-02,-8.101997331410436959e-04,-1.300700131198987829e-04,1.297476779132758409e-03,2.821551263332366943e-01
2.742643238057494992e-01,-1.787959829548481372e-02,-1.869122598965101967e-02,4.694155821020943681e-05,-3.591699778698553835e-03,1.739441782915720526e-03,2.926322519779205322e-01
2.490383784823721747e-01,-2.488521920556735489e-02,-2.502339872027749268e-02,-1.822639871696884952e-04,-1.267994483570939412e-04,-6.839083120966902435e-03,2.742489278316497803e-01
2.761206498634954376e-01,-3.268573514941960911e-02,-7.700594279709413459e-03,4.032314560289194764e-04,-8.363035944299523558e-03,1.243219838718343092e-03,2.974643111228942871e-01
2.706698421869530025e-01,-2.141172594526367934e-02,-2.033142669524870549e-02,8.602395855454917067e-04,2.102013240276776138e-03,2.178979821623214339e-04,2.915697097778320312e-01
2.701738121065613285e-01,-2.781482790446654363e-02,-2.719586400403906090e-02,-2.765577229853814848e-05,-4.757457940586592863e-04,-3.873397120205037542e-04,2.976815402507781982e-01
2.774276640985792186e-01,-2.945006283219744891e-02,2.864062790540328196e-04,2.064039104981994603e-03,-3.899747113296780227e-03,2.343371981682683403e-03,2.932705581188201904e-01
2.692906466685174305e-01,-2.275435669515028791e-02,-2.407488511566417688e-02,1.076531440143105919e-03,-6.861199597075851118e-04,5.711425330531601528e-05,2.927158772945404053e-01
2.673051794539615389e-01,-2.480852247401750532e-02,-2.739268911690986852e-02,-3.343834632684603014e-03,-4.655513324767676306e-03,-3.486187661620392120e-03,2.936443090438842773e-01
2.669228119144842482e-01,-2.436727923686771158e-02,-2.608400642512018197e-02,7.936540532871498403e-04,-1.660776939022853057e-03,-2.330004969968962458e-03,2.921974956989288330e-01
2.690606614941692953e-01,-2.486175309238373987e-02,-2.162577894677952806e-02,6.823248294445371370e-04,-2.303245525190823111e-04,-4.141007598393000233e-04,2.923214137554168701e-01
2.497538528070924746e-01,-3.161202996651103769e-02,-1.765891937967194181e-02,-1.572096595308178010e-02,-5.294410085157576565e-03,-1.364220835218424993e-03,2.761641442775726318e-01
2.708862549390366192e-01,-2.367213536309016597e-02,-1.888069639180942061e-02,-2.092514639408114472e-04,1.889349249026959013e-03,-6.720396600522381613e-04,2.922129929065704346e-01
2.630475246352487750e-01,-3.429019258404739090e-02,-1.985465226014572482e-02,-1.995039237387563700e-03,1.094094865676456833e-03,-1.119438334654580683e-03,2.904223799705505371e-01
2.705599617878945429e-01,-2.263498976758929193e-02,-3.136416992431807771e-02,-5.922650727627400830e-04,2.022666026008065714e-03,-2.503281530734235635e-03,2.977095246315002441e-01
2.486748794995435330e-01,-1.838379438497393659e-02,-2.743813438808791194e-02,-7.881961935965665260e-04,7.171534510410429442e-03,-4.048767171939188572e-03,2.720766365528106689e-01
2.697373180511626334e-01,-2.379285901407593440e-02,-2.566911375081316893e-02,-1.043494135259386653e-03,-3.180615244681883505e-04,-6.023692187246441421e-04,2.944807112216949463e-01
2.687790507519132732e-01,-1.810432079993941346e-02,-1.622892944950339589e-02,-5.342862660232621484e-04,-9.535142697839008724e-04,-8.539812446803720682e-04,2.859603762626647949e-01
2.563733907450317928e-01,-1.900738192394826886e-02,-3.076842068124863161e-02,2.474616648980695367e-03,-2.126021754071680606e-04,-3.257292293886327340e-03,2.815350592136383057e-01
2.596515831297581678e-01,-3.554976339736684587e-02,-1.956090546624987547e-02,7.763499910745210245e-04,4.999248039646031223e-04,-5.319839501364373880e-04,2.875464260578155518e-01
2.736731715265081633e-01,-2.373447385861600367e-02,-2.639199527648743160e-02,-2.569095624679197231e-03,-1.665764816505000898e-03,-1.915902317866577604e-03,2.988107800483703613e-01
2.492967579589049909e-01,-2.083043413325728899e-02,-2.642894615620000609e-02,2.587719121159572436e-03,1.241484093877763886e-02,-7.166140068240543087e-03,2.741329669952392578e-01
2.739200464929422152e-01,-2.362141572658985056e-02,-2.868044354348645020e-02,2.862425366729215719e-04,-1.070159244431143888e-04,-6.589126763823235184e-04,3.001056015491485596e-01
2.531787675692113160e-01,-1.869566415085241462e-02,-2.918940730592382848e-02,-1.209838201629707261e-03,2.580794641733408028e-04,-3.741796880479946255e-03,2.773543000221252441e-01
2.698133400273281524e-01,-2.054343097886932035e-02,-2.089052478778188893e-02,1.305737346869420079e-03,7.013684895722464147e-04,3.110363665170073314e-04,2.905423045158386230e-01
2.565749123980090030e-01,-1.919254601624580114e-02,-2.449971445945951787e-02,1.464955455441891547e-04,5.613989083116793614e-03,-1.443658651579735270e-03,2.786400318145751953e-01
2.128029946917891213e-01,-1.608116954579690006e-02,-2.276343892362597821e-02,2.121983309155348746e-02,-1.424365138987193635e-02,5.412964407473727646e-03,2.366631925106048584e-01
2.584014555926494316e-01,-2.293065511386771504e-02,-2.591818079009973463e-02,-4.517723671011447326e-03,-6.101011759228550622e-03,-1.812699679177907355e-03,2.831605970859527588e-01
2.681181807397471362e-01,-2.412974072226810318e-02,-2.475687810317239723e-02,3.412527478782581341e-04,8.194216730373159565e-04,-3.353527357641943323e-04,2.925665974617004395e-01
2.599253068704373559e-01,-1.794043461299149600e-02,-3.672034746122342097e-02,1.590393630393972758e-03,-2.263768232764025272e-03,1.005591514544860836e-03,2.877609133720397949e-01
2.701092305175017971e-01,-2.431443182750346599e-02,-1.728936238252787305e-02,3.894917837903373765e-03,6.891654927508866898e-04,2.249553928672165320e-04,2.910556495189666748e-01
2.691660075754277459e-01,-2.679782772362607202e-02,-2.789744074994954248e-02,-1.339287019714671559e-04,-2.283239592805923006e-04,-2.689120576641940066e-04,2.965158820152282715e-01
2.735784335105846399e-01,-2.642207883248415268e-02,-1.751048991974829550e-02,1.919604993399778338e-03,3.503962613233754797e-04,-3.661764324367278232e-04,2.956654727458953857e-01
2.595854455885554524e-01,-1.834602408899149717e-02,-3.417181732526387850e-02,1.894093994451095594e-03,-8.666249825019203129e-03,6.232981779357248510e-04,2.865869700908660889e-01
2.521042056871112824e-01,-1.750206622645218701e-02,-3.347527262266478121e-02,1.027869668673870446e-03,-3.299560822663873648e-03,1.902031413688820170e-03,2.780213057994842529e-01
2.703708883972777421e-01,-2.212469384918985815e-02,-3.146940783081336734e-02,4.564760446258597087e-03,-2.634296667949087914e-03,-3.171723351832692744e-04,2.974187433719635010e-01
2.717417346328831473e-01,-2.377202860769457582e-02,-1.617467677877432175e-02,2.951100203300802312e-03,1.491004197218949055e-03,2.462935635997419524e-03,2.918766438961029053e-01
1.997015092308851159e-01,-1.055489491126843093e-02,-5.983564781832928503e-03,8.054082001811239261e-03,6.071195707987067126e-03,-2.112341296731713638e-03,2.087727785110473633e-01
1.698754607135468109e-01,-3.725965243922629844e-03,-1.107652841084116879e-02,-7.256110628834910870e-03,-6.172083180904852162e-04,4.205556502056799831e-03,1.779879480600357056e-01
2.697111808341975947e-01,-2.262427766953177544e-02,-2.220878547409151083e-02,-1.253739151648262332e-03,-7.675907920522765098e-05,7.610820624471946070e-04,2.921390235424041748e-01
2.696393009962892995e-01,-2.761102403836629415e-02,-2.761766452734458477e-02,2.540158636344922762e-04,-1.259385452038549623e-04,-6.136781833327625878e-04,2.972559630870819092e-01
1.594910670847076162e-01,1.790049500542130467e-03,-7.448212880179008732e-03,9.331064603503454294e-06,-1.702472591973819629e-02,1.295519276942816737e-03,1.651859581470489502e-01
1.379824940815048973e-01,-1.714718430346352795e-03,-5.872356484469244686e-03,-1.098098882134058811e-02,-1.978876806681439254e-02,-2.682868620739783071e-03,1.472125500440597534e-01
1.728794077415892194e-01,-9.727603275432358809e-03,-1.512266973192645525e-02,-1.584384890197315307e-02,-3.747967541655785467e-02,-6.336409191153809239e-03,1.986134797334671021e-01
1.282946328202547726e-01,2.641865036353968632e-03,4.636378524524448208e-04,-8.111235421300436871e-03,-1.778926671767632611e-02,-1.511980224244594689e-03,1.312275528907775879e-01
2.670028165443285584e-01,-2.548523906283922669e-02,-2.926591448998863698e-02,-4.392363809829474136e-04,-6.477391121861053895e-04,-6.186914973035818758e-04,2.944016754627227783e-01
1.433914554443745382e-01,2.084807641686343971e-03,-5.488965446357720046e-03,6.091181641437007008e-03,-1.471460018163696370e-02,-1.037767038871980707e-04,1.478379368782043457e-01
2.643534415814055016e-01,-2.199325146848860046e-02,-2.676524021690181165e-02,3.671649059166248209e-04,-2.073082751001435265e-04,-1.031202536587743582e-03,2.887687087059020996e-01
2.355727177858395749e-01,-2.936055454102105833e-02,-1.589722040934747616e-02,-4.452438022985030081e-03,-4.623163325556416473e-03,-5.215588577979750166e-03,2.588613927364349365e-01
2.597278880870906859e-01,-3.345191534404201583e-02,-1.765820362404200983e-02,-2.147301541363574092e-03,-1.634260235226319335e-03,-3.094052585267796380e-03,2.856991589069366455e-01
2.601716086515455384e-01,-3.188696875248028806e-02,-2.128096668196141628e-02,2.676681097352688176e-04,-1.452238641310406048e-03,-9.638681877024202248e-04,2.869189083576202393e-01
2.447557210384755932e-01,-2.979681892425926903e-02,-1.825444104673952517e-02,-4.644445142011550606e-03,-1.756186515185072195e-04,-5.109277752665150434e-03,2.692330777645111084e-01
2.495098120340149273e-01,-3.290051026363700892e-02,-1.704373933040925770e-02,2.156549150862284371e-04,-1.885759051737435823e-03,-3.799511553689609994e-03,2.749236822128295898e-01
2.358653772668085069e-01,-3.087654016454811912e-02,-1.626959319816252691e-02,-6.818456933315390767e-03,-2.232770016879992870e-03,-4.147600488160065740e-03,2.601429820060729980e-01
2.482732884448967947e-01,-3.251754737798058514e-02,-1.564929671922343779e-02,-7.850570825542498368e-03,8.148629235892520259e-04,-8.261516757517930760e-04,2.730943262577056885e-01
2.647704288390408944e-01,-2.986414441642389062e-02,-2.209940277601361858e-02,-6.803237891222387729e-03,-1.601261426805806283e-03,-2.506653470056948406e-03,2.911141514778137207e-01
2.602197731651753054e-01,-3.273835664970890791e-02,-2.130729848478264687e-02,-2.420879577937339391e-03,-1.542594659032974023e-03,-2.746765040277879093e-03,2.874955236911773682e-01
2.728621279129921362e-01,-3.211142473494890681e-02,-2.216902494345433794e-02,2.140512297919253733e-03,-1.411879897176703804e-03,-8.431534089932013086e-04,3.001623153686523438e-01
2.763877133921843754e-01,-2.126833996669047488e-03,-3.466369886081771545e-02,-1.963033577370478650e-02,-1.276382058958855110e-03,6.711717704646255264e-03,2.983070015907287598e-01
2.801592971008434185e-01,3.905435184886341116e-03,-2.906845779172265165e-02,-1.127171070331786998e-03,3.319488488609496392e-03,3.608147093919245561e-03,2.942593395709991455e-01
2.816910596917792109e-01,1.008776439944170100e-02,-3.349238450618149954e-02,2.193751687660643566e-03,-2.280428689556715879e-05,3.572847881206406978e-03,2.959000170230865479e-01
2.739154383660765135e-01,-5.912292866773388722e-03,-2.556006306547486950e-02,3.107727042003041468e-03,1.783676851812841552e-04,3.091487333500625521e-03,2.902504503726959229e-01
2.686938404481773457e-01,-2.441639561601180453e-02,-2.734992485747934909e-02,1.589527116386825478e-02,1.531265841985277390e-02,-2.325077432263904838e-03,2.970853149890899658e-01
2.670577906396890411e-01,-2.146168974339447699e-02,-3.087270023167776323e-02,1.415614823718701907e-03,-5.889897098517438406e-04,-4.267676932060098134e-03,2.934433519840240479e-01
2.705006612721161385e-01,-2.165307461114621135e-02,-3.102042748919205117e-02,6.827336981204804077e-04,9.814695222674517296e-04,-2.647610691316412863e-03,2.969908714294433594e-01
2.753930218291709697e-01,-2.438519254687705751e-02,-2.547437372827808522e-02,-1.870988424999878684e-03,5.113853866691406595e-04,-5.639288949267661551e-04,3.003446757793426514e-01
2.570501455514815903e-01,-2.921190911154353254e-02,-2.088038123065109886e-02,-2.447186147805316663e-03,1.080782302478668251e-02,-6.336371722233065384e-03,2.830533981323242188e-01
2.721570879591534986e-01,-1.856496553212572120e-02,-1.036494990901067059e-02,-2.205999282376280065e-03,5.323696992024604547e-04,9.235577142094242211e-04,2.867414057254791260e-01
2.312813112908020940e-01,-1.244389730713045539e-02,-2.790044990342639697e-02,-4.305029436832289916e-05,1.128849017001755037e-02,-5.478361445988562221e-04,2.525692582130432129e-01
2.969908546242949754e-01,-4.021813798302834031e-02,8.198159495377499439e-03,-2.768271093771268627e-03,-4.303281978411154993e-03,1.249953355316124268e-02,3.166621029376983643e-01
2.705996573336814093e-01,-2.264702088479519926e-02,-3.077168899233802268e-02,9.589904100175661826e-04,6.879859436917125631e-04,-8.286479940152418179e-04,2.974027395248413086e-01
2.729556518260743969e-01,-1.162127950211513938e-02,-1.953181119733445048e-02,1.108052059395092355e-03,6.237515438160112910e-04,5.759365664929158406e-03,2.887942492961883545e-01
2.749319786943409394e-01,-2.987971930803060006e-02,-2.355971921816317483e-02,2.936739433563497880e-04,4.508787217524631765e-04,-2.036594403722994783e-03,3.017234206199645996e-01
1.813522832964132303e-01,-6.042201109096825840e-03,-5.675657193298877523e-03,2.597779542185601142e-04,-2.686165486978089813e-04,2.499407187772825214e-04,1.872131079435348511e-01
2.694407604275016466e-01,-1.435311436512554106e-02,-7.270114897343485372e-03,-3.162698678790175572e-04,-4.112549023945069951e-04,3.351016594150837968e-03,2.803810238838195801e-01
2.730088042006775240e-01,-2.153233417726840848e-02,-2.031397753776516268e-02,2.271204075551154066e-03,-1.416874643034886664e-03,6.052853842415875521e-04,2.939722836017608643e-01
2.702184428697680940e-01,-2.430987164225439923e-02,-2.374720117596457181e-02,2.110923290536509357e-04,-1.334926404280548659e-03,-2.914884276204069238e-04,2.942571341991424561e-01
2.703353920456088577e-01,-3.249498010546063298e-02,-2.267286809922121338e-02,9.342421389628673134e-04,8.303320311530654023e-04,-1.622145696196094014e-03,2.980618178844451904e-01
2.701988104737166330e-01,-3.097571109913782594e-02,-2.280267513598020768e-02,-1.266580071693043002e-04,8.417140419181505084e-04,-8.863226889382657455e-04,2.971799373626708984e-01
2.709210835110342774e-01,-2.858598418544389119e-02,-2.305317241697341091e-02,-1.046969179404859699e-03,-9.410934988260751151e-04,-8.663552067212155258e-04,2.967931628227233887e-01
2.726420982488798050e-01,-1.896079867666057572e-02,-2.406620886146669525e-02,-1.625573801331893151e-03,-1.085062759711640954e-03,-4.328520717769399236e-04,2.942092716693878174e-01
2.179518556693797182e-01,-1.704909082627052708e-02,-1.607779795018632329e-02,1.205660144074451046e-02,5.690692995254606826e-03,-4.671316228515250135e-03,2.357898056507110596e-01
2.709073246899369458e-01,-1.805829574315172270e-02,-1.811773796522171687e-02,2.292067764068754943e-03,-3.752503527612302070e-04,1.323120355701664416e-03,2.890324294567108154e-01
2.727489925015809114e-01,-2.421837079906177803e-02,-2.526709233373462815e-02,-2.809837770017862765e-03,1.796674747714699458e-03,4.736735918773324404e-04,2.975503206253051758e-01
2.694832213278396393e-01,-3.183240643514161083e-02,-2.192131130970345620e-02,2.739626610942476077e-03,1.366189462813240064e-03,-2.741071576939275740e-03,2.965697646141052246e-01
2.363960201435113540e-01,-2.871393713548200943e-02,-1.831777109628794642e-02,1.318132840376876058e-02,1.442199260627170798e-03,-2.418053217051243167e-03,2.611135244369506836e-01
2.643568253840676285e-01,-3.399536165464067672e-02,-1.967977225136625929e-02,5.048314635255433253e-03,3.271447272418008534e-03,-2.434307349091439487e-03,2.916748523712158203e-01
2.777166974583265002e-01,-3.296245759934740560e-02,7.115271794587929577e-03,1.720766475433007942e-03,5.209268526545370211e-03,1.330763202041624097e-03,2.928686738014221191e-01
2.817475349202683832e-01,9.496154145547053282e-03,-3.328221307583084654e-02,-8.460492348774679289e-03,2.922624004217970126e-03,1.202435909930187931e-02,2.971050143241882324e-01
2.701359722443589795e-01,-2.294060074216736078e-02,-2.210280049045482142e-02,1.122145155626414273e-03,-2.441822309354281842e-04,-5.326186672335723234e-04,2.926667928695678711e-01
2.717949035785880429e-01,-2.286079659175480061e-02,-2.017070900614895135e-02,7.574558753686516741e-04,-2.119340379390351539e-03,-4.916409527212312275e-05,2.933458089828491211e-01
2.933281701325602397e-01,2.075094346448631832e-02,-4.388592940802762965e-02,-1.301482604326636766e-03,2.878232155982063303e-03,-1.504853491641235108e-03,3.100508749485015869e-01
3.151789076612849794e-01,1.654307290607281988e-03,-4.050412785507753743e-02,-6.083789583361735691e-03,2.931216999039842441e-04,1.714543473244745098e-02,3.380619883537292480e-01
2.690631400718768718e-01,-2.677139163758326945e-02,-2.348993078604127982e-02,-3.926130139318268625e-03,-8.753011067745408290e-05,-7.134907315507188746e-04,2.942887544631958008e-01
2.808950151003337670e-01,5.301377635165943625e-03,-3.690770855064048894e-02,-4.530463421126885298e-03,2.139536644230774672e-03,1.071736977659284691e-03,2.990731894969940186e-01
2.691695532802706459e-01,-2.431170945485471024e-02,-2.348428285526196757e-02,-3.377054828778513259e-03,-1.028851502448600418e-03,-8.683646523211981929e-04,2.931360602378845215e-01
2.809075757299275278e-01,-4.791728749711524071e-03,-3.222510515353355087e-02,3.496290671743863647e-03,4.723732687557043218e-04,3.136261216148895654e-03,3.004683554172515869e-01
2.680726047925646172e-01,-2.370239887768407772e-02,-1.991231507442017823e-02,-2.136054434058476211e-05,-2.243134148848439577e-03,1.993771825840496171e-04,2.899248003959655762e-01
2.702480247844214478e-01,-2.765997103858029715e-02,-2.790757612700861534e-02,6.715754531805046456e-09,-5.023071584677523890e-04,-5.915756281799527575e-05,2.980331778526306152e-01
2.680446063229914300e-01,-2.684188041300193672e-02,-2.760631286378877058e-02,1.905740422857478151e-04,1.012280223245027883e-04,-4.865315791254327840e-04,2.952708899974822998e-01
2.687884088893172096e-01,-1.511400483066882572e-02,-1.490368204649643313e-02,1.450042977903300782e-03,1.558550444492029681e-03,1.342074606304298392e-03,2.838307917118072510e-01
2.628286613189287357e-01,-2.321671495556576481e-02,-3.134344437249171611e-02,-1.461776040219676031e-03,-1.419350103085713572e-03,-1.139187374287520304e-03,2.902222573757171631e-01
2.623989064670131377e-01,-3.330854418650594506e-02,-1.887426051204801891e-02,-2.696975726108486598e-03,-7.849734644635775237e-04,-1.001648011984393027e-03,2.888072133064270020e-01
2.682049859188286867e-01,-2.396269378599863442e-02,-2.758921414726600574e-02,2.751566472128353876e-04,-1.032039932645493173e-03,-3.950284189583970680e-04,2.940043210983276367e-01
2.684612803653742552e-01,-2.364755973218007901e-02,-2.981560806831387578e-02,-8.557853946826667502e-05,-3.255389300606387464e-03,-8.918033636984297029e-04,2.952991127967834473e-01
2.685145130071045494e-01,-2.968982613477977317e-02,-2.497191185982403083e-02,-6.643346644357240368e-04,-1.283580424216394962e-03,-8.272666254834866234e-04,2.958876490592956543e-01
2.693879862197297026e-01,-2.759894105404930853e-02,-2.809024176731667044e-02,-5.903636058123234824e-05,1.215700583547495975e-04,-1.519380585076197603e-09,2.972329854965209961e-01
2.752936725236371229e-01,-2.304004042305031474e-02,-1.978769877087087348e-02,-9.959919432740843830e-04,-9.912191020423964487e-04,3.287511236783409083e-04,2.967314422130584717e-01
2.655215467357838754e-01,-3.052815896666997986e-02,-2.457998001772322694e-02,2.974273005437450663e-04,-2.511157919357224545e-04,-1.454489756701814922e-03,2.931324839591979980e-01
2.664471957749907638e-01,-2.849115867734237917e-02,-2.623211355689755719e-02,7.321622916841002277e-04,7.910923927390624841e-04,-8.591025230508501790e-04,2.938250303268432617e-01
2.640081323793161405e-01,-3.145813344633248410e-02,-1.968143439667896510e-02,3.153149893060133713e-03,-1.371378244958733881e-04,-1.915057515365114907e-03,2.898280024528503418e-01
2.758907494930655790e-01,-2.513054168975357994e-02,-2.845223638894441021e-02,-8.583766724498533647e-05,2.150249282200332023e-03,-3.810653992709467472e-04,3.027194738388061523e-01
2.648624565798275432e-01,-3.124609030210329097e-02,-2.091438050734266418e-02,3.567190879000216829e-03,-4.260951326801433806e-04,-2.174345427796466057e-03,2.911711037158966064e-01
1.812601024618391565e-01,-6.983520625740702314e-04,-1.028084210375071472e-02,3.818980595041449196e-04,-1.655207434686296517e-04,-1.780214687615589699e-04,1.869356334209442139e-01
2.650751258122375775e-01,-2.472092786035350043e-02,-2.822555022225074761e-02,1.438930050549789365e-05,-1.701150762655425264e-04,-1.721496617596648829e-03,2.915795445442199707e-01
2.705172906000095634e-01,-3.174752925767532208e-02,-2.236251169052859422e-02,-7.567681719668450631e-04,2.277236228952360299e-04,-1.466457557213832587e-03,2.976972758769989014e-01
2.710333210309687768e-01,-3.187452021610852337e-02,-2.258261151054719029e-02,-4.973079692294332579e-04,1.068373468446869902e-03,-1.810609282146601138e-03,2.983938753604888916e-01
2.711700131160790783e-01,-2.934722033819506248e-02,-2.258717499079425373e-02,-1.800017808734091958e-03,8.354124113892196635e-06,-1.846728409901246906e-04,2.972114086151123047e-01
2.597565034483237389e-01,-3.004379149906423463e-02,-1.329321241450392987e-02,-1.734763694146028434e-02,6.967646588850645584e-02,-2.910321580382313478e-02,3.121197223663330078e-01
2.751866656817648638e-01,-2.445161497372655424e-02,-1.705287949264626401e-02,3.558711905027594526e-03,3.623679825841396310e-05,-6.159323455193605433e-04,2.960743606090545654e-01
1.429855298084334869e-01,1.723255582818428860e-02,-2.371924227335321655e-02,-6.873698645321127398e-02,1.831079719815872052e-03,7.259154812828170307e-04,1.919026523828506470e-01
2.402348363312832302e-01,-2.414216422893974978e-02,-2.257062261573378192e-02,-7.725828839165253467e-03,6.995240434378355993e-03,3.952003217562649259e-03,2.643007934093475342e-01
2.039341000343141141e-01,-1.125161591436915631e-02,-1.204253604050965765e-02,1.212347219038220625e-03,-1.834850108486189824e-04,5.809459795091065359e-03,2.158274203538894653e-01
2.726215599987873439e-01,-2.195017386069469945e-02,-2.364892799793948119e-02,-1.088497255784548175e-03,2.152349295772299897e-04,2.054366243295498265e-05,2.954310178756713867e-01
2.590336504745883173e-01,-2.195177961873466532e-02,-2.636582798264031080e-02,-2.825535757401499704e-03,7.642082096096765656e-03,6.697120337744145134e-03,2.838067710399627686e-01
2.761586855672266694e-01,-2.610807087619253231e-02,-1.137914081406413147e-02,-1.990971173117097117e-04,2.931835511708950643e-03,1.129589704558787468e-03,2.952283918857574463e-01
2.708679478619598346e-01,-2.187064176718339636e-02,-2.601657500790736932e-02,2.766364782579114681e-03,-1.009560509185026449e-03,3.640323196928665130e-05,2.948775291442871094e-01
2.544357856444341426e-01,-1.641588808143533418e-02,-3.370098316926091464e-02,-4.653253872616777437e-04,7.729023474331939841e-03,1.072267997527242243e-03,2.802220880985260010e-01
2.238879068344878376e-01,-2.482474299886686109e-02,-1.106685324803752257e-02,-1.158807863170326861e-03,6.791289844606310504e-04,6.834730794458167670e-04,2.421410977840423584e-01
9.438389454677059698e-02,-3.026833720824306101e-02,-2.958422043229862880e-02,1.280795914881858837e-02,4.246708777289082831e-02,-7.389589960348979603e-04,1.461420506238937378e-01
2.645561326807253089e-01,-2.144104547278043171e-02,-3.130507822669822970e-02,9.866765645080574024e-04,8.509032252280252168e-04,1.759505976737310573e-03,2.910792827606201172e-01
2.683004561715974234e-01,-2.304620910626717367e-02,-3.019008790099494965e-02,-1.082491352962848064e-03,3.087334673288378347e-03,2.905543271085905908e-04,2.950383424758911133e-01
2.692475293332685649e-01,-2.048885127886897195e-02,-3.048508460519183672e-02,4.185815316252515343e-03,3.501576300184749621e-03,3.391498724813321076e-03,2.950715422630310059e-01
2.550900130743970484e-01,-1.862986130168843568e-02,-3.180996598235548423e-02,-2.737189366729924755e-03,5.312928798940552352e-03,3.227696923484395242e-03,2.807888090610504150e-01
2.697979303316470068e-01,-2.231080712013243372e-02,-1.986840369763018255e-02,-1.022366383755572272e-03,2.443126754579357874e-04,-2.019181873266411107e-04,2.909011244773864746e-01
2.765313625669958419e-01,-3.172643580750524051e-02,-1.575156031475080654e-02,-7.461985112896820337e-04,8.719335134442359955e-03,-2.533467680811791133e-04,3.009711503982543945e-01
2.711953548709047368e-01,-2.419423462393309465e-02,-2.250554713309338428e-02,1.584732104121367282e-04,-1.646546672612370402e-04,-1.662379262221310924e-03,2.945632040500640869e-01
2.709513919609579657e-01,-1.095783594978974596e-02,-1.913056110417256372e-02,8.212169139695628395e-05,-1.376778262850804541e-04,-1.909502280153000612e-03,2.861024141311645508e-01
2.686922031081776518e-01,-2.219204777604791290e-02,-2.525600257224096257e-02,5.836069318446537087e-04,-3.969724664870952560e-03,-5.601414336607220268e-04,2.925124466419219971e-01
2.775607919577479654e-01,-3.045954722469670917e-02,7.468784858608634725e-03,1.394281938967361365e-03,-5.050495749494422179e-05,3.280943929602712222e-03,2.909820079803466797e-01
2.700440817869144139e-01,-2.345820645958096584e-02,-2.326371905935356588e-02,-8.929440210925923614e-05,-1.186899272660194059e-03,-1.086511448434449153e-03,2.934183776378631592e-01
2.697829018293073089e-01,-2.575132083219083823e-02,-2.757174447486479552e-02,1.550085028076102624e-04,-7.817743275137919653e-04,-6.867364853153956920e-04,2.964542210102081299e-01
2.699195696748156736e-01,-2.168178276635195079e-02,-2.001622078655798664e-02,3.895575624528218499e-04,1.494756387024000818e-03,3.836530775370860803e-05,2.907844781875610352e-01
2.631108380032205485e-01,-2.330072680699982191e-02,-3.028036742688619554e-02,-7.437723209752417942e-04,-5.946385605038415631e-04,-4.515528506638608335e-04,2.899701297283172607e-01
2.688829152476079898e-01,-2.379000609472679828e-02,-2.244529527365746180e-02,-6.086660035845970320e-04,7.654587175331993088e-04,2.049200753849595694e-04,2.920080125331878662e-01
2.006642067345825176e-01,-2.203119477847063912e-02,-5.424794858546591603e-03,-1.354523958085279527e-02,-3.528156874497163226e-03,-3.995413023354001635e-03,2.163480967283248901e-01
2.661189148312609887e-01,-2.051414617664588935e-02,-3.319298575347709446e-02,5.326651909174338635e-04,-3.063731802673023627e-03,-9.554211835744870181e-04,2.932323217391967773e-01
2.606677866669305788e-01,-3.436322416533567348e-02,-1.745718405755210256e-02,-8.934822593144126079e-03,-3.390045645693627423e-03,2.275063587088729214e-04,2.874290049076080322e-01
2.653524746634214893e-01,-3.042322213705568601e-02,-2.318935985486035578e-02,-1.400352704461739701e-03,6.283517670660672145e-04,-1.084272696133243121e-03,2.922440469264984131e-01
2.413998832682905382e-01,-3.190749132039519265e-02,-1.071515253687883862e-02,-7.276265517144523895e-03,-1.781133967373799403e-03,-1.762386624780415889e-03,2.636885941028594971e-01
2.632445123763157424e-01,-3.468312457989425335e-02,-1.770408228222276892e-02,-1.310196746535129088e-03,1.699826262058866562e-03,-1.723171759250472727e-03,2.898505926132202148e-01
2.519481591703348622e-01,-1.525064618700196217e-02,-3.461858786204800864e-02,2.697855316519345327e-03,-5.000065691579534677e-03,1.254960623759774577e-03,2.775733768939971924e-01
2.324340787588997648e-01,-3.180784800591859862e-02,-1.300475858734762014e-02,-7.666855105531266215e-03,-5.587153248960631709e-04,2.042582617330985682e-04,2.557072341442108154e-01
2.328174339712323071e-01,-3.127088376057134134e-02,-1.225564122313815840e-02,-8.709531511912279450e-03,-2.111107661068722800e-04,-2.973878853088803269e-03,2.556105554103851318e-01
2.454306493735673167e-01,-2.004865307269466934e-02,-2.218033483337368550e-02,-1.622662904083088317e-02,2.502487118795818739e-04,4.701155482134303340e-04,2.680307626724243164e-01
2.638452731647261684e-01,-3.267803281109034341e-02,-2.107930165838670100e-02,-8.734272121036536218e-03,-4.624776648934684998e-04,-1.938497812835003262e-03,2.913109660148620605e-01
2.639526576324062179e-01,-3.111286975285322554e-02,-1.993998246844500000e-02,-4.288369384097237731e-03,6.750748852744931083e-03,1.900821430021754771e-03,2.899905145168304443e-01
4.214983760791618517e-01,-7.492860953904975641e-02,6.232085061360748135e-03,5.887534642588684343e-03,3.474238646117779744e-02,-1.032689907231444833e-02,4.655979871749877930e-01
2.464976095335741080e-01,-3.287461432340495204e-02,-1.456621385278931979e-02,-8.805941051479384413e-03,1.745998731551449750e-04,-9.004754378493719669e-04,2.711168229579925537e-01
2.524059027469767180e-01,-3.309790607944212981e-02,-1.721870868150089662e-02,-3.051719514031023088e-03,-2.218026832612603975e-03,-3.122895070572687982e-03,2.780340909957885742e-01
2.594786837628131337e-01,-2.112781470125341121e-02,-3.135712240151720953e-02,-1.332695614185961698e-03,5.789788819444531900e-04,-1.227328366518067818e-03,2.858774363994598389e-01
2.684005463850480666e-01,-2.208215442047628541e-02,-2.196109677698468432e-02,2.358490954954120858e-04,-1.146145570203952304e-03,1.143924899681129665e-03,2.904360294342041016e-01
2.659888870580765508e-01,-2.299117099135290776e-02,-2.971267081603576332e-02,-1.182664794403578447e-03,-2.961185745305597045e-03,-9.530494863360225357e-04,2.924555540084838867e-01
2.779101409246820253e-01,-2.419913537863478681e-02,-1.291432348975550537e-02,3.740495265044053476e-03,2.637336861773401011e-03,-1.814096298283985904e-03,2.967504560947418213e-01
2.629472682495624380e-01,-3.459948668856507870e-02,-1.774959417851643129e-02,-4.846448112358469479e-03,1.573370930360446819e-03,5.888224569943524702e-05,2.896243333816528320e-01
2.352172935125976250e-01,-3.252836221528879190e-02,-1.360616469649741922e-02,-8.894869978729992577e-03,1.298555204660153039e-03,-5.473999946686863459e-05,2.592718005180358887e-01
2.719428487843580933e-01,-2.210376046884347800e-02,-1.143486344661899523e-02,1.760455328993658017e-03,1.658271138958262222e-03,8.280164996070102715e-04,2.888939082622528076e-01
2.328965301055571369e-01,-3.094066272574917675e-02,-1.220513734065614697e-02,-6.921033676790762368e-03,-2.520098709661442371e-04,-3.714701098516729871e-03,2.553492486476898193e-01
3.182196656693858650e-01,1.516317393007550474e-02,-4.460060674420071591e-02,1.649716308788985990e-03,3.845599354686659926e-04,-3.007482921447917658e-03,3.369903564453125000e-01
2.632766547548602842e-01,-2.248515778840780299e-02,-3.104067666573914752e-02,-5.243147248732244955e-04,-8.485123842178384770e-04,-3.333668073899398020e-03,2.901967763900756836e-01
2.634539299815559787e-01,-2.160495863757901092e-02,-3.312437570417828270e-02,1.931582279034837330e-04,-1.616210287092578529e-03,-2.796485445784537786e-03,2.910436093807220459e-01
2.671135586224235303e-01,-2.517617873199397283e-02,-3.040677735222552247e-02,-1.389290234414595863e-04,-3.779876346718805190e-04,-1.164290415378127627e-03,2.949475347995758057e-01
2.680876940346609838e-01,-2.124184780956843432e-02,-3.144791004376390475e-02,-9.259956841268987809e-04,-3.744230735043246731e-04,-5.545590722711609940e-04,2.945718467235565186e-01
2.623684097357684708e-01,-2.350563168451864915e-02,-3.057711205286030298e-02,-4.396045676131849167e-05,-4.822213349466990826e-04,-2.325563288684258465e-03,2.895038127899169922e-01
2.628425221804466805e-01,-2.157596073195267028e-02,-3.019713439770038699e-02,-1.383223097988579213e-04,-1.145298971727021220e-03,-1.362067709287524339e-03,2.888421416282653809e-01
2.737324343716456276e-01,-3.788739038019206529e-02,1.346258408031750231e-03,-7.780372922940082675e-03,-1.389284981739658670e-02,2.169004943806092291e-03,2.952879369258880615e-01
2.503433587273040661e-01,-1.510335890285095795e-02,-3.215413212626588857e-02,2.002713814439256636e-03,-2.878953131951586173e-05,1.344950459581352497e-03,2.744015753269195557e-01
2.719438599874359763e-01,-2.226993650408039260e-02,1.518090794501644747e-03,-1.507517129278829497e-03,-5.375015581834214837e-04,4.969291297748501014e-03,2.832148075103759766e-01
2.560701080744028912e-01,-1.661045445376584107e-02,-3.706822597296566268e-02,3.717783682592602887e-04,3.963872989691799364e-05,-3.510899642777875139e-04,2.834650576114654541e-01
2.576498285173318692e-01,-1.729139853729143306e-02,-3.550934805679004103e-02,2.528869588354844440e-04,1.609068184840525004e-04,-1.209243729682595849e-03,2.844962179660797119e-01
2.776978795248437049e-01,-2.951889247628133872e-02,-3.114401040815992228e-03,3.059156348228925237e-03,4.669197318923019001e-03,5.222226742292761063e-03,2.951994836330413818e-01
2.743295417032912686e-01,-2.366244889949092878e-02,-2.947489313876019978e-02,-5.262261698979009503e-04,-5.155121380972270580e-03,-1.367922507610594982e-03,3.010834455490112305e-01
2.582963184202233808e-01,-2.353499954702088781e-02,-2.706599295292122509e-02,7.274757889456872489e-03,-4.755864365440926056e-03,5.560979663642820134e-03,2.841758131980895996e-01
2.468715080841434872e-01,-3.161324732129799919e-02,6.681630889528208939e-03,1.383630159420195724e-02,-4.566862602306352020e-02,-2.074872158491468735e-02,2.765473723411560059e-01
2.729488572084027842e-01,-2.699439504423195579e-02,-5.284926667043443604e-03,3.190420993896234212e-03,1.999229160787799678e-03,2.094870626394524336e-03,2.897953391075134277e-01
2.782402447686593838e-01,-3.268238909309603701e-02,7.181804326336055366e-03,1.176184990026235512e-03,4.194220383765658380e-03,2.614850849729906390e-03,2.931634187698364258e-01
2.096863640532782846e-01,-1.273612021052436538e-02,-1.390533176811387106e-02,1.592941059774032400e-02,-8.013642454579753688e-03,5.617514119206640753e-03,2.253480702638626099e-01
2.297568569109479375e-01,-4.934461048718347120e-02,-8.786251929228383606e-05,3.542508036533651566e-02,-6.340399387654344077e-02,-2.903596180071585028e-02,2.914283573627471924e-01
2.704471626900992742e-01,-2.488119688603133983e-02,-2.423717401159598828e-02,1.122900863874702268e-02,-1.718118603462056443e-02,-4.623842835351998914e-03,2.972491383552551270e-01
2.884324899237686868e-01,-6.219142858679993502e-02,-1.918027777875822015e-03,2.877214708528704618e-02,-7.238533754218318128e-02,-2.654573977200628057e-02,3.546169400215148926e-01
2.614508349665116693e-01,-2.341058090910277945e-02,-2.236881668346150931e-02,9.306400707453164889e-03,-4.849368959432153250e-03,-6.258321619207976192e-04,2.849243879318237305e-01
2.563726087076138582e-01,-3.003158848182482799e-02,-1.878522551573205690e-02,3.506767114125140914e-04,3.862050988589496516e-04,5.576907583854408268e-03,2.811173498630523682e-01
2.676681784179958390e-01,-2.388774308533044011e-02,-2.482840141069134199e-02,5.998097653364362590e-03,-1.325876235060823374e-02,1.389622100056653797e-03,2.931230068206787109e-01
2.690325958667623141e-01,-2.335025713553064153e-02,-2.520628058720558728e-02,9.883251455146601575e-05,-3.918607085568028524e-03,-8.395242948682239345e-04,2.933974266052246094e-01
2.690682417855815300e-01,-2.139256541420125890e-02,-2.743414292210986927e-02,2.187539419521250701e-03,-6.305544711274495631e-03,-6.204228930076613382e-04,2.937577366828918457e-01
2.689514377685368052e-01,-2.635992249836377477e-03,-1.634003753751622767e-02,-9.000382142465201876e-04,-1.434712871048352684e-03,5.299176520752920012e-03,2.788588106632232666e-01
1.939698088182012503e-01,-1.541834129522708097e-02,-1.385691963131606419e-02,-2.611750284963851310e-02,-2.956172755302081956e-02,-8.341775210930523973e-03,2.199902385473251343e-01
1.534816061817707022e-01,-3.872481579271509766e-03,-1.094264419920117082e-03,-7.125551883546341059e-03,-7.540695645848707884e-03,-1.571483491398623653e-03,1.570387780666351318e-01
2.728860468422655838e-01,-1.298175491939099202e-02,-2.091048138795974232e-02,-7.217780006855910833e-04,-1.530717765456365625e-03,7.997018794704007405e-05,2.899283468723297119e-01
2.741779723754687037e-01,-2.141912438258923579e-02,-1.661622489271562253e-02,-2.228143456774029762e-03,1.376654456431698585e-03,-2.854112495960934226e-04,2.932606637477874756e-01
2.359896014463277181e-01,-1.205990116116940902e-02,-3.150404905403322853e-02,1.266994427026072942e-04,-1.354347440385591378e-03,8.282220260211909388e-04,2.583357393741607666e-01
2.719989346591453749e-01,-2.331990026497132718e-02,-1.902794807614051342e-02,1.109299812841506349e-03,1.812891928909597748e-03,-2.461136837827612679e-04,2.932198345661163330e-01
2.404905934532834133e-01,-2.698089279028897947e-02,-2.018242136200333603e-02,6.212668196720321639e-03,-4.582757001053298744e-03,5.556640084539543611e-03,2.646511793136596680e-01
1.526294460923948160e-01,-1.361025504008732401e-03,-1.114206525927759206e-03,-5.235883964096118247e-03,4.306973375537795378e-04,-1.106380462327287255e-03,1.541479527950286865e-01
1.566708245611945216e-01,-3.224002768798667207e-03,-6.776492563160277371e-03,-1.304732720469199171e-02,-1.719620185224789849e-02,-2.883757169705924040e-03,1.660414934158325195e-01
2.592167298871131398e-01,-2.003478119456493511e-02,-3.408304672420595094e-02,-1.285707350907325849e-03,-1.309871409558596451e-03,-1.019789566520002029e-03,2.865571379661560059e-01
1.529126029307644186e-01,-1.675661105634697334e-03,-6.421191998762044995e-03,-1.388950719637097389e-02,-1.662127368755037318e-02,-3.411264423544658770e-03,1.615429371595382690e-01
2.877260507596246519e-01,-2.830285509419884493e-02,-2.430697464268583019e-02,2.119946653225378286e-02,-1.502949937592355095e-02,-7.832681738735377749e-03,3.175490200519561768e-01
2.665267196168437103e-01,-2.696246734459595285e-02,-2.784377186461964304e-02,1.734827057878168387e-04,-1.065961984746455638e-03,2.218534853466477916e-03,2.939619123935699463e-01
2.631294161415450028e-01,-1.916904568446656243e-02,-3.366596251520499739e-02,-8.196667528741579094e-04,-2.627871259670930965e-03,-1.027427357558123545e-03,2.898636460304260254e-01
2.633371825848091485e-01,-2.140109682990209983e-02,-3.297850291342774298e-02,-1.677952651662109607e-03,-3.038178869354075159e-03,-9.478328260119627284e-04,2.907667160034179688e-01
2.631441599838668099e-01,-1.788071739217281242e-02,-3.506257181684176161e-02,6.901579447578888365e-04,-4.296859378643974776e-03,-1.101018778015404754e-03,2.901020050048828125e-01
2.501069035773298976e-01,-2.216368289662248858e-02,-2.622409376354398192e-02,1.288463867777548563e-05,-4.598156366996237164e-03,5.482075130516775655e-03,2.746031284332275391e-01
2.726916175177587220e-01,-1.323473156220074387e-02,-1.916793109366277115e-02,-2.114815871730321966e-03,-2.921493678140412147e-03,9.015774412445868528e-04,2.890103757381439209e-01
2.456540423777671955e-01,-1.639377567977004513e-02,-3.069156016969160072e-02,7.276705088586497144e-03,-8.989263464914595478e-03,4.354411128877214328e-03,2.703300714492797852e-01
2.686825778068683279e-01,-2.516169633170611819e-02,-2.635453054249739524e-02,4.456245273548557241e-03,-2.989900798553808345e-03,4.476584591612521591e-03,2.946912050247192383e-01
2.668662081919546680e-01,-2.010659204091939933e-02,-3.485332628090075102e-02,8.489859778744511358e-04,1.724777897362539131e-03,9.786154359852907922e-04,2.946467697620391846e-01
2.206589724253659457e-01,-2.716125816292647155e-02,-5.049269698216909963e-03,-1.519784388042339732e-03,-1.587214712166784732e-03,-1.715466239524280690e-04,2.375680655241012573e-01
2.610735870066154263e-01,-2.028347218499940152e-02,-3.392264627180704983e-02,4.930711268203604022e-04,1.505653232464893281e-04,1.802763627442918130e-03,2.884368896484375000e-01
2.624776728368969358e-01,-2.208245116592796875e-02,-3.173562901562600180e-02,-5.464709482643852721e-04,5.208684899606953484e-04,9.254847499629348167e-04,2.895148396492004395e-01
2.678818461792971672e-01,-2.279118093350283869e-02,-3.200585309165390746e-02,2.276031669915294653e-03,-5.088903985080002685e-04,9.967298774586884087e-04,2.954208552837371826e-01
2.782655737237604843e-01,-3.620593191513915565e-02,-4.966897261098585092e-03,2.098052050737988367e-02,-1.265961173737978514e-02,-4.921939095286782979e-03,3.031805455684661865e-01
2.745312217080880246e-01,-2.751023279668207699e-02,-3.757054328465375681e-03,2.610045078654335722e-03,-1.869924718868526577e-03,-4.242416977259282768e-03,2.910390496253967285e-01
2.891166069339405342e-01,-3.867057521075872861e-02,1.732989985715863157e-02,1.045749054301860562e-02,-2.219537973021297461e-02,-1.511184402001873942e-02,3.077585697174072266e-01
3.095289046366231922e-01,-2.123718075648245440e-02,-1.672793836102748344e-02,-2.026731355855208513e-03,-1.759670953882539433e-03,-2.252081509840537718e-02,3.308749198913574219e-01
3.099218425984293646e-01,-2.928136501675204784e-02,-1.592466688378377238e-02,7.060232331166545194e-03,9.941020506029735540e-03,-2.129698833120945850e-02,3.354299962520599365e-01
2.729114778273332709e-01,-2.627249111414491078e-02,-2.790918741757072996e-02,-5.743658321572019457e-04,6.261005088210446368e-04,-2.308042835343137385e-04,3.000095486640930176e-01
2.780980813576472421e-01,-3.668485406002197635e-02,7.426712031023810501e-03,-1.260593849323248840e-03,4.099905563033892121e-03,2.013349658260087278e-03,2.953234016895294189e-01
2.782036389004793886e-01,-2.622159954569081020e-02,-4.233135967954063106e-03,-2.166850126211599878e-03,-2.434902641864280116e-04,8.796184223968701518e-03,2.944669127464294434e-01
2.808408070679990765e-01,-1.975780059555298784e-02,-1.649873610450684758e-02,-5.246348711935918709e-03,-2.581239660753973601e-03,9.695759423602677216e-03,2.996248602867126465e-01
2.971149892249899116e-01,-3.120803790318257831e-02,-1.266413773384116037e-02,2.368377765471886033e-03,1.397962072625654828e-03,2.501310533372699384e-03,3.195198774337768555e-01
2.615684414874858144e-01,-1.679365719366625320e-02,-3.034613284489948160e-02,7.844320160064683842e-03,6.370017902020022431e-03,-6.434658000193922353e-03,2.861331403255462646e-01
2.731927641783576943e-01,-9.660961365677178669e-03,-2.078111897498793881e-02,-1.489929840486265734e-04,7.883385679051539740e-04,-1.829719260972972666e-03,2.885952889919281006e-01
2.755611819843085120e-01,-2.646044276420783659e-02,-1.358052445477105075e-02,5.510833529630632457e-04,6.450266712693240000e-03,1.699108549199756808e-03,2.960191369056701660e-01
2.515825195628446087e-01,-2.793630526380186385e-02,-2.012807607861064052e-02,8.833768572264168867e-03,3.046757708012259695e-03,5.357251269104203704e-03,2.763281464576721191e-01
2.662389897083665691e-01,-3.360210638960872687e-02,-2.118616810913138970e-02,9.250374000098699270e-04,-1.564544509260660621e-04,1.306291612381925123e-03,2.938431501388549805e-01
2.543386827871749745e-01,-3.073782420446284636e-02,-1.806153416712742710e-02,7.555629288481243572e-03,-6.362552271413516930e-04,2.940811177094342001e-03,2.793098986148834229e-01
2.639581457037958878e-01,-3.326249321297627959e-02,-2.034708526481167346e-02,6.203915337758697263e-04,5.933342702563667052e-04,4.464812287868928425e-04,2.909828126430511475e-01
2.683496929050122048e-01,-2.586700953950661630e-02,-2.291138482345378424e-02,9.250169733286708299e-05,2.289075870385703405e-03,2.556175053560125662e-05,2.927769720554351807e-01
2.800713592469454283e-01,-3.725261667767196250e-02,1.785043365802033155e-02,1.775612384938833176e-03,1.060016626100132673e-03,1.800158524132609546e-03,2.937139570713043213e-01
2.861165297890364556e-01,-3.381325995201955870e-02,-4.549088540848483797e-04,-3.456354685638901147e-04,-3.925130061195727070e-03,-2.719065004008577868e-03,3.047364056110382080e-01
4.316761365830784625e-01,-4.428807348082747231e-02,-3.153275164648663975e-02,6.233556370491319387e-03,2.919045858859712489e-02,-3.857868048044141990e-02,4.772539436817169189e-01
2.732306995619084300e-01,-2.961849602153776573e-02,7.657124874750703691e-03,-6.603037315156954539e-04,-1.036816770178826180e-03,3.424455332401811231e-03,2.861082553863525391e-01
2.642950492375075733e-01,-2.831421493234058395e-02,-2.426299981512936021e-02,-1.143915743807548879e-03,1.097195932815720745e-03,2.451004062689400229e-03,2.906488180160522461e-01
2.667164893309867946e-01,-3.026999706820915348e-02,-2.422595778887501328e-02,-4.785525820227802670e-04,1.207644873416543639e-03,1.411612168450511809e-03,2.940298318862915039e-01
2.632218791536887204e-01,-3.305211194565128852e-02,-2.110269698514161130e-02,-7.276699520043374654e-04,2.602983487485224182e-03,1.389669492450596204e-03,2.905313670635223389e-01
2.622546874539931072e-01,-3.361567741052896852e-02,-1.986696020815628683e-02,-8.468172953831760693e-04,1.431710771566783004e-03,1.209151246759342232e-03,2.892630994319915771e-01
2.668354150705579686e-01,-3.268099812346428323e-02,-2.270543177519991629e-02,-2.356248659112814697e-03,-6.692361051915079843e-04,9.156401531478176783e-04,2.946901023387908936e-01
2.724004215946950191e-01,-5.725708647060859247e-03,-2.370371385294554878e-02,-5.972353269065794508e-03,1.038366910523707198e-03,6.854092564666996318e-03,2.879734039306640625e-01
2.756914798842881598e-01,-2.634556380645439178e-02,-2.779577643234609763e-05,1.713805089324887867e-03,-8.854273414559286817e-04,-2.967311393850114234e-03,2.898406982421875000e-01
2.788336964665410478e-01,-3.431944703087852488e-02,1.174784173600716686e-02,2.296635031377600600e-03,5.499737004696438102e-04,-1.155030731697039145e-03,2.928851246833801270e-01
2.686900615447807561e-01,-2.463975289780975797e-02,-2.721971305245922401e-02,2.355701307089925350e-05,-6.493008583329636096e-03,-1.317268286529375875e-03,2.948516607284545898e-01
2.737925416351858487e-01,-1.358696659776194304e-02,-1.913275972053052332e-02,-1.810996317919972513e-03,2.073629428461376198e-03,-7.977810664011943413e-04,2.902346253395080566e-01
2.559971990594414604e-01,-1.742612541173685359e-02,-3.517358238589456121e-02,-5.574146167929454939e-04,-1.771520830490312757e-03,-4.941616947421799237e-04,2.827347517013549805e-01
2.778171587416084498e-01,2.251843663611016733e-03,-3.248947801326157458e-02,-4.840229810180468432e-03,-6.414351933041700753e-04,3.319580281177101060e-03,2.946545183658599854e-01
2.711843160184063684e-01,-6.476398031975943992e-03,-2.420117896776084743e-02,1.911036474816294427e-03,2.053329241681475185e-03,2.774380762605164683e-03,2.870153486728668213e-01
2.747254751134807771e-01,-1.649321157476288380e-02,-2.394398800206892775e-02,-2.908221776585745259e-03,1.683549891539254644e-03,3.981247051358231836e-04,2.950728535652160645e-01
2.695217677689958902e-01,-6.771406776950802953e-03,-2.564597422549792782e-02,-1.258334775930638680e-02,3.783566832972213700e-04,2.771817811012140028e-03,2.870672047138214111e-01
2.694949163543668980e-01,-2.686836137467024654e-02,-2.226446094818698707e-02,-3.767146169190250214e-03,9.023254170927492730e-04,-4.029558425594780046e-04,2.941657006740570068e-01
2.427744735665817999e-01,-2.872800267427817744e-02,-1.584391131822578125e-02,1.607096236316367735e-02,-7.576373449264791129e-03,3.858138783450830358e-03,2.671576738357543945e-01
2.570700160621340324e-01,-2.307608893202202360e-02,-2.097099049300836515e-02,4.078665953176885059e-03,8.568152723067793894e-03,-5.474195736637989165e-04,2.795846462249755859e-01
2.780297242202627306e-01,-2.565202371769631506e-02,-2.483011481515107199e-02,-1.497840527498115132e-03,-2.417953361409850861e-03,-1.656698550053084962e-03,3.033252060413360596e-01
2.568199342873053181e-01,-1.741503916438716382e-02,-3.612724044372161991e-02,-9.534391981606917844e-04,-1.972016919623997225e-03,-8.415847690128148376e-04,2.840827703475952148e-01
2.549562556090133603e-01,-2.063818478250900590e-02,-2.766690017426984283e-02,5.408793109225380757e-03,6.306904443637182008e-03,-3.965728666965790718e-03,2.796302139759063721e-01
3.077231654850977050e-01,-4.189525929047596686e-02,1.138368807271387950e-02,7.297613119292648345e-03,-1.102151112328904163e-02,1.604075025549141567e-02,3.282384574413299561e-01
2.492314240340832987e-01,-2.062371292893792896e-02,-2.407056295623431763e-02,4.580033606363639702e-03,-4.962922889646672556e-04,-4.904901224838870318e-03,2.718449234962463379e-01
2.245020838577058142e-01,-1.922099128013816938e-02,-2.059572308798102158e-02,5.194305451601192829e-03,1.441471117897967849e-02,-5.641237411515395879e-03,2.460439950227737427e-01
2.599019300293597401e-01,-1.699343017918845955e-02,-3.749080137532644075e-02,1.374741771613795065e-03,-2.369805184377614306e-03,4.668028499747555035e-04,2.877324819564819336e-01
2.705178260027509829e-01,-2.565805165531573340e-02,-2.372130770608668615e-02,-1.673215868790893859e-03,-1.774080988210833404e-03,-1.344726547064717826e-03,2.952516674995422363e-01
2.701964787349068198e-01,-2.651125212884378191e-02,-2.243432458973419752e-02,-1.080213346121930386e-03,5.872078351426983410e-04,-1.356840970327083764e-04,2.946982085704803467e-01
2.593929011672497231e-01,-2.850076148666071119e-02,-2.284034858769069809e-02,4.540164181839907026e-03,7.948902566928253352e-03,-6.111929744434248940e-03,2.857423126697540283e-01
2.632125301140624263e-01,-2.057832016104946260e-02,-3.490284201230711703e-02,-8.880205874949480879e-04,-4.285137349151704571e-03,-9.602336065692080626e-04,2.913208305835723877e-01
2.591238820774581231e-01,-1.754497046721509301e-02,-3.407612239693412481e-02,3.677352887836403948e-04,-3.139802502725649191e-05,-3.098582476641269863e-04,2.852950692176818848e-01
2.631920987725945293e-01,-2.403153216727292596e-02,-2.792377907180003394e-02,-1.242453203845278248e-03,-7.235536675551775205e-04,-2.344877235665912985e-03,2.892286479473114014e-01
2.824761311231446248e-01,-2.330867239887435272e-02,-2.299033350221479921e-02,-6.638706651592440888e-04,6.199183581321529579e-03,-5.477402967253433737e-03,3.059636056423187256e-01
2.708887777645695438e-01,-2.360681991231843024e-02,-2.183999916187845391e-02,2.089869609908733342e-02,3.256513250920917840e-02,3.732922472771502999e-03,3.012374341487884521e-01
2.725756737052211776e-01,-2.594905127202061512e-02,-2.569579923296984314e-02,-6.128380642744987005e-06,1.190347853815587695e-03,1.183440479689377425e-03,2.984123528003692627e-01
2.719959331709050909e-01,-2.446037854309558723e-02,-2.388131319450725876e-02,1.096800131857380255e-03,-8.847555161909268439e-05,-8.965789733716810882e-04,2.961774170398712158e-01
2.715264320664135811e-01,-3.095992100202187014e-02,-2.295892966544418878e-02,-2.169456395171735015e-04,3.703618710785453274e-04,-1.546355054254292373e-03,2.985792160034179688e-01
2.501011520715057945e-01,-2.404544924227806912e-02,-2.228513894305217402e-02,2.157001688380283410e-04,4.265389000247072834e-04,5.043295604192333040e-03,2.734115421772003174e-01
2.752942444061384775e-01,-2.751428470880931676e-02,-2.423497945751508509e-02,-1.828669470487832502e-03,-9.703373859344184733e-04,-1.662340966379147059e-04,3.012037575244903564e-01
2.619728499215473461e-01,-1.955673325021967113e-02,-3.435061087844207273e-02,1.951005854636797543e-03,-8.879732651823849660e-04,1.264994793596640847e-03,2.892425656318664551e-01
2.657515210798262473e-01,-3.372652494411158830e-02,-2.150790159458948470e-02,-2.526206054766453983e-03,1.658439716401918958e-03,-3.122027211033660691e-04,2.936066687107086182e-01
2.123221298104989718e-01,1.013064274615441129e-02,-6.126237152329275237e-02,-6.693478681353698390e-02,1.478448432391976305e-02,-1.244967370193062091e-02,2.738155126571655273e-01
2.553047191250904513e-01,-1.989738523526887737e-02,-3.098152057189092201e-02,1.885289961319016640e-03,-2.229960946565410704e-03,2.971083915388514352e-03,2.810008823871612549e-01
2.693569903435923396e-01,-3.086348774106387194e-02,-2.364084800554104582e-02,-7.884425463600200357e-04,2.825945519353496253e-03,5.998856368682743516e-04,2.967204451560974121e-01
2.516272813515429974e-01,-3.533710341377256647e-02,-1.588411520028351620e-02,-3.809225475827422019e-03,2.882363683631808697e-05,-1.707426937408943607e-03,2.778433859348297119e-01
2.633360326868440238e-01,-3.372686831796858908e-02,-1.921513271281979907e-02,-3.135957253421596189e-03,1.583936507814107586e-03,2.615044554820270093e-04,2.901435792446136475e-01
2.490732592396308065e-01,-1.361947844187226531e-02,-3.197024700454222101e-02,3.355363321805377580e-03,-7.389663807597592407e-03,2.327315470706272510e-03,2.727245688438415527e-01
2.773496724882293929e-01,-3.338079539514410277e-02,4.889701304501670176e-03,2.358279117562873950e-03,-5.622004269356993197e-03,2.293874550201068299e-03,2.936895191669464111e-01
2.388988300092638739e-01,-1.501761841598112102e-02,-3.069646487683329317e-02,-1.182056476850422335e-04,-6.070266833781986539e-03,3.285895180699945073e-03,2.623804211616516113e-01
2.769222766993381657e-01,-2.587804776191239553e-02,-2.475078217066632724e-02,-1.581052680489749077e-03,8.743850384184733565e-03,2.003415633603054281e-03,3.026497662067413330e-01
2.461016843920555974e-01,-1.876603077968364008e-02,-3.073236557594587193e-02,7.673875711146459569e-03,-1.035286511963103874e-02,3.956597673027167916e-03,2.720528841018676758e-01
2.779155602486759191e-01,-3.421402857777697260e-02,1.291667921750760950e-02,3.070246722434113399e-03,-4.597505445196417052e-03,-1.352877611784310003e-03,2.916032969951629639e-01
4.080818274867777928e-01,-5.213526371688054217e-02,-9.067974452222626880e-04,1.688287671161812706e-02,-2.779120331466870385e-03,-1.718744586392540949e-02,4.388763010501861572e-01
2.683260560868148126e-01,-2.850465310270630659e-02,-2.555725347489903876e-02,-8.420834873855891165e-04,2.206275052781844596e-03,2.193419047652198431e-03,2.954207956790924072e-01
2.774253739441522870e-01,-2.436934905326891554e-02,-9.256207603932684047e-03,3.552894758015461181e-03,-1.154218833930071957e-03,-1.722456085238253118e-03,2.946152687072753906e-01
2.757236089744538043e-01,-2.538420302304855714e-02,-1.607925201462284681e-02,2.540370111632505885e-03,8.700531992669366041e-03,8.761057788929343774e-04,2.969839572906494141e-01
2.649389516029752589e-01,-2.835986188050731993e-02,-2.429834133866880241e-02,-7.352518296899269220e-04,8.725496486772586335e-04,2.453381689221701117e-03,2.913269996643066406e-01
2.687190880313531927e-01,-2.841010545663522069e-02,-2.773310895426285561e-02,-1.788788161952300018e-03,9.881406890390332775e-04,1.840427689923635748e-03,2.968294918537139893e-01
2.714601962696797655e-01,-2.858271787473420922e-02,-2.788140188085132254e-02,-8.779592935792091078e-04,4.318053948375954023e-04,1.846100062391925435e-03,2.997147142887115479e-01
2.788322121369092299e-01,-3.754883351181395601e-02,7.324509302388607090e-03,-3.157555432572351785e-04,5.321267123865450199e-03,5.470063666176784361e-04,2.966473400592803955e-01
2.665566747676905157e-01,-2.826295380111444600e-02,-2.703117673529072118e-02,-1.346127605270547789e-03,-1.544043369104901349e-05,2.430428535294405692e-03,2.942450344562530518e-01
2.623569324383068779e-01,-2.850827707706669878e-02,-2.580163187474414366e-02,5.125817381613844651e-04,1.155214128760454666e-03,3.881396248519416482e-03,2.896077036857604980e-01
2.608199579947219071e-01,-2.121216069919862335e-02,-2.880049309413011682e-02,-5.225543151664137440e-04,4.453710254444628175e-03,-4.507751355152069157e-03,2.861138582229614258e-01
2.818069037066046612e-01,-2.634081782604515143e-02,-1.475401121957263528e-02,-3.539242641651538061e-03,-3.436086892355627413e-03,2.506012599778779330e-03,3.026725351810455322e-01
2.423346420442502036e-01,-1.481431300252847305e-02,-3.489972076043973415e-02,1.365746653396612310e-02,3.401003787787743732e-02,-4.876370422739351868e-03,2.753087580204010010e-01
2.719307540533691392e-01,-2.288550736690632414e-02,-2.078250331950814989e-02,1.400079453291899496e-03,-8.666666312410035728e-04,-1.152744892309766068e-04,2.937843203544616699e-01
2.224739057670847842e-01,-2.750250018122789297e-02,1.157430345916740655e-03,3.897959543991771914e-02,5.437109925439062574e-02,1.000269638715101973e-02,2.643337547779083252e-01
2.680322048742912466e-01,-2.047689593154759791e-02,-2.635931036688640705e-02,3.819727646519454484e-03,-8.389589067490254085e-03,-6.225433520875209010e-05,2.919318079948425293e-01
3.341974837692881506e-01,-2.166809508790995542e-02,-3.002631746764672371e-02,8.356276229625914792e-03,-2.531834831673772726e-02,-3.579947943910433833e-02,3.683231174945831299e-01
2.008590826792491790e-01,-5.670786523280041402e-03,-2.502781851405164182e-02,-7.636705388219972588e-04,-1.289931627383978513e-02,5.751931978963715922e-04,2.180114835500717163e-01
2.742203751375865695e-01,-2.237438109931411123e-02,1.515169475301378355e-03,1.768273269725254698e-02,3.212555827397720748e-02,2.448298323788034372e-02,2.954421937465667725e-01
3.467696091348632659e-01,-4.665714756939795538e-02,9.546830196311931194e-03,1.021600596691041134e-02,6.866515069605691468e-02,3.529759207463729204e-02,3.924626410007476807e-01
2.921921432722464074e-01,-3.812434335177150579e-02,1.375644206159717942e-02,1.077478489197030223e-02,1.612852600334444171e-03,1.760647824172658499e-02,3.097572922706604004e-01
3.002889135559855260e-01,-2.178897830595261098e-02,-1.369966102776291883e-02,4.195751173279505669e-02,6.427536633239397390e-02,2.150519273204997556e-02,3.467807769775390625e-01
2.567281010694998367e-01,-1.545917789079664928e-02,-3.739798620138511109e-02,3.843228081256618044e-04,-1.362072569361483070e-03,4.112203230377442558e-05,2.838039994239807129e-01
1.969532308574550306e-01,-4.968273691924748880e-03,-1.524933945953370340e-02,-4.189357225195944464e-04,-5.598445145250813835e-04,-1.280847177035794333e-03,2.072687894105911255e-01
2.072589105102705109e-01,-3.688512814116945426e-02,-4.750893603167660739e-03,2.389875804140853544e-02,7.459768572427145916e-02,2.361431014879175269e-02,2.699524760246276855e-01
2.718580289423739305e-01,-1.819873491005943866e-02,-1.478745642341547373e-02,-1.084002165376532273e-03,-1.024960296588159955e-03,3.561504708841073787e-04,2.883785068988800049e-01
2.709116039765811501e-01,-1.697401599730322119e-02,-9.057558529292242255e-03,-1.444721208995979316e-03,-7.560757517448286457e-04,4.522318638419705987e-03,2.841321825981140137e-01
2.700795632917676325e-01,-1.868543095173234858e-02,-1.768189384552545929e-02,1.316078519257160096e-03,1.990593263045352509e-04,6.224954163754490210e-04,2.882757782936096191e-01
2.697578753734084511e-01,-1.914447076738533260e-02,-1.828378022661730773e-02,1.204810530685003326e-04,1.469693049801356613e-03,1.233764306379905862e-03,2.884921729564666748e-01
2.696340088025755977e-01,-1.914014723298644582e-02,-1.788551902665801163e-02,2.691646895294827870e-04,-1.105705905381510661e-03,-3.437308725504211750e-04,2.881562411785125732e-01
2.634116722280545608e-01,-1.965873864728862053e-02,-3.496845320795197165e-02,1.270449882245467321e-03,-2.800627442193268524e-03,-1.992816948924188911e-03,2.910966575145721436e-01
2.688696995647079646e-01,-1.595664257265408392e-02,-1.635550497417777305e-02,1.247922683454568381e-03,8.281727363770070719e-04,3.781184026874837684e-04,2.850385308265686035e-01
2.767112611373756526e-01,-2.589165717502205089e-02,-4.586741025367074842e-04,3.680847100984389365e-03,-3.283462466430080769e-03,-6.759157449200910855e-03,2.910830080509185791e-01
2.332029069510641317e-01,-1.351474385431060410e-02,-3.064870592553778361e-02,3.002343186960126941e-04,-1.151298370343741342e-02,2.959325598082931767e-03,2.565435767173767090e-01
2.719620427734373846e-01,-2.821882684180679335e-02,-2.656029493723637003e-02,5.259493711459574481e-04,-1.893576020582602847e-04,1.813307630996566119e-05,2.993566095829010010e-01
2.831902200169474360e-01,1.524496182232554231e-02,-3.740738637332885475e-02,3.416771268310529047e-03,2.677934477441737925e-03,1.827400011549622227e-03,2.978950142860412598e-01
2.714843222315609372e-01,-2.368058929752761554e-02,-2.367870913285290146e-02,3.656458069516311127e-04,8.896076339419238532e-04,-9.971809586242061287e-04,2.951737344264984131e-01
2.815061295362810689e-01,1.017449564380661087e-02,-3.665534682326351823e-02,-1.007890813161349021e-02,4.892019562156056135e-03,4.688953668506967709e-03,2.982663512229919434e-01
2.773026271489894556e-01,-5.971011861502520390e-03,-2.771968587802205175e-02,-1.417864143379518951e-02,-9.915792989936288854e-03,5.667926513308324012e-03,2.964324951171875000e-01
3.020449694972745514e-01,1.162927557739838746e-02,-4.865125545793913542e-02,-1.606107479481089576e-02,6.149256361078076806e-03,1.371424920602325051e-03,3.261508643627166748e-01
2.802037871773381816e-01,4.855986277123622297e-03,-3.612636345110112335e-02,-4.665751177203777793e-03,2.812927297674111711e-03,-1.422114867339927240e-03,2.981199026107788086e-01
2.787318860019457611e-01,1.259801059629583886e-04,-3.667678949143290956e-02,2.811922644509421212e-03,3.773938912512399962e-03,1.463917276085012562e-04,2.988238334655761719e-01
2.461703788181122954e-01,-2.136940531458488002e-02,-2.717264885330926416e-02,-6.131525310403087431e-03,-3.112075659887852865e-03,-5.891354889677611652e-03,2.709423899650573730e-01
3.024927964302064898e-01,-1.176997870587609407e-02,-3.719979023854816380e-02,-1.700519030634121964e-02,7.571764740964064336e-03,-2.307290060330962700e-04,3.293009102344512939e-01
2.818726679413067204e-01,-2.059041172542741549e-03,-3.583805794421698887e-02,3.206265166572550267e-03,3.565021743419733574e-03,-1.587950869975980443e-03,3.023668527603149414e-01
1.153900331885969327e-01,2.048790702513887674e-02,-5.675701712007839850e-02,-6.220692209538421225e-02,-8.738298597618999672e-03,2.174441051424724422e-02,1.885750144720077515e-01
2.077061774827904106e-01,-2.871980264456198972e-02,-1.879669016308178897e-02,-3.370378811806581248e-02,-1.425984032833562537e-02,-7.685905847980170711e-04,2.401442676782608032e-01
1.559149131008141786e-01,-1.687381672925353238e-02,-1.089145045448238619e-02,-3.003014922223089939e-02,-5.573726149284240552e-03,-6.694445325867084441e-03,1.783006489276885986e-01
1.557436199301721058e-01,-1.906273071707778599e-02,-5.766551440925693495e-03,-3.053844387280470196e-02,-4.406672501166466333e-03,-9.873352150531847574e-03,1.776465177536010742e-01
2.767840367455604023e-01,-2.745060736575795357e-02,-2.224830331967521391e-02,2.716318960140970320e-03,5.265417423972955369e-03,1.044608713647503977e-03,3.018470406532287598e-01
2.647677982562647303e-01,-2.079162137310149039e-02,-3.040094258090091095e-02,7.145955344423392860e-04,8.561733319148724999e-03,2.059235543700879863e-03,2.908860743045806885e-01
2.574142697079088715e-01,-3.053021059999003195e-02,-2.257128801816198072e-02,-1.210482258901219264e-02,1.187665029623466081e-02,1.576977135719116524e-03,2.855763435363769531e-01
2.707188120293733125e-01,-2.289745596218184520e-02,-3.149200608290331216e-02,1.318421194449918800e-03,3.065654057940147160e-03,1.232170725876825974e-03,2.980701923370361328e-01
1.855277568661794774e-01,-1.627708537204579364e-02,-1.606585413435243637e-02,-3.514622664391418849e-02,1.174912349708750851e-02,-2.321993845933641339e-03,2.117042392492294312e-01
2.739646507363581174e-01,-2.362656061266317498e-02,-2.231673204548020872e-02,3.302892393154950850e-03,5.763673897400075664e-03,3.227315684890897708e-04,2.971618175506591797e-01
2.159490206074947960e-01,-1.713675656669844116e-02,-2.286381654431143828e-02,-2.862084902349452519e-03,3.300823507762205150e-02,1.644219390224902887e-03,2.428950220346450806e-01
2.052773075327281593e-01,-1.116355375255409510e-02,-1.462352260530419557e-02,-1.765466452182101482e-03,1.466869767640939168e-02,1.527447840348809555e-03,2.197028845548629761e-01
2.655075247120848303e-01,-2.077273966181780729e-02,-3.292005003214874825e-02,2.572413126728292096e-04,1.426632251149678580e-04,1.700198607380360349e-04,2.925437092781066895e-01
2.667916948315497416e-01,-2.548108929608064455e-02,-1.721199135638219746e-02,1.989457769021712660e-03,2.699762123043702696e-04,3.849193668046191276e-04,2.882489562034606934e-01
2.761065230689297989e-01,-2.067944701501081561e-03,-2.713230673009627003e-02,-1.862202554920457977e-03,1.010861194240767836e-03,-3.615825200418696424e-03,2.916062772274017334e-01
2.667736340223333391e-01,-2.209258610035513826e-02,-3.242442809512732782e-02,-1.202151296706559539e-03,1.022658099436485162e-03,-3.558424462414489431e-04,2.941815853118896484e-01
2.568859760811682547e-01,-1.718530990669857317e-02,-3.133259537759985891e-02,2.996015152638799046e-03,5.258167963022435457e-03,3.349663462222710747e-03,2.816666662693023682e-01
2.849060432695944556e-01,-1.025422847140390614e-02,-1.414761932934399669e-02,-4.242894138279574190e-04,-3.708559235338028848e-04,-1.691038743590810717e-02,2.985678315162658691e-01
2.578859139237174580e-01,-1.599436367643886081e-02,-3.380053038250520336e-02,-1.234326903457270692e-04,4.880510107435901551e-03,-5.914881978008050718e-04,2.833315730094909668e-01
2.738117554981609469e-01,-1.274503866166358523e-02,-1.993763300159576146e-02,3.579775715344010907e-03,1.503737027625797699e-03,-1.033929727507517521e-02,2.908496856689453125e-01
2.729497469282081701e-01,-8.235441713426980281e-03,-2.647604409928779046e-02,-1.428386091750903121e-03,1.300693029807545222e-03,-1.869459093012332826e-03,2.907722294330596924e-01
2.710421187968183876e-01,-1.579829766526957835e-02,-1.198690217774020517e-02,3.457341626592784554e-04,-2.578156000846591528e-04,-2.493990968625384944e-03,2.849875688552856445e-01
2.724314443333862301e-01,-4.815689423879318531e-03,-1.791743304006190862e-02,-1.133941457893788388e-04,4.266108483944684032e-04,-4.932984532809194834e-03,2.841542363166809082e-01
1.584108719301899337e-01,-7.664358275066340820e-03,-1.200714789419563000e-02,2.280029338355248417e-02,-2.701123933206833055e-02,3.021036037688486393e-03,1.791558861732482910e-01
2.708714768083134161e-01,-1.411667674368209668e-02,-1.521013899275033832e-02,2.367064117686401201e-04,2.112286079923848630e-04,-5.400061262811075256e-04,2.855385243892669678e-01
2.741896955921657164e-01,-2.424312448257903707e-02,-1.271102340578289525e-02,1.503179935721600134e-03,2.811943600127447644e-03,-1.804858729056058909e-03,2.929058670997619629e-01
2.731251690398412979e-01,-4.666942163346149419e-03,-1.989534759059534419e-02,9.216490288686914523e-05,-1.044456080933891780e-03,-5.592054988250505683e-03,2.858807444572448730e-01
2.737409253337432791e-01,-1.577049106159961189e-02,-1.711434561935398779e-02,2.053538564313843202e-03,-8.195967162806238075e-04,-1.867256251958229968e-03,2.902289628982543945e-01
2.740949713764063711e-01,-2.783058062235090058e-02,-5.258977159462302486e-03,5.915427259979133935e-04,4.468086681225005678e-03,7.993968866384757940e-03,2.917297184467315674e-01
3.088165327371100721e-01,-4.099997560026041876e-02,8.776211088701080243e-03,-2.807448186169865154e-04,-5.941733931427055533e-03,1.766050458548830068e-02,3.293608427047729492e-01
2.676534316695999838e-01,-2.496247081615159125e-02,-3.096713987308771787e-02,2.921925666391296848e-05,-1.025372639432464966e-03,2.539831834936306931e-03,2.957020401954650879e-01
2.735938701286323993e-01,-2.552723262276915261e-02,-1.351603615338341224e-02,4.887031413897436087e-04,-2.030990315565789090e-03,-9.488540348273975366e-04,2.933269441127777100e-01
2.711906324959398318e-01,-1.527856559494920885e-02,-1.427661387068780707e-02,-2.395155964254958067e-06,1.891464265692840540e-04,-4.584671388324948168e-04,2.859708368778228760e-01
2.956850574946320309e-01,-2.006880250262083054e-02,1.193509178432847206e-03,4.490028754830018010e-03,5.656615939327313235e-03,2.609534247560636386e-02,3.092544376850128174e-01
2.647426295679797259e-01,-2.638210716120370503e-02,-2.493129437121803516e-02,2.508720175886447207e-03,-4.129134071576755390e-03,2.376548602513754629e-03,2.905517518520355225e-01
2.688540253089788390e-01,-2.644145492054358892e-02,-2.214163232407086179e-02,-5.632239881242009742e-03,-2.306705239291868478e-03,1.173599197459956043e-04,2.933587729930877686e-01
2.701106627811150629e-01,-2.588519312268400263e-02,-2.714026822271953243e-02,-4.229748328354376883e-06,-8.778526604764969911e-04,-8.434918956470609979e-04,2.966328859329223633e-01
3.080716620075704681e-01,-3.917877086445373247e-02,3.086298600239872902e-03,-3.917360590459751345e-03,-1.011170773966766322e-02,1.532406749578891537e-02,3.297725021839141846e-01
2.770407478137403290e-01,-1.375347420138786636e-02,-2.403158104848393539e-02,2.286884810711264059e-03,3.050319187343758249e-03,-1.407081672775633945e-03,2.961507737636566162e-01
2.625704686042132363e-01,-1.914207878939182261e-02,-3.535858306556892428e-02,9.905392337296846112e-04,-8.574508942865565354e-04,5.863759313497038297e-04,2.901715040206909180e-01
3.080405146032573205e-01,-3.514643280378235146e-02,9.670914147523468340e-03,-1.055802636863780418e-02,-3.389409986492989205e-03,9.452238478499205496e-03,3.241019248962402344e-01
2.866314528291250552e-01,-2.524271091804777822e-02,-1.887210363960920012e-02,6.059112370295584304e-03,1.436957082859752254e-03,-6.172168640984615658e-03,3.091114163398742676e-01
2.691180861776369948e-01,-3.104200648771510140e-02,-2.592491531452084663e-02,3.976258993420371014e-03,-1.419893010549118373e-02,1.039853572310130581e-03,2.987337112426757812e-01
2.660102821532683848e-01,-2.138051646140398665e-02,-3.225811178736752438e-02,1.522643204151057994e-03,-2.743643008821781450e-03,8.103706140851186200e-04,2.930348515510559082e-01
2.691771236833722103e-01,-2.373275958380695327e-02,-3.229632372064350498e-02,2.621320739478400288e-03,-1.381809334310463979e-03,3.778945479127943292e-04,2.973292171955108643e-01
2.633004418725636286e-01,-2.703691722955306465e-02,-2.229406551851075002e-02,-3.345634874892291209e-04,-1.486518233800083230e-04,-1.077463396185164395e-03,2.880019843578338623e-01
2.737108003614535656e-01,-2.407309658982036138e-02,-2.666598787122775871e-02,5.393031189761520253e-03,-1.132029549974460959e-02,1.289962569504998031e-03,2.998846173286437988e-01
2.689461911483141954e-01,-2.482392662003467254e-02,-3.036638861238238896e-02,-5.100858735212385978e-04,5.855383578983171331e-04,8.885707327348122634e-04,2.965872287750244141e-01
2.524072802855347741e-01,-4.435765664761831539e-02,1.141623474560370111e-02,-5.718148535098449212e-03,6.407424352014087776e-02,-1.262978573602267611e-02,2.958404421806335449e-01
2.235352134343650543e-01,1.342344520142835229e-02,-6.140519353160925342e-02,-8.037432359603353949e-02,4.854312779837149233e-02,-1.865634843125051762e-02,3.048970997333526611e-01
2.656028410518023186e-01,-2.168862883557340360e-02,-2.950865701740990055e-02,-2.124158094360051145e-03,7.271172506556792398e-03,-3.801764078346159866e-04,2.915763258934020996e-01
2.586797370182813971e-01,-2.921101125265300469e-02,-1.358531398149614988e-02,9.767583664152582306e-05,-3.602295677038138376e-03,-1.601729405777363403e-03,2.804878056049346924e-01
2.690094576590010833e-01,-2.272286968298840859e-02,-3.294083076451234660e-02,8.087829488812140226e-04,1.716007072812709717e-03,1.103240142747154715e-03,2.969974875450134277e-01
1.742189914400427142e-01,-2.180484363441466400e-02,5.278049698717583726e-03,2.157194013478847330e-02,3.940683564163582897e-02,6.224153706055531379e-03,2.000522315502166748e-01
2.544733787450694784e-01,-3.144248284619735601e-02,-1.776542651133709849e-02,-2.185542548781739189e-03,1.715012003346170696e-03,1.885783027366560657e-03,2.793891131877899170e-01
2.546498621150464214e-01,-2.242726851763797435e-02,-2.424687904940803218e-02,3.328626600199109491e-03,2.308971966820344210e-02,5.084013711376195871e-03,2.810505330562591553e-01
2.116902490419278471e-01,1.195748186035107408e-02,-2.806967844240788879e-02,-7.724765979181319464e-02,-5.432083611972005066e-03,2.234274712202781194e-03,2.597983479499816895e-01
1.886011203240738898e-01,3.437086509500683618e-03,-1.765445854854144625e-02,-4.222391137225853242e-02,-1.754721910619810865e-02,1.363658294152381850e-02,2.132278829813003540e-01
2.305514189539682735e-01,-2.686845390375283693e-02,-1.788357523510285263e-02,-2.508042279502251462e-02,-1.106327048428158190e-02,-6.880995920148381961e-03,2.577385306358337402e-01
3.144140457956295376e-01,-4.698253804517943388e-02,-2.374881537859688252e-02,-3.228650749445711315e-02,8.653568984745842185e-02,-4.251642182189519642e-02,3.921303153038024902e-01
2.715736385308623602e-01,-2.292948656744610292e-02,-3.076377164924991303e-02,1.453673833328728666e-03,2.562666744156893127e-03,9.159677409172029775e-04,2.985452115535736084e-01
2.704872559018492995e-01,-2.348278749425580791e-02,-2.484035031285228290e-02,4.718308903850971549e-04,5.696328016250208496e-04,-2.126356156636381798e-04,2.946541905403137207e-01
2.620775865475203914e-01,-3.028053679594208680e-02,-2.361541058847259344e-02,-2.128805045785282790e-03,2.445316390150526040e-04,-2.483160628627187512e-03,2.891390025615692139e-01
2.700509795427163962e-01,-2.284871849495034857e-02,-3.068345889948506655e-02,5.859012853886885926e-04,2.984625456544956219e-03,9.177716239357297480e-04,2.969456017017364502e-01
2.259846069252440803e-01,-2.775602830374776508e-02,-2.677132701366337353e-02,-4.544290263948626285e-02,3.133294545913407805e-03,-1.881509949177621443e-03,2.652747035026550293e-01
1.940936131038075441e-01,-1.717340499494744710e-02,-1.260301790679450862e-02,-4.232431875883187200e-02,-2.310236201730919703e-02,-4.812908085987149115e-03,2.252415716648101807e-01
2.012715529835771844e-01,-2.131175024946660446e-02,-7.854257617539578407e-03,-1.166089287861231914e-02,-8.520509212382915837e-03,-5.033148993093038669e-03,2.177859991788864136e-01
2.539207761737349855e-01,-2.605745912781956553e-02,-2.235731711711705372e-02,-7.683858814807499257e-03,-5.613419957673724744e-03,-1.464093830075569340e-03,2.786460816860198975e-01
1.665918113401879674e-01,-1.048884979684958085e-02,-7.859222292343912009e-03,-2.686713496322729045e-02,-1.324433960012654128e-02,-4.572234112342090165e-03,1.834483593702316284e-01
2.651935609079738576e-01,-1.942170469000149835e-02,-2.214461039727155800e-02,-1.485686875457066167e-02,2.740114892764251939e-03,-2.346042835954667040e-03,2.872097790241241455e-01
2.820074459926648069e-01,-1.876317298694890612e-02,-2.331153443837086225e-02,-4.621360926460258908e-03,-4.714403808079046208e-03,5.579613829718348475e-03,3.034399747848510742e-01
2.741808136415215813e-01,-2.437690945877184212e-02,-6.053988000367799271e-03,9.934237942426278351e-04,1.964888949424105011e-03,-2.802929217929833478e-03,2.898967266082763672e-01
2.198394938143378718e-01,-2.505923006233307104e-02,-1.116231028239418610e-02,-3.241111334213715722e-02,-1.680832402198704839e-03,-2.512747844478012329e-03,2.448346912860870361e-01
3.097024791875134797e-01,-1.815203871581017037e-02,-1.843656848182062546e-02,7.806597369420737245e-03,2.401597004963374870e-03,-2.374329470174213474e-02,3.308675289154052734e-01
2.707395165018507965e-01,-1.866857142684134885e-02,-9.866479654432672164e-03,-2.029709003333504788e-04,-1.248216530383809697e-04,-1.799539984841893106e-03,2.851262986660003662e-01
2.736781029487419525e-01,-2.406894378780720378e-02,-2.405215173817855379e-02,-1.199757889433300095e-03,-1.659665956785057054e-03,-6.974501027910290103e-04,2.977622151374816895e-01
2.706366733555052861e-01,-2.607894740290245261e-02,-2.343649022674730575e-02,-6.761649031294036591e-04,3.795596652495251337e-04,2.043796590217757114e-04,2.954065203666687012e-01
2.767764746061051606e-01,-2.753556415555422077e-02,-2.404384575901584442e-02,-6.921178736381301691e-04,-3.921135626311957338e-04,-1.896982781362977974e-03,3.026022613048553467e-01
2.774902720703800174e-01,-2.520280262417241846e-02,-2.439698843802930173e-02,-7.125993802710257809e-04,-9.886475388914289265e-05,-6.954260310007016183e-05,3.022935688495635986e-01
2.769524179960446419e-01,-2.506401494356598481e-02,-2.600867474179076322e-02,-1.046575973256283400e-03,-1.373235193027781686e-03,-4.004646377109557175e-04,3.025054335594177246e-01
2.766528033119257657e-01,-2.663925743389092271e-02,-2.403503736364834276e-02,-8.078821543348630330e-04,-3.643143245971267605e-04,-3.758325548422989390e-04,3.020029664039611816e-01
2.770715230984244215e-01,-2.594089268377605673e-02,-2.600599491519851869e-02,-9.312058255035945715e-04,-1.380709745620032226e-03,-1.056766761798438132e-03,3.030642271041870117e-01
2.754057875409795519e-01,-2.737826356575910614e-02,-7.431149920111651541e-03,2.717938293578854841e-03,-7.996695042506682047e-03,-1.042055361108103120e-03,2.936897277832031250e-01
2.725285976897188212e-01,-2.155955987512991889e-02,-1.916015061173045875e-02,-9.567339947130816275e-04,1.205650164037662094e-03,6.238533422445036842e-05,2.929079830646514893e-01
2.727938092204380549e-01,-1.959981239060815117e-02,-1.945910676851535237e-02,-7.134560793329426751e-04,1.257142925249800109e-03,-3.452140568748606072e-04,2.923346161842346191e-01
2.724681358851016033e-01,-2.547195408762494007e-02,-2.327182688278489620e-02,2.220842126663740042e-03,-3.199089204904832697e-03,1.110633799040972389e-04,2.969228327274322510e-01
2.771942722682546600e-01,-2.697024162168711048e-02,-2.675062188803263574e-02,-4.108745852326994700e-04,-7.641848492130812577e-04,-2.118977435679000876e-03,3.040806353092193604e-01
2.657704859207981052e-01,-2.499484262390549993e-02,-2.883772832682730825e-02,7.892845215050794776e-04,-3.105294052595810824e-04,1.385749905387258576e-03,2.927192151546478271e-01
2.767495671827292503e-01,-2.563989100677763200e-02,-2.490422597392812076e-02,-1.416156336152389573e-03,-9.158897426725315719e-04,-2.155049460907475895e-04,3.020366430282592773e-01
2.887553864203810106e-01,-7.865812677421715748e-03,-3.712681998728292743e-02,1.084800101832375172e-02,8.081944871312873174e-03,-8.468452732048287884e-03,3.135026395320892334e-01
2.229482103110764224e-01,-2.544092011607426707e-02,-1.692999772070079290e-02,2.115305231376441580e-02,5.622385497561520340e-03,2.863437544813154587e-03,2.472192645072937012e-01
2.307208415194726137e-01,-2.122997774809654015e-02,-2.309109743461613962e-02,-7.425534448002609964e-03,-8.901213492435031821e-03,-7.115605601545279407e-03,2.539815008640289307e-01
2.736426923332148098e-01,-2.699947856765842757e-02,-1.734159848503959156e-02,4.215360231582984153e-03,-2.319533942927128121e-05,-4.801933465499528663e-04,2.960226833820343018e-01
2.513307289663502253e-01,-2.566054564496804413e-02,-2.375163244805647556e-02,1.056310868847407276e-02,-1.257540608019662789e-02,5.878649201218885852e-03,2.776902914047241211e-01
2.576136468930126933e-01,-2.637060195666318663e-02,-2.081657075867029971e-02,1.277918365023849798e-02,-6.589544105600096987e-06,4.696364762962245212e-04,2.821191847324371338e-01
2.611134132593521118e-01,-2.198076042938620911e-02,-2.041230025722982899e-02,1.846613739204180579e-02,-8.908215145439319152e-03,-4.482153664374931810e-03,2.846437692642211914e-01
2.364653202490571982e-01,-1.735867006977094562e-02,-2.706607143700186235e-02,1.819357446437225995e-02,-9.780657055116164997e-03,5.832579592791114868e-03,2.614706158638000488e-01
2.686734708511223646e-01,-2.622339287066928482e-02,-2.607327190756932034e-02,-2.213031378259886915e-04,1.116658661592789261e-04,9.835933704424118258e-04,2.948270738124847412e-01
2.620120467251303431e-01,-2.538120907449271935e-02,-2.771817997329130423e-02,2.455020379153210596e-03,-2.065125882671929158e-03,3.306337367710569363e-03,2.886791527271270752e-01
2.722673011608108817e-01,-2.720629470271196393e-02,-2.826140554332558230e-02,1.929347690268691149e-04,6.582552514018782160e-04,2.897615944322783901e-04,3.000053167343139648e-01
2.890465471239931361e-01,-1.072196320255355828e-02,-4.009625011656545168e-02,3.169174771196716506e-02,1.126738040818296265e-04,-9.629286613476593232e-03,3.206568360328674316e-01
3.270352438536646145e-01,-8.058809441510161875e-04,-3.650984967817738625e-02,6.091159946401042413e-02,-4.288374800052933977e-02,-2.193579555140085305e-02,3.722244799137115479e-01
2.136180043159912889e-01,-2.729532371326143236e-03,-3.227425590725142845e-02,2.865439243190476964e-02,-2.012469535605586335e-02,-1.610265788497849959e-02,2.419239431619644165e-01
2.727567424904702720e-01,-2.339249134872474489e-02,-2.375971662822508323e-02,-7.398614262920722492e-04,9.607288254939742780e-04,-7.557487885848999509e-04,2.963433563709259033e-01
2.575080218477390215e-01,-3.387601567501981326e-02,-1.999277140244598572e-02,-3.679773397385281697e-03,1.300739054091089872e-03,2.356239708600443936e-03,2.848058938980102539e-01
2.717419726417330539e-01,-2.810937868944118900e-02,-2.962314245801513091e-02,2.444810136795949520e-04,-3.314059420992109288e-04,8.928708236342620648e-04,3.006159067153930664e-01
2.712990734845655560e-01,-2.635270626276761674e-02,-2.933470852200679990e-02,-4.140281144622104219e-04,3.646085526289447650e-04,9.167542415312929975e-04,2.991596758365631104e-01
2.732022912403289094e-01,-2.409999423316892819e-02,-2.570555048009036392e-02,3.958190069013825356e-03,-6.402641457625255980e-03,1.102310196450113997e-03,2.983993887901306152e-01
2.657074313373416485e-01,-2.365838294581440460e-02,-2.527660139335423384e-02,2.075289143830873553e-03,7.494547201646360257e-04,9.547235779603377784e-05,2.902035117149353027e-01
2.616815838348309775e-01,-2.457204156270825779e-02,-2.782608378714981900e-02,3.274237173618352488e-03,-4.123876679146576060e-03,1.894377508966693050e-03,2.880575656890869141e-01
2.576568599167659013e-01,-2.032326275134159477e-02,-2.688964282954674212e-02,5.197040759414142674e-03,-6.131556382760902646e-03,1.490370693512350821e-03,2.816768884658813477e-01
2.600603731637204374e-01,-2.243856698888949119e-02,-2.819980987588409371e-02,2.058786019224259720e-03,-1.867673803179455052e-03,5.546286405516975999e-03,2.856253683567047119e-01
2.722219604387108305e-01,-2.310629537653548227e-02,-2.805775394629754504e-02,9.034037623355784495e-04,6.078235825610323571e-04,-5.264913169879056892e-05,2.978408336639404297e-01
2.724383117304031154e-01,-2.160331870341607174e-02,-2.594143563780874906e-02,-2.448636336236811959e-04,-9.191732548182074587e-04,1.029660416168493280e-03,2.962444722652435303e-01
2.635718605352362354e-01,-1.979653098432014591e-02,-3.164144584030080531e-02,-1.207080085267024693e-03,-6.286277153975430333e-03,3.411536818085966760e-03,2.897451519966125488e-01
2.666567870409604080e-01,-2.289672053876193325e-02,-2.663061877314441828e-02,4.131449968162535097e-03,-3.544762879981022859e-03,1.254695676630792961e-03,2.915989756584167480e-01
2.723148820171452655e-01,-2.183202849328508277e-02,-2.192736422236725435e-02,-2.316074486583479886e-04,1.399649831976191271e-03,1.163532748099492184e-03,2.942117452621459961e-01
2.616028117331448133e-01,-1.985300300378772809e-02,-3.242957732767771939e-02,1.946325021747700047e-03,4.385328785621774852e-04,8.495407701859669517e-04,2.879746556282043457e-01
2.635932988342056804e-01,-2.897136578492105763e-02,-2.495734515057078384e-02,-2.989847643656738056e-05,-7.686668516243129424e-04,-3.659510280202967099e-03,2.906506359577178955e-01
2.549724934425664502e-01,-2.320279803561363374e-02,-3.310496027972616162e-02,-1.492095282154431296e-02,2.500810477516630589e-02,1.594720321955112085e-03,2.877252697944641113e-01
2.605498196479684170e-01,-2.161294038704114628e-02,-2.102823920682705960e-02,-1.104451344608618768e-03,5.716618029262683122e-03,1.075600449055503409e-03,2.820573449134826660e-01
2.741320139560133873e-01,-1.845902353555384234e-02,-1.808229582395046164e-02,2.911996643666681182e-03,3.725844521123960465e-04,-9.664292914770697884e-04,2.924518585205078125e-01
2.719120515620959688e-01,-1.571721725624944388e-02,-2.038109568599572041e-02,-5.498691341614224534e-04,3.979344894462473817e-04,-9.100452001788187847e-04,2.899959981441497803e-01
2.166240543779838768e-01,9.339883207863497461e-03,-1.745121320313386404e-02,-3.519671314187293454e-02,5.348327216147604618e-02,-2.377424750469956521e-02,2.514583766460418701e-01
2.714049161706253432e-01,-1.007412354440144486e-02,-1.957484689927901922e-02,2.296333494154003427e-04,1.197295694481317202e-03,-1.535812604116208778e-03,2.863677740097045898e-01
2.074410065700932060e-01,-1.641523682909810933e-02,-1.932404935748699426e-02,-4.184029045081868320e-02,4.708224041126133491e-02,4.472697981747475286e-03,2.504661381244659424e-01
2.771238947742466485e-01,-2.885474845916852216e-02,-1.670052085049833490e-03,-6.528894132576621920e-03,2.062067306699590097e-02,-2.693938187108229493e-02,2.993738651275634766e-01
2.706607915712045953e-01,-1.530452018751994603e-02,-1.233680886799543019e-02,1.406119591613942243e-03,-2.821753685883496895e-04,-2.455766391829485376e-03,2.845357060432434082e-01
1.545639993160216052e-01,-1.303234961143370785e-02,9.264056433676795543e-03,-2.304027932477227536e-02,7.201536667278873871e-02,-1.336373918327636752e-02,2.062421888113021851e-01
2.741516753220426539e-01,-1.875931144004357176e-02,-1.145736555034888859e-02,1.958294062793020963e-03,3.293288333738241479e-04,-1.879082114344956264e-03,2.893678843975067139e-01
2.710177785691450514e-01,-1.538652582450707185e-02,-1.509292286691341078e-02,1.462107522187364780e-03,5.572529088827053679e-04,-4.293267170751868290e-03,2.863669991493225098e-01
2.711135623657038862e-01,-1.799129825468306909e-02,-1.351995961935292812e-02,-3.998571656244894823e-04,2.943433574527754113e-04,-6.255740874489952542e-04,2.868986725807189941e-01
2.638944993144591855e-01,-2.516225881583493418e-02,1.457933843552833286e-03,-4.498808729679355106e-03,-6.922718654494364535e-03,1.179288264922893729e-02,2.778297960758209229e-01
2.631942022393015668e-01,-2.299293193398631308e-02,-2.355530043283705910e-02,-1.267251447986651519e-03,-9.238202840949464624e-04,-1.521267695300375193e-03,2.864937186241149902e-01
2.648938751705516292e-01,-2.413166852115861127e-02,-2.956471010711354819e-02,-8.134003566991354368e-04,1.527686423020688637e-05,-1.501014368768650116e-03,2.917949855327606201e-01
2.734321661205295073e-01,-2.061644590361284834e-02,-9.900282942050461776e-03,2.380385027937909092e-04,-7.741351536055097278e-04,-1.353343937865594338e-03,2.888525724411010742e-01
2.734475122480277687e-01,-2.331066669133653735e-02,-1.462103248729101912e-02,-3.319779686758837106e-04,-9.015422947945888818e-04,-1.151661012692375990e-04,2.925149798393249512e-01
2.630035040325265916e-01,-2.842439728516354958e-02,-2.587644497140031974e-02,6.903087582409785138e-04,-7.415097863798837414e-04,-4.008470417098912789e-03,2.902506589889526367e-01
2.986557434213242268e-01,-3.900260280864817353e-02,-2.746914742048522928e-03,8.606391912139651698e-03,-8.710698001772827770e-03,-1.085169168066510946e-02,3.223177194595336914e-01
2.720898638949803550e-01,-2.527337084364060515e-02,-2.065106509788146305e-02,7.022153337527302982e-05,-8.286026669346492233e-04,5.149411319116651729e-04,2.950840890407562256e-01
2.480730297622412983e-01,-2.222497417886620807e-02,-2.951398550064857074e-02,-3.403012188454296837e-03,-5.177409406102962026e-03,-6.122308648214571346e-03,2.744302451610565186e-01
2.716475495036632104e-01,-2.026119155974696884e-02,-1.469862217483770828e-02,4.125728389822548646e-04,-4.955043415942715504e-04,-8.965529763903258001e-04,2.891739010810852051e-01
2.735806731010423931e-01,-2.392194282780786552e-02,-2.279307452419733482e-02,3.196059574487984754e-03,6.158872170765225225e-04,4.756236820339534803e-05,2.969933152198791504e-01
2.719025794222179604e-01,-2.747357041848685899e-02,-2.593267097567114599e-02,9.970605164565684003e-04,1.029476654002542532e-03,2.093357587393299482e-03,2.986409962177276611e-01
2.570742724882975061e-01,-2.197976714328320202e-02,-3.064502604308481926e-02,-1.235088688989797144e-03,2.083225991422558705e-04,-4.181315168220922120e-03,2.835868000984191895e-01
2.131623621708281235e-01,-2.199720800127748233e-02,-1.151700266699688668e-02,2.474724647203779826e-02,5.331859862695045166e-03,-2.714385716055928675e-03,2.342861592769622803e-01
2.723641763589838005e-01,-2.615602383407243658e-02,-2.087482706090708351e-02,-9.869655230363121989e-04,-3.482644537486063812e-04,5.303771810411506658e-04,2.959219217300415039e-01
2.731074869929551729e-01,-3.040013394648059808e-02,-2.995778134401293202e-02,2.756965019325600258e-02,4.269475266722397647e-03,1.686499640592984415e-03,3.071258664131164551e-01
2.721812520066885788e-01,-2.505260213987084428e-02,-2.454823884913107102e-02,7.385614775620994495e-04,1.443677071887582023e-03,-1.602389825307827195e-04,2.969954013824462891e-01
2.440087767487818804e-01,-2.181891630164428664e-02,-2.567867547618907231e-02,-4.988537068798372734e-03,1.946479071824741829e-04,-7.020821848114897762e-03,2.681938409805297852e-01
2.727381886978910153e-01,-2.583357001306504919e-02,-2.674776566534975419e-02,1.176121713240372603e-03,3.483634360156207151e-04,1.374932763428645104e-03,2.990469336509704590e-01
1.810997588150396187e-01,-1.120831783846830410e-02,-5.712072657148042909e-03,-6.651040805876240513e-04,-1.022436100053450165e-03,-2.598907035006398514e-03,1.896848976612091064e-01
3.057448800716555115e-01,1.533264858154956278e-03,-4.365735631356212898e-02,2.419042015020723968e-03,5.227508183458494558e-03,1.300456454174760655e-02,3.300625681877136230e-01
2.707454314341044554e-01,-2.788379955973392665e-02,-2.817478005090551241e-02,6.984737238476427601e-04,1.787998425086044605e-04,1.113043405214711153e-03,2.987836599349975586e-01
2.726661748326257850e-01,-2.286343337491400507e-02,-2.598459741295719438e-02,-1.393891421851675737e-03,1.545883011894874691e-03,-2.288184145397994499e-04,2.971246242523193359e-01
2.696803980271526013e-01,-2.436917356095151532e-02,-2.276608110649669392e-02,1.517965853542294378e-03,1.641249540938438363e-03,1.993127362801591748e-04,2.932770848274230957e-01
2.726306421441888617e-01,-2.810992058802955218e-02,-2.737952108207947211e-02,7.456515414136068252e-04,3.585341794381892216e-04,5.879244251829719237e-04,3.003811836242675781e-01
2.636446637156227846e-01,-2.568510739177164159e-02,-2.091619691156848537e-02,3.852061756099566664e-02,1.573277412870388798e-03,4.167791290863736425e-03,2.947299182415008545e-01
2.734206334345131717e-01,-2.211990752693075712e-02,-2.508717013530956108e-02,-2.421926917969049759e-03,-3.886546296383106155e-04,-2.663823228966650386e-04,2.970660328865051270e-01
2.967194947351768919e-01,9.073508009026329257e-03,-4.011817368958767172e-02,-3.046817824816174837e-03,1.807368111464423364e-03,-3.788823526890931249e-03,3.152626454830169678e-01
3.073613624795700772e-01,-1.589293201839989123e-02,-1.890405013155904701e-02,1.196655997590296769e-02,-1.405327892112989653e-03,-2.536334129182232777e-02,3.283918201923370361e-01
2.711500262788968385e-01,-1.500460516644595843e-02,-1.465327569269780916e-02,1.122419035786581098e-03,4.761822172973839869e-04,-1.133727699514485788e-03,2.859936654567718506e-01
2.717524108427377127e-01,-1.604871467507602845e-02,-1.657802436617393516e-02,1.161174937271769155e-03,-6.273608155031672575e-04,-3.754468761347806477e-04,2.880759537220001221e-01
2.700947282919532455e-01,-1.607533649500519912e-02,-1.453700626315736211e-02,-1.380973975526423930e-04,3.207207586272550694e-04,-1.271932735573087824e-03,2.854131460189819336e-01
2.710322291040910825e-01,-1.555256759537108902e-02,-1.316414917507362226e-02,2.730587145505295995e-04,8.621006392507584229e-04,-2.713169465279810857e-03,2.854410707950592041e-01
2.705314138246184275e-01,-1.179929944045275680e-02,-1.593434200121521260e-02,2.697626012115439788e-04,-4.423076843489040077e-04,-3.318331197193268110e-03,2.844802737236022949e-01
2.759589772248285944e-01,-2.473374358768611059e-02,-2.312126206382585092e-02,3.546040618741930065e-04,2.549476488033467110e-03,2.328577921956571060e-04,2.999231517314910889e-01
2.215761587670762867e-01,-2.491304651577425089e-02,-7.572163946144294666e-03,9.947093005488170415e-04,1.055035696326213227e-03,3.119609836642485944e-03,2.383669465780258179e-01
2.593273627126134739e-01,-3.195066244647208620e-02,-2.087839554660286812e-02,5.471944900106812289e-03,-4.092382801952913133e-04,3.128862603282736316e-03,2.861119806766510010e-01
2.730381092495695605e-01,-2.409592579724580130e-02,-2.357754419888651032e-02,8.342623282986898854e-04,1.371367519701472467e-03,2.794543087022130414e-04,2.968885898590087891e-01
2.658600617629178764e-01,-2.735100452830850626e-02,-2.583262853420020821e-02,3.545486026003695328e-03,-3.229350733422248687e-04,4.523561371792540926e-03,2.926247417926788330e-01
2.700157587664638315e-01,-2.801117613362838488e-02,-2.637582637006399833e-02,-4.559051334051414731e-04,5.766011168401022000e-04,1.927656766481409840e-03,2.972341179847717285e-01
2.718743467183531437e-01,-2.516470904697916400e-02,-2.307767806085929407e-02,9.483623962394918585e-04,-9.555852192925718466e-04,-6.181219680210063572e-04,2.960121929645538330e-01
2.693504161750298054e-01,-3.205940319905682678e-02,-2.277941826488415200e-02,5.737691486425668033e-04,-6.654791434455538997e-04,1.183337016884996457e-03,2.968896031379699707e-01
2.720243996307634138e-01,-2.614892483402136980e-02,-2.328471599741660514e-02,-8.130875621044364454e-04,8.047860496576512979e-04,4.321929197232386878e-05,2.967582046985626221e-01
2.692876474582623914e-01,-2.863774795572948673e-02,-2.625913528884570025e-02,1.092597368373990655e-03,-2.598452830603319857e-04,1.504425797450087941e-03,2.967610657215118408e-01
2.721638899278006063e-01,-2.531525194898377740e-02,-2.414198139604224747e-02,7.063661389055365340e-04,1.715733767586493600e-03,-9.497312288495228191e-05,2.969116866588592529e-01
2.276530882681677970e-01,-2.009705119610934176e-02,-1.921201727120205871e-02,1.770769530724128002e-02,-6.529849974335059579e-03,5.735347938241285894e-03,2.496576309204101562e-01
2.636317634838420410e-01,-2.447836128582475679e-02,-3.028208467498717804e-02,1.203383289208359661e-03,-2.960994681981370460e-03,2.746784525796235488e-03,2.911469042301177979e-01
2.627190887841712730e-01,-2.588767729985909372e-02,-2.740424629857221572e-02,2.904398844753780257e-03,-9.542178321376329313e-04,2.696072501704414003e-03,2.894541323184967041e-01
2.693632401826456801e-01,-2.784834320381873729e-02,-2.761662383773050289e-02,3.837928587831116139e-04,-9.690375962770670683e-04,1.188515010109773926e-03,2.971084117889404297e-01
2.719755728039957021e-01,-2.820285488601922963e-02,-2.518705791649060444e-02,-5.799218344328759380e-04,-3.718298277754183268e-05,7.644285705735376834e-04,2.986865937709808350e-01
3.013602657412667307e-01,-3.822126494462599333e-02,1.136221510532454959e-02,5.062178994714425055e-03,6.821128972716111738e-02,-1.623114495797815804e-02,3.402382433414459229e-01
2.699636189688381371e-01,-2.622467936424138779e-02,-2.789273995851938859e-02,1.992402968513564809e-03,-2.374254918741662730e-04,2.687524728202955564e-03,2.970826327800750732e-01
2.719007733550942163e-01,-2.712987059548505053e-02,-2.568249054337347348e-02,6.649294464273562124e-04,-1.281492287785723815e-03,4.431952183298658657e-04,2.983210682868957520e-01
2.672163259396722057e-01,-2.248282060819055406e-02,-1.593371610510653513e-02,7.799121343212278915e-03,-1.833960846782347297e-03,-4.101562396949257755e-03,2.869046032428741455e-01
2.714413390526794756e-01,-2.405622013214789301e-02,-2.308075935873167561e-02,2.287279707229568446e-03,-2.403471584921907257e-03,6.971260416933976016e-04,2.950694859027862549e-01
2.692573474032506908e-01,-2.483521096622817725e-02,-2.818530110386080478e-02,1.851711553736421108e-03,-1.466813155770962072e-03,1.688716292468633124e-03,2.958245873451232910e-01
2.721748687512167697e-01,-2.898053834711440679e-02,-2.312508552100957238e-02,7.857801823333960232e-04,-2.231561149815934901e-04,1.081482031246233612e-03,2.982800304889678955e-01
2.724566618056713518e-01,-2.726559127453712095e-02,-2.335914588179970053e-02,3.835022900060722998e-04,-8.852676683008839451e-04,1.016155172304182347e-03,2.977981269359588623e-01
2.762061761347087696e-01,-2.371472927606718684e-02,-2.420965117614594375e-02,2.584233427520151133e-04,-1.557201756152971212e-03,-6.641325942296028104e-04,3.001833260059356689e-01
2.715731607640092804e-01,-2.770357242079801718e-02,-2.490255054964879422e-02,1.698639932010712582e-03,-2.062335850968934851e-03,-4.457847271436447996e-03,2.980220913887023926e-01
2.776495153907283520e-01,-2.468415636780534050e-02,-2.518855190982495496e-02,-4.393495616941344665e-04,1.076768136127166913e-03,-1.572658561902555950e-03,3.026051521301269531e-01
2.757381528005231619e-01,-2.461506010340985817e-02,-2.318828706145700802e-02,-5.600609708196922429e-04,1.124359923501720964e-03,-5.844375862484777568e-04,2.996519804000854492e-01
2.728586111469308850e-01,-1.953485215071321113e-02,-2.481810674122734983e-02,-1.254988880587235359e-03,-1.909502967555235572e-03,4.463038606976647230e-04,2.950981259346008301e-01
2.709426569381948591e-01,-2.950330903765267798e-02,-2.296954846814623641e-02,5.045490027106977384e-04,-9.063053385072435478e-04,-2.391009693634449720e-03,2.972672283649444580e-01
2.741744966489114144e-01,-1.276890342039724291e-02,-2.472333343121710381e-02,-4.000267740794020803e-04,6.473451709934225631e-04,-3.566780385609253593e-03,2.931715846061706543e-01
2.751322033683177293e-01,-1.907458979350974693e-02,-2.492407785928746344e-02,-1.073243260022243954e-03,-1.584367436593984101e-04,1.496382310539769557e-04,2.971807718276977539e-01
2.753215993358772984e-01,-2.859344196917733283e-02,-2.484120586093334360e-02,-1.845155570352965285e-04,4.748738755264219426e-05,-1.340444724850258689e-03,3.020654916763305664e-01
2.761197692577396223e-01,-2.500496921016642782e-02,-1.858088730284250534e-02,1.188705317311304589e-03,1.857547267731658649e-03,2.971230488881303005e-04,2.979895770549774170e-01
2.723304907600699876e-01,-2.184198135177085887e-02,-2.189339629158261469e-02,1.333812786119046353e-03,-2.843382492153695060e-04,1.319919573430111464e-03,2.942165434360504150e-01
2.742367042447300118e-01,-1.892683579086615331e-02,-2.379265307753111736e-02,-2.475306045750083443e-03,-1.868547377776814088e-03,7.106156169090690209e-04,2.956778407096862793e-01
2.650263062436631900e-01,-3.040019211011521505e-02,-2.191137941805772205e-02,3.627882192311361956e-03,-1.351628812094408548e-03,-4.640347406207495119e-03,2.914628982543945312e-01
2.665905044773693167e-01,-3.266083277953704678e-02,-2.050774744730718413e-02,-2.878721295249908824e-04,6.883143480615112365e-04,-1.575119146409395418e-05,2.933664917945861816e-01
2.520160326333811263e-01,-2.867936937515989937e-02,-1.960830012843790826e-02,4.848585822694826200e-03,-9.769750809102990124e-04,-4.286546650259617439e-03,2.765040695667266846e-01
2.610102472121215156e-01,-2.588789716856104706e-02,-2.380189233901876256e-02,2.102887368802275076e-03,-1.209543373266029186e-03,-4.092471658972367428e-03,2.859795987606048584e-01
2.738337389053288051e-01,-2.854150838473536178e-02,-2.431493175429573494e-02,-5.685812299622718504e-04,-9.976158000483622851e-04,-1.914226876674066232e-03,3.003091514110565186e-01
2.725029558211606862e-01,-1.869124545119846270e-02,-1.958662780666592385e-02,1.010248249631325425e-03,1.226710954372193683e-03,-7.713499639291832759e-04,2.916589677333831787e-01
2.712905954365648076e-01,-1.737077453607854816e-02,-1.719295506903127657e-02,8.081785726762287037e-04,-7.426307032248440076e-04,4.891602781046210232e-04,2.885800004005432129e-01
2.711496029995220658e-01,-2.341994849968041803e-02,-2.720376219806437679e-02,-9.889050984113096927e-04,2.748518298314888125e-03,-3.005929447694660056e-03,2.965684235095977783e-01
2.774939679688845917e-01,-2.428393146514848389e-02,-2.498602859875249937e-02,2.202859200955822883e-03,3.048684448159223455e-04,-1.040577363743879630e-03,3.021594882011413574e-01
2.741573055368040635e-01,-3.102980242227629248e-02,-2.426514947425945090e-02,-9.713359994393086939e-04,-9.846943051226735889e-04,-5.610876726087349201e-04,3.018727004528045654e-01
2.713665626421196686e-01,-1.565602140016600363e-02,-1.459629466475237392e-02,4.503263591559600971e-04,-2.127874874654400099e-04,-3.565859771506398046e-03,2.865620553493499756e-01
2.748038346793759690e-01,-2.867630226587124243e-02,-2.362415977909296250e-02,-3.861974818799979972e-04,4.230773955570303830e-04,-6.138878235041170294e-04,3.009893894195556641e-01
1.703096513130943901e-01,-1.174550870726320806e-02,-4.761350350908757911e-03,-3.438454626549896503e-02,1.482766607875415574e-02,3.895284914401289222e-03,1.901929229497909546e-01
1.433540002191868168e-01,-5.547675353864890690e-03,-9.357734783692200908e-04,-1.659958523535881927e-02,1.694465373256195950e-02,9.282921636173520298e-04,1.523051112890243530e-01
8.453005966390253478e-02,2.842431286007099378e-04,1.294375333524382110e-03,-5.285118082162056780e-03,4.640216564040881841e-02,-4.386737981764812604e-03,1.166802868247032166e-01
2.776810801255383265e-01,-2.104839981155071094e-03,-2.501462330923323596e-02,2.087669493751825780e-03,3.830401142436519924e-04,-2.805052297207551257e-03,2.919794023036956787e-01
2.649394929431893031e-01,-2.932226295054035647e-02,-2.417210221041461715e-02,-1.705713484565753114e-05,9.659017406944392890e-04,1.272335990766410192e-03,2.917338907718658447e-01
2.628029995405966601e-01,-3.342518265645880171e-02,-2.241278249557049351e-02,5.093449452409327342e-04,-1.876328103680759423e-04,4.315867517479950416e-04,2.908808588981628418e-01
1.522172692315446330e-01,-5.611100524335776996e-03,-8.284824549980231156e-03,-9.674814290448622081e-03,6.364629409329380927e-02,-7.585678984073883357e-03,1.947945505380630493e-01
1.599316766749956931e-01,-2.032958097683217058e-03,-9.901385057632008935e-03,7.690430520452504496e-05,5.060132119380297139e-02,2.654056746509431651e-03,1.878070682287216187e-01
1.324265713992339999e-01,-4.861045256411566928e-06,-3.801767407881441463e-03,1.379229917523147999e-03,1.362755394512893056e-02,8.832577029234809545e-04,1.364569813013076782e-01
1.858425630232994341e-01,-1.021934514282764328e-02,-1.031801493438624928e-02,1.992675265381017163e-02,-1.407723158800698333e-03,-3.683975484132706937e-03,1.992423534393310547e-01
7.452436183962324323e-02,-8.903791879076479454e-04,5.845058568667262783e-03,8.200802066801772539e-03,3.005335885625014247e-02,5.611987262639668399e-03,9.072294831275939941e-02
2.750976467971495421e-01,-2.452956220497179429e-02,-2.211295773774091256e-02,3.156778902677719848e-04,-5.358113237966421376e-04,-1.549756241566363274e-04,2.984282970428466797e-01
2.746467545824226031e-01,-2.788820749076233174e-02,1.354442714657316804e-03,3.081837990496909783e-03,3.897877396139130292e-03,-1.025442150489302767e-03,2.891588509082794189e-01
2.579424496113837950e-01,-3.612697233693475118e-02,-1.827256037762202412e-02,5.494862729433470320e-04,-4.620821794169044003e-05,1.449324507729229093e-04,2.855628430843353271e-01
2.753574855385023668e-01,-2.626806488370334036e-02,-1.936881490544073436e-02,1.870697993969145973e-04,6.291663325208191396e-03,-7.499770989173670062e-04,2.984378039836883545e-01
2.463473777480137961e-01,-2.158388411556243225e-02,-2.435892342740174354e-02,6.079753138910744259e-03,-9.008160965395046321e-03,5.245727050706364830e-03,2.701393365859985352e-01
2.695213534904515873e-01,-2.653130406197842794e-02,-2.950100180635985281e-02,7.368159294421616204e-04,-4.817289195163096177e-04,1.574393880901006322e-03,2.975650131702423096e-01
2.744894311385310814e-01,-2.541059764621583783e-02,-2.290105912496051555e-02,2.116134744307540064e-03,2.738397204556671568e-03,1.055101666267267201e-05,2.987133264541625977e-01
2.719157174265932619e-01,-2.299028915207299018e-02,-2.477705695059306823e-02,2.106666989565544510e-04,1.175616668577416073e-03,2.170292498471376470e-04,2.958109080791473389e-01
6.136254772833996812e-02,-1.948544627034171084e-03,6.893367352022606448e-03,3.107112184575949038e-02,2.016072724535601917e-03,6.410695398819952866e-03,8.098401874303817749e-02
2.737054143203730971e-01,-2.617940646925015491e-02,-2.449687736478056710e-02,-7.466177900038007708e-06,5.743962287110669250e-04,5.608751266051699913e-04,2.990503311157226562e-01
2.715128689237471526e-01,-1.349846112302294232e-02,-1.705082362073231939e-02,-4.654659515046327646e-04,1.062876075778762747e-03,-2.455444308556929342e-03,2.868425846099853516e-01
2.702432614712954595e-01,-1.635436418768414224e-02,-1.444322782829322860e-02,-3.860909907873504498e-04,2.497897456500958028e-04,-1.144697783279923853e-03,2.856548428535461426e-01
2.727787492515830747e-01,-2.334497521672020126e-02,-1.912812900793700588e-02,1.091991217774855062e-03,9.553336673235627782e-04,-1.249981583070899015e-04,2.940487861633300781e-01
1.805535159466196693e-01,1.604548376892267481e-02,-1.686857050811763070e-02,-7.342876132892510455e-02,-1.705167983610929999e-02,1.674334162636358439e-02,2.268248200416564941e-01
2.726197216905811294e-01,-1.770010640072681996e-02,-1.739860291219569310e-02,2.148275384444239301e-04,-1.551830887914718233e-03,-9.766590792899322061e-04,2.901868224143981934e-01
2.728592374451574987e-01,-1.912157862399289920e-02,-2.059401077258243840e-02,1.592670282272589007e-03,1.108774886976897833e-03,-3.608693679639791551e-03,2.928058207035064697e-01
2.676205936370906757e-01,-2.260340096978818991e-02,-3.235107717690467732e-02,1.721936009957713773e-03,3.219942271016810553e-05,8.648882833322560576e-04,2.952374219894409180e-01
2.732472312037825812e-01,-2.247046232844890357e-02,-1.386004119361215758e-02,7.398774454889077033e-04,-1.972583829044601608e-03,-1.000040678608886749e-03,2.915358543395996094e-01
2.378376873500842315e-01,-2.173540223455243392e-02,-2.205596766677879461e-02,6.395865912112666139e-04,-1.666463709161477885e-04,6.361708788474434821e-03,2.599696516990661621e-01
2.716610482935650772e-01,-1.933497497528058329e-02,-1.573486031968232557e-02,1.843712072537580606e-04,-6.110857232075143095e-04,-1.708462691410932849e-03,2.892300188541412354e-01
2.458203786922495138e-01,-3.416877998968129160e-02,-1.439238749912073734e-02,2.110436478247722388e-04,-1.923352784341745008e-04,-1.378123472562452038e-03,2.706543803215026855e-01
2.816604964394693322e-01,-2.709376426302309571e-02,-1.637220486846717449e-02,-2.806075951728071588e-02,-2.982345830677432530e-02,7.623365586604039651e-03,3.119915127754211426e-01
2.950001957268463815e-01,-3.664514026393983492e-02,-1.389813881355650427e-02,-1.318876992034101990e-02,-4.363580836794037077e-02,9.439662337964347186e-03,3.308527171611785889e-01
2.555121390265219783e-01,-3.641166788870540960e-02,-1.567395677989463776e-02,-4.095592213953739603e-03,2.552690600600761260e-05,-2.417217473031396701e-04,2.822166383266448975e-01
3.084902743876804521e-01,-4.263375933944316132e-02,1.453804968256436347e-03,-9.031837705086055972e-04,-6.307470558329880510e-03,9.532288219105412505e-03,3.318825066089630127e-01
1.851998037862992719e-01,-1.310714127613296642e-02,-4.541749961434943250e-03,-1.472421495879858025e-03,-1.183267239472679967e-04,-5.228162391041024605e-04,1.941849589347839355e-01
2.706904008509395387e-01,-2.798696783162743507e-02,1.059670903570522627e-03,-3.120299160903873548e-03,-1.473510205731112799e-02,7.373413599007574981e-03,2.867402732372283936e-01
3.024427988454375660e-01,-3.653429340328204211e-02,-4.393695822294332864e-03,2.057000301434398944e-03,-1.385104539758990824e-02,1.390892708458097045e-02,3.259021043777465820e-01
2.176693749525797084e-01,-1.338974860658617705e-02,-1.242446826696852469e-02,-1.682261102863650973e-03,-1.645986574339286523e-03,-3.354796588761124656e-03,2.306872308254241943e-01
2.568087470696845398e-01,-3.610610366603791976e-02,-1.630865994566117749e-02,-1.209520952072620998e-03,1.382408182964798161e-04,-5.685374961290250509e-04,2.835445404052734375e-01
2.616166804502936261e-01,-2.548813187017157089e-02,-2.824018979808183560e-02,-2.966759856593532236e-04,-1.885160055686648417e-04,4.143471969877777182e-03,2.885805666446685791e-01
2.796786074552116697e-01,-4.798744560679399362e-03,-3.070777074707578547e-02,2.331806355356000771e-03,-8.604477260286328268e-05,-2.313127637259094777e-03,2.983312904834747314e-01
2.713536440618954382e-01,-1.967746620680091429e-02,-2.564195218358071571e-02,-1.561748608364969685e-03,1.191958627919220649e-03,-7.266759176248497806e-04,2.940810918807983398e-01
2.853307300270184754e-01,-3.998750094562700252e-03,-3.162478465887563761e-02,-1.184662501722335420e-02,4.513497948520323912e-03,-7.570874256321344364e-03,3.051587641239166260e-01
2.716542760538087631e-01,-2.211482863989334968e-02,-2.225734760549363811e-02,-1.353083474856248440e-03,4.079184480373364806e-03,-4.943907854867449388e-03,2.940593659877777100e-01
2.624738320714184447e-01,-2.910681697493376630e-02,-2.289852359054582454e-02,-1.968027843150263467e-02,-1.868190760094122146e-02,2.462238628415383372e-03,2.923606932163238525e-01
2.731586997914130510e-01,-1.944249900105678164e-02,-2.292763010677420499e-02,1.610497273762010687e-03,1.830117766763490078e-04,-5.964253220748494660e-04,2.943744361400604248e-01
3.113368070369234020e-01,-1.821144703495485018e-02,-3.100373541654072307e-02,-1.352705646964292088e-02,1.172380930957073707e-02,-9.547351331746018605e-03,3.379587531089782715e-01
2.690719029856700195e-01,-2.084762544621038272e-02,-2.702491007776414156e-02,-1.394188932486747467e-04,6.920258158599684045e-03,-3.015261093182491545e-04,2.933025956153869629e-01
2.721789470689833235e-01,-2.354304804789565664e-02,-2.389998738236617792e-02,-5.789479246174699485e-04,1.106407324430708000e-03,-9.979058419134077991e-04,2.959135770797729492e-01
2.725828356503847694e-01,-2.637732861140205942e-02,-2.800621345980763843e-02,-6.192247792805686017e-04,8.629191427785623796e-04,-4.153012172278107450e-04,2.997844219207763672e-01
2.703725143268791431e-01,-2.714565664435186765e-02,-2.783353773484301130e-02,-8.592875180362078986e-05,3.958606675305590349e-04,2.723485505932845088e-04,2.978639006614685059e-01
2.710210945041718333e-01,-2.392999393646770556e-02,-2.415145088323830680e-02,-3.057929961951197546e-03,5.793785111106117009e-04,1.977672075498850262e-04,2.951113283634185791e-01
2.876640932146834473e-01,-9.881231372626392284e-03,-1.999084384305606366e-02,-5.611616958172148222e-03,6.927072633073728253e-03,-1.293734380827382159e-02,3.039474189281463623e-01
2.746489868142372170e-01,-1.779507333177152151e-03,-2.887805528736919758e-02,-1.051390927070711308e-02,2.714072251122386873e-03,-6.187986901284093719e-03,2.917301058769226074e-01
2.469559558995920723e-01,-2.871699199777280609e-02,-1.810030491543025699e-02,-3.062462302188038218e-03,8.266471305676566586e-03,-7.013767374938269412e-03,2.712236642837524414e-01
2.664054729629726781e-01,-1.914568935318405885e-02,-3.415606604904970756e-02,2.228084536512499325e-03,2.417910458697248698e-03,-2.578517802441662819e-03,2.934337854385375977e-01
2.667939350843407942e-01,-2.880707584151274980e-02,-2.626922081225178951e-02,-5.936785556714767580e-04,1.403373345662944308e-03,7.874200137306078436e-04,2.943552732467651367e-01
2.651966497679136836e-01,-2.896533527052565227e-02,-2.690654160095687364e-02,6.038061646083165866e-04,-3.063668343505744976e-04,3.053129379065164586e-03,2.931880652904510498e-01
2.640519309147665306e-01,-3.264352561024275179e-02,-1.846074723523132011e-02,-7.052199186315173673e-03,3.354871613843862614e-03,1.578609297754287070e-03,2.901927232742309570e-01
2.669715726040197135e-01,-2.365242639598313934e-02,-2.515292823279766110e-02,4.927160923557581847e-03,3.488742429112792580e-03,-1.796646746068957965e-03,2.915813326835632324e-01
1.729919733332120901e-01,-3.865432935697674099e-03,-9.821252061177801473e-03,-1.299492128721801195e-03,-1.219107646961716061e-03,-3.076504030494985314e-03,1.800146251916885376e-01
2.704635011842582704e-01,-2.059819059159037624e-02,-3.186645253299394409e-02,1.396955115720209094e-03,3.021820475753303221e-03,8.556623706923096196e-04,2.969159483909606934e-01
2.593341440432220812e-01,-3.618884712816838878e-02,-1.737999653912472575e-02,-1.524397527014774521e-03,-7.398949749734076188e-04,-6.824376852775736581e-04,2.865993380546569824e-01
2.715727846010752011e-01,-2.523565245293531156e-02,-2.298693099152440689e-02,3.133590987127950894e-03,-2.152446201242469003e-03,5.670817773392566440e-04,2.957654297351837158e-01
2.657479170728500595e-01,-1.587447505940617343e-02,-3.488725422408694987e-02,2.677973655540508754e-03,5.935259255266130303e-03,1.260593396882655603e-03,2.918202280998229980e-01
2.766586844627900721e-01,-2.494928372102007963e-02,-2.436130637167301105e-02,-3.725511647116234656e-03,1.976590698104831872e-02,-1.478310707219569406e-03,3.033325672149658203e-01
2.706423198168037558e-01,-3.119787247322694523e-02,-2.643837996558504044e-02,1.833898440093631335e-04,4.527552612145756836e-04,1.828183088594901532e-03,2.995067536830902100e-01
2.634874044746569055e-01,-2.522267509684283926e-02,-2.449583965048529599e-02,3.816583504703151795e-03,1.323676288344162759e-03,-3.342126413353952580e-03,2.884902954101562500e-01
2.724096997248409702e-01,-2.800564106105898898e-02,-2.485785807837694039e-02,-3.282344572811480622e-04,1.056259712460477698e-03,-3.530604857127573899e-03,2.989225685596466064e-01
2.775249348126069271e-01,-2.527333295670346203e-02,-2.496987521109750308e-02,-8.418253736667404919e-04,-8.641025434741752241e-04,1.278423938589855462e-04,3.026539385318756104e-01
2.702552952276424669e-01,-3.040703574877924587e-02,-2.502039452513932227e-02,1.463616701250998724e-03,2.007418063799792669e-03,-4.031330492938697309e-03,2.981183826923370361e-01
2.780204832741186571e-01,-2.661141044735167160e-02,-2.589742634059853665e-02,1.941400213902185162e-04,-1.084287741410396694e-04,-1.002282763697895243e-03,3.042807281017303467e-01
2.772653960200286427e-01,-2.864607725319417986e-02,-2.577534002775189181e-02,-8.180791013688171881e-04,-7.767836056742457489e-04,-6.044126122632276655e-04,3.044943213462829590e-01
2.712470416102190640e-01,-2.882037069902750048e-02,-2.494698417783274003e-02,7.861938241136990756e-04,1.424349751524182179e-03,1.082502549434898129e-03,2.981688082218170166e-01
2.258681435712424634e-01,3.100894449764066141e-03,-4.228726686066242024e-02,6.368207945009203563e-02,1.994671088141394474e-02,9.137269188839692094e-03,2.746026813983917236e-01
2.727017804988908223e-01,-2.496674359215544925e-02,-2.012283475226731011e-02,1.316217989951630821e-03,9.523873360216448224e-04,6.950501434800514158e-04,2.952922284603118896e-01
2.761539601356596263e-01,-2.828415163846811908e-02,-2.490895634139529691e-02,4.999632013752742816e-04,-4.102203158616560301e-05,-1.434505300389197222e-03,3.027760684490203857e-01
2.733549722432008222e-01,-1.844657872565275136e-02,-1.916941385851823887e-02,-1.736810894111089510e-03,-3.003963067059649186e-03,7.591726933857655948e-04,2.922284007072448730e-01
2.784309760311067805e-01,-3.165830350594950326e-02,1.366018507027819129e-03,1.940026350884956584e-03,3.884618523226855344e-03,-1.492695359943698374e-03,2.950741052627563477e-01
2.729905966815173168e-01,-2.168907152417655360e-02,-1.963937828649085782e-02,3.326147870961530979e-03,1.739825279264740638e-03,-3.905873501192243333e-03,2.938100397586822510e-01
2.774938309571994832e-01,-2.588777638815685511e-02,-1.508790776786411714e-02,1.529785525072828185e-03,-2.271906173837175743e-03,-6.347909964053681390e-04,2.981681823730468750e-01
2.701208267243839778e-01,-3.279154943372608599e-02,-2.287494100297915445e-02,2.631902402464202356e-03,1.876962993299720935e-03,3.324029526953047324e-04,2.981309592723846436e-01
2.786436004090095953e-01,-1.350151732395511728e-02,-2.405521231305760010e-02,3.922559857529898594e-03,8.019767461118970176e-04,-1.569347323616792017e-03,2.976555824279785156e-01
2.714367492088756162e-01,-1.580661642632619213e-02,-1.443869564586637566e-02,-2.240189207295462115e-03,-1.422736236964134045e-03,2.108331461806933586e-03,2.866219878196716309e-01
2.745212342081735368e-01,-1.998888681863097982e-02,-2.034385660900704662e-02,-5.693449597320609156e-04,-5.224049890813715685e-04,1.255847285460305173e-03,2.946988344192504883e-01
2.745817790248397117e-01,-1.326953719778406482e-02,-2.427446710723449308e-02,3.717747831512250092e-03,3.343379618424853483e-03,-1.553733504353858224e-03,2.936486303806304932e-01
2.751667197555108801e-01,-2.386757508475038925e-02,-2.064808615924582091e-02,-1.536158265244104600e-03,-1.061984486102016036e-03,-5.007826086630541660e-04,2.974564731121063232e-01
2.713703112795811112e-01,-1.160436313517362872e-02,-1.874185580362734693e-02,1.092195314147361134e-03,2.196374908764714157e-03,-2.469521334684374094e-03,2.866734862327575684e-01
2.734230962798899212e-01,-1.830455248841873772e-02,-1.955486048810838040e-02,4.512994275306577438e-04,-1.672221510769533650e-03,-6.086766718363154191e-05,2.923702299594879150e-01
2.727836707765245450e-01,-1.333400293627931554e-02,-1.979561608589144872e-02,-2.114396188412932549e-03,-2.923723080717934974e-03,1.205813806222356911e-03,2.894775867462158203e-01
2.743624686216671327e-01,-1.260379774259359764e-02,-1.871765465831058683e-02,-3.426103799947621820e-03,-4.400437125441588639e-03,6.283291872978604212e-03,2.904362678527832031e-01
2.727536011938532234e-01,-1.038972441285009041e-02,-2.245569841330652405e-02,-1.109732669230618180e-03,-1.459884511862886113e-03,4.180145822386977655e-03,2.894730269908905029e-01
2.700235996809199346e-01,-2.222330711276064574e-02,-3.111606170450283149e-02,1.207769903690697824e-03,2.372833364048648405e-03,8.201180312089150068e-04,2.968324422836303711e-01
2.732284521920308462e-01,-1.373289711567453331e-02,-2.178346823350735262e-02,-2.576709863651544755e-03,-1.307045958682640332e-04,-7.140602169634449083e-04,2.911070883274078369e-01
2.722993958788660906e-01,-2.493913481275968069e-02,-2.928845815629875504e-02,3.151776678989785634e-04,1.239098468977613146e-03,6.933198790527514551e-04,2.994474768638610840e-01
2.547018790916442121e-01,-2.624858964882934020e-02,-1.999619488842432902e-02,5.757442301606938845e-03,1.084666595034662097e-02,4.533688577760873993e-03,2.788004577159881592e-01
2.543125429113792801e-01,-3.612189115430404496e-02,-1.488507153302813524e-02,-1.965480244427725157e-04,-8.339359885624941294e-05,5.016074547656705932e-04,2.804213762283325195e-01
2.676189645554976071e-01,-2.193128702493396531e-02,-2.952953328911220310e-02,-4.717922309134640890e-04,7.862721512011590710e-03,3.710841845351409927e-05,2.937401831150054932e-01
2.742961000672283767e-01,-1.731425817500038822e-02,-2.712009522567060404e-02,-2.761581760114117240e-02,5.453812916321681449e-03,-4.621565786821540435e-03,3.007215559482574463e-01
2.555398827267610362e-01,-1.854034961331717246e-02,-3.405222101240033827e-02,-3.426914186458535007e-04,7.768821787931938852e-03,2.080007257517131787e-03,2.825004160404205322e-01
2.686655053942197391e-01,-2.212934952029091407e-02,-3.095702984339596120e-02,1.718780692044651233e-03,7.584106496446495205e-03,2.255361362778424920e-03,2.956404983997344971e-01
2.678827535024442819e-01,-2.313479408144634986e-02,-2.489405818279316618e-02,2.574480018609482963e-03,6.918741647631497212e-04,-2.551482043465810338e-06,2.919376790523529053e-01
2.642445554434501021e-01,-2.274414450438688728e-02,-2.954410317831374089e-02,-1.319494374286163309e-03,1.521153717787725526e-02,1.558933617885427479e-03,2.916623950004577637e-01
2.641677733331651567e-01,-1.820404086407141631e-02,-3.444704915920117350e-02,-5.700770180275670663e-04,3.158508067683419174e-03,8.242713381377003582e-04,2.908903360366821289e-01
2.648227522923107813e-01,-2.032880386534993700e-02,-3.134060690532192162e-02,1.450085815954954256e-03,8.270514601359423706e-03,3.229566710495798167e-03,2.912310063838958740e-01
2.561416624677518294e-01,-1.921768970738489679e-02,-3.098980316356124420e-02,-1.571655260902192139e-03,6.751663594716492828e-03,5.694269056581176443e-03,2.818587422370910645e-01
2.466995395361446242e-01,-3.284773126467741000e-02,-1.516611256598078550e-02,-3.207835565704648408e-04,5.995389575242967683e-04,-2.720024077961563560e-03,2.711826860904693604e-01
2.672889842364312152e-01,-2.050043799505303632e-02,-3.459528170025191751e-02,9.748212401408404369e-04,2.196796569579674216e-03,1.009549729930477599e-03,2.951239645481109619e-01
2.717928725745075158e-01,-2.641041227411865255e-02,-2.670448210071382777e-02,-2.437676352587599148e-04,7.711982007418131035e-04,4.864702923196909373e-04,2.983548939228057861e-01
2.612107094532547524e-01,-2.854476450997781023e-02,-2.906456815972294216e-02,2.607196231701310041e-02,-2.429288230938850962e-02,-4.985754345659896766e-03,2.966367602348327637e-01
2.609570062118831690e-01,-2.963414352441665067e-02,-2.022085015002801633e-02,-1.102914289599772743e-03,-2.732459263565106280e-04,-6.317706851398545157e-06,2.860074937343597412e-01
2.449920818907352638e-01,-3.435143659538211769e-02,-1.136035312699890110e-02,-2.035516137527429946e-04,1.032245125624996511e-03,1.092396475634389115e-03,2.685998678207397461e-01
2.566077946070576266e-01,-1.712221680334274909e-02,-3.072654141603704814e-02,2.381467316064400739e-03,-1.655131087603204862e-02,-3.680150924858481987e-03,2.823412716388702393e-01
6.367079494689015240e-02,1.239965672129723223e-02,2.161014123530372727e-03,2.396890098910896966e-02,-3.871554701629158907e-02,-7.181511213524314347e-03,9.815005958080291748e-02
2.668950469623329047e-01,-2.404346369735302358e-02,-2.594874811534207681e-02,-7.649445052193244027e-03,3.944124840101055803e-03,4.462554384070235771e-04,2.922772169113159180e-01
1.931982226265605007e-01,-2.673145638926703593e-02,-1.374804099378142130e-02,2.912387826411875352e-02,-2.858453068670241404e-02,2.494023324597925955e-03,2.251592427492141724e-01
3.567644717181198688e-01,-9.641721831594701753e-03,-2.899857207440018070e-02,2.370267588013873911e-02,3.977410975437245533e-02,3.528408121388412755e-02,3.897267580032348633e-01
2.142819838545817479e-01,-9.184500801165701445e-03,-2.595168513288628742e-02,-1.514423283524442515e-04,-4.719532477461243960e-04,1.242628279654040989e-03,2.323159128427505493e-01
2.705962643270829471e-01,-3.240935313911266769e-02,-2.164089218239850787e-02,3.032207176869470763e-03,-9.665015391334412682e-04,4.359795375137396484e-04,2.978194355964660645e-01
1.412052296030229526e-01,-7.224454539462708824e-03,-5.670634638408764139e-03,3.918683967216372160e-02,-4.802504122367649148e-02,-9.231955795281234986e-03,1.832617819309234619e-01
1.721262928701611794e-01,-3.712752628770292496e-02,1.704477155044310105e-02,4.385208059264705110e-02,-8.264862222990487783e-02,-1.224507811892904495e-02,2.491932213306427002e-01
2.779121411813643139e-01,-6.881721215169014916e-03,-3.174028743954820930e-02,-5.102813957896517628e-03,1.268803337102419751e-03,-3.664555615775378066e-03,2.982084751129150391e-01
2.740600542996855515e-01,-2.500195420104980859e-02,-2.640412390128822617e-02,2.935809356747988083e-03,-5.815591967899708462e-03,1.984871915945807079e-03,2.999975383281707764e-01
2.665962348636706780e-01,-3.409326856168876096e-02,-2.053800545467335259e-02,1.102547134071247322e-03,-2.076141440788289267e-04,1.011383053656294932e-03,2.941578626632690430e-01
2.665683093466172382e-01,-3.191609078753916695e-02,-2.251550241841367150e-02,2.316029827818127679e-04,8.482062090359081610e-04,1.171447095294409022e-03,2.939078211784362793e-01
1.460016830924890652e-01,-1.946930991804797506e-03,-8.997193735403231918e-03,1.618478396837819133e-02,-2.475873523675523741e-02,4.170739047678142380e-03,1.601829826831817627e-01
1.145580845242981510e-01,-8.931128627661828745e-03,1.469965328398730939e-02,-3.227530073764112162e-03,-6.049499007917796822e-02,-8.242542957359719549e-03,1.552541553974151611e-01
2.399651773944983524e-01,-2.231042679033846954e-02,-2.276213883831110230e-02,-7.194089963172301330e-03,-7.098703213420827496e-03,-6.845000859131891019e-03,2.633517980575561523e-01
1.708356361239047327e-01,-6.056599512681129505e-03,-5.186457438099492667e-03,-4.208080866207604236e-04,-5.414560960262802987e-04,5.648191751486892134e-03,1.767337471246719360e-01
2.425751010726443224e-01,-2.069291014025405329e-02,-2.900765051619105805e-02,-2.050105262163304243e-02,-8.715340875737149703e-03,-3.518680250964711844e-03,2.703591585159301758e-01
2.609891747385791883e-01,-2.831892714708444947e-02,-2.277866676001776003e-02,-2.842437120027475005e-04,4.557354851638716151e-04,3.950959894065522553e-03,2.866613566875457764e-01
2.708039699061228767e-01,-3.131104904118457710e-02,-2.426514512489430508e-02,6.704781443446812192e-03,3.284576374985000505e-03,-1.474528759081502206e-04,2.989343702793121338e-01
2.513046403697938302e-01,-3.186295676078571004e-02,-1.341512454491518291e-02,5.138448449918091914e-06,1.445372530545298989e-03,-2.808265071213614326e-03,2.744636833667755127e-01
2.599879569810958913e-01,-2.119875815813888897e-02,-3.311482147146652122e-02,-1.408518264448388414e-03,-2.584324265580712193e-03,-2.970358993765030101e-03,2.874214053153991699e-01
2.583451999751782968e-01,-2.088895538319143763e-02,-3.280167616865375946e-02,-4.268627919873410723e-04,-2.356042630841198322e-03,-2.587566439533690605e-03,2.854423820972442627e-01
2.580455698456292080e-01,-2.220792155514619837e-02,-3.031895235069610728e-02,-1.726656642216608042e-03,-1.034558180068819106e-03,-3.035415591634363537e-03,2.844657301902770996e-01
2.692101352805685854e-01,-2.048378108205628489e-02,-1.948529664264801731e-02,-5.780422084137421760e-04,-1.979222812353872204e-03,2.263585165886615892e-03,2.892445921897888184e-01
2.746097889957883620e-01,-2.374698889636747690e-02,-2.379827293192754434e-02,3.631326757387387874e-03,1.907042038745674056e-03,4.025997045001437815e-04,2.984677851200103760e-01
2.625629874707351430e-01,-2.301804111351213322e-02,-2.558113803207164028e-02,-1.985704807330120319e-03,3.665346291671947950e-05,-6.840583175642899437e-04,2.868942320346832275e-01
2.714070795241929623e-01,-1.467960959887193439e-02,-1.596452284099772467e-02,6.503439870742099699e-04,1.269640675623223268e-04,-7.724111496332221284e-04,2.867367267608642578e-01
2.644304075184685243e-01,-2.313026273282227374e-02,-2.595478230407900766e-02,-3.395389996728541133e-04,-5.459338502858585062e-04,-3.689233729080301978e-04,2.889861464500427246e-01
2.747774613331294136e-01,-1.360768245077155492e-02,-2.540876119784438170e-02,-1.822848593647018005e-03,6.291314949722395236e-04,-1.291410788064128057e-03,2.944905161857604980e-01
2.615254872230273198e-01,-2.334985929830940554e-02,-2.920214263838606661e-02,-4.003378559671337197e-03,-4.289081345903435379e-03,-2.638617298299310385e-03,2.880617082118988037e-01
2.843106094748215629e-01,-2.945473514280552707e-03,-2.868969040675936610e-02,5.375437201707958766e-03,2.612977520059517854e-03,-1.243518037293019074e-02,3.019024133682250977e-01
2.630550983052322156e-01,-2.397746520249939561e-02,-2.278133021325431939e-02,-7.400196719111514637e-03,-2.179070832653424473e-03,-2.251429723630716216e-03,2.867743670940399170e-01
2.590428499323073064e-01,-3.552082264184067140e-02,-1.918713028543454768e-02,-4.974151329581655349e-05,3.863732080183816223e-04,-2.121959732013756119e-03,2.867702841758728027e-01
2.695102322775823622e-01,-2.718745684427600895e-02,-2.719539107340866735e-02,4.492598365498659757e-04,3.065716244565977618e-04,-3.586963408636704456e-06,2.967031598091125488e-01
2.736887972163293270e-01,-1.354051603353374766e-02,-2.553844169470974312e-02,-2.183993458868617541e-03,1.356307940599591876e-03,-1.236350325557183417e-03,2.934539020061492920e-01
2.781108928789235435e-01,-3.417530341473493105e-02,1.356698878467343938e-03,3.061518373749210885e-03,1.777081205772158227e-03,-1.273187631138047483e-04,2.961868941783905029e-01
2.637722637123580682e-01,-2.508357240903200114e-02,-3.013518339024452708e-02,-6.028000287820432790e-04,-1.290571246200427572e-03,-1.977592528538033891e-03,2.914450466632843018e-01
2.491816584756662289e-01,-3.422836232430294390e-02,-1.730005274860250963e-02,4.956972802557598775e-05,-1.256414345924471382e-04,2.217293484356708342e-03,2.753633260726928711e-01
2.642477639372394771e-01,-3.471831339749759104e-02,-1.927965723898128481e-02,4.334205506925111959e-03,4.625203318226250512e-04,1.617705202057605554e-03,2.916646599769592285e-01
2.693828624104332992e-01,-2.380399225411790332e-02,-2.471701747260753035e-02,-3.311525921406367062e-03,1.901028727397822016e-03,2.874295243433089677e-04,2.937193214893341064e-01
2.634601936788545373e-01,-2.056630855288645032e-02,-3.312383689017305011e-02,8.749994246906867001e-04,5.648916621599571377e-05,1.509570495045684576e-03,2.905246317386627197e-01
2.639398796366492217e-01,-3.381808066039046490e-02,-2.023726612246123935e-02,2.733551452562268339e-04,-3.134545026512522295e-04,4.470354247939198935e-05,2.912060618400573730e-01
2.503297437719194662e-01,-3.231275991349868981e-02,-1.591228757768288482e-02,1.079149274907406121e-02,1.789685455216320428e-03,4.546240575499647290e-04,2.754630446434020996e-01
2.635369111948259735e-01,-2.053144727933012281e-02,-3.373181393957794261e-02,2.968167253479779013e-04,1.743515796096085707e-04,3.078215480296121482e-03,2.909427285194396973e-01
2.610869809861390278e-01,-3.379459104503552969e-02,-1.677828070093062562e-02,4.652966339053742247e-03,1.465929845504507483e-03,-5.837680093742155137e-04,2.868785858154296875e-01
2.318663075126614348e-01,-2.712699592696506123e-02,-1.396866790529761870e-02,1.182134523470360077e-02,1.061299827731586754e-03,2.403258892761029296e-03,2.535403072834014893e-01
2.624756483112561378e-01,-3.242539245675060688e-02,-2.271132952978510700e-02,-1.113663976101683618e-03,1.962442925817801768e-03,8.500957692955316133e-04,2.901960313320159912e-01
2.297056298087078174e-01,-2.758142720073333831e-02,-1.135561375547425311e-02,1.066399144004133263e-02,6.904223021637250282e-04,1.517694419271387995e-03,2.502692937850952148e-01
2.582881225832592831e-01,-3.420587149848249020e-02,-1.786837761633867927e-02,4.237365055467147250e-03,9.785645386699598925e-04,6.471793318500267383e-04,2.847789227962493896e-01
3.197565332239405422e-01,-6.019557515635209910e-03,-4.250959923111957695e-02,-1.166434190402419746e-02,4.334193282243779116e-02,-3.231075842695917827e-02,3.585036396980285645e-01
2.636011412391937037e-01,-2.028425437150883914e-02,-3.446177716140401415e-02,8.893215283861531824e-04,-3.375126090971225420e-05,9.202585283060269340e-04,2.912415266036987305e-01
2.510343570201440944e-01,-2.521517527129787939e-02,-1.977629918063424086e-02,2.621977631936373704e-02,-1.879372838560357598e-02,2.248381183595462868e-03,2.792456150054931641e-01
2.643036074922485712e-01,-2.514617153754002132e-02,-2.798326843651449680e-02,1.052647262076226303e-02,1.647616597962366656e-03,-7.032449518595105739e-03,2.917179167270660400e-01
2.640390893994923882e-01,-3.104013750020216678e-02,-2.412562396408332588e-02,-4.602577842635521312e-03,3.156086161637438030e-03,3.420483979260170986e-03,2.919037044048309326e-01
2.562138602210118909e-01,-3.613852994720716250e-02,-1.643408182752276181e-02,6.952336079936486345e-05,5.438506207049159788e-04,8.391697063715848831e-04,2.830204069614410400e-01
2.692762915053866224e-01,-1.456190640989085683e-02,-1.461113798057914193e-02,5.912343723797177167e-04,1.884500713678593110e-03,2.245598599314216001e-03,2.839100658893585205e-01
2.690714101356451726e-01,-1.811323208556915587e-02,-1.085372614753840614e-02,3.217867832976977122e-05,4.006521551944537901e-05,2.383462615293722043e-03,2.836546301841735840e-01
2.761978775548772358e-01,-9.397944102106647879e-03,-9.003187427293377065e-03,-1.010555663090595239e-02,-9.107059834112087374e-03,1.917474468279532773e-02,2.882890701293945312e-01
1.459257727673947402e-01,-5.003879961318442871e-02,1.614571056998423751e-02,-4.177171087201636025e-03,-5.693199845935829895e-02,-9.387835188196708841e-03,1.996326148509979248e-01
2.543678791051440791e-01,-2.134191125514137144e-02,-2.146298049361883287e-02,5.904754055973424585e-03,-1.426786228605819717e-02,-2.588447066432176830e-03,2.771005332469940186e-01
1.965632614771034292e-01,-1.013096631513374368e-02,-2.135623419954449376e-02,9.328475400167873799e-03,-3.373581057275904654e-02,1.052546589856813257e-03,2.210144996643066406e-01
2.648235477700107143e-01,-3.601191668518197164e-02,-1.906085396254843245e-02,2.506465507185162180e-03,8.902735038282102911e-04,4.770876519745187059e-04,2.927656769752502441e-01
2.665581245017515366e-01,-2.047604574437771052e-02,-3.195283372682973522e-02,1.018640360688350110e-04,-4.114230886865796809e-04,-1.945717775830060317e-04,2.929423451423645020e-01
2.399903520675911173e-01,-1.515398632515116417e-02,-2.827246046594601714e-02,9.879658670615770744e-03,4.504074854528221372e-02,2.631731613740700406e-04,2.738555669784545898e-01
2.662417372587811970e-01,-3.204708617166279749e-02,-2.189018651474446131e-02,5.131396747227257780e-05,3.029078952386057323e-04,1.081535094951575904e-03,2.933487594127655029e-01
2.150427264870355126e-01,-1.543866339334191984e-02,-2.122271110747328549e-02,-6.609982372263472142e-03,3.163872526929855516e-02,2.544260823387366546e-03,2.400869876146316528e-01
2.761119777790614904e-01,-2.490215632359492337e-02,-2.290823195970012605e-02,-2.598960810012702731e-03,6.576298656653190380e-05,-1.044217671363850209e-03,3.000613749027252197e-01
2.606643112120725636e-01,-3.589387305694356767e-02,-1.637500050101974025e-02,-1.052625124251447658e-04,-2.017730366082759615e-05,3.537097765893653625e-05,2.872965335845947266e-01
2.715556606004128071e-01,-2.113707234247327871e-02,-3.149189911146337006e-02,5.570634421613536490e-04,3.394479579875633781e-03,-9.516454126229798244e-04,2.980692088603973389e-01
2.763069817185250798e-01,-2.370435062523289227e-02,-2.556382351705878408e-02,-9.182633088004100476e-04,5.111439167194494100e-04,-5.637069269754843006e-04,3.009524643421173096e-01
2.771236611033611741e-01,-3.157703772734139769e-02,-1.336705718696987177e-02,-1.564098471523492654e-03,6.710383213189926102e-03,4.295235756624882326e-04,3.002486824989318848e-01
2.618863491449157088e-01,-2.946011722752937823e-02,-1.198374582049158144e-02,1.734722884582979956e-03,1.979797827422665954e-02,1.320693047118201655e-03,2.851081490516662598e-01
2.613907860015435292e-01,-3.035621712001908279e-02,-2.375844247153602318e-02,2.645793524147403773e-04,1.681967674328434432e-04,5.640580328723751417e-03,2.886705994606018066e-01
2.295958112139616369e-01,-9.909339585663076710e-03,-3.102127115889324882e-02,4.826570904767646950e-04,-8.772747088421262510e-03,4.613263271202332254e-05,2.511900365352630615e-01
2.975020459014301455e-01,2.249207857192768445e-02,-6.455231164313521286e-02,-9.767784196004566932e-02,3.155645509812188970e-02,-5.420716840541070676e-03,3.726174235343933105e-01
2.941498931054487009e-01,-1.078322327897077160e-02,-4.204819032106293930e-02,-2.442203260563844888e-02,5.480894255575342183e-03,-9.914701004721485512e-04,3.246194720268249512e-01
2.732839364672645099e-01,-2.647588009572272860e-02,-2.431542370778023987e-02,4.337472843958535204e-03,-5.544069289725556474e-03,3.622152902156172314e-05,2.989341914653778076e-01
1.674984524916025286e-01,-4.992724388549335535e-03,-1.994603484955610739e-02,-5.401229339029608653e-03,-2.796074547108217540e-02,-1.895827256482815991e-03,1.870824247598648071e-01
2.646562564325929401e-01,-2.124169809145898258e-02,-3.508198739212874118e-02,9.565069708064948516e-04,-9.454389223687702584e-03,3.012967885453903308e-04,2.935256063938140869e-01
2.245424249293853647e-01,-1.031820924103375725e-02,-2.742271738576249063e-02,6.665909049923363864e-04,2.398704553177842817e-04,-1.874004598886929709e-03,2.438878864049911499e-01
2.036776264716085028e-01,-7.943742604407444396e-03,-1.333378497155604525e-02,1.527148232074445418e-04,-5.355504402094630459e-04,4.656103766223471802e-03,2.145210355520248413e-01
2.535443969817699483e-01,-1.844668794386926380e-02,-2.930750145061059020e-02,-9.286290121431361490e-04,-5.914412065165057346e-03,-3.538909657773529460e-03,2.778421342372894287e-01
2.300249344848117883e-01,-1.352434780000646986e-02,-2.888851627047506199e-02,1.549679918160298429e-03,-1.998372615644174177e-02,-2.478985481095258639e-03,2.540037930011749268e-01
1.857186154175051174e-01,-2.632482507111835734e-02,1.477138759634637893e-02,3.222316157344762289e-02,-4.747041392539885080e-02,-8.994520629292637737e-03,2.192148715257644653e-01
2.711752724856425489e-01,-1.213570891153964437e-02,-1.569026404618169279e-02,-1.730697370667185918e-04,3.939167492938640573e-04,-2.505840071460282634e-03,2.851388752460479736e-01
2.798565403583525013e-01,-4.121043459456391611e-02,-1.295379715908082097e-03,1.522999956171993546e-02,-1.328426265645794684e-02,-5.682041549191602439e-03,3.052604496479034424e-01
1.587788067094462185e-01,-1.218227333425202230e-02,-2.947055568990157581e-03,-4.375653161467826097e-02,-1.079936102247745083e-02,-3.440827968180135924e-03,1.840201467275619507e-01
1.855528407973618676e-01,-2.257847673561340363e-02,-1.577730192134249587e-02,-3.999881242481716226e-02,8.341301284480930750e-03,-5.468427868438231580e-03,2.169044017791748047e-01
2.021529286784363166e-01,-2.230705594495353827e-02,-5.815670935405151121e-03,-1.593597457329303663e-02,-7.966947307421455311e-04,-4.914217446784230510e-03,2.186065316200256348e-01
1.986469803331716300e-01,-2.388706195697683221e-02,-7.939976759891512192e-03,-1.644764911257986378e-02,-1.820153956400669300e-03,-1.449894815021360696e-03,2.169210910797119141e-01
2.749762689446209052e-01,-1.352561858872929068e-02,-2.698938999258782001e-02,-4.286035549505103417e-03,1.386873219596899964e-03,-8.373241215099417245e-04,2.955704927444458008e-01
2.825033578527412770e-01,7.383443237888476229e-03,-3.374515067098041166e-02,9.738701966825922488e-04,-4.057617161394717594e-04,-3.226897733418920486e-03,2.978798449039459229e-01
2.760939636090539162e-01,-2.461843485300291290e-02,-2.920762695131104425e-02,-1.605467556994603223e-02,4.976015229419379626e-03,7.246469991798449965e-04,3.044308722019195557e-01
1.764315653748483870e-01,-1.429607072161123704e-02,-2.392232124885179667e-03,-8.277587130654649088e-04,7.159047733615257064e-03,-8.148167560684820183e-04,1.854889392852783203e-01
1.607778431451970524e-01,-7.906156281243109651e-03,-2.260180422172450299e-04,-1.974578314142846902e-02,4.935568399286382807e-04,2.317439093720224854e-03,1.685357242822647095e-01
1.279394090472759371e-01,-2.982352225489641462e-03,4.154563945692822668e-03,-1.988946879037138682e-02,-7.104433210456140638e-03,-1.144748165296496228e-03,1.326619386672973633e-01
2.719247214180583461e-01,-2.582140855093432996e-02,-2.368621990688410395e-02,-5.219227846985909254e-03,4.928983485913125337e-03,1.264173820118153022e-03,2.969528138637542725e-01
3.023616946392750360e-01,-1.137855681474375658e-02,-4.203313488510285190e-02,-1.626961089577535005e-02,1.327109239727269387e-02,-5.121044695601264900e-03,3.322519659996032715e-01
1.601858448293779491e-01,-5.479192309422245555e-03,5.426500972261286138e-04,-1.943380347807138406e-02,-1.077499000181803175e-02,-1.652150744878339147e-03,1.672515124082565308e-01
2.595347355184232652e-01,-2.558892723325077723e-02,-2.035479857796991532e-02,9.946313322297865942e-04,4.578283674016500604e-02,3.736034386728575435e-03,2.935363352298736572e-01
2.659597163504078265e-01,-3.501035220802267700e-02,-2.159973697675278415e-02,-4.391219532882042337e-03,2.967922282464234302e-03,1.064881454208050455e-03,2.946426868438720703e-01
2.655053467752259144e-01,-2.167588769795773807e-02,-3.039595837455610905e-02,-8.431225352818296805e-04,1.947831573374283944e-03,-2.704465880910016630e-05,2.916622459888458252e-01
2.667052975616434063e-01,-2.347130621323634259e-02,-2.816439605961404413e-02,1.881451202894614868e-03,2.063828583944154506e-03,-3.011519741995797965e-03,2.926378548145294189e-01
2.599819880254357063e-01,-1.917433919594889458e-02,-3.160785487577960629e-02,2.594612298537027177e-03,3.583948203760870151e-03,-3.070899529528816393e-03,2.857284843921661377e-01
2.402629303278897843e-01,-1.554509909046591920e-02,-2.774124613114166416e-02,7.120839811488288359e-03,9.771737464168416334e-03,-2.480394878623059639e-03,2.629893720149993896e-01
2.603551946047431009e-01,-1.963363002859228046e-02,-3.394350693849074174e-02,7.604524969638417177e-04,5.423094045910427201e-03,-1.510564064007979736e-03,2.875794470310211182e-01
2.759361341633698173e-01,-6.827038614632602309e-03,-2.687054788307856323e-02,3.754241857462967125e-03,-1.391862977777623411e-03,-2.511319228993066401e-03,2.934132516384124756e-01
2.518470921791334804e-01,-3.471108026546801395e-02,-1.504950704098012570e-02,-3.241269125329920668e-03,1.301141126783253834e-03,1.862254667232994803e-03,2.773354947566986084e-01
2.673422993573518758e-01,-3.523387378846364049e-02,-1.918621221397212584e-02,-4.327209055017320824e-03,6.845293608052167769e-04,9.827439407430423914e-04,2.949825525283813477e-01
3.300224231466920011e-01,1.495123973087032765e-02,-5.810570289436403635e-02,-1.208647166077831542e-02,1.234816547320618423e-03,-2.155078868820915327e-03,3.578855395317077637e-01
3.009993047938409050e-01,1.466551691611509001e-02,-4.470561617632237694e-02,-4.731112803713634352e-02,1.333949687714422461e-02,-2.071143599818886863e-02,3.332381546497344971e-01
2.695262681994043952e-01,-2.329989224879693011e-02,-2.974335198619039444e-02,-4.413746071680980454e-04,4.066715326248645547e-03,9.802209526515624164e-04,2.961900830268859863e-01
2.569931927662992832e-01,-3.685454503080996813e-02,-1.694121892543712371e-02,-1.574506210980004990e-03,6.699046779848087316e-04,2.019485750594636692e-04,2.844300568103790283e-01
2.370249326713163296e-01,-2.104605332130016215e-02,-2.126451669648452003e-02,-5.327035869798855267e-03,7.961874385091516695e-03,6.136466275019140416e-03,2.589311301708221436e-01
2.680988820911865966e-01,-2.558218357584542135e-02,-2.572082227835945090e-02,-8.645500194040346698e-03,3.671752503251531075e-03,-2.864388865754668740e-04,2.942009866237640381e-01
2.832185434346713437e-01,5.459765045193562538e-03,-3.027545796702293956e-02,-1.489830520153580728e-03,4.331832586010967052e-03,-1.279672988378934007e-02,2.981726527214050293e-01
3.073470072495284588e-01,-9.721981211199257067e-03,-2.326313097164686705e-02,1.004095124575622722e-02,-2.759608962171068713e-02,-3.256101094895897524e-02,3.328323066234588623e-01
2.655890740466723687e-01,-3.613805254723373439e-02,-1.768371459775607002e-02,2.670374663137123870e-03,-3.983929516766850109e-04,2.436542033179311441e-04,2.929738759994506836e-01
3.434531032131372674e-01,6.336223878879748694e-03,-6.715637681657729563e-02,-9.724055462809340009e-03,5.182978990965299987e-02,-2.070820520417129135e-02,3.917316496372222900e-01
3.228353841668170077e-01,1.490700838778362403e-02,-5.430886541240662058e-02,-2.532384849765872189e-03,1.045464847407510771e-02,-4.788882724443783122e-03,3.483392000198364258e-01
2.655476755124097643e-01,-3.537837578263379468e-02,-1.813683677821240070e-02,1.810740017355269051e-03,7.137741876574285778e-04,-9.085226424878573904e-05,2.927058637142181396e-01
2.768803535973773933e-01,-2.531946775266279148e-02,-2.354311637413186720e-02,-1.757645563916134662e-03,8.826288672724809565e-05,-4.726126097951682662e-04,3.013321161270141602e-01
2.989700462465295083e-01,1.931404658812818642e-02,-5.987527156414884644e-02,-4.163174291569566449e-02,2.722728654885872915e-02,-1.197002395178080152e-02,3.383454084396362305e-01
3.051564929248700153e-01,5.559977960466616631e-03,-3.528742431116102529e-02,3.045252907650739665e-02,-7.873206376890191580e-03,-2.576389198667472513e-02,3.295810818672180176e-01
2.640701670220710895e-01,-2.783370230238005338e-02,-2.566345933856938044e-02,-1.357586226862660637e-03,1.969494584248559273e-03,3.264464483698622296e-03,2.909092903137207031e-01
2.416561427860586808e-01,-2.732058907959952765e-02,-1.802075663078593626e-02,-2.729855546012409980e-03,5.996532127916258045e-03,6.104454916557260254e-03,2.649067044258117676e-01
2.505083629998439143e-01,-3.080130292808766490e-02,-1.977762068120432482e-02,-5.269040036407077014e-03,1.999905369901210529e-03,3.804168641049326168e-03,2.762142121791839600e-01
2.787808537333152370e-01,2.744056217282908605e-03,-3.235578707223077388e-02,7.145329624125324949e-03,3.891708944483572206e-04,-1.273353780169850886e-03,2.954245209693908691e-01
2.636127871312557991e-01,-3.105005017964478087e-02,-2.058070104838455316e-02,-1.119657843760155091e-03,2.083623846012779088e-03,3.547977149875725881e-03,2.896643280982971191e-01
2.728705179394527169e-01,-1.639680798733764155e-02,-1.757413069721570908e-02,3.984878241813141742e-04,-2.054352053134323803e-05,-6.037452059700363152e-04,2.898604869842529297e-01
2.547356414198479468e-01,-3.116594013031735722e-02,-2.002421256443698283e-02,1.820307796681342437e-04,2.200361041241986892e-03,4.060360132197317166e-03,2.806109488010406494e-01
2.566100591830028921e-01,-2.784317511476258611e-02,-2.580430995286321638e-02,-3.341407381422419488e-03,2.977093987779687138e-03,4.286126898829102638e-03,2.836424410343170166e-01
2.712464500191208439e-01,-2.403860911377730947e-02,-2.828115270532273462e-02,-1.848167729649965074e-04,5.901284152139147331e-03,2.400070134552076320e-03,2.976337969303131104e-01
2.710682559606758524e-01,-2.412137229807241601e-02,-2.632855857252315579e-02,-1.120482582463538620e-04,-2.878690858051193078e-04,1.110561889172264173e-03,2.963061034679412842e-01
2.762604149830083511e-01,-2.830645811011434088e-02,-5.547366506733250602e-03,1.575422709089130879e-03,-7.282777910168678967e-03,-5.611176150595075310e-03,2.942928969860076904e-01
2.620759807536251484e-01,-2.239270470444221228e-02,-3.053976113520791291e-02,-1.426758355899178810e-04,3.979041959789130986e-03,3.614603669622269179e-03,2.887787222862243652e-01
2.717932517812350346e-01,-2.225481070058450694e-02,-2.915808140463921339e-02,-2.205610910531851515e-04,5.178976534150610093e-03,3.201657011601753092e-03,2.977468371391296387e-01
2.672831680620666450e-01,-2.212686835583978218e-02,-2.986128304554559743e-02,9.263332544313552120e-04,9.890059619154623061e-03,2.101584101350589037e-03,2.938803732395172119e-01
2.703701932298971378e-01,-2.317801063664984285e-02,-2.553622805035354881e-02,1.440212972197928024e-03,-3.427505633379276939e-04,7.546620115220040463e-05,2.947455644607543945e-01
2.661878516272785933e-01,-2.194597232586206759e-02,-3.204058227921693924e-02,7.385199898187004000e-04,5.348398754635089040e-05,5.884788668084142433e-04,2.933160066604614258e-01
2.646019757001173422e-01,-3.263156448153180234e-02,-2.051914819090554232e-02,1.072687163784757057e-02,2.329859941789729633e-03,-1.531881248356747839e-03,2.919979393482208252e-01
2.404939407798348250e-01,-1.753303657467521204e-02,-2.381396716173296568e-02,9.521315851098459751e-03,9.002262012633143254e-03,3.470119199212467510e-04,2.622088193893432617e-01
2.798208362339326127e-01,5.900808060029530400e-03,-3.413843403970776014e-02,-5.465213809144479733e-03,9.635832664259286889e-04,4.314736418379817775e-04,2.961347997188568115e-01
2.532348143126917916e-01,-8.304191616302594725e-03,-2.525800600134733842e-02,1.169423940897516834e-02,8.378675342155146588e-03,-3.789233756712730161e-03,2.716396749019622803e-01
2.570801787921511150e-01,-9.826006323033237289e-03,-2.938753599800396354e-02,1.567748394386265717e-02,2.554693717385957304e-03,-1.126239374104790998e-03,2.785738706588745117e-01
2.553866822911805556e-01,-2.783992812506047576e-02,-2.097185459056119528e-02,2.003925276742952923e-04,7.977402323407396540e-05,-3.972271637088894101e-03,2.799406051635742188e-01
2.428311263909678774e-01,-3.079447867244095027e-02,-1.516121280130799942e-02,-9.136335372267484836e-03,-1.846849717091871793e-03,3.123071739446953588e-03,2.666976153850555420e-01
2.696172411073377573e-01,-1.839772379240639522e-02,-2.409935646574296042e-02,-7.289541205610227271e-04,-1.502166954086902890e-03,-2.597651855206104476e-04,2.909224033355712891e-01
2.609370800749032382e-01,-1.730781455758154119e-02,-2.256134097179669784e-02,1.392648609082820224e-03,1.359987928362823683e-03,-9.612057181326089583e-04,2.809336781501770020e-01
2.767762499143081034e-01,1.069782232746775696e-02,-3.726547782248920693e-02,-5.475169100293152125e-02,-2.806583306865248571e-03,2.116687312840464380e-02,3.101954162120819092e-01
2.740495708054049295e-01,-2.656759928962756923e-02,-2.386973147370147208e-02,1.477885771523776252e-03,-8.054471089830212175e-04,-9.760800090923000931e-04,2.992963194847106934e-01
2.741074069336357222e-01,-2.826866534804890752e-02,-2.377385025056845402e-02,-3.523153116353974095e-04,-1.869641882510708673e-04,-6.624972855410482270e-04,3.001568913459777832e-01
2.483384869433521436e-01,-3.023655182772777561e-02,-1.484142836001242638e-02,-3.112440837736484694e-02,7.979399045209783700e-03,2.989384634951379113e-03,2.769050002098083496e-01
2.550729943341865091e-01,-3.529763840827250532e-02,-1.573201717143517253e-02,-7.858468097806989685e-04,2.044056740511108583e-04,-3.256553243714350922e-04,2.811030745506286621e-01
2.648507720385759878e-01,-2.308514656010825228e-02,-3.063792912655213807e-02,-5.321133803277702193e-04,5.246941096481305558e-04,-5.333723237565987348e-04,2.917899787425994873e-01
2.680028497727922066e-01,-2.649669231185683427e-02,-2.862134368468703671e-02,2.548812890825221224e-04,1.097749335618654473e-03,2.642201875343140258e-03,2.956094741821289062e-01
2.649657393023521212e-01,-3.145456091573944901e-02,-2.371136765411301084e-02,-2.333443134106573651e-03,2.030837839400903566e-03,3.153999338294467304e-03,2.927255630493164062e-01
3.815617535876000832e-01,1.142432226780765170e-02,-6.341143227355722223e-02,-1.185705071428422470e-02,3.911048528038175986e-02,-1.000529114087244861e-02,4.190615713596343994e-01
2.500600427748608245e-01,-3.513265413251574765e-02,-1.460822249742375900e-02,-4.236803298634891045e-03,-2.576917797764070157e-04,-1.188457863232000172e-03,2.756102383136749268e-01
2.684220863114027411e-01,-2.938664328487439192e-02,-2.556777796493188426e-02,-4.781493197133217677e-04,2.257846223704831987e-03,1.087842600664703629e-03,2.959507703781127930e-01
2.579576283807553105e-01,-3.552386996112276429e-02,-1.709173673515337888e-02,-1.685557797050478152e-04,2.908902423710971251e-04,-1.250878277141750222e-04,2.847139537334442139e-01
2.698171939438853695e-01,-2.875551667736510331e-02,-2.563407428878813898e-02,-1.620598588300715005e-03,1.703001741846078918e-03,1.409007470499182898e-03,2.970622181892395020e-01
2.618386838000635874e-01,-3.418265061135347671e-02,-1.978790752362910577e-02,-4.468199216210778403e-03,3.442353241932987959e-03,-5.733513324514458685e-04,2.892596125602722168e-01
2.707945592730546247e-01,-2.678690235188294078e-02,-2.787924705863703556e-02,4.652776916576387665e-04,4.214609234376289149e-05,1.036800702753509784e-04,2.981302738189697266e-01
2.684706783502250338e-01,-2.530641395379062963e-02,-2.428171634622779129e-02,1.222140304519132815e-03,2.606115597024816297e-03,6.768889503716727990e-04,2.933107912540435791e-01
2.344576702428505521e-01,-2.171898854024550962e-02,-2.158919211885182432e-02,-7.591422726303120525e-03,-1.507566922277323029e-02,-9.250418397615178465e-03,2.582724690437316895e-01
2.626737652808502355e-01,-3.421567255640535488e-02,-2.003024484112944648e-02,-4.052879107461312969e-03,1.441624253652707907e-04,2.825151313921172398e-04,2.901424467563629150e-01
2.824832578339574463e-01,1.020139344105312762e-02,-4.963952900545606783e-02,-8.865258528100121438e-02,-1.398843722723438696e-02,2.646142071076195215e-02,3.468103706836700439e-01
2.487954365778078103e-01,-2.221974889323440061e-02,-2.539703426545968090e-02,-4.022534148765588200e-04,3.849143305430436333e-03,5.378877178598130866e-03,2.728592157363891602e-01
2.597311331633702092e-01,-3.332457683476972021e-02,-1.987387005398726092e-02,-9.262898173240650436e-04,-4.704776960645055831e-04,-7.484606148249081615e-04,2.865757942199707031e-01
2.650761999072675512e-01,-2.611065827113769056e-02,-2.551668919775595956e-02,-2.072159481989235049e-03,2.424031533342355625e-03,2.453287687424975626e-03,2.909737825393676758e-01
2.688072229180793471e-01,-2.444192567381710257e-02,-2.880764790535354780e-02,-1.121628434027525673e-03,4.118006096330378146e-03,2.297104505201105241e-03,2.955754399299621582e-01
2.641243189844720840e-01,-3.593952883565265655e-02,-1.891790647953607574e-02,-7.437438889329572433e-04,-2.371804273636953517e-04,1.974251557021597847e-04,2.919287979602813721e-01
2.685012023793018066e-01,-2.297997903137681541e-02,-2.898678738437390767e-02,2.828527914015688391e-04,3.723527628226486370e-03,2.313995322426101557e-03,2.946287989616394043e-01
2.711006234947128668e-01,-2.124501159636585368e-02,-2.590345639255267618e-02,1.013164116556348088e-04,-2.688273628397402069e-04,-6.866865258744323701e-04,2.947053015232086182e-01
2.695273720564085873e-01,-2.132051579150580356e-02,-2.339279386659978699e-02,3.329650169696944835e-04,9.055563920948909128e-04,-6.001149241556868802e-04,2.918961644172668457e-01
2.717852168460996864e-01,-2.288326962528650088e-02,-2.530012025498283579e-02,-2.195041020720015553e-03,3.945983224318876104e-03,1.215356605135344513e-03,2.959951460361480713e-01
2.265692372246326802e-01,-2.566293200608781022e-02,-1.294876089198117308e-02,-9.468756681747693069e-03,2.811321251883005211e-03,5.636252292259190388e-03,2.469084411859512329e-01
1.629465745908176000e-01,-5.342383188869738453e-03,-1.436264445075897955e-02,-5.255931239050341819e-02,2.387739086852718254e-02,-1.472931892289445696e-02,2.014180719852447510e-01
1.657658454256125402e-01,-2.204278846054438801e-03,-2.421759861061302532e-02,-5.646460366153148447e-02,2.393239033804298380e-02,-8.476469386911151052e-03,2.095106542110443115e-01
9.146373303207849803e-02,8.372077752247346349e-04,-6.181367681618504806e-03,-5.808629396095085773e-02,8.207680900800019830e-03,-1.089163962427667533e-02,1.399233043193817139e-01
2.725795873641698730e-01,1.179140124490957175e-02,-2.978243918956030578e-02,-1.566109779780594253e-03,1.193813502698401084e-03,4.560611238986841606e-03,2.839979827404022217e-01
2.190572010366899913e-01,-2.746361511548073286e-02,-7.306410774586977186e-03,-1.925706654937378234e-02,1.119989885688100172e-02,4.060391263895607623e-03,2.403080016374588013e-01
2.631334461273502345e-01,-3.339137952591027247e-02,-1.811801887518900422e-02,2.549681544756585583e-04,8.079014452455301988e-04,-1.175174997365945062e-04,2.891945838928222656e-01
2.740692103934838642e-01,-1.967392103571388717e-02,-2.140064815961799372e-02,-2.330107774790604169e-03,-2.371826754165574664e-03,9.144180869023448704e-04,2.946708202362060547e-01
2.724133999914958304e-01,-2.396230903110276034e-02,-2.917160502993031146e-02,-1.334167826456609997e-03,-8.971346225468204705e-04,-9.900527473922812564e-04,2.990322709083557129e-01
1.447727332157314750e-01,1.597307096753779881e-02,-5.704836276494722191e-02,-5.797086086325928256e-02,2.257118445502777002e-02,-1.415661084231793244e-02,2.086578160524368286e-01
2.756290843369744725e-01,-1.180886410834268430e-02,-2.658297588010062606e-02,7.485405556228624455e-03,-7.455688132816920468e-04,-7.214155116945143329e-04,2.953926324844360352e-01
4.540794187748997679e-01,-1.265459673807647900e-02,-3.699863662840355283e-02,1.913950200747353836e-02,3.246949531543092543e-02,3.120834651487273959e-02,4.868049919605255127e-01
1.583011356084139676e-01,-1.102074988947646106e-02,5.791656208603730704e-03,1.125654751695936637e-02,4.821866460960794187e-02,9.457730361237736902e-04,1.829310804605484009e-01
1.869034832503868593e-01,-2.077809003643470154e-02,-5.639786834158791451e-03,-4.134058807859192219e-02,7.819373745582513385e-03,3.401592445462833011e-03,2.134528756141662598e-01
2.723698799590672515e-01,-2.271508518841136581e-02,-3.212652071526408970e-02,1.381773599025613820e-03,1.022180030936514555e-03,7.107105479269096044e-04,2.999187707901000977e-01
2.694012440029832645e-01,-2.159244707914298456e-02,-3.101803207136645535e-02,2.195160670636354863e-03,2.059190681874376646e-03,-2.692105348579655784e-03,2.959018051624298096e-01
2.615973920743588366e-01,-2.497167561514547496e-02,-2.636755881899201237e-02,-1.511786397120306897e-03,2.535373423521884283e-03,-4.699368896688366562e-03,2.874303162097930908e-01
2.725351446770246655e-01,-3.079854731630245201e-02,-2.086177848835608917e-02,4.766437026187316309e-03,2.137075360967057025e-03,-7.257048902444050118e-06,2.986264824867248535e-01
2.642114791172235355e-01,-2.505668717923714706e-02,-2.525230481394302728e-02,1.486689360261605943e-03,4.678658359596846693e-03,-3.212647152285605899e-03,2.895444035530090332e-01
2.755115611785605712e-01,-2.513940382899332304e-02,-2.862590978590197344e-02,1.654621697602253903e-04,-2.560089163817317877e-04,-1.404195335704265610e-03,3.024195432662963867e-01
2.813350357682437575e-01,1.587936675688145227e-02,-3.721236737345862133e-02,-1.625765289527268198e-03,-6.277269359625410865e-04,3.014471930358941700e-03,2.956608235836029053e-01
2.795364594807647762e-01,-2.428064797181214707e-02,3.888603410145116679e-03,1.937461176937049345e-03,5.227325691362510757e-04,6.477849767507736986e-03,2.909948527812957764e-01
2.747460396121851334e-01,-3.487819462824615080e-05,-2.874814701497624414e-02,2.153835017783526165e-03,-1.627478488533704503e-03,2.471639064441991107e-03,2.902741134166717529e-01
2.738372952342132405e-01,-2.974688698427263578e-02,-2.235740755474156793e-02,1.307988571616747371e-03,1.127438271015385185e-03,-3.458998965770347829e-03,3.000324368476867676e-01
2.739934742381086030e-01,-3.732736343872722351e-04,-2.886511536564609348e-02,-5.159089232150412124e-03,3.156159451702654842e-03,3.227869433558410925e-03,2.899087667465209961e-01
3.074267324033601589e-01,-3.154262261851464855e-02,-1.796581287000181826e-02,8.137474349692551401e-04,1.104744811395562583e-02,3.334461131859019298e-03,3.329923450946807861e-01
2.703610010202099900e-01,-2.451931999918827154e-02,-2.273268415396345610e-02,-9.631270847654583613e-04,-6.700844221585244365e-04,7.777626234929686105e-04,2.940011918544769287e-01
2.787694740581225794e-01,-2.591094435483116964e-02,-1.477761417247698550e-02,-2.992292657720855339e-03,-2.584957942191871538e-03,2.498029822372770711e-03,2.993787229061126709e-01
2.673496049737324465e-01,-2.299961537977317227e-02,-2.872315856531333644e-02,3.528075032231747094e-03,1.989193287300833942e-03,-4.555163893948954885e-03,2.934428751468658447e-01
2.747573467303511263e-01,-1.233559948786633331e-02,-2.603858203661678361e-02,-7.731174460198537643e-03,-8.441218273186152851e-04,1.339276213745414518e-03,2.945012748241424561e-01
2.465935443983535980e-01,-3.431187423149907600e-02,-1.289817011901119026e-02,-6.725931289599798232e-04,1.175082277413281619e-03,-2.266959684954336553e-03,2.708728313446044922e-01
2.680621658143464425e-01,-2.363824812427964273e-02,-2.409656969066838184e-02,3.452031356064429179e-03,-1.461584723550603477e-03,-7.155025079473941287e-04,2.920046746730804443e-01
2.697372931829804532e-01,-1.907585935115113651e-03,-2.699816190359750900e-02,-7.993091626774613458e-04,-2.277049361548364338e-03,2.833552761785652820e-03,2.850925624370574951e-01
2.696886797064437236e-01,-1.872691723123383334e-02,-2.451755808959797667e-02,-8.681174687116112541e-04,-1.228522064630396425e-03,2.622394511768351443e-04,2.913660705089569092e-01
2.595117643087864190e-01,-3.564308003063142161e-02,-1.787282568260262217e-02,-4.015589265421232699e-03,-2.544374180310718793e-04,-1.892540120735967729e-03,2.867864966392517090e-01
2.699587783366004246e-01,-2.103782746188918862e-02,-2.315866924473025668e-02,-9.828096888777235977e-04,-7.245657980474289614e-04,-7.905088284533186294e-04,2.920736670494079590e-01
2.703538617477425077e-01,-2.201008814837603078e-02,-9.224356383004464477e-03,2.749934996548082222e-03,1.496572201144913275e-03,1.318619799622699693e-03,2.862458527088165283e-01
2.408353416414936721e-01,-2.604440572841253132e-02,-1.911251009533378176e-02,-1.037853565082066769e-02,-8.882026041387564713e-03,-4.591451342267674138e-03,2.646619081497192383e-01
2.657662488503947928e-01,-3.338172481464898866e-02,-2.083615871591887325e-02,7.718823481628052201e-04,1.829978601418779695e-03,-7.503507992860793769e-04,2.930997014045715332e-01
2.663829114001121656e-01,-2.218208511252241222e-02,-3.156458163780577475e-02,4.716275742946997567e-04,-5.165021229000364570e-04,1.924707818999224669e-03,2.933902442455291748e-01
2.536900285032105407e-01,-1.128339847532219831e-02,-2.365809481951383630e-02,-2.978441773568012846e-02,-7.119779570688105838e-03,3.092753763789556944e-03,2.765594422817230225e-01
2.739873766788751830e-01,-1.921840159607698939e-02,-2.399742358045656165e-02,-2.428240741050348601e-03,-2.068013115849995018e-03,9.246302257470664010e-04,2.956802248954772949e-01
2.787957078152842882e-01,-2.663258833195014663e-02,-2.596413009544133732e-02,6.797529624261907863e-03,2.949441597058672163e-03,1.882857342559689912e-04,3.053646087646484375e-01
2.625033282321045380e-01,-3.291216118586859363e-02,-2.007134832154106041e-02,-2.326902382579646399e-03,-4.258128946001101857e-05,-9.626026173073490202e-04,2.892418503761291504e-01
2.656058400539033082e-01,-2.866589349743393911e-02,-2.215022454646609074e-02,4.334918266482160228e-03,-8.379460326356672839e-04,-3.292624907746339539e-03,2.912248969078063965e-01
1.376317854339113023e-01,1.773313335971672677e-03,3.530927521472868036e-03,1.393066636786214783e-03,4.470322931818079175e-04,1.382290415883401062e-03,1.350332498550415039e-01
2.662900812742133860e-01,-2.376909399932913836e-02,-2.534543778319818530e-02,3.295982701489025540e-04,1.745490571218040899e-03,1.350463825424110453e-03,2.908762395381927490e-01
2.709042197311456457e-01,-2.330800407327325574e-02,-2.584655073149884352e-02,1.895056848219074403e-03,-5.717252022369503093e-04,-3.568889620512762106e-05,2.955095767974853516e-01
2.723820023740615714e-01,-2.175835771002866681e-02,-1.733771759232738408e-02,-4.266343223901480604e-04,-8.356716109811434612e-04,2.926672100780377487e-03,2.920036613941192627e-01
2.556814618389222638e-01,-2.788944576678008269e-02,-2.288839742000928212e-02,-1.756198003722332385e-03,-1.046735837164476223e-03,-5.641948918419688319e-03,2.812958359718322754e-01
1.769481521472513474e-01,-4.833793137016373365e-03,-7.812381298265877461e-03,-2.195642170668213322e-04,-9.576110660672600377e-05,5.309434647747502366e-03,1.835204213857650757e-01
2.717781610886149668e-01,-2.143947666922026152e-02,-2.336699105011830202e-02,3.530015345650854247e-04,1.818950107917557870e-03,-4.892289658973069874e-04,2.942048609256744385e-01
2.736988994099531225e-01,-2.051641726459296766e-02,-2.426923723603487126e-02,1.578558583346743177e-03,7.822570877030630889e-04,-7.404043644044005969e-04,2.961280643939971924e-01
2.703093545869686976e-01,-2.232100972731429489e-02,-2.189800935558711137e-02,-1.866035899826771084e-03,-4.737682077151090642e-04,-3.471911966083065159e-04,2.924387156963348389e-01
2.712473857644170372e-01,-2.127654711230810014e-02,-1.842852754160126394e-02,1.647140258245483003e-03,2.891942840831868752e-03,-3.914151169061207136e-03,2.912463545799255371e-01
2.724588416197983864e-01,-2.144244750826000689e-02,-2.315051666518097573e-02,-2.659449421287931659e-04,2.119193137179974529e-03,-7.874569213916382971e-04,2.947854101657867432e-01
2.679233673671219673e-01,-2.249201895290607600e-02,-2.444551027585772918e-02,-3.385102336030126977e-03,2.766099829337616972e-03,1.054419828325743082e-03,2.915011048316955566e-01
1.296635687426628269e-01,1.934523594322848372e-03,5.707952191692552968e-03,-4.358705398929489314e-03,7.067508010262523593e-03,1.583982818522680679e-03,1.267333477735519409e-01
2.346188978677962722e-01,-2.172612592459327585e-02,-2.238368597483265943e-02,1.042925238959591973e-02,6.677805430338815997e-03,-7.704900857728433188e-03,2.579146027565002441e-01
2.780644241215260992e-01,-2.180540360392083099e-02,-9.388628358926759399e-03,4.433497218351054687e-05,6.060637740029020497e-03,-1.009087288625962024e-02,2.945646941661834717e-01
2.680170537222970606e-01,-1.543030516065957425e-02,-7.073197613318857324e-03,-1.796383975098988020e-03,-1.305909154358179730e-03,2.762930073874293648e-03,2.794300317764282227e-01
2.725056603792154752e-01,3.566578255804225828e-03,-2.199653434802485708e-02,-1.087994640684673397e-03,-1.542742240177457074e-03,1.592377134680212150e-02,2.839507162570953369e-01
2.772269810037841786e-01,-2.351623726748604259e-02,-2.495996034179870371e-02,1.129915510643668571e-04,4.144982884493995804e-04,7.247949256856014814e-04,3.014712035655975342e-01
2.778900422172745355e-01,-2.515103209235211579e-02,-2.520599779920856820e-02,9.616039979528760457e-04,3.043094280984945908e-04,-2.320423643244642724e-03,3.031002581119537354e-01
2.761225192921936689e-01,-1.638553479087100084e-02,-2.516633320420888498e-02,3.758491005184274973e-03,-2.754472482615193899e-03,7.989430381617393774e-05,2.971054911613464355e-01
2.775105755791269502e-01,-2.504064043103053361e-02,-2.488746161344240759e-02,-1.005464295359240505e-03,-7.058974495059609170e-04,-4.923565443091909544e-05,3.024821579456329346e-01
2.718602443393806634e-01,-5.835168037923624262e-03,-2.312672919184331766e-02,7.461522063737197974e-04,-1.263489883587888421e-03,2.381317784467588527e-03,2.867734134197235107e-01
2.241572789768518648e-01,1.005622324870851514e-02,-3.591387869706462455e-02,6.454076217858945030e-02,1.915007719193563898e-02,1.076907687760070894e-03,2.671983242034912109e-01
2.772697581884776552e-01,6.852528756066261773e-03,-3.348702723160282280e-02,3.325894608004854175e-03,2.622216872336517821e-03,-2.232132028700672868e-03,2.927969098091125488e-01
2.755913640515448293e-01,-2.501501431890562621e-02,-2.951186914547009044e-02,-1.543125169729097322e-03,-1.518905570022826331e-04,-2.084924476486095957e-03,3.029132783412933350e-01
2.777813219041503356e-01,-2.659957549022039236e-02,-2.033781293751840691e-03,1.814734202856406291e-03,-1.670650342222748923e-03,-5.449138408355709562e-03,2.930549085140228271e-01
2.767198962086920844e-01,-2.476644662889106174e-02,-2.587585823159982423e-02,-1.468414437331535703e-03,-1.340715430443758030e-03,9.733133557109869345e-05,3.020622730255126953e-01
2.749275753315436610e-01,-2.015861758304096640e-02,-1.991086591578745957e-02,-1.110667110611073547e-03,-9.788866381356675639e-04,8.194977732758676860e-04,2.949769496917724609e-01
2.692300992023739514e-01,-1.591486844191522532e-02,-1.796240863175811719e-02,1.606492258934006994e-03,-4.845001498147454748e-04,5.408590248111804335e-04,2.861905097961425781e-01
2.744444131871974779e-01,-1.807116935361864629e-02,-1.953644438137845663e-02,-2.547111444172876771e-03,-1.432270549880922507e-03,1.977123425535925842e-03,2.933146357536315918e-01
2.718194588565050474e-01,-2.459822077107771954e-02,-6.138411254920303484e-03,2.814697803414928888e-03,-6.986546606915871455e-03,6.655344729651687698e-03,2.881587743759155273e-01
2.158685166931512689e-01,-1.615048445028413604e-02,-1.645176726728110606e-02,2.226428162393701482e-04,9.224914445474023358e-05,-7.697224368670990344e-03,2.325526326894760132e-01
2.934722458571817350e-01,1.000340596577860286e-02,-6.907777462293873683e-02,-3.055388496739021298e-02,4.726056124452551743e-03,-1.595226760638491018e-02,3.356434404850006104e-01
2.603237182275983663e-01,-2.312605882699951543e-02,-2.287523536367704058e-02,6.656297355613709742e-03,7.394261855386162138e-03,-1.029183981630828843e-03,2.838535904884338379e-01
2.703678103002186139e-01,-2.034224301224285547e-02,-2.109607035809633879e-02,1.576168667798251346e-03,5.648814028026502175e-04,4.689832061558071256e-04,2.911032736301422119e-01
2.279876782371048627e-01,-2.809487065662974459e-02,-2.036406339366390872e-02,2.534603658206936727e-02,1.998189697593647993e-02,-4.526191908525655470e-03,2.585437297821044922e-01
2.642162814818140859e-01,-2.834622951089507681e-02,-2.827864274010762069e-02,6.855028419669294965e-04,5.327973605949591672e-04,-4.026687235312325329e-03,2.926157116889953613e-01
2.686281806362028068e-01,-1.641583442364641376e-02,-2.346355440612286902e-02,2.248420416409440022e-03,-5.743824580971802589e-03,5.972155272131907111e-03,2.890152335166931152e-01
2.614407864928358638e-01,-3.293192993141873248e-02,-2.143064484391728197e-02,2.408367988715087900e-04,-6.846053226041689871e-04,-1.753409140909041857e-03,2.888126075267791748e-01
2.679320463173411326e-01,-2.707703160286445421e-02,-2.747214957519135414e-02,-2.232888727540423561e-04,-3.655862307593586084e-04,-9.493485237181060240e-04,2.952123582363128662e-01
2.885391674736542678e-01,-1.451293263177985682e-02,-2.101930954339675806e-02,5.474825268783885257e-02,3.670586859543704256e-02,2.056109285421372015e-02,3.288723528385162354e-01
2.683979738928075065e-01,-2.567867140749555133e-02,-2.838936929174031010e-02,-2.619828186634490024e-04,5.686741377546130792e-04,-3.540839048281214907e-04,2.954439520835876465e-01
2.654729503640560484e-01,-3.299706906441161880e-02,-2.148914725361764089e-02,-1.527311811663358216e-03,-9.746232806304145051e-04,-6.308322644430763848e-04,2.929045259952545166e-01
2.664363135106064262e-01,-2.999335024484862944e-02,-2.464047419432971453e-02,-5.861350541343218062e-04,-6.971973724647361230e-04,-9.962349529465302014e-04,2.937991023063659668e-01
2.548678423543980776e-01,-2.872082605855436066e-02,-2.379546222146938783e-02,2.143168134616529885e-02,1.630929140739623834e-02,-5.403383789678363816e-03,2.851552665233612061e-01
2.568807133632042827e-01,-3.299880435068361373e-02,-1.921776862473302538e-02,-1.742480231122187605e-03,-3.983177678986795544e-05,-3.048337917693303215e-03,2.833058536052703857e-01
2.635377975244070914e-01,-3.387104525970782709e-02,-1.878868739304861979e-02,1.101024545758139996e-04,-2.939235879059399928e-04,-3.661005945983792221e-04,2.901630103588104248e-01
2.410928154850863481e-01,-1.841399199052921876e-02,-2.220749693591933527e-02,1.282591910272118732e-02,7.365851535747910961e-03,-4.257223748582314275e-03,2.627798914909362793e-01
2.114302604519759377e-01,-1.041707715081947871e-02,-1.438863547853852509e-02,6.656478494479887986e-02,5.476776353549264731e-02,1.615836240215683464e-02,2.705318927764892578e-01
2.682646639238172037e-01,1.421867153096945113e-03,-2.207321692343425235e-02,3.146161928556976545e-02,1.780265795819443997e-02,2.388401434084315780e-02,2.892373204231262207e-01
2.717622338126358672e-01,-1.908299826678896971e-02,-1.452829048601540773e-02,8.734696219863942283e-04,1.631868679833426827e-03,-3.021981409926916603e-03,2.886601090431213379e-01
2.757638878694506079e-01,-1.602491279047725536e-02,-2.277052086162809075e-02,1.098775715699169819e-03,-3.127310234961522360e-03,8.918140904602034520e-04,2.952792644500732422e-01
2.583435614505255051e-01,-2.492397517676379903e-02,-2.402520040969373383e-02,-1.950553448221971093e-03,-1.755311290591148651e-03,-5.926180771768753582e-03,2.830419242382049561e-01
2.723852622442304305e-01,-1.645195599050482127e-02,-1.484028543872602246e-02,-8.734046987432827862e-04,1.089883852916897957e-03,-1.661895459868976488e-03,2.880592942237854004e-01
2.776669009919813247e-01,-2.603347091334860808e-02,-2.541402498350484040e-02,-5.194067838006485513e-04,-6.981034981240354488e-04,-5.982111669637667824e-04,3.033966422080993652e-01
2.746944079288768381e-01,-1.589723516527161151e-02,-2.398714254727279949e-02,1.249047287158487401e-03,-1.770897756435593426e-03,7.483082691703698500e-04,2.947466373443603516e-01
2.716144687177409756e-01,-1.689295409434857231e-02,-1.557049963207775278e-02,-6.825110197275932686e-04,1.068940612140063242e-03,-1.457810158661817601e-04,2.878569662570953369e-01
2.827617721064181744e-01,-1.917723795426744260e-02,-9.254260382538584406e-03,8.290040098646710848e-03,-4.718849805112844235e-03,-1.231363551646646147e-02,2.983242273330688477e-01
2.712041775690068324e-01,-1.781984849249654279e-02,-1.668951114949580872e-02,1.140691434200636701e-03,-1.397612769165202241e-04,5.910892349085646513e-04,2.884691953659057617e-01
2.775817245613496631e-01,-2.608583179863531443e-02,-2.430184180803261762e-02,-5.632787230379710311e-04,-6.829497164937503400e-05,-6.925279628679964538e-04,3.027834594249725342e-01
2.775987843039059433e-01,-2.464775028679522251e-02,-2.514742229911375027e-02,-1.437723058062953226e-03,1.114666686863142369e-03,-2.017880680966302118e-03,3.025332689285278320e-01
2.720821423954762897e-01,-2.692038130017285202e-02,-2.044089894476949776e-02,3.248221412238109455e-03,-1.126117629002133455e-02,-1.890227433438569724e-03,2.965297996997833252e-01
2.721330495318319831e-01,-2.229613019674027419e-02,-1.648292682821106414e-02,-9.652157546402441272e-04,-8.892991510800941793e-05,5.011358088165437480e-05,2.915709018707275391e-01
2.705919379956153170e-01,-2.079193495121178792e-02,-2.399873711051346559e-02,5.572236199377066665e-04,-2.191174586319357700e-04,-1.582017020477788100e-03,2.930150926113128662e-01
2.746142209875152007e-01,-6.063553402529536784e-03,-2.173829505753073488e-02,4.683317533672201624e-06,-3.712261963982418748e-03,2.734811198470572628e-03,2.889446914196014404e-01
4.260048766579090374e-01,1.162597124287864658e-02,-5.607864045478214154e-02,1.576542678110986334e-02,2.632951976621091417e-03,4.773469135716179416e-03,4.529723525047302246e-01
2.742993178316513458e-01,-2.199648609845830660e-02,-1.627690224502656435e-02,-3.131563173051341888e-03,3.952918971618572092e-04,-4.171798419267206130e-04,2.935296297073364258e-01
2.831554622179687786e-01,1.743817264595447225e-02,-3.870794096614296742e-02,3.551001467293831045e-03,3.144154835132029202e-03,1.406051653218618695e-03,2.979101836681365967e-01
2.840518453844088631e-01,-3.853848837875883948e-02,2.365598230965808291e-02,-2.027708637220118279e-03,-6.049352708380967628e-03,9.775522470708461822e-03,2.971163690090179443e-01
2.854460445497584153e-01,-4.154429754667940400e-02,1.350507852790308605e-02,-1.514411174717690631e-03,-2.294501564952824545e-03,2.319041196073778725e-03,3.033007085323333740e-01
2.823886357796298041e-01,-3.604582619723331605e-02,1.247763329427338530e-02,5.612788278120046495e-06,2.577175713879978694e-03,9.886291077344400591e-04,2.971974909305572510e-01
2.834283201753722281e-01,-3.447011207500139118e-02,1.256221450484638902e-02,-3.884542324325293236e-04,5.995206068636460550e-03,8.489999411891789582e-03,2.977322041988372803e-01
2.818762693678869558e-01,-3.543160114793969528e-02,1.353497346420820535e-02,-3.177667551603818516e-03,-6.152439522598105413e-03,6.192832601982603200e-03,2.963164448738098145e-01
2.692951210953993257e-01,-1.411260994849698747e-02,-1.110197468689681777e-02,-7.577091171781196030e-04,-1.052340247397279011e-03,2.500336261729419959e-03,2.819566726684570312e-01
2.684935806466276498e-01,-1.029372358072347393e-02,-1.253671402139615310e-02,-1.907743072772197820e-04,1.109905929942162561e-03,5.737485033271921310e-03,2.800986766815185547e-01
2.750553586364186121e-01,-2.981776399980420877e-02,1.266247951096165225e-02,-3.429955682348446999e-03,-8.319471629822924874e-03,3.157841570279431090e-03,2.864855229854583740e-01
2.779386327226083253e-01,-2.654229075538883098e-02,5.122095709223478677e-03,1.001861326206745367e-03,2.553896197366016703e-03,7.435698843086747251e-03,2.902731597423553467e-01
2.897594061904341101e-01,-3.377496714817324053e-02,1.007470546375296983e-02,3.632944680056250826e-03,-1.172129622988183663e-02,8.254013688182118211e-03,3.050681054592132568e-01
2.725011816370235262e-01,-1.870109528700522605e-02,-4.139616205175805641e-03,7.613549042041865703e-04,2.370075191931075333e-03,2.930736118687697449e-03,2.842794954776763916e-01
2.684950374365725478e-01,-9.247018719567637324e-03,-1.549201872823696702e-02,-8.124640349133439637e-04,-2.802874569441993788e-04,1.335119050525196069e-03,2.809300720691680908e-01
2.702527443102373805e-01,-1.837746680658561282e-02,-9.677138276722258015e-03,-1.205624195636776936e-04,-2.307165792323980207e-03,1.996100487627303337e-03,2.844290435314178467e-01
2.698884835007889782e-01,-6.912800409247521483e-04,-2.178941002568837715e-02,-1.215814838231229610e-03,5.634797513421943831e-04,3.397634632116627775e-03,2.817929685115814209e-01
2.688476531251088320e-01,-1.602966222792291673e-02,-1.560924388963422227e-02,8.362553383016452105e-04,1.291224784762441116e-03,1.884911534392335225e-05,2.846798002719879150e-01
2.681530971402587005e-01,-1.179265846539623297e-02,-9.378003149495897639e-03,-5.577640084572653596e-04,-7.434085136226796335e-04,3.243060801872200017e-03,2.788075208663940430e-01
2.694051122687478594e-01,-2.398759285004926911e-02,-2.362546097516654564e-02,-2.202574797934704967e-03,7.108021490887917295e-04,-5.023114214177813903e-04,2.932404875755310059e-01
2.734655253474038705e-01,-2.282153827270091973e-02,-2.666120833602111939e-02,1.035423600627654976e-03,-7.480005014131888008e-03,-2.462900652607890109e-03,2.985425889492034912e-01
2.703118474354446188e-01,-1.581533680244022466e-02,-2.134938141129599787e-02,-9.795747463290540961e-04,1.684333866649016321e-03,-7.226420921370576515e-04,2.889563739299774170e-01
2.703676668568860686e-01,-1.571409419224151227e-02,-2.185860560512724315e-02,-3.128136531202460602e-03,1.191699981178978183e-03,2.557225837395382629e-04,2.892614305019378662e-01
2.594654940600746307e-01,-3.432776907379474218e-02,-1.795673014098775333e-02,-5.160279121217735757e-04,-2.360578862877927967e-04,-9.650983930138445129e-04,2.859660089015960693e-01
2.678575862482935888e-01,-2.813920216155912923e-02,-2.710061506871455639e-02,-5.454967205291609902e-04,-4.780110461106876164e-04,-1.139064103413426872e-03,2.954881191253662109e-01
2.682517053012126174e-01,-2.647584870026797876e-02,-2.550680375494812635e-02,-7.703158044586982641e-04,1.745731421441786403e-04,-7.507470514199849829e-04,2.942502796649932861e-01
2.695592861090468917e-01,-1.786942291673723759e-02,-2.103048244640108588e-02,-5.084958645074868404e-04,1.436728835331938783e-03,-2.721574698371224716e-04,2.890346348285675049e-01
2.693116904103725062e-01,-1.714084842714549972e-02,-4.583381195622626691e-03,1.383758201285902566e-03,-7.558469333875266795e-04,5.382470389230188321e-03,2.805530130863189697e-01
2.685418158361774221e-01,-1.450734828932179199e-02,-1.488444091725006635e-02,1.653857839326877563e-05,9.094460309557416116e-04,1.295460964061664931e-03,2.832511663436889648e-01
2.675978223654218446e-01,-2.735205700138079732e-02,-2.823367830675664603e-02,2.102367147965995527e-04,-2.683276417294320256e-04,-2.000834017112104648e-03,2.954126000404357910e-01
2.682561473840586186e-01,-3.059186112608287822e-02,-2.316258195626656746e-02,-8.088996058579799638e-04,-1.129591224784354427e-03,-1.119756076749147582e-03,2.952196598052978516e-01
2.684591776687463849e-01,-2.803369625257708109e-02,-2.580849803020951461e-02,5.538449965602801036e-04,4.299251673997783800e-05,-2.270697075110248548e-04,2.953884005546569824e-01
2.716337386490472183e-01,-1.326703705160586777e-02,-2.694858216854334465e-03,5.403764255743933979e-04,-5.267582551164922766e-04,1.460866826788830009e-02,2.809095084667205811e-01
2.673041987714891987e-01,-1.391953674480457537e-02,-1.250027903544725927e-02,-4.433314995611887903e-04,-5.368966788769954489e-04,-2.334985423795180677e-04,2.805196940898895264e-01
2.482238899646021235e-01,-2.325418106469076540e-02,-2.461445124821949604e-02,-8.796193953666646415e-04,-7.056106772305144673e-03,-4.911730219452363835e-03,2.725720703601837158e-01
2.679001453478184747e-01,-1.340482497876441248e-02,-1.182370724612187562e-02,7.012682066638420810e-04,5.149194160454239905e-04,5.477231958179185891e-04,2.805234193801879883e-01
2.465129660732663652e-01,-3.309480561661068410e-02,-1.728605867331919899e-02,-9.590639082487606784e-03,1.853959224609744508e-03,5.691858582827007086e-04,2.725754976272583008e-01
2.653848060700536582e-01,-2.476285080654125337e-02,-2.961594157541286298e-02,-1.786551866222987841e-06,-1.712741296483822945e-04,-1.302937337610840865e-03,2.926132380962371826e-01
2.953364203361298346e-01,-1.618785372114783794e-02,-3.019676959298855934e-02,-1.387633689064867587e-02,7.609667291342688336e-03,-1.205130000048319642e-03,3.199429214000701904e-01
2.587711289617000143e-01,-1.048723598930383083e-02,-3.472599908728504770e-02,-1.869667169814923091e-02,1.451417804284770366e-02,-5.687301322447299405e-03,2.852924764156341553e-01
2.168593360674201942e-01,9.236215601413841347e-03,-2.261473078083221788e-02,7.578987657820837609e-02,2.919922260750851956e-02,6.900922037087302285e-03,2.658341526985168457e-01
2.780920762466790874e-01,-2.714314999849451460e-02,-2.590910214900064845e-02,5.755060675456740663e-04,-7.152921703847567271e-04,-5.430910491558296836e-04,3.046256899833679199e-01
2.771422319211875873e-01,-2.424277100924346340e-02,-2.500618969767397226e-02,3.103857524286950239e-04,-1.048860168533636899e-03,-2.800931086416671447e-04,3.017737865447998047e-01
2.769346274643821326e-01,-1.919259820170937658e-03,-2.983266309542692563e-02,-1.228841626927625313e-03,-7.659436789585532743e-04,2.780017153923617854e-03,2.938569188117980957e-01
2.266499346997050968e-01,-1.331465186827690550e-02,-2.630541184662449350e-02,-7.634368870727237591e-03,-9.642909497489949699e-04,1.420094804378080637e-03,2.470885962247848511e-01
2.331006317369843095e-01,-1.385588059349146528e-02,-3.061655181282146865e-02,1.323486806311384596e-04,-4.176624679838023685e-02,3.625740991220932933e-04,2.657843232154846191e-01
2.778313216098097227e-01,-2.623884345510549276e-02,-2.483603754226744453e-02,9.767317982011169345e-05,-2.999533121790416701e-04,-2.691711928614225397e-04,3.033720552921295166e-01
2.492438627551830932e-01,-1.426214828386816735e-02,-3.486432531512025090e-02,3.757485473423358916e-05,-6.072572474189006676e-03,9.279344258201887576e-05,2.745893597602844238e-01
2.589724505076547723e-01,-2.066842621937084457e-02,-2.878279621756854589e-02,-1.472130114662590717e-03,-1.204469878093586757e-02,-5.235429237457867382e-03,2.847067415714263916e-01
2.765219905343262452e-01,-2.371626595313709729e-02,-2.078408839604116431e-02,9.076283171717186896e-05,-1.647834004555897907e-03,2.672795376676629828e-04,2.987969815731048584e-01
2.746704167792086149e-01,-9.459143184196661114e-03,-2.306721350359554334e-02,-4.240231282818187827e-03,-4.009794517924001982e-03,1.462032206725277566e-03,2.913585901260375977e-01
1.876984389626949190e-01,-1.124354391661452901e-02,-1.671815392372527631e-02,3.073630140297710454e-03,-4.408132044415007805e-02,-5.438206058429802779e-03,2.159712165594100952e-01
2.763049407347701880e-01,-2.433783947454958019e-02,-2.255806094367833470e-02,4.614284296823218962e-04,-2.002782857313930610e-03,3.503395087459925121e-04,2.997786104679107666e-01
2.741410692356079926e-01,-1.763720713656455330e-02,-2.282458544869940542e-02,2.246683182347847404e-04,-1.073129386633414877e-03,6.506817141512340934e-04,2.944145202636718750e-01
2.732778567179850460e-01,-1.334927285187496870e-02,-2.229155509167390914e-02,-2.227444148924696658e-03,1.061040592500885667e-03,-1.954276918880390630e-03,2.912522852420806885e-01
2.724848955990349930e-01,-7.168296603831864067e-03,-1.918906402094999741e-02,1.026894699661185959e-03,1.118794510973146169e-03,-5.476591749917165963e-03,2.860226333141326904e-01
2.732841484964108059e-01,-1.755465161570797517e-02,-1.621487730643822456e-02,1.771180108353019539e-06,-2.223692115402247423e-03,6.326787614616106873e-04,2.901988625526428223e-01
2.693719547878564158e-01,-1.184638784967707859e-02,-1.312944288386423686e-02,-1.438946650054649218e-05,-1.638729782415950832e-03,1.045215902400663905e-03,2.818821668624877930e-01
2.704014264125335631e-01,-1.650582962043328772e-02,-1.326751318953141301e-02,-1.473019626699902150e-03,9.993443820607099382e-05,7.257892156004572054e-04,2.853161096572875977e-01
2.019527346401341628e-01,-5.883375243123836751e-03,-2.409539795557981423e-02,-3.553013888698007376e-03,-1.421331887519142537e-02,-5.139893213138625218e-03,2.191707640886306763e-01
2.678670843915825772e-01,-9.189439814168198772e-03,-1.591457357655470806e-02,-4.056324077729099023e-04,1.022706271063955532e-03,1.720037673094962144e-03,2.805018723011016846e-01
2.690809810557371895e-01,-1.297113362546771509e-02,-1.163385656988111250e-02,-7.990204760564220427e-04,-1.702725439175755643e-03,7.211299864972949177e-04,2.814074754714965820e-01
1.572726075611991792e-01,-4.827981249363920424e-03,-3.472882650111419611e-03,-4.659598210027360299e-02,5.341406978272389416e-02,-2.008946342366755428e-02,2.057723999023437500e-01
3.049050678968043271e-01,-4.936950020126631977e-02,4.111773318157457835e-03,1.091471380484247515e-02,-5.278135755409933162e-03,2.209581030977208170e-03,3.314804434776306152e-01
3.651219645880665610e-01,-5.427241375517621869e-02,6.409414289165860090e-03,-1.264800797181972990e-02,5.280264169597014001e-02,2.720085961820955037e-03,4.037211537361145020e-01
2.728685458520754281e-01,-5.190202919623215783e-03,-1.712940680368392476e-02,-8.616978343639509770e-05,-5.487743698832021118e-04,6.792509687452643816e-03,2.844615280628204346e-01
2.854224683409689600e-01,-4.135421523337087790e-02,1.412994921532115256e-02,1.126025393987611749e-03,9.840944886370094416e-03,4.656585394389221345e-03,3.034632503986358643e-01
2.823745820734658851e-01,-3.722174484813201012e-02,3.182398164068067636e-03,1.114808486191506010e-03,1.990661729859448045e-02,-3.102445114358698842e-03,3.034513294696807861e-01
2.679182461899904943e-01,-1.234873766880950630e-02,-1.262099586618407876e-02,1.023429236398674252e-03,2.864088856013967269e-04,3.830937386958669939e-04,2.804100513458251953e-01
2.685078701408644131e-01,-1.375975557861659759e-02,-1.646024359312561747e-02,-3.583773562175429314e-04,1.095331279064501060e-03,1.895484027606360083e-04,2.836347222328186035e-01
2.702415048304482315e-01,-9.309653099555434408e-03,-1.603322517485762655e-02,-2.454323271912513238e-04,-9.948249136035971271e-04,1.477474093626301261e-03,2.829900085926055908e-01
2.742304686177302608e-01,-1.862425794298054604e-02,-2.566432835321087735e-02,2.369060483739715475e-03,3.271465592128789670e-04,-5.542122621503620724e-04,2.964679598808288574e-01
2.678311055905008842e-01,-1.147342207488681598e-02,-1.334181410640937482e-02,-4.028936976450307001e-04,1.012359369392747295e-03,3.492211595064020034e-03,2.803150117397308350e-01
2.791911725612544748e-01,-3.052449066867513050e-02,8.415080071924124772e-03,9.055037303479030256e-03,7.395646957830796786e-02,3.793144255158673733e-03,3.194960355758666992e-01
3.083868498568704264e-01,-3.617046033219897816e-02,4.919368919612587820e-03,-5.899928370612445711e-03,2.166451311410304888e-03,-9.885214844990672725e-03,3.265914618968963623e-01
2.688655841042414396e-01,-1.595878634009841035e-02,-1.749432139324756663e-02,-6.753643738049931646e-04,2.492221799760613505e-04,3.710067424040937724e-04,2.855986654758453369e-01
2.547173582159975025e-01,-2.268489579780084975e-02,-2.999947440666114740e-02,-1.971286903761563462e-03,-4.708361165545443122e-03,-6.241590309096201744e-03,2.814775705337524414e-01
2.765715454171360221e-01,1.614878066326230766e-02,-3.699645084306030229e-02,-3.550619559742666798e-03,4.821052926519117708e-05,1.257200412437241462e-03,2.907356619834899902e-01
2.973313530533562843e-01,2.046615109103470942e-02,-4.277356531481263380e-02,3.846137582907674726e-03,8.468902367097503811e-03,1.018198217647095852e-02,3.142181336879730225e-01
2.700930954553770746e-01,-2.294009356906864805e-02,-2.483394420925034984e-02,-6.298190209746288215e-04,1.271982465767347928e-03,-4.008813554643814669e-04,2.939957976341247559e-01
2.682730935644166426e-01,-2.136421001606893244e-02,-2.381280693870500842e-02,7.971911873461353954e-04,-1.772645228736070659e-03,4.370977160944056758e-04,2.908897995948791504e-01
2.899561413576747237e-01,9.716618816178357321e-03,-4.330910290652925654e-02,1.474353644008086521e-03,4.611002347883258121e-03,-9.821921507135950372e-04,3.102886080741882324e-01
2.826653797275719415e-01,8.579183587758137941e-04,-4.287065493700845109e-02,-1.594663106978981559e-02,8.209646016849580022e-03,-4.245236295835569038e-03,3.076846003532409668e-01
2.700025274167141554e-01,-2.058049222602119366e-02,-2.016504904689235544e-02,6.833770974074759516e-04,1.316981194769491171e-03,1.069994355700474068e-04,2.903869450092315674e-01
2.678763152693848792e-01,-2.294977443810786166e-02,-2.004244470664182098e-02,2.359838839678359348e-04,-9.881058971023622042e-04,-5.317816296867772718e-04,2.893902063369750977e-01
2.694356182303750402e-01,-2.202274890876596003e-02,-2.409319726675297757e-02,-8.513402021743951900e-04,1.248312769631347270e-03,-8.318565516375697830e-04,2.925143539905548096e-01
2.694938819358094761e-01,-2.221229152861181610e-02,-2.094132702620338238e-02,-9.638900730034153947e-04,-6.694085931423854937e-04,-8.737795214805695932e-05,2.910799086093902588e-01
2.692807521998874520e-01,-2.868076312198962474e-02,-2.581815101297754711e-02,-7.302170639707244613e-05,-1.158569417828684547e-03,-7.103218936239730826e-04,2.965499460697174072e-01
2.694388794860791414e-01,-2.682025980028442114e-02,-2.381220553706696330e-02,-5.596121382970448447e-04,-1.168310828018405238e-03,-4.826659131697489790e-04,2.947763502597808838e-01
2.703629767315892662e-01,-2.475572230606259971e-02,-2.323273884270266043e-02,-2.729159551650739944e-03,-8.354090821378487791e-04,1.175774200088681960e-04,2.944017350673675537e-01
2.677801166177174452e-01,-2.577656073357928457e-02,-2.556332244658392205e-02,4.273780618350588560e-05,9.998445903584755965e-04,-1.052397100020211135e-03,2.934609055519104004e-01
2.704638063645354862e-01,-2.698024663507203602e-02,-2.612698433697116518e-02,-5.560284063239647866e-04,-6.147258134665162547e-04,3.261039083884534383e-04,2.970223426818847656e-01
2.637493980609704747e-01,-2.696684134797508459e-02,-2.559824201035282298e-02,-7.372289316934960450e-04,-1.448145610113289825e-03,-3.069197915588886029e-03,2.900967299938201904e-01
2.684934637485736353e-01,-3.426187448053295836e-02,-2.052116185027154371e-02,9.170329908558020552e-04,9.552683496294855220e-04,-1.445892603971157971e-04,2.961331605911254883e-01
2.698110986764695740e-01,-2.160500987607860690e-02,-1.870627482262643415e-02,1.627777630180922484e-04,1.481303025341263813e-03,1.867538928612280788e-03,2.900071442127227783e-01
2.698735549165719450e-01,-1.990690639971784415e-02,-2.153450155225772322e-02,1.403415711205854496e-03,8.523342573524743480e-04,4.470687590215332435e-04,2.906126379966735840e-01
2.503666717730711477e-01,-1.949869621435483535e-02,-2.971493544505007800e-02,8.349059881025123987e-04,1.346033992322288875e-02,1.898517168227847624e-03,2.761252224445343018e-01
1.975196286856315264e-01,-9.631802331567421160e-03,-1.662730076487693720e-02,-1.178847243557707217e-02,8.860118104075156639e-03,5.697806423027875454e-03,2.125078439712524414e-01
2.773971827826029468e-01,-1.753313241906391540e-02,-2.754822594252191725e-02,3.774923514534958384e-03,-1.356078152264947323e-03,6.824415056985545314e-04,3.001459836959838867e-01
2.724335925544849046e-01,-1.670686249932948342e-02,-1.807597260022522634e-02,3.532315603287656657e-04,-1.684278025484816017e-04,-1.000386380077746863e-03,2.898333966732025146e-01
2.692041910885766276e-01,-2.063985142395106942e-02,-3.411281499300411468e-02,-7.970246903917483456e-04,-1.273122516110287007e-04,-1.788307563704236115e-03,2.968294024467468262e-01
1.903019215270350395e-01,-2.727360863387588708e-02,-5.099066493207821127e-03,-1.331778692403393950e-02,3.026354517090652091e-02,9.291897557696278398e-04,2.151476442813873291e-01
1.359042538403969491e-01,-5.630245197739441876e-03,-2.668789305193604300e-03,-2.369529676172183602e-02,5.238441739669925067e-03,3.547158830449396224e-03,1.463765949010848999e-01
2.758470139737454474e-01,-2.470622801624906828e-02,-2.848701942541508048e-02,-2.900190917290580814e-04,4.359360159425610141e-04,-1.471125635022434153e-03,3.024734556674957275e-01
4.585694349211609233e-01,-4.905719749267242746e-02,-2.244472629516505724e-02,1.507973470036401095e-04,9.135823808359729362e-03,2.760691907415298643e-02,4.974140226840972900e-01
2.719737379761373308e-01,-3.139267482493035555e-02,-2.090408713365879412e-02,2.926673685095477605e-03,6.254071335696337851e-04,-4.630889889917425001e-05,2.983055114746093750e-01
2.202640526048256497e-01,-2.615800901266061851e-02,-1.848426295985526602e-02,-3.977308893924341032e-02,1.273732305409743318e-02,-1.273086648179010019e-04,2.532275617122650146e-01
2.875193073277769185e-01,1.314511553181056669e-02,-3.716699264528877666e-02,3.935589480025125306e-03,2.161054229040577229e-03,-3.069626346191028747e-03,3.028293251991271973e-01
3.220285273898218503e-01,-4.136678128460052895e-02,1.805118181603333760e-02,4.761844780633571993e-03,-1.168378928302488649e-02,4.987787057240592077e-03,3.384473919868469238e-01
2.743523533628328126e-01,-2.264280638780025168e-02,-1.675605700102253404e-02,-2.418164883291329392e-03,1.449410371039251124e-03,2.401780723494701818e-04,2.941367924213409424e-01
2.397608428462565944e-01,-2.215532981827997294e-02,-2.025452080042139391e-02,-3.101883194020577973e-03,1.167865190655357176e-02,8.371851629311501813e-03,2.622101008892059326e-01
2.784953679570830731e-01,5.368495182408852817e-03,-2.654383673854274206e-02,-1.967961857905647840e-03,3.869959547467588697e-03,-7.954375432288818965e-03,2.908249795436859131e-01
2.723139411669632803e-01,-2.995050747748795317e-02,8.285031242920140593e-03,-2.432132096679174259e-03,2.185601668391102029e-04,3.234432842019325550e-03,2.851627171039581299e-01
2.751910566571803551e-01,-1.978584845872304043e-02,-2.408656499655129068e-02,-1.746233767798526394e-03,-2.307211747633371862e-03,7.196117105623751800e-05,2.971929013729095459e-01
2.744126199760474893e-01,-2.451246073140929405e-02,-2.752306001778417888e-02,-1.604353112959022980e-03,6.364608794170742521e-04,-2.098354793004531156e-03,3.004785478115081787e-01
2.627375093975770071e-01,-1.703311721818159818e-02,-3.530268778891870740e-02,-1.322184184304869825e-04,-3.962359675116876724e-05,-5.085477922802776607e-04,2.893397808074951172e-01
2.810075769761009035e-01,-6.025165670926063699e-04,-2.737483774308530071e-02,2.544498585972697086e-03,2.432551031731202112e-03,-1.748205970928840003e-02,2.975136935710906982e-01
2.530112377957498548e-01,-1.348994024372957012e-02,-3.310117845308074846e-02,-1.172926072907013676e-03,1.036838433771513496e-03,-1.432377700514245004e-03,2.768526673316955566e-01
2.825733774769325080e-01,6.245953187591773981e-03,-3.425526020366329027e-02,8.718330237561645966e-04,-3.742863824922315597e-04,-2.230786696156959563e-03,2.986744344234466553e-01
2.658683125434183059e-01,-2.033010101887949839e-02,-3.334151184533221124e-02,7.152626940216038958e-04,2.611761166060504663e-05,1.683339942095936153e-04,2.929236888885498047e-01
2.827388881025905132e-01,8.589357480597123451e-03,-3.646499251791132656e-02,-8.922790161975261217e-04,1.494927698542211332e-03,-2.609738559920744220e-03,2.992808222770690918e-01
3.113169596015371021e-01,-1.115362882834905478e-02,-3.452382780902726878e-02,7.384278900770396836e-03,3.309720574886296923e-03,-1.942039937770724534e-02,3.367455303668975830e-01
2.766552271322526568e-01,-1.924173247530872044e-03,-3.033167197812089433e-02,-1.988272942923225914e-02,3.669504136468648096e-04,4.695755576652016852e-04,2.958280742168426514e-01
4.344575789067594562e-01,-5.510800536312737696e-02,-6.301583759227041837e-03,1.636439471114827307e-02,3.685448477948754381e-03,2.616805042190544286e-02,4.701712727546691895e-01
2.994782024398904285e-01,4.091415652490465460e-03,-3.694637435150230353e-02,-2.961001311981000927e-03,1.967358970032141632e-03,-2.898079119679507643e-03,3.179977834224700928e-01
2.979183205639723275e-01,3.231799504081228624e-03,-3.701896994017275788e-02,1.240670232996719064e-03,9.456812478302873207e-03,-3.860089624253360517e-03,3.172369003295898438e-01
2.678399738523726814e-01,-1.122820957963548139e-02,-1.288556776243282576e-02,-1.773737138595459493e-04,-7.012764642906794965e-05,9.557174687080166511e-04,2.799056470394134521e-01
3.428530023797509152e-01,1.588053192223974619e-02,-4.969969518276026732e-02,-7.610547570899672820e-02,1.961541897893260070e-02,-2.681970371413140795e-04,3.888255655765533447e-01
2.640852605431692757e-01,-2.852234519679745783e-02,-2.209751840767283648e-02,-2.582147477573368786e-03,2.431189330911665198e-04,-3.045617463080944713e-03,2.895315885543823242e-01
3.185336429409528214e-01,-5.261650686818161726e-02,1.815784827465388718e-04,-2.870149569334561751e-02,-7.486977908207570476e-02,2.335494527036338988e-02,3.766539394855499268e-01
2.651014018086219615e-01,-3.032555365617128906e-02,-2.091653587563291339e-02,-8.408213803832279704e-03,-6.906127500551086876e-04,-1.376922964627629985e-03,2.912132441997528076e-01
2.615243405830010026e-01,-1.712013663057945778e-02,-3.453369279675028158e-02,2.311456849708283046e-04,-1.095389924188487944e-04,1.288622191456365636e-03,2.877556979656219482e-01
2.662326463037848479e-01,-2.005934081125257396e-02,-3.397905439014874129e-02,1.489206498336957500e-03,-4.633415708284250364e-04,-1.292764034563438332e-03,2.935204803943634033e-01
2.733206069481619593e-01,-2.473266499890494630e-02,-3.091391472440294108e-02,1.007606003073552563e-03,3.900477135698778887e-03,1.123721104930420741e-03,3.012785613536834717e-01
2.656414385608814599e-01,-2.071417597835677193e-02,-3.436883169831606022e-02,1.742028295569974323e-04,3.027470027719039725e-03,7.010005757925111269e-04,2.934708595275878906e-01
2.576092916259580812e-01,-3.237979216187161779e-02,-1.823326024271042234e-02,-4.691521143797010469e-03,-1.351200631812044623e-03,-1.705985727044017361e-03,2.833226025104522705e-01
2.706367137019735081e-01,-2.333210500648078001e-02,-3.093354357352340323e-02,5.601597949717850846e-04,3.823887656435979131e-03,5.554301126987292413e-04,2.979190647602081299e-01
2.407127626994811920e-01,-1.830720518829076493e-02,-2.731317241259258177e-02,2.530632750684212056e-04,9.916219788755413836e-03,6.107295552901024875e-03,2.644092738628387451e-01
4.170124598669217586e-01,-3.691589361926123081e-03,-4.002955924113796304e-02,7.977312858710247298e-03,-1.741400321243301297e-02,-2.249299565173284998e-02,4.429653882980346680e-01
2.617820257983790588e-01,-1.842962166239231481e-02,-3.516335173829762684e-02,1.202883703608477277e-04,-1.670266795144198263e-04,2.056782831413685240e-04,2.889426052570343018e-01
2.689602624100054240e-01,-2.314626782542171524e-02,-3.092986058357193035e-02,1.082723859637056479e-03,2.327514499579907969e-03,1.502703061401769284e-03,2.961198985576629639e-01
2.600290915428630778e-01,-2.785296066780401647e-02,-2.000906114582122475e-02,1.391145409656751382e-05,-8.255022481865199315e-04,-2.704221610486573762e-03,2.840835452079772949e-01
2.598827099646176531e-01,-3.557113642797496422e-02,-1.834624262911534187e-02,-2.664353500178757734e-03,-5.705336666533049545e-04,-1.711978417937174085e-03,2.872830927371978760e-01
2.561075140583414234e-01,-2.706669182029199094e-02,-2.461809864039576912e-02,-3.751473988183650320e-03,-1.504043180410612494e-03,-4.474912582100732360e-03,2.821512520313262939e-01
1.924966641566261127e-01,-1.460037623932464168e-02,-1.495241346880590849e-02,-1.443626795710031482e-02,-3.053162918559213651e-02,-3.422144498773100740e-03,2.154509425163269043e-01
2.667752776259211256e-01,-2.290181309930733322e-02,-3.154363993364685259e-02,8.652846732325927392e-04,-2.121440972167407005e-04,1.706383934267855689e-03,2.941121459007263184e-01
2.698877156038996250e-01,-2.109425856430581503e-02,-3.470571348293276237e-02,1.047420658710611525e-03,7.900998894886465283e-04,4.158141248723666518e-04,2.980304658412933350e-01
2.711035314824459252e-01,-2.166690841667714973e-02,-2.176042086489150817e-02,-3.879062441705517610e-04,-5.639211917427331246e-04,-4.924107558191381621e-04,2.928208410739898682e-01
2.694336258500453773e-01,-2.637011367533508011e-02,-2.513842838945766489e-02,-1.048992065584191833e-03,1.254558711225474150e-03,-8.989761271168753213e-06,2.952034175395965576e-01
3.072445624945790987e-01,-2.583954647570077534e-02,-2.699962189789448241e-02,1.505106277474922705e-02,-5.251302686408420781e-03,-1.544011073162504868e-02,3.358724415302276611e-01
2.584059221145174612e-01,-2.263542390312742181e-02,-2.822718723786081518e-02,3.651664882430442948e-04,-5.463812485623458079e-04,4.558999816417321112e-03,2.839906215667724609e-01
2.379280323844551182e-01,-2.469065808524568972e-02,-1.978582749204504942e-02,-2.267506288687826327e-04,4.768085935056846003e-04,5.977763678824857957e-03,2.604084610939025879e-01
2.665219314025387698e-01,-2.240808311606007353e-02,-3.153816896250759283e-02,1.226300632283871357e-04,8.861268408195412637e-04,9.522019376806664702e-04,2.936102747917175293e-01
2.697861303691219126e-01,-2.611278314626903907e-02,-2.848720921657969807e-02,6.738062773353608323e-04,1.430637522424415588e-03,2.167412718102882351e-03,2.971295714378356934e-01
2.711219507086789493e-01,-2.600927396466881647e-02,-2.892692690432345504e-02,1.618361863731315072e-05,2.854217539341384851e-04,4.011539529832811686e-04,2.986019551753997803e-01
2.716400865423733713e-01,-2.647413108148534422e-02,-2.549449923439217613e-02,-3.491326955087130043e-04,-7.193654468612379759e-05,5.657783108502426441e-04,2.976278662681579590e-01
2.539568555112027282e-01,-2.754613279772104295e-02,-2.419753915609762496e-02,-2.504952565368375773e-03,4.339241165089441224e-04,-5.354038458763136187e-03,2.800319492816925049e-01
2.718633694366646147e-01,-2.330239612482795653e-02,-2.763695467708059128e-02,9.120626285064976566e-04,9.648495457164445177e-04,2.998345334434033985e-04,2.973660826683044434e-01
2.712187782401254688e-01,-2.620363694473826222e-02,-2.945844131590863446e-02,-1.838041151237731216e-04,3.736433627810725982e-04,1.100930620103243458e-03,2.990700602531433105e-01
2.377770465974318737e-01,-2.133923782087673859e-02,-2.207943195620049037e-02,8.092332857776844170e-04,4.461545035842255056e-05,6.610370131149847887e-03,2.597434520721435547e-01
2.436371612116667307e-01,-2.837872518169226588e-02,-1.809624493359664188e-02,-8.807930988435644371e-03,2.408143409092644701e-04,-6.213102687066811292e-03,2.676753401756286621e-01
2.649482939215722088e-01,-2.198701233814014111e-02,-3.185980175411345927e-02,-1.686421748722453842e-03,-5.449933799475597607e-04,-6.353517849753378055e-04,2.920151054859161377e-01
2.587721765834053445e-01,-2.216778802787316982e-02,-2.857821166942928204e-02,-3.781852606523812554e-03,-2.426340629993554206e-03,-6.371124849926840424e-03,2.845200300216674805e-01
2.659216762886521535e-01,-2.634668397586893696e-02,-3.097887190848901129e-02,-2.122758875950554909e-03,-2.201358137998921365e-03,-2.936505541521851944e-03,2.947032749652862549e-01
2.476861714588964036e-01,-2.153755773971828547e-02,-2.695809386851284739e-02,-6.243889614873496599e-03,-1.469877072077761804e-02,-5.164559200003051437e-03,2.735238075256347656e-01
2.698587338981946471e-01,-2.505085365338048653e-02,-2.576981644374280733e-02,-8.565735467646602534e-04,-2.528591281679912640e-03,-2.147024412999691718e-03,2.953293323516845703e-01
3.493502485115795864e-01,-6.141292887997065741e-02,-1.244756829035520429e-04,3.580357844246075810e-02,6.729160454726682006e-02,5.509435115942926293e-03,4.059911966323852539e-01
2.755885244561939729e-01,-1.992507795350795252e-02,-2.277135162159305004e-02,-1.768847812700488110e-03,-1.889758337993647890e-03,2.425845792584585894e-04,2.969810962677001953e-01
2.742176467681849417e-01,-2.232203707055517572e-02,-1.604137802662033985e-02,-2.971467809300200845e-03,6.350746149598897718e-04,-4.668763026691367902e-04,2.934980690479278564e-01
1.222285083323083610e-01,-7.877078739738863078e-03,8.760683468186161726e-04,-2.772014558161121217e-02,5.731528304460618839e-02,-6.170043915224396325e-03,1.677492260932922363e-01
2.756334700858605880e-01,-2.303987441966728889e-02,-2.273279754801688091e-02,-3.097892806582030860e-03,-1.599792710028192762e-03,5.966571628281723896e-04,2.985827922821044922e-01
2.766309482102937700e-01,-2.522171886604981927e-02,-2.416029965995923623e-02,7.467608113640972862e-04,-1.710439786006883942e-03,-1.015401045137425675e-03,3.013458251953125000e-01
2.624574829135717380e-01,-1.900266365302406835e-02,-3.112572493344678559e-02,-1.099127286824876440e-03,2.450729490502625185e-04,-3.698872888731423707e-03,2.877912223339080811e-01
2.744674612435245020e-01,-1.651698486404022670e-02,-2.160972824768889189e-02,1.431722795924569164e-03,-2.211665807934846874e-03,8.816034813081281276e-04,2.936033904552459717e-01
2.702749409230604805e-01,-1.781041362929985938e-02,-2.144124630478512483e-02,1.543557945501632372e-03,1.638490598383118705e-03,1.668903614072505853e-04,2.899441719055175781e-01
2.696831127185661536e-01,-2.239340717918165968e-02,-1.868946570869160773e-02,2.570711195414974830e-03,-1.623306193060641183e-03,-2.134614377883627123e-03,2.903136014938354492e-01
2.763597993200841429e-01,-2.533216992985719285e-02,-2.193602090677515548e-02,1.662014996803569684e-06,-5.618685428487011930e-04,-1.165340853263243433e-03,3.000166714191436768e-01
2.698546293019873366e-01,-2.228503362805406285e-02,-2.983584297191547996e-02,2.720254112956277761e-04,-7.175938321014252918e-04,-2.491256611402376604e-04,2.959906160831451416e-01
2.725930501120704674e-01,-1.812115802209525450e-02,-1.543849472105346399e-02,-1.510993861805467672e-04,-1.012223863566803165e-03,2.978349977809086665e-03,2.894335985183715820e-01
2.164711394330736394e-01,-6.194510780701684149e-03,-2.256948804900370253e-02,-4.031374005946542632e-04,4.668163332711854942e-04,-3.945223977297816602e-05,2.312907725572586060e-01
2.761005103950459061e-01,-1.953491862985917704e-02,-2.207168770125148005e-02,-2.075096195004495856e-03,-2.667585651519946161e-03,1.973147950436911647e-03,2.969892919063568115e-01
2.727395538499035599e-01,-2.197817091196556383e-02,-2.927600707407915226e-02,1.953560574201771653e-03,2.953129649178669672e-03,-1.313647763063915692e-03,2.985052466392517090e-01
2.646927057317377541e-01,-3.287252707295403031e-02,-2.336513750961288771e-02,8.667335365977726826e-04,5.533722077094714760e-04,-7.321758862082809695e-04,2.929354310035705566e-01
2.698347127613110463e-01,-1.613351617132759153e-02,-1.071138640169902456e-02,-1.909653555801210482e-03,3.185336443588717825e-04,1.539228739489189191e-03,2.833284735679626465e-01
2.746729604279789516e-01,-1.785501305716044596e-02,-2.153806286171390527e-02,-2.543815865495512116e-03,-1.613917127399928800e-03,1.473995463003045705e-04,2.944331169128417969e-01
2.759307523342684476e-01,-2.713555714396767571e-02,-2.627359301574737349e-02,9.896553835592658208e-04,-3.970739315266122059e-04,-1.825349745131570577e-03,3.026584088802337646e-01
2.749015332523253585e-01,-2.447808916121065048e-02,-1.763100099066960968e-02,2.307333482844015158e-03,7.744543991507590874e-03,1.330736487457532136e-03,2.963551580905914307e-01
2.750841692561257767e-01,-2.178664323088927435e-02,-2.079360629942962613e-02,-2.131069436181431444e-03,-1.824010923209293776e-03,5.959964725417995308e-04,2.964171469211578369e-01
2.699699383601232849e-01,-2.045176722856255347e-02,-3.097991282090653553e-02,1.563758084120190359e-03,4.630955415536994538e-03,1.359519276308216709e-04,2.959475219249725342e-01
2.740831603411268969e-01,-2.087986389251283992e-02,-1.568203046720445526e-02,-2.270975572103686203e-03,1.253892071514493270e-03,5.285239658553515709e-04,2.924347221851348877e-01
2.717302548157995989e-01,-1.761529921122920173e-02,-9.786121953154813813e-03,-1.606175734993939459e-03,-1.080919437680067817e-03,3.834980463188995825e-03,2.856084406375885010e-01
2.656639609761691223e-01,-2.021303495265754091e-02,-3.497857439586156414e-02,3.861759959267143836e-05,1.951731076369945476e-03,4.945929547562320523e-04,2.935591340065002441e-01
2.772839044913933404e-01,-2.810749973907296362e-02,-1.686703977159020873e-02,2.550362925252077240e-03,6.652363734279466770e-03,-8.772588052516974710e-04,3.001867830753326416e-01
2.768788404279853843e-01,-3.030721853940834820e-03,-2.577810944033950835e-02,7.523712246382765643e-04,-6.809388529511679932e-04,-2.824403647738025613e-03,2.919949293136596680e-01
2.737827550576144575e-01,-1.094147618184085347e-02,-1.889756832804549702e-02,2.141837001445166420e-04,-1.171458744079674182e-03,-2.443108736342426961e-03,2.888228595256805420e-01
2.720753228050596384e-01,-1.574591442617841175e-02,-1.492164153457792297e-02,-2.638665430110681987e-03,-1.588488462828515843e-03,7.058098520268340191e-04,2.874620854854583740e-01
2.729964463181407952e-01,-2.735313564465328973e-02,-2.382290903391511006e-02,8.322549040462654110e-04,7.308930163367662871e-04,8.905774187319787051e-04,2.986102700233459473e-01
2.720649397301622141e-01,-2.316267093047680303e-02,-2.938028416817137223e-02,1.235336907789442431e-03,1.239547502681134696e-03,5.295651315227110868e-04,2.984018027782440186e-01
1.376806063151067849e-01,2.257272563190117209e-03,1.265500224994935141e-03,3.510061264804570716e-03,-8.801944222848512994e-03,5.638270855640481775e-04,1.369127780199050903e-01
1.447931259565667927e-01,3.098356090281431663e-03,9.153156787305091746e-04,-1.377891474996616270e-03,-1.066946338066580152e-02,1.420334747103818357e-03,1.440304070711135864e-01
2.761667718213265399e-01,-4.882067904470419051e-03,-2.859424748554134643e-02,2.824872495387931171e-03,1.015818659222853318e-03,-3.631342186586932180e-03,2.937372922897338867e-01
1.698251896022453800e-01,-6.886316431110192648e-03,-1.228503140141530559e-02,7.068766910555891736e-03,-1.895041197874496389e-02,6.086230060051530354e-03,1.831624954938888550e-01
2.722485173984943163e-01,-2.317062209439159359e-02,-3.075918996432240593e-02,1.453568067710978018e-03,1.074277682813836506e-03,1.524404919340499598e-03,2.993136048316955566e-01
2.722225602899283059e-01,-2.050899246258912345e-02,-1.801683809421424087e-02,5.718367510889369679e-04,4.750891389630811047e-04,-2.035945698250701992e-03,2.915176451206207275e-01
2.684151829739055417e-01,-3.406927309221115252e-02,-2.011777126932944026e-02,8.396372739121030513e-08,1.863805484768489302e-03,-4.774783403828113853e-04,2.957743704319000244e-01
1.570423355331309057e-01,1.530338882321534422e-03,-9.734287870893129635e-03,5.427006724054630332e-03,-2.073440096327508822e-02,7.672235493228137275e-04,1.656578630208969116e-01
2.716223372863169616e-01,-1.951925436209026032e-02,-2.410313416199630354e-02,1.484532529630921364e-03,1.099262914359349025e-03,-5.887033774042615877e-04,2.934795916080474854e-01
2.651346903967923829e-01,-3.416985219535279006e-02,-1.886706702733011165e-02,9.051182882933773467e-04,-7.181067155613812380e-05,-1.386404689668321790e-04,2.919584214687347412e-01
2.703599078591181204e-01,-1.976218523515842207e-02,-2.326568281702365293e-02,-1.428654444466042218e-03,3.752180346980521822e-04,-3.184180978912848131e-04,2.919013500213623047e-01
2.744088766097341203e-01,-2.412437797613505019e-02,-2.213419863581762848e-02,2.497683782812826821e-03,4.150211006179148343e-03,2.137966603182037996e-04,2.976616322994232178e-01
1.501407459195170935e-01,-6.821729014652597178e-03,1.908604976711324175e-03,1.091614034103657351e-02,-5.234363615783419604e-03,1.535140039463827656e-04,1.542169153690338135e-01
2.059198895874407298e-01,-1.922703625990317133e-02,-1.241192376878455517e-02,3.919032660889758268e-02,2.416539685568892121e-02,-8.528923726404865615e-04,2.357220947742462158e-01
2.050449834293011642e-01,-1.265337699961142925e-02,-1.595608618967922498e-02,4.477433892244064503e-03,1.469384120601139807e-02,-2.528794679814308586e-03,2.210192978382110596e-01
4.294173159813611251e-01,-6.987985319780609661e-02,7.729211483520820325e-03,1.497635730972696200e-02,-1.856683898072800099e-02,1.147204431968777694e-02,4.676245450973510742e-01
2.758248902139698311e-01,-2.536781537979104773e-02,-2.766367804558034216e-02,-1.182135912654988866e-03,-1.791368236418067222e-05,-8.202035734961710513e-04,3.023574352264404297e-01
1.750775738181940544e-01,-1.041256142458134304e-02,-7.494631154867203993e-03,1.389734281986223369e-02,5.878049794736596445e-02,2.124528929911783954e-03,2.117362618446350098e-01
2.821220733185242358e-01,4.474032526506230290e-03,-1.601492238931975787e-02,-4.348732461686746244e-03,-3.163495312113844427e-03,2.237290964084877321e-02,2.911792397499084473e-01
3.501250589545158443e-01,-3.425526709440271378e-02,7.846489563860054028e-03,-2.084022654782498318e-02,-7.091026643252071326e-02,2.228466731012413923e-02,3.888640701770782471e-01
1.910469869037505486e-01,-9.147457803697731094e-03,-1.543980770698291649e-02,6.902429516328906353e-04,1.576331666876882795e-02,-1.446407944693869766e-04,2.052414268255233765e-01
1.941692588204878278e-01,-4.915279203824340915e-03,-7.998670890896064645e-03,-4.369290558835461262e-04,1.977451718861701971e-02,6.038097165752433345e-04,2.035504281520843506e-01
2.768991620230780715e-01,-2.578177409861966141e-02,-1.623313939263940076e-02,2.170699926308671153e-03,6.460124521124322762e-03,5.370637990172932516e-04,2.982564866542816162e-01
1.481016533193463269e-01,1.781060622633098833e-03,-6.770095437822032380e-03,1.822485251219264457e-04,2.157717364334919841e-02,5.204431004589116743e-05,1.553411781787872314e-01
3.892571487536998220e-01,-2.056165178788024739e-02,-1.968473535510914529e-02,-4.559174369686214146e-02,-4.264024182472674063e-02,3.456321785016628484e-02,4.276296198368072510e-01
2.147251213147674809e-01,-2.111632178028999274e-02,-1.526835413954273635e-02,-7.088201998238476825e-03,-1.416373608372051155e-03,-6.467235185855831590e-03,2.335774302482604980e-01
4.437593376811844181e-01,-2.808550066501591669e-02,-2.196539627412538720e-02,1.953292846193340274e-02,2.890274135344132050e-02,2.940588146035653591e-02,4.754283428192138672e-01
2.709963951729744691e-01,-7.438792691221371434e-03,-1.683740331611320584e-02,-4.832374443335301153e-03,-4.050236470884169791e-03,8.594285149317001590e-03,2.838525176048278809e-01
2.699962889988033465e-01,-1.647655845548925968e-02,-8.084596838692906240e-03,1.925327290274650351e-03,-1.315622668090494400e-03,1.886371657267489534e-03,2.824181914329528809e-01
1.282669398248077464e-01,1.146083820565253764e-02,-1.682912366532238191e-02,-6.351001608368371520e-02,-3.296914469411218410e-03,-4.692534322005430941e-03,1.730539351701736450e-01
1.717256166630324044e-01,1.587578693702054733e-02,-3.223512994320833214e-02,-6.403428982505185441e-02,-1.569001888070786603e-03,5.276725764953177095e-04,2.154328227043151855e-01
2.267641563595464149e-01,-1.810463719243345093e-02,-2.706538175346438757e-02,6.484209289377794840e-04,3.757511627254656733e-02,-6.712625970580046730e-03,2.580839693546295166e-01
2.790963132621104847e-01,-2.921706544356705848e-02,1.425402827728003419e-03,-4.024168978305695519e-04,2.992748793245838743e-03,3.024719169363798092e-03,2.942845821380615234e-01
1.882695616814641371e-01,-1.502407449211561052e-02,-1.819583514885972364e-02,-3.784860873841290607e-02,-2.619670096753840341e-02,-9.374767993978625966e-03,2.204612791538238525e-01
2.782030558337362791e-01,-3.137100757693386810e-02,7.239597942549053089e-03,2.856894377141097011e-03,-3.050993519166682408e-03,-2.626028578009522059e-03,2.923134267330169678e-01
1.797551735676288232e-01,-1.703027470894978579e-02,-6.164369849126133394e-03,-3.441941278498320683e-02,-2.699439058155105823e-03,7.578436676291375358e-04,2.007037699222564697e-01
1.143393439538556988e-01,-8.129570969804274239e-03,-8.712272509188934144e-03,-2.552636969176726861e-02,-4.989073270953343908e-02,-1.308011555806898752e-04,1.565005779266357422e-01
9.575548671214073604e-02,-3.823610154597491956e-02,-2.892810243234691242e-02,-6.112947192439150204e-03,1.593770971858504346e-02,-7.342143063956751980e-03,1.335254609584808350e-01
2.779750036181634631e-01,-2.198243472744607074e-02,-4.883987923152768862e-03,1.841880961245109284e-03,2.005280471649383087e-03,-3.707227407379959632e-03,2.918929457664489746e-01
1.289922776609647159e-01,-2.949655149627625206e-03,-1.852004728968688341e-03,3.163240759369681174e-03,-2.170705814014318308e-02,-2.174984770692739070e-05,1.367796063423156738e-01
1.962496132900139745e-01,-1.217947847744711709e-02,-8.373175366253024499e-03,-1.335921559981676811e-02,-7.107655923259232136e-03,-6.873741662733467983e-03,2.085486501455307007e-01
2.993104750642563983e-01,-4.111177300769225385e-02,-1.592785340894138646e-02,1.168191908195777284e-02,-2.804289221364830026e-02,-8.584259333747880361e-03,3.330736458301544189e-01
2.829814067820775048e-01,-4.119245472792523732e-02,1.053345858604363972e-02,8.583270196890611936e-03,-3.360872018316859305e-02,-1.539792912671040896e-02,3.087345361709594727e-01
8.594962630334807008e-02,8.748180511277459104e-03,7.698947007903942513e-03,-1.048540692890215752e-02,2.338000985542000240e-03,3.135812049829618704e-03,8.011177182197570801e-02
1.841979232911055142e-01,-1.217304028523347181e-02,-9.699473123728444279e-03,-1.241926954120736205e-02,-1.335863188493379393e-02,-4.878799015971790366e-03,1.978671699762344360e-01
1.405541418868128112e-01,1.719011382357402140e-03,-3.028105046245350984e-03,-7.646478533606282380e-03,-1.651028011487120847e-02,-2.135234103717741604e-03,1.447882801294326782e-01
1.294048505434040042e-01,-5.174926167663781995e-03,2.435407377210770108e-03,-2.353673648687379383e-02,-4.492592388952778085e-03,1.100533177607456847e-03,1.373737752437591553e-01
1.490671192052061278e-01,-3.431039800794677408e-03,-3.222319597858187834e-03,2.313172027730620375e-02,-7.315824496353943909e-04,8.165182630106741302e-04,1.575840711593627930e-01
2.762512144420764537e-01,-3.652838629574642337e-02,-3.847151121716574362e-03,-1.014732364588644825e-03,-2.096461356899232895e-02,2.725450148623721324e-03,3.000350594520568848e-01
2.748144023865995988e-01,-1.412231467358476822e-02,-2.810195233516910029e-02,-7.448217183036544287e-03,-2.796055386388091642e-03,-8.935556304006829140e-05,2.964945137500762939e-01
1.504951527830503677e-01,1.045655478255032300e-03,2.476070455501598599e-03,-2.241531100426959774e-04,-1.074384812375333079e-03,4.559799396422883140e-04,1.487536877393722534e-01
2.656290286909891440e-01,-2.272663652949734325e-02,-1.978153933720980251e-02,4.506957245805995153e-03,-1.904614692670219059e-02,-1.501383214452804704e-03,2.889020442962646484e-01
1.612245022199021993e-01,-7.901122063039625609e-03,1.467439280258837908e-03,-1.933116547400591870e-02,-7.923591884042733777e-04,1.691301067664950338e-03,1.680426448583602905e-01
2.712552920649832222e-01,-1.063588405972708262e-02,-2.185665291826327516e-02,-6.336887878753187870e-04,2.078504799591046268e-03,-1.606806948300344836e-03,2.877038121223449707e-01
2.708392388440291620e-01,-1.416925688732882660e-02,-1.506179943101207397e-02,5.598114749400594594e-05,-8.341909773562530654e-04,-9.353569446096700324e-04,2.854640781879425049e-01
1.973685036142081295e-01,-2.163630710185965311e-02,-5.366164924897262600e-03,-1.824296925742788233e-02,-9.340974357303175480e-04,-4.526896573515434667e-03,2.138389497995376587e-01
2.695339104114831130e-01,-2.473978027450420003e-02,-2.992878280063888952e-02,2.299229994771419174e-04,-4.196496460200159853e-04,6.440032394009338442e-04,2.969054579734802246e-01
2.647240622042068559e-01,-2.565625388763749515e-02,-2.784901948938776906e-02,-1.913117497778003481e-03,3.776285938564280867e-03,2.383433896270237620e-03,2.916043102741241455e-01
2.674502894052500634e-01,-1.342458103524364621e-02,-1.104764229064061909e-02,-3.702823886814457423e-04,-1.637426100767587565e-04,1.093218147357833151e-03,2.797012627124786377e-01
1.653897740378862669e-01,-8.279075768386767731e-03,-4.423814225228223096e-03,-2.041995517763529194e-02,1.092485725657298297e-02,4.491971015017524535e-03,1.765664368867874146e-01
1.600297572633796184e-01,-5.632677908746663853e-03,2.619598122613801816e-03,-1.932463610878960847e-02,-4.318151594721122174e-04,-1.060594944060600517e-03,1.651342213153839111e-01
2.666559456356805136e-01,-2.838918723978366143e-02,-2.450672585388388725e-02,-1.066894062210336147e-03,4.090083106782365502e-03,4.909151542469107447e-03,2.933378517627716064e-01
2.745367775888238882e-01,-1.769505452684488889e-02,-2.567338153377270171e-02,6.626796888543636140e-03,-3.218049638131392407e-04,-2.866422079478634592e-03,2.965658903121948242e-01
2.736772012038561352e-01,-1.187597313901217477e-02,-2.886957341440714309e-02,-1.531815391977592918e-03,4.597825259894600461e-03,-6.784918409960355402e-04,2.945400178432464600e-01
2.716696683318295946e-01,-2.040370354503129313e-02,-2.259637467974698333e-02,2.641662220117385173e-03,2.302475081760709322e-03,-4.345025875200073844e-04,2.932396531105041504e-01
2.748924368464027435e-01,-1.497044445973297333e-02,-3.558183420617763715e-02,-8.105142167583090276e-04,1.443748696885190780e-02,-7.008923822713604077e-03,3.019842207431793213e-01
2.698827160366455424e-01,-1.390203964619836363e-02,-3.005403741755388602e-02,1.063624189896359741e-02,-1.536490900235457958e-03,-5.391176965881365468e-03,2.929369211196899414e-01
2.878708434098675162e-01,-4.263076997173723126e-03,-2.730524248283991429e-02,2.683556314691389055e-02,-2.739800452903782407e-02,-2.898358440581500634e-02,3.154950141906738281e-01
2.756078373555108096e-01,-1.423218840084264358e-02,-1.857550108600104777e-02,2.601264512251733052e-03,-6.611979374958963217e-04,-4.829878614319895423e-03,2.921926975250244141e-01
2.706456911320057612e-01,-2.471636831944626356e-02,-2.430965960321433694e-02,3.914968741172324476e-03,9.301944717305080275e-04,9.752732429150577772e-04,2.952460348606109619e-01
2.668553253923756641e-01,-2.299721347424300844e-02,-2.530501233555262908e-02,-1.145993892793608238e-03,2.173206470113289018e-03,-5.450784815024367191e-04,2.910459339618682861e-01
2.683207721430392878e-01,-2.724820172037913102e-02,-2.349920402265155694e-02,1.535933443973235349e-02,3.062398609420597783e-03,9.121753086944503052e-04,2.949666976928710938e-01
2.605297388117704394e-01,-2.935192204030249996e-02,-2.156206215927060355e-02,5.417190557373148183e-03,1.301805871311514972e-03,3.124226873652979734e-03,2.862801551818847656e-01
3.198480169848573196e-01,-2.721336747504476961e-02,-9.906081659772580927e-03,-2.199756526498300446e-03,-3.998614080747380298e-03,1.971847596417923565e-02,3.405486643314361572e-01
2.696430716454147891e-01,-2.071950654212012521e-02,-1.743136692421105860e-02,-9.656548463769102156e-04,-1.811581030630612888e-04,1.673201906499381230e-03,2.887521088123321533e-01
2.729156889922392804e-01,-3.042698480435633568e-02,-2.407993002772157443e-02,6.614630252035699418e-03,2.962685486038747881e-05,1.942730554714410191e-03,3.004568517208099365e-01
2.802075637979195011e-01,-3.249948425123710960e-02,5.035732039417137318e-03,1.062499765365285207e-03,4.179982410438072039e-03,1.162974582559246064e-03,2.958326041698455811e-01
2.878045150191682056e-01,-3.977048692129431240e-02,1.456884801947717911e-02,2.841133625233423221e-03,-1.170004334474101940e-03,8.894754052222596415e-04,3.041194379329681396e-01
2.746299305263603108e-01,-2.323491489393343656e-02,-6.078911791489186034e-03,-1.879901695225975541e-03,1.556126114971291942e-03,2.429753598885810943e-03,2.897295355796813965e-01
2.696973953208403052e-01,-2.121407800357540119e-02,-2.277873050498582796e-02,9.700839316347214646e-04,-1.054736815371539729e-03,2.652654313949565296e-04,2.917078733444213867e-01
2.696639355117312342e-01,-1.628709809942598119e-02,-7.743268081932319635e-03,-1.829143677175276554e-04,-3.490120537367964103e-05,1.789956177988324699e-03,2.817935347557067871e-01
2.683447023835280887e-01,-1.025831765772435011e-02,-1.327212018830369045e-02,-4.426419541529932888e-04,-1.057732587813799618e-03,1.789326146684874254e-03,2.801462709903717041e-01
2.743910066212502663e-01,-1.738099709576411411e-02,-1.008943097760740815e-02,-1.902507752676220888e-04,-1.006770563132725792e-04,8.566025173464900111e-03,2.885773181915283203e-01
2.700983297418572682e-01,-2.036806818318888379e-02,-2.385852077781146219e-02,1.267352990351513706e-03,-4.572803107095511996e-04,8.580980766742740901e-04,2.922403514385223389e-01
2.763606461841341955e-01,-2.399121905806027300e-02,-1.611634433803305066e-02,2.525508209225901021e-03,3.103450187070324294e-03,-1.115657204160172642e-03,2.965801656246185303e-01
2.712927251664554174e-01,-2.735073602834227346e-02,-1.371529444174963974e-02,-7.578014221494489737e-04,2.044331326641609867e-02,-2.215209971786983451e-03,2.942310869693756104e-01
2.666875988663141017e-01,-2.732871834721647963e-02,-3.850137020852781311e-03,-1.553140986082084639e-03,-2.158078121577510985e-02,2.033858735844171119e-03,2.855005860328674316e-01
2.683970183550345445e-01,-1.124521604246717099e-02,-1.270795809322447512e-02,-2.862663456961894205e-04,-7.487607642779528895e-04,9.286904624415695487e-04,2.803845107555389404e-01
2.717399507595819053e-01,-1.832867264125025153e-02,-1.431700849357687988e-02,-2.131622277863886965e-03,-1.445309227960025512e-03,8.759866488862266907e-04,2.881222665309906006e-01
2.775151682581215029e-01,-3.017645865965636054e-02,-1.349100795635897743e-02,4.130391188975688146e-03,-6.255616463594698522e-03,-3.402228366617573410e-04,2.999791502952575684e-01
3.367749016163810172e-01,-3.767058914071319542e-02,9.680990528951466390e-04,-1.944334731689974921e-02,-1.751389567343442435e-02,3.273708239056780794e-02,3.640106916427612305e-01
4.007322732274564703e-01,-4.758243307036191805e-02,-1.986028521199126318e-02,4.187848765022872399e-02,-4.041352772051529096e-02,-3.967209061439238432e-02,4.518950581550598145e-01
2.736578098083819466e-01,-2.847279622330861626e-03,-2.592680166092649341e-02,6.378803531542978633e-04,1.316570373491058590e-03,-2.817643322602913884e-03,2.887898385524749756e-01
2.803382858707824665e-01,-2.481909075354493677e-02,1.485831434165599263e-03,9.610706106787788791e-04,1.231310013556527645e-03,5.030057291405856147e-03,2.930342257022857666e-01
2.786640025079236693e-01,-3.245980244360807676e-02,1.322815318255168848e-02,2.944161312304724009e-03,-2.284414559746431733e-03,1.326790241272243764e-02,2.919598817825317383e-01
2.749042926427611722e-01,-3.039701368741595799e-02,4.978165231555767289e-03,1.048072668933954605e-03,-4.876697045811046079e-03,2.662704506118374320e-03,2.894064784049987793e-01
2.806010574709555394e-01,-2.977814703309056288e-02,4.019316256298449686e-03,1.913723642764059412e-03,1.027299498075196719e-03,2.262664984631288997e-03,2.949864566326141357e-01
2.805711978128433426e-01,-3.810355032344109327e-02,7.784983434386771872e-03,1.711305649872207468e-03,5.109613298058946276e-03,-2.652464885029063809e-04,2.985350191593170166e-01
2.672324717066101307e-01,-3.363291105918687907e-02,-2.050378238801953135e-02,1.256650517939276914e-04,1.062138833467232528e-03,-7.410470125484107645e-04,2.945289909839630127e-01
2.705517325877378476e-01,-2.599741079515356657e-02,-2.571067381740904656e-02,-3.214243910822604930e-04,2.804320098552771858e-04,-1.135851454914586041e-03,2.964133322238922119e-01
2.804006022182223834e-01,-3.497541748785379379e-02,1.928433208978119762e-03,-8.579147234541719888e-03,-1.347753315555055495e-02,2.622507422591245901e-03,2.999528348445892334e-01
2.822975048349414262e-01,-3.337121715531532473e-02,1.708264045630070171e-05,2.457629206514837586e-03,2.178193352408069449e-03,2.269863397984806571e-03,3.004491329193115234e-01
2.737325821527479830e-01,-1.149302051734167607e-02,-1.999291415479949319e-02,6.297013913153747238e-04,6.687600369540667739e-04,-2.019931694372563338e-03,2.895946204662322998e-01
2.733563071322555604e-01,-1.131390472477056264e-02,-1.885970915769961953e-02,-2.610210231939588048e-04,4.872724154027993637e-04,-7.475636897710226597e-04,2.885216176509857178e-01
2.707071679971581046e-01,-2.536770568488433408e-02,-2.587075070426508860e-02,1.243659698752939014e-03,1.161857251448138433e-03,9.402699919340904008e-04,2.963458597660064697e-01
2.714657075959152621e-01,-1.602221430204930908e-02,-1.743308135449266050e-02,8.445383279486161094e-04,-5.329121004803169612e-04,-1.572834368279579797e-04,2.882012724876403809e-01
3.225063586172023378e-01,-2.383748630483997766e-02,-1.910558046131560772e-02,5.566171931745945989e-03,-1.873482372381579664e-03,-1.934462640614651244e-02,3.457798361778259277e-01
2.760534347801249511e-01,-2.086490910372218455e-03,-1.636155191444044199e-02,2.059748223461080557e-04,8.010534276093260160e-04,-1.737787760575610144e-02,2.871307730674743652e-01
2.741319014180256808e-01,-1.875179537776980321e-03,-2.571049639442211932e-02,2.976348124382325374e-03,2.892276025488452109e-03,-3.003323137342901392e-03,2.888000607490539551e-01
2.779880230387694606e-01,-2.543788106257877102e-02,-1.352062388519523206e-03,3.573590977782976734e-03,-1.144152628961942158e-04,-3.170788329471975649e-03,2.922458946704864502e-01
2.712015969402304938e-01,-1.756560745917364053e-02,-1.362120362360424997e-02,-3.762753670429122566e-04,-7.040887753513539881e-05,-6.845920492183450376e-04,2.868185639381408691e-01
2.719856394016554324e-01,-1.616075716677729812e-02,-1.949610244617616672e-02,1.531297114037915219e-03,6.018831288895879102e-04,-8.765684744740983442e-04,2.898464500904083252e-01
2.746666363116364584e-01,-1.938350947288086656e-02,-1.730224882854906887e-02,3.056283616419514741e-03,1.396525623638845666e-03,-1.315434256543185874e-03,2.930817008018493652e-01
2.708973396425720104e-01,-1.247884202287515010e-02,-1.719024468814961404e-02,-1.005796097235737681e-03,1.332439483227182593e-03,-2.113340641936448886e-03,2.857990860939025879e-01
2.708154507188094695e-01,-1.038190262668796382e-02,-2.001701253052096119e-02,2.523477238098482869e-03,2.253011880233738839e-03,2.054755237574814111e-03,2.862187027931213379e-01
2.735077455402378233e-01,-2.438603115974241620e-03,-2.130514777559236461e-02,1.626263250388532578e-03,2.159583941782751686e-03,2.238967319837370257e-03,2.859116196632385254e-01
2.716680211638219378e-01,-1.698676950014957332e-02,-1.647335012346891336e-02,-2.092911737264058593e-04,-5.507976206083674904e-05,-4.243596692031237089e-04,2.883996069431304932e-01
3.143913838035016783e-01,-9.032945940841891064e-03,-2.485608094864436013e-02,-7.210303279038457469e-02,-6.621647051500112457e-02,3.735223385317708311e-02,3.780307173728942871e-01
2.833817402211945558e-01,6.114467170202433910e-03,-2.441936537385391848e-02,-2.065352850550987180e-03,-1.058796676346894809e-03,1.663859047576192463e-02,2.951646745204925537e-01
2.723517425727580155e-01,-2.361132180268288305e-03,-3.209227620886498378e-02,4.032702639643842221e-03,-3.735428822096172985e-04,4.622433854298934122e-03,2.909156978130340576e-01
2.764687513031943711e-01,-1.178752383213207966e-02,-3.112154205295442067e-02,-5.739075567260580255e-03,1.202905665037889982e-03,-1.405469746659072580e-03,2.985761463642120361e-01
2.790077158253414513e-01,-2.185605133341012030e-02,6.785537104783162521e-03,1.338211777676669764e-03,7.413633857492664967e-04,1.667043453699049854e-02,2.890724241733551025e-01
2.679820263124160773e-01,-1.640025164850703043e-02,-7.646630460894907055e-03,-1.246434788654563353e-03,-5.150350005283534614e-04,1.739419448801876383e-03,2.801340222358703613e-01
2.689806928676434783e-01,-1.222197549322735777e-02,-1.289042099495975313e-02,-8.570593531633087861e-04,-9.594742791632900145e-04,5.034616681707063416e-04,2.815476655960083008e-01
2.798875278658848886e-01,-2.299940973427770652e-02,-2.072623531725374668e-02,-1.334168089661270235e-02,-2.081809438079917224e-02,1.304722466848364654e-02,3.056174516677856445e-01
2.721320141880864130e-01,-1.631615011749393274e-02,-1.620200677093720787e-02,-5.132398231290386404e-04,-2.000315052438611952e-03,3.392841969867180230e-03,2.884731590747833252e-01
2.789835243872902382e-01,7.019176158367945728e-03,-2.946148271527659901e-02,2.305640546277925966e-03,2.513622523990649126e-03,2.645629754593997567e-03,2.920150458812713623e-01
2.796682191965667030e-01,-3.790835030384509530e-02,1.848495373841911593e-02,1.036348191341123588e-03,-9.834285772211380245e-04,1.108485078722655330e-03,2.934888303279876709e-01
2.926039632766523901e-01,-4.468114816706392212e-03,-4.016439607712199433e-02,-9.113591021568367631e-03,8.923210408940786612e-04,7.875880596641852277e-03,3.171246647834777832e-01
2.738895476093070602e-01,-1.023885759337887780e-02,-1.227217468616134677e-02,1.785767076523575841e-03,9.809413759081619510e-04,1.625140577350244614e-02,2.865581810474395752e-01
2.693759160943667297e-01,-2.122992465228214221e-02,-4.550556408255967966e-04,-1.104333074735908311e-03,-1.124096904478530477e-03,4.161135150850926202e-03,2.809011340141296387e-01
2.698906814486359274e-01,-2.160592847620122769e-02,-1.626768044788290402e-02,-3.229876877822529741e-04,-5.938034064454177476e-04,1.107713188901477764e-03,2.888732254505157471e-01
2.790080418039421195e-01,1.469393588435050080e-03,-2.487195092759621196e-02,3.107621852743179102e-03,2.319667633127770346e-03,5.870281526451814197e-03,2.918575108051300049e-01
2.739028716560620857e-01,4.930768088320242049e-04,-2.427648364337037235e-02,-1.460249458978619594e-04,-1.727058087156734423e-04,3.625360948508507195e-03,2.866675257682800293e-01
3.086891329960830266e-01,1.897159411048232602e-03,-3.214666704378613127e-02,-5.240493657667694323e-03,-3.129765379482581274e-03,1.986213192414804790e-02,3.271390497684478760e-01
4.130630378797797153e-01,1.522154614606130441e-02,-7.042584955319927675e-02,-6.030521896931166637e-02,5.838733661335423521e-03,8.275541788955953493e-03,4.592442810535430908e-01
2.739728318410351582e-01,-1.064555944742097415e-02,-2.992266663516719716e-02,-8.451446543817651980e-03,1.524703600818868481e-03,-1.010655243378054966e-03,2.951104342937469482e-01
2.709445389336581078e-01,-2.139535839513857784e-02,-2.358118303036460528e-02,-1.777012502868791782e-02,-6.289429503324293512e-04,5.183687951422663283e-04,2.950520813465118408e-01
2.748463032292900454e-01,-2.990105222013461628e-02,4.953328760559094768e-03,1.944247620248881574e-04,-4.490557836217619510e-03,2.544155526254965154e-03,2.890398204326629639e-01
2.748656654074584371e-01,-1.788730170517445484e-02,-2.921234384468497647e-02,9.051811421847243816e-05,4.608838689476557962e-03,-5.734720573521409409e-04,2.986850142478942871e-01
2.727203164334556784e-01,-1.921682483376724315e-02,-2.635495789593908511e-02,1.456761546500154802e-03,2.432827154241700828e-03,-7.736517512315072139e-04,2.956146895885467529e-01
2.980632211214045979e-01,6.169528697535578421e-03,-4.923751546814789104e-02,-4.622462730204392536e-03,8.936385278556497128e-03,-1.744661278412393832e-03,3.236628472805023193e-01
2.765073439737725236e-01,-2.464340052883207122e-03,-3.748642929035631011e-02,-1.742560069133456541e-02,1.589619155401861749e-03,-1.593760656159591994e-03,2.995798289775848389e-01
2.773736377262039365e-01,-3.610421716444905949e-02,1.850611367554649833e-02,7.473907330641688411e-04,-1.526269280263910840e-04,4.767996528121513683e-04,2.900585234165191650e-01
2.643237731545200475e-01,-3.034844306146448900e-02,-2.467204399059949593e-02,-1.735959757684908764e-03,1.536369574894092286e-03,2.649295251990244071e-03,2.919391095638275146e-01
4.024219245631815989e-01,-3.734623964364991444e-02,-9.616704555999361359e-03,-5.184358303038950726e-03,-3.437728220927804834e-02,3.302669381246622904e-02,4.345902800559997559e-01
3.173030463961531433e-01,-4.607224332313783477e-02,-1.210456168138261679e-02,3.549537490192244266e-02,-7.492147493715158382e-03,-3.919547895914125835e-02,3.597351908683776855e-01
2.711604425848855859e-01,-2.780681486679997816e-02,-2.792469401385551386e-02,-5.106633572234469624e-04,9.633965808011966774e-04,6.936401594419435140e-04,2.990345954895019531e-01
2.687849445337231469e-01,-2.809921920536265216e-02,-2.586083415284981535e-02,-7.753121380482214066e-04,8.457491336989664179e-04,3.243258028491767704e-03,2.958313524723052979e-01
2.687781423501611755e-01,-2.833429919298409427e-02,-2.614584889182355876e-02,1.085604043716531639e-04,5.765148778960469582e-04,2.550194515631215770e-04,2.960263490676879883e-01
2.700093086758259542e-01,-5.671989929368792538e-03,-1.522759467512756204e-02,-1.479376167949331003e-03,-1.271247869951061147e-03,6.059911581551332554e-03,2.807977497577667236e-01
2.801803383916754431e-01,-1.550124293509844153e-02,-3.680835124332593189e-03,2.004417792124548554e-05,-1.049913536793673071e-03,1.025840105630201546e-02,2.905017435550689697e-01
2.796556996737609158e-01,-4.041166857152334035e-02,9.319464165946922396e-04,2.776719706464843632e-03,7.205277572970692976e-03,-6.336245914500869027e-03,3.020248115062713623e-01
2.724741747939101733e-01,5.053222593140990759e-03,-2.330289617071831798e-02,-1.054493355799898755e-03,-1.137766349850912904e-03,8.165659885794304684e-03,2.830341160297393799e-01
2.710005003060652617e-01,-2.049574774019266576e-02,-2.235344316535213538e-02,-2.489362692933214777e-04,-1.319936353349186785e-03,1.194251943848721742e-04,2.924388349056243896e-01
4.068610929086485251e-01,-1.243482690759245557e-02,-2.351957969902390699e-02,1.842861647417235599e-02,-3.049567463824901653e-02,2.990848605650171799e-02,4.325183033943176270e-01
2.710883463397126270e-01,-1.525782182990351177e-02,-1.454986005672431748e-02,7.650600319998759717e-04,5.069658539148261733e-04,-8.649869824231108412e-04,2.860011756420135498e-01
3.060633988842328401e-01,-3.522627800093547368e-02,-3.873596416660921027e-03,5.737614245756507414e-03,-4.866835798356228260e-03,-7.350787616856158287e-03,3.272509872913360596e-01
2.713381367452684101e-01,-2.768004086154222942e-02,-1.712248149592157653e-02,1.872508502045671253e-03,-1.817674937712052618e-04,-2.823078107128024249e-04,2.939001321792602539e-01
2.806019890390448190e-01,1.441059345962840410e-02,-2.884922879616858005e-02,-2.444052926527941118e-03,1.597627756345979021e-03,1.745676759974666703e-02,2.918637692928314209e-01
2.756400596255004221e-01,-2.555581815798942114e-02,-4.037388743106343214e-03,1.005356880992948950e-03,-2.108910899138905556e-03,-2.497333854371980733e-03,2.910941839218139648e-01
2.737211589893593366e-01,-2.326856719030914733e-02,-4.646113440445187592e-04,-1.092689288269285599e-03,3.088530506983376642e-04,1.211002071988238372e-02,2.870438992977142334e-01
2.171019449789134415e-01,-1.140897452624944908e-02,-2.224426939456561336e-02,-6.464217777982821577e-04,6.085155546711368312e-04,1.582485073036206218e-03,2.341377884149551392e-01
2.770773250899640772e-01,-1.895067654956156256e-02,-2.679912922552490917e-02,1.505432014779597592e-03,1.321213505052620286e-03,-8.212399613674793057e-04,3.000526428222656250e-01
3.214375281570313048e-01,-4.607905078245211339e-05,-3.303427559233390598e-02,-1.473801480529340555e-03,-5.009368457453371344e-03,2.508290510334636528e-02,3.420735895633697510e-01
2.726385358497407374e-01,-1.858892496265200645e-02,-1.037721871055367895e-02,2.460608051130762797e-03,2.285251647201412117e-04,-1.716558772275620813e-03,2.872569561004638672e-01
2.710014698148475176e-01,-1.302022134099714568e-02,-1.448843798142400441e-02,2.942439227300716804e-04,-1.504794316937862618e-04,-1.888529515538258470e-03,2.847779989242553711e-01
3.213257020332637715e-01,-5.233476628902006267e-02,1.848133416515583549e-02,1.164502306107180474e-02,-1.314754062493431706e-02,-1.630825262295678042e-03,3.451220989227294922e-01
2.745237735217264108e-01,-1.175852854211363596e-02,-1.899148070272693722e-02,1.089190341769287647e-03,4.718359775122485389e-04,-2.467158763490379537e-03,2.900052070617675781e-01
2.728636807715876800e-01,-1.425062856436966341e-02,-1.876876989911036020e-02,-2.171908535900884604e-03,2.659344019830942128e-03,-1.370251700918350118e-03,2.894706726074218750e-01
2.925955839405104397e-01,-3.926824333713374582e-02,7.318712137651756100e-03,5.884282512567251024e-03,2.468994149358074049e-03,-2.164112071803023750e-03,3.114155232906341553e-01
2.476549949774217441e-01,-9.391154477176241744e-03,-2.820682960008905060e-02,-2.033841554591852771e-02,-6.957116261837266447e-03,6.947267011203833026e-03,2.698040008544921875e-01
2.809568296711801860e-01,-3.848122476697610206e-02,1.187565773243726142e-02,1.565693285867420827e-03,1.313844887485159302e-04,-3.836059195484593743e-04,2.974868416786193848e-01
2.771528675538572073e-01,-3.123576278535689088e-02,8.106414435385997375e-03,-3.629070197633013878e-04,5.985355779990006106e-03,1.157498224221311517e-03,2.909133136272430420e-01
2.675201824357461566e-01,-9.483043868828741618e-03,-1.204885708344284601e-02,-1.542433462126301591e-04,-2.027028440156845501e-05,3.205726436990242057e-03,2.783505320549011230e-01
4.266917958508586461e-01,-3.714527114165977473e-03,-7.532692434747961796e-02,3.161453537339441004e-03,2.235880314803365132e-02,-1.765424571039208093e-02,4.729324579238891602e-01
3.122011859860627236e-01,-3.833791747818504625e-02,-5.649982981967824336e-03,1.416147662352772521e-02,-4.481126759073886419e-03,-7.440926684342588290e-03,3.366240561008453369e-01
2.692492992375502547e-01,-2.519314164834826619e-02,-2.599366949629046408e-02,-1.048628799598439560e-03,-2.686257357442730525e-04,2.683544407440213025e-04,2.948498427867889404e-01
2.961394622509856411e-01,-5.198750991388068066e-02,1.285486857956791296e-02,8.166114189807290036e-03,-3.230764470300720795e-03,-2.731122463445269030e-03,3.210565149784088135e-01
2.681764554027549208e-01,-1.190947285057253335e-02,-1.306372698898748685e-02,-5.562238548834646948e-04,-1.251219764939274597e-05,9.842976927919198319e-04,2.806716561317443848e-01
2.686997380559225101e-01,-1.542992519111938132e-02,-1.600416775233112765e-02,1.670238935766415632e-03,7.093779180570591609e-04,8.115938636597531909e-04,2.844380736351013184e-01
2.848308124272884712e-01,-3.504073439882071650e-02,-2.358326956317227663e-03,1.250393176507066158e-03,8.382077993373741702e-04,-4.350720730781623886e-04,3.048592209815979004e-01
2.794577691610103387e-01,-3.019911588079415843e-02,-3.195013150512696076e-03,3.959524635610269135e-03,3.230980142494250390e-03,1.324424152780113257e-03,2.972174584865570068e-01
2.740826140650245990e-01,-2.106309075716894519e-02,-8.043633748762837876e-03,2.670757437065511119e-03,1.706411035482057576e-05,2.338273743695782128e-03,2.889215350151062012e-01
2.410555484748702626e-01,-2.466525346611628255e-02,-2.215025632822170687e-02,2.956877845557602459e-04,-7.142792262104987258e-03,-6.766210718726495786e-03,2.650212347507476807e-01
2.997244635523863554e-01,-3.401483094917354122e-02,-4.647765032231854221e-03,1.380050932622522899e-03,-1.356115819427382990e-02,-5.599560252646107114e-03,3.210839331150054932e-01
3.158652537718151243e-01,-4.125674243607327374e-02,6.088292058048921929e-03,8.770783407486483670e-04,-1.062334163436267666e-02,-6.912487129739276759e-03,3.366807699203491211e-01
2.855908933365838842e-01,-3.297376914568445061e-02,-1.578815584170437103e-02,2.789347058868357071e-02,-2.177028766100724821e-02,-7.413422847095942243e-03,3.165831863880157471e-01
2.654281286218307390e-01,-1.675827087837004903e-02,-9.951320261890328478e-05,-2.075634408117922949e-02,-3.767516476772421463e-02,2.692735875954229210e-02,2.879787981510162354e-01
2.677490091328915689e-01,-1.256480079492330870e-02,-1.108941815307226686e-02,3.171615760536831562e-04,5.413340960513250743e-04,1.806935945973586755e-03,2.795986533164978027e-01
2.691722624878130077e-01,-2.570472267604261007e-02,-2.489846554491692565e-02,-1.034191291913020075e-03,-2.922691365303056732e-04,3.031049996047208866e-04,2.944810390472412109e-01
2.895372001673335305e-01,-2.216349116677757136e-02,-2.304556370499599716e-02,1.243850197281156506e-02,5.314187345251045365e-03,-1.322835876504330731e-02,3.138580620288848877e-01
2.744748820930978939e-01,-2.652140052293801287e-02,-1.561459905721974961e-02,1.114935273616668009e-03,-3.866617793078041751e-03,2.029784266827141788e-04,2.957761287689208984e-01
2.691432937068840570e-01,-2.442091565024215316e-02,-2.201657189637735990e-02,-3.183057636628847716e-03,9.682742902438799620e-05,-1.726473701670123333e-04,2.924216389656066895e-01
2.702097603310779084e-01,-2.856907284894964760e-02,-1.473588292024437252e-02,9.694931096848860910e-03,-6.000453762523837685e-03,-2.295464391540429951e-03,2.928017675876617432e-01
2.873688496453898900e-01,-2.842799850001397066e-02,-1.940125488314990709e-02,1.062719458583799743e-02,-1.435118876761492732e-02,-4.608808843309921723e-03,3.130158483982086182e-01
1.761435058388208241e-01,9.075176096705536710e-04,-1.337687160842278289e-02,-4.279417541064320721e-04,-1.774067582401484509e-03,5.092530172078119826e-04,1.828266978263854980e-01
2.518366691375935051e-01,-2.255742598266415044e-02,-1.838851285730989937e-02,1.554667983971770584e-02,-2.125182953894568655e-02,-2.301562997806728787e-03,2.761548161506652832e-01
2.745094405668746518e-01,-2.205045900512016266e-02,-1.968484343858119268e-02,4.223454005864720785e-03,1.461000532912006683e-03,-3.903716589848148840e-03,2.955629527568817139e-01
3.238886395239175542e-01,1.622395381985956841e-02,-4.552982773914746040e-02,-8.069313109483685839e-03,3.150218757624095498e-04,1.547897702278287768e-02,3.440711796283721924e-01
2.880222069378958194e-01,-2.460613546117459971e-02,-6.074611532010457116e-03,-4.186429020384078298e-03,-1.352555865469089180e-02,-1.886346245358017093e-02,3.065212965011596680e-01
2.163251575469864463e-01,-1.722036543004204501e-02,-1.590836786793795032e-02,-3.202344852938594300e-04,-3.192732953740024557e-04,-6.316509560661242792e-03,2.331504374742507935e-01
2.742838847293744831e-01,-2.405323671767743698e-02,-2.251441744350651808e-02,8.336128837065781214e-03,-3.087102834546170006e-03,-1.073565553401085873e-03,2.979745566844940186e-01
2.741013327139844025e-01,-2.610772503956008961e-02,-1.306838154145875674e-02,2.127355866812040593e-03,-7.770367314905875927e-03,3.230836049712309307e-04,2.942380011081695557e-01
2.435851189452402088e-01,-1.654432626034935128e-02,-2.772084053488774180e-02,5.952690489744390072e-03,-1.063823477880214245e-02,3.030002925500561127e-03,2.667825818061828613e-01
2.733146113605099403e-01,-2.060646909603792987e-02,-1.789633279865485149e-02,1.533080455253508102e-03,-2.024070050327055233e-03,-2.161082291152624513e-03,2.926324307918548584e-01
2.748116304226195794e-01,-2.582758046201177882e-02,-1.291548822054726375e-02,7.833791540783994079e-04,9.865044697279559942e-04,-3.204237017849456692e-03,2.944560050964355469e-01
2.583090651973181107e-01,-2.213434750357415326e-02,-2.822132254053737188e-02,-1.425032720791390996e-04,1.690194735208755210e-04,3.312844663466036135e-03,2.835942208766937256e-01
2.578075258896445621e-01,-2.093104590082452143e-02,-2.816127854020114563e-02,5.201534111536819556e-03,-1.244390246741375328e-03,-5.980137213136906297e-04,2.825768887996673584e-01
2.777190823571958900e-01,-3.065340596581844768e-02,2.271397585297860178e-03,6.019604772378161876e-03,4.396421966849522502e-03,2.195242749455194979e-03,2.936080396175384521e-01
3.386726575445427323e-01,-6.837213699209804263e-02,1.302101364090994806e-02,2.574549463492617485e-02,5.048261213695658112e-02,-9.874805710685167354e-03,3.861426711082458496e-01
2.834895478885005593e-01,-3.514472697912068844e-02,7.991427430524819520e-03,1.089290865760444808e-03,-8.262436437606005424e-04,-4.042570934154121783e-03,2.994970977306365967e-01
2.742901636367304219e-01,-2.111376242294517314e-02,-1.112248325661113757e-02,5.005348885372519832e-04,-6.074052746995297139e-04,-1.504764564646516624e-03,2.905520498752593994e-01
2.829891016705859963e-01,-2.043003416123810589e-02,-2.696787257121920078e-02,3.521853305930071343e-02,-8.844989993141221321e-03,-7.929259583914154141e-03,3.134230077266693115e-01
2.863062344527191883e-01,-3.841944574043310023e-02,9.226280203324666029e-03,3.128202417907869400e-03,1.467839245909459541e-03,-8.333222917697199854e-04,3.037811517715454102e-01
3.416785750561977530e-01,-4.901855428563331452e-02,1.701574932755080261e-02,-1.599138312184631566e-02,-6.295313594410596736e-02,1.594397595817755031e-02,3.802952170372009277e-01
2.726365068343800102e-01,-2.125094304274022239e-02,-1.667491114654581774e-02,7.955827538746049676e-04,-1.167955102601862805e-03,-1.016800794557774822e-03,2.916419506072998047e-01
2.876282635762074658e-01,-3.971428521842712556e-02,1.219983957560941135e-02,3.720438958026738192e-03,-3.021226154396876480e-03,-5.355332637582020574e-04,3.048348426818847656e-01
3.643042205592087468e-01,-5.893515896428611067e-02,1.357718083078347793e-02,3.998395120955473142e-03,-2.138909366975858678e-02,-9.316582486451284104e-03,3.941831588745117188e-01
2.654768004636564038e-01,-2.943861537172175191e-02,-2.277267023964102410e-02,-2.077915263177411778e-03,-1.085256617473580884e-03,-8.222053173285692436e-04,2.916713356971740723e-01
2.678190940293320721e-01,-2.683760871755849764e-02,-2.815985575916168937e-02,-2.739755937270236868e-04,-7.290577119073881522e-04,-1.110344183970438364e-03,2.953293919563293457e-01
2.699340399605341112e-01,-2.738375814326984847e-02,-2.786924568666951374e-02,-2.901323566229128069e-04,4.048143628133848895e-04,-6.524773699272812385e-04,2.975642383098602295e-01
2.694358963794807327e-01,-2.695772267138457634e-02,-2.824677935460677414e-02,-1.563019225915476666e-04,-1.694063459018072351e-04,-2.247511024684233983e-04,2.970407605171203613e-01
2.686072678337582120e-01,-2.958341234092599914e-02,-2.525598517150393074e-02,-1.578134084070731901e-05,-1.039065425757147243e-03,-9.978773627926276323e-04,2.960612177848815918e-01
2.755193935055796350e-01,-2.949946193758404278e-02,-1.294698185817984293e-02,9.683343863914548044e-04,-7.527501813796518698e-03,-4.275702131284090735e-04,2.973802685737609863e-01
2.724672787286575026e-01,1.116786071898925869e-03,-3.713720078124310708e-02,5.637565382891849934e-03,4.331472582980919889e-03,9.157240910370366416e-03,2.930493056774139404e-01
2.711460300735596407e-01,-2.309966702011635731e-02,-1.664091305698853218e-02,2.773319153641400818e-04,-1.934318600832970157e-03,7.441421132553125090e-04,2.910926043987274170e-01
2.698225096241150256e-01,-2.715934504581103692e-02,-2.687938962699241985e-02,4.918195972764883607e-04,9.902251198217392955e-05,-1.490759935125389804e-04,2.968433499336242676e-01
2.706074598133148545e-01,-2.714216871349352245e-02,-2.632365441036189913e-02,-5.195561577042134144e-04,-3.559375700713723954e-04,4.378641570154894716e-04,2.973441779613494873e-01
2.698261052084562905e-01,-2.443927780252505566e-02,-2.644157329295110381e-02,6.266366850931277040e-04,-3.324899595327834097e-04,3.069364029724245299e-04,2.952746450901031494e-01
2.266338437956255669e-01,-1.724613137659126993e-02,-2.440790578599630334e-02,-1.392307449916387399e-02,-1.401095663824700535e-02,-6.895986145660635246e-03,2.501769065856933594e-01
2.766606050772945635e-01,-2.703436412627495400e-02,-2.493659024749764197e-02,-2.471623438048587036e-04,-1.151284267785859447e-02,-9.589464392181203329e-04,3.033125996589660645e-01
2.778460764943025407e-01,-3.342798358149356996e-02,-1.277005968258398960e-02,1.341524276344323915e-03,-8.687257659082198852e-03,-1.475500238246356269e-03,3.018714189529418945e-01
2.702640471332899974e-01,-2.331296306946432917e-02,-2.499996628762965467e-02,5.074843361505728670e-04,-2.398744174781120529e-03,-5.733675863245686231e-04,2.944564223289489746e-01
2.241951601795841298e-01,-2.204243068329356237e-02,-1.617119809758017779e-02,-7.934785972156565073e-03,-1.441635846069111611e-04,-6.825517108122938249e-03,2.440295368432998657e-01
2.690612487556948706e-01,-2.760090268811557501e-02,-2.206635363150938334e-02,-7.321413952058309499e-03,-1.198343728839677130e-03,-7.884210911257215305e-04,2.942178547382354736e-01
2.662949925473014900e-01,-2.722000821130983461e-02,-2.262499940202629400e-02,-4.805316216040612714e-04,-1.564924437677085202e-03,-8.422605584584464278e-04,2.912621498107910156e-01
2.561766236493316917e-01,-2.535150519478292230e-02,-2.686798252634475803e-02,-2.120966233783596819e-03,-3.239641745722664310e-03,-4.296818863000055957e-03,2.824671566486358643e-01
2.654308294913572119e-01,-2.557654226709381307e-02,-2.586243324465521687e-02,-2.941229958681512713e-03,-8.404698869650932156e-04,-1.447852208344667380e-03,2.912094295024871826e-01
2.684399998581040725e-01,-2.486047338573307841e-02,-2.840205585060009974e-02,-1.274774752771848114e-03,-3.729318792280615158e-04,-1.651787199512568189e-03,2.951100468635559082e-01
2.782011866154161517e-01,-3.272943712217518675e-02,-1.366681401992227152e-02,9.209500805403495870e-04,-5.918600576729607203e-03,-2.001077904248656832e-03,3.020492196083068848e-01
1.739183867415428630e-01,-1.506391640334510396e-02,-1.272970280311959412e-03,-2.920270659597529184e-02,-7.395898473165822551e-02,1.373534572201106155e-02,2.298530489206314087e-01
2.296802550001471321e-01,-2.169389305005560431e-02,-1.636604901716705307e-02,-1.199480889449352182e-02,-2.533800749339343641e-02,1.110857035657914372e-03,2.534550130367279053e-01
1.946406130913891919e-01,-1.833973282423996543e-02,-1.521657399132166077e-02,-2.374487090370350564e-02,-2.801876845526300036e-02,-4.265118657868991955e-03,2.209216952323913574e-01
2.187838181911712920e-01,-2.169715329881563570e-02,-2.057246325911389617e-02,-2.472103491962408112e-02,-2.186161583473893166e-02,-7.464807633134829673e-03,2.469741851091384888e-01
2.523169834091953945e-01,-1.614937186320655749e-02,-3.490287621140593377e-02,-2.004375218441937579e-04,-2.845809143584727800e-03,-2.243744448284124005e-03,2.783883810043334961e-01
2.273900822781466380e-01,-2.050489305782762783e-02,-2.043154730623755744e-02,-3.952001664954470084e-02,-8.671722651865599457e-03,-5.286095723366524002e-03,2.577375769615173340e-01
1.397566917005533538e-01,-4.451798777061719004e-02,-8.513719007827276475e-03,-2.422203673027090512e-02,-4.565712660705904813e-02,7.356336366077648875e-03,1.918201744556427002e-01
2.822422152951854502e-01,-4.373706864353121837e-03,-2.910842491719459191e-02,2.329759999425008287e-04,2.216255717789379458e-03,-4.296685071797761053e-03,2.998668849468231201e-01
2.739646513386498894e-01,-2.374434452662753381e-02,-2.323332245676155983e-02,3.652624491745926245e-03,1.954281173731820583e-03,4.201971898367482384e-04,2.975412309169769287e-01
2.886190187940790297e-01,1.951781484439731040e-02,-4.093131323354604056e-02,-2.245016053653930543e-03,9.133399719419253715e-04,-5.521621668574387687e-03,3.040486276149749756e-01
2.719391322742393258e-01,-1.358800454042884132e-02,-1.562245626536817866e-02,-2.167858891845323658e-03,-8.970527403823478404e-04,2.524265099400300420e-03,2.866119444370269775e-01
3.057208008360047247e-01,-9.794135537342707476e-03,-1.669180762961028353e-02,7.094394542267346004e-03,3.120180734963054568e-03,-1.316411567741280347e-02,3.201150596141815186e-01
2.720877005762237788e-01,-2.126232981949073564e-02,-8.434536203326570281e-03,6.811901641639269474e-04,2.022322533767807740e-03,-3.961343237896187974e-03,2.872568368911743164e-01
2.741574056170458240e-01,-6.341409537772915717e-03,-2.148043047911263326e-02,1.052447168727580059e-03,5.089577456229808783e-04,-4.079776580561756891e-03,2.884601950645446777e-01
2.736632903858220445e-01,-2.325259787113292953e-02,-1.503026877754380652e-02,-1.651121092653086344e-04,-1.058311380492053594e-03,-1.002034091066840438e-03,2.929023206233978271e-01
2.823426676338255392e-01,-1.011565380521563251e-02,-2.060715915143636334e-02,6.134462708663251593e-04,-6.575842824619457716e-04,-3.795877390891537473e-03,2.979193329811096191e-01
2.829401365508656951e-01,-8.930844643038782227e-03,-2.606135871454827446e-02,8.930869822356783932e-04,2.153114509726185006e-04,-1.992789129192803609e-03,3.008263111114501953e-01
2.757084146342541064e-01,-1.980843176730372190e-02,-2.384767124507417013e-02,-1.612424856087363214e-03,-2.211649483402380618e-03,4.568838830641183527e-04,2.975958287715911865e-01
2.330219850541871418e-01,-1.722865426406221256e-02,-2.260004287178986326e-02,3.639427997920021557e-02,-3.509270982269058724e-03,-4.182375556462924679e-03,2.608859539031982422e-01
2.727887004892274314e-01,-2.214406644821496906e-02,-1.700085805721603116e-02,-1.135798316769282825e-03,-5.949257304829430690e-04,-2.146311325568479975e-04,2.924037575721740723e-01
2.698229167176454668e-01,-3.128996046869385317e-02,-2.213615771770194307e-02,2.099998209185958541e-03,1.327402488062700810e-03,1.592177266959849151e-03,2.966859340667724609e-01
2.723697953886295986e-01,-2.707358514993858656e-02,-2.651770129333073933e-02,3.833942871425523660e-04,1.055415919897892321e-03,1.017760999414956758e-03,2.991773486137390137e-01
2.686135990428185627e-01,-1.069004354086541819e-02,-1.063690449915548342e-02,-1.005439117874670643e-03,-1.457118024225128065e-03,3.203731007403980233e-03,2.793490290641784668e-01
2.728224860783893257e-01,-2.673953563056927218e-02,-2.428820501399182874e-02,4.849668578116059919e-03,-5.071139543799836440e-03,-2.370310279888605386e-03,2.986195683479309082e-01
2.723697514544903830e-01,-2.510441495052968819e-02,-2.486370972529937384e-02,3.104858661880683345e-03,-9.919866986548794320e-04,3.138354364023807238e-05,2.974074780941009521e-01
2.627049846092276431e-01,-2.450521095584598519e-02,-3.040917910076759711e-02,1.086260577332628886e-03,-3.035116923965223371e-03,2.271824783502837241e-03,2.902876138687133789e-01
2.587054169614302346e-01,-2.195166066788531434e-02,-3.138312874642432138e-02,-1.430990811800482996e-04,-6.950864664391355040e-04,4.983616804032752444e-03,2.856227755546569824e-01
2.754225102664584757e-01,-2.524378479971454980e-02,-1.833088918909824006e-02,3.907505632862654887e-04,-1.034291299643574392e-03,-2.348781094383989320e-04,2.972765862941741943e-01
2.522138935940470561e-01,-1.647780687779876185e-02,-3.305436080851036074e-02,4.305984193527763806e-03,-1.003864988346243534e-02,3.261140869331164392e-03,2.780536711215972900e-01
3.141772803543442794e-01,-4.827419881334232832e-02,2.114342644607314359e-02,2.864621764682890454e-02,2.037524463825588633e-02,2.430291100481962382e-02,3.413334488868713379e-01
2.704401782355388972e-01,-2.418034579094222036e-02,-2.264525388985827448e-02,-3.488903417799334313e-04,-1.063099010039968498e-03,3.224063079565453720e-04,2.938629090785980225e-01
2.780573166594768608e-01,-2.735260662738243920e-02,-1.080858480976301661e-02,-1.343488297859189132e-04,5.200933997066246005e-03,-2.310363249826457004e-03,2.976464927196502686e-01
2.575400248391233049e-01,-2.277697542700828082e-02,-3.057492234651873475e-02,4.177230581586110635e-04,2.930840178240211639e-04,-3.481576914283696610e-03,2.843615114688873291e-01
2.746674708461510073e-01,-1.772660653504200268e-02,-2.791923789629766062e-03,-3.163905042553131867e-03,-4.236870819633967687e-03,4.431635760538642221e-03,2.854703664779663086e-01
2.711380061560310639e-01,-3.751113456233545751e-02,1.362526604117968165e-02,9.523414351825342308e-03,1.869864987006674903e-02,6.633525169738029546e-03,2.890484929084777832e-01
3.029527949809580623e-01,-4.558287685306761094e-02,7.994574505955268084e-03,4.842590506670666275e-03,4.082995434847034970e-03,4.819440759207815894e-03,3.253675699234008789e-01
2.488206300122042525e-01,-1.598204844524987733e-02,-3.400825377643944269e-02,-2.738339058405480980e-04,3.447289367704725366e-04,-2.115839518450006885e-03,2.742859721183776855e-01
2.918543231271763516e-01,-4.211517353031879463e-02,5.906756095474474666e-03,-1.144010391669887270e-03,-2.000057058224307717e-03,-3.714790837825766162e-03,3.128277361392974854e-01
2.799955006613430997e-01,-3.386899522969488707e-02,1.270613425820295295e-02,1.704885157162960548e-04,-1.578303418416066419e-03,6.525560978318454587e-03,2.935935854911804199e-01
2.698645086250076042e-01,-1.574554598377622683e-02,-9.297698069049495362e-03,1.413003803232469548e-04,4.009420058492429626e-04,1.342199426916146181e-03,2.824518680572509766e-01
2.480598423794262153e-01,-2.180317916914789600e-02,-2.348741100858528497e-02,-2.958098813744225691e-04,2.006403682470964209e-04,5.981810608558359686e-03,2.709079682826995850e-01
2.857295669964541318e-01,-3.706554118866894898e-02,9.874074816139222222e-03,2.865453138529631245e-04,-2.326438040652163610e-03,3.414436449936909205e-03,3.021582067012786865e-01
2.686771949390784897e-01,-2.205136043505095955e-02,-2.434264592878175593e-02,1.584825992844984171e-03,-4.954642357758387572e-03,-6.197120017256996802e-04,2.920219600200653076e-01
2.646051552032508969e-01,-2.317988260578617010e-02,-3.302547512897491266e-02,7.207531223656382137e-04,6.462875585781503686e-04,-8.313921029274819923e-04,2.928403317928314209e-01
3.233430826605596109e-01,-5.363623428228189716e-02,2.389464144561134762e-02,3.654327187027485262e-03,4.523082986145791212e-02,7.198165358437088462e-03,3.538783490657806396e-01
3.063953835595131237e-01,-4.795938965877785676e-02,1.217380307269960715e-02,1.031598583373515010e-02,5.697723616835664710e-05,1.113512640235794771e-02,3.294936418533325195e-01
7.938832167631448833e-02,-1.055183942055212820e-04,4.145589376765325407e-03,3.684780472031205095e-02,-4.518590465872535794e-02,-1.265592358285539711e-02,1.291452795267105103e-01
2.032711637231964241e-01,-6.243304725739320937e-03,-2.097676508841433973e-02,7.136672951043539215e-03,-1.582105134670430333e-02,3.579836119601288811e-03,2.194138020277023315e-01
2.802459430843487476e-01,-3.926806144057248815e-02,1.047129050460234023e-02,8.390348792284703068e-04,-7.856221913378083274e-03,-8.499198987609225429e-04,2.980943322181701660e-01
3.013992272693098995e-01,1.553760484916402729e-02,-4.109248683825564297e-02,-4.250111184886701254e-02,1.547737670523330333e-02,-1.424728364337055249e-02,3.284187018871307373e-01
2.652063649216012120e-01,-2.138261141005931565e-02,-3.196969414219262562e-02,-3.905879227336743194e-04,-2.856311694937208306e-03,-1.130850798976652935e-03,2.920757532119750977e-01
2.917628421947784378e-01,6.293261480976419797e-03,-4.077489184820157209e-02,1.379513591022204708e-02,-7.870043508326591501e-04,1.464766648313659209e-03,3.126084208488464355e-01
1.480231361119019595e-01,1.421598069870029513e-03,-1.276048493271682294e-02,6.589997395319167894e-02,-5.728824649803428148e-02,-1.824381350755999512e-02,2.182773798704147339e-01
2.666339442853071784e-01,-2.549658706437797628e-02,-1.803640370609280175e-02,3.062039335750465097e-03,-3.116426046654219490e-04,5.468234742628363520e-04,2.885236144065856934e-01
2.738620476148417304e-01,-2.487991701781600007e-02,-1.494678729488889413e-02,-2.211933114720991990e-05,-1.076177405709505697e-03,-8.996272450580906389e-04,2.939113676548004150e-01
2.325319800056346309e-01,-1.738503709737326819e-02,-2.774723919299319774e-02,-1.437873604501987285e-02,-1.959461020373411133e-02,-6.672083642158875214e-03,2.589618265628814697e-01
2.784808335905704091e-01,5.935432907693827254e-03,-3.667194005326937511e-02,-5.656082999952394101e-03,4.005889287704685921e-03,-1.582957578911481106e-03,2.964126467704772949e-01
2.679769315858963608e-01,-1.531155804975857515e-02,-9.221343649555249766e-03,-7.215409344629978737e-04,-1.785198863643479967e-04,1.442851872799631816e-03,2.803071141242980957e-01
2.749985207069527426e-01,-2.323703368365864774e-02,-2.372633273057658809e-02,5.408826898778158927e-03,1.195716796846716529e-03,8.874827196706546717e-06,2.986346781253814697e-01
2.677070359537487843e-01,-1.302598032056424826e-02,-9.335739427951322833e-03,1.919146652698037971e-04,-2.471489071907365803e-04,1.351466665899900711e-03,2.789165675640106201e-01
2.719945401942002738e-01,-2.512034973830169771e-02,-2.346006997774718883e-02,-6.191244002281618948e-04,3.605487502622634261e-04,-2.400558324434599530e-04,2.962911427021026611e-01
2.741383761250792417e-01,-2.485152700659866432e-02,-2.347644896997574948e-02,1.316313358437842069e-03,2.098537907229797508e-03,6.956495559157780447e-04,2.983380258083343506e-01
2.777120746751938762e-01,-4.607118700481194207e-04,-3.622699322797809374e-02,2.806256841744348730e-03,3.753248159132130911e-03,-2.512264224351922620e-03,2.978142797946929932e-01
2.950972370124499977e-01,-1.149956450479328041e-02,-3.097032237848118541e-02,-2.294897673093571067e-02,-1.056748025885014550e-03,-2.540099679263635012e-03,3.193008899688720703e-01
3.038450074822092173e-01,1.505721126568715373e-04,-4.112195878359548029e-02,-1.182438046241312060e-02,8.144984600525968441e-03,2.834213644194686667e-03,3.272774517536163330e-01
2.674947594486160596e-01,-2.718536960663080204e-02,-2.650126089885977698e-02,-2.308064462798851838e-04,3.713607003362158271e-04,2.332168330527564868e-03,2.943673729896545410e-01
2.767795714946215124e-01,2.399762379760736475e-03,-3.672381980980890526e-02,-1.508791468141912687e-02,7.350798319661212398e-04,-6.373594417179248182e-04,2.970444858074188232e-01
3.077345010957107663e-01,-1.469770836767386735e-03,-4.116771625776224908e-02,-1.097620404315631862e-02,-2.212541286002831387e-04,6.444070028868951160e-03,3.315782546997070312e-01
3.108979899725543006e-01,-3.985596051447631849e-02,2.904537321968658770e-03,4.779208291814527471e-03,1.118536386452846339e-03,-8.726734120126648092e-03,3.319022953510284424e-01
2.699200102514139887e-01,-2.635937021422457560e-02,-2.757189507353430269e-02,8.047765685335972561e-04,8.950107719147290877e-04,3.276360863235677247e-04,2.968953549861907959e-01
2.725424121104365605e-01,-2.555159801302264722e-02,-2.041393000149441250e-02,7.972231171385032230e-05,-7.366317561733576151e-04,5.378041786723186017e-04,2.955629229545593262e-01
2.935421237684876505e-01,-4.183836127557594153e-02,1.451660603852725218e-02,4.649517698039792347e-03,-3.064813167663178479e-03,7.793421437850600640e-04,3.112080395221710205e-01
2.722363464174410996e-01,-2.545235249376751052e-02,-2.559684521066331320e-02,-5.221417814821573610e-04,1.389350419882840436e-03,5.012683446072786655e-05,2.977720797061920166e-01
2.779003623474880502e-01,-1.325190044852708748e-02,-1.299368957469188013e-02,-7.849351516890486430e-04,1.303528885842630781e-03,-9.112481987343268308e-03,2.914628386497497559e-01
2.758375175864743456e-01,-3.154819321578361535e-02,4.043078425575871715e-03,2.222198331255949635e-03,-1.192230775627766510e-03,-4.855681632700515823e-03,2.913799583911895752e-01
2.733307819869116306e-01,-1.916538025083990016e-02,-8.689305671035332801e-03,-3.817353579957949179e-04,1.886360915939425988e-03,-8.903218745956073890e-03,2.878340780735015869e-01
2.716486076489352808e-01,-2.714470800168203302e-02,-2.673273347726055904e-02,1.333590003985892945e-03,-4.642808773244552377e-04,-2.098011763858049616e-04,2.985977828502655029e-01
3.084918141920639512e-01,-2.858567117932078738e-02,-6.954194035716454447e-03,4.729216985439469237e-03,-3.403562621429488330e-03,-1.250244751058274956e-02,3.276712596416473389e-01
2.530679322464394754e-01,-1.806948477699171773e-02,-3.274349728259895453e-02,-3.383182325705666633e-03,-8.871621410391180781e-03,-5.225090467110461365e-03,2.793955206871032715e-01
2.676513862969508439e-01,-1.069268407473224214e-02,-1.193415497302770245e-02,7.049611195970246005e-04,-2.511062113594811503e-04,2.306688913497710516e-03,2.789984941482543945e-01
3.236972680948583259e-01,-2.971020834846876957e-02,-2.264286945578991572e-02,-1.791051467870658637e-02,9.759971812719321627e-03,-3.429150396355278713e-02,3.566861152648925781e-01
3.202220636995902758e-01,-3.044044742429632966e-02,-5.402508348890722178e-03,-1.510969908179134874e-02,2.134948343211638677e-02,-2.850344142042706558e-02,3.453995883464813232e-01
2.132410568601100509e-01,-1.976864004828281229e-02,-1.419631470159735120e-02,4.764657081984668291e-05,-1.382237523997516260e-02,5.593905586207319376e-03,2.317179739475250244e-01
2.692229008512018740e-01,-2.238295409250799783e-02,-2.572221368360746996e-02,6.806425092809484335e-04,8.968910890874016561e-04,-1.794212367043063856e-04,2.932963967323303223e-01
2.620113146371727542e-01,-2.564441003758829996e-02,-2.829592769987294976e-02,-1.528387446726837788e-03,1.526663560871272917e-05,-3.507126253069391998e-03,2.890665531158447266e-01
2.460978969189424881e-01,-2.433034174495289637e-02,-2.242653802718784506e-02,-1.167654043727545804e-02,-4.580758078068608748e-03,-5.991095479393545795e-03,2.705547511577606201e-01
2.642750829898580234e-01,-2.319220944689633079e-02,-3.054131294813471065e-02,7.253017936702411007e-04,5.515802966858118512e-04,-2.210220547279559064e-03,2.912408411502838135e-01
3.021381046597753639e-01,-1.834572633253661600e-02,3.665151073132949522e-03,-2.984175016889934612e-02,-5.375592848247243150e-02,3.159077014509503040e-02,3.323775827884674072e-01
2.598484887383336606e-01,-2.848248192878490015e-02,-2.301194653627718079e-02,-3.959690524482205147e-03,-4.832356447150262455e-03,-6.066638375221235224e-03,2.860329747200012207e-01
2.656614129058694207e-01,-3.147767411374892410e-02,-2.212966565501398031e-02,-1.768021637081537093e-03,-7.784184211610270738e-04,-1.597277140966233723e-03,2.926093041896820068e-01
2.552055451515633511e-01,-1.045429952638921023e-02,-1.828713706857161558e-02,-2.316426243241778704e-02,-1.444458757616493699e-02,1.073513487049585803e-02,2.744062542915344238e-01
2.677937587623112625e-01,-2.004122706803727894e-02,-2.330825915004616777e-02,-8.339688313420427681e-04,-5.420995793721431312e-04,-2.966357342574880307e-05,2.894874513149261475e-01
2.678922545358446428e-01,-1.859961144466783234e-02,-2.231285930124243810e-02,1.460733609765279585e-03,7.497065856826220240e-04,6.083011519185818833e-04,2.883823812007904053e-01
2.633101969263817455e-01,-2.815685175358506598e-02,-2.182628162182886911e-02,1.552196097924982403e-04,-1.797048770958497926e-04,-7.201257072679770484e-05,2.883542180061340332e-01
2.608474294306187269e-01,-2.096419441471832068e-02,-3.130152056079923972e-02,-1.142659679739307780e-04,-1.772696924040027475e-03,-2.925395763897024968e-03,2.871810793876647949e-01
2.623003293448394890e-01,-2.784461391529489960e-02,-2.165145263194914738e-02,-1.528214370057936079e-03,-2.624743115778217870e-03,1.784207092948674584e-04,2.871468365192413330e-01
2.681267916597812606e-01,-2.363554315329245703e-02,-2.509565127876625668e-02,3.550922175220726278e-05,2.387956397637075717e-03,-1.963246907221235724e-03,2.925441265106201172e-01
2.696230080847344945e-01,-2.810966798031210023e-02,-2.680996212590025518e-02,-1.981644378663377471e-04,8.329842927380378770e-05,-1.649775357456778992e-04,2.970853149890899658e-01
2.414897525510066242e-02,1.258809481141017622e-02,3.388282733863804200e-03,2.620108311579371838e-02,3.014762518671498109e-02,1.870573821563577526e-03,7.156307250261306763e-02
2.642530185607162574e-01,-2.172851625220090233e-02,-2.713012382700186187e-02,1.715631292930794218e-03,-4.404676755492457386e-03,5.120772381710186026e-04,2.888376712799072266e-01
1.312598632959939282e-01,-6.504200835508913703e-03,-4.526200420056067375e-03,2.565710264058529422e-02,3.052953469617574606e-03,4.869101369046465073e-03,1.441676020622253418e-01
2.284285641977503445e-01,-1.995887480262555080e-02,-9.403834933365801119e-03,2.397054714392374969e-02,3.223328238124970827e-03,4.729388159985773062e-03,2.469980269670486450e-01
2.640640181524503416e-01,-3.350661105369531767e-02,-1.626049306858778909e-02,1.341223059242398208e-02,1.012132848310376594e-02,-2.597363787422746467e-03,2.908281087875366211e-01
2.695147618542573786e-01,-2.719824485871624731e-02,-2.859688691176025255e-02,-3.249244001109743356e-04,-3.196240088068751117e-04,-5.621934467009007726e-04,2.974174320697784424e-01
1.525366041452295152e-01,-4.450172824810333383e-03,9.831079527362895920e-04,8.819210085886387482e-03,-7.576328330518588422e-03,7.674713597544049749e-06,1.556500941514968872e-01
2.558191334289804386e-01,-1.633777013977082138e-02,-3.546004695547251562e-02,2.800392208032778359e-04,4.413768005809832855e-04,-1.404473563750338345e-03,2.822163105010986328e-01
2.319455808249133166e-01,-2.006360819025056197e-02,-1.611458213192823452e-02,1.310760153045065907e-02,1.092964400898822734e-02,-3.970166527723677924e-03,2.518930733203887939e-01
3.198225457151360751e-01,-1.576430884775889552e-02,-3.554347329106014031e-02,1.542073635655025893e-02,-1.758687301370477716e-03,9.298478980802455524e-03,3.473174870014190674e-01
2.603863638785836598e-01,-3.099697747438402706e-02,-2.346546279336346463e-02,2.943271030660815917e-04,9.059178963395707156e-04,-3.941964905709628014e-03,2.877772748470306396e-01
2.139231944480395886e-01,-5.319913732263717443e-03,-2.705229454244327536e-02,-5.581963510358796789e-04,-5.634930305784703998e-04,-3.319635102581328990e-04,2.308824956417083740e-01
2.730262708971376018e-01,-2.815997885191720562e-02,-2.456856582647652665e-02,1.385232470208094466e-02,-1.535104119798180386e-02,-6.465498146700272668e-03,3.017489016056060791e-01
2.321225126389256099e-01,-1.070512601074585790e-02,-3.220573582755506536e-02,2.642284763833824133e-05,-1.156791931009661101e-02,-3.379309130659404348e-03,2.551160454750061035e-01
2.025243858191100865e-01,-5.837804445955468990e-03,-2.081549087392979558e-02,8.516228885940769350e-03,-1.606577653447269563e-02,3.213375615277996606e-03,2.185927778482437134e-01
1.668410571541003029e-01,-3.398235894351800401e-03,-3.420633367849271189e-03,1.695822319903260173e-03,-1.309520954651093418e-03,4.694256905834789939e-03,1.704849302768707275e-01
2.308913707358754841e-01,-2.593536742695060071e-02,-1.155024486750880208e-02,1.453296483146852142e-02,1.337675826886064803e-03,4.545115989080103155e-03,2.513431608676910400e-01
2.558290673140330429e-01,-3.085918579736912637e-02,-2.130144695789422393e-02,1.439611866860821335e-04,-4.017790079697081650e-03,-4.273386827587985666e-03,2.822138965129852295e-01
2.694249320131447134e-01,-2.354366589999293269e-02,-3.071848997934163716e-02,2.900002353614119805e-03,-4.755372116108782859e-04,8.972688604014747871e-04,2.966688275337219238e-01
2.723031719933205475e-01,-2.860395429535753098e-02,-2.580246623721568766e-02,8.070215810274960350e-03,2.171155399573891469e-03,-3.030952644601592975e-03,2.999117374420166016e-01
2.382409169968276175e-01,-1.221961546363659057e-02,-2.263215352063911723e-02,-2.080797466860796752e-02,-1.987994062967880782e-03,-2.236973543250614547e-05,2.583749294281005859e-01
2.717441131787898256e-01,-2.422551123276825424e-02,-2.262972566788526430e-02,-3.530510638833294582e-04,3.601180572619941205e-04,5.319780146741851607e-04,2.951776981353759766e-01
2.827513368813505679e-01,-2.742258229435930172e-02,-1.830881507298554034e-02,3.131717533122679257e-03,-7.127310041646066352e-03,2.902409616534040292e-03,3.060574531555175781e-01
2.704787815227651659e-01,-2.869879368977537593e-02,-2.657880517498431572e-02,8.950678800577595642e-04,6.637997805885259648e-04,1.562536759019800790e-03,2.981417775154113770e-01
2.714374868004462149e-01,-2.899197273304103539e-02,-2.725759748456799136e-02,-4.981415299270042013e-04,3.783148873297598365e-04,6.014808183268454626e-04,2.995698153972625732e-01
2.786618977887386217e-01,-2.873381694952571730e-02,-1.213844431605673457e-02,6.619205006280296779e-04,-3.530231282115170628e-03,3.485149183585565472e-03,2.995685636997222900e-01
2.702511258352219836e-01,-2.575764294081146766e-02,-1.679455603484436566e-02,-1.530060743102002862e-03,-1.292639859888566325e-03,1.635625764930517508e-03,2.916649281978607178e-01
2.781793406202412999e-01,-2.361086655538058299e-02,-1.519091682467370308e-02,4.225824475426337716e-04,-2.652527298187088312e-03,3.906081928446769169e-03,2.977827787399291992e-01
2.691448659052910197e-01,-2.642162424086341721e-02,-2.578389016455047422e-02,4.840971555788354559e-05,1.408072912809996548e-04,1.006221069643920690e-03,2.952533960342407227e-01
2.706977385355603394e-01,-2.809337351900445534e-02,-2.812043849325041034e-02,4.451728118069655897e-04,5.784551989822589641e-05,7.228228184306097681e-04,2.988082766532897949e-01
2.720083878648756892e-01,-2.385057105089459506e-02,-5.745603389314873910e-03,1.217045068492249131e-03,2.756688254227446146e-03,2.184110351047866081e-03,2.873070538043975830e-01
1.543346985190960363e-01,8.963894995576510150e-03,-1.458763351618834470e-02,-6.915790986248095129e-02,-2.695171374604118930e-02,1.720680122948977861e-02,2.062205225229263306e-01
2.609621481446927072e-01,-3.317008956446727830e-02,-2.192127810110228170e-02,-5.127438768522299406e-03,-3.017604105614028059e-03,-3.765449970503562203e-03,2.889297306537628174e-01
2.434964229481922648e-01,-2.442280518290269875e-02,-2.299611095237794056e-02,-2.922115219523105378e-02,-2.709788130907441264e-02,-2.021482301546580033e-03,2.760023176670074463e-01
2.229935048825486543e-01,-2.674368765110957114e-02,-1.808015631742809770e-02,-3.209973048522098138e-02,-3.455676908355641286e-02,3.203933349146703257e-03,2.588138282299041748e-01
2.717731620328192044e-01,-1.302962539180169133e-02,-9.870946148353335059e-03,1.653367969164798099e-03,-4.706767496890318326e-04,-7.958046307155767704e-03,2.835874855518341064e-01
2.619062802544741553e-01,-1.365454374179489450e-02,-2.561613234188946098e-02,1.175026037988881160e-02,-3.466145798022548553e-03,-4.218711341791634914e-03,2.826245427131652832e-01
2.627661616891138752e-01,-2.291473105552660483e-02,-3.134778505979267382e-02,-1.228325999677448406e-03,-9.453064672814070687e-04,-9.535777105370082940e-04,2.900065183639526367e-01
2.685525358188407541e-01,-2.633910708585041061e-02,-3.059763379749100287e-02,6.215043071883112917e-04,7.611375518028514050e-04,-8.989763776482616276e-04,2.970527708530426025e-01
2.056707178689572701e-01,-2.215991251793175687e-02,-1.615627923806872701e-02,-4.545156604094041652e-02,-1.521545674625803804e-03,-4.036419166323560251e-03,2.383870482444763184e-01
2.664969298983644874e-01,-2.554275423038683546e-02,-2.879004238345922451e-02,-8.478143203961106952e-04,-5.209963195822269171e-04,-6.519856333756137833e-04,2.936840355396270752e-01
3.891577791455715918e-01,6.615087674176928223e-03,-5.970678158971323701e-02,4.003347237828713823e-02,1.866561924320938801e-02,-1.162449117730847761e-02,4.270446002483367920e-01
2.651806362248154691e-01,-1.812846364185323467e-02,-3.502762636625710024e-02,1.497877038592878999e-03,-4.457705062148797567e-03,-6.765377738617099060e-04,2.922413945198059082e-01
2.866546740721468423e-01,-1.589479098746876540e-03,-2.911067522035731825e-02,-1.177716678946058408e-02,3.975261247801188322e-03,-6.198832168963803492e-03,3.038975596427917480e-01
2.738521777062872253e-01,-2.166676127826853981e-02,-7.052756711367166864e-03,1.716300748449707623e-03,-1.647737871140417211e-03,-3.838445423522724928e-03,2.885957062244415283e-01
3.019756936513635082e-01,-1.770494047032281082e-02,-2.028566327592017104e-02,1.342926919078149019e-02,6.499138550203712242e-03,-1.913144856149967890e-02,3.237177133560180664e-01
2.779565160769020826e-01,-3.638995024600757966e-03,-2.531848375843194499e-02,4.830539131853084887e-03,4.894159146762804523e-04,-1.092792766194873068e-02,2.937683761119842529e-01
2.785393212108426830e-01,-1.026085755410198475e-02,-2.126737977541651170e-02,-2.459616274866875327e-03,2.396286020080405730e-03,-3.630130949094346592e-03,2.945849299430847168e-01
2.595071691045783835e-01,-1.682255993543355088e-02,-3.718196336213867859e-02,6.324156278987578313e-04,-2.000623969471593700e-03,-6.192660177718711497e-04,2.870764434337615967e-01
2.633363486052266444e-01,-2.240635023177825480e-02,-3.070830332512654304e-02,-3.343207539572449821e-04,-7.781190450077383894e-04,5.651817176921734810e-04,2.899881899356842041e-01
2.781197933818936319e-01,-2.917638254913949847e-02,-1.658792491303798244e-02,1.895965985059507378e-03,-5.021311481135482674e-03,-1.909152571654948319e-03,3.013608753681182861e-01
2.832976570658293225e-01,-3.355616829441679383e-02,-2.499201735869774343e-03,1.308682410437133747e-03,4.033810017858390634e-03,-1.641009455841832727e-03,3.026258349418640137e-01
2.781961866753106527e-01,-2.670409493338024576e-02,-6.312690126657541367e-03,1.836538529971888396e-03,1.783263654038157175e-03,-1.245335928804377785e-03,2.952743768692016602e-01
2.838714028783973498e-01,-3.806015171508370099e-02,-4.601625775631362769e-04,4.879771823701594541e-03,-1.834375049631968221e-02,-3.433544998873737375e-03,3.067007362842559814e-01
2.667709946733632931e-01,-2.170998021906191122e-02,-2.814413406163264464e-02,1.634018597433129980e-03,-1.158949775975932212e-03,-6.519849755420849225e-04,2.917740941047668457e-01
2.142144693248911047e-01,-2.083833381264339757e-02,-1.975085110678100053e-02,4.410487856368106724e-02,-4.844727918240619019e-03,-1.121637755485784590e-03,2.467899769544601440e-01
2.652391271944539719e-01,-1.963118675096378607e-02,-3.395264571828607303e-02,-8.298818792582471349e-04,-3.277007502675363757e-03,-1.326088676372126065e-03,2.923619747161865234e-01
3.030538665133533649e-01,-3.554926544422645773e-02,1.544855965010041854e-03,5.179325391997128582e-03,-5.059240699536377180e-03,-6.614793450428582341e-03,3.221124112606048584e-01
1.840747991286140472e-01,-1.088976325262319689e-02,-1.784690908638650320e-02,2.036098832247294765e-02,-1.677059255555967202e-02,6.061671475621793932e-03,2.039943039417266846e-01
2.670807879418560793e-01,-2.266871038929346716e-02,-1.796926029064727093e-02,-7.078938074173262698e-04,7.629792813042727368e-04,-3.773272302024587672e-04,2.874349951744079590e-01
2.831617000061152911e-01,-3.065213570925340303e-02,-2.703331562796937315e-03,2.979505134633084543e-03,-1.134828015562443920e-02,-5.271986412410702150e-03,3.016386926174163818e-01
2.656672165912944417e-01,-2.630771390374966878e-02,-2.046834154089514912e-02,-1.241842128808728820e-03,-7.107338302464147903e-05,5.315417356108103957e-04,2.891089618206024170e-01
2.592120204173239406e-01,-1.765203295412383355e-02,-3.651876787353143528e-02,-3.216734289642859891e-04,5.445841715859520741e-08,1.073911614247318900e-03,2.867698669433593750e-01
2.750880086388006740e-01,-1.280668026994380426e-02,-3.015928747970840484e-02,6.818218023117498389e-03,1.721069373124712969e-03,-6.530809228614007983e-04,2.972033321857452393e-01
2.582557732780409454e-01,-2.926367579152591714e-02,-2.025515082273680878e-02,5.555096138365252234e-03,1.411011882974623098e-03,-1.756884226497958633e-03,2.833130359649658203e-01
2.494128059852518953e-01,-4.160593807074758343e-03,-2.734532228990588232e-02,3.126659013270288723e-02,3.140143094241552683e-03,-1.274776186858256506e-02,2.723342180252075195e-01
2.787691132921875647e-01,-5.541782939353909199e-03,-3.462267578670888413e-02,1.129443935433416648e-03,8.810241868148424582e-03,-4.397961667110400485e-03,3.004015982151031494e-01
2.718430086970704540e-01,-1.805094336435582314e-02,-1.477418854604717335e-02,-1.265142745352020905e-03,-1.579007188739695207e-03,7.526938704508943315e-04,2.882937788963317871e-01
2.850141303362181411e-01,-2.585251554412329456e-02,-2.998498619633720164e-02,3.139927437587587081e-03,1.344192337800126976e-03,3.017057343018579650e-04,3.130096793174743652e-01
3.251919476163033229e-01,-2.171946366541877005e-02,-3.520244846678802220e-03,3.942156084549318547e-03,5.416274814701523043e-04,3.243086061809882098e-02,3.428819179534912109e-01
2.564100784929695398e-01,-2.283961649986998577e-02,-2.474240159497340108e-02,8.269327013428648095e-04,6.276061573726313299e-03,-2.240465301869946219e-03,2.804472148418426514e-01
2.717010849049150689e-01,-2.916705282547647771e-02,-2.730524910404599770e-02,-2.399927668369725175e-04,5.026232039176563087e-04,4.964933428701919600e-04,2.999443411827087402e-01
2.636905789331054351e-01,-2.866649089454810506e-02,-1.244039590361549485e-02,1.118606838360197524e-02,1.304200921822605899e-02,2.275652858200309832e-03,2.861700952053070068e-01
1.866449390018560806e-01,-8.829056386012501534e-03,-1.005229591567323444e-02,5.006364262627995866e-03,-1.144890102365918230e-03,-2.642153664823836991e-03,1.963434666395187378e-01
2.712973207707819467e-01,-1.976820612873365912e-02,-2.134882451645851720e-02,1.845792753680122397e-03,1.681699828915370629e-04,-2.273880359412955385e-03,2.919032573699951172e-01
1.542304299833739956e-01,-9.699161373250379803e-03,-1.026177414220431211e-02,6.797961073086867222e-03,2.729142904985470269e-02,-2.027652432861544798e-03,1.713210195302963257e-01
2.657983389125009310e-01,-3.048529425348825428e-02,-2.499374750147498325e-02,-8.489241536658364900e-04,-3.494828846899286547e-04,-2.679492062236216079e-03,2.936173677444458008e-01
2.184378578171253804e-01,-1.261724433629515807e-02,-1.571462965162927217e-02,-1.094171211764964407e-03,1.087362011673718640e-02,-4.531495738080121294e-03,2.335200756788253784e-01
2.736565945293348845e-01,-1.887026491428418773e-02,-6.930202797893789124e-03,-4.797089010944232757e-04,5.366544802980112308e-04,1.009489116031119481e-02,2.872786223888397217e-01
2.700510200760882773e-01,-1.156104288107089040e-02,-1.882681877223123246e-02,-1.127358582070947556e-04,-6.160007938311384216e-04,1.334056356764495030e-03,2.853257656097412109e-01
2.901792357706555192e-01,1.683624668310250427e-02,-4.306217564857836577e-02,-3.458057321434893083e-03,-2.928896483158583623e-04,8.752618464457136149e-03,3.081281781196594238e-01
2.712933772666695220e-01,-8.810935317641779840e-03,-1.565659873548327918e-02,1.436457180385302432e-04,-3.519667975471343219e-03,2.375146202820281691e-03,2.836845815181732178e-01
2.608335461641547726e-01,-3.010802638330302428e-02,-2.138472193229604135e-02,-8.134575624451103031e-04,-3.227484285347220110e-04,-9.960075373163861882e-04,2.866886854171752930e-01
2.587230716090470617e-01,-2.730600846515474078e-02,-2.212800564378690493e-02,6.242591102268675758e-03,5.631049093835027806e-04,-1.835133604073621930e-03,2.837011516094207764e-01
2.585375951263712002e-01,-2.089626531956853550e-02,-3.108127571664671962e-02,-8.074509281343819882e-04,-2.296926584849766188e-03,-2.912108973839395033e-03,2.847389578819274902e-01
3.024375846448252858e-01,-2.285751217165785110e-02,-3.285685252354239583e-02,1.442376543901899982e-02,2.109960578734160555e-03,-1.556346462247239085e-03,3.313825428485870361e-01
2.748944072071193290e-01,8.510183017838818254e-03,-3.721666529723574590e-02,6.639956335945756960e-02,7.876764034621473731e-03,-8.477999710789895643e-03,3.144215047359466553e-01
4.574347630776512408e-01,-4.565994420914765151e-02,-1.698627090199397727e-02,6.512157365734788997e-03,6.298799105026441428e-03,2.052684020252567090e-02,4.909289181232452393e-01
2.564735962310543682e-01,-1.738968799869412829e-02,-3.472536715172731825e-02,1.315549181767553379e-04,-4.138132690944464932e-03,-2.801119524845819067e-03,2.830621600151062012e-01
2.701288456235769742e-01,-2.301393140957096184e-02,-2.425377577883015834e-02,-1.536835235492286546e-04,-2.099000559866254223e-03,-1.545707076173140392e-03,2.937994897365570068e-01
2.643746320902076730e-01,-3.008886040959003749e-02,-2.376649748146360264e-02,1.980286786930781327e-04,4.937313609086281443e-04,-2.061063723092800178e-03,2.913770973682403564e-01
2.681150383193235398e-01,-1.851003410092574852e-02,-7.867586933725675968e-03,-3.893592039395440550e-04,-6.300837618447879167e-04,2.527130804698362893e-03,2.814917564392089844e-01
2.754254033948838609e-01,-5.698670887387458084e-03,-3.043631214434600052e-02,-4.269601097637566907e-03,5.333767751789985842e-04,4.379741903028686045e-03,2.944658398628234863e-01
2.558309195651984336e-01,-1.471018646876874614e-02,-3.717148895267008424e-02,4.780988905813362590e-04,7.745699755186226582e-05,6.485503153419243929e-06,2.824436426162719727e-01
2.817831646309164606e-01,-5.499879577853972190e-03,-3.115774653588829213e-02,-1.407037831198716714e-03,1.056535337312243181e-03,4.053078167561147138e-03,3.010307550430297852e-01
2.653935117508463559e-01,-3.539944924889952549e-02,-1.957385790774922307e-02,2.157379557410493264e-03,2.367620669513881802e-04,5.829976224566160107e-04,2.932265102863311768e-01
2.633217236779572534e-01,-2.036297023309865950e-02,-3.453634716707730534e-02,3.183046551456413442e-04,-4.320664308765626883e-03,-4.785876908487799743e-04,2.911282479763031006e-01
2.759248932312509117e-01,-1.661260947552738176e-02,-2.692917248516435436e-02,3.492901040982075017e-03,-1.391729961734487807e-03,2.549166122065991058e-04,2.979013323783874512e-01
2.315370343135450815e-01,-2.529353853324925461e-02,-1.742802127545550750e-02,-1.627129403994676329e-02,5.793824623686794420e-03,4.606356080716684891e-03,2.548770904541015625e-01
3.512620262845136399e-01,-1.368832581407586346e-02,-2.705665669773363313e-02,-4.893116245483095095e-03,-1.510831125464330224e-02,-3.268507381402568912e-02,3.771044909954071045e-01
2.531056531770848883e-01,-3.039660611183883643e-02,-1.951834061440224644e-02,-3.740366462026085102e-03,-4.721759604807804385e-03,-5.031312776733330022e-03,2.785545885562896729e-01
2.693615632419629202e-01,-1.990543316962155307e-02,-2.446246638678134522e-02,-6.683786304442699124e-05,-6.293049076062285805e-04,-1.615642474046666104e-03,2.915877103805541992e-01
2.637312160860714738e-01,-2.209611866661384538e-02,-3.397369853969263442e-02,-3.068545159820488762e-04,-7.114386589917006732e-05,2.216450036274660810e-03,2.919731438159942627e-01
2.677107202625860216e-01,-2.605898209673354615e-02,-2.227996868410171694e-02,-7.620302732134268814e-03,-2.279317627503306583e-03,3.096213370552756126e-04,2.922239601612091064e-01
2.389416183867706100e-01,-2.500641900232764003e-02,-1.798689352175024403e-02,-1.647445477220448094e-04,5.967575056474873525e-03,6.400385013257544990e-03,2.609499096870422363e-01
2.664606374800058131e-01,-2.733814764903387540e-02,-2.313879174061954369e-02,-2.459786684532280950e-04,-1.950397365677533374e-03,-1.013122727780059939e-03,2.917469143867492676e-01
2.632776358120583193e-01,-1.747332875972228139e-02,-2.266945384097514282e-02,-3.728299115044155431e-04,-4.980205196339244911e-04,-1.363132825562769540e-04,2.833869159221649170e-01
2.583609194390373287e-01,-1.757066577800121820e-02,-3.706817266620654472e-02,-5.099071333265074767e-04,-1.353359929385671880e-03,-2.216468005845565056e-04,2.861901223659515381e-01
2.625266475552360257e-01,-2.436555688023026023e-02,-2.193802779674218495e-02,-1.079529106441885419e-02,-1.141931067709292535e-02,-2.060150733557789774e-03,2.870019972324371338e-01
2.683227022752772140e-01,-2.806907548961259935e-02,-2.513834954703818292e-02,-7.402329757761016938e-04,-1.259169903003084937e-03,-2.717601715703181226e-03,2.949857413768768311e-01
2.598638702645753584e-01,-2.939235315142614546e-02,-2.139145389839974820e-02,-1.487526968261531583e-03,-1.713286240511715207e-03,-2.030643254173306207e-04,2.853671908378601074e-01
2.683390924351722329e-01,-1.759131746882641734e-02,-2.459335179351973544e-02,-1.400728655881937259e-03,-1.456351835655170972e-03,5.509762420197812822e-04,2.895176708698272705e-01
2.725513000372334904e-01,-2.764242908419069222e-02,-2.571382875438596449e-02,2.622157628465331819e-03,-6.462416730511366149e-04,1.860691434213977095e-03,2.992880046367645264e-01
2.645772323288420047e-01,-2.816448341268598665e-02,-2.497276785544975952e-02,5.502603093902788114e-04,-7.416221167515444084e-05,-3.211604524638765439e-03,2.912136912345886230e-01
2.690595266425878096e-01,-2.532682624242130198e-02,-2.231887021962632167e-02,1.026573857261659905e-03,6.837746729738213665e-04,-2.165159532551177686e-04,2.929019927978515625e-01
2.646897781308436004e-01,-3.543745766038790268e-02,-1.826932562089397805e-02,2.105997147353740832e-03,5.962812450039149887e-04,6.943806120621239409e-04,2.919491231441497803e-01
2.651258921508579114e-01,-3.465874594571517753e-02,-1.830613770111454153e-02,1.453145628877670729e-03,1.069825844636398959e-03,-5.078209194602667943e-04,2.919700741767883301e-01
2.190346698602668174e-01,-1.964680187820792845e-02,-2.418947168217311372e-02,-3.851916284522744621e-02,-4.674639175651107773e-03,-8.108542854203732754e-04,2.501848042011260986e-01
2.622704434688095665e-01,-1.983824158988621578e-02,-2.712817083562339693e-02,1.662858566417080687e-03,-3.324586913870246005e-03,-5.170091075560886247e-04,2.858972847461700439e-01
2.509442700686522199e-01,-1.561430985080879130e-02,-3.363363246974604426e-02,-2.004895426959873897e-04,-2.558395687122474354e-04,3.196216151077461726e-03,2.760658264160156250e-01
2.145013908760171617e-01,-1.097890948147592360e-02,-2.583609557556834635e-02,-4.302969066255071329e-04,2.361079194789685986e-04,3.677057874021230893e-03,2.333524972200393677e-01
2.545126150926045328e-01,-1.596554656483806234e-02,-3.467324970536507511e-02,2.559916141667843334e-04,-1.555862092543553420e-03,6.985278061463893367e-04,2.803165316581726074e-01
2.698593214871756185e-01,-2.508102295590707020e-02,-2.558880959654059872e-02,5.337958786430965340e-04,-4.175682198172996681e-04,-6.436254643137430441e-04,2.951990067958831787e-01
2.696233963451010185e-01,-2.653595439333784889e-02,-2.550175164481932599e-02,-9.497461430150390578e-04,-3.284665401649845958e-04,-2.933370852818306023e-04,2.956491708755493164e-01
2.722572874935653142e-01,-2.947121334756315492e-02,-2.812671953873872865e-02,4.536173525484992549e-05,8.632672397615693768e-05,6.879607634260778270e-04,3.010609149932861328e-01
2.634388151405935297e-01,-2.552037318180237768e-02,-2.764307503140911448e-02,-1.513229102145842832e-03,-1.549066592675851415e-04,-2.774786975090747735e-03,2.900781631469726562e-01
2.714742350995809073e-01,-2.667446333650423662e-02,-2.594855099799589504e-02,1.329259622127141422e-03,-5.936413079176635927e-04,9.386749725365742952e-04,2.978015244007110596e-01
2.694053459729001676e-01,-2.971304059635701544e-02,-2.554900019584047111e-02,-5.835842385945856593e-04,9.050095713548896373e-04,8.943551198858993830e-04,2.970681488513946533e-01
2.714747551224093169e-01,-2.987001769892667913e-02,-2.489916996142559069e-02,6.031085553492244382e-05,-7.268735379799750804e-04,6.815024370834000264e-04,2.988953590393066406e-01
2.688063144796705717e-01,-2.605845573785188496e-02,-2.774293138351832666e-02,6.014695084723680352e-04,-1.546457708638798029e-04,-2.405899572345961395e-03,2.957419157028198242e-01
2.669372695764544168e-01,-2.729747356668409120e-02,-2.848477971983431889e-02,6.805815634957157814e-04,5.688356507427311422e-04,-2.908235520393404917e-03,2.948772311210632324e-01
2.900176104790457288e-01,8.986699873146417050e-03,-4.046414765350850318e-02,-7.166500743915314459e-04,6.742092935691737943e-04,-5.174850049367183021e-03,3.088757395744323730e-01
3.085461315882943589e-01,1.375113150419136898e-02,-3.190478731522378153e-02,-1.062172581853322584e-02,4.004126638619947068e-03,2.447989711007765232e-02,3.234687745571136475e-01
2.790099518267938894e-01,1.256366023071664451e-02,-3.131528579490439057e-02,-9.928850140481142259e-04,-2.123454794590458848e-03,1.015313008271755829e-02,2.914380133152008057e-01
3.362740262639322131e-01,-3.402343825243347997e-03,-2.102488022838158721e-02,4.205608195828972051e-02,1.760466400919334651e-04,3.277962104574530522e-02,3.608410954475402832e-01
2.752100002941707535e-01,-5.071261687257119788e-03,-3.211874794403643540e-02,-9.354651513768708418e-03,1.884079432805670952e-03,4.277132927004546371e-03,2.952932715415954590e-01
2.664686466312203850e-01,-3.233495239242727137e-02,-2.168806580368132231e-02,6.009716745725522148e-03,6.277240222931794239e-04,3.326789624669135997e-03,2.938679158687591553e-01
2.675407480914613334e-01,-2.117899858816679748e-02,-2.554376190746913966e-02,2.218740127283580239e-03,-6.637738482917857410e-03,-3.227529935964272508e-05,2.911791205406188965e-01
2.667564102387825486e-01,-3.021763691147993924e-02,-2.359496306062684734e-02,2.484640556235028289e-03,-2.796017105162843528e-04,2.476477653924052860e-03,2.937819659709930420e-01
2.681422504730515133e-01,-3.117023980009145379e-02,-2.451733601527410211e-02,-1.084610097441238738e-04,5.176494149202856603e-05,1.527697230228118857e-03,2.960540056228637695e-01
2.489970137659448524e-01,-1.836416023996673141e-02,-3.295423044541867519e-02,6.595706163857286471e-04,1.400084721074733459e-04,-3.953289750196817449e-03,2.750344276428222656e-01
2.549962446173574815e-01,-2.663834100251379067e-02,-2.528912835331442732e-02,4.067682726317616709e-03,-2.175270679094911796e-03,4.455513232362249589e-03,2.811819016933441162e-01
2.708169012520936780e-01,-1.886837118764356225e-02,-1.721991413864305820e-02,3.197656167397730335e-04,1.619030129436684930e-03,3.602651819777027194e-03,2.889460921287536621e-01
2.659313149227486295e-01,-3.309125627981361617e-02,-1.751532039965943144e-02,5.571658134415558711e-03,2.122688148992328718e-05,3.950055305563460011e-03,2.917867302894592285e-01
2.637238123097163101e-01,-3.070995484422231470e-02,-2.279232447204680712e-02,1.904215882965302770e-03,2.302334319106996317e-04,3.496007277598280061e-03,2.906379401683807373e-01
2.689122139365718867e-01,-2.198706661098467907e-02,-2.738259870928663742e-02,2.482083714238476468e-03,-5.216835763791834862e-03,2.698520082999801193e-04,2.938050627708435059e-01
2.619443673243667670e-01,-3.377321567177046790e-02,-2.028864039938502173e-02,-5.007801020528388110e-03,-8.849320688641647541e-04,-8.561447539976111808e-04,2.893490493297576904e-01
2.729668379983729576e-01,-1.838659556753430291e-02,-1.664690091869552857e-02,1.724608358340993901e-03,2.217838332216237347e-03,-4.330741988096131756e-03,2.906250655651092529e-01
2.649932315114363890e-01,-2.588419728487079130e-02,-2.758342747188542721e-02,-1.151598767569015714e-03,-8.507063300398366159e-04,-3.127111322075169612e-03,2.917915582656860352e-01
2.801182839459451790e-01,-2.613999761634319685e-02,-8.224625420955755661e-03,1.204065973416904847e-03,1.772981550981340276e-03,-2.497806613995356712e-03,2.977597415447235107e-01
2.330802421607323371e-01,-2.452127919202970463e-02,-1.660669498081904227e-02,2.400260066263275338e-04,-5.449683043187883533e-05,-6.653228198793463208e-03,2.539987266063690186e-01
2.922189043567916533e-01,-4.266111810294037632e-02,1.902345773742224189e-02,2.447857708666717220e-03,-5.579660764023761967e-03,-4.274086712107464867e-03,3.089641630649566650e-01
2.726972387462145431e-01,-2.578573367974887343e-02,-7.768402489027020907e-03,-1.182332003827090902e-03,2.117943284456479808e-03,-2.150135114036132600e-03,2.899489104747772217e-01
2.691372539636800454e-01,-1.630635446164344082e-02,-1.734656319853775108e-02,2.359954841083933014e-03,2.187807419189628701e-03,2.738225588936580874e-03,2.860587537288665771e-01
2.483902228551663205e-01,-1.350869528014907173e-02,-3.322757879592493080e-02,2.923452221389680346e-04,1.389638046473928824e-04,-3.941393462809476139e-03,2.723805308341979980e-01
2.838196919777997707e-01,-3.364002225563314519e-02,1.224810408445220489e-02,4.215075935640706824e-03,-5.700025722289776657e-03,-1.257839832080051221e-02,2.982351183891296387e-01
2.745275880695509096e-01,-3.202524636449591289e-02,-1.184936153510410262e-03,-9.753252126197249036e-06,-3.554662538390637836e-05,-2.142227607250169440e-03,2.923787832260131836e-01
2.569800982375187726e-01,-3.500573139596167838e-02,-1.536476373125200690e-02,-3.532827279054353078e-03,1.581468070420396881e-03,1.823206297735387952e-03,2.827746868133544922e-01
1.513780704839114144e-01,-2.065421797384436875e-02,-2.688375989734402560e-02,-3.778069043008626393e-02,-3.119960819710965866e-02,2.383306087103165272e-02,1.990277171134948730e-01
2.576502063819128274e-01,-3.333275502069833751e-02,-1.828868960799487353e-02,-2.476383746173099407e-03,1.519546541260496366e-03,2.862461165559689828e-03,2.838481068611145020e-01
3.094325222710145873e-01,-6.109114185744654590e-03,-2.416799107514461253e-02,3.057456048928871434e-03,8.387598985268732502e-03,-2.735148976148843447e-02,3.287466764450073242e-01
2.994329137240744343e-01,3.078961472891952877e-03,-3.042219589455905093e-02,-6.489816158810907121e-02,4.899007432546989560e-02,-1.902632463766383217e-02,3.461178839206695557e-01
2.724550393667420911e-01,3.159315152753139344e-04,-3.437815044245992602e-02,-2.058524843293145154e-02,2.318264240559722751e-03,-1.416179384968897434e-02,2.942686378955841064e-01
2.771179242855359992e-01,-2.239870096436598346e-02,-2.949757013945754347e-02,-1.798309428789907419e-02,1.255968682351615634e-03,-2.208561442710425555e-03,3.047562539577484131e-01
2.574735795010774653e-01,-2.005711709142138366e-02,-3.104995545591815453e-02,1.403978236102899121e-03,-2.820305687436233753e-03,2.980916652484039142e-03,2.832868099212646484e-01
2.705583165037062088e-01,-3.293610858369852568e-02,-2.084664155383053608e-02,2.441094972681215076e-03,3.967883788272243335e-04,8.524072517381624465e-04,2.976683676242828369e-01
1.935110929617155640e-01,-1.287529347230223498e-02,-9.840493162832697482e-03,-1.142149408551665184e-02,-1.084132493294205114e-02,-4.603503891485779403e-03,2.068471461534500122e-01
2.217980361533321010e-01,7.978976000950044334e-03,-3.233489508920658895e-02,-5.742666802020524042e-02,7.820646968670651178e-03,-1.137718980051493495e-02,2.577381432056427002e-01
2.124035371806781425e-01,1.354689144404682549e-02,-2.658938380146125269e-02,-8.433920509670815580e-02,1.350865006432162146e-02,3.139930062119547765e-03,2.665569186210632324e-01
2.667804168051745028e-01,-2.620103618786485955e-02,-2.547469961236228930e-02,2.210229246332899144e-03,-1.921932538875626307e-03,2.778405612459053809e-03,2.927024960517883301e-01
2.618629494526472645e-01,-2.577859905357755832e-02,-2.820522473762818172e-02,2.425615165146615456e-03,3.317761107398430661e-04,3.635999075876264041e-03,2.889622747898101807e-01
2.648038615494503478e-01,-2.254859598971294121e-02,-3.051382658634126110e-02,7.271331115723849358e-04,-1.765870963355111942e-03,1.093874681994884499e-03,2.914416491985321045e-01
2.170581224636757289e-01,-6.156308483949823884e-02,1.037490880601805304e-02,1.050401803681244584e-02,-6.742532091775839398e-02,-6.908615337747295304e-03,2.772618234157562256e-01
2.485251458417674919e-01,-2.149249162775145050e-02,-2.836244537883372829e-02,-4.392554936889976613e-02,2.118541601452641338e-02,7.762753644595518296e-04,2.862662374973297119e-01
1.967021372965744030e-01,-1.458747880136443409e-02,-1.555188329354389998e-02,-3.948353903303719950e-03,1.381642460228620778e-02,2.528259733058699828e-03,2.132759392261505127e-01
2.698144441944115846e-01,-3.045397385953363401e-02,-2.290371407003669035e-02,2.282687880238475683e-03,9.645859475937636641e-04,9.436369514813617741e-04,2.966009378433227539e-01
2.897323987610011531e-01,-2.718149268722792888e-02,-2.124959216955787933e-02,1.529346131408238288e-02,-1.523327264291362074e-02,-9.978500193679707211e-03,3.166800141334533691e-01
1.521698250394877827e-01,1.273848671331773152e-02,-1.566383172774292454e-02,4.499111671276079943e-02,-4.197903557159951213e-03,8.227988773052512510e-04,1.741707921028137207e-01
2.547283854178052920e-01,-2.677726455375625814e-02,-1.978870187219999854e-02,-9.915192457682651950e-03,-2.977824355134571065e-03,-1.944783092342707324e-03,2.786751389503479004e-01
2.721651925426942231e-01,-1.932893937940227680e-02,-2.302037346150946628e-02,2.290461414229192218e-04,2.193443502873823527e-03,1.878285779057203397e-04,2.933823168277740479e-01
2.698180927337433532e-01,-2.617666177483794765e-02,-2.886032883867227505e-02,6.178338323100494725e-04,1.923004590607406048e-04,7.137356300543158585e-04,2.973503470420837402e-01
2.551299535144390118e-01,-2.544255560461941568e-02,-2.748364773383871196e-02,2.931550969793536923e-03,-3.312115538830061323e-03,3.896395111728993225e-03,2.817836105823516846e-01
2.694069674382306712e-01,-2.402453634691244233e-02,-2.459051796146953517e-02,-5.041324832628620370e-03,4.101844313810522162e-03,3.829387439551062717e-04,2.939313054084777832e-01
2.587065500472111035e-01,-1.918856513246022799e-02,-3.171886245937843851e-02,6.593819655574036792e-04,-4.632959391873704355e-03,2.461044710507554172e-03,2.845148146152496338e-01
2.721950082837112372e-01,-1.763223468372968061e-02,-2.522715675580040895e-02,2.291913031079130612e-03,6.298063196546943229e-04,-8.243158207076095633e-04,2.937306761741638184e-01
2.680382732812303104e-01,-2.340020992183218518e-02,-2.838459262239333147e-02,-5.026481506794164972e-04,3.509667814887023479e-03,1.245665683741856286e-03,2.940344214439392090e-01
1.649223845725906745e-01,-7.190755836184462013e-03,-1.586641366358498839e-03,-5.034539202537274827e-02,5.491669247189035624e-02,-1.860330472333821331e-02,2.153591215610504150e-01
2.578911760368859940e-01,-3.050777898422615819e-02,-2.183771691589350694e-02,3.303193875664081885e-03,-3.417963178847148453e-03,3.531480128668656494e-03,2.843481898307800293e-01
2.742223761311525232e-01,-6.732405256835410912e-03,-2.532557299018618757e-02,1.491099326010231901e-02,-2.020182468598627837e-02,-1.832278595647383532e-02,2.956410944461822510e-01
2.679077017094279589e-01,-2.837876882976383963e-02,-2.840176555714593598e-02,5.744219183006891603e-05,-6.581843302945764105e-05,4.059123477309353918e-03,2.963814139366149902e-01
2.718977936968767217e-01,-2.821466863756752486e-02,-2.655688429131478068e-02,-7.513197582331546153e-04,-1.804497359894937758e-04,3.308566842316057596e-04,2.992905676364898682e-01
2.530330115954848025e-01,-2.528731375326589981e-02,-2.594744882919866602e-02,2.787068911992534193e-03,-5.501954937962141856e-03,4.422483337249315770e-03,2.789608538150787354e-01
2.520262038533330196e-01,-1.963148124861546773e-02,-3.086284608411547781e-02,1.657274964135648085e-03,1.246950829179284891e-04,4.026092060228190703e-03,2.775464653968811035e-01
2.714313503029693875e-01,-2.490932221653516243e-02,-2.630971023779368756e-02,2.214889542342128939e-03,-8.622694958806524385e-04,5.290815569501278745e-04,2.970732748508453369e-01
2.475055109071713499e-01,-3.316549024387532851e-02,-1.311811130378826018e-02,6.780108284085721766e-05,-6.574927885899281392e-04,-3.466427888245006417e-03,2.712724506855010986e-01
2.440268976126670208e-01,-3.427075502389538564e-02,-1.122366140363645348e-02,-7.431370986409280505e-04,-1.016517989057616391e-03,-9.992094744547509396e-05,2.675286531448364258e-01
3.132703166059739863e-01,-8.244273402132823447e-03,-3.123475729051441996e-02,-7.673427640303912001e-02,-4.492262257637559542e-02,3.700573873385174656e-02,3.729863464832305908e-01
2.249922506470615202e-01,-1.233169136352703366e-02,-2.731304401796687265e-02,-1.483029671872307539e-04,-5.631109032532118303e-04,-2.780803970921613601e-03,2.452075481414794922e-01
2.657955502005364123e-01,-2.483063854702978468e-02,-3.061931145601771986e-02,9.992413410388771480e-04,1.317659205796762806e-05,1.523206443702397129e-03,2.935802936553955078e-01
2.679941185741224752e-01,-2.651138701334911085e-02,-2.915274930042198454e-02,-7.578337158970492897e-04,3.365069896944592322e-04,9.293202466775337322e-04,2.958428859710693359e-01
2.711492277893836622e-01,-2.616907732295242761e-02,-2.935540132260261448e-02,1.341759866837359799e-03,2.192788720581005332e-04,9.107528883922622314e-04,2.989376485347747803e-01
2.244930390885196969e-01,-9.499302261454803387e-03,-2.632006293017787046e-02,6.053972708204712777e-05,-6.461993967055866452e-04,-4.947087543415773503e-03,2.429937571287155151e-01
2.586503436900354780e-01,-3.581408605797170575e-02,-1.681599479445668177e-02,-1.493553592283904325e-03,1.231482765211721134e-03,8.345737074858002166e-04,2.854633033275604248e-01
2.678416038763406504e-01,-1.232882674871718653e-02,-1.613407318678936053e-02,-1.829028428353861237e-04,-1.058119255565122610e-03,2.191680208646513365e-03,2.821239829063415527e-01
2.674157221742945456e-01,-2.474218569220981712e-02,-8.460091473531591855e-03,4.136274853232349037e-04,4.037204768695437131e-03,-9.194292621933816689e-03,2.848989665508270264e-01
2.720438245478211114e-01,-3.145967718763933996e-02,-7.893000631190735805e-03,-2.343023824526731247e-03,-6.849869719478699024e-04,-3.016841068187711260e-03,2.925104796886444092e-01
2.691749204499813697e-01,-1.833915462216213765e-02,-1.188649943198212544e-02,1.931008415031625503e-03,2.789389849565691859e-03,1.185123804270436006e-03,2.844107747077941895e-01
2.400689309959543327e-01,-1.815025598544992014e-02,-2.567148574402751404e-02,4.475954084955697946e-04,1.254585954220664734e-04,-6.807178470923775336e-03,2.623271048069000244e-01
2.694509872364705405e-01,-1.307916312023624239e-02,-4.420941638731912260e-03,1.999632448602614142e-03,1.792027816450332978e-03,5.320936223334045770e-03,2.784934639930725098e-01
2.689521786760359356e-01,-1.821735538438848390e-02,-1.440616428698905660e-02,1.772635354685591822e-04,3.306175285826687469e-04,-2.684746184712771670e-04,2.852841615676879883e-01
1.372621078737697176e-01,-4.802631499975701379e-03,-4.797388336911015405e-02,-5.578939999723124543e-02,-2.531341746139131529e-02,1.481336507266129213e-02,2.002429664134979248e-01
2.683480010241262592e-01,-1.279981561740163587e-02,-1.223632246142451752e-02,-2.625230479268617865e-05,1.024790021035336618e-04,3.390801481018703529e-04,2.808671593666076660e-01
2.722472327576939133e-01,-7.044066899782153168e-03,-1.566327175734132104e-02,1.684169895087835782e-03,1.870816906351370176e-05,6.149557694869352102e-03,2.839139997959136963e-01
2.678993020947741943e-01,-1.107359690262628427e-02,-1.471290922539472690e-02,6.129366144715630562e-04,3.451915492124279865e-04,4.424131073888723682e-03,2.809174060821533203e-01
2.655616546237536957e-01,-1.828329706825775058e-02,-3.549407496475183443e-02,5.776094590536015334e-04,2.117735379789375226e-03,8.509044680874820613e-04,2.928583025932312012e-01
2.278342894522382145e-01,-1.374407401190619327e-02,-2.291200985771388310e-02,-4.509796490329185184e-03,9.173287720714239611e-04,4.893123926152370164e-03,2.465649992227554321e-01
2.696018795310403116e-01,-1.464727818754699151e-02,-1.868341804992321165e-02,7.319894652832859136e-04,5.753990957457271675e-05,2.111022696877371343e-04,2.862916290760040283e-01
2.661144850405321449e-01,-1.963259354734368800e-02,-3.544492303922448795e-02,1.003021183829914416e-04,2.225943092265577749e-03,5.059166124069269539e-04,2.939989864826202393e-01
2.441518773362118255e-01,-3.266642001995111178e-02,-1.537650976985707740e-02,-6.487433301195150333e-03,2.677319181091440941e-03,1.995336835787721048e-03,2.688881754875183105e-01
2.682416103874891156e-01,-1.098314332402532123e-02,-1.202163545010712098e-02,3.381716030226615479e-04,5.981439759872058575e-04,2.585239461393656381e-03,2.797838151454925537e-01
7.683795477951325947e-02,-4.809886579624297887e-02,3.833433074057779680e-03,8.827609690885855620e-03,-3.823471823742902870e-02,-2.913751164052126238e-02,1.377837508916854858e-01
2.002308351770455686e-01,-3.871455532993060833e-02,5.778408248531964608e-03,-3.544050922552478139e-02,-5.184895686523800784e-02,3.354739793414338728e-02,2.522943615913391113e-01
1.926837070528963081e-01,-2.022836580283010610e-02,-7.119041463466299624e-03,-1.393779400415896472e-02,-8.880688646674170239e-03,-4.684106040925306060e-03,2.088000923395156860e-01
2.690191481434579535e-01,-2.737066487891311184e-02,-2.774623872903772548e-02,-1.007591849255587684e-03,1.093701939757380295e-03,1.988658120411040432e-03,2.966089546680450439e-01
2.689862011303546518e-01,-2.774903002732703738e-02,-2.709858426303179968e-02,-9.584889173821669380e-04,1.343184152972200099e-03,2.714159482435036640e-03,2.964616119861602783e-01
2.685644871316474336e-01,-2.574896421239160349e-02,-2.637848443661151843e-02,-5.968829819335035513e-04,1.077111518573614342e-03,1.337307035100968825e-03,2.946455478668212891e-01
2.715161737938673880e-01,-2.578110758596553753e-02,-2.903576066008423107e-02,-4.733606301320262373e-04,-9.767300605965905248e-05,7.712524361101753649e-04,2.989420592784881592e-01
2.711951214373592989e-01,-2.612084873986768307e-02,-2.878783896512492058e-02,-9.026860276201386897e-05,1.983333535552633808e-04,2.714123688683299333e-04,2.986589968204498291e-01
2.723244176201058409e-01,-2.710337446087900115e-02,-2.879326128843762156e-02,4.044063142662579538e-09,4.732503467252261505e-04,3.777792175438342677e-05,3.002774417400360107e-01
2.703308654976620540e-01,-2.813587164359221404e-02,-2.784775456952640060e-02,1.917797974804521122e-04,6.685304338888306509e-04,1.004380222962509596e-03,2.983302772045135498e-01
2.715275367939327111e-01,-2.703956411147084848e-02,-2.908859374260082398e-02,-3.779721665821307586e-05,-1.794020911819779577e-04,1.435726341437204183e-09,2.995970249176025391e-01
2.483003777724628880e-01,-2.056824075961945220e-02,-2.654472024989287804e-02,-5.502922778888023241e-04,-5.190086615439145398e-04,7.010500741774735624e-03,2.721802592277526855e-01
1.579740249548588493e-01,-3.780599392124044111e-03,-5.663667899472861478e-03,2.194922701419927541e-02,4.246339841600887954e-03,6.633887524096889789e-03,1.676428467035293579e-01
2.748842406188451992e-01,-1.599546332554717398e-02,-2.538613786774303327e-02,7.910435126956907176e-03,6.230117415842273236e-04,-1.532316123269594332e-03,2.960180342197418213e-01
2.803150901032813169e-01,-3.245571908686553653e-02,3.931817734059761538e-03,1.627786534420417848e-03,6.798671854486921704e-05,-4.933123418363165487e-03,2.963944077491760254e-01
2.648705130160902699e-01,-3.399488096673672355e-02,-2.113557037121588378e-02,-5.562487346481614957e-04,1.608528399251341412e-05,1.898378553370796713e-03,2.926677763462066650e-01
2.808476806221339439e-01,-3.871889381456602997e-02,6.202128777569246298e-03,2.354507791605807854e-03,4.661686228541937066e-03,1.198104801394423010e-03,2.997858822345733643e-01
2.885903524835889966e-01,-4.186897419949592303e-02,1.331340313740980719e-02,3.658369396729594346e-03,-1.910107084954138206e-03,-1.280379898355978475e-03,3.067066073417663574e-01
2.392987914270688632e-01,-2.369013947712238222e-02,-1.624517439988809597e-02,9.052742082259158593e-03,-1.203916934799498494e-04,6.354503804516753625e-03,2.600532770156860352e-01
2.693171459644727594e-01,-2.472216236104513021e-02,-2.419418058079428335e-02,6.991055325576858801e-04,-4.635397060281600977e-04,-2.402648295969394730e-04,2.937795519828796387e-01
2.335750036029733967e-01,-2.348126053353306875e-02,-1.437039516860175170e-02,9.890611283553688016e-03,-2.984323052501811156e-03,7.206117440905680620e-03,2.535643875598907471e-01
1.424919449856473785e-01,-3.738365427838417909e-03,-8.630356470593576745e-03,-1.550521228376146570e-03,-2.890949088790690374e-02,6.173523351013202216e-04,1.569656729698181152e-01
2.216837671815637678e-01,-2.099241010826133347e-02,-1.232857295452566282e-02,1.126305036181493645e-04,-4.286621334858216087e-05,3.597590952347366668e-03,2.385438233613967896e-01
2.496586506726871657e-01,-3.188570920625756477e-02,-1.636420014472704521e-02,-3.868832889472771587e-04,8.573111268126713987e-04,4.256948615848367944e-03,2.742173671722412109e-01
2.728695489306702804e-01,-3.485374159580158226e-02,-2.351296913434593183e-02,1.218286783382892084e-02,3.947205450378490216e-03,2.305383802592322721e-03,3.030517697334289551e-01
3.012140129504391473e-01,-3.572917035057993074e-03,-3.683221731124708409e-02,5.155250182076217928e-03,6.469942148496671784e-03,-6.293376423088943052e-03,3.232064247131347656e-01
1.847824515621658836e-01,-1.540182992019348274e-02,-5.893965156770361591e-03,-3.661746736892511345e-02,7.955983137834708729e-03,2.142028911011031617e-03,2.061237394809722900e-01
2.289271846564652768e-01,-3.169830207817261880e-02,-1.036559018829581735e-02,-8.321886655762314802e-03,1.004050539656802980e-04,1.026591112002861721e-03,2.510614097118377686e-01
3.036353020158070737e-01,-3.031861872872229635e-03,-3.852821275953968727e-02,1.640840796079723590e-03,-3.418145655523071626e-03,-5.684199558414877729e-03,3.260833621025085449e-01
2.680217931832847289e-01,-1.834911835775425437e-02,-2.392598064545337078e-02,1.117940901041598097e-03,1.589528800694801252e-03,7.733902952286934819e-04,2.892223596572875977e-01
2.582449844551704121e-01,-1.998745180649252884e-02,-3.109840799390614641e-02,-5.693801249217432785e-04,-6.032407389976515537e-03,-5.143589650252447867e-03,2.842845022678375244e-01
2.864441728777923357e-01,1.494594743946621451e-02,-4.339578643302738348e-02,3.392568852152232778e-02,5.713420397454427313e-03,1.286706989568683381e-03,3.106613457202911377e-01
2.229083872993759541e-01,-2.520939493899812534e-02,-9.279763378405761487e-03,-6.136782587393210808e-04,-1.921292486955846097e-04,-5.191631373718142740e-03,2.407194674015045166e-01
2.635761692919535992e-01,-3.484545319275289543e-02,-1.989823510735959367e-02,-3.701283605179790485e-03,7.737621548173857951e-04,-8.434638714179956221e-04,2.913131415843963623e-01
2.777467154443199471e-01,-2.566321179337886782e-02,-2.035772714998440591e-02,1.035973178584245844e-03,1.007947770349534172e-02,-4.581194284011508994e-03,3.014082908630371094e-01
1.937279518646068399e-01,-5.088043783636558848e-03,-1.517601697119570769e-02,-1.478829523312182297e-04,-7.300284910150866332e-04,-4.458220427899367566e-03,2.041972279548645020e-01
2.333188749042169052e-01,-2.532642052720539272e-02,-1.761906236499981293e-02,2.778418306763548755e-04,-1.008400103203464690e-04,-5.628457502491529194e-03,2.550659179687500000e-01
2.683727441311353212e-01,-2.043152362194609883e-02,-3.438736754859572642e-02,3.937855282472474427e-04,1.831233586215170409e-03,-3.330912447123020575e-04,2.960473597049713135e-01
2.234692849726876429e-01,-2.687470619078380363e-02,-1.191916212178198431e-02,-5.217842723230570797e-04,-3.320979803242888164e-04,-2.752713344396844758e-03,2.432604134082794189e-01
2.559124375351734537e-01,-3.585001428722610350e-02,-1.574518952288618545e-02,-2.767381264298223679e-03,1.248768611740199276e-04,-1.210445347392443034e-03,2.822961509227752686e-01
2.717650054731003406e-01,-1.916183346906702445e-02,-1.446847659613952064e-02,8.937000055993906192e-04,6.163533885276738320e-04,-1.079692638350625766e-03,2.886209785938262939e-01
2.586885909283059282e-01,-3.484719343707111394e-02,-1.808027367697777332e-02,-5.289666875257602449e-04,-1.754482968373576230e-04,5.820759283071978620e-04,2.855252027511596680e-01
2.842235098072605215e-01,2.859744772834488247e-03,-3.393539329643563418e-02,1.023503540197688057e-03,4.070405630391021531e-03,-4.688673411161874485e-03,3.016472458839416504e-01
3.081866735122176237e-01,-2.704706361180547747e-02,-1.223628376194522971e-02,4.949023558718200488e-03,-5.541331005619371973e-04,-1.550843385139469288e-02,3.292899727821350098e-01
2.705119107680198365e-01,-2.859084110248999444e-02,-2.330886233026949195e-02,2.766371729683273547e-03,6.940223627112465394e-04,-6.096545932145000166e-03,2.967261373996734619e-01
3.166740955031188687e-01,-1.760181773548311068e-02,-2.205252583555916690e-02,-4.287184974489781711e-03,-2.247406558736050018e-03,-1.745006271344694618e-02,3.379819095134735107e-01
2.811276187834738094e-01,-2.870699959138170443e-02,-4.045065870482283943e-03,4.240850732035584929e-03,-1.370238943870845383e-03,-4.333471264264566157e-03,2.984635829925537109e-01
2.764208312787795885e-01,-3.323998397006630579e-03,-2.555312618588283236e-02,1.143127235758061803e-03,1.224864120385613141e-03,-4.244095062241084494e-03,2.916028797626495361e-01
2.782748005144167758e-01,1.646092559863504556e-03,-2.214793817025058342e-02,-1.394065062238956281e-03,5.188084174838706805e-03,-1.794337443328550274e-02,2.910741865634918213e-01
2.605470042281283205e-01,-1.826622809953241944e-02,-2.894737201320975173e-02,3.553996304720571063e-04,-7.358685513669182502e-04,-7.981404853727377754e-06,2.843078374862670898e-01
2.977849567436963163e-01,-2.219472024816177003e-03,-3.130414671652800851e-02,7.884556692097744596e-03,4.399553214378733139e-03,1.252448650984593938e-02,3.166848123073577881e-01
1.511626635621531878e-01,9.769717322085508249e-05,1.623612804104515583e-03,-3.457227014371074209e-04,-7.367161938425140872e-04,1.459290796901319262e-03,1.503356695175170898e-01
2.885065243026960213e-01,2.743009223816067488e-04,-2.801260891507981188e-02,1.805657840629080677e-03,-2.186228255589930860e-03,1.089369875451650163e-02,3.039922714233398438e-01
1.661834138413008921e-01,-3.443372339487112133e-03,-7.901259771372737273e-03,-6.333669938065469157e-03,-1.601125674746315883e-02,-2.051313601703763992e-03,1.745031476020812988e-01
2.727049938479967905e-01,-2.909289550561207360e-02,-2.399708290776975117e-02,8.751268279491367097e-04,5.684160398897606303e-04,-8.732245862129972254e-04,2.992917895317077637e-01
3.069735618247046993e-01,1.096348085928401661e-02,-4.133128926248683110e-02,-2.532083191652674710e-03,-3.400422590554870797e-03,8.665053971734131347e-03,3.257539868354797363e-01
9.332352679290155384e-02,-2.324987854665647169e-02,-4.808778041587720431e-02,-1.299778794628870908e-02,1.647289441284373757e-03,-6.970033673653927390e-03,1.332757771015167236e-01
3.895235088181813743e-01,4.243417445911085162e-03,-4.698085883977065613e-02,2.238079148477099475e-02,-2.352907556220392923e-02,2.429463851450818640e-02,4.192071259021759033e-01
2.485985429407879532e-01,-3.240999652163314981e-02,-1.334759410364635968e-02,8.566047386753481699e-04,1.155315128520737963e-03,8.742676686068153900e-04,2.719944417476654053e-01
2.516041439104150790e-01,-2.267127988569916930e-02,-3.210963452476899016e-02,-1.212904180229127868e-02,2.835743711318493288e-02,2.204337057123022248e-03,2.842061817646026611e-01
1.925611021195484385e-01,-5.395973154117175707e-03,-1.601115005689511539e-02,-3.089324894705020421e-04,1.693985125031282485e-02,5.078220512730711664e-03,2.057657986879348755e-01
2.745235119584805705e-01,-2.967020468224504381e-02,-2.134751459565720211e-02,4.279947778561765497e-03,-1.196183312369995073e-03,-7.289488861489150850e-04,3.002202808856964111e-01
2.019786832762507089e-01,-1.273190511445952688e-02,-1.565692449010205878e-02,6.831119580709870895e-03,1.367203733733242908e-02,-1.131612543616616505e-03,2.178114652633666992e-01
2.149274035138660777e-01,-1.860954835451913980e-02,-1.663245223528930783e-02,1.496602924331332657e-02,1.196102736749246782e-03,-2.289270589251491284e-03,2.340377122163772583e-01
2.776835965332173917e-01,-2.826454368238055792e-02,-1.402422677961885633e-02,-1.074532222629581441e-03,-2.738145639924041263e-03,2.722439020688234221e-03,2.991628944873809814e-01
3.331101657688324003e-01,6.530460311504213133e-03,-4.510685153582763562e-02,5.465272811612965909e-02,3.206079674736182425e-03,2.801471497231360422e-02,3.708510398864746094e-01
2.610217842266936428e-01,-3.532201700573908698e-02,-1.804991108945365463e-02,-4.388899940221185691e-05,1.282917353609666676e-04,2.190528495785749874e-04,2.880966663360595703e-01
2.492305935867962785e-01,-3.183914059772385841e-02,-1.668376309769052657e-02,-3.771645786717157250e-04,3.906680815861971021e-04,4.269129408562990710e-03,2.739082276821136475e-01
2.666059291764978356e-01,-3.633351438004793488e-02,-1.882492221304882252e-02,5.750186169857848285e-03,1.030062293127744671e-04,1.598510833934456681e-03,2.947570383548736572e-01
2.673886676722400102e-01,-3.217732868790851297e-02,-2.078193067958664098e-02,-8.130084680690672760e-04,2.233500545708187106e-04,4.902290528332845665e-05,2.940375804901123047e-01
2.051478581738228613e-01,-1.847854706605629727e-02,-1.422692294168861893e-02,3.702845222872272143e-04,1.043169741456076048e-03,7.109343427278180458e-03,2.218814492225646973e-01
2.636792555606164434e-01,-3.195954816658112818e-02,-2.060873775042139366e-02,2.678089161555402553e-03,1.049674698262845554e-03,-2.058676563785550098e-03,2.901946604251861572e-01
2.552127832307294897e-01,-2.559523610931428717e-02,-2.558154274461472977e-02,2.324721909930892866e-02,1.850407288045634313e-02,-5.688430664589827143e-03,2.856481671333312988e-01
2.608836523568853205e-01,-3.524339713649242423e-02,-1.708932796895848427e-02,-2.208115712700587548e-05,2.909422745959065401e-04,7.997251111676571562e-04,2.874840199947357178e-01
2.690314705815083918e-01,-3.598625774198201122e-02,-2.651392777747742235e-02,3.443146887138399427e-03,1.541537024320802779e-02,-5.917931027981379773e-03,3.018109500408172607e-01
3.042695110444511020e-01,-6.090815435207785900e-02,1.650892787806430839e-02,2.253274677441001114e-02,1.497899773929513290e-02,6.742066578673037991e-03,3.367637097835540771e-01
1.875015226785270717e-01,-4.045382870718310098e-02,-1.208065335090272030e-02,-1.270833216695623630e-02,5.541418478502832534e-02,-2.171450305400226058e-02,2.396082729101181030e-01
2.496420106570549635e-01,-3.000110836101277378e-02,-1.812656859316658098e-02,-5.014434634429618121e-04,7.511064607466691988e-04,4.189316780622820077e-03,2.739995419979095459e-01
2.664632147725066735e-01,-2.246312828513845339e-02,-3.361674523132167358e-02,6.404136682614236780e-04,1.587303665511868302e-04,2.037581355116651043e-03,2.946848571300506592e-01
2.465814531887044331e-02,2.056030167585087137e-02,4.413680161487239934e-03,2.759845434562985256e-02,-1.480654437588868610e-02,3.353440705215709680e-03,5.762060359120368958e-02
1.368621191538476611e-01,3.154873164519907125e-03,-8.699125097710681820e-03,3.216707854674505720e-03,-2.901844214989858506e-02,-1.219265156759405183e-04,1.488637179136276245e-01
2.318848765277459478e-01,-2.817239767752507951e-02,-1.134842096910274045e-02,1.123123511352459858e-02,-7.736681148993059236e-04,6.864534631742282011e-04,2.528226077556610107e-01
2.558631053490847407e-01,-3.549719663799127956e-02,-1.578487552774861247e-02,-1.301894766855538109e-03,1.043448228830589773e-04,-3.854311733017845337e-04,2.820311486721038818e-01
2.657665733943355146e-01,-2.055710814086889049e-02,-3.476315532227255978e-02,-8.373662201043562960e-05,1.424096544708328051e-03,8.547906950262899048e-04,2.936986386775970459e-01
2.838040990884858061e-01,-8.641809926559954058e-03,-1.779312176956263092e-02,-6.770866301047758287e-03,-4.277993727628892802e-03,9.468437312825648752e-03,2.979026734828948975e-01
2.597511312675732098e-01,-3.088107834613358638e-02,-1.790957035227962180e-02,7.173012614781777013e-03,6.477069459788912902e-03,-4.624343515570792165e-03,2.849732935428619385e-01
2.672582755977609414e-01,-2.840481917862282268e-02,-2.679811302054835309e-02,-2.385295514512002750e-05,-2.337839275082039697e-05,-1.726550816405015946e-03,2.948781847953796387e-01
1.296264996603206654e-01,-1.921529113645445430e-03,-8.747333600738718684e-03,-1.907141450610796291e-02,-2.674860494905189571e-03,-2.499301317874846884e-03,1.392147839069366455e-01
2.670277562236031965e-01,-4.122252398511624949e-02,1.595224728522126600e-02,-4.006106817935918378e-03,-4.209082096949925966e-02,1.037297217918889923e-02,2.938518524169921875e-01
2.810453752720032949e-01,-4.347886051099814075e-02,-6.210585771026941315e-03,1.582332879212481822e-02,-1.386247887788640346e-02,3.250487420467445838e-03,3.097898960113525391e-01
2.162950376265944108e-01,-1.690574906516127685e-02,-1.599063060439293027e-02,-3.390816832020520895e-04,-3.230495268057232338e-04,-6.448367915386198253e-03,2.330138236284255981e-01
2.621550685042679518e-01,-3.519542076792843421e-02,-1.909246129280006699e-02,-2.036212130013038176e-04,1.061838648068922860e-04,1.072819098326337987e-03,2.896411716938018799e-01
1.399043247724229833e-01,1.064266717647430888e-02,-2.517149875735928688e-02,-4.997254937073033337e-02,-4.072246697370589252e-02,9.866223229674005862e-03,1.880940794944763184e-01
2.960861874798329518e-01,-6.694153762035115474e-02,2.015051053921190771e-02,-6.021168160740191476e-03,-6.223746471384784817e-02,1.286533218609318789e-02,3.463858366012573242e-01
3.244410259600634117e-01,-6.142805209209054040e-02,2.419595856916981202e-02,2.920831067990957430e-02,3.229127902371697195e-02,9.297161723024039912e-03,3.593516647815704346e-01
1.551878024332570272e-01,1.111378560487527589e-03,-2.224556200245475512e-03,-1.615052979412047842e-03,-2.453871572627953565e-03,-2.122235143967480826e-03,1.558976024389266968e-01
2.873319705108271505e-01,-4.420669244175329249e-02,1.399401344357685539e-02,2.029931602702818652e-03,8.959649483503153398e-04,-3.995565134432435203e-03,3.067117333412170410e-01
2.823519400360237630e-01,-3.301671640982073441e-02,-3.818435081308635404e-04,2.604367921719011672e-04,2.361092096381629205e-03,4.591784902235781216e-04,3.004129827022552490e-01
2.482442715376628195e-01,-2.833827856751015839e-02,-1.746937770767832687e-02,3.089672614936175843e-02,3.916136512111451952e-03,-7.979872545209569165e-03,2.769670784473419189e-01
2.751848883177545613e-01,-2.765129628948077845e-02,-2.305181752352639113e-02,2.232178791894366514e-03,-1.713591742258556688e-03,-5.481766909756371044e-04,3.006038665771484375e-01
2.801469671902200309e-01,-4.074515736907557972e-02,7.906263340852759391e-04,5.905468143294932866e-03,5.238287786538342594e-03,-2.471029037986437801e-03,3.026115298271179199e-01
2.326326658024716887e-01,-2.481054435548329939e-02,-1.482746972709138300e-02,-7.633911920638715171e-04,-7.035433966721543753e-04,5.095619799945607167e-03,2.527602016925811768e-01
2.672694893113067294e-01,-2.246023560607322833e-02,-2.462319581793062651e-02,1.582412936754463333e-03,1.903592230268577560e-05,4.507551108263163891e-04,2.908312082290649414e-01
2.735418067224663075e-01,-2.444376008667696609e-02,-2.351298174212844427e-02,-6.867722224271139569e-03,2.186283357616974031e-03,1.511510223502570652e-04,2.977831661701202393e-01
1.260315936546739513e-01,-3.652346840060501781e-02,-3.746912505746832073e-02,2.797649014807458007e-02,1.817433082952084333e-02,5.224620862221591132e-03,1.732039898633956909e-01
2.332116860524363622e-01,-1.009494301250357662e-03,-1.964522888002005752e-02,-4.073061280394150996e-02,6.203932609281803678e-02,-2.142076043612609754e-02,2.783376872539520264e-01
2.751188622262280559e-01,-1.147753449238858581e-02,-3.170037363561722943e-02,7.191125351435980612e-03,2.587251971418333407e-03,5.610403024749360031e-04,2.975204288959503174e-01
2.244323381385656957e-01,-1.951379130485958457e-02,-2.170682462056222617e-02,3.306327263932790778e-02,9.378812393212133253e-03,-2.329446055487640731e-03,2.522086799144744873e-01
2.494881098629157523e-01,-2.476912534062683524e-02,-2.215734487495263361e-02,-1.371992506049008950e-02,4.593573148854591080e-03,9.870599855425546128e-05,2.741087377071380615e-01
1.454280634739431588e-01,3.494664275478467919e-03,6.928209545940255953e-04,-6.990024732641512842e-04,-1.370901014351949641e-03,6.533660381585665354e-04,1.433840990066528320e-01
6.381155539004246258e-02,1.033939249421357912e-02,-2.292830196432633222e-02,1.342570570954510628e-02,-2.400041391095872334e-02,7.637865094942984656e-03,9.049158543348312378e-02
2.754915216999137551e-01,-2.692516011797711772e-02,-1.870666311865928910e-02,3.065085058471307168e-03,7.885957058360126923e-04,4.951046917647617198e-05,2.984426915645599365e-01
2.657521448291745303e-01,-3.450603900898155385e-02,-2.053743759734202867e-02,2.481479356470271680e-03,1.565545909273137254e-03,-5.683655036819101284e-04,2.935689091682434082e-01
2.301997846300680162e-01,-2.740936045377542762e-02,-1.245807018590174009e-02,8.975024821819242715e-03,-4.869378402227527054e-04,2.542369700299484687e-03,2.509903907775878906e-01
3.257372485979097565e-01,-6.003359353418427635e-02,1.650190994965482216e-02,1.948570610245023427e-02,3.241721469299305158e-02,1.327978326051532793e-02,3.605168759822845459e-01
2.450458717336213010e-01,-5.286156152034371392e-02,2.090092010126248789e-03,5.015158651906515691e-02,3.076704091468599606e-02,9.674918757783533205e-03,2.933670282363891602e-01
2.690260759785966793e-01,-3.476651548622100574e-02,-1.929049950998013019e-02,2.929045828178582916e-03,-1.154528573707536924e-03,-7.416053774666354209e-04,2.964107394218444824e-01
2.217814001138832258e-01,-7.693520269933779021e-03,-2.332357756097858115e-02,-5.214560286349448684e-05,-1.986300985233087205e-04,-2.735388211195956178e-03,2.377232015132904053e-01
2.690622964435454012e-01,-3.188094970919426452e-02,-2.244887344273789609e-02,1.466952936002592156e-03,1.040724283675710992e-03,-7.650122752621569535e-04,2.963591516017913818e-01
3.020210663624229297e-01,-3.742767425946924575e-02,-3.498922853045510761e-03,-2.781144276275306082e-02,6.593123239828857507e-02,-1.432154214314454097e-02,3.476148247718811035e-01
2.762268991161238585e-01,-2.925972915969315968e-02,-2.448851104347139762e-02,1.330459393946495416e-03,-1.251859443285111007e-03,-8.349409023183276390e-04,3.031491339206695557e-01
2.110858439151174215e-01,-1.014831671170171590e-02,-2.339114087085537863e-02,1.792818964489250461e-03,2.980668877368641140e-02,2.173064136398648828e-04,2.339332997798919678e-01
2.541522470956222857e-01,-3.673962286060251936e-02,-1.450723890809915706e-02,-8.435020123603107075e-05,7.339146149343704129e-05,-7.889063415929758278e-05,2.804374992847442627e-01
2.843997594647931226e-01,-3.729803965532696441e-02,1.490055790636055089e-02,-2.270384821926836128e-04,-5.031497548143315686e-03,1.367408179159959733e-03,2.991716861724853516e-01
2.442747343259802639e-01,-3.327913306762604606e-02,-1.409496848159355609e-02,-5.248598492028651698e-04,-2.734342440920218479e-04,9.581484624378244991e-04,2.684834301471710205e-01
1.295737725389299322e-01,-6.612968530750593099e-03,2.102381083300686182e-04,3.027716448902746747e-03,2.206381469951276472e-02,-1.355271294752348195e-04,1.383912861347198486e-01
2.654036552167884921e-01,-2.248409825955119401e-02,-2.311987304785902142e-02,1.523149365797988111e-02,3.786250495387597642e-02,5.216510004192318525e-04,2.967495918273925781e-01
2.620159722358025856e-01,-1.801711134072624121e-02,-3.622195477034148570e-02,4.371529615621968417e-04,-4.749330343372596807e-04,7.074590480135095269e-04,2.895697653293609619e-01
2.085417737957554474e-01,-1.634587502572414086e-02,-9.310223415392088198e-03,-1.182620955922597267e-03,-5.569279573455384854e-04,4.425496083345928366e-03,2.215978503227233887e-01
2.211410162654328659e-01,-2.567049425066439405e-02,-1.025756494630317150e-02,-1.232421930785246224e-03,-3.281791231126443228e-04,1.938742598097719814e-03,2.395110577344894409e-01
2.704627633719138280e-01,-2.008613584960937393e-02,-3.236939506739684724e-02,1.873738194108328595e-03,3.487441349056103444e-03,8.488158278777701866e-04,2.969639897346496582e-01
2.638662939768566806e-01,-2.627424355229467101e-02,-2.176994266502309261e-02,-2.384182002472372275e-02,3.830022222456948983e-02,-2.972299297816102370e-03,2.983747124671936035e-01
1.393810616575298367e-01,-1.597796670694632409e-02,-7.570243416416530535e-03,4.935028225065735130e-02,5.995937624890121387e-02,-4.768236939029854224e-03,2.026347517967224121e-01
2.849633996902239952e-01,-2.759288845405724611e-02,-1.433607172986517408e-02,2.683853390599619422e-03,2.207886315584007067e-02,-1.980310370537848117e-03,3.085765242576599121e-01
2.643555449409457081e-01,-2.514718644238285450e-02,-3.004308027361438094e-02,-1.056726307802523506e-03,-1.639670708472273225e-03,-1.871002831815665474e-03,2.920190095901489258e-01
2.749771651985136733e-01,-2.566672932294704335e-02,-2.344815345035562715e-02,1.090425433524899040e-03,-9.898725758081020846e-04,-1.840596587267478252e-04,2.995517849922180176e-01
2.695541057230266824e-01,-2.652543135192900192e-02,-2.770972188509225609e-02,-8.400045358009207647e-04,2.314723967071251939e-04,-5.959114730226889103e-04,2.966790795326232910e-01
2.230737085152366683e-01,-1.205256255966438705e-02,-2.271043004279088562e-02,6.329087672801647028e-04,9.401406457807826977e-04,4.839347914519033338e-03,2.407862246036529541e-01
2.348328864734262611e-01,-1.507120251626911656e-02,-2.605327472844284897e-02,-5.030218860988157218e-04,2.233446736269167204e-04,4.629452821038020603e-03,2.556996941566467285e-01
2.677734301473168044e-01,-2.560031716334405794e-02,-2.813769967077522915e-02,-2.745106818991704836e-04,5.320284017588636271e-04,-4.824439962836450354e-04,2.946536540985107422e-01
1.861061084852081993e-01,-1.514591412183922958e-02,-3.378705603558782022e-03,-1.440825518736891077e-03,-1.105307692914010926e-03,1.978330352023209560e-03,1.956893056631088257e-01
2.681815549060970194e-01,-2.628500731726123030e-02,-2.966552118419284179e-02,-1.069190852781987848e-03,-7.832478069923098809e-05,-1.806560044291369424e-03,2.961936295032501221e-01
2.659998878092036390e-01,-2.470901229022205714e-02,-2.898001575714495570e-02,-3.357020235765372559e-03,-2.047330698632208925e-03,-3.194323449366882461e-03,2.929991781711578369e-01
2.768637259888415691e-01,-1.126310952651171648e-04,-2.939616840724082469e-02,1.512168181141565221e-03,-2.501485842560518657e-03,2.311594845061547797e-03,2.927899360656738281e-01
2.098525006926780234e-01,-1.451624462723230535e-02,-2.420555716376378286e-02,-4.563051424459783553e-03,-1.339918608569659955e-02,-6.675914645206051587e-03,2.309631556272506714e-01
2.822888054436624161e-01,-2.770493328412546030e-02,-1.000900332919107960e-03,1.556173837815392688e-03,-4.059977600740598963e-03,-5.411581455184265657e-03,2.977846860885620117e-01
2.828309591951345681e-01,-2.764214141701112903e-02,-2.514411543538500049e-03,1.484008197779628380e-03,1.530053337332708263e-02,-7.983866391153298173e-03,3.002059459686279297e-01
1.381596463310532097e-01,-3.782228338549846469e-03,4.820014053045273972e-03,-4.719019789804657517e-04,3.640396229671075622e-04,-1.308969049623936575e-03,1.378647238016128540e-01
1.153661240168200042e-01,-1.713799302921210910e-03,-1.753637211939618190e-02,8.070749962417693435e-02,1.776842473916767640e-02,-1.406655265680155885e-02,1.920740008354187012e-01
2.518716248739699681e-01,-3.236307456184259190e-02,-1.721297360931657583e-02,1.850249763656772683e-04,4.705856498765461672e-04,-3.986177278855554677e-04,2.769728302955627441e-01
2.724481396665538457e-01,-2.853666606898624947e-02,-2.361846744642542850e-02,5.507369588061738000e-04,6.691940981289030239e-04,-9.538981312761958672e-04,2.985644340515136719e-01
2.245854232882632806e-01,-2.574678628140386616e-02,-6.741026531535562749e-03,-4.754461647724600275e-04,3.398078127432182876e-04,-3.016259030829279535e-03,2.414497882127761841e-01
2.752226076780052155e-01,-2.817357703062052521e-02,-1.120684926005488524e-02,-1.980883537732877880e-03,2.665092512863544150e-03,6.850458186191412356e-04,2.953370213508605957e-01
2.736157593901915597e-01,-2.682218148369852617e-02,-1.291675519526691573e-02,5.310169356213042136e-04,2.339076176315440375e-03,1.213446996392331242e-03,2.937690913677215576e-01
2.823309630025129247e-01,-3.225541178155083566e-02,-6.343530412359299486e-03,9.620108175904180589e-03,6.941843133098736518e-03,-1.293299658123568154e-04,3.031612634658813477e-01
2.922161195257843014e-01,-1.174002732033674334e-02,-3.652666588148067994e-02,-1.362597258095367067e-02,1.400874917625849481e-02,-5.771484137940141416e-03,3.190351724624633789e-01
2.834005413278263275e-01,-3.551843742736127130e-02,8.408152169581351032e-03,1.966225859929360623e-03,-1.524767830882862302e-03,-5.430874056216785165e-03,2.995611727237701416e-01
1.321779698608298581e-01,2.135915949899112876e-03,-1.529782338495155880e-03,1.294652048902976589e-03,9.140806955095493597e-03,-1.703260813787183968e-03,1.329114884138107300e-01
3.160502462371416188e-01,-4.792989765972846539e-02,-4.994781640072776252e-03,5.245291728865101102e-03,7.305922142698761078e-04,-1.739469234945624151e-02,3.459614217281341553e-01
2.708460002227668362e-01,-2.978216874760120092e-02,-2.267963040171432076e-02,-1.561534907667761971e-03,-6.100132385735718837e-04,8.941644835826184268e-06,2.971547544002532959e-01
2.815148494431239934e-01,-3.672639769136995525e-02,1.614740729022154375e-02,-1.944842507440887065e-03,-9.378763982144518955e-04,3.362860452916397163e-03,2.954562902450561523e-01
2.663905658607781946e-01,1.014709346624119435e-02,-3.505475614175646015e-02,-2.526643521394847727e-02,1.381283955158271043e-02,-1.204405776712487094e-02,2.867217063903808594e-01
2.158599713025907973e-01,-9.508098728244943065e-03,-2.971816936017139532e-02,6.097063987052113443e-02,3.917077414146898778e-02,2.080309586808678363e-02,2.698287069797515869e-01
2.606269567783131569e-01,-3.369970868725387370e-02,-2.019391628015955453e-02,3.275546191760709039e-04,1.027509143785199260e-03,1.808223659539524419e-03,2.878346443176269531e-01
2.663816112535067893e-01,-2.700838614344379385e-02,-2.348516089653865380e-02,-1.847177043681345193e-03,6.097459934864309615e-03,6.306253996142091285e-04,2.918550968170166016e-01
2.783271760018904417e-01,-3.762470328599940017e-02,6.954625121962973444e-03,3.690273729917657557e-03,6.979054260095257992e-03,-1.090209958502705344e-03,2.965105772018432617e-01
2.927857123061461397e-01,-3.258337804184266440e-02,-8.859354666398186473e-03,-2.537161320469142126e-03,8.371119948752468298e-04,-3.005513472110776275e-03,3.142567873001098633e-01
2.867724518388421462e-01,-4.177561390329331825e-02,1.531604496945906946e-02,1.312145782521956976e-03,-2.804400917035378919e-03,-2.006868186860172928e-03,3.041163980960845947e-01
2.516860520439816451e-01,-3.364327672190718654e-02,-1.547934436070610986e-02,-9.524193664581957416e-04,-7.776714622180735644e-04,3.408923423623127797e-03,2.767660617828369141e-01
2.810380119251904563e-01,-3.311135449255186991e-02,-1.220760487800044702e-02,1.735865575894758595e-02,-8.535455713999860056e-03,-5.310563749381847290e-03,3.062140345573425293e-01
2.606155341338112219e-01,-3.136512501051055835e-02,-2.246196719681416154e-02,-5.399748126244364142e-04,1.157272422114708084e-04,4.783358058637058458e-03,2.877533137798309326e-01
2.425446982794758344e-01,-2.179223103313022991e-02,1.219762293705600742e-04,5.010013789210003565e-02,-2.735494924592216104e-02,-2.513462611053336390e-02,2.761009037494659424e-01
2.364899601103017113e-01,-1.672529873747598261e-02,-2.286146763060795117e-02,-1.184996342060919041e-04,1.560207234937057092e-03,5.587852905172185393e-03,2.565353810787200928e-01
2.900023411562622222e-01,-4.001028181611926415e-02,-7.762825849660273669e-03,1.365640048897687978e-03,-6.168013058261836296e-03,-3.527723891375320964e-04,3.153192996978759766e-01
1.762415531192545737e-01,-1.348879079481515864e-03,-5.654552295717860111e-03,6.445744215059417753e-04,-6.655529684283708345e-04,2.044205793423711174e-03,1.798239648342132568e-01
2.225939390242158145e-01,-7.006415347117836423e-03,-2.404766979591616005e-02,1.741789334896867714e-03,1.169464291082865544e-03,2.730394549423502924e-03,2.386524081230163574e-01
2.798789179778425895e-01,-3.168824407296602641e-02,-5.078093774357139711e-03,3.144553521250827242e-03,-2.173310299046116167e-02,-3.414234030720443049e-03,3.016172647476196289e-01
2.492783771808037840e-01,-1.516785152807902104e-02,-2.986642792036327265e-02,2.967056122428325324e-03,1.248925497953877646e-02,9.072725388679322468e-04,2.730048894882202148e-01
2.797703525442505335e-01,-3.309508563604438014e-02,-8.963027831296155323e-03,2.575513750798185102e-03,7.380509221497383310e-03,8.988862308362368162e-05,3.018284142017364502e-01
1.344853438083836727e-01,-6.068987222197230746e-04,-5.319874039347495531e-02,-4.015999204110819176e-02,2.123439917555637602e-02,-9.555172958976176911e-03,1.859721541404724121e-01
3.287896688025130354e-01,4.740272894434974238e-03,-4.803889146130563281e-02,3.286833043443911084e-02,-1.951085759006457483e-03,-2.212882885012607340e-02,3.600252270698547363e-01
2.087426967103593323e-01,-1.552238541519056214e-02,-1.169973908304486332e-02,-1.027418215058286061e-03,-1.362425802537572416e-05,5.318969771785028895e-03,2.225762754678726196e-01
2.991485469256160989e-01,2.108684029426473316e-02,-3.852325386476765368e-02,-9.797603919048274157e-02,1.768984992845236762e-02,-2.788101098776364986e-03,3.566608726978302002e-01
4.298646274434385628e-01,-1.543925503513982056e-03,-4.961649624719921547e-02,-2.756248187361413915e-02,-6.758683389612188570e-03,-2.214811756045495517e-02,4.615744352340698242e-01
3.051780091488757729e-01,-2.748545285961584428e-02,-1.659157226767873916e-02,-6.304684881966902358e-04,1.260248329420140525e-03,-1.835394977585718193e-02,3.289015293121337891e-01
1.969441257708011428e-01,-1.144570401302812124e-02,-1.063187990288702589e-02,-3.561955146652910848e-04,-1.513589372592753009e-04,-3.737910080705687029e-03,2.080859392881393433e-01
2.614987346937156509e-01,-2.050147059778129055e-02,-3.241638374353042473e-02,-7.828532580875482072e-04,-7.700567941372666626e-04,-2.436941610632472298e-03,2.881796658039093018e-01
2.899390553809523263e-01,-3.347308774341964388e-02,-6.773359374171505909e-03,1.609310904612204843e-02,3.902922585066701325e-03,-1.075646631975297682e-02,3.127987086772918701e-01
2.653724101087443499e-01,-3.179975351126165806e-02,-2.058459837386779345e-02,-2.274090041792891075e-03,1.907027425784414178e-03,1.276699860745657972e-03,2.917799949645996094e-01
3.087364145492562106e-01,4.357922499659550031e-03,-4.605090357130034451e-02,5.054851122095367633e-03,9.724606289946391771e-03,-2.073484083744580458e-02,3.349340856075286865e-01
3.836615299687166081e-01,-2.891109148628301373e-02,-4.697662751875025799e-02,-2.073363280540181652e-02,5.139273733506652397e-02,-4.332554463996415167e-02,4.391360580921173096e-01
2.534635407837069199e-01,-2.794824849561737545e-02,-2.223982003368972504e-02,-2.800688268688968606e-03,4.116851972445949109e-04,5.084224758482368961e-03,2.787837088108062744e-01
3.018341158609737507e-01,-4.166276323851664243e-03,-2.503618817169400712e-02,2.431153812224234184e-02,-1.205784583178950639e-02,-3.013572919202014977e-02,3.246410489082336426e-01
2.520480692040589776e-01,-2.937440563042724440e-02,-2.287931583038511907e-02,1.277146219158326566e-02,-8.355348141894290009e-03,4.332155776298731754e-03,2.795854210853576660e-01
2.230606443212733991e-01,9.353864898104857772e-03,-1.871382070707768019e-02,-5.447044614144769259e-02,4.725925887063330000e-02,-2.508812975106563051e-02,2.644735872745513916e-01
2.783222658936584937e-01,-2.699146517209452534e-02,-2.617688842166955576e-02,-4.709161493635364475e-04,-4.009372617667857379e-04,-3.476055621392967168e-04,3.049097359180450439e-01
2.767290731178642660e-01,-2.570632478381529307e-02,-2.441919723156227295e-02,6.235320056978565671e-04,-1.462886544548445012e-03,-4.163687133485857359e-04,3.018073141574859619e-01
2.306891382033286197e-01,-1.847798720427340502e-02,-4.692737921791645395e-03,-4.223394926733331500e-02,6.848067142053802792e-02,-2.072712221792088333e-02,2.820429503917694092e-01
3.442684671396289975e-01,-2.925350256171405094e-02,-2.652161952654236154e-02,-2.787366233188266762e-03,8.224032127045279028e-02,-3.970825447124716467e-02,4.044127464294433594e-01
2.727816676824320608e-01,-3.061464391193423340e-02,-2.305448702409315653e-02,7.409876914041518391e-04,3.991676376592296401e-04,-1.504900881948754900e-03,2.997026443481445312e-01
2.768484933372214463e-01,-1.996519916369941805e-02,-2.785001889836724587e-02,8.276249988271871735e-03,-1.581554583609940745e-03,4.772432050341974576e-03,3.013008236885070801e-01
2.621210181962115304e-01,-2.989163622423071653e-02,-2.015627538608273650e-02,-1.062579019730198505e-03,-7.046873983381239442e-04,-4.577316640568773916e-03,2.873865962028503418e-01
2.637395894483297032e-01,-2.651163375093186503e-02,-2.208843016941244852e-02,2.229457292814102619e-03,-9.030504536306201233e-04,-2.810171099702979142e-03,2.881363332271575928e-01
2.841723903074702129e-01,-2.773590622689808827e-02,-1.566369188782706923e-02,-3.407103722061475583e-03,-7.584919138784887525e-04,-1.348025458606106133e-02,3.069996833801269531e-01
2.743105399318722659e-01,-2.722277452496676964e-02,-2.484506119713636441e-02,4.887407263777640218e-04,2.936782921751892239e-04,-1.916008598018691502e-03,3.003714680671691895e-01
2.685480465675070816e-01,-3.003456913172250498e-02,-2.391886087105316028e-02,-5.371727402634441165e-04,-9.543534925299228949e-04,-3.200392271247127444e-03,2.956302762031555176e-01
3.200074811525182583e-01,-2.518307793101709491e-02,-1.711688685351225869e-02,-9.773030899346838579e-03,1.129792422965088770e-02,-2.488980335875138478e-02,3.449133038520812988e-01
2.851152247758349523e-01,-3.773064111887353134e-02,1.384438958530159747e-02,-2.144307704907170639e-03,4.352734182501308367e-04,2.633531664972358147e-03,3.004560172557830811e-01
2.665124497755596567e-01,-2.379359784651929877e-02,-2.974624920771501424e-02,6.540971923335890193e-04,1.214151329037807970e-03,2.366621884600493726e-03,2.933660447597503662e-01
2.824945454518471566e-01,-3.150290512854370117e-02,1.236887914746760686e-02,-7.205256784681692505e-05,3.107600868702964023e-03,1.261845446895157145e-02,2.953813970088958740e-01
2.605488682212789842e-01,-1.955452168951475611e-02,-3.210692537393437795e-02,-2.529465268874368111e-05,2.348894537375976858e-03,3.556585561640270877e-03,2.866809070110321045e-01
2.567681342449924520e-01,-3.071757524789567317e-02,-2.018180294340791991e-02,-2.350754390682063127e-03,2.444238867143618248e-03,3.562925817012441414e-03,2.824937701225280762e-01
2.645464675953732026e-01,-2.934863150302317869e-02,-2.429724254477776124e-02,6.152004058781961699e-04,2.451921145263282007e-03,1.002294405680463543e-03,2.914403080940246582e-01
2.365306952003679852e-01,-1.661039788678767004e-02,-2.328837188411601866e-02,-9.519859352360726136e-05,1.670812961572394444e-03,5.764100892889650538e-03,2.567558288574218750e-01
2.566918174394708929e-01,-2.400879305862815838e-02,-2.913931870970760951e-02,4.526275292675489923e-04,-7.303531157801234090e-05,5.588133896848633889e-03,2.834671139717102051e-01
3.104013678102440776e-01,-3.550189565682468351e-02,4.320811655885728464e-03,-4.294064996612684953e-03,-6.327386167664696137e-02,3.444290326158860882e-02,3.508348762989044189e-01
2.657110283727676103e-01,-2.857212970615961856e-02,-2.797369827669220210e-02,1.813486938305628674e-04,1.787195808918150448e-04,4.245536451309338266e-03,2.940766811370849609e-01
2.719151417947926475e-01,-2.167530139080536822e-02,-2.309874625075848675e-02,1.004823708562146631e-03,1.897973486902617465e-03,2.265215747929826961e-04,2.943285107612609863e-01
4.399166049443836712e-01,-5.247728432014969746e-02,7.127964145125592621e-03,3.793392503793015236e-02,-1.633058701302370075e-02,1.888923059381321379e-02,4.720621705055236816e-01
2.646156609330173604e-01,-2.471252511674597308e-02,-2.298386640901514677e-02,-1.722362511942552091e-02,6.282295691057039090e-03,-7.445691848372686930e-04,2.902131378650665283e-01
3.178035253543222138e-01,-3.557419782619827830e-02,1.273206158457189374e-02,-1.690054746745197137e-02,-4.153549911139307882e-02,2.619262007248500390e-02,3.438453078269958496e-01
2.467815230620536149e-01,-1.300255407279711506e-02,-3.207117614163614017e-02,9.382591671747042995e-04,6.070034407416868014e-04,2.026001223326455349e-03,2.698539793491363525e-01
2.303435545532287743e-01,-1.622241123853772338e-02,-2.330410132883509178e-02,2.736498565363536120e-04,-3.774768849962724078e-04,-3.761854783421370984e-03,2.502681314945220947e-01
2.777731984967223289e-01,-2.316022891884869650e-02,-1.606365776165764869e-02,1.725234224406735350e-03,-1.503378326094877973e-03,8.902092585958254478e-03,2.978743910789489746e-01
2.668616065751394650e-01,-2.072040452529300136e-02,-3.373753749464558638e-02,-1.664218288030421585e-04,-6.264792978872334248e-04,-1.325995941854893508e-03,2.943176627159118652e-01
3.100189825880933503e-01,-2.621310275157609504e-02,-9.892322259425587183e-03,1.132658481768114740e-02,1.151140266751895722e-02,1.634757846957632377e-02,3.307793140411376953e-01
2.388326452452922688e-01,-9.996993025024228374e-03,-2.247985548983591486e-02,-2.281282625959649840e-02,4.670562592489253470e-03,-1.244761323358925184e-03,2.584753036499023438e-01
2.768077265341832849e-01,-4.209642801484697605e-04,-2.991301484726269222e-02,4.073096817657763553e-03,5.163984541407905422e-03,4.706949827038880616e-04,2.933121323585510254e-01
2.769700592606038070e-01,-1.009335888936715997e-03,-3.640498153976001738e-02,-9.630979641559282711e-03,3.173721567637121776e-03,-6.086351439855426648e-03,2.979668974876403809e-01
2.468824463801785885e-01,-1.620196838266137196e-02,-2.964257941126215157e-02,1.762092947606115688e-04,4.795747923322727491e-05,2.461850050746773773e-03,2.700895369052886963e-01
2.656120699528699003e-01,-1.910162657126605878e-02,-3.505791730049030719e-02,-1.250887785384598345e-04,1.445386130031679327e-03,6.651945129187132816e-04,2.930308878421783447e-01
2.679792137949252862e-01,-2.617579176666826046e-02,-7.676873896561450805e-03,3.957736554936115182e-03,1.488289998403118704e-03,-1.642587311383231089e-03,2.854637503623962402e-01
2.516862067497764310e-01,-1.350316753552530114e-02,-3.226963969375606922e-02,1.337987313207312417e-03,6.059855383903232830e-04,-2.046522441942967736e-03,2.750877737998962402e-01
2.733024293692743467e-01,-2.542075978565130900e-02,-2.950096715977569561e-02,-6.669867756275337173e-04,3.719538590081884061e-03,6.451684819139109580e-05,3.008552789688110352e-01
2.739142550747938332e-01,-1.728175009285640162e-03,-3.049999317044949088e-02,-1.015245036201215326e-02,-6.282769957763630455e-04,-4.450749392383481981e-03,2.917312681674957275e-01
2.609067819057525606e-01,-1.769790347945827957e-02,-3.074627909743751775e-02,-1.984032479888324019e-05,-1.246166149870118643e-03,-4.931255599370180064e-03,2.854886651039123535e-01
2.224012258996252711e-01,-1.213030708060457152e-02,-2.367753187572307905e-02,1.550182578915420368e-04,-2.279363763850586260e-04,-1.704004266661413096e-05,2.405136078596115112e-01
2.756152703190504205e-01,-8.143002883963551541e-03,-2.262942021881113319e-02,4.030655912627619485e-03,-5.535409331279722870e-04,-2.886778913228903089e-03,2.913999259471893311e-01
2.725071180749507049e-01,-2.304327045568237142e-02,-3.078022041778984141e-02,6.981516522213103166e-04,1.066936151082425966e-03,-1.416220126972151262e-03,2.995119988918304443e-01
2.745606042280441805e-01,-2.401341835381998191e-02,-1.843488543610750929e-02,-2.176395203367017042e-03,-2.683690231815053125e-03,7.150171161587060009e-04,2.958873212337493896e-01
2.722653598969937416e-01,-2.999896398934127906e-02,-2.332370855816084942e-02,-7.033880591187221740e-04,-7.129619775040833395e-04,-1.743687047878514362e-03,2.990028858184814453e-01
2.727234574457496619e-01,-1.059455537842568518e-02,-6.469095345031705691e-03,-2.055814120454260274e-03,-3.359619448243860319e-03,1.334614210930830727e-02,2.823086977005004883e-01
2.443638385902229815e-01,-3.127147189597577481e-02,-1.650578697560832475e-02,8.440679890981326455e-03,8.018953642425646205e-03,-1.990586041845293207e-03,2.693351805210113525e-01
2.759790160969985418e-01,-2.709273279481506924e-02,-2.477776867173639430e-02,4.285622194667832417e-04,-1.241587118618525318e-04,-6.138457856261359934e-04,3.019237816333770752e-01
2.787772268367936235e-01,-2.735555234289144266e-02,-6.332880583223426951e-04,4.101183667592963981e-03,3.385246366392204512e-03,4.306455662248550101e-03,2.939239144325256348e-01
2.688477911153931976e-01,-3.398761298855693114e-02,-3.106550706940963691e-03,2.315482921788408679e-04,-9.986575071571435550e-03,1.407819486095922626e-02,2.901809513568878174e-01
2.418780417922787584e-01,-5.257343116590293408e-02,1.385968681591334684e-02,-1.417978369913501600e-03,-5.963036922419641395e-02,2.461486648402860453e-02,2.899047136306762695e-01
2.702197362688233961e-01,-2.412673171559334695e-02,-3.089280182267174768e-02,-1.167634239631296653e-03,-8.883255616560223940e-04,-3.665619764023429327e-03,2.978656589984893799e-01
2.682790718574830091e-01,-2.781548805062558638e-02,-2.411183344102689474e-02,-1.115344448737301975e-03,-9.731770824499834556e-04,-4.325939607387260279e-03,2.943667471408843994e-01
2.765546124602009659e-01,-2.301538741890660211e-02,-2.334777099680925005e-02,-1.002262771709851044e-03,4.689455180474162883e-04,4.686293677446843968e-04,2.997435629367828369e-01
2.904589657890958021e-01,-4.167304697731871732e-02,1.186340306096395070e-02,3.816510202718175968e-03,-1.988593780193356406e-02,1.909285194805021568e-02,3.126024901866912842e-01
3.231397136584938656e-01,-5.358159230144493579e-02,2.188208426924899419e-02,8.744153500682232821e-03,-7.626905495330174242e-03,-3.048394076242298776e-03,3.458564877510070801e-01
2.721319988829864478e-01,-1.854520763173737874e-02,-1.163827091144424564e-02,-1.946240381824931604e-03,6.237950062418867953e-04,6.477223726760484093e-03,2.875267863273620605e-01
2.901874211366709533e-01,-3.346369469699636556e-02,6.938384015102938562e-03,-1.754152125623387268e-03,-1.653440948358768717e-02,2.035181793289896415e-02,3.088335692882537842e-01
2.745925246690966159e-01,-2.805169534403167964e-02,-2.614402910584361084e-02,-7.192440821804093557e-04,-9.376866823496668620e-04,-2.745763536818052707e-03,3.017393350601196289e-01
2.652455182209597639e-01,-2.607729416776173592e-02,-2.698037121658400372e-02,1.415758474644762384e-04,1.961219507104172124e-04,2.296224365367597643e-03,2.918027937412261963e-01
2.646541956704488996e-01,-1.917367225028887567e-02,-3.330587909978090233e-02,5.515788389112132257e-04,-2.179190039132587807e-04,3.683556181735419296e-04,2.911538183689117432e-01
2.694824295691904958e-01,-2.605170149900641607e-02,-3.142092606042069802e-02,4.980627172896887620e-04,-5.146720746268813564e-05,1.886756883006168901e-03,2.982741594314575195e-01
2.674311297718775515e-01,-2.604056629089626651e-02,-2.964972395912918168e-02,2.159716586771838909e-04,1.536884544368050066e-03,2.440512870156862947e-03,2.953352928161621094e-01
2.660085068065891623e-01,-3.058597754165880145e-02,-2.477367871693367252e-02,2.852417314009596965e-04,1.088819147946293872e-03,1.631838243761826734e-03,2.937515377998352051e-01
2.637167684108629451e-01,-3.101400058809429539e-02,-2.259959915113898821e-02,-8.987239116688594716e-04,1.326456597562052087e-03,6.560707017986230384e-04,2.906304299831390381e-01
2.713447414520682166e-01,-2.557067876256660655e-02,-3.045887894783193273e-02,4.850665283042201754e-04,1.258909792647640779e-03,7.212449788361122160e-04,2.994011640548706055e-01
2.986829883782536887e-01,9.247455510202062801e-03,-6.255446784234205970e-02,-7.056207852958262805e-02,3.846027856627753927e-02,-2.659599759438462802e-02,3.622252345085144043e-01
2.912748336363866208e-01,-4.904846329644521608e-02,1.814270482863218625e-02,1.948025589837253622e-03,4.256611956559588905e-03,1.151325235469816740e-03,3.123100996017456055e-01
2.857024637456865856e-01,-3.789165918743309103e-02,1.244904149570166818e-02,1.211055737556757420e-04,-3.375740029352538966e-03,4.881968695953204339e-04,3.016493618488311768e-01
3.089101361852364391e-01,-4.309856334372813569e-02,4.529290655068407556e-03,-1.689764847260602672e-03,-1.049398292056847801e-02,9.087490690499232596e-03,3.316621780395507812e-01
2.646708426644880929e-01,-2.077102277006200037e-02,-3.190847245426534085e-02,2.900349469830418368e-04,-5.059633814314719183e-04,1.076313127442044514e-03,2.911781072616577148e-01
1.305173546581184230e-01,1.213613919306179983e-02,-1.062996664382188927e-02,-6.040006112245839553e-02,9.580514828850883804e-03,-1.364068151976114557e-02,1.703101694583892822e-01
2.654194682531245686e-01,-2.069160356256510847e-02,-3.366375923503031609e-02,5.683958562774002986e-05,-6.216953868062425703e-05,1.560242066572141992e-03,2.928252518177032471e-01
2.115635030139262629e-01,-1.471034043389120305e-02,-1.326964325838665693e-02,-3.185468572497904965e-02,8.686396114948116004e-03,3.412953378627403556e-03,2.327689975500106812e-01
1.605647187838688539e-01,-5.821133598712280310e-03,-4.086758571620302538e-03,7.937982024493663719e-03,3.894118607751718281e-02,4.980394566394501579e-03,1.794752925634384155e-01
2.639397229896118802e-01,-1.949543394068306568e-02,-3.624364908572548505e-02,6.741062295829865735e-04,-7.687135411385950855e-05,2.088443918931679605e-03,2.921942770481109619e-01
2.721159553800074904e-01,-2.756908493727920628e-02,-2.793870301860230942e-02,2.575504079926569647e-04,2.552674239312560330e-04,2.018993518695554133e-03,2.998910546302795410e-01
2.372505548593233649e-01,-1.634586253033828984e-02,-2.902551690573637599e-02,-5.696256480287533071e-04,3.567680313599398017e-04,4.374303497927476553e-03,2.602809965610504150e-01
1.274681570218317295e-01,-7.883711611072652392e-03,-9.259305802530003182e-03,-4.503411958400124759e-02,6.158428325409665872e-03,-9.285164514031213692e-03,1.580026745796203613e-01
2.660075628990384855e-01,-3.412073101397399000e-02,-2.185372512128495870e-02,-8.762966191333329893e-03,3.157291051226791042e-03,-2.573995390204717642e-04,2.946290373802185059e-01
1.814050657181076887e-01,-1.788704680168257122e-02,-8.616630908366451624e-03,-5.174789581300852370e-02,-2.543760478779950960e-03,1.259432222993573259e-03,2.145075052976608276e-01
2.661969487153190150e-01,-2.264954344679626086e-02,-3.143739140821627531e-02,6.540795912282716456e-04,6.204452384908346789e-04,9.258379876034849871e-04,2.933476865291595459e-01
2.222865064090410181e-01,-2.695948987515775497e-02,-9.562447044039926181e-03,1.134217021123118093e-04,-4.132274894763719974e-05,-1.929977239535060228e-03,2.410421073436737061e-01
2.618056027716241241e-01,-1.673522227124780992e-02,-3.592267453885478190e-02,1.194136885966904000e-04,-3.853132554560646426e-04,-1.763100136422197299e-04,2.886143028736114502e-01
1.880870298435427801e-01,-9.119035953585666321e-03,-6.443483238168359883e-03,-1.132983116547202004e-02,1.290242052983219152e-02,3.878258818376563444e-03,1.982407420873641968e-01
2.521356456713020888e-01,-1.704162336930667432e-02,-3.213901845702188398e-02,4.298266916693327172e-04,6.227009981658545613e-04,-1.354345367428703149e-04,2.770378589630126953e-01
2.693125907901198213e-01,-2.323506504021800867e-02,-1.889060732708888746e-02,-3.158986968732141942e-04,-1.059511855664873334e-03,1.024773288497904855e-04,2.904061675071716309e-01
2.721055531583576048e-01,-2.915526924849635992e-02,-2.558037400425455798e-02,1.156942784361644078e-02,1.180102695629799657e-02,6.312645301203343925e-03,3.010527789592742920e-01
2.636049534711016884e-01,-1.765357804980015322e-02,-3.378475691462831665e-02,-4.369268921892384199e-04,-3.189323259613078740e-04,-1.680851543776820580e-03,2.896773517131805420e-01
2.172868672419492331e-01,-1.314532150965554147e-02,-2.248826559770669697e-02,-1.586239501618603998e-03,3.080446733394882897e-02,3.953554770907314296e-03,2.413304448127746582e-01
2.686315926054719250e-01,-2.102774214133448782e-02,-3.088815180785188519e-02,-9.644337498889358866e-04,-4.735539743014010976e-04,-2.252096390858672557e-03,2.947449684143066406e-01
2.690453435715506325e-01,-2.114622306341518154e-02,-3.388510316088250152e-02,-8.916039768566211277e-04,-1.249048099449157892e-03,-5.190686539165863776e-04,2.967793941497802734e-01
2.436396011277025542e-02,3.130569008516843194e-03,9.774554456874372937e-03,1.514077772122503565e-02,3.610573338732743498e-02,-9.767672748673453774e-04,7.039452344179153442e-02
2.737297142110212134e-01,-1.860907316908412545e-02,-1.445426311419592547e-02,1.427341521577712167e-03,-1.041126651454954075e-03,-8.408561974258309604e-04,2.903034687042236328e-01
2.715684179937762899e-01,-2.466484515622255347e-02,-2.528173568008819372e-02,1.799098275389366536e-03,1.040292295063221422e-03,-1.554158316064999188e-04,2.965641617774963379e-01
2.699589167040588045e-01,-2.538262166582033741e-02,-2.767905725921894489e-02,-1.451772343549933772e-03,-1.711392719279650112e-03,-4.751908019143290252e-03,2.966361045837402344e-01
2.751082998567724314e-01,-2.416269875804999412e-02,-2.924851831546292080e-02,9.420195814424596036e-04,1.805561978992289431e-04,-1.103134395589201993e-03,3.018566668033599854e-01
2.680041368639585198e-01,-2.494001882738917930e-02,-2.128884558578456043e-02,-2.994500808872365555e-03,9.786207531704306777e-04,5.390320315383046812e-04,2.911883592605590820e-01
2.726042274416992095e-01,-2.338755517615874469e-02,-2.499047416242497488e-02,-2.739637288427757868e-03,1.963866272323046367e-03,1.650124255041822722e-03,2.968676686286926270e-01
2.739783568013577364e-01,-2.448398122387089593e-02,-2.857903498134639619e-02,-9.349461130064831618e-04,-4.659081155150090288e-04,-1.734812626044290483e-03,3.005512654781341553e-01
2.711017724239481730e-01,-2.222752982047845882e-02,-2.350980625343089547e-02,-1.934728762870248559e-04,7.342534860385103610e-04,-3.632504840303874601e-04,2.939761579036712646e-01
2.771125422360439794e-01,-2.691481041873791669e-02,-2.635199220927347818e-02,-4.844837568150106881e-04,-6.813376737452873835e-04,-1.244189728230555647e-03,3.037574291229248047e-01
2.765656132768878339e-01,-2.335140402135037208e-02,-2.567659759708479372e-02,-1.783177312793779966e-03,-1.188696430126662306e-03,-6.476418125281763758e-04,3.011113107204437256e-01
2.704078762930660629e-01,-2.244065819409662987e-02,-2.540929244370311590e-02,-3.120234148897158433e-03,2.934691048722504452e-03,9.315148103766902714e-04,2.944419980049133301e-01
2.731133760279474965e-01,-3.183996383936796293e-02,-2.326065905386939803e-02,-3.560397974994021259e-04,-6.390814019625644729e-04,-1.835516100031674060e-03,3.007749617099761963e-01
2.728246097116385216e-01,-1.792766983960393523e-02,-2.216403736695093940e-02,-4.878778382639238284e-04,1.465944436493327434e-03,-2.872861310661219830e-03,2.929479181766510010e-01
2.770640122569344443e-01,-2.586619390850877775e-02,-2.585552693377361766e-02,9.205943755033020386e-05,1.617250033504948092e-04,-9.358658314414636638e-04,3.029293715953826904e-01
2.777322019931416364e-01,-2.589790394306247523e-02,-2.686301264394866384e-02,-3.397553102695615441e-06,-1.694613163129925183e-04,-5.886278358448909006e-04,3.041156530380249023e-01
2.779075240124698198e-01,-2.895002060891802009e-02,1.172008961855736109e-03,-2.252516928550847087e-04,1.705901471935434427e-03,2.150791831084095194e-03,2.929991185665130615e-01
2.754983615844150968e-01,-3.006072938333687050e-02,1.367660244505741751e-03,-2.299381603632530760e-03,2.195345894357206371e-03,2.370429002702067155e-03,2.912010550498962402e-01
1.396864738584606414e-01,-2.668969548803440395e-04,1.638872867617401086e-03,1.803668158353892437e-02,6.457385410820574989e-03,2.099499199689968450e-03,1.429620236158370972e-01
3.067450142069699792e-01,-2.887360913819458919e-02,3.513105127506854775e-03,-5.683329795102748383e-03,-6.915469386465599583e-03,2.379538707380410636e-02,3.236637413501739502e-01
2.770288195292712752e-01,-3.711201284926129995e-02,1.851604818436880517e-02,1.216886371804143385e-04,-1.989417799476136169e-03,2.518575733449816834e-03,2.904046177864074707e-01
2.626359156101455428e-01,-1.351282607867289320e-02,-2.789047327704630153e-02,-2.206115744416570559e-02,-1.445049651072167346e-02,1.995523396852622294e-03,2.872867882251739502e-01
3.697001883804494904e-01,-4.550158601128551084e-02,-4.685020454856525518e-03,-1.382827788239147926e-02,-4.560900448188651146e-02,2.877526618594922897e-02,4.079333841800689697e-01
2.792405380758787303e-01,-3.778323703736113925e-02,1.192957964905040635e-02,9.668941031563751953e-04,9.155111281942949521e-04,-6.617126428876684034e-04,2.953335940837860107e-01
2.771295739649319856e-01,-2.130085663351317937e-02,-1.968573059783622348e-02,-6.849651818756231220e-04,9.551583286391742561e-03,-2.293304515239285180e-03,2.981144189834594727e-01
2.727625371742955496e-01,-2.982428614770772646e-02,-2.370681514316819172e-02,-4.753006170334339022e-05,-1.334599688824337962e-03,-1.023579287940285919e-03,2.995891273021697998e-01
2.251677096671093337e-01,-2.483440093359845502e-02,-1.214950284252099000e-02,-5.391911573424772175e-04,-2.414856734190933257e-04,-4.675281455116379902e-04,2.439106702804565430e-01
2.682652252072194043e-01,-2.062798214980966771e-02,-3.338066749868330574e-02,1.028591306098846714e-03,1.509675885229268396e-03,-1.336052093866812876e-03,2.955020368099212646e-01
2.167937471657072346e-01,-3.426303269753215586e-02,2.178236331694518441e-02,-1.493417631798846668e-03,-7.186288750491266752e-02,-2.697455999629706346e-03,2.600410878658294678e-01
3.411465174358701002e-01,-2.842540844565302760e-02,-2.401202517314296458e-02,4.988706182372276005e-02,3.417305191533830805e-02,3.038775219021436214e-02,3.856314420700073242e-01
1.647315537046870337e-01,-6.552789063316161178e-03,-2.404242617879137622e-04,7.895000914658006994e-04,-4.416928461090959121e-05,5.660989225232528760e-03,1.685080975294113159e-01
4.342873663885994939e-01,-3.693705983703154949e-02,-5.008416853818389858e-02,1.168154177789819392e-02,2.271579465683608995e-02,-3.770820243184939274e-02,4.844003319740295410e-01
2.486547631666284064e-01,-2.643244196320516937e-02,-1.954436615806551258e-02,-1.076065726019696366e-03,-1.016091131702935232e-03,-4.420175500478099213e-03,2.718285918235778809e-01
2.780757672390150592e-01,-2.155015659234565950e-02,-1.000084464013781260e-02,2.234335459057804410e-03,-2.714143492897507989e-03,-2.464092498103242872e-03,2.941154539585113525e-01
1.403462161691241550e-01,3.551704180581816139e-03,5.038572969546184499e-03,-1.164112618345664193e-04,-2.858919106122665473e-03,1.378609105551299296e-03,1.361683458089828491e-01
2.746508768069663153e-01,-2.754077086621378734e-02,-2.445440791806226255e-02,2.437119847483965127e-03,-5.579377128729554308e-04,-9.280479287814777118e-04,3.006958365440368652e-01
2.799614348890285265e-01,-3.095871509291270307e-02,7.175772542779235152e-03,-5.260789339970099688e-04,5.891211676478303643e-04,1.587194677309429480e-02,2.950024306774139404e-01
2.584224229623520719e-01,-2.590153858640914519e-02,-2.364483648561138684e-02,-1.954997384601900659e-03,-1.756546293396483212e-03,-5.593130635423202747e-03,2.834045588970184326e-01
1.047599645879404712e-01,-3.819711340798070953e-02,-3.379523972697739964e-02,-6.018480858995011503e-05,2.699714796437385766e-02,-9.520732623014647317e-03,1.492826342582702637e-01
1.509435041753377504e-01,1.066905060189554666e-03,2.436116383149104780e-03,8.577938872961325689e-05,-1.107267793479381913e-03,4.192290234025473905e-04,1.492108702659606934e-01
2.721183607782283187e-01,-2.703966334002882999e-02,4.361529884315679118e-04,3.362585983007309307e-04,-4.517081841434094323e-03,2.584541832579157188e-03,2.865526676177978516e-01
2.548310770868419395e-01,-4.773314194742481198e-02,5.793761085783111220e-03,-3.344834065565398251e-02,-6.757413662410845234e-02,3.046866413496883419e-02,3.131375014781951904e-01
2.836724824832620451e-01,-1.514183001327897016e-02,-2.260484203334678366e-02,1.172727586242435166e-03,-8.198893544117971883e-04,-7.746130393953014684e-03,3.029222488403320312e-01
2.687715721729787566e-01,-1.425091802066279223e-02,-2.522391315889049856e-03,-1.230108971592249519e-03,-1.082045050984341760e-03,5.783377382764690738e-03,2.775396406650543213e-01
1.620684863914559071e-01,-7.727725962239917479e-03,-5.749176353523532956e-02,7.393953881482039081e-02,6.070981064008561072e-03,-1.771356923197994065e-02,2.391861379146575928e-01
2.860519124683659764e-01,-6.640970325676745500e-03,-3.238211958833747683e-02,3.600087622113905608e-04,9.712633748304139170e-03,-1.377764055243534472e-02,3.077642619609832764e-01
2.745812571476446418e-01,-2.030387271896427759e-02,-2.071422809453603298e-02,-2.518246294215516125e-03,-1.381623960671631013e-03,2.482994714193808021e-04,2.951327562332153320e-01
1.554034025471132119e-01,-3.290790639460354494e-03,4.335207456345260835e-04,-2.143841804973090417e-03,-2.743803826994083411e-03,-1.105338381864064221e-03,1.569927632808685303e-01
2.553655409468235105e-01,-1.471269650369924631e-02,-2.311248304120269714e-02,-1.401000372854944998e-02,7.433096750584265028e-03,-2.142446253139510762e-03,2.757712304592132568e-01
2.723626026827251079e-01,-2.950119623736621732e-02,-2.273677989371214458e-02,2.226910076536614633e-04,4.028223290695973091e-04,-1.751060971256444875e-03,2.985555529594421387e-01
2.705991477507466714e-01,-2.436271999845272818e-02,-2.323243933002579198e-02,1.770740883720092577e-03,-3.173551165687338565e-03,9.550383169535705803e-05,2.944656908512115479e-01
2.610260533156740781e-01,-2.681478426170133544e-02,-2.063797910338902031e-02,-1.910771388174263043e-03,1.824324781572353275e-03,1.185946434210299232e-03,2.848468422889709473e-01
2.702351134590953441e-01,-2.627064296830693146e-02,-2.223468579922277533e-02,-6.040658728328662970e-03,2.171184956490375666e-03,-1.671268770273709459e-04,2.947184443473815918e-01
2.632595310079955953e-01,-3.056850409042696781e-02,-2.243935557545528869e-02,-4.359578404881729293e-04,-1.673842972067447787e-04,5.732493932636561909e-04,2.898517847061157227e-01
2.788794281344609827e-01,-3.472827663480046456e-03,-3.167533598540997475e-02,2.345717034665449098e-03,1.048943351115281261e-03,-1.512816111914142394e-03,2.975027561187744141e-01
3.072518324047449623e-01,1.151899954676086080e-02,-3.820919954936211060e-02,5.074002235663637589e-02,-1.307277004637202519e-02,-2.648912881412115658e-02,3.390846848487854004e-01
2.312781502837939762e-01,-3.107301556451481928e-02,-9.895912155509278829e-03,-8.392856449318124995e-03,-4.071904651981547740e-04,-2.001633897343028500e-03,2.528727054595947266e-01
2.690364235637568990e-01,-1.376300873661201463e-02,-1.183736906926000088e-02,-4.771539940918872753e-04,-9.207631054687500597e-04,3.078160310817319289e-03,2.818976938724517822e-01
2.785944956551902330e-01,-2.589938546005439435e-02,-6.203402669570104444e-03,2.706163516102417458e-03,6.343880009953638916e-04,-2.419200685589421428e-03,2.952082157135009766e-01
3.253252556307319465e-01,2.532004609300259057e-02,-5.135056291031675491e-02,-5.976048779678756750e-02,8.488735866240985917e-03,-2.605631553291553812e-03,3.603242635726928711e-01
2.893255282509059612e-01,1.792204994312537880e-02,-3.958369960727745052e-02,2.409930324773464864e-03,2.154897478406750215e-03,1.949264441843094478e-03,3.043300509452819824e-01
3.286643619737654731e-01,-4.082154945148155911e-02,-5.737056978320484446e-03,-1.985302516097150680e-02,2.147110887536015852e-02,-3.111917453024367133e-02,3.609130084514617920e-01
2.713771030531581530e-01,-1.714704336666945939e-02,-7.343043150608866143e-03,-1.582896422126984278e-03,1.326956776355817103e-03,3.544171686456214828e-03,2.838381528854370117e-01
2.722933280904359377e-01,-2.656264038367994740e-02,-6.628057188692387802e-03,5.495670895962777086e-04,-7.570735077168008406e-03,5.244107838686936328e-03,2.898449003696441650e-01
2.696534078258723266e-01,-1.017267523695235265e-02,-1.462863348094209370e-02,-1.151596704666707103e-03,-1.321638821363071720e-03,2.627556830154600953e-03,2.821335196495056152e-01
4.128428115133158105e-01,5.651451777934912712e-03,-6.758654250709972278e-02,-3.624200416874739927e-02,2.833188431568180177e-02,-1.918163923915417943e-02,4.565553963184356689e-01
2.375439458984379693e-01,-1.837580992496772037e-02,-2.329972811118781462e-02,1.666628627505780758e-04,-8.801883244576593445e-05,5.530779961157743230e-03,2.585946023464202881e-01
2.751160938738538286e-01,-1.839765519027873608e-02,-1.218171712990606670e-02,-1.777292149853461432e-03,-9.432524021164574290e-04,6.877103257966742447e-03,2.907207012176513672e-01
2.837528819324603990e-01,1.249346331990817960e-02,-3.461304743339163603e-02,6.072194738466159258e-03,1.306485971317785776e-03,-1.592533567918539813e-03,2.978290319442749023e-01
3.195357431489314615e-01,-4.275848961364586698e-02,1.151323758342652492e-02,-3.755129658989673005e-03,1.227354829153602840e-02,-1.288551095288740719e-02,3.399007618427276611e-01
2.691536958181369177e-01,-2.598343335643923946e-02,-2.609365249477013649e-02,1.203649184694354640e-03,-8.331376417409481691e-03,-8.560582341757823170e-04,2.955558300018310547e-01
2.731631431224353368e-01,-1.759538906919604073e-02,-2.639481903029032572e-02,8.852830671904053129e-04,1.535051509791655238e-03,1.963043439678659728e-04,2.952727675437927246e-01
3.324471076805056158e-01,5.085822607631934611e-03,-4.507984642784376716e-02,-4.057655043079028481e-03,5.969187454066067662e-03,-1.895955032710596594e-02,3.568458855152130127e-01
2.635906030794608057e-01,-2.832388445827627166e-02,-2.592697317692224668e-02,-1.789696745379090769e-04,3.485555354216017076e-04,3.006294142317512876e-03,2.907708585262298584e-01
2.577856268143607910e-01,-2.546640686691988009e-02,-1.139820596421635412e-02,8.541482526685304291e-03,-5.410066045019978030e-03,-2.413323470342055004e-03,2.770720720291137695e-01
2.760042633525539024e-01,-1.402270255957255296e-02,-3.232641864191998504e-02,-9.045870943951732010e-03,1.152844348880883475e-03,-1.389334515877664036e-03,3.000241518020629883e-01
2.763106649593012332e-01,-3.001824174672786116e-02,-2.374903145551579553e-02,-5.870402824929223280e-04,7.665247091327638844e-04,-1.043425537731606373e-03,3.032529056072235107e-01
2.707682539256548448e-01,-1.321657764558388515e-02,-1.165794512984930087e-02,-1.222844715556004047e-03,-4.068843131579154954e-04,5.066876640039831570e-03,2.833534777164459229e-01
4.366366408944492572e-01,-1.350984048677297822e-02,-4.640681317222122848e-02,-5.598729358535123671e-03,1.684440305945697491e-02,-2.696534825497880206e-02,4.707962870597839355e-01
1.884916586545248296e-01,-5.091693769846766804e-02,-1.126304057327161962e-02,-8.757738068900341316e-03,5.529098155823845839e-02,-1.719618383243154414e-02,2.443029284477233887e-01
1.984307271228361313e-01,-9.653766974140304269e-03,-6.856129847170266967e-03,-6.438689810919247594e-03,1.695988937324293191e-02,6.129336013676660484e-03,2.093438059091567993e-01
2.765455460004139776e-01,-1.886925825693035186e-02,-2.650362303251048435e-02,7.783257556590841147e-03,3.212565888877064527e-03,-1.489421297389473178e-03,2.996712327003479004e-01
3.002632832231133531e-01,4.124424795493408791e-03,-4.377521950374307913e-02,-4.096241059811172106e-03,8.170626772818948003e-03,-4.131014418023870420e-03,3.232326805591583252e-01
1.664668529533168961e-01,-1.029475332750813543e-02,-4.141746367832002673e-03,-2.609648037595707626e-02,-6.622334647316343876e-04,4.683320426389186476e-03,1.797362118959426880e-01
2.038674193008466473e-01,-1.440605895750080023e-02,-2.130586220548512377e-02,9.297875048517393812e-03,-3.765048735318952955e-02,-2.849882578282841514e-03,2.318045645952224731e-01
1.624041483655241924e-01,-6.818962385811769278e-03,-7.365210110033895696e-04,-1.278110414502079545e-02,2.072007316202057001e-03,-3.979984519219437081e-04,1.677724421024322510e-01
1.192601072114532201e-01,-3.996457513562484687e-02,-7.767639660012912173e-03,2.033971127458437250e-02,7.389932389188880180e-02,7.619936829530913475e-03,1.976391375064849854e-01
2.682786243790592495e-01,-2.451921937431389420e-02,-2.608690948360214978e-02,-1.179242238422001160e-03,-4.429129985605963563e-04,-1.409687937275611470e-03,2.936030924320220947e-01
2.894291515012722416e-01,8.630472267852032364e-03,-3.948750249624902176e-02,-6.918729892840805307e-02,2.642796189796818573e-02,-2.899925404657597780e-02,3.371253907680511475e-01
2.727534746425520629e-01,-3.073387327176867190e-02,-2.271387550012585188e-02,1.043141487817193574e-03,3.957301134956236598e-04,-1.426333883456029584e-03,2.995742857456207275e-01
1.544468578236739276e-01,-1.542229236577120910e-02,3.487000721774817513e-03,-3.351650662887318416e-02,2.201385330892424372e-02,3.384132119255380076e-03,1.756679862737655640e-01
4.254356419403518969e-02,2.505814393251492439e-03,8.611098629594332587e-03,-3.541543483117376434e-02,2.294450923038105633e-02,1.453620345022254992e-03,8.212371170520782471e-02
2.540807282878103646e-01,-3.079705325512949177e-02,-2.078207373092585963e-02,-2.941863377824959110e-03,-4.017813332813941624e-03,-3.386053258868446190e-03,2.801988422870635986e-01
2.435230880337071191e-01,-3.162001496164613956e-02,-1.358187635148472294e-02,-2.283530116481976083e-02,-5.543275233242829850e-03,-7.084277500849060511e-04,2.696740031242370605e-01
2.064665118376634301e-01,-1.433793352505570440e-02,-6.470271210071723567e-03,-2.246970731494736181e-02,1.090755747914043091e-03,4.259270032785508579e-03,2.205718606710433960e-01
4.024266843508216285e-01,-7.198487797951280687e-02,9.320978044922795247e-03,3.451089210095400778e-03,-4.349502562930932653e-02,8.088833377610711931e-03,4.461076259613037109e-01
2.842453963935879235e-01,2.745001188816917348e-03,-3.829066738017433691e-02,5.768761369937638536e-03,6.549745590742334219e-04,2.119953213585682881e-04,3.042683303356170654e-01
1.677319342839817540e-01,-1.040666430111687746e-02,-2.903996108032540213e-03,-3.386647893432897551e-04,-1.241315023217041090e-02,3.110390706766135403e-03,1.759112328290939331e-01
2.737894424065618892e-01,-1.976202137051279173e-02,-1.339736584926808083e-02,3.925246326388363675e-03,3.684872266668899263e-03,-8.472394822747263826e-03,2.909414470195770264e-01
1.547232778883048110e-01,-1.544898300411906567e-03,-1.483844540441445203e-02,1.899292337065487321e-02,-3.540531399423228059e-02,2.604157404443164896e-03,1.775865107774734497e-01
2.644206790931400430e-01,-2.165032718352057073e-02,-3.294582452711652953e-02,-1.431632707996644991e-03,-6.786272701285919404e-03,-1.855738079533187984e-03,2.921475172042846680e-01
1.642031752814269718e-01,3.324646349350118824e-04,-4.761694183827255844e-03,7.839969229419423147e-03,1.185698082361900420e-02,-1.808357652025335219e-03,1.683161109685897827e-01
1.750874029136552101e-01,-1.079975412210255892e-02,-1.342492052046682927e-02,2.396475734494646001e-02,6.292037374046475541e-03,7.367926454418190045e-03,1.924927681684494019e-01
2.635536616212299510e-01,-1.707895912102237734e-02,-3.860537853893512839e-02,2.237476061743462301e-03,-9.864276850925120244e-04,-6.171433235406718031e-04,2.920242249965667725e-01
2.798210991325508767e-01,-2.865950538364303579e-03,-2.663091013332055668e-02,-9.869641440826614973e-04,-5.324200322284165381e-05,-4.696596046884003554e-03,2.954046130180358887e-01
1.899823004435330087e-01,-5.999049792655045121e-03,-1.341254771633945686e-02,4.953196884921677590e-03,-1.297373995068857970e-02,5.138225649770270312e-03,2.014306783676147461e-01
2.418150604164464867e-01,-1.739658618541126134e-03,-3.538020891244489374e-02,5.912807632422086013e-02,-3.235639325380425257e-02,-2.112544369424483939e-02,2.891573011875152588e-01
2.881763155878234173e-01,7.982641909594953566e-03,-3.714403114367342829e-02,5.347261021713414081e-02,-8.413390413808114268e-03,-1.717047039871661893e-02,3.207240402698516846e-01
2.664427021384447314e-01,-2.063156756956177618e-02,-3.158826140757789447e-02,7.524825573020238207e-04,7.480662040608978755e-04,-2.040510762746676303e-03,2.927335500717163086e-01
2.765869312409037217e-01,-2.989925036651699952e-03,-3.098328396930694062e-02,-4.904059089044423420e-03,4.491875586487325059e-03,-1.534277524831145030e-03,2.948099076747894287e-01
2.740798404330586635e-01,-2.364634423724189249e-02,-2.319717496408515989e-02,1.881797815308720000e-03,3.290594682605303429e-03,2.130910596502078925e-04,2.975745201110839844e-01
1.845337698099852042e-01,-1.642940498866909960e-02,-5.427956158440563894e-03,2.138097786813666912e-02,-6.902641714690010023e-04,5.132812381353495275e-03,1.993696242570877075e-01
2.482226272020663926e-01,-2.570680987955629992e-02,-1.697367791480744459e-02,-1.083308258501257349e-03,-9.911713269866425161e-04,-6.265855806963258230e-03,2.698992192745208740e-01
1.969004340070332204e-01,-6.954110089144108220e-03,-1.478348076576184444e-02,-1.391842611599070339e-03,-1.099525413398864037e-03,-3.931397417797541025e-03,2.080140262842178345e-01
2.745811849997839005e-01,-2.622164927339447338e-02,-2.789074121952761498e-02,-1.077843020461614811e-03,-1.279160212265195761e-03,-2.791675198555701801e-03,3.016934990882873535e-01
1.657075769696599310e-01,-8.549697085312168987e-03,-9.023326843470180769e-03,8.876547128673958464e-04,4.805622117910825913e-02,1.039096351854056945e-03,1.933446675539016724e-01
2.751140576305440844e-01,-2.623442479971609120e-02,-1.304304234374045746e-02,3.977516602325419960e-03,-9.135531413155081881e-03,1.397727784277065738e-04,2.954786121845245361e-01
2.863869268222277720e-01,-1.257553380540252230e-02,-3.527558682941467350e-02,1.712842765541788825e-02,-3.049382131673021232e-03,-4.763974816691523249e-03,3.125002980232238770e-01
2.403217335995652681e-01,-1.903237223296039282e-02,-2.670860111690026573e-02,4.818435381664754958e-04,8.639376337731734332e-05,-5.728307657296365964e-03,2.634644210338592529e-01
7.766042642481946201e-02,-4.279827338460141795e-02,-3.146739579165097611e-02,-6.380610989919970749e-03,-1.396680522341459466e-02,-1.707085860694011747e-02,1.218826398253440857e-01
1.082309442279257156e-01,-4.564991451061860273e-02,-2.008803679389585539e-02,1.463470497394327510e-02,-2.550789966376128606e-02,-1.155514586825245014e-02,1.529519259929656982e-01
5.165840130045495915e-02,7.204841839961961120e-03,5.025864784375114885e-03,-3.978999549880833132e-03,-1.271294105173199039e-02,4.854472028208437406e-04,5.109589919447898865e-02
2.679362610155429092e-01,-2.511063645358714569e-02,-2.462053145096407269e-02,-7.998467947344490387e-04,-6.065548683381483813e-03,-1.319299357187155844e-03,2.930027544498443604e-01
2.059603032250358068e-01,-2.930178963650240109e-02,-2.209716522880350587e-02,-4.116387973806062001e-02,-3.538557026754119567e-02,2.647188787343692298e-02,2.542582750320434570e-01
2.535521613791458795e-01,-1.719861734129818354e-02,-3.446217473015637800e-02,-6.447228119711112494e-04,-3.967733292963523430e-03,-2.606769505165833743e-03,2.799053490161895752e-01
2.436981339719809514e-01,-5.689983391439640270e-04,-4.678713932146311150e-02,4.577221942656232306e-02,-2.610165993060090464e-02,-9.155708179758663065e-03,2.857845127582550049e-01
2.689101341745889773e-01,-2.414854159394677624e-02,-2.440794674426101374e-02,-2.182416813323890940e-04,-3.097522577879141688e-04,-1.510787542510869325e-03,2.932008802890777588e-01
1.494779024193182426e-01,7.746543868348484962e-04,-2.913440686285080627e-03,-3.347508436995240248e-03,1.251605896086832072e-02,3.180369632647343098e-03,1.523437052965164185e-01
7.829023707889271044e-02,3.062742605529937198e-03,-3.597191984467689591e-02,7.436820043025186081e-03,2.047257901030350921e-02,-1.803248117817315879e-04,1.074372231960296631e-01
1.101125441593069632e-01,-8.098507950711979209e-03,-4.706851125036086436e-02,-3.805745126397918482e-02,1.787221184582479805e-02,4.154795636047043349e-03,1.595441699028015137e-01
2.794581310179720113e-01,9.592578370632418028e-03,-3.290841453172185793e-02,8.466163448991103485e-03,2.730743857686486389e-03,-9.638040107227713316e-03,2.943117022514343262e-01
2.895045116204336133e-01,-1.677486912839157296e-03,-3.070207634436439292e-02,-4.374206402108739077e-05,3.339012011519511183e-03,-5.214888983115468363e-03,3.069134354591369629e-01
2.002463606829134046e-01,-1.564400401607313196e-02,-8.347881715413132953e-03,-2.783798508012687235e-04,-4.407192955632479280e-04,-3.436670427513879075e-03,2.124216705560684204e-01
1.998561101244461236e-01,-1.659097835114835273e-02,-4.335247209366996368e-03,-2.486039910470373140e-04,-2.671162288734794357e-04,-5.187912339189478840e-03,2.107794284820556641e-01
2.738943108176709607e-01,-2.510227888187591128e-02,-3.969082685705033198e-03,2.434786770470852139e-04,-2.549588914074500754e-03,-2.408696646787644811e-03,2.890742123126983643e-01
2.540814386659853708e-01,-3.436273454226314306e-02,-1.929500979601418698e-02,1.867735887179044346e-02,7.408813775344517960e-03,-1.259705781158819990e-03,2.833669781684875488e-01
2.798703355493792344e-01,-3.962049509679060888e-02,1.857529603042583355e-02,2.515103914562520204e-03,-1.009544170563904169e-03,1.125089904334497602e-03,2.947778105735778809e-01
2.888934162048482079e-01,1.496074204476252612e-02,-4.195065519564525336e-02,-1.401241728862713792e-03,1.528002482529434037e-03,-1.567005387514589431e-03,3.064117729663848877e-01
2.691189645835166955e-01,-2.241452816483269217e-02,-2.675085271817774502e-02,-1.106052577459830768e-03,-5.028673739452396881e-03,-1.277349746280574769e-03,2.938693463802337646e-01
2.800840611493659038e-01,-3.832718799482093264e-02,1.304810606681021390e-02,2.894254256043618349e-03,1.151199118694719086e-03,-1.029070233645779358e-03,2.961401045322418213e-01
2.637816025947075094e-01,-2.081043203014133758e-02,-3.396655153256639137e-02,1.771981772373679067e-03,-1.896339010311869772e-03,1.651072647149913258e-03,2.914416193962097168e-01
4.010216209557043721e-01,-7.379770072044716800e-02,1.184846053817159572e-02,1.284419280995531196e-02,-6.052575073345700662e-02,4.042547551541337408e-03,4.512828886508941650e-01
2.730409166087788275e-01,-2.472589949773675022e-02,-1.564097409867315491e-02,1.319546282923830197e-03,-4.181511889965358088e-03,6.141352912463872785e-04,2.934301197528839111e-01
2.633841935874420281e-01,-1.900172503434263693e-02,-2.909138216493097062e-02,5.242070915264652846e-03,-3.983179529564362734e-03,-8.662819861218548504e-04,2.877934575080871582e-01
2.440786029039681837e-01,-1.935702399645577998e-02,-2.712606078141711896e-02,1.698109150901380530e-03,-6.955394505187194321e-03,4.014637527072145197e-03,2.677824795246124268e-01
2.633984520717033151e-01,-2.231958299890161868e-02,-3.212383224671132298e-02,-6.464167013840594733e-04,6.353221806914583099e-05,8.655198274610244281e-04,2.907502055168151855e-01
2.722302535100877274e-01,-2.458436602663476023e-02,-1.090327388760095606e-03,6.793513167006575825e-04,-8.149661980947868608e-04,-3.107070881539580887e-03,2.858493626117706299e-01
2.535729055774295082e-01,-1.554790116730755956e-02,-3.590851662064911687e-02,1.152951540492261340e-03,-5.549356931094759533e-03,2.923972066436944647e-04,2.800297439098358154e-01
1.487718663122645224e-01,-5.171091177259207194e-02,-8.814644879887471862e-03,-7.319570585869669688e-03,-4.689863227092354314e-02,1.621524763582153509e-03,2.005007117986679077e-01
2.762505550729985604e-01,-3.291397484596289558e-02,7.718361475918963932e-03,2.216491562414629746e-03,5.138563242970405585e-03,-2.961034537093450852e-04,2.911457121372222900e-01
2.456471257683527920e-01,-1.898392742880686268e-02,-2.934768707248980313e-02,6.703792853921466607e-03,-1.048857511764701364e-02,5.524462396550962155e-03,2.709907591342926025e-01
2.515709118451812665e-01,-2.175410237338695763e-02,-2.757899530645271935e-02,6.849864813174074839e-05,-2.560170343084350493e-03,5.192693388904405169e-03,2.764654755592346191e-01
2.449990252839537586e-01,-2.373560285103501477e-02,-2.221875411408565093e-02,8.937373523055607699e-03,-6.484298909994338014e-03,5.411219516843150841e-03,2.688244581222534180e-01
3.172010896673001512e-01,-2.623778696395015486e-02,-2.745374502042763343e-02,8.848619717986273836e-02,-5.136294517491948181e-03,-4.763678934796926334e-02,3.856756389141082764e-01
2.049705636076930293e-01,-1.988012694691322635e-02,-1.146028261480046273e-02,-1.207585828530986555e-04,-3.841641269117805130e-05,6.323175168030853444e-03,2.210328429937362671e-01
3.642111382625226046e-01,-7.219897648311801586e-02,4.776915217975130634e-03,1.481889140388818055e-02,6.086971996672091434e-02,-4.425824233489366807e-03,4.178743362426757812e-01
2.724258830280955612e-01,-3.095653304040821285e-02,-2.145012677836187487e-02,2.709333590382503702e-03,-5.408343549945557978e-04,1.649008345488429082e-03,2.987946569919586182e-01
2.628923040983326409e-01,-2.001434173671455541e-02,-3.165625396971247230e-02,1.922623968939702818e-03,-3.524257019232330396e-03,2.755998836092861566e-03,2.890266776084899902e-01
1.934709410422337239e-01,-5.132136922127730760e-03,-1.413103966095836939e-02,1.291845914488207615e-04,1.583719599283121837e-02,-7.903186593455221141e-04,2.050993591547012329e-01
2.728804963410176865e-01,-1.377597543443592754e-02,-1.571318544308711318e-02,-4.643619845192148996e-04,1.743338221667843461e-03,-4.971460258025068787e-03,2.877757847309112549e-01
1.702256446120951061e-01,-2.788211719757668905e-03,-5.089706011222258630e-03,-1.903018305243375091e-03,7.852116982541955804e-05,3.787699912000514878e-03,1.743307262659072876e-01
2.872514265127362187e-01,2.298484450154068826e-02,-5.161095409122448685e-02,2.724533817056753321e-03,-3.729284481980325795e-04,-9.410950303084215235e-03,3.088736236095428467e-01
2.751645248128558596e-01,-2.451201343323666793e-02,-1.602209987680480729e-02,1.504634232308067667e-03,3.536707808203477278e-03,-9.320213641142366997e-04,2.956024408340454102e-01
2.734826916422617438e-01,-1.375359622438909746e-02,-2.057192478710301309e-02,2.107478064665884061e-03,4.814673370886814614e-05,-1.087596023236826444e-03,2.907344698905944824e-01
2.763268163054848348e-01,-2.053403502752827736e-02,9.389088714620297260e-04,3.905329750617688583e-03,-2.068591060744168209e-03,-1.476932285672759131e-02,2.879686951637268066e-01
2.706468027657309983e-01,-1.216614487240813558e-02,-1.536659467806042456e-02,5.145646367360992731e-05,6.097560086630712719e-04,-2.730173915507195029e-03,2.844679653644561768e-01
2.763986794506065880e-01,1.540270900522805464e-03,-3.295542215862973245e-02,-3.216720778749638295e-03,3.537475170138001772e-03,-5.324756848342625248e-03,2.938914299011230469e-01
2.714022974445422509e-01,-2.408506211902555760e-02,-2.357515231605598893e-02,1.912008023572575946e-03,-3.363251624923873761e-03,1.574431998891667728e-04,2.953088879585266113e-01
2.698010617786190668e-01,-1.918849177214629331e-02,-2.220037383574038903e-02,-4.551581774424809509e-04,-4.882075340051102554e-04,1.294536887205300377e-04,2.905095815658569336e-01
2.776023063915160627e-01,7.672932057500761460e-03,-3.410681560193587480e-02,-6.996428075090468197e-04,2.694568535698831698e-03,-3.054763713428833207e-03,2.931488454341888428e-01
2.684790331699640209e-01,-2.569155056961767991e-02,-2.557333526089150544e-02,8.501985813375420500e-04,1.462761459636574004e-04,-1.102958657462887538e-03,2.941215038299560547e-01
2.733399830894476801e-01,-2.415034402171287176e-02,-1.735683113523027454e-02,-5.948545558399900499e-04,3.521958385694285917e-03,-8.612426829033500986e-03,2.945953905582427979e-01
2.203453226477672389e-01,1.253729884865481536e-03,-5.027502906294289975e-02,1.100779551011438762e-01,-1.401284572607858908e-02,-3.218860211922204562e-02,3.193661272525787354e-01
2.695804594043474389e-01,-2.023889006995166495e-02,-2.294126688868504405e-02,1.119342220385224993e-03,-6.365560518825588319e-04,2.578642865527480655e-04,2.911888360977172852e-01
2.696536720905031714e-01,-2.437452862340454274e-02,-2.448240262865838957e-02,3.803744436936091979e-04,1.063472205875569399e-03,-1.492943496159788920e-04,2.940887808799743652e-01
2.757549468220722444e-01,-2.668706017670659236e-02,-2.205893820285667606e-02,2.450335070814032255e-03,3.990172323836220156e-03,9.514848988463071172e-04,3.002687692642211914e-01
2.533189610474840814e-01,-1.924688545205049950e-02,-2.714336341878699488e-02,-2.505870409254314438e-02,2.967712911027763079e-02,1.229655639711803999e-03,2.846705913543701172e-01
2.699259571029063998e-01,-2.317265245621530356e-02,-2.074377840314688137e-02,-5.698413814932907009e-04,-1.068690895384609516e-03,-1.068088169991301874e-03,2.919051647186279297e-01
2.514530344106852278e-01,-1.526652724683319473e-02,-3.517861880531299168e-02,-9.443098564813616914e-04,-5.605521216949194314e-03,-7.971123683700290273e-04,2.773907184600830078e-01
2.408931259639243982e-01,-2.414069245713609813e-02,-2.179030933620808297e-02,-8.046518745005344642e-03,4.335467261303749438e-03,5.272134665968150787e-03,2.644986510276794434e-01
2.744005711888880539e-01,-2.406521445645305735e-02,-2.213748006940874369e-02,3.197389854505146029e-03,4.308207170030232611e-03,2.199661338007054745e-04,2.976519465446472168e-01
2.774182903889489960e-01,7.082908898281572996e-03,-3.405063862663573748e-02,4.855099574265251544e-03,3.152789473238212532e-03,-7.532977696592974871e-03,2.935367226600646973e-01
2.160640391319118558e-01,-1.726213450712485442e-02,-2.388113566080990458e-02,-3.967675975216219258e-02,6.059537800785898265e-02,-1.688197410207664326e-02,2.694855034351348877e-01
2.692076782654172495e-01,-1.043667886851810944e-02,-1.590928973547939274e-02,1.229013365782966787e-03,6.400904388809380537e-04,7.739207551829229131e-04,2.824338078498840332e-01
2.886372323400883122e-01,-1.568539771229207624e-02,-1.407237684856021964e-02,2.319758098390182176e-03,4.617461265214949616e-03,1.358505162144866066e-02,3.045615851879119873e-01
2.696358490428476529e-01,-2.351014774708151678e-02,-2.618401223350046159e-02,-1.334126932072127528e-03,-2.317147692974985858e-03,-1.806902150762363084e-03,2.945450842380523682e-01
2.741782343539738154e-01,-2.720484238306858371e-02,-2.576310848207002957e-03,6.599530440133553671e-04,-4.204404624876379067e-03,2.701637109940369964e-03,2.899861037731170654e-01
2.702605496151520570e-01,-3.005110464379542878e-02,-2.244051180013018065e-02,-1.259166269431887756e-03,2.393566807221556491e-04,-1.668156251999463897e-03,2.966019809246063232e-01
2.822563538613855894e-01,2.044678105507943822e-03,-3.272941978595766965e-02,2.024409886772012175e-03,4.723044918898954567e-05,5.323085067065660286e-04,2.991405725479125977e-01
3.168184200112483806e-01,-4.332163918519665868e-02,1.771904559059658824e-02,-7.079473773461287395e-03,1.409378836130082552e-02,-4.344486093613403321e-03,3.350321054458618164e-01
1.424316355694403846e-01,-1.072453158815186991e-02,-5.884289352081621682e-03,1.747548261783455140e-02,6.318064521638837305e-02,1.618430765872882170e-05,1.887603998184204102e-01
2.234013633033635482e-01,-2.201912053793073087e-02,-1.032549014395872655e-02,1.267797607926531467e-04,1.100241438623142864e-03,9.651460952504392144e-04,2.398011088371276855e-01
2.733300889858929494e-01,-1.820503560275303634e-02,-1.892726437945578544e-02,4.504051595993291629e-04,-1.670236508000997678e-03,-3.652141126657279741e-04,2.919129729270935059e-01
2.559912758216315587e-01,-1.861623732188610880e-02,-1.177669770128508819e-02,-1.179575177264374428e-02,-1.463369058974453921e-02,8.850635288777041268e-03,2.736288309097290039e-01
2.712338622175096692e-01,-1.675873536514341233e-03,-2.808553724377223226e-02,-2.327105382847428558e-03,-1.738301828710723130e-03,1.083569861669433226e-03,2.870774865150451660e-01
3.860397031860541839e-01,-2.084138034142607454e-02,-1.563578451992064799e-02,-4.281740467717511794e-02,-4.736039158908974395e-02,3.680265687680436132e-02,4.239735603332519531e-01
2.713405665207501150e-01,-1.569036912611110335e-02,-2.318187262814071226e-02,-2.919316535936894615e-03,1.402208063695482539e-03,5.608306081074307392e-04,2.909047603607177734e-01
3.125970066762303601e-01,-3.067265989076545241e-02,4.998309854589849666e-03,-1.509223918723434643e-02,-1.867410797123588567e-02,2.319946588751066810e-02,3.319726884365081787e-01
2.508280534405180617e-01,-1.588396263441080314e-02,-2.880997362328741040e-02,-4.133647235727135679e-04,8.473399429477531178e-03,-8.209424171135948183e-04,2.738025486469268799e-01
2.601716466367138825e-01,-2.372540712244311512e-02,-2.453838457120471883e-02,-4.548758876109721197e-04,-4.623508950037239548e-04,-4.930904856667302043e-03,2.844348847866058350e-01
2.825011216866166741e-01,1.591448852480606413e-02,-3.861394507441226476e-02,-3.846664994309842434e-03,2.262606976451226205e-03,1.313389106500209352e-03,2.977301776409149170e-01
2.914986603623134220e-01,1.627226701520426144e-02,-4.188005820511195298e-02,-9.109452042679982986e-02,1.769906641274353321e-02,-8.908129763520499303e-04,3.478118777275085449e-01
3.793014535286895472e-01,-4.922882829108832237e-02,1.041671040372310619e-03,-1.271445010502975786e-02,-5.420184396961599815e-02,2.954382240467457246e-02,4.201665222644805908e-01
2.712194036603239322e-01,-7.016594839054660082e-03,-1.844722679383188624e-02,9.102777149817928726e-04,-1.216189238525717305e-03,3.940673142134402777e-03,2.842179536819458008e-01
4.418001296545393530e-01,-3.901322098079409995e-02,-2.174198413081218639e-02,1.293159084209674972e-02,2.927138786617714677e-02,2.965560282211574666e-02,4.784203469753265381e-01
2.740607718693908179e-01,-1.393200685783593795e-03,-1.691329518338764715e-02,3.790450217595757454e-02,1.856159396048351340e-02,2.574240888348656997e-02,2.961801886558532715e-01
2.743550552006661647e-01,-1.970483280603300968e-02,-2.186876087960420989e-02,-1.645154103365856798e-04,-1.256512851131742986e-03,2.895561230431785253e-03,2.951985597610473633e-01
2.700776918519445235e-01,-2.131220623380188084e-02,-3.095585258325382616e-02,-2.745576155224757967e-04,3.717507273297143700e-03,-1.118504246829415179e-04,2.963998317718505859e-01
2.625022752693906836e-01,-2.086743499594277684e-02,-2.970519109108141209e-02,3.720710279750912334e-04,-1.617401194980770110e-03,3.202594476168869539e-04,2.879052162170410156e-01
2.726573794423184927e-01,-1.852673344861230365e-02,-1.677730146033201697e-02,-1.616156440239752308e-03,3.329766563994421974e-04,1.297734527742724561e-03,2.903361320495605469e-01
2.713911198261553803e-01,-2.826372563397046289e-02,-2.263090801712666633e-02,-1.048356545883469141e-03,-8.378710386664309662e-04,-1.128873952333374125e-03,2.968940436840057373e-01
3.735260458295319719e-01,-4.899821922790148498e-03,-5.311783637752542919e-02,4.190735213412006416e-02,2.150262811049177131e-02,1.854862197516426309e-02,4.140844941139221191e-01
2.530904550019633104e-01,-1.573841031185826966e-02,-3.296730949454713955e-02,1.306265007380546508e-04,-3.846168204289594750e-04,-6.809322314235146107e-07,2.778451144695281982e-01
2.689527097929767518e-01,-1.376569767193815130e-02,-1.095965101917674434e-02,-5.451952650091610461e-04,-5.324868020843339387e-04,1.447880736053505386e-03,2.813401520252227783e-01
1.964480555407132345e-01,-8.162954094420665774e-03,-1.351686222021071526e-02,-1.651413018628521698e-03,-1.402365651830624234e-03,-3.789669470750562080e-03,2.074776291847229004e-01
2.622871538482963727e-01,-1.437587364476837493e-02,-2.796586714713256150e-02,1.509679507825876371e-02,8.968428709778526395e-03,4.391999329685918486e-04,2.853288948535919189e-01
2.613655145415449965e-01,-2.909023313622956242e-02,-2.349207139167697189e-02,-1.516204854135456753e-03,-1.714368451733312617e-03,-5.216262224271247562e-03,2.878666520118713379e-01
4.268700305459921518e-01,-8.517597601208459768e-03,-4.272661545752681755e-02,-3.686670225007478152e-02,-1.518304908422869965e-04,2.803903690098434598e-02,4.605028927326202393e-01
2.691695394503575423e-01,-2.438784866756657510e-02,-2.244073169656801703e-02,-8.278495581268955142e-03,4.838865562887848882e-04,1.241862542008433405e-03,2.929489314556121826e-01
2.639768810328121385e-01,-3.379166374301798004e-02,-1.845628424821355029e-02,3.261421458811790235e-03,-2.861147966092870173e-04,2.634095634371592509e-03,2.904958724975585938e-01
2.759182925107930839e-01,1.386434550180026815e-02,-3.078968283282079721e-02,-1.695255402416876844e-03,-3.909809997162578404e-03,8.348249548364265749e-03,2.874570786952972412e-01
2.678217426511985133e-01,-1.328352608260155443e-02,-9.473679471178289568e-03,-1.122659268675768726e-03,-5.767849074171337281e-04,2.701185950151833992e-03,2.792675793170928955e-01
4.359285187274875017e-01,-7.715482367873394143e-03,-4.766437212677598900e-02,-3.366689428050567007e-02,-9.997012709567982061e-03,2.647032478794053567e-02,4.711063802242279053e-01
2.578797327172514531e-01,-1.783099126062930029e-02,-3.559327802942212349e-02,-1.833894074181407574e-04,3.299377697148535228e-04,-1.286053547784028533e-03,2.850167453289031982e-01
2.480324662677985403e-01,-1.840767576687048213e-02,-2.615639074109459006e-02,-4.153297463102310905e-02,-1.280652576999813039e-02,-4.213496049680536329e-03,2.807760834693908691e-01
2.909279647982945249e-01,4.212594574854469642e-03,-3.738320681235174359e-02,2.215151159287837099e-03,2.830576170430044655e-03,-6.786446715989541759e-03,3.099015951156616211e-01
4.416580273576926063e-01,2.673796655946858447e-03,-6.353854609303721812e-02,3.680517372950746144e-03,1.492805586066844881e-02,1.304762494772971661e-02,4.768409729003906250e-01
2.719247395305579018e-01,-1.911561485643191449e-02,-2.589062195653807352e-02,-4.605669980634317408e-03,1.646938163374298339e-02,-6.567464123125475381e-03,2.961907088756561279e-01
2.714587004633771672e-01,-2.784520042683301388e-02,-1.012988742799871000e-02,4.824011874251033991e-03,6.473945361261581460e-04,-9.505530862471485605e-04,2.909779548645019531e-01
2.575212421502950932e-01,-1.690973135031487162e-02,-3.391992014304423542e-02,1.263145572168182973e-04,4.761886910528297621e-03,1.525218967002115161e-03,2.834517359733581543e-01
2.691993159902550392e-01,-2.554172123762560309e-02,-2.418758627960591878e-02,-3.208883322443801958e-04,-7.410360573022271293e-04,-8.288167958720977320e-04,2.940731346607208252e-01
2.316567608715926208e-01,-3.167387362048806887e-02,-1.458843335579147749e-02,-8.052485439423631014e-03,1.912359510827492479e-03,2.053528301347016562e-03,2.556442022323608398e-01
2.870186788054965854e-01,1.142267854939724159e-02,-3.912122035718737512e-02,-1.009443868669491866e-02,1.531830527429120211e-05,7.792276857698328049e-03,3.048366606235504150e-01
2.765322146792686953e-01,1.544617239953306742e-02,-6.234344653963699856e-02,-2.912147915406223392e-02,1.753471503726814970e-02,-7.327628458333643700e-03,3.132963478565216064e-01
1.667759288015601971e-01,-4.811167645806926907e-02,-1.756946432441774952e-02,7.793502122585073064e-03,6.826518491471190997e-02,-2.210019174098705463e-02,2.370110601186752319e-01
2.846870207868582026e-01,1.871622765245890829e-02,-6.745634450545054395e-02,-4.827903869580620760e-02,4.599409799208671948e-03,1.338915746515564713e-02,3.296656310558319092e-01
2.728914175858409008e-01,-2.404621186067802674e-02,-1.682926963234039619e-02,1.593935364979526519e-03,-5.047082829844513896e-03,3.855559834376283608e-04,2.935396730899810791e-01
2.557276158067338656e-01,-3.567577793929727070e-02,-1.794608754932563999e-02,-1.276445873348068093e-03,-2.239140828539704867e-03,-1.008303379794257999e-03,2.829960584640502930e-01
2.767584486217563033e-01,-1.851954100272695802e-02,-1.428422506078512455e-02,4.006189020221032591e-03,-1.473540118555462610e-07,-7.540444794483421205e-03,2.935560643672943115e-01
2.823174939678613216e-01,1.423410989736824395e-02,-4.295883064986452671e-02,-1.108818369770446597e-03,4.771292820063608060e-03,-2.065324113435727284e-03,3.009268939495086670e-01
2.666786656482668660e-01,-2.150753174834614534e-02,-2.238379344621455047e-02,5.530287329882243750e-05,-9.502838599394179144e-05,-1.240580799518036870e-03,2.886333763599395752e-01
3.015101127418207683e-01,1.439120835781118601e-02,-6.059313270494801063e-02,-7.171844005676733524e-02,2.339013696620541663e-03,1.102505353208188196e-02,3.541200459003448486e-01
3.287582770101261098e-01,2.107288823681703616e-02,-5.507510374493609917e-02,8.267480197303373954e-03,7.399487722581511717e-03,4.219035300262252014e-03,3.525920510292053223e-01
1.895373841144173399e-01,-9.922942021612493613e-03,-8.383978871195518767e-03,-1.353641561934344761e-02,-2.338802499469125361e-05,5.166222381680272285e-03,2.002738267183303833e-01
2.304474010412290441e-01,-1.655515935108411996e-02,-4.022691415907607426e-02,-4.645007303904807872e-02,5.419013425795448508e-02,-3.447709737274322339e-02,2.937110066413879395e-01
2.723621965227746022e-01,-2.357924732715974137e-02,-1.843106499654784125e-02,1.048104742387175395e-03,1.011514238834153659e-03,9.528538288489313626e-05,2.934121191501617432e-01
2.542471941542948644e-01,-3.624452433547306618e-02,-1.571843978937158270e-02,-1.364754061113187243e-04,-7.099244818229864720e-05,3.228584352082199170e-04,2.807925939559936523e-01
2.609723558420680711e-01,-2.954389527750687916e-02,-2.343964767457970555e-02,-1.007818037368233242e-03,-1.052323748455890988e-03,-5.906704245684713493e-03,2.877057790756225586e-01
2.891651973090727523e-01,-4.198780708013535867e-02,1.227620054053575605e-02,2.601370106559175097e-03,2.869616122521844413e-03,-2.920370299777332989e-03,3.077463209629058838e-01
2.602462769899210326e-01,-2.859136984855893682e-02,-2.246162674572338425e-02,1.888585921517359299e-04,7.417244084340500108e-05,3.229217225098584675e-03,2.858770191669464111e-01
1.459047694469253753e-01,2.492508219728198360e-03,-2.167746985900970147e-03,-7.057872578174087357e-04,-1.357170593746360879e-03,2.916037842445447833e-03,1.459097713232040405e-01
2.729990701000762909e-01,-2.073064942859924320e-02,-2.280344531415016973e-02,-1.142580523622338008e-03,1.202471910960210572e-03,-2.322442419367353697e-04,2.947858572006225586e-01
2.748618327003798933e-01,-2.771392624879885636e-02,-2.380081649577454883e-02,-1.271692046654942761e-03,-1.148232314144406350e-03,-2.213025432280105512e-04,3.006531894207000732e-01
2.714439175468267296e-01,-2.650330416893331709e-02,-2.825647928716160107e-02,6.737240762772503605e-04,1.785026990770884601e-04,4.729780901382523551e-05,2.988301217555999756e-01
2.722923400937415916e-01,-2.366401092461804800e-02,-2.116582348432374805e-02,6.683375946372519492e-04,-1.087539470081700342e-03,-1.084044174203853102e-03,2.947294712066650391e-01
2.789570048839221661e-01,-3.724157728346003116e-02,8.719449640209681052e-03,-1.934388130278808134e-03,-6.206163248104572261e-03,2.829638316780529097e-03,2.961620092391967773e-01
2.621332164566992917e-01,-1.799056828965696353e-02,-3.473236432437865062e-02,4.131406409138138201e-04,-3.388233081177047332e-03,4.013645427597716984e-05,2.889192998409271240e-01
2.791985761683902778e-01,-3.556210163070602781e-02,5.047491609515175615e-03,5.530479729392300285e-04,-3.931060446008917408e-03,1.490300836670772552e-03,2.966396212577819824e-01
2.710632897823916920e-01,-2.879747982345470803e-02,-2.393022063180286207e-02,1.784165046869102232e-03,1.513576903967060695e-03,2.497785208000789531e-03,2.975160777568817139e-01
2.607244942447199398e-01,-5.283242080795241824e-02,1.665943073317099898e-02,-1.369071013766997788e-02,-8.771085243579322677e-02,2.641801426134432473e-02,3.272507190704345703e-01
2.701853114503670605e-01,-2.582054787109674954e-02,-2.776584176731730635e-02,-2.240813259019044739e-04,-7.258890248344685358e-04,-3.810454538502191200e-04,2.969869375228881836e-01
1.162929947312501960e-01,5.339966164575396523e-04,-4.095709563237272255e-03,-3.782131077535507736e-03,-2.981718229648195467e-02,-2.092093550627917992e-03,1.291539669036865234e-01
2.777027835734398042e-01,-3.537243440293119656e-02,-1.705299235150033177e-02,7.402552301871683643e-03,2.800209459763492587e-02,2.247526665265906290e-03,3.084610700607299805e-01
2.716485387527792228e-01,-2.053374569621879697e-02,-1.903531465926036614e-02,2.273693760252889530e-03,-3.899864498399449597e-04,-2.728644200183396023e-03,2.915016710758209229e-01
2.825242644056201735e-01,-3.722380196358565652e-02,-4.080871913231337578e-03,4.361740266781319493e-03,-6.264155874469600448e-03,-1.153675006304076241e-03,3.048256635665893555e-01
2.234916755336219529e-01,7.554132607998226279e-03,-3.489722074906652372e-02,6.711900130204204173e-02,-3.876063764419433906e-03,1.326179713269610505e-03,2.667643427848815918e-01
1.591372479618372859e-01,-7.957163358675342635e-03,-3.503257181066642134e-02,6.921565174322744096e-02,1.444973338896950350e-02,-2.573388933645325352e-02,2.239715903997421265e-01
2.719886835350597831e-01,-2.416530218847699751e-02,-2.398768128694130086e-02,-3.057610490440227920e-04,1.210116529670267078e-03,4.359633369964653875e-04,2.960740625858306885e-01
2.708197714033168113e-01,-3.197850772235698302e-02,-2.214315471676241154e-02,1.594208691602215988e-03,-4.765221368554984531e-04,-2.862392200272868229e-03,2.980575263500213623e-01
1.746350289709262815e-01,-2.126418297757844134e-02,1.867414019641763095e-02,-3.982807175002519087e-03,-7.955939988232532678e-02,7.615791762880063168e-03,2.266238480806350708e-01
1.739146805110967364e-01,-5.768939575766171557e-03,-1.155770710536754842e-02,-4.208039810258997057e-04,-1.930760653744000369e-02,4.036171948158381526e-03,1.858160793781280518e-01
2.250356180911827486e-01,-2.173323404644147971e-02,-2.149017754523174784e-02,3.251437731533343700e-02,-2.865571253631295917e-02,4.695440883864197270e-04,2.578189373016357422e-01
2.704436643906188986e-01,-2.103277950331230994e-02,-5.850616345456985390e-03,3.595336037544683916e-04,5.671039642247063806e-04,4.250608684837946238e-03,2.842873930931091309e-01
1.407953603775886908e-01,-4.233575199424774449e-02,-9.183279217378569059e-03,6.485346906707631365e-02,-3.378147982713403802e-02,-2.794080408715827329e-02,2.166757732629776001e-01
2.473255185246185373e-01,-1.428655245597854062e-02,-3.349834764922685060e-02,3.142614797525135513e-03,4.664717218792972103e-04,1.851193373909585044e-03,2.718024551868438721e-01
3.182768608645534236e-01,-7.908605078453811998e-04,-5.335095931593417107e-02,4.202586441825652969e-02,1.419144052282308999e-02,1.455119754227069025e-02,3.575960397720336914e-01
3.449469902630064588e-01,-2.311215354451451320e-02,-3.124777399687223012e-02,3.786340187094970611e-02,5.275236604583061900e-02,2.814250467890300200e-02,3.918589949607849121e-01
2.689156080910793389e-01,-1.493923215823700357e-02,-1.189400127178652511e-02,4.630352371671809554e-04,-1.960932764068305887e-03,5.264859543834167141e-03,2.825133204460144043e-01
2.703133896953396897e-01,-2.493822185392850777e-02,-1.400210643458779658e-02,-2.035398513965927980e-04,-2.935118642814930207e-03,2.970988196142920843e-03,2.900287210941314697e-01
2.697321167128899355e-01,-8.487058604471631185e-03,-1.693900233419756707e-02,-9.873641943057604071e-04,-1.645871724774823630e-03,1.553624683156208880e-03,2.825723588466644287e-01
2.731053894612271993e-01,-2.339964031868067840e-02,-7.900141284263556551e-03,8.468583830661508775e-04,3.106839102984878132e-03,3.150043892024227427e-03,2.891723811626434326e-01
1.456204472925530513e-01,-3.965934805645117411e-03,-3.903122913280171469e-02,7.910963726087950898e-02,2.112887225795644780e-02,-8.313045750366350461e-03,2.217488735914230347e-01
2.749310410728266207e-01,-1.886031955211273092e-02,-2.554297379098267873e-02,-4.809320983843514427e-04,1.353693101184401892e-04,5.008672522463001285e-04,2.971915602684020996e-01
2.651148966671796892e-01,-3.023724835205576777e-02,-2.424164919806275076e-02,2.777597568485514444e-03,-4.372404477703863970e-04,2.850868656899239323e-03,2.924827039241790771e-01
2.874419469376897629e-01,4.846046208557747148e-03,-4.382929394297901959e-02,1.313646944148260526e-02,1.058504198411461565e-03,4.357700887885415306e-03,3.107462227344512939e-01
2.634459487773287978e-01,-2.284011873775700086e-02,-2.908827657096764441e-02,4.432481236965635230e-02,1.566638144552328412e-03,-5.564787852567525984e-03,2.996361851692199707e-01
3.179959149880973723e-01,2.075311746580396632e-02,-5.171509630902321186e-02,1.671002051143023834e-03,6.450941669943436631e-03,-4.802426833043239689e-03,3.396292030811309814e-01
2.662481017665164207e-01,-2.458766280090386724e-02,-2.451260230573661103e-02,1.573358017381158973e-03,6.389742219781733082e-05,5.854544017108364792e-04,2.908127903938293457e-01
2.290046982163399247e-01,-2.396068838777305754e-02,-2.235791201528598837e-02,1.426654051018069833e-03,-1.917776423674638284e-02,1.761911767038646911e-03,2.543764710426330566e-01
2.751852248017726543e-01,-3.401858030975082881e-02,8.083085763188183059e-03,-2.982399728814548153e-04,-5.979281790305475061e-04,-2.573830958611257255e-03,2.904871106147766113e-01
2.734992715275382791e-01,-2.105996536398056784e-02,-9.675325634435710809e-03,-4.179707785628657135e-03,-3.993408015692094699e-03,2.073772591021107690e-03,2.892307937145233154e-01
2.709974923268146929e-01,-1.846374224858719770e-02,-1.109616466236898469e-02,1.200992969864505449e-04,-7.375896978392467579e-04,-1.403353398632953665e-03,2.858619391918182373e-01
2.721325194111116064e-01,-1.345508096791663000e-02,-1.446957755069067098e-02,-8.451373556789486784e-04,-2.109746365399530529e-03,6.101345211405637993e-03,2.863183617591857910e-01
2.741554466542701629e-01,-6.790363508297245221e-03,-2.219252057457560268e-02,1.591089467868517758e-03,2.460032563212824919e-03,6.449713940211480867e-03,2.892152965068817139e-01
4.014214087495229788e-01,-4.273212948012930501e-02,-2.634601453519072600e-02,6.685355884053036102e-02,-2.266705312680921888e-02,-4.254123978048576088e-02,4.589572548866271973e-01
2.704199476694837401e-01,-2.178449024905143583e-02,-2.337747075584871437e-02,-1.834999598702004124e-03,-7.011398617545998996e-04,-9.342452848247635982e-04,2.930283844470977783e-01
2.145801029345911215e-01,-8.751251861305459068e-03,-2.925951290722157705e-02,4.565391065397219131e-03,-4.780574692288706851e-02,-7.076516021305477924e-03,2.488906383514404297e-01
2.733116175484597288e-01,-2.850587937708927433e-02,-1.906094063959955232e-02,2.441659311827807603e-03,-3.347562144034304989e-03,2.206599802119443843e-03,2.973188161849975586e-01
2.769007033403860785e-01,2.317768622791538391e-03,-3.120999550833561398e-02,-3.769678893803657220e-03,1.284021717112899218e-03,-1.702824653849067905e-03,2.928861975669860840e-01
2.761797458306508024e-01,-1.804618365528941337e-02,-1.858272160608399892e-02,-3.421467296957390186e-02,-2.234423621839025723e-02,1.041310998145739998e-02,3.034173250198364258e-01
2.748127099476099233e-01,-1.875867495671734719e-02,-2.059362590384050673e-02,1.689603011552567955e-03,1.739994282853703916e-03,-2.006454517141503249e-04,2.945232987403869629e-01
3.016458570991731314e-01,-3.917253473409187947e-02,-2.640241320641242839e-02,-2.103959740919069538e-02,6.014699862609271253e-02,-3.896655537143028925e-02,3.587535619735717773e-01
2.716779556356906378e-01,-9.489224907476140336e-03,-2.264039875723947159e-02,-2.585723407086450328e-03,6.512899486287506844e-05,1.860156099679632132e-03,2.880209386348724365e-01
2.706381419732032945e-01,-2.071779695444250780e-02,-1.962814610040095054e-02,-3.661610831280705009e-04,9.962762030799542610e-04,1.005825019855683192e-03,2.908236682415008545e-01
2.116407505418359258e-01,-1.080364555722035380e-02,-2.016138372661156752e-02,2.035023726177189081e-03,3.825416926046727034e-02,5.181447668322699748e-03,2.369256466627120972e-01
4.115650869016099223e-01,-6.955873258808892290e-02,-9.248112518449785879e-03,3.217751806060709791e-02,6.730446739420322018e-04,-2.607026711612108263e-02,4.596163034439086914e-01
2.818153851990281566e-01,-1.416939901238759014e-02,-1.180198361075530944e-02,2.705228364683562054e-03,3.286521261579834763e-03,8.944742744366199205e-03,2.953070700168609619e-01
2.744131485278330507e-01,-2.925832158901209290e-02,1.684310893838816825e-03,-3.184796543309180352e-03,2.519915608970213841e-03,3.007130976360556426e-03,2.895755767822265625e-01
2.688638244263257260e-01,-2.728525723093520872e-02,-2.484880992439415792e-02,-6.056208064930326297e-03,1.505778348245280637e-03,2.004562165432898841e-05,2.951364219188690186e-01
2.842577623355930783e-01,-3.934608499523170599e-02,8.974174651130081837e-03,3.597384478244219718e-05,2.429528721222386743e-03,4.672938817012885909e-03,3.024911582469940186e-01
2.688689378486374126e-01,-2.814120413875152715e-02,-2.516769382239372743e-02,4.372983712139856842e-04,3.589912141508456219e-04,-8.127477559720831671e-04,2.955395877361297607e-01
2.709837484774758609e-01,-2.455333916562334184e-02,-2.360008892789548784e-02,-1.149577178605306910e-03,2.219635878668835250e-04,-1.451578765120220462e-03,2.950792908668518066e-01
2.609700878748839603e-01,-2.664398242587652510e-02,-1.692754677839357347e-02,-4.020192778495371155e-03,6.997908280789454788e-03,-4.957016094717385697e-03,2.833563089370727539e-01
2.839356317161156884e-01,-3.419215849465226387e-02,-9.161344598459575383e-03,3.882394941669926880e-03,1.184644987227732524e-02,-5.602128951479593520e-03,3.072933852672576904e-01
2.809301049926862248e-01,-1.999676720278235897e-02,-4.404464371230862318e-03,-1.051628467781679475e-02,-1.271025499646169510e-02,1.264414107633497590e-02,2.956416904926300049e-01
2.810951712611650111e-01,-3.282120963547885406e-02,1.317628311206023306e-02,-1.596675537898837541e-03,-5.756434057779109999e-03,4.880778774711602708e-03,2.939360737800598145e-01
2.696409642567831888e-01,-2.056814260706323061e-02,-1.873041308855666331e-02,1.080749728489684147e-03,1.516073148104895912e-03,1.000843589731347319e-04,2.893126308917999268e-01
2.129261745248406945e-01,-1.756851431894942972e-02,-1.896760547395183460e-02,-3.934460236006779438e-02,5.971953293697362941e-02,-3.108957803673386561e-02,2.677595615386962891e-01
3.224607908999221895e-01,-4.635524727115336585e-02,1.556990846631323144e-02,7.439600593697463793e-03,2.936426515410504867e-02,1.398379665732043392e-02,3.469300568103790283e-01
2.933518888772584932e-01,-5.878478744076823248e-02,8.976989374512869824e-03,4.373807470658678392e-02,5.406981225910589828e-02,6.820459327657207860e-03,3.455137312412261963e-01
2.772777286395534113e-01,-1.510180976426429844e-02,-2.266800726886228357e-02,3.392051720444903481e-03,-3.556633840415235033e-04,-4.778339081112821692e-03,2.964095771312713623e-01
2.939872116325547013e-01,-3.164406353847346032e-02,-2.163576239015940761e-02,3.456654977686497016e-02,5.418237587300288316e-02,7.027968895848824699e-03,3.397304713726043701e-01
2.658700464180082657e-01,-2.119665911388442237e-02,-3.415079073625719441e-02,3.144121041084949834e-03,4.469266281799611808e-03,-1.880935545847035135e-03,2.939285635948181152e-01
2.778171889579355014e-01,-3.169274550389838963e-02,-1.737034463579684163e-02,-2.411114602408700623e-04,7.921501391245070259e-03,7.848686909450161347e-04,3.029172718524932861e-01
2.032139751010511586e-01,-8.440169185633936144e-03,-1.664872240105712276e-02,5.051450210853349401e-03,1.985567559759781817e-02,-3.373564761197435282e-03,2.188507914543151855e-01
2.642791309019203450e-01,-3.460018054646360475e-02,-2.023985619304680128e-02,3.917846855782647873e-03,-3.117719766967543644e-04,1.388290900036876765e-03,2.920533716678619385e-01
2.558901875638094903e-02,1.530159279009573638e-02,2.255585345727480553e-03,1.649017569735566555e-02,2.983664519044801344e-02,5.270024951534301328e-04,6.243017315864562988e-02
3.154487283006878195e-01,-4.539729373243830968e-02,-1.856420391374621892e-02,4.660430544955670301e-02,6.091007846623162914e-02,2.371056723852476081e-02,3.749397695064544678e-01
2.699941393431184444e-01,-1.856722446928427139e-02,-1.859905557905310036e-02,1.873979424763948416e-03,6.643745950702718318e-04,6.615007663342847453e-04,2.886001169681549072e-01
1.522305251282090044e-01,1.366337331775852038e-04,-1.125085014935421623e-02,4.304464030926907010e-04,1.512745191313666360e-02,1.525907583489772841e-04,1.602539867162704468e-01
2.876111392066519890e-01,-2.944547427362934067e-02,-6.562556629008051146e-03,4.329940785598720282e-02,9.543983660516570933e-03,2.815138959335336533e-02,3.194818198680877686e-01
2.709373263094511097e-01,-2.760040881764370957e-02,-2.207992557276279577e-02,1.454780051109084982e-03,-1.058369579175926379e-03,-2.094598963536772104e-03,2.958547770977020264e-01
2.785578606132607660e-01,-5.430831942606598184e-02,-8.783945822374850110e-04,4.610754097155365938e-02,9.889111490259426540e-02,8.667503326294524399e-03,3.630579710006713867e-01
2.691926370825652448e-01,-1.717376432400277708e-02,-1.856339996046166285e-02,-1.178587351937433877e-03,5.307315284382346831e-04,1.293599232296780213e-03,2.870812118053436279e-01
2.705311642088547019e-01,-2.566374483447472765e-02,-2.340119053552683348e-02,1.647132007408582961e-04,7.766850320202665870e-04,1.148847308125508493e-04,2.950734198093414307e-01
2.713482840891089931e-01,-2.571227806272387284e-02,-2.750784791871947743e-02,1.382122182321716920e-03,-7.093138201787743333e-03,-8.884320270539499895e-04,2.982291579246520996e-01
2.660763004786836916e-01,-3.117113440640757738e-02,-2.253315292359291122e-02,3.709859718374355041e-04,5.963288116660743314e-04,9.132754305620846428e-04,2.930307388305664062e-01
3.694558213633353794e-01,6.972033903987748249e-03,-7.409433681607083266e-02,5.669210842108862725e-02,1.725735891238857180e-03,-1.543052246290977335e-02,4.215646088123321533e-01
3.740793485069821567e-01,-4.669294738035012493e-04,-4.704341309619680667e-02,4.556302598007123256e-02,1.729104048152872372e-02,1.294598583758819511e-02,4.093006551265716553e-01
1.622272404626926567e-01,-9.107559404339965470e-03,3.337448847985417799e-03,5.148292795971204372e-02,-3.463134199948252057e-02,-2.098625010496189824e-02,2.006214410066604614e-01
1.958700234971569865e-01,-9.350001880467237458e-03,-1.655954525375838426e-02,1.053637848891508626e-02,9.550775807345469621e-05,4.081719239745816227e-03,2.098328769207000732e-01
3.170148336264287381e-01,-1.979852691979214208e-03,-1.507516972989716986e-02,4.601824733018570340e-02,3.198685912156717243e-02,2.792413012725139185e-02,3.433194160461425781e-01
2.652749503508649576e-01,-3.140936821042518423e-02,-2.159668978827673780e-02,-2.026049173524674916e-03,-4.740952329965612876e-04,-1.455860668039770864e-03,2.919348478317260742e-01
2.397988557085593553e-01,-2.713420048357245706e-02,-1.731145612633512576e-02,-8.437008724891946780e-04,3.768586399165104492e-04,-6.695904011395314298e-03,2.624210119247436523e-01
2.745658060434370551e-01,-2.319661411560300368e-02,-2.376907790467842896e-02,4.492337648769267368e-03,6.514635181133515045e-04,-1.959926955452535440e-05,2.981527447700500488e-01
3.098885306795838845e-01,-2.860257079704833783e-02,2.451286483154277440e-03,-3.073442349875572105e-02,-7.361531711612208373e-02,1.429302325746481528e-02,3.531762361526489258e-01
2.610478775494241566e-01,-2.972234076137922343e-02,-7.835049235173904836e-03,-7.221212840813832478e-04,-1.151433764868256895e-02,-3.158310024980771360e-04,2.811793088912963867e-01
1.642679788317505940e-01,-2.100466948743566487e-02,2.664651195377974735e-03,-1.049684456903025864e-02,-5.227207972199508085e-02,-5.249601721684051502e-03,1.977656483650207520e-01
2.664819151861987923e-01,-3.399010485029982376e-02,-2.275049632925754683e-02,-7.850488197351934304e-05,6.564534264866499083e-04,2.607695367568910790e-03,2.950496375560760498e-01
2.689009278937994907e-01,-2.861133634795144653e-02,-2.649581156086561196e-02,7.640083248358903309e-04,2.708956266010923027e-04,2.135478165150632435e-03,2.964865565299987793e-01
2.269112381086625940e-01,-3.551220936366793202e-02,1.525861257614238853e-02,2.907361575494451372e-02,-6.725296167727239094e-02,-3.458969304109300348e-03,2.725085020065307617e-01
4.452390310509020122e-01,-7.610490342940257058e-04,-7.439977477067183376e-02,1.189855330433871143e-02,2.764549934682988125e-02,-1.508650223523520795e-02,4.904915690422058105e-01
4.364687181191051479e-01,4.778604347557668941e-03,-7.638511519078150513e-02,1.830512496531885164e-02,1.078483976422795268e-02,-7.928388625400932185e-03,4.790868759155273438e-01
2.707555550113016629e-01,-4.657527808906899991e-02,1.590814173517265950e-02,1.369689767878713021e-02,-5.008825820559993647e-02,-2.175712370628483851e-03,3.047599792480468750e-01
2.813870585387588941e-01,1.668413139841992687e-02,-3.841813380439890180e-02,-9.716442364804021240e-04,1.933014619828817005e-03,-4.189250317239214005e-04,2.961489558219909668e-01
2.823864314341669735e-01,1.136306486740376598e-02,-4.074056411574741854e-02,-1.546508071029049219e-02,-1.211932136805101735e-02,8.717212543598093846e-03,3.027802109718322754e-01
3.830649664278540367e-01,1.142613610968316873e-02,-6.887651091616056598e-02,-7.311046204139115545e-02,-3.176732906801817483e-03,1.516547496873491170e-02,4.372221231460571289e-01
2.729700128894702038e-01,-2.449402137053781348e-02,-2.264992953394158459e-02,1.182778750416029877e-03,6.861715664990994347e-04,3.977448570241915826e-04,2.965565323829650879e-01
2.566531770016986513e-01,-2.507198551632704164e-02,-2.329541197309263623e-02,1.179229309807356199e-02,-2.507422655695185423e-02,5.042034861229685583e-03,2.850461602210998535e-01
2.822608430031739446e-01,-1.518886947833239520e-02,-2.044649486084815226e-02,-1.405513561811464265e-03,1.089028949603047152e-03,-9.016116190360216540e-03,3.005348742008209229e-01
2.988044161447043212e-01,-2.010809573412500328e-03,-4.542875596166906504e-02,4.940862179150601330e-03,5.222370904184041492e-03,-7.133755652394923111e-03,3.251821398735046387e-01
2.766938935745197892e-01,1.614789053965906551e-02,-3.739361743637961699e-02,-1.830235118491997399e-03,2.203565998828141501e-03,3.034302682142986634e-03,2.911239862442016602e-01
1.841293264876910085e-01,-8.111777941528494629e-03,-1.880093542230959480e-02,1.670043919457574189e-02,-1.328875564359768141e-02,4.489981237680555452e-03,2.013771682977676392e-01
1.508955282263657049e-01,-1.895632720776176117e-03,-1.076531003606111259e-02,-3.246214593054064495e-03,-1.962243812923187766e-02,-1.817431769694408247e-03,1.611696630716323853e-01
2.720344810118803802e-01,-1.867949284860524750e-02,-4.977361916477907045e-03,7.626516225489512329e-04,7.742096205973446593e-04,-4.071614021789906127e-03,2.842045724391937256e-01
1.953682382801461836e-01,-4.889633470305951302e-03,-1.686584470001385727e-02,-1.604009789083412317e-03,9.216943047115492887e-05,3.254306239585638433e-03,2.066022604703903198e-01
4.076899652737242530e-01,-2.164519789916580228e-03,-7.358576166479077751e-02,3.711644154142566127e-02,1.574857764027682780e-02,-2.289348484435066097e-02,4.569499790668487549e-01
2.695814667057331304e-01,1.641262266258380897e-02,-6.434877681829934137e-02,-6.483587796246080559e-02,-3.187200650962662002e-02,2.001174147529564962e-02,3.285165131092071533e-01
2.873135932339341281e-01,1.051059697979385421e-02,-4.507953093078878593e-02,5.875586990776282548e-02,4.910267915663554805e-03,-1.628768242199962052e-02,3.260715007781982422e-01
2.134760328351279768e-01,-1.228604786065277954e-02,-2.206393473045492604e-02,-7.507845720110770463e-03,-2.798680724489329861e-04,5.918945246792402595e-03,2.314001768827438354e-01
2.723769846128933914e-01,-2.079646502501641958e-02,-1.510162875368073476e-02,5.313634495408264130e-04,-1.502908610418717374e-03,6.314364915538993268e-07,2.903810441493988037e-01
1.491240580435596597e-01,-2.491294232813551224e-03,-1.314506012895844123e-03,-1.087394483002738013e-02,6.981479777347604325e-03,1.870027681686196007e-03,1.527141928672790527e-01
2.151042457306548417e-01,-1.477014278540209058e-02,-1.662778204951019523e-02,3.544677222267912826e-03,1.722622008477371278e-02,-3.832795192746708737e-03,2.329049259424209595e-01
2.703244914873021432e-01,-2.871223314001136728e-02,-2.597377751625357112e-02,9.043347408511481344e-04,-1.187416958782640686e-03,2.568969365400009669e-03,2.977214157581329346e-01
1.952230140689481808e-01,-2.825036956088509965e-02,7.736269659104483276e-04,-2.228867972374444159e-02,3.775437807674759949e-02,-9.542137934198209256e-03,2.243576347827911377e-01
2.835294264202991021e-01,-7.778557080894490938e-03,-2.440874028078927893e-02,-6.708670670691726894e-03,-7.094862378252381196e-03,9.831493776270667714e-03,3.009275794029235840e-01
2.590757163446857914e-01,-1.837469948300754496e-02,-3.477748765586601010e-02,-2.347267547992747745e-04,-9.426256096729423615e-05,6.020868115957261121e-04,2.860070466995239258e-01
2.609635145062733641e-01,-2.561747132237812696e-02,-2.594075402808118658e-02,-4.001936434659798488e-04,-8.212980505677919610e-04,3.927199638848789115e-03,2.868278026580810547e-01
2.577175298781900770e-01,-3.359816895351346033e-02,-1.656208172794515487e-02,5.400277271395428902e-03,2.798407272052216084e-04,-6.020702673614941776e-04,2.833390235900878906e-01
2.546015805186916392e-01,-1.769831539757454886e-02,-3.356698243865198494e-02,2.044111414056468134e-04,-3.552494000266584288e-03,2.211854155127626100e-03,2.806648313999176025e-01
2.166294157997570580e-01,-1.107451058194335036e-02,-2.245353044645516383e-02,-1.475910991915817911e-04,-7.511100622040274913e-03,5.183077733649859957e-03,2.341356724500656128e-01
2.696502903536907025e-01,-1.911648919375931455e-02,-1.873482640589062276e-02,-1.945897566804819477e-03,-5.699522017861302116e-04,9.858073423967537476e-04,2.886025607585906982e-01
2.781022337034692038e-01,-2.461874486617049440e-02,-7.877837862196965246e-03,-4.195850431645450386e-03,-1.813997989363867660e-03,9.118936546758686298e-03,2.952364683151245117e-01
2.727765310218016603e-01,-2.342754389604968790e-02,-2.733193118240673236e-02,1.247197191053904921e-03,-9.598767224529370160e-03,7.076774890806722092e-04,2.986489236354827881e-01
2.692769872654229291e-01,-2.052994446429494413e-02,-1.769935292116675551e-02,-1.104013200358613857e-03,-3.943383825454526630e-04,1.296494992370293827e-03,2.884179353713989258e-01
2.029646322540823444e-01,-5.254802225056615095e-03,-2.038025576122910743e-02,3.793305911763537354e-04,-1.865615051173375935e-02,3.761494770950330694e-03,2.186791300773620605e-01
2.666021685720962875e-01,-2.928531158569835924e-02,-2.390474024994941604e-02,1.703910479933001213e-03,3.320186776287707003e-04,2.460656199417282902e-03,2.932806015014648438e-01
3.021968397110278981e-01,-3.802654983611059025e-02,-3.206849286451132763e-02,8.069436882799377320e-02,-3.706813709098359666e-02,-4.321090474772332907e-02,3.781782686710357666e-01
2.377972536617247723e-01,-2.672172691579725867e-02,-1.780507705700244692e-02,1.048625240289169543e-02,1.472070273108962764e-04,5.862222405345325280e-03,2.610061764717102051e-01
1.635985838540667814e-01,-6.944302063662019520e-03,-7.002858602729186699e-03,1.281187345196735036e-02,1.447786043338590567e-02,-2.388224730025965449e-03,1.738770604133605957e-01
2.575570892025387248e-01,-2.741803797693083411e-02,-2.153971850627889317e-02,2.058388889593944487e-03,-1.034091178440442980e-03,-3.916648173021874610e-03,2.821916639804840088e-01
2.730478946451294631e-01,6.645680153761684972e-03,-5.528166461260333731e-02,7.480558516188771934e-02,-2.477369383885760085e-03,3.454032020792780801e-03,3.288533687591552734e-01
2.771177897969950843e-01,8.125527453104075537e-03,-3.270976718030885189e-02,3.162427427208883059e-03,3.281744748094544278e-03,1.857766570084429811e-03,2.916871607303619385e-01
2.204808479262161947e-01,-1.063203188680648947e-02,-2.771187036992307784e-02,-1.722115096991769841e-03,-1.156844452863469916e-02,-1.756138637648545697e-03,2.409811019897460938e-01
2.726454593883856914e-01,1.249246053576874571e-03,-2.908787700400382314e-02,2.746532722456663383e-03,-1.284389902660944185e-03,4.274155675473826932e-05,2.878145277500152588e-01
2.797161591951330406e-01,-6.624109302459102455e-04,-3.321028790841923373e-02,2.784070931560714886e-03,2.248825048621575385e-03,-5.610700825446813698e-04,2.980546951293945312e-01
2.358426098672643523e-01,-2.185749967622062362e-02,-2.159685345815268165e-02,-2.132545064164415721e-02,1.026938346000964147e-02,-9.066394163368615700e-04,2.608168125152587891e-01
1.365277629013588456e-01,3.854767416157492410e-03,3.360029475918339947e-03,-1.351755778591690960e-03,5.506511827032065646e-05,7.496472654793813039e-04,1.329480558633804321e-01
2.529895595272939057e-01,-1.785605558656509773e-02,-3.412346259669006565e-02,1.684220558815478427e-03,-2.360495156463833857e-03,1.178500153356784163e-03,2.793874144554138184e-01
2.726462065545182112e-01,-2.534966487165032922e-02,-2.699568438450000718e-02,-1.848234084527904802e-02,3.747316706243865357e-04,6.033271314952557297e-04,3.005346357822418213e-01
2.724008990807272879e-01,-1.999454410771411839e-02,-9.412335206006705590e-03,-1.191257861914175593e-04,-1.087749585747918970e-03,-9.338365540230951500e-03,2.877118289470672607e-01
2.782730227914622656e-01,-3.239778342331722794e-02,2.143370332847296944e-03,3.415710249383348794e-03,6.908309028508211047e-03,-1.114362974476621783e-02,2.958534061908721924e-01
2.635407832733036582e-01,-2.162088591181372810e-02,-2.839652033456840918e-02,-1.381389129551422552e-03,1.334233568054636609e-02,3.520426779822247686e-03,2.896069586277008057e-01
3.754229601172615616e-01,-4.232798719128788578e-02,5.691423384482363623e-03,-1.335862865649196235e-02,-5.932220654860702325e-02,1.781977886567906455e-02,4.108611941337585449e-01
2.588241924045152631e-01,-1.841598136639505112e-02,-3.391232619905809598e-02,-1.450767049623582692e-04,-3.882971998046509730e-04,4.978336318841328429e-04,2.853063642978668213e-01
2.667976074774398021e-01,-3.035799065921403195e-02,-2.358922072969339701e-02,-3.518487796943864571e-04,-2.715030492374764879e-04,6.809002105062564314e-04,2.938330769538879395e-01
2.735775986338014887e-01,-2.349591611950369030e-02,-2.317841745768399464e-02,1.670363265682871332e-03,3.392198441250844805e-03,1.893471895378793710e-04,2.969872951507568359e-01
2.740938047489941409e-01,-1.817967793805394527e-02,-2.505140209057904466e-02,2.385845359313488404e-03,3.569380337223610074e-04,1.970118752549164780e-04,2.957989275455474854e-01
2.731377080258250434e-01,-3.194054479630764609e-02,2.534786621873369450e-03,3.023718620105138571e-03,2.048308954135925550e-02,-1.814837232289281260e-02,2.932879328727722168e-01
1.496773716040423474e-01,-1.577478100385362736e-02,-3.826812022801563684e-02,-3.337309066221561676e-02,4.517719621162888388e-02,-2.834564632187922678e-02,2.085104137659072876e-01
1.795334731878514001e-01,-2.736499928899073508e-02,-2.681814120140853241e-03,6.713000184014780714e-02,-4.669409769443068348e-02,-9.587424971273683649e-03,2.421681433916091919e-01
3.260285139306184354e-01,3.638694494034061533e-04,-5.162485092162966138e-02,6.582158602348715890e-04,9.711847583627183922e-03,-1.569971928470435818e-02,3.559703230857849121e-01
3.258425192846864937e-01,1.117680438001678045e-02,-4.944961354003435394e-02,-5.979429226121729495e-03,6.164035365481435914e-03,1.646579238918684110e-03,3.492799997329711914e-01
1.620006630209818443e-01,-4.694654920352535343e-02,-9.770715064893645274e-03,8.620047489188570333e-03,4.543093304632064844e-02,-1.864519116013517441e-02,2.114969193935394287e-01
3.101638558384048339e-01,-4.816453854194641115e-02,1.166217760228245581e-02,4.658467390012663127e-03,4.751702185056229377e-02,-2.282560474855270180e-02,3.448805510997772217e-01
2.705011388105761361e-01,-2.209571463350998299e-02,-7.937290248232753420e-03,2.310011497721554995e-04,-2.513279174027015662e-03,1.744589518218990021e-03,2.858301997184753418e-01
4.495668505533763071e-01,-2.602943989036698991e-02,-1.451832481124079588e-02,-2.596076248835079391e-03,-6.421029087754063537e-03,2.933486977060872566e-02,4.728373885154724121e-01
2.763377791988443910e-01,-3.047281504864160495e-02,-1.549306947352661890e-02,2.433331513437527686e-03,8.253606142409291094e-03,-1.529010095146327367e-03,2.999838888645172119e-01
3.148797649769865536e-01,-6.703914051219350689e-02,1.298345718396506920e-02,-8.488566928203855264e-03,-7.273584188914995752e-02,1.374734148037982245e-02,3.719652891159057617e-01
2.183136338210781013e-01,-2.060416707546629256e-02,-1.506299871936089829e-02,-3.898709040470090675e-02,-6.878085427203190286e-03,5.730593625647697684e-04,2.459500432014465332e-01
2.897343077870669914e-01,1.881626843465683541e-02,-4.894356878698238877e-02,-3.071386252286117946e-02,4.182724447902780480e-03,8.316435653452145102e-04,3.150078058242797852e-01
2.692637767873314880e-01,-2.282559524275512564e-02,-2.909878202208791842e-02,8.517676743180608266e-04,6.971636523652267187e-04,-2.369596707103373973e-03,2.953106164932250977e-01
2.606901150399404954e-01,-9.500107080667952175e-03,-2.654400707252077551e-02,-4.417890958800673243e-03,-2.342807164218913343e-03,2.820973419303067151e-03,2.792798578739166260e-01
3.259889401310813728e-01,-1.312096475366911208e-03,-4.631419920329685191e-02,-4.513150365219956335e-03,2.355185538741247885e-03,-1.476546698342646145e-02,3.530045151710510254e-01
2.707977206849503382e-01,-2.951258548135186899e-02,-2.463183520148919115e-02,6.042289254719636175e-03,-3.878331968930255093e-03,3.339816095941467670e-03,2.982154786586761475e-01
2.206317429376536132e-01,-5.325516642890033847e-02,-4.510268624556182382e-03,7.862083582582245211e-03,8.050600858404692584e-02,-2.219230575414281662e-02,2.917980551719665527e-01
2.680754369655103386e-01,-1.257046950533954877e-02,-1.068002682080525234e-02,-3.413284988426319244e-04,1.649583483725025731e-04,2.554155126813823125e-03,2.797412276268005371e-01
3.797107269088020320e-01,1.537581387790039333e-02,-5.525864324451651433e-02,4.274157651843332739e-02,-3.437722499069612025e-02,-1.867683721723868359e-03,4.153313338756561279e-01
1.900774655006901848e-01,-4.008715240216315090e-03,-1.587248471766918023e-02,-7.782634005812917284e-04,1.326353336499361962e-02,3.602317775058090470e-03,2.016960531473159790e-01
3.771945883724042159e-01,1.080199696484807070e-02,-6.889097986259057338e-02,-4.549533797726995621e-02,-6.241372327152938659e-03,1.376094345748217138e-02,4.203425347805023193e-01
3.869635302306808633e-01,-5.505723995479105959e-03,-4.808710491043055590e-02,-3.653498028543220727e-02,-3.111540395739379079e-03,2.738144918159297891e-02,4.228946268558502197e-01
3.172692902538350457e-01,-5.761662619485199976e-03,-1.120834736768230866e-02,-7.723387177480092736e-02,-5.678247291686086551e-02,2.873179934183146475e-02,3.690292835235595703e-01
2.724871894975822162e-01,-1.837326577564125929e-02,-2.578710596044053727e-02,1.869620753899192429e-03,2.109399036937994847e-03,9.532951286488052314e-05,2.946778237819671631e-01
1.739400639929279402e-01,-1.723465247534626543e-02,-4.395861527072010555e-02,3.883250993372831805e-02,2.186573448784662199e-02,2.338538795043801875e-03,2.198761403560638428e-01
2.395094966894364685e-01,-2.630906482693420867e-02,-2.129331461215148991e-02,4.845625856436299589e-02,1.560363654707575334e-02,-1.056909372604068233e-02,2.783180773258209229e-01
2.734033575650772763e-01,-2.352411394516890075e-02,-2.274678872974340849e-02,9.824601259756135085e-04,1.130490375250882938e-03,9.146642369447049959e-04,2.965551614761352539e-01
1.578576447565024909e-01,-2.886140442347528978e-03,3.591021535156301014e-03,5.285990535352452779e-02,2.464664678455612615e-02,1.111749113341580462e-02,1.881888210773468018e-01
1.384817328452132568e-01,1.291647459787802210e-02,-1.894398246132525387e-02,-6.533751253202740861e-02,1.918824126635598759e-02,-1.288808299357659982e-02,1.875956654548645020e-01
1.919819448362545533e-01,-1.538361751078803907e-02,-6.005774702752181282e-03,-9.318010844248890683e-04,1.178165831451941960e-02,4.090430926179942570e-03,2.039926499128341675e-01
2.696134261894369000e-01,-2.574202671631704853e-02,-2.342501640851359090e-02,-3.816754151602869474e-03,1.150530494016856480e-04,-4.437373152977044325e-04,2.942791283130645752e-01
3.023735899992063270e-01,-1.091450354703231429e-02,-4.599194147796151211e-02,5.860150486976353768e-02,3.847723037451608596e-02,1.984696449066711624e-02,3.553798198699951172e-01
1.498018614892779599e-01,-1.004161293344986439e-02,-2.842504125053497976e-03,-2.919769673438699087e-02,3.013335428707309555e-02,4.178644212451069345e-03,1.725832819938659668e-01
2.415676656360576657e-01,-2.571414542599363695e-02,-2.084290908834642020e-02,-3.883085179464880118e-03,1.046334821323804780e-02,6.301544912076525486e-03,2.658084034919738770e-01
2.287283290757200771e-01,-2.578330339551582195e-02,-1.712600113002046842e-02,-9.564112315723424448e-03,5.317349921999718620e-03,7.024833266890886420e-03,2.513066232204437256e-01
2.633921107659476513e-01,-1.940658227903759026e-02,-3.496667422404627079e-02,1.743865647603545701e-03,-1.396857163920514362e-03,8.281652099588493075e-04,2.909203171730041504e-01
3.325498510868685753e-01,-7.622518068009084824e-02,1.468336510805794137e-02,3.833005120996615944e-02,-6.958862052715546198e-02,-9.841909082551321061e-03,3.967696428298950195e-01
3.102437627326937175e-01,-6.332162941919924903e-02,1.231642310207627100e-02,5.074746247923964809e-02,-7.982718937162312789e-02,-2.392268809103500690e-02,3.815447390079498291e-01
2.200156014032269847e-01,-2.119202585861280907e-02,-1.742560760232798878e-02,-6.703756773296561285e-03,1.199762531761658715e-02,7.635333049349702500e-03,2.408907711505889893e-01
2.722332847579389536e-01,-1.671257982639196005e-02,-1.431337174515770472e-02,-6.772431893334624354e-04,2.343275465398570508e-03,-4.107659506037438131e-03,2.878727018833160400e-01
2.728075289346933996e-01,-2.272987651329529124e-02,-1.637315300927330575e-02,1.492805618393373444e-03,4.880485676995870332e-04,-2.206007703830223984e-03,2.924484908580780029e-01
2.698637062165045730e-01,-1.438765231653375831e-02,-1.561826291295410896e-02,3.237790912518116672e-04,-5.961293111956043986e-05,-1.022842755238300002e-03,2.848747372627258301e-01
2.907860450101408811e-01,-2.610452571158677904e-02,-5.548933479197021290e-03,6.210836695187546379e-03,-8.984216523457888744e-04,-1.743399615307485162e-02,3.088013529777526855e-01
2.807317194528873294e-01,-2.790969459384842755e-02,-4.485261857223407644e-03,3.661331062239487309e-03,-1.157381408899474905e-02,-7.819157510257926380e-03,2.986703217029571533e-01
2.743709486762014316e-01,-1.946765951100302983e-02,-1.776614637892462434e-02,1.837087886556976158e-04,1.454045327395826325e-03,-1.505683356954688528e-03,2.930141687393188477e-01
2.782568010682914261e-01,-2.845290543419948248e-03,-2.585912646920911218e-02,1.442800096494992928e-03,1.844547886443074526e-03,-2.081453705083413565e-03,2.933371961116790771e-01
2.782087366463563693e-01,-2.540761171870370427e-02,-2.083332827888736971e-03,4.835585511688722960e-04,1.041317614932638818e-03,-2.176255718649532447e-03,2.926831841468811035e-01
3.147650082558155482e-01,1.537447917716967816e-02,-4.526688194451414238e-02,-7.457316776635735181e-03,6.133628291915888507e-03,1.749063664867865544e-03,3.342998623847961426e-01
2.943714557698029477e-01,-3.161108974548909600e-03,-3.707040891901325352e-02,1.096011909967873222e-03,4.016591044563083170e-03,-1.249281813385675483e-02,3.166777491569519043e-01
2.723838636855642203e-01,-2.185241466638418451e-02,-3.040398326126608763e-02,2.631003491273681705e-03,9.160476922999939361e-03,-1.056692462067226630e-03,2.990654706954956055e-01
2.611336293919518936e-01,-2.066259671691925148e-02,-3.390967846115783280e-02,1.456097197735501531e-03,2.476166567360513194e-04,1.709106329504743969e-03,2.886743545532226562e-01
2.711930451556449628e-01,-2.070453768236413250e-02,-2.338080241397066938e-02,-1.521438081609175538e-03,1.255939105603030848e-03,-7.225571588478534642e-04,2.932674586772918701e-01
4.300569722494657632e-01,1.430568659875455784e-02,-5.863191565664613303e-02,-4.691480071086740269e-03,-6.372553890170154153e-03,3.380955498921517973e-03,4.568534493446350098e-01
2.988081344975127562e-01,-2.165981136807323959e-02,-9.792225798764694900e-03,1.087422215838171682e-02,5.077138505754426323e-03,-3.514324140198299418e-02,3.212080001831054688e-01
2.728659950450411653e-01,-3.174580915751017141e-02,-2.254151509920845897e-02,4.376483435239286041e-04,1.218451796132610093e-03,-7.550564389777418952e-04,3.001267611980438232e-01
4.199438711540189328e-01,-7.267337888362163101e-02,-4.733172794744611167e-03,2.397869256732946749e-02,1.848969607115941508e-02,-1.369680325274824813e-02,4.659747481346130371e-01
4.290860322545352323e-01,-7.039205418326641150e-02,-9.525370624148488119e-03,3.250653245360296539e-02,-1.226187316275578320e-03,-2.623021533713497389e-02,4.775145351886749268e-01
3.485198973206633521e-01,1.126392489625958893e-02,-7.427173836442851895e-02,-7.580471691292255121e-02,2.067986984291530356e-02,-1.248154103646247244e-02,4.109680652618408203e-01
2.704678090004052349e-01,2.185919655779573756e-02,-3.920279039006185906e-02,-8.118125761314826105e-02,-7.983581569621523572e-04,5.586849714634706081e-03,3.171467781066894531e-01
3.831347103654977326e-01,-2.888059193250347434e-02,-3.995610617600045544e-02,-3.041469736291609050e-02,5.756712022657199668e-02,-3.536123731166569695e-02,4.369335174560546875e-01
3.125716049817029440e-01,1.472499303989766029e-02,-5.159882731759274366e-02,-5.069823785240808352e-03,5.050575377494826920e-04,6.808612514098619055e-03,3.362777531147003174e-01
2.851833954609087618e-01,-2.652446798701565966e-03,-2.445546069677340117e-02,1.237345334433488219e-03,2.817253795045484774e-03,1.177667083999756059e-02,3.000749945640563965e-01
2.887108703394184461e-01,-1.369969283909151792e-02,-3.611172870463261186e-02,5.476097626642560667e-02,3.136981894455297820e-02,1.999394820498791650e-02,3.344844579696655273e-01
2.694884501143072764e-01,-2.128643141133113037e-02,-7.017977428916549743e-04,-1.610862574581975112e-03,-8.740972828904212694e-04,3.158795092894449777e-03,2.811196744441986084e-01
2.730965016986942606e-01,-8.885521634926230039e-04,-2.136839448168835476e-02,-1.018420942352402840e-03,-1.577542428022742386e-03,3.361802630055290599e-03,2.848559021949768066e-01
3.146623490440135229e-01,6.113413690870081463e-03,-5.033496575569770815e-02,-2.123258969851392342e-02,5.657423240394774365e-03,2.931764859428894268e-02,3.461690545082092285e-01
3.308320408376841937e-01,1.917775521782477677e-02,-6.824307399460252666e-02,3.610911462469430094e-02,2.838717161932242244e-02,9.014872491901637641e-03,3.722751438617706299e-01
2.656074784814864143e-01,-2.139284963252729987e-02,-3.093112463902844556e-02,3.144405546673415593e-03,-1.273426698375384677e-03,-7.013442972262022134e-04,2.919480502605438232e-01
3.016417806637778365e-01,-4.263590020947752302e-02,-1.097135348747083072e-02,3.609684503262592520e-02,6.535992137583203354e-02,2.063408776522066002e-02,3.558516204357147217e-01
1.549723976866951847e-01,-1.220347742544820174e-02,-2.585191727529130568e-02,2.460390470895775644e-02,5.596838964477345024e-03,1.639093369534307121e-02,1.820213198661804199e-01
3.639039345192688346e-01,-5.640253019529156697e-02,1.636480092260833574e-03,9.728564111567444828e-03,5.700623793890541302e-02,2.309520842487959580e-02,4.089805781841278076e-01
2.697271665754336079e-01,-2.267703301387598291e-02,-2.848266273226197909e-02,-4.526195069010036185e-04,7.126991530002509858e-06,-7.833193013610877629e-04,2.953539788722991943e-01
2.702639606618110202e-01,-9.203036010484791363e-03,-1.794321363088212384e-02,-1.420135531941867178e-03,8.048791233152258586e-04,8.821566901324196788e-04,2.839561700820922852e-01
1.752668837966400717e-01,-1.822226288784735415e-02,-3.666818955606304664e-03,-3.841355433460853785e-02,-6.728811520644786305e-03,-3.792953694324503657e-03,1.985935121774673462e-01
2.773664521023243013e-01,-3.400582266721383085e-02,1.181042534046490566e-02,1.620120786719696400e-03,9.776540808464555352e-05,-1.081152369623923420e-03,2.911998033523559570e-01
2.689447429641800280e-01,-2.124800768630868975e-02,-3.155565851973975156e-02,-8.636689176192979822e-04,2.333950707900412660e-04,-7.030197208204593505e-04,2.954880297183990479e-01
2.715209628636621186e-01,-2.413478943984616321e-02,-1.748918269774975276e-02,-2.007061196750345704e-03,-2.154402140917820088e-03,-1.124635796060333587e-04,2.924341261386871338e-01
2.714425905061393363e-01,-2.554513704530959883e-02,-1.808606226218505142e-02,-1.227467562803943955e-03,-2.685539668181310437e-03,9.633507037084416405e-04,2.933786511421203613e-01
2.712233974680829940e-01,-2.967839104245448278e-02,-2.388949445874881394e-02,1.901419945366731191e-03,3.080883402264331084e-04,9.710517765375136640e-04,2.980729341506958008e-01
2.765631447113949815e-01,-2.711715458577823590e-02,4.629661115433447716e-03,-3.650839140590379089e-03,-3.973871366517969100e-03,6.309609097256762417e-03,2.894745171070098877e-01
2.762995110623360229e-01,-2.444453295193968478e-02,-2.645354728868039296e-02,-6.096002892414817496e-04,-5.782989799451566893e-04,-2.392923293806682196e-04,3.017573654651641846e-01
2.708321183723411130e-01,-2.455357303202199137e-02,-2.411243085860861890e-02,-1.760595491499490411e-04,-4.587234502174397915e-04,-1.037461564135575215e-03,2.951720654964447021e-01
2.729607042220952295e-01,-1.337736011272981640e-02,-1.887862351909581904e-02,-3.220693092480426695e-04,-5.696379920516654333e-04,1.366901382901765643e-03,2.891398668289184570e-01
2.546799349765387355e-01,-2.278418012624987277e-02,-1.618587443179948793e-02,5.270112543163514573e-03,4.506190113331851044e-03,6.042459738754474069e-04,2.744893729686737061e-01
2.897255804535684431e-01,-4.222155207277045186e-02,2.065584764732410206e-02,2.690825079366189823e-03,1.472381799940564780e-03,-1.849076597813173375e-03,3.054651916027069092e-01
3.550864945764223846e-01,-7.066477128583623091e-02,6.316230921981136337e-03,-5.120561648018677817e-03,8.867492606946877909e-02,-2.286805534492524286e-02,4.238545596599578857e-01
2.645001120860483446e-01,-2.456253098483245079e-02,-2.656036746001561033e-02,-1.559821304929755409e-04,3.681766900161817860e-03,-4.646655796861282224e-03,2.902485430240631104e-01
1.687490488000211175e-01,-1.026873146558882066e-02,-5.471253525589844791e-03,-3.134599603258987534e-04,2.504432217659931931e-02,4.115952857594882240e-03,1.820558160543441772e-01
1.518964939157930460e-01,-1.366028336495808682e-02,-2.552256713600821458e-02,3.443201407902213296e-02,3.793401906119561739e-02,-8.534058789840296214e-03,1.939221322536468506e-01
9.657679939109345413e-02,-2.296099169281989177e-02,1.720241935001167594e-03,5.332359322220371969e-03,4.354185851172006488e-02,2.377814319205796573e-03,1.331842690706253052e-01
2.728871646198487988e-01,-2.231906647395869026e-02,-3.217722004721550177e-02,9.631859316712051110e-04,-4.226164800289490791e-05,-7.160609815299698484e-04,3.002639114856719971e-01
2.695160748806366691e-01,-1.820713189561133649e-02,-1.422773637840006600e-02,1.305086652710041404e-03,1.248195648865509620e-03,3.878648674466213947e-04,2.857722043991088867e-01
2.039993140760896218e-01,-1.537741091838762397e-02,-5.216965662995037833e-03,-5.752039852266263575e-02,-9.589691268207732600e-02,2.512426018516521198e-02,2.922474145889282227e-01
2.663133995450206459e-01,-3.208760953265142601e-02,-2.137494001385542575e-02,2.675928080832068711e-05,7.000823438881318209e-04,1.085379725747229272e-03,2.932000458240509033e-01
2.529019634660404359e-01,-3.000664094228872036e-02,-2.116390984913166240e-02,-6.766593374453571666e-04,-3.400425374319402186e-03,4.697529211516705827e-03,2.787759900093078613e-01
2.656698767111070891e-01,-3.155522687350792443e-02,6.754010889714209820e-03,-8.185753619467388449e-04,-3.671358292734518830e-02,1.190973878680708434e-02,2.879150807857513428e-01
2.695866653654156453e-01,-2.635390878134862003e-02,-1.774178492491369774e-02,1.122293743051656564e-03,1.312982360298045170e-03,1.086340651850995582e-03,2.917512655258178711e-01
2.728652682318568612e-01,-2.692821400695318002e-02,-1.129405030489610828e-02,6.596749858459275296e-04,-6.467208321965138909e-03,2.588051579950767164e-03,2.925412952899932861e-01
3.813818607758931445e-01,-4.294507831712715551e-02,8.324432389649305541e-03,-4.369098687677783199e-02,-4.041506296344588023e-02,1.557838789020446132e-02,4.150683879852294922e-01
2.740579325190426463e-01,-7.244222659021679056e-03,-2.251548116644105924e-02,-2.592312495482897161e-03,5.171424461875919225e-04,2.008539815466970583e-03,2.892974615097045898e-01
2.137286580619932319e-01,-2.650622155367329813e-02,6.996388695931263224e-03,-1.419046766221765399e-02,-6.418198990206243348e-02,1.296887646727894888e-02,2.534825205802917480e-01
2.926996278716184063e-01,-4.029416696405924148e-02,4.815896506028594093e-03,-1.477702580943151232e-03,-1.211621423894645132e-02,8.811752382770378497e-05,3.136006891727447510e-01
2.745883274518789996e-01,-3.170845783302331244e-02,-1.840820187498437566e-02,2.893348466986874531e-03,1.340584325049053996e-03,1.144224514322149215e-03,2.999253571033477783e-01
2.734806762502167699e-01,-2.659029991148090244e-02,-7.053188584882755241e-03,3.591492384780738904e-04,3.374661125260700837e-03,2.345215633779949849e-03,2.908828258514404297e-01
2.702827235775404624e-01,-2.587584830092257149e-02,-1.891318608455301586e-02,-1.306860207618869762e-03,-8.824096252025314703e-04,7.107638556221990665e-04,2.927546799182891846e-01
2.756226023908898703e-01,-2.340504392223664853e-02,-6.301647124225914776e-03,-1.831467273400658267e-03,1.332053886105111738e-03,2.432761221551456299e-03,2.909103035926818848e-01
4.362631903511087761e-01,-2.146062020326008901e-02,-2.556378100632580863e-02,-7.302463333717494967e-03,-1.750359798934536873e-02,3.391634074519571385e-02,4.646892547607421875e-01
2.749855983234759660e-01,-2.162129463379384997e-02,-2.166131190480130586e-02,-9.635356136855749692e-04,-2.564007909624491707e-03,1.899211677772046645e-03,2.966830730438232422e-01
2.493748450535944183e-01,-2.057216341244119673e-02,-2.775493548971755264e-02,1.567797743382277507e-03,8.216024898319641487e-03,-4.419083834217314016e-03,2.740992903709411621e-01
2.820137377228436604e-01,-3.031117048852426110e-02,-2.259539778457994585e-02,1.529938123140897003e-03,2.306776785181990572e-03,-1.588799519938768803e-03,3.085888922214508057e-01
2.858477962671751582e-01,-5.279701569189429455e-03,-1.893296728965263021e-02,2.582498344790316001e-03,3.317698137462268132e-03,2.682797339914205770e-02,3.018753528594970703e-01
4.117432177231518109e-01,-3.826822649952377198e-03,-5.091090894371280706e-02,-3.602021491637477646e-02,-7.434686567204680172e-03,2.880213480772064044e-02,4.483625590801239014e-01
2.661170302273149213e-01,-2.020620915869321410e-02,-3.330662479208768012e-02,2.555198875231999025e-04,-3.083723158057418491e-05,3.018317442191435773e-04,2.930939197540283203e-01
2.452859336768061782e-01,-2.018822598156837234e-02,-2.627742252168832615e-02,6.971309059852933560e-03,-1.132369754121301773e-02,4.841271368146991480e-03,2.696866989135742188e-01
2.843590971960875402e-01,-3.325289385098073591e-02,2.673155870015514468e-03,4.004157019064829084e-04,-1.666471786294871846e-02,5.854747723662780297e-04,3.026419579982757568e-01
2.662154527350773514e-01,-2.458110850633561661e-02,-2.103180340340345122e-02,1.040521876995685038e-03,3.719498253600515697e-07,1.428894889520051527e-04,2.890439927577972412e-01
3.124557337118953337e-01,-4.545308590757049516e-02,1.222032345650234109e-02,1.492535348154864008e-02,2.985985952658578354e-03,1.332514116238535211e-02,3.346802294254302979e-01
2.906957492293864576e-01,-2.772359188309847511e-02,-9.387166610277358769e-03,-8.670419493611953785e-03,3.976440954665389632e-02,-7.674983938529505653e-03,3.178589344024658203e-01
2.532622735494470811e-01,-1.781969789654791470e-02,-3.529289820782396947e-02,-1.759680396925255696e-03,-3.595876254804878172e-03,-1.718558830783113549e-03,2.803290188312530518e-01
2.760604897781417377e-01,-3.238110957341933105e-02,-7.555788704136784384e-03,2.328294334770744396e-03,-7.659543495012712672e-03,1.535194477607894998e-03,2.971442341804504395e-01
3.594338259037448413e-01,-3.347157591671848231e-02,-3.032830701288261044e-02,6.707111126188666783e-02,-2.739016727088025571e-02,-4.425229042161944043e-02,4.180557131767272949e-01
2.820502331226811821e-01,-3.078518718978076607e-02,-5.145719452823951934e-03,-1.001333289778165089e-03,-4.031926347570747270e-03,1.095662066802272332e-03,3.009282648563385010e-01
2.525469767311012692e-01,-2.666953854146709990e-02,-2.344960716514297994e-02,3.386664526308753257e-03,8.587808859162170279e-05,5.731255595359862308e-03,2.778599262237548828e-01
2.910359341336425376e-01,-3.841951053904177349e-02,2.048582806565391046e-03,-1.763236672125484406e-02,-5.678411325325578851e-02,3.167233190505347462e-02,3.323575556278228760e-01
4.490759988728656449e-01,-6.201172290360268402e-02,6.085625800199889746e-03,1.018981118774465143e-02,-8.513410425418609095e-03,7.172517997385079690e-03,4.813807904720306396e-01
2.783620792572991109e-01,-3.727751874640397589e-02,1.192934973250585340e-02,3.754466218261674933e-03,-3.884867025351345336e-03,-2.415981943942551932e-03,2.943180501461029053e-01
4.103944930741291186e-01,-7.083762402585788709e-02,1.479376180024555287e-03,2.165550177681242403e-02,-5.130370573360147103e-03,-1.496316567673653709e-02,4.518521428108215332e-01
3.069814310955304992e-01,4.188035455289701448e-03,-3.917312164415986953e-02,-9.772497890787108787e-03,-3.236414872647526680e-03,1.249459186222044195e-02,3.278410732746124268e-01
2.940609892290820260e-01,-3.975475417302523629e-02,2.157396566615253641e-02,-3.574021832807309368e-03,-6.914270758235412095e-03,1.173098510542154929e-02,3.087333142757415771e-01
2.594790756396774256e-01,-2.193771266123320518e-02,-3.134768664116731329e-02,-2.357627560440783785e-03,3.906067367283642781e-03,4.760287633404453218e-03,2.864655554294586182e-01
2.636904244623887728e-01,-2.592259923127060439e-02,-3.214426938897044228e-02,1.770304586264888954e-03,4.782951190701238003e-02,4.799485509898531420e-03,3.043974041938781738e-01
3.064306554791106363e-01,1.529920450768676443e-03,-4.512754781641167834e-02,-1.233493853252581873e-03,1.064630725924171732e-02,-1.447327755017657411e-02,3.321751058101654053e-01
3.116489574515483585e-01,-2.614154380280689360e-03,-3.205096838263307713e-02,-2.542820063824191481e-03,-3.742682787016564003e-04,-9.049117069863037849e-03,3.303698003292083740e-01
3.100450991733733619e-01,-5.776537416701860161e-02,7.740653909201963834e-03,-9.026593364755496063e-03,-6.762864672925443521e-02,1.531993385386494315e-02,3.607647716999053955e-01
2.765120758613260898e-01,-2.663912538703801236e-02,-1.639496792799365055e-02,1.865554526602321381e-03,-5.368651470008187210e-03,-3.505105615769196813e-04,2.983242273330688477e-01
2.797883596410469798e-01,1.143236197409454313e-02,-3.453472043953331738e-02,-2.907855838051699726e-02,3.758664506999183363e-02,-2.076372182322443194e-02,3.074602484703063965e-01
2.742635224494480717e-01,-2.621106848216148144e-02,-2.222629259467179264e-02,-1.199517919241560246e-02,1.341367748706074649e-02,-1.038155062969542365e-03,3.001303076744079590e-01
3.311403587069081111e-01,-7.608958329996556857e-03,-1.841700738837359630e-02,2.613600717622424283e-02,-5.065184201055105209e-03,-2.776058626749048144e-02,3.506669700145721436e-01
3.216479520748197762e-01,-2.685570035560888580e-02,-4.543512606903091222e-02,-5.375653049849246461e-03,4.600317045307178443e-02,-4.321182081146045240e-02,3.745828866958618164e-01
2.626148788852452620e-01,-2.423886536553261639e-02,-2.277282194923828385e-02,-1.971208012359572902e-03,-2.322539175497612737e-03,-1.204615615811252278e-03,2.861797809600830078e-01
2.854158005326804526e-01,2.036458427833658102e-02,-3.720411268905809976e-02,2.123009834217778110e-03,-3.472346791505613942e-04,1.237696270527467203e-02,2.988283932209014893e-01
4.095852547135534483e-01,-6.196424880439321825e-02,-8.389072901532790283e-03,3.112277211245412928e-02,6.831851912974351397e-03,-2.656500305140396118e-02,4.529115557670593262e-01
4.429623142397812186e-01,-4.338063405360700897e-02,-8.909297540608068777e-03,3.682455367399320228e-04,6.767446102945974757e-04,-2.302839655580130387e-02,4.717473387718200684e-01
1.472444435148524966e-01,2.951132928704358616e-03,2.010921071755114586e-04,-4.111896100299989969e-03,2.621540390182201547e-03,1.229750366293503282e-03,1.459479779005050659e-01
1.488698902194983409e-01,-2.690835359652116177e-03,1.186924010889531256e-03,-1.083798491072058938e-02,5.905161278406125328e-03,1.854069325227853402e-03,1.512127220630645752e-01
2.433977832859416934e-01,-2.951448777848092453e-02,-1.740043120261210163e-02,8.366826686759603129e-03,3.274439486043125209e-04,-4.118233560696103919e-03,2.675499916076660156e-01
1.566347412233450864e-01,-1.242980823174598404e-02,-2.646466441931144553e-03,1.830516211784976796e-02,6.984743714239153786e-03,1.588828073609385542e-03,1.678799837827682495e-01
1.319398774344538450e-01,-3.921216764650589659e-02,-2.554310224532841539e-02,2.337414445765717552e-02,-4.446651782045262652e-02,-2.177708974491003938e-02,1.900893747806549072e-01
2.472094947481046079e-01,-2.030533497357532580e-02,-2.642507350570917624e-02,1.209655432353786688e-03,-3.629462280705119705e-03,4.852878437976205356e-03,2.708381712436676025e-01
1.540884482479255024e-01,1.059999563566463299e-03,-1.447599198215611394e-03,3.592073445647042153e-03,5.947978143475953156e-04,3.497949970297476677e-04,1.544275432825088501e-01
2.119197264975314354e-01,6.297885248214632470e-03,-2.793610923230180343e-02,4.208012646057528866e-02,7.542833385803965687e-03,-4.578915885873066118e-03,2.367221117019653320e-01
3.126219991902759454e-01,-7.068939367879892299e-02,1.835433721309966126e-02,-8.026703180363036622e-03,-2.554350157955567052e-02,-9.974281048984394438e-03,3.509616553783416748e-01
9.018314422427101129e-02,9.245719875351627454e-03,2.455393582140689979e-03,-1.450269518986890046e-03,-1.855456421241534481e-02,-3.532447088086611330e-04,9.047688543796539307e-02
1.703509974676165883e-01,-2.744492934845632615e-03,-1.207617296960887543e-02,1.653373700004262536e-03,-1.828672962205028438e-02,3.457263551789727107e-03,1.808636933565139771e-01
2.616374205700318645e-01,-2.264789624863029760e-02,-1.825802028265316457e-02,-4.908703218002975419e-03,-1.891346327266810873e-02,2.217814299228090466e-04,2.841390967369079590e-01
2.673731358234093802e-01,-2.501828158799879187e-02,-3.485139786092851522e-02,-2.567068952442198848e-02,-3.171081354433406743e-03,5.622993136074262059e-04,3.007866740226745605e-01
1.567371379810855447e-01,2.737956764359276984e-03,-3.813064001355170873e-03,-1.410931515997954251e-03,1.084719670909550619e-02,6.760978962022062659e-04,1.585176438093185425e-01
1.660830462980325828e-01,-5.347583867978122907e-03,-3.880273021892657881e-03,1.203059780916483981e-02,1.034323650739085894e-02,2.903306387528896589e-04,1.729001998901367188e-01
1.655190723744089931e-01,-6.187540159999838085e-03,-3.834097759409724193e-03,7.588909660831607770e-03,8.277263019090383769e-03,-1.678725261481121408e-05,1.716476380825042725e-01
1.524375481435418234e-01,-9.464845891480472284e-04,-3.019028200684288621e-03,4.974307305874543436e-03,6.757635011321101726e-03,-3.990296955274820999e-03,1.552670150995254517e-01
1.477862043394129188e-01,-3.942113593645608927e-03,-2.470557867387875028e-03,1.526411150835066052e-02,3.004729400271798599e-03,7.895157813699361666e-04,1.533893942832946777e-01
3.114781169862740340e-01,-3.831909152570286969e-02,-3.068343527504041601e-02,7.774635267669531558e-02,-4.402263461044435972e-02,-4.020243456127247511e-02,3.854109942913055420e-01
2.203595897718421404e-01,-2.204907252092798420e-02,-6.911211828953239822e-03,1.351847228663785160e-04,1.706854283449584647e-02,7.720356605809468396e-04,2.370599359273910522e-01
2.753614735832648486e-01,-2.925240204460041737e-02,-2.484877230249618596e-02,7.911351873946105649e-04,-4.063303461291979972e-04,-2.864320703942247869e-03,3.024807274341583252e-01
2.301334692242489599e-01,-2.068621288480811116e-02,-1.771302363323676299e-02,2.692026186656185332e-04,1.698244431504820819e-04,5.935570373109892196e-03,2.495588362216949463e-01
2.574824779258999552e-01,-3.064193963456531000e-02,-1.778456356764578083e-02,5.374244224288103958e-03,-1.884793421563131250e-04,-3.936438050628049933e-03,2.821519374847412109e-01
2.356091200327658230e-01,-1.225322692080486886e-02,-2.841613214165966683e-02,-1.804981557567707543e-04,-1.047450069244282300e-03,-8.157576541834742805e-04,2.563367784023284912e-01
2.650472186062929891e-01,-2.841318918759068446e-02,-2.484606583545893865e-02,-2.877133006651528104e-04,-6.366334827426856167e-04,-1.638058973897429027e-03,2.917095124721527100e-01
2.661356102961796033e-01,-3.012683525129242201e-02,-2.482658692850561732e-02,-1.954671878868463305e-04,-7.111598231421370790e-04,-1.414734366441700074e-03,2.936612069606781006e-01
2.630547074491463855e-01,-3.128023617972683357e-02,-2.291343585301705565e-02,-1.297532024609730165e-03,-9.681452651331852715e-04,-1.001576247219934093e-03,2.902607321739196777e-01
2.335031670154659456e-01,-2.604681429596546194e-02,-1.328044568453884411e-02,1.538073082509167078e-02,2.587526702520171525e-03,5.800055458142184921e-03,2.550418972969055176e-01
2.858123626821156282e-01,1.056884083324412249e-02,-4.503822564868095735e-02,6.249543504473975553e-02,-2.153018046154398304e-02,-2.135146332624021648e-02,3.295936286449432373e-01
2.714116399119071987e-01,-1.957243878166932405e-02,-1.787349830303081033e-02,-4.773943914026961867e-04,7.900631192485254705e-04,-1.787057653068622283e-03,2.901592552661895752e-01
2.940363509856579460e-01,-1.357170594632342575e-02,-4.780504152181080935e-02,8.200509689254263657e-02,-1.801042994251718724e-02,-3.266089093587453557e-02,3.614870905876159668e-01
2.667405044522782598e-01,-3.145435539965756033e-02,-2.357845159947573321e-02,-1.184103993431251476e-03,8.536220357216513926e-04,-1.013254986985039378e-03,2.943520247936248779e-01
1.739700223776740329e-01,-3.451437134515858429e-03,-7.964606226835077574e-03,-1.025510698015637571e-03,-1.508672208389831570e-02,-3.095293448431454559e-03,1.816980987787246704e-01
2.543623675980854482e-01,-1.905597677720875793e-02,-3.088684714069742099e-02,-2.817740468275119203e-03,-4.771251316143888636e-03,-3.083804503939666791e-03,2.797373533248901367e-01
2.301862404703181875e-01,-2.110800021517722502e-02,-1.769567876351525737e-02,3.445984294447607815e-04,1.714476152819616921e-04,5.707223962004112638e-03,2.498021274805068970e-01
2.684713570247765357e-01,-3.404454971172153621e-02,-2.058234488593013722e-02,-5.701274024850407477e-07,-4.677692582971048826e-04,-2.099442234356871124e-03,2.960379123687744141e-01
2.699893280541454388e-01,-5.779997797692920658e-02,9.214578219774713363e-03,2.749480968112003737e-02,-5.824610647754004111e-02,-1.578990925875474113e-02,3.211912214756011963e-01
2.460203756458038127e-01,-2.173523982962499712e-02,-2.369315772235856821e-02,-7.541888171443822527e-05,1.175751546915030407e-04,5.809012365424075230e-03,2.689283192157745361e-01
2.198683279273551117e-01,-7.191913055614396200e-03,-2.510468939842666614e-02,-2.709774824896153417e-03,-1.066517349859071040e-02,-5.174714991167660497e-03,2.374617904424667358e-01
1.687409652500427015e-01,1.287689700076241617e-04,-1.071417123311613206e-02,4.092050660527002739e-03,-2.084889929158538838e-02,1.103102214895676243e-03,1.781398653984069824e-01
1.953393676664666456e-01,-4.312855593580716684e-02,-1.701508245950257570e-02,5.256600032813807388e-02,-4.515187696503129150e-02,-3.797396230510063919e-02,2.646759152412414551e-01
2.736411030289603308e-01,-2.358936096732593135e-02,-2.360638455224353671e-02,3.592258038826297295e-03,1.657342148356427203e-03,2.899916448173278649e-04,2.973183691501617432e-01
2.676046999569771101e-01,-2.914767919718504186e-02,-2.554813264147606788e-02,-4.539712555117169680e-03,-1.508828268958197980e-02,-2.869133673545008235e-03,2.962705790996551514e-01
2.740313447455615670e-01,-1.351051112308945812e-02,-2.496629063365755907e-02,-1.855792986152217817e-03,2.330491735945583193e-03,-2.525185694861261949e-03,2.935154736042022705e-01
3.982692031148594713e-01,-5.295862079159568969e-02,-1.327797273210390427e-02,4.878323454038821505e-02,-3.537831793820578330e-02,-3.566644875459274583e-02,4.494292736053466797e-01
1.699648941175440353e-01,-3.906281515501069945e-03,-1.189506557864651592e-02,4.724130478081818921e-03,-1.822280620307866264e-02,4.078618908405664059e-03,1.810996830463409424e-01
2.753827649840029923e-01,-1.243071711246243605e-02,-2.912606188546110197e-02,-6.424107533279655759e-03,4.903848919827509881e-03,1.143895237775708002e-03,2.968507409095764160e-01
1.882151786817390648e-01,-1.244004320434791144e-02,-1.711416912763295828e-02,-2.723846003140866986e-02,-2.389489383083769763e-02,-5.672053014999053032e-03,2.127380222082138062e-01
1.495450378530730484e-01,-1.889831083330455186e-03,-1.109831001155281438e-02,-1.408668693572832920e-02,-1.006465757509344625e-02,-1.468953933162446459e-03,1.591146439313888550e-01
2.702089759073725839e-01,-2.410697140292299145e-02,-2.500300452126107131e-02,4.637477321443347726e-03,-4.281369373501026695e-04,6.811655408244670935e-04,2.948777079582214355e-01
2.727427539990113781e-01,-2.898023849508850336e-02,-2.527529707646763990e-02,6.774086811292461072e-04,2.265101487666713160e-04,5.423442137464274011e-04,2.998917102813720703e-01
2.108464569161364877e-01,-1.947808784360607892e-02,-2.798020128840179865e-02,-4.856594865772510816e-02,-4.633182612008500401e-02,3.404632054016596548e-02,2.684646248817443848e-01
2.299866186881904806e-01,-2.695023783204610057e-02,-2.389945096899102894e-02,-2.760117163090334419e-02,2.027434451265619150e-02,-2.704260091414223627e-04,2.622228860855102539e-01
2.730127342035220672e-01,-2.832445831210557430e-02,-2.632883658101772828e-02,4.125945935298430721e-04,-4.579782401289942155e-04,1.437113917882158363e-04,3.003463447093963623e-01
4.193383760076803690e-01,-1.139508929874349930e-02,-5.287501537230948623e-02,1.259064088069636496e-02,2.704438580075728404e-02,-2.870625562040822476e-02,4.585418403148651123e-01
2.760471085834661498e-01,-1.343655063296865515e-02,-2.685029943523291329e-02,-8.201946567519078496e-03,2.092438710439251549e-04,2.356842466469565297e-05,2.967587113380432129e-01
2.887774468600172728e-01,-4.760455285860665242e-03,-3.346966893842315272e-02,-2.012729368489003454e-02,-1.109127526105348552e-02,1.537746725407602467e-02,3.125855624675750732e-01
2.731523848063325266e-01,-2.306423637649508696e-02,-1.876223498751138086e-02,2.453288383013828527e-04,1.739398760409082995e-03,-6.996770313963529683e-04,2.941074669361114502e-01
2.726550802551297448e-01,-2.343509109932918888e-02,-1.785746685019784508e-02,1.100026838341076505e-03,4.056889014188146689e-04,-7.348004919754246717e-04,2.933509349822998047e-01
2.609368799295725960e-01,-1.981962885809269992e-02,-3.163138654113346881e-02,5.480570010883621624e-04,2.373688613998451141e-03,2.640952047772698354e-03,2.869123518466949463e-01
3.546467769250044588e-01,-2.793711859883166171e-02,-4.327284465170519456e-02,-2.829887826827437447e-02,4.568930120057324712e-02,-3.498917107679887922e-02,4.059686660766601562e-01
2.652302816290499909e-01,-2.411284008406527901e-02,-3.094349349599363752e-02,2.137272291992541647e-03,-1.710893328725510143e-03,3.600588164039581884e-03,2.929230034351348877e-01
2.722670564886161548e-01,-2.075511945504109057e-02,-1.709510487532674150e-02,8.157158117610833255e-04,1.398295696981724642e-03,-1.316443274086834215e-03,2.912318408489227295e-01
2.804963943612249766e-01,4.619876175231754645e-03,-3.301545166111527485e-02,-6.410810083713735022e-03,-9.442491741408765016e-04,1.891375149106280318e-03,2.967215478420257568e-01
3.320198147025539281e-01,1.568325050685627498e-02,-6.582150355091501148e-02,6.986583222981611677e-03,9.918376940089224797e-03,-1.117267082973151700e-02,3.651175498962402344e-01
2.726669544434119352e-01,-2.308498627726611463e-02,-2.372347153997500513e-02,1.132344133532700494e-03,-5.824022418481556362e-04,-1.333798034419835443e-03,2.960889339447021484e-01
2.731108383422206076e-01,-2.604089063140177518e-02,-2.357395911588461290e-02,-4.593289774086212196e-04,8.208378740273318888e-04,-1.024587052298962335e-06,2.979303896427154541e-01
3.143433765883180131e-01,-1.494232489483725279e-02,-3.628505935173387265e-02,-2.447831380441794526e-03,-3.494883129739932009e-02,-2.953132980005544056e-02,3.495868742465972900e-01
4.111695109582276242e-01,1.006069747484014676e-02,-7.182639663480083758e-02,5.673085791084370166e-02,-4.529658318203784277e-03,-1.116702638715078022e-02,4.588357508182525635e-01
3.212348926954605721e-01,1.478506380444588597e-02,-4.161343213528226337e-02,8.812620269903014393e-05,4.040517856736125166e-03,-5.054980562396770363e-03,3.383803367614746094e-01
2.869519880452738869e-01,1.312634076630102287e-02,-3.934845246289375709e-02,2.441490543633489940e-03,1.389690722274038170e-03,1.156122915731015634e-04,3.035238981246948242e-01
2.791306474366620494e-01,6.776579478546193580e-03,-2.511173876745151357e-02,2.247821347818043138e-03,-9.074453242630402434e-04,1.147433015840444367e-02,2.903293371200561523e-01
4.605627454573320567e-01,-8.913488698218036133e-03,-4.664918218486518997e-02,2.725264067109095523e-02,2.052751269680665874e-02,3.054622679683853884e-02,4.958219528198242188e-01
4.236293539079891146e-01,-2.906360671501526105e-02,-7.458572757583686874e-03,5.039314911541305925e-02,3.898056544320185196e-02,3.811059213708971327e-02,4.605989158153533936e-01
2.948366907727424935e-01,9.955855009222580598e-03,-3.016208434366274282e-02,-5.251236645553548910e-02,-2.707261852887547782e-02,2.368176257935721701e-02,3.261123597621917725e-01
2.923414295871724633e-01,-2.055563362887757872e-02,-1.824209582501903903e-02,-5.315982179714006176e-03,-5.820810060130382491e-03,1.054359860756360137e-02,3.125795125961303711e-01
2.587670400156331096e-01,8.252094963342587741e-03,-2.818451988573628109e-02,-4.326189601817499730e-02,-6.790637097256052579e-03,1.759516026800836408e-02,2.826573252677917480e-01
3.604836529580873750e-01,5.240864959163607506e-03,-6.878657012491268263e-02,3.741636955688440458e-02,3.013548053617400024e-02,7.002202937793359366e-03,4.062593877315521240e-01
2.692367521563816535e-01,-2.419770282837283015e-02,-2.394415297503849072e-02,-2.922850270778985446e-03,-1.766819393111867913e-03,-8.011818933596937149e-04,2.933706939220428467e-01
4.215795938245278096e-01,2.118072170182555558e-02,-7.283650827042026377e-02,-3.483751521483832020e-02,1.875235686439048061e-02,1.016891486864893515e-02,4.602271318435668945e-01
2.763677160791409015e-01,-1.623616909011545151e-02,-2.797357444523301817e-02,3.788398806450371872e-03,-1.241245554081999661e-03,-6.224012808911592561e-04,2.987273931503295898e-01
3.016206747472049976e-01,9.529377350913650901e-03,-4.743630172072094142e-02,5.798741695435375570e-03,1.058932655320663635e-02,-1.046601408572260354e-02,3.255264759063720703e-01
2.769946843553562355e-01,2.048491142783784302e-03,-3.248547781917096589e-02,5.517339041041772855e-03,-2.095321114614549329e-04,1.988424090231744740e-03,2.939154803752899170e-01
2.815209551089822293e-01,-7.033574940781869844e-03,-7.738726546374585791e-03,-5.435670038964827977e-03,-6.204698652464520590e-03,2.147772673967724213e-02,2.916431128978729248e-01
2.728421410907596600e-01,-8.150635084786958529e-03,-1.559877917363373945e-02,-1.295250471214148390e-03,-1.739610722102866158e-03,1.214220686111987073e-02,2.855900824069976807e-01
3.146481968130245277e-01,4.782135425225583769e-03,-2.240860532387226045e-02,-1.934873060749451451e-02,-2.380163803220122429e-02,3.293677840360879905e-02,3.335550427436828613e-01
2.984835434491688311e-01,3.712155121750201903e-03,-3.554596525713130117e-02,-5.054478377224196073e-02,-2.556717259115155391e-02,3.260475676748839785e-02,3.358840942382812500e-01
3.028485577894889369e-01,1.830806894959277620e-03,-1.803808613567070562e-02,-4.784058608764208548e-02,-3.894123631614878484e-02,3.135035414931598013e-02,3.336934447288513184e-01
1.703000390456295143e-01,-2.181583101299976180e-03,-1.838797672203706934e-02,1.462517694205953556e-03,-1.554773868489130531e-02,3.745067377244090494e-03,1.832527071237564087e-01
4.527675245411070803e-01,8.411943323200193889e-03,-7.131692636059711043e-02,1.160885403312423431e-02,2.099614596576303630e-02,7.866726055348896574e-03,4.910692572593688965e-01
2.713806535783696017e-01,-2.193479504754453080e-02,9.517965155623336893e-04,2.071731035354421394e-02,2.385942951887215502e-02,2.424987549258223254e-02,2.908682823181152344e-01
4.483844019888740817e-01,1.453209466512755954e-03,-5.696162395756351748e-02,-3.750610777819786586e-03,7.881073133225068722e-03,2.496555591451916217e-02,4.810047447681427002e-01
2.760283147603442289e-01,-2.386279760685734719e-02,-2.267447878440378983e-02,1.174104381192775674e-04,-8.135186672543708421e-04,-6.242720223708915321e-04,2.993040680885314941e-01
2.688547563205331836e-01,-2.524640951819734358e-02,-1.710260487494497106e-02,1.863755293371233048e-03,8.982308382353911165e-04,1.579932325792540227e-04,2.901372611522674561e-01
2.714104584073019910e-01,-1.504143239383344544e-02,-1.625626854469090776e-02,-2.027753592746058594e-03,-2.233937877472268966e-03,6.400570115412803837e-04,2.871109247207641602e-01
3.528171003806666040e-01,-2.886757219969754429e-02,-1.236878350592493514e-02,6.332050368428417120e-02,-2.590680608382126687e-02,-3.060756863813849857e-02,3.956140577793121338e-01
2.731521599889341068e-01,-2.834843721661924054e-02,-1.595167287795791478e-02,2.959195359532784154e-03,2.272999368857865957e-04,-3.221022700077344329e-04,2.955425381660461426e-01
3.380075597237559015e-01,-6.891489139138190501e-02,9.869434942832266966e-03,3.563089855020704771e-02,-6.246612257427212878e-02,-1.563380644420593255e-02,3.949452042579650879e-01
3.402383544425518491e-01,-6.792421209204335675e-02,6.490809124459415158e-03,3.102186571306444346e-02,-6.549731025054655875e-02,-1.740150457067141457e-02,3.980276882648468018e-01
2.304180352216666505e-01,-2.864202618667172073e-02,-1.110877815036268035e-02,1.062594528179427837e-02,4.090136059553407637e-03,-1.433586520302876019e-03,2.515401542186737061e-01
2.724986125269041048e-01,-2.137542801783809399e-02,-2.147654197541772059e-02,-5.261041712000692067e-04,-5.244381475410843802e-05,2.742141258229071612e-04,2.939264178276062012e-01
2.041346182026919920e-01,-1.189998821717809518e-02,-2.303913086549082279e-02,4.955026823725781557e-03,-3.323493975012305202e-02,-3.408680416400708922e-03,2.293984889984130859e-01
3.060985437092020311e-01,-3.640649098894366276e-02,-2.634557657931088648e-02,-2.765948590577945593e-02,6.218336607066435318e-02,-4.009288978554523264e-02,3.642564713954925537e-01
2.672844527799618786e-01,-1.999253728486284631e-02,-2.678337498065386235e-02,-1.586069484210961625e-02,1.158287439499838291e-02,1.381713554211860774e-03,2.927250266075134277e-01
2.002943390859534545e-01,-1.341481168155007897e-02,-2.338433772582498849e-04,-5.212000041317887966e-02,-9.482483864679626395e-02,1.558977583117953161e-02,2.808599472045898438e-01
1.463648758305909348e-01,-2.260834050336543721e-04,-2.565643568064247815e-03,3.075599461763236630e-03,1.594239973017594347e-02,1.402218320967503875e-03,1.504463255405426025e-01
2.693168405867343296e-01,-3.181964389240482527e-02,-2.298345165143750313e-02,-3.164426718355882288e-03,3.325776381209988395e-03,-8.581571991769139113e-04,2.969272434711456299e-01
2.680712168062949763e-01,-2.606098195996103817e-02,-2.385673684817665730e-02,1.861987701175399107e-04,8.951113052277517943e-04,2.782225797259188545e-05,2.930405735969543457e-01
2.710909184040518061e-01,-1.958743428320247615e-02,-1.023753653834844068e-02,9.539285464335346427e-04,2.281248694279123276e-04,-1.718159998701636066e-03,2.861385345458984375e-01
3.060041382793554088e-01,2.152562047608486129e-02,-5.811781161653850614e-02,4.299997222859797304e-03,2.319959813240608792e-02,9.130665656626776872e-03,3.344371318817138672e-01
2.611188396242440923e-01,-2.716074313729573142e-02,-2.187405244549479877e-02,-3.087137050838733437e-02,5.899257221928656640e-03,-2.636928482401883710e-04,2.908139526844024658e-01
2.462981434814346671e-01,-3.204763929021650637e-02,-1.484416847682051843e-02,-5.998738742822582078e-03,2.122554459931431502e-03,1.526893439099566256e-03,2.703928351402282715e-01
2.251547862227891161e-01,1.190030131429013066e-02,-5.439697768148682444e-02,-7.750990619396501413e-02,-9.032585255185096237e-03,1.266071488753735784e-02,2.876803874969482422e-01
2.720262968685567828e-01,-1.340619709919241287e-02,-2.070050569914869132e-02,8.401352335795748364e-04,1.265216380199385860e-03,-6.106188320377635252e-03,2.893539667129516602e-01
3.564844279688865747e-01,8.972083765604640937e-03,-6.929025268795990788e-02,-6.306860207622670689e-02,5.335495794348208733e-03,1.262644461116978548e-02,4.081465303897857666e-01
2.775015667675163611e-01,-1.907899444168470460e-04,-3.264049026975565648e-02,1.033177122204639994e-03,9.013826868344899414e-04,1.169290090150085443e-03,2.952741086483001709e-01
2.754639274781269243e-01,-6.312020735995391152e-03,-2.579716564523801270e-02,5.004120747361145332e-04,-9.247782414706583708e-04,1.521768202471063302e-03,2.920240759849548340e-01
1.702528384138107809e-01,-2.036645791454679000e-02,-1.581010235038293743e-02,-2.305061916712925624e-02,-4.159297319610578275e-02,1.541861093458482546e-02,2.073284089565277100e-01
2.705295424971883023e-01,-3.152389298129236461e-02,-1.752920683007486158e-02,3.046821689834951219e-03,-2.270808870358983697e-02,5.583464067370043577e-04,2.979609668254852295e-01
2.967849145880755435e-01,-1.951144371887741924e-02,-3.855116317564147299e-02,-9.509673776141657625e-03,2.991504498025600312e-02,-9.669629108827869357e-03,3.311564922332763672e-01
2.573389988939395190e-01,-5.116009538566251846e-02,-1.133864140561180456e-02,-4.103414544425152202e-03,7.079726736181690683e-02,-2.884370732325360759e-02,3.194615840911865234e-01
2.793205945580753413e-01,-2.856877918608834166e-02,-1.310615922903278496e-02,4.660100364150201666e-03,1.600079966012362548e-02,2.894119871348841940e-04,3.018404543399810791e-01
2.578782456216248686e-01,-3.420450928077670150e-02,-1.804689275432815043e-02,-2.957280212227033321e-03,2.280286817100371163e-03,2.975573396783973319e-03,2.844687104225158691e-01
2.606987439411940777e-01,-2.775205200915616122e-02,-1.503548303547570797e-02,-3.190254403411218933e-03,7.380405897816133542e-03,-4.017755923621911182e-03,2.827363312244415283e-01
2.630340004503670670e-01,-2.815242156840318255e-02,-2.354530581105213072e-02,7.687235246841838147e-04,4.614913501571057258e-03,3.820239043539172281e-03,2.890997827053070068e-01
2.771130914781605448e-01,-1.186536891592383791e-02,-1.567117929950712085e-02,-3.511849959333994235e-03,6.328328455447731864e-03,-1.318537130518690828e-02,2.920642793178558350e-01
2.703311516631440314e-01,-1.400568839644070196e-02,-1.748649692076821582e-02,2.740489775662398601e-04,9.028277266936988489e-04,-1.557127314964245604e-03,2.861104905605316162e-01
2.829631132960794826e-01,-1.181710826511772616e-02,-3.505120807279174522e-02,-2.744748146928407354e-03,1.159328499829424472e-02,-1.739109847000853276e-02,3.092204928398132324e-01
2.756062477993336257e-01,-2.216276489825662332e-02,-2.613948885094027896e-02,-8.265861291361892293e-03,3.297327215906352416e-02,-4.383730618167596717e-03,3.055988848209381104e-01
3.085694122709404241e-01,8.201100892819640498e-03,-7.091147154846313971e-02,-5.872426751134703082e-02,3.813843616828945654e-02,-1.543926381705415518e-02,3.683302700519561768e-01
2.321897902663255520e-01,-2.967940334901908450e-02,-1.376050008213951237e-02,-9.891603746390708468e-03,4.666675605032887843e-03,4.042936776966508938e-03,2.550845146179199219e-01
1.610153874433402910e-01,-6.762421350357053496e-03,-1.077279026229141512e-02,-1.259422647425596266e-02,1.810802043456531674e-02,3.726136040099360149e-03,1.741824448108673096e-01
4.189053332905436910e-01,3.214676060259630264e-03,-6.496862688279750331e-02,-3.796783048180049636e-02,3.767488977813265166e-02,-2.826562804037189777e-02,4.655862450599670410e-01
4.129278559354261913e-01,1.618872071392357670e-03,-7.397861607593461675e-02,-3.381551985907316205e-02,2.568564146775509718e-02,-2.072251069632219042e-02,4.611745774745941162e-01
1.855287607979877185e-01,-1.690928892157597674e-02,-1.184363846735568548e-02,1.291470442950692910e-02,4.992444704479083450e-02,6.079335918971755411e-03,2.192485779523849487e-01
3.250047056314065430e-01,1.217137699112384730e-02,-6.360803794106748010e-02,2.055124039191385740e-02,3.449602593589467386e-02,-2.855754852214038159e-02,3.668748140335083008e-01
4.072577266967049581e-01,-9.754957636334271598e-04,-6.781420708664023800e-02,3.292316027678631601e-02,5.224878246029599112e-03,-1.990065541950798017e-02,4.504768252372741699e-01
3.318881447940048579e-01,1.222814165870070302e-03,-6.993314498897318376e-02,7.506452156501389195e-02,4.819641100200958150e-03,-9.625104368606739527e-03,3.939329981803894043e-01
4.312003485135986192e-01,1.107745649109731501e-02,-7.553411816524552291e-02,1.626720819920147304e-03,2.274906768840241969e-02,-7.176019523400034746e-03,4.712826013565063477e-01
2.755217013377443402e-01,-7.700494020616885371e-03,-2.525195300002384957e-02,1.095865391035012867e-03,-3.390125361277076442e-05,5.258138713307118758e-04,2.924008667469024658e-01
4.528195086169068961e-01,8.298612810618499758e-03,-6.978617632332437259e-02,1.222109759030123866e-02,2.032000003326676560e-02,6.806012488701960149e-03,4.901348054409027100e-01
3.008780762868186187e-01,-3.291772674084947337e-02,-3.966869534248490536e-03,6.551088594828917075e-03,9.243812798467361536e-02,8.906938431574730475e-03,3.586018383502960205e-01
2.737037476470942643e-01,-1.760244825648980826e-02,-1.945467524480218313e-02,4.058942526962469165e-04,-1.433780988508194520e-03,-4.524052376769837421e-04,2.922491729259490967e-01
2.720534170846546362e-01,-2.390224019577810721e-02,-2.201502599316851327e-02,1.221040094955710238e-03,3.222463273060883863e-03,2.523974159745232351e-04,2.950772643089294434e-01
2.734196827751840253e-01,-1.729325954410912414e-02,-2.098293401183652651e-02,-1.046915751110603281e-04,5.208568462913833142e-04,1.691057033614694512e-03,2.925913333892822266e-01
2.084181922351961980e-01,-2.126197202131764608e-02,-1.039974475468084802e-02,-1.858315826752181960e-02,-4.864193113551194001e-04,7.593401784990990236e-03,2.271251082420349121e-01
2.349083464264812016e-01,-9.299741315983572898e-03,-2.545507615223098485e-02,3.004045261922577703e-02,4.360591597107533329e-02,3.463133473847091956e-03,2.688708603382110596e-01
1.676673142851136111e-01,-5.976043612235262814e-03,-4.616692028207358689e-03,1.577277634262758826e-03,-6.782762003614659259e-04,4.624749425090329304e-03,1.731786131858825684e-01
2.565653586451475676e-01,-3.526961671542346022e-02,-1.726524798338877065e-02,-1.327892897339471179e-03,-6.039323653271554126e-04,-6.195619221507853375e-04,2.832755446434020996e-01
1.547137024685180662e-01,-3.070621458117268887e-03,-1.218006538306395936e-02,1.136713348761177189e-02,2.403503695962323425e-02,-1.893692108817994317e-03,1.689604818820953369e-01
1.930597686460185924e-01,-4.239397257063839963e-02,-1.998461220077152323e-02,5.313549948465830057e-03,4.827831123870885560e-02,-1.245093621289243210e-02,2.412601113319396973e-01
9.587393676820188393e-02,-2.873982227458746208e-02,-1.687028928531866812e-02,2.164376296493128113e-02,-1.016976897976336509e-02,-3.816691115343875951e-02,1.423943042755126953e-01
2.549281671802701155e-01,-2.773504954703988334e-02,-2.212053581874071084e-02,-5.074590604514776261e-03,-5.237651175441103337e-04,-3.021024080705035728e-03,2.800865173339843750e-01
1.602814975505585382e-01,-2.742081321762283863e-03,-3.058253872657630545e-03,-6.680317413278210985e-04,-3.599977412261586604e-04,-3.858019591123487690e-03,1.633239388465881348e-01
1.669925401797742182e-01,-2.681360433567744894e-03,-3.242343573126138523e-03,-1.848986455366591114e-04,1.204247975055914351e-03,1.868197973550202087e-03,1.699989885091781616e-01
9.157728086276258062e-02,6.955864522516794560e-03,-4.484820330640991448e-02,-3.149832548849754860e-02,-5.161751607180931414e-04,2.330802457403347277e-03,1.312315165996551514e-01
1.018901943252497333e-01,2.084527274197119084e-03,-3.192425235175939957e-03,-6.341267084018041567e-02,5.678530597586334792e-03,2.365326855467498983e-03,1.506409943103790283e-01
1.447258689660119724e-01,-1.446226599756991749e-02,-2.305225492665143039e-02,-4.273898279211734569e-02,-2.399812579640844129e-02,3.100057703675292847e-02,1.920228451490402222e-01
2.635681043118016653e-01,-3.099679818837207390e-02,-2.245591287608639242e-02,-1.467344012437546853e-03,-7.584353392541285993e-04,-3.412345960470718371e-03,2.904629111289978027e-01
2.529915419020334344e-01,-3.530991000497493704e-02,-1.747854170097096205e-02,-4.583386969860637171e-03,-9.002668969076510572e-04,-1.921129084502998068e-03,2.799489200115203857e-01
2.635087790998978940e-01,-3.202377642951961811e-02,-2.166209576141774062e-02,-1.121890603879424284e-04,-2.282272055252014130e-04,-1.071613759284829794e-03,2.904966175556182861e-01
2.628881221957931613e-01,-3.401304818835713950e-02,-2.002572493823659427e-02,-7.240887706213138420e-04,-1.201766555745202407e-03,-1.084107890699328048e-03,2.901767194271087646e-01
2.008736775640106720e-01,-1.122769021254538258e-02,-1.361402968498805210e-02,1.865780058632205904e-02,-9.703897072409994190e-03,5.867681473455498356e-03,2.166309207677841187e-01
2.569837613953064870e-01,-3.548964482524684383e-02,-1.772348269116390262e-02,3.371440575054852331e-04,-7.258666961130937414e-04,-1.544287904163189722e-03,2.840233743190765381e-01
9.999766815325461522e-02,6.489440760803620589e-03,6.402429604945178432e-03,-8.164523819642688710e-03,1.209263787089123049e-02,2.122147172186284337e-03,9.697482734918594360e-02
1.220579710556556480e-01,-2.054841237217312766e-02,-3.994178223684090312e-02,6.831643830347729207e-02,1.411713397263381596e-02,-1.092006582280484993e-02,1.960493177175521851e-01
1.935220316978676913e-01,-1.746312692309483217e-02,-4.729724887224104335e-03,2.080390558064440162e-02,3.446776471007277371e-03,-6.750498704197620313e-04,2.081483453512191772e-01
2.752261264613297675e-01,-2.147530888818710570e-02,-2.088334451361299748e-02,-1.352903683236033206e-03,-1.252939131416073992e-03,4.354450643564111668e-04,2.964240610599517822e-01
4.494039637331023740e-01,-2.660850302001438461e-02,-1.802787177099049454e-02,-4.003883545934172616e-03,-4.805438358371147411e-03,3.233671389312509081e-02,4.752171933650970459e-01
2.592970957079457905e-01,-3.383678029884132354e-02,-1.946877771305199900e-02,-2.587791369026283908e-04,6.258469887105130901e-04,-1.041838833449744558e-03,2.862285673618316650e-01
2.699406258516172663e-01,-1.568779434321755650e-02,-1.040929157332422250e-02,-1.815775775197348962e-03,8.174083756813943773e-05,1.541954216613205782e-03,2.830561995506286621e-01
2.583949611511410227e-01,-2.460643692109180936e-02,-2.723753615658845717e-02,-5.245090066492613494e-03,-1.995910697007018120e-03,-2.939580677828867051e-03,2.845377326011657715e-01
3.061705309744184311e-01,-3.024323595931316389e-02,-1.055817532076790133e-02,2.725268765786448971e-02,9.826174303154614278e-03,3.356381263249368085e-02,3.359118700027465820e-01
2.646913357672233125e-01,-2.371378810404640991e-02,-3.153364339476684430e-02,-1.073009280743104747e-03,3.845017199564072785e-03,2.936969769062342667e-03,2.925194501876831055e-01
2.719819598344644929e-01,-2.339424270116825799e-02,-2.621417543565171537e-02,9.533505700666706790e-04,-5.994077326991713436e-04,2.777497694937089185e-04,2.968030273914337158e-01
2.654073844322253906e-01,-2.470268298059979939e-02,-2.970163845128544200e-02,-1.618000658853805415e-04,-2.041132537082036586e-04,-6.771748751866012552e-04,2.926442623138427734e-01
2.707152151087387493e-01,-9.467897835590641242e-03,-1.499901750422338864e-02,-2.482258736215781688e-03,6.750593445619987136e-04,3.822306860578177871e-03,2.831017076969146729e-01
2.644080646954243830e-01,-2.477873378325468057e-02,-2.583959189985773897e-02,-1.254630881499795535e-03,-1.117066682875869459e-03,-1.551270534138220192e-03,2.897457480430603027e-01
2.734289350098746407e-01,-2.478558990499808712e-02,-2.081702780708132028e-02,1.383228827884264633e-03,2.424457665261704753e-03,-5.684980345773843220e-04,2.962912619113922119e-01
2.652429143201308626e-01,-2.569368814803277279e-02,-3.058347173287984111e-02,-1.576362539426146318e-03,-2.683083515137394716e-03,-3.473309332106894881e-03,2.935232222080230713e-01
2.662048285623332955e-01,-2.478745440455840110e-02,-3.055623417587272073e-02,-1.430651856050271971e-04,1.408691909321049341e-04,-1.617454424892078709e-03,2.939327061176300049e-01
2.756931699861383533e-01,-2.513393433058772053e-02,-2.474612990874192064e-02,1.562738734002993895e-04,-2.638706046456900604e-03,-7.638175443645089501e-04,3.006711602210998535e-01
2.665767960346543397e-01,-2.339315309905631857e-02,-3.154123994647813067e-02,7.806141349323759320e-04,-1.602058121239902187e-03,-9.093672095506362928e-04,2.941490709781646729e-01
2.627977746935048486e-01,-2.143721669951086095e-02,-3.306413457799008138e-02,-8.724493017327839082e-04,-5.909998947123279184e-04,-1.100442772719926326e-03,2.902351617813110352e-01
1.924566919264159570e-01,-9.211577329015313564e-03,-3.351602769407711901e-02,2.838022774620178185e-02,-3.885022484898733273e-03,6.253286606222930623e-03,2.207739502191543579e-01
2.176387925475549157e-01,-1.773834022715127523e-02,-1.606173925827331095e-02,-6.538788459269047511e-03,-7.531721409843199211e-03,-9.032338609199190224e-03,2.356984764337539673e-01
2.721094081712739365e-01,-2.286191974692276807e-02,-2.054767053414392752e-02,1.426392703288332587e-03,-7.074551059679209161e-04,-1.685518282714407114e-04,2.938341200351715088e-01
2.391899866979464995e-01,-2.805475038802913990e-02,-1.657632568235277437e-02,7.945467449984977559e-03,8.341346212833966947e-03,-3.898124654069386099e-03,2.625407874584197998e-01
2.606764107044852175e-01,-2.921096131438193078e-02,-2.078990597906059390e-02,-7.553763107374450924e-04,-1.246010981475328180e-03,-3.931648769541834162e-03,2.858621776103973389e-01
2.743729348198410967e-01,-2.694551967281880178e-02,-2.338785947301903756e-02,3.923198255025441873e-03,-1.089076433142937552e-03,-2.073564846414467991e-03,2.996599972248077393e-01
2.676611695526994739e-01,-3.247849509381620092e-02,-2.017406178898940861e-02,1.323336168412205839e-02,8.076833736747762466e-04,-2.921253939823464235e-03,2.951187789440155029e-01
2.778103125798680462e-01,-1.159542801405047396e-02,-2.407896697182283774e-02,2.317348811435350226e-03,-6.506479899144441102e-04,4.199143653832959795e-03,2.959638535976409912e-01
2.816085443890369300e-01,2.156709570622479533e-02,-3.696665214332778282e-02,-1.343084213684797319e-03,4.808665459086709565e-04,1.420190660241989374e-02,2.947543859481811523e-01
2.672369065447162129e-01,-5.287559884102344121e-04,-2.082367301173426721e-02,1.696989712676125542e-02,2.329536919323145494e-02,2.277268472124279602e-02,2.856437563896179199e-01
1.848988485707500351e-01,-4.437058005980264175e-02,3.002286540703384687e-03,1.760870199568143751e-02,-5.739681500785193125e-02,1.432183389519311187e-03,2.340236008167266846e-01
2.725489173309570412e-01,-1.826841338000187442e-02,-1.618232156624412055e-02,-1.552241993350286569e-03,3.006374569395939928e-04,5.818740698701187165e-04,2.897945940494537354e-01
2.629362618776514560e-01,-2.667960239047348359e-02,-2.262084424545308947e-02,1.601981680919256027e-03,3.778707496103674707e-04,-1.679025362717610943e-03,2.876367866992950439e-01
2.365141176610124907e-01,-2.220476810087856911e-02,-1.873775664882672276e-02,-2.578874888837559901e-02,-2.047228187513413025e-02,-4.383898253872344809e-03,2.633641660213470459e-01
1.493650709172219537e-01,-3.319203838642745263e-03,-3.596796134189193805e-03,1.879191058200855094e-02,-2.303851024654712462e-02,6.230250382868722514e-03,1.616264879703521729e-01
2.744824394312930238e-01,-2.292857233929534999e-02,-2.342761974524355806e-02,5.573271582154348466e-03,3.120344689206138930e-03,4.051183660204327056e-04,2.978672087192535400e-01
2.748669903969692685e-01,-1.717823723074698994e-02,-2.401576494086807290e-02,-2.225233620375409102e-03,3.556681475845982314e-03,-5.948108166671374313e-04,2.956144511699676514e-01
1.972554313785267188e-01,-6.343606866780482356e-03,-2.273828129788349472e-02,3.326639221779321845e-04,-1.914886050285457414e-02,-6.430601516792120364e-04,2.148508876562118530e-01
9.746943242441194477e-02,7.325953841721882798e-03,3.570874584946065466e-03,1.435189754689598267e-03,-2.225532643346686545e-02,4.744994135106598426e-03,1.001901477575302124e-01
1.377365971700003633e-01,1.459081961116999449e-03,-7.373163430081666747e-03,2.051049671940464308e-02,1.234336318802470821e-02,3.155179480653255621e-03,1.469768285751342773e-01
3.384446279520141737e-02,1.039404829926684343e-02,1.018102106470779485e-02,2.814666011605515203e-02,5.521162706804259683e-03,2.415304596823313055e-03,5.514179170131683350e-02
2.742263604321943937e-01,-2.384698486436148679e-02,-2.882404102030929061e-02,-7.103084329107844941e-05,1.571527533066308189e-03,-3.253420357423733329e-03,3.006579279899597168e-01
6.572910196750789136e-02,4.799317771639126720e-03,-3.943956721099166340e-02,-3.374358502407409557e-04,-2.129170401518452535e-02,-2.494209661108932191e-02,1.076645702123641968e-01
2.767026886363878058e-01,-3.008628880080986556e-02,-1.620377889338948940e-02,-7.297916412146272455e-05,-5.376006123794529329e-03,-3.803543580339301513e-04,3.002338409423828125e-01
1.958375241286532675e-01,-6.298546423557302432e-03,-1.650676171601628273e-02,-5.357291567257104056e-04,1.888177119420517136e-02,-2.029635803294382521e-03,2.100224494934082031e-01
2.624627435234179740e-01,-2.042145617125241952e-02,-3.473459350725653649e-02,-1.518471103060650695e-03,-5.243606802904263522e-03,-1.268786224859834791e-03,2.904677689075469971e-01
5.708704042582461724e-02,1.209101024487069242e-03,1.271366024450323005e-02,1.151562299267983036e-02,-3.233634145417378647e-02,-1.368064056712884496e-04,7.840057462453842163e-02
1.385307561425726530e-01,-6.449509849174028808e-04,-3.519996958654056374e-03,-1.052770597626486414e-02,-1.826301850624698075e-02,-3.818315010310603143e-03,1.454480290412902832e-01
2.762697197349800460e-01,-2.361517420575424964e-02,-2.108429979872235294e-02,-2.758103367025792601e-04,5.817278879150901763e-04,-1.237480673586782926e-03,2.986372709274291992e-01
2.765300577592151310e-01,-2.339422599736933062e-02,-2.518752020486746124e-02,-2.725370839423474269e-04,-1.707691126801112042e-03,-1.174424041491990700e-03,3.008467257022857666e-01
2.762671885329641697e-01,-2.408224148501006412e-02,-2.694209612363850093e-02,-2.032320867716779183e-04,-4.086539515548170704e-04,-2.526756396174666868e-04,3.017908632755279541e-01
2.773326923679785283e-01,-2.603753222387057698e-02,-2.533928174469113337e-02,-9.019160395371591393e-04,-7.512157704809879939e-04,-3.785152951100166684e-04,3.030292391777038574e-01
2.796615933109425911e-01,-1.678222587019358170e-02,-1.842606536602880984e-02,1.579303820947251108e-02,1.652672572274009426e-03,-1.826252054660085569e-02,3.002098500728607178e-01
2.744674664467960934e-01,-2.444318267107271903e-02,-1.885577796257174865e-02,-2.540956826393406427e-03,-2.144563195637410290e-03,2.309799075891704834e-04,2.962127327919006348e-01
2.761495182023113171e-01,-2.414601684377043478e-02,-2.568828902981906692e-02,-1.448606926259869004e-03,9.135942916248880781e-04,-8.810562121346075847e-04,3.010881245136260986e-01
2.770425543316727968e-01,-2.621434222891358412e-02,-2.527410807620907029e-02,-5.318335006146582365e-04,-4.561750379618737319e-04,-3.200936276061475258e-04,3.027908205986022949e-01
2.754539434233297390e-01,-2.299869931816518609e-02,-2.102136211726102211e-02,-9.812285930173648193e-04,-1.067798400435366951e-03,-1.895490003106280804e-04,2.974796891212463379e-01
2.694539158400552359e-01,-2.771886560120986887e-02,-2.808666503661400027e-02,-3.011165210125811364e-05,4.899791465740049737e-04,-3.849767012192385264e-04,2.973588109016418457e-01
2.766582186799841359e-01,-2.381527607896723187e-02,-2.434265074172622945e-02,-1.262279784351737254e-03,4.071896612236658485e-04,-1.071625353237380630e-03,3.007520437240600586e-01
2.718346251724546581e-01,-2.649442366583452946e-02,-2.653287145233990119e-02,-1.162227154768431196e-03,1.219474065741286235e-03,8.672837175397483727e-04,2.983663380146026611e-01
2.654139214790005585e-01,5.556172504139103574e-03,-2.974995129070644173e-02,-3.835349826211204016e-02,-2.079903536241882803e-02,2.108110303870428665e-02,2.915324270725250244e-01
2.673187268076233636e-01,-2.991801604513537327e-02,-2.132757502032706087e-02,6.764058316071968821e-04,1.688350263368092446e-03,-4.302051671965482701e-03,2.931476235389709473e-01
2.777111615982583714e-01,-2.632939864058231327e-02,-2.479195042773713054e-02,1.920942519847538578e-04,2.692955197463735057e-04,6.674465613441722147e-05,3.032753169536590576e-01
2.613934983352992347e-01,-6.667490510826393213e-03,-1.614606534466107857e-02,-2.640966638599848842e-02,-3.003975569687177688e-02,2.816516019919939467e-02,2.857739925384521484e-01
2.657898019935087675e-01,-1.182278639228223627e-02,-3.415875894222562825e-02,-3.021276745982365286e-02,-4.253755610903370114e-03,5.404676712356968303e-03,2.943615913391113281e-01
2.885029785945576464e-01,-1.153726897639789639e-03,-3.682511753556996781e-02,3.435153467288936530e-02,4.411970314720475850e-02,1.574022730640717987e-02,3.250060081481933594e-01
2.674551793753934259e-01,-2.156554843620872575e-02,-2.482826839129459451e-02,-5.783082956786493936e-03,1.068894243268643214e-03,-2.065009742126962505e-04,2.908444702625274658e-01
2.739461544268269044e-01,-2.391188599842568319e-02,-2.910930178288227699e-02,-6.914956454642191613e-04,2.166980045177597874e-04,-4.100994887101426446e-04,3.004939258098602295e-01
2.748524804777587871e-01,-2.392528066010557453e-02,-1.754302654005435169e-02,1.938003518817687262e-04,-4.384706386358575708e-04,1.605166436931347758e-03,2.956525385379791260e-01
2.743516535251333543e-01,-2.388918809245241248e-02,-1.917584911499328748e-02,-1.988923369697771174e-03,-2.414479813567319607e-03,4.925718760275830726e-04,2.959631681442260742e-01
2.081229644937099554e-01,-2.239766931227092639e-02,-8.493284192556405099e-03,-1.233861867745609381e-02,-6.658894333333542463e-04,-4.514255091265194191e-03,2.250489592552185059e-01
2.707009204654733936e-01,-2.372241094774966974e-02,-2.482630933323359823e-02,-6.602709024822991978e-04,2.776713077752468624e-04,-2.357439680907243151e-03,2.950077056884765625e-01
2.729287932021284835e-01,-2.482884896956651100e-02,-2.730607211075300467e-02,7.013590864542499324e-04,1.288971310072798250e-03,-1.977400533604520630e-03,2.990343570709228516e-01
2.758704494038946575e-01,-2.373021671437958169e-02,-2.963230697418035853e-02,6.213489298028292140e-04,-2.068023077707414718e-04,-9.949030121268723128e-04,3.026019036769866943e-01
9.615074614278500131e-02,-4.822876420052454871e-03,1.521355280507927232e-02,-2.230041205041447027e-04,-4.112433003384043106e-02,-3.701053652274181871e-03,1.169993802905082703e-01
3.044994372735982946e-01,1.052731372576234947e-03,-3.096699729786031585e-02,2.020822936400881124e-03,1.497122261234767144e-03,1.424898037479768037e-02,3.216356933116912842e-01
2.388046873360228917e-01,-2.181871720090149125e-02,-2.088344948018013014e-02,-9.660185936296102234e-04,-4.413494931429388229e-02,-8.429228730300453555e-04,2.711646854877471924e-01
2.879832313399232624e-01,1.269869763732082990e-02,-3.983599613263857919e-02,-2.606386764468578750e-03,4.127056452343219996e-04,4.303032369595391655e-03,3.050899803638458252e-01
2.496525752780323903e-01,-1.692268558573671589e-02,-3.255706816492054401e-02,4.835383275952994568e-04,-5.521785982354429981e-03,3.775135386567613415e-04,2.748947739601135254e-01
2.683372510817849665e-01,-2.574749678397646180e-02,-2.788429326794142349e-02,-2.027359423365003111e-04,5.394778050636157190e-04,-7.318546196746901315e-04,2.951633632183074951e-01
2.654218475843119762e-01,-3.030974420086215981e-02,-2.311698003787988898e-02,5.198264928937285784e-04,-3.288502783597459494e-04,-5.986840259257044435e-04,2.922053933143615723e-01
2.246778321831296166e-01,-2.314573715337313320e-02,-2.289345055291290565e-02,-5.209059724407272274e-02,-1.620065014768545461e-02,-8.609519293461598060e-04,2.651112079620361328e-01
2.712287722424230330e-01,-2.709446017396821560e-02,-2.794437164008463370e-02,7.601006451338660234e-04,4.343186891083480189e-04,8.217272003559372056e-04,2.987563312053680420e-01
2.818870311626447966e-01,1.457469423769980343e-02,-2.816317751820676674e-02,4.607168399242272949e-03,1.730920374362958977e-03,1.673287945845785066e-02,2.926079332828521729e-01
2.744636201684802490e-01,3.048123109114911355e-03,-2.688422612234116216e-02,1.769087344356845906e-03,-1.574283067020917947e-04,6.185754295506580916e-03,2.877684533596038818e-01
2.843988829078668568e-01,-5.323732655777249634e-03,-2.319631595315806150e-02,1.941670654515217139e-03,4.564053960227317137e-03,1.272635283620189225e-02,2.999939918518066406e-01
2.798604446561323567e-01,9.040745947634654112e-03,-3.090919162545247012e-02,-4.507030466702748039e-03,1.660725200588903121e-04,7.801831595819642279e-03,2.932612597942352295e-01
2.729494222226135358e-01,-2.934540460912529736e-02,-2.544170951034491202e-02,4.831645258187467797e-03,2.194149884693190073e-03,-1.737513056210092345e-03,3.005176782608032227e-01
2.725101396160845013e-01,-3.166842821391899210e-02,-1.979187278384478277e-02,6.463015968728436783e-03,-4.198847000845624044e-04,2.812601041172334173e-04,2.986287772655487061e-01
3.107369138034527661e-02,-1.535941044765393865e-02,8.678770142420615813e-03,3.411887393340678988e-04,1.236940724336719165e-02,2.204731228408929669e-02,5.945845320820808411e-02
2.808671817371035662e-01,1.520709959542675127e-02,-3.497128954208078566e-02,-8.059334305333849813e-03,1.185266385541818880e-03,9.757426471282391184e-03,2.948020398616790771e-01
2.033308354541580321e-01,-1.040610630016367000e-02,-2.005442545956355460e-02,6.273334986825861680e-03,-1.561728088994970842e-02,4.432542562625044029e-03,2.207883149385452271e-01
2.632764239707492404e-01,-3.255295175376599071e-02,-2.042055553362522036e-02,-1.009219762632836522e-04,9.144528207234499818e-04,1.140741848236186389e-03,2.899647057056427002e-01
2.516003064106461240e-01,-3.114664082401308320e-02,-1.733160539511113818e-02,-3.225115159120936882e-04,-3.282241841923202032e-04,3.046062615084309862e-03,2.761503159999847412e-01
1.300018662224966537e-01,-2.287837800383498571e-02,-1.724314385663824889e-02,4.106741245960263825e-02,-5.287423182493596746e-02,-3.767219037233516393e-02,2.006161510944366455e-01
2.627773135551280115e-01,-3.447879391358428525e-02,-1.815557014844165762e-02,3.737254804459247230e-03,1.573020090210908682e-03,6.759182727766730641e-04,2.895274758338928223e-01
8.563499285219523804e-02,-4.168088933911823224e-03,4.187953220980505931e-03,2.071512403068884178e-02,-2.041720013662960687e-02,-1.906649451801341842e-03,9.966373443603515625e-02
2.681323786777650708e-01,-3.015015295358562664e-02,-2.634388709315126087e-02,3.538964841971141808e-04,2.995595038594532069e-04,-6.025036103409004340e-04,2.964006662368774414e-01
5.619916664954954094e-02,9.517261448897886694e-03,-6.220798859068801812e-04,-2.828671129110693974e-03,-3.293783740345061078e-02,-3.751060755926104336e-03,7.795029878616333008e-02
1.296930146788231597e-01,-2.324266739241409585e-03,-1.183486033356363765e-03,1.856414260627867532e-02,-3.581055629767194992e-02,-1.007079539727970437e-02,1.498819291591644287e-01
3.026828891392908116e-01,-2.446804602310026500e-02,-2.504799247821604125e-02,9.127871493960744778e-03,1.367194707593022418e-02,1.342002601111313628e-02,3.294978141784667969e-01
2.821722720778788718e-01,-3.003343880327868920e-02,-1.017282720699377863e-02,3.313867174067746941e-04,9.889355365952641301e-04,3.336940359190399691e-03,3.028249144554138184e-01
3.027441683600817779e-01,-3.462893578068737543e-02,-2.052830180456197140e-02,3.187848252976815348e-03,1.059372493041851361e-02,6.743778286378350473e-03,3.313093185424804688e-01
2.771738411372294819e-01,-2.187266588370490039e-02,6.121151879671882234e-03,-3.336517753036577320e-03,-8.629522804636758845e-04,1.728784234716901694e-02,2.877034246921539307e-01
2.778114032706945347e-01,-2.701204553105467088e-02,-6.982532589761267228e-03,-3.165216440913561514e-03,-4.644736887780365718e-03,3.364289978672339691e-03,2.955364286899566650e-01
2.790032627030083479e-01,-2.624168065712374764e-02,-4.483833319871941003e-03,-2.701452746499982509e-03,6.593173368795265292e-04,8.851679920402118554e-03,2.954059243202209473e-01
2.737679134231641997e-01,-3.297923163632793253e-02,-9.610944513048141902e-03,6.828017473593765360e-03,4.422076207730579744e-03,-5.638203138369644353e-03,2.962526381015777588e-01
1.607202314820799782e-01,-2.812890800739782649e-02,-3.103277838467688454e-02,1.942411560883941513e-02,1.877249770972657175e-02,3.690103116257549727e-03,1.960887163877487183e-01
1.364076597986683126e-01,3.494254761735302028e-03,4.703000414599506351e-03,-1.344050395539904495e-03,1.650033764424630700e-05,1.325995786175868715e-03,1.323535889387130737e-01
2.283945151544267971e-01,-2.247530932163546713e-02,-1.426462844743144054e-02,1.090915330701435664e-03,1.362860031980818031e-04,-4.245410733059421134e-03,2.469837367534637451e-01
2.679663616179173147e-01,-2.841225902563455918e-02,-2.683917482929908116e-02,4.809829705552294164e-04,3.294017859140893406e-04,-1.294634697388476413e-03,2.956054508686065674e-01
2.571614170596688287e-01,-3.201757887607863118e-02,-1.812399561674735149e-02,-1.021145612448512256e-03,3.284182549546754530e-03,-2.510335972648407386e-03,2.825848162174224854e-01
2.770408975635354487e-01,-2.966456625712440842e-02,1.478179760901496276e-02,1.368149647517680461e-03,2.021931853479055040e-03,7.456320379637588515e-03,2.873959839344024658e-01
1.494777804449193004e-01,-4.480432231402978194e-02,-4.048973603243063990e-04,9.791096120742241726e-03,5.490386523680049896e-02,-1.182309236261133538e-02,2.020917832851409912e-01
2.348373929826033379e-01,-1.790262003617941466e-02,-2.050418774846071712e-02,9.836609957805962645e-03,-1.243336775858674232e-03,-1.727950732288195809e-03,2.546481490135192871e-01
2.673011099552446979e-01,-2.245435190126165992e-02,-3.091041235075878135e-02,7.157819562503310584e-04,3.073891674026916349e-03,-2.341275212494587331e-03,2.941534519195556641e-01
2.632913185262776290e-01,-2.087359703163596536e-02,-3.242860067621035347e-02,1.637155242871079532e-03,-3.432717341231325916e-04,1.546397064237625555e-03,2.901418805122375488e-01
1.283363495467986781e-01,-3.371042534903452570e-03,-1.282981282236875242e-04,-2.371823907939294915e-02,-1.658943217419754645e-02,-3.445823695091898304e-03,1.395678073167800903e-01
2.716446193043107749e-01,-2.044637450000817702e-02,-2.589115343886069787e-02,-2.558320179802176832e-04,1.605592696719677318e-04,1.039536396021587515e-04,2.948516011238098145e-01
2.653841673287473668e-01,-2.280300375104392374e-02,-2.498112936960981967e-02,-4.547055278238257975e-02,-3.865583100845613324e-02,9.930689199437918793e-03,3.076778948307037354e-01
2.617057436777013302e-01,-3.104397897760639846e-02,-2.393664512873716621e-02,-3.325683829503747442e-04,2.026358137359405556e-04,-4.928309223952920953e-03,2.893882691860198975e-01
2.728381891929823611e-01,-2.231822477569113394e-02,-1.566438828527880189e-02,-2.632513018343842458e-03,-4.106855318459400744e-03,5.123089128759961836e-03,2.921434342861175537e-01
2.273563152123213305e-01,-5.392914167263596070e-02,6.559207760927818209e-03,-2.294044338277793221e-02,-7.743666393319913188e-02,1.493150719157527312e-02,2.932623624801635742e-01
2.680629923229175815e-01,-2.266667280036580023e-02,-1.997359471770668304e-02,5.880498120374183122e-04,-2.274496689157780305e-03,-6.123131945658040779e-05,2.894211411476135254e-01
2.774733073195713717e-01,-1.609379137347757838e-02,-2.440829781645340035e-02,-5.498745586931504462e-03,-1.755974115739718580e-03,6.064313316800728874e-04,2.979810535907745361e-01
2.325553287216684806e-01,-1.201763745223077828e-02,-3.106680252004141718e-02,8.869856635131936808e-05,-9.280069845047518237e-03,-3.431516265361240700e-03,2.552085816860198975e-01
3.063687216575157191e-01,-5.498313033296392538e-02,6.938321981635409141e-03,-9.748830210975362176e-03,2.922603243069795548e-02,-1.461705498422952339e-02,3.398861289024353027e-01
2.708052785769464732e-01,-2.395512439047467468e-02,-2.512370591351609228e-02,4.087362731451052271e-03,-4.708588507321367737e-03,1.472884680714741778e-03,2.955548167228698730e-01
2.714245787670702681e-01,-2.315895327062507392e-02,-2.941125000226671449e-02,7.480385576172356122e-04,9.016632159629454739e-04,2.754239102670432283e-04,2.977662086486816406e-01
2.711062830289339143e-01,-2.636117870823484477e-02,-2.897940293530663902e-02,1.256648812465772523e-04,2.825246382337259950e-05,6.540628872646468044e-04,2.987874150276184082e-01
2.585608474311223981e-01,-2.938611697788258426e-02,-1.989687494867098394e-02,-2.031257101494989351e-03,3.700865752620949300e-03,-3.938744124064984405e-04,2.834167182445526123e-01
3.562081206662661703e-01,-3.829975296220175518e-02,-8.392463360013924234e-03,6.206487449812909691e-04,7.613313352041771453e-02,1.272428105335739190e-02,4.032466709613800049e-01
2.838434651421937183e-01,-3.266899358979327705e-02,-4.886550020776467274e-03,1.799453394254948903e-03,-5.411221249050558735e-03,1.535050902130108072e-03,3.037484884262084961e-01
2.821110204517255360e-01,-3.248973203198696202e-02,-6.637115808506899306e-03,-4.137678104989821084e-04,-2.129029348049310023e-03,-4.387814238605800563e-04,3.025283813476562500e-01
2.697451785582761774e-01,-2.857552378388104886e-02,-2.725883677142454387e-02,-5.175942090975039784e-04,-2.696668016183415332e-04,-6.777000050303028274e-04,2.976685762405395508e-01
2.714468237466456380e-01,-2.429477385576046811e-02,-2.496067868866286288e-02,3.374996172126187334e-03,4.594730694496467274e-03,-2.112762547839520510e-03,2.962623238563537598e-01
4.304656215461299951e-02,8.560945196547719432e-03,7.527235396357306527e-03,-2.465418274990984274e-02,2.038659383554776786e-02,-1.831156515572760933e-04,6.554693728685379028e-02
1.573096611189293004e-01,-2.184658046769455408e-02,6.707446629092256307e-03,1.686971717534893611e-02,4.727226629897166021e-02,3.632592449544389153e-03,1.881329566240310669e-01
2.508294797062464720e-01,-1.745005192895508761e-02,-2.452969243781408237e-02,-1.466971692686185741e-02,2.223347059849896043e-02,-5.335984425683351628e-03,2.759299874305725098e-01
2.081670014205400654e-01,-6.095922796775213315e-02,7.448974792862932126e-03,2.286894913866418383e-02,7.334276702275212279e-02,-2.529644561846824610e-02,2.798648774623870850e-01
2.656460177270459355e-01,-2.941910488665044898e-02,-2.492780687301045239e-02,8.852006557116031738e-05,2.958765456210300034e-04,-9.321626767955803507e-04,2.928502559661865234e-01
2.606991527986485258e-01,-2.281855056234619039e-02,-2.169633625299892399e-02,1.985561466292274594e-03,8.240263015987597806e-03,-4.627711071645674809e-04,2.833400070667266846e-01
2.375838050421654468e-01,-2.029820589145246712e-02,-2.286765198053324066e-02,-1.488138459666674476e-02,4.051342876233553214e-02,5.427370756967431382e-03,2.699057161808013916e-01
2.883766453808026542e-01,-3.257631621778223074e-02,-2.723487125567818079e-02,-4.949973619699037618e-03,2.613878349009497379e-02,-7.172299728865234696e-03,3.218734562397003174e-01
2.667036810104308486e-01,-2.914735129000377289e-02,-2.560376684033782713e-02,-6.482603377038392888e-04,-8.176030397662910343e-04,-1.031690971735883854e-03,2.941062450408935547e-01
2.667882823112671109e-01,-3.058049167917487043e-02,-2.480648850211256140e-02,-3.832593047190248044e-04,-5.489792675613191326e-04,-1.404969991688798407e-03,2.945365607738494873e-01
3.067825117559209169e-01,-1.185694816473782665e-02,-1.656079947221356097e-02,-1.081359713382928044e-02,-4.480284321039897100e-03,3.171008103784163368e-02,3.263122439384460449e-01
2.701923412675028002e-01,-1.477448688973451163e-02,-1.066655270444852310e-02,-2.342017065990227662e-03,-8.928518180930696945e-04,8.360978548312879288e-03,2.833388447761535645e-01
2.761367223457585340e-01,-2.481904227699364973e-02,-2.493514314483846750e-02,-2.373503854122579419e-03,-1.055561548808929046e-05,-8.369967299523698237e-04,3.010453879833221436e-01
2.764909690059932368e-01,-2.937384280283177052e-02,-2.576814335623660301e-02,-5.418247541040611248e-07,-1.256325212758480515e-03,-1.666061878885999933e-03,3.040994703769683838e-01
2.222053602356203195e-01,-1.372808666460342830e-02,-1.460947890512191705e-02,7.351927718137750423e-02,4.834279517808522803e-02,1.318527607165930794e-02,2.821722924709320068e-01
2.884248062111725019e-01,-2.584722532939695561e-02,9.781930725180174035e-03,6.501815434075984557e-03,9.674859832515163641e-03,1.926191569423364724e-02,3.005990684032440186e-01
2.697356346194509924e-01,-2.926931848000224878e-02,-2.649236613880838476e-02,-1.413210480782949724e-03,4.740007906515412289e-04,-8.554109321159400134e-04,2.976410686969757080e-01
2.732534249721109143e-01,-2.859858305968610015e-02,-2.214401999676167410e-02,2.350130704346644131e-03,4.640502668190382707e-03,-2.825187748284464177e-03,2.988529503345489502e-01
2.471737160389212151e-01,-1.392119545166124739e-02,-3.361048229817717448e-02,-5.764762345492114616e-04,-1.120352935046798649e-02,-1.452566233216074677e-03,2.721816897392272949e-01
2.405129708939025002e-01,-1.046235114350912987e-02,-3.384965648435110663e-02,4.639917908608049958e-05,-3.203082074783335557e-04,-6.173382486266264929e-04,2.634514570236206055e-01
2.408826795738843729e-01,-1.400140664070513574e-02,-3.311631826272667944e-02,-5.839085457813579950e-04,-4.154953888395003037e-04,9.645467938112190593e-04,2.649673521518707275e-01
1.504402321965137013e-01,-4.308382852526797258e-02,-5.159446604113319956e-03,6.803989197670989864e-02,-4.335332510289592600e-02,-2.960336243772854897e-02,2.317464798688888550e-01
2.837602444981021099e-01,-1.726856060127925085e-02,-2.515800868176561178e-02,-1.569520760846060447e-03,-1.880603234755096824e-04,1.113833892134868248e-02,3.056717514991760254e-01
1.680146327218615121e-01,-1.465910632980434170e-02,-6.158969612888698375e-03,-1.517328039556005079e-02,2.525408724479587686e-03,9.870583978619149306e-04,1.805600672960281372e-01
2.558869942836646816e-01,-1.587305324414545193e-02,-3.643258224628571906e-02,-1.619328288755624999e-04,-3.069985944849112805e-04,2.441820970831986453e-04,2.826022207736968994e-01
2.890273303740135136e-01,8.547489103858482706e-03,-3.193148657146199776e-02,-4.908454011989468475e-04,2.886760802652072778e-03,4.319209612728850366e-03,3.028905987739562988e-01
2.498945184510946438e-01,-1.443277048431661214e-02,-3.556309951158774518e-02,3.870721297462145554e-04,-5.213943371073372079e-03,-1.546829064585556845e-04,2.756497859954833984e-01
2.290797482728916534e-01,-1.011240473485573721e-02,-2.774844387736995210e-02,2.669656241243433285e-04,-9.048517628503813942e-03,7.827074869615492083e-04,2.489778995513916016e-01
2.706944505207473650e-01,-2.654316361786286660e-02,-2.765957008065333955e-02,-7.042616802247290541e-04,-9.937415122698454919e-04,-3.658685603637215795e-03,2.978722751140594482e-01
2.695788237527629860e-01,-9.881393081792783084e-03,-1.061273091555148262e-02,-1.016580128175427955e-03,-9.913100091470130291e-04,6.103248223498778866e-03,2.800370156764984131e-01
2.844409580765011603e-01,1.375390853372354671e-02,-3.611097511186350806e-02,-4.475038045890579290e-03,-7.468441952103581664e-04,1.281093661310873976e-03,2.988685965538024902e-01
2.633925564828278332e-01,-2.152388015402546817e-02,-2.887464186886394557e-02,-3.065189108296088741e-04,-1.262356338646818989e-03,-3.292225619102937396e-04,2.886713445186614990e-01
2.750308712503303221e-01,-2.729703554755939787e-02,-2.576803730444472695e-02,-3.685506839947317714e-04,5.508932359532430541e-04,-1.486278113752260814e-03,3.015794754028320312e-01
2.804944073424889828e-01,-3.265434190396820924e-03,-2.846211863674849574e-02,5.722815257765065389e-03,1.025926367968698185e-03,8.710879491686340879e-04,2.973348498344421387e-01
2.797168347670326849e-01,-5.840362553676745061e-03,-2.489634382060419704e-02,-9.564086884239699111e-04,-8.699378038806578842e-04,4.079427239228546748e-03,2.956392467021942139e-01
2.716529469299812094e-01,-2.262458473689313299e-02,-3.162655992699422991e-02,3.596324589386387893e-05,-4.696410974382041236e-04,-1.444324134837674531e-03,2.988917827606201172e-01
2.706788004389448221e-01,-1.633391893689579988e-02,-1.920122946640802353e-02,-2.600398650457391801e-03,-2.787389975628349302e-03,4.284112675375058472e-03,2.886280119419097900e-01
2.736387705546682869e-01,-2.539451934131913002e-02,-2.718978134846324057e-02,-3.820850735078993644e-04,1.781064739813324922e-03,-2.049145600176478441e-03,2.999725341796875000e-01
2.747944135094116946e-01,-2.727622055859475758e-02,-2.370991027606800250e-02,-1.321100718305686598e-03,-1.061082044310548370e-03,-7.239479762474886233e-04,3.003203272819519043e-01
2.502122530751701990e-01,-1.421870147793644068e-02,-3.469772346457820900e-02,-1.436215830479149877e-03,-4.259360316045303005e-03,-1.312166085708388981e-03,2.753619253635406494e-01
2.609113220146461187e-01,-2.626480097811592640e-02,-2.288709107437432444e-02,9.626054140817997228e-04,-1.050476638856572085e-03,-3.296800415993534229e-03,2.855700254440307617e-01
2.736283859704143895e-01,-2.840441521071374043e-02,-2.444788184840780698e-02,1.006870755260352293e-03,7.846655935521187875e-05,-1.267917069945812729e-03,3.000872433185577393e-01
2.694156872350159104e-01,-2.407892818880323638e-02,-1.726676066904142548e-02,2.395216556701290894e-03,1.199488369719892307e-04,-6.057401470072261733e-04,2.901801466941833496e-01
2.770976656618905354e-01,-2.478884629550111296e-02,-2.641278292346657675e-02,-9.614361006981535663e-04,-1.289031875365032357e-03,-1.240733510711952161e-04,3.027146458625793457e-01
2.749353795275099044e-01,-2.929336543725649666e-02,-2.485286906752867675e-02,1.745817261852295691e-03,1.550172442184411751e-03,-2.943820989665191148e-03,3.021030724048614502e-01
2.757904848966821199e-01,-2.589604628945761655e-02,-2.734548234360774377e-02,4.590339280853370646e-04,1.588306299235396710e-03,-1.870390813418866321e-03,3.024447560310363770e-01
2.741508431986433569e-01,-2.434231633919033133e-02,-2.681747053488953147e-02,-1.590459845108513999e-03,-6.607734429066477967e-04,-4.815538233196276592e-04,2.997544109821319580e-01
2.721749948464952107e-01,-2.094039000723951771e-02,-1.783609210336137285e-02,2.763020831913405606e-04,1.519383072615417170e-03,2.460051282714352354e-04,2.915882170200347900e-01
2.636978649392562324e-01,-2.469124558912845491e-02,-1.800759766985354782e-02,9.114262549582958714e-03,-2.087532345145655041e-02,-8.460109496589686634e-04,2.878265976905822754e-01
3.147613750023454671e-01,-1.542124523586844986e-02,-2.862830777570954388e-02,-1.415326045970520530e-02,-5.455154548574126482e-03,1.615946316166956900e-02,3.391597568988800049e-01
2.578658931799766574e-01,-2.627825522039697881e-02,-5.604991628247985025e-03,-1.146938698741882187e-03,-1.263114760868502828e-02,3.521749028163246274e-03,2.753377556800842285e-01
2.740579073139852717e-01,-1.970864893849293142e-02,-1.620854649510562739e-02,1.105656358343887549e-03,2.649826311798555382e-03,-4.944569753636715755e-03,2.922001183032989502e-01
3.200592212977460549e-01,-2.036222732459455620e-02,-1.467419037388423275e-02,8.409945706705669946e-03,-3.964026759581378012e-02,3.197449502477676953e-02,3.492507934570312500e-01
2.715681975288950500e-01,-1.595303968419331531e-02,-1.808691982671419007e-02,1.762585036017981673e-03,9.818612661151590940e-04,-6.964301257118465840e-04,2.886177599430084229e-01
2.718565214854093970e-01,-1.853884636131584995e-02,-1.451159675848531783e-02,2.513491104501764089e-03,-2.481232652937558070e-03,-7.567886964342241925e-04,2.884706854820251465e-01
2.721824283408515455e-01,-1.876364005197755924e-02,-2.209520957074330438e-02,1.448649640207093055e-03,-2.601132139043533446e-04,-5.883833445802242115e-04,2.926389575004577637e-01
2.532756272942087716e-01,-1.848970346422298960e-02,-2.736321357716950398e-02,2.348621448291232216e-03,-1.207129127183846976e-02,4.019190462405964823e-03,2.772161662578582764e-01
2.274044063519616021e-01,-7.843673667511388836e-03,-2.778003479645989315e-02,-6.263447587309710525e-03,-6.042207558787346974e-05,-7.847358585808836360e-04,2.460663765668869019e-01
2.656489583678754984e-01,-2.378440282151944585e-02,-2.684602424440192536e-02,3.179017546640407112e-03,-1.089331280375806688e-04,1.572802221009083744e-03,2.910411655902862549e-01
2.721790046184151546e-01,-2.622208886978476261e-02,-2.731374265707513238e-02,1.900827172382936383e-03,-4.630411120422111594e-03,-5.365842138709785419e-04,2.990755438804626465e-01
2.814444122657718261e-01,-3.893790244806868972e-02,-2.079687539725534606e-02,4.816955874808853330e-03,-3.519838170732714211e-02,-1.476848531171133560e-03,3.177338242530822754e-01
2.184021290473265042e-01,-5.356893489134120778e-02,1.813035829890942419e-02,3.872038655088046698e-03,-7.331019257059152860e-02,4.700196234914941901e-03,2.753966748714447021e-01
2.682976900376426999e-01,-2.574599630552835972e-02,-2.210268804640135032e-02,-3.647526874978067324e-03,1.081214727890732218e-04,-2.707495989188427759e-04,2.923077940940856934e-01
2.777895337526068986e-01,-1.588972708572296277e-02,-2.652277140488659701e-02,-2.629019603409111713e-02,1.998387799699150123e-03,1.306391609161148670e-03,3.026117980480194092e-01
2.749593923110054683e-01,-2.514513371975676814e-02,-2.832626155412364122e-02,-4.390302683583096168e-04,1.302576539877664009e-03,1.537622744329701055e-04,3.017171919345855713e-01
2.523387488242195831e-01,-1.751551619157473705e-02,-3.211708465302096083e-02,4.709663093523348137e-03,5.858899965616673304e-03,-4.998812011730182844e-03,2.778836190700531006e-01
8.952413109441557937e-02,-2.078912298209216469e-02,-3.828372014723846473e-02,-3.790903102960593157e-03,1.366056207668425032e-02,-8.690133423653970471e-03,1.234279647469520569e-01
1.833610847426198343e-01,-5.011835415333347477e-02,-7.197090900365410437e-03,-5.073981333494540120e-03,4.494980399675055360e-02,9.233798722006210770e-05,2.290684729814529419e-01
1.709381699834429946e-01,-2.286000607489652170e-03,-6.015313501918931327e-03,5.872667536147535257e-04,-2.664014829205974856e-04,4.151705537402733859e-04,1.751236468553543091e-01
2.314471068494058648e-01,-2.890717088138260171e-02,-1.344908098593287915e-02,4.065799108388896271e-02,4.289038863561591385e-03,4.952264318124230359e-04,2.627049088478088379e-01
1.800960866717719600e-01,-9.834325800514201465e-03,8.803564440935801594e-04,-1.150663337908150148e-03,-2.801908315297230688e-03,1.996262866379449902e-03,1.849129498004913330e-01
2.181579877071384566e-01,-1.556815133589004030e-02,-1.405275087121306277e-02,-8.592423216363845968e-04,-1.008896230206227573e-03,-5.520592434575877401e-03,2.331795841455459595e-01
2.809032959323677359e-01,-1.116520952656796517e-02,-1.099362484890928360e-02,-1.475927291669175412e-02,-1.278879262212159751e-02,1.698604022875413802e-02,2.954042553901672363e-01
2.683226403088700973e-01,-2.664633363521981546e-02,-3.071270791122249211e-02,2.351338606372795417e-04,-2.571878509469448281e-04,-1.787180365111001304e-03,2.970397770404815674e-01
2.692996779636105398e-01,-2.635228241097799240e-02,-2.934621229543900311e-02,4.229206484767271466e-04,-5.859371688728381555e-04,-6.375819196994488881e-04,2.971649169921875000e-01
2.689285524826615648e-01,-2.703820710112746217e-02,-2.865729837861999418e-02,9.964514000251149524e-07,1.300261189630888829e-04,-1.029791893480876694e-03,2.967850565910339355e-01
2.694071051711988685e-01,-2.425530147668125691e-02,-2.623050539980201212e-02,4.380425686244455215e-04,-4.882323742582621957e-04,-1.109612414962269706e-04,2.946572303771972656e-01
2.698789259055349721e-01,-9.037171151535142166e-03,-1.371596216971801563e-02,-1.179890251442447004e-03,-1.459682158721503729e-03,3.016149333873951142e-03,2.813519835472106934e-01
2.698184571779405072e-01,-2.625089534154241566e-02,-2.726948296770957680e-02,-3.813099232084575757e-04,9.241773563636011563e-04,-4.923305074534224061e-04,2.965862452983856201e-01
2.692684844866615745e-01,-2.522558876558221586e-02,-2.389576393300187063e-02,1.262197470409292524e-03,2.013055833179055998e-04,1.536545224289775772e-04,2.938398718833923340e-01
2.636210318154362242e-01,-2.940671201054496919e-02,-2.445834112626472934e-02,-7.367698595086629929e-04,-9.231532601084491997e-05,-6.836265435359722021e-04,2.905904054641723633e-01
2.681953069681788371e-01,-2.864106284966254357e-02,-2.466685160858295145e-02,-1.378686557674572381e-03,-4.771364933180675689e-04,-1.597995289500217259e-03,2.948931753635406494e-01
2.726539132026783441e-01,-1.744403967827073965e-02,-1.970441769236838669e-02,-6.659637683243731926e-03,-5.182247637098341166e-03,9.469409708460860969e-03,2.920621335506439209e-01
2.701935235848821337e-01,-2.643134438762992366e-02,-2.463288877658156850e-02,-2.880094943627640363e-04,-8.778358093324738556e-04,-8.175008651766765876e-04,2.957374751567840576e-01
2.808178195603254768e-01,-2.964159826619505722e-02,1.308121292988961848e-03,1.105703897117257741e-04,2.651437577382044497e-03,5.233521603310500175e-03,2.963740825653076172e-01
2.697495350258082292e-01,-1.237407838676120309e-02,-1.452673986237273951e-02,1.325677105112327140e-04,-1.207411543033767073e-03,2.439610108521394170e-03,2.832454144954681396e-01
3.263595254864551376e-01,-1.634310800335597724e-02,-1.741463834845755065e-02,-1.628812564399434448e-02,4.430182131310854941e-03,3.547628383124489665e-02,3.499199151992797852e-01
2.706895404468346866e-01,-2.236996534230047129e-02,-2.215578715918931074e-02,1.378075236476853597e-03,-8.794886161833960752e-04,-9.469962650793958500e-05,2.929662168025970459e-01
2.681969614753939024e-01,-1.533322410250255452e-02,-1.170729694836257495e-02,-1.050787599846343224e-05,-1.099953165776871916e-03,2.160475684184080293e-03,2.817660272121429443e-01
2.706858384924725192e-01,-2.224235730246448828e-02,-7.792125482619399746e-03,-4.084819162153993741e-05,-1.332030296006701678e-03,1.867541303827243652e-03,2.860046327114105225e-01
2.711836937675049519e-01,-2.540666113235204304e-02,-2.426406904368590134e-02,-8.732110633246296504e-04,-2.241626697584274560e-04,-4.657091483288725909e-04,2.960259318351745605e-01
4.459381546283748832e-01,2.601833317193769091e-03,-6.322656044366806172e-02,3.548359152341203950e-03,9.583601394125318071e-03,1.294645651538752114e-02,4.805004894733428955e-01
2.664976353299830514e-01,-3.111138967684799750e-02,-2.266788296343594244e-02,4.335097833584539498e-04,4.137188013882991846e-04,6.671366367478291908e-04,2.934824824333190918e-01
2.669680441062030063e-01,-2.705987150309492606e-02,-1.763082498094048489e-02,2.444816016761800111e-03,6.002065179627090116e-04,-6.535292759580634990e-04,2.894636690616607666e-01
2.779729547042419924e-01,-2.921085192466471581e-02,4.432746552886140945e-03,2.094304286315133452e-04,1.975431624350156793e-03,-6.796305223841657764e-03,2.920777797698974609e-01
2.903672848285591135e-01,-2.778288041941262554e-02,-2.396368220542691163e-03,8.579105898440837416e-03,8.548550192488023813e-04,-1.499378936955478824e-02,3.077088296413421631e-01
2.729177509659146406e-01,-2.516479126761324292e-02,-2.359623025224735771e-02,2.169008080149166864e-03,-3.353129027718566423e-03,1.520882745429190093e-04,2.973819375038146973e-01
2.716883027762788672e-01,-2.518232278687683456e-02,-2.600328091000375652e-02,2.310887622994229739e-03,-4.613323210493718279e-04,7.196175493335737246e-04,2.973125874996185303e-01
2.798961247009263964e-01,-3.390078738312832241e-02,7.814415841959132525e-03,2.535214877309458631e-03,-1.540885607032674645e-03,-2.628396288960574076e-03,2.952383458614349365e-01
2.896307846148719056e-01,-4.305971255180848778e-02,1.625215371841083611e-02,-6.679283794574782107e-03,8.733320655746085615e-04,-1.319994947027619027e-02,3.084270060062408447e-01
2.787476523730478828e-01,-2.159129646699102512e-02,-1.200171914179234967e-02,-2.340048926316143536e-03,5.186580679815384204e-03,-8.159851015476780531e-03,2.961624562740325928e-01
2.723690878413035366e-01,-1.874638927017313605e-02,-1.849142248281898659e-02,1.053384595961083308e-03,1.943654236423477538e-03,-7.364512981467181973e-04,2.910160720348358154e-01
2.716215496142408981e-01,-2.115245679647802246e-02,-1.860062370765558359e-02,2.038548345872805275e-04,1.729471403609573934e-03,-6.327275943674708514e-04,2.915241420269012451e-01
1.028590830601742306e-01,-4.404124612813964390e-02,6.925714888610257775e-03,-6.582182859260774302e-04,3.940023056701206366e-02,-1.128453679539224118e-02,1.474134624004364014e-01
2.258223643307895045e-01,1.251156447954311635e-02,-5.764703333551537967e-02,-7.906989643424801317e-02,1.420626969339718873e-03,7.184972204150049703e-03,2.903556227684020996e-01
2.249772221481199375e-01,-2.574779571320050253e-02,-1.285501771698981111e-02,-3.962998378437115323e-04,3.840335098451146817e-03,3.910546036595919858e-03,2.447188347578048706e-01
2.479903577845459228e-01,-3.422672990144730309e-02,-1.572162387520792404e-02,-1.724460599051466344e-04,-1.244177353425811089e-04,-1.408939058475386970e-03,2.734457254409790039e-01
2.507842991525737197e-01,-3.300390905072879411e-02,-1.879071053206043951e-02,6.464701698572785336e-04,6.256211399160788644e-04,-3.652585755226247718e-03,2.770318984985351562e-01
2.604073809566716524e-01,-2.413709059749076513e-02,-2.306588001910307717e-02,-1.026780989011697939e-02,-7.738698751396490619e-03,-2.728621867345650247e-03,2.849213480949401855e-01
3.062845165884539034e-01,-3.444145158879841073e-02,1.116941068973198448e-04,-2.538353557239751354e-02,-3.181720645399285091e-02,1.829784331706260647e-02,3.339002132415771484e-01
7.011068473845652460e-02,2.426802103995040483e-03,-5.895069111196485356e-04,-4.100669903691891299e-02,1.817583265268942275e-02,8.196714685308188579e-04,1.040774136781692505e-01
2.455119701582462732e-01,-3.177548373516127234e-02,-1.685728994952752358e-02,-6.486650870790077253e-03,-1.696339842656951428e-03,-4.216469774296109467e-03,2.704855799674987793e-01
2.475305849437533512e-01,-3.275504327578317165e-02,-1.765728093638982421e-02,-9.597720474036163310e-03,-5.258626965053035066e-04,-1.984739157459340826e-03,2.735786736011505127e-01
2.168250476051701847e-01,-2.126089959884849834e-02,-1.504550597840370596e-02,-7.600840545688582195e-03,-3.867424470479159486e-03,-6.369985099565643807e-03,2.357618957757949829e-01
2.507631557944479117e-01,-2.189609195762162730e-02,-2.669456739040337867e-02,-1.045813815998362407e-02,-9.580725918408148148e-03,-6.829979975893948896e-03,2.764378190040588379e-01
1.382806131295941932e-01,-6.703541861267960089e-03,-1.664706605102299342e-02,-4.840400232259307878e-02,-2.010904390864206442e-02,7.465300188647492827e-03,1.759832054376602173e-01
2.654462226961708526e-01,-3.521936102217466946e-02,-1.757752273663834575e-02,-2.909158983605013640e-03,1.350138547660963530e-05,-2.166919487992028493e-06,2.922877371311187744e-01
2.665985985052009566e-01,-2.468577101481990443e-02,-2.308150694473738718e-02,-7.244588049814591410e-03,2.988449499556940746e-03,4.401184105736983881e-04,2.908035218715667725e-01
2.674517823338995459e-01,-1.423020811827996335e-02,-2.360863592418020740e-02,-2.491968118554041371e-03,-1.565651701581975610e-03,1.846135814539686401e-03,2.865495383739471436e-01
2.764148700119021806e-01,-1.331938832493764768e-02,-2.972934279386679757e-02,-6.847842904157987881e-03,5.604681264497699163e-03,-4.222456710906859179e-04,2.986724078655242920e-01
3.231826386883361324e-01,-1.914240921069199075e-02,-1.261007876297634556e-02,-2.807387137210445860e-03,-5.404377950081569112e-03,2.922993683275495330e-02,3.430267572402954102e-01
2.953739714557924723e-01,1.828286394122344283e-02,-3.305990384986920438e-02,1.028545231444802539e-02,1.033507547866224958e-02,2.753379098945946818e-02,3.107319176197052002e-01
4.353061425473367940e-01,7.794089172413448674e-03,-4.987657861180699870e-02,3.745264240520358072e-04,4.790374336432913667e-03,2.139339197967793024e-02,4.606404900550842285e-01
3.277255799310849760e-01,5.194994306916708715e-03,-4.653483669870706052e-02,9.284335888488126284e-03,1.428386285180576962e-02,-6.692010357806604630e-03,3.526917099952697754e-01
2.782052029825271555e-01,5.896223628120700333e-04,-3.815789964007229584e-02,1.316803309820333175e-02,5.385020342149781508e-03,-8.111456894880804402e-03,3.002220392227172852e-01
1.909971013638274984e-01,-1.569317753178330055e-02,-1.009464516857862260e-02,3.699886016980899472e-02,-9.550405811685647173e-03,2.168661256921587850e-03,2.144517153501510620e-01
3.358165449097350597e-01,-1.062894200007838408e-03,-2.906309305948406863e-02,-3.291728500621961696e-03,-2.431541062565614753e-03,2.358916118176448973e-02,3.541525900363922119e-01
3.123173736849623183e-01,1.494250540002697858e-03,-4.466790146826518648e-02,-1.559357552778227463e-02,1.733049482509818791e-04,7.940861578424126752e-03,3.376521468162536621e-01
2.776375371615225074e-01,-6.490158127937642463e-03,-2.785512750593895082e-02,2.066300179155002373e-02,-2.121803157071519216e-02,-2.500181304605023427e-02,3.029226958751678467e-01
2.884581595879828209e-01,1.212821919673495730e-02,-3.730447846548839985e-02,-9.156550543906493908e-03,1.639936091661291879e-03,-4.794428473506876821e-03,3.046146929264068604e-01
2.731719911170476522e-01,-2.490708097528218645e-02,-2.687763984597364708e-02,2.582724661453868458e-03,5.752370378634147179e-03,-1.885404887503936691e-03,2.992863953113555908e-01
1.048022495678913452e-01,-2.667035647958199834e-02,-2.513833345269404079e-02,-3.029759054849819749e-02,-4.740102839013819735e-02,1.247829747382058971e-02,1.644612550735473633e-01
1.757193461657764466e-01,-1.290459455127238031e-02,-1.030500345949741936e-02,-1.324982435484185588e-02,5.118858906865393632e-02,1.119252520598155564e-03,2.085345238447189331e-01
2.101074330613289798e-01,-2.133490175678592893e-02,-1.330917233809447708e-02,-1.016453066219462527e-02,-9.845575572908240453e-03,-6.852522801794873331e-03,2.291595637798309326e-01
2.689950029440292822e-01,-2.625786239997969507e-02,-2.973243495145035109e-02,-6.545111274513767995e-04,1.876931195550895007e-03,2.066385537565270086e-03,2.970468997955322266e-01
1.939765850513501533e-01,-8.187728024793894388e-03,-1.402980346434061498e-02,-4.057546028726864836e-04,-8.098269668869693960e-04,-3.339003326533702964e-03,2.052352428436279297e-01
1.708013725779847225e-01,-1.184550033610322350e-02,-2.418791429957087291e-03,-1.774424212769798448e-02,-8.552418316295426481e-04,-5.912673719662321289e-03,1.810487061738967896e-01
2.070399753372744456e-01,-2.128204228241210860e-02,-8.419187500806182833e-03,-1.246913566451285371e-02,-3.239472910696146663e-05,-4.972116573617780394e-03,2.233833670616149902e-01
1.345465853242625853e-01,8.863003927735500775e-03,-4.222324494912560455e-02,-6.500739004739844451e-02,-2.769020197185245030e-02,3.067791465682777330e-02,2.064664512872695923e-01
2.903729818551119557e-01,-2.425220413290195276e-02,-1.778884978337917644e-02,-3.248326337941192122e-03,-9.701781863686932336e-03,1.533871476712776565e-02,3.130768239498138428e-01
1.856754861997303441e-01,-1.520399626778265456e-02,7.755143804268060936e-05,-1.398124608342871458e-03,-1.913450496742406456e-03,2.217793641741368766e-05,1.937348544597625732e-01
2.784107872754471025e-01,1.308505568953927112e-02,-3.964814575504393979e-02,4.064550477762576136e-03,4.368317164481456266e-03,-5.315749437962355439e-03,2.955699265003204346e-01
2.630204219100047425e-01,-3.533145536027790246e-02,-1.796488556605949083e-02,4.901349682749103071e-03,8.097462637920598873e-04,-1.196399685857827246e-03,2.901937663555145264e-01
2.646670868514707786e-01,-3.511860683832981889e-02,-1.878532928257783952e-02,1.506277157004113796e-03,-5.917446984733815141e-04,1.304044388609499261e-03,2.919841110706329346e-01
2.796647493132585760e-01,8.227023333433447494e-03,-3.897481337777566890e-02,5.346863847616462051e-02,1.727221586198245682e-03,-1.567866291633301240e-02,3.131164610385894775e-01
3.024417226411650339e-01,-7.677371720441208969e-03,-4.312938664970172864e-02,5.941009281659744706e-03,5.550479137270133284e-03,-5.798654552646158745e-04,3.295820951461791992e-01
2.580237109900120895e-01,-3.219686161288770609e-02,-1.851296782275829722e-02,4.989852650010689721e-03,-3.191181679689384032e-05,3.129345138674352773e-03,2.838097214698791504e-01
2.608326622970107977e-01,-3.614661993835614762e-02,-1.738820601046402181e-02,-1.425484109968811863e-04,1.052308290662728622e-04,7.433363591845337185e-04,2.880615592002868652e-01
2.659890894363064473e-01,-3.430163102529322494e-02,-1.891780668610085203e-02,1.214338299556166846e-04,8.117097562644434879e-05,9.887027767709068680e-04,2.929070889949798584e-01
2.871323145137945065e-01,1.342737967797885679e-02,-7.111436011416219505e-02,3.964816836787455473e-02,2.270568249241901315e-02,-8.811986044469704779e-03,3.342105746269226074e-01
2.688165227507385291e-01,-2.248426970380359990e-02,-2.496797234881759087e-02,1.306824607463804406e-04,-2.739952575652423658e-03,-3.981294454491186136e-04,2.925899326801300049e-01
2.580480107301710291e-01,-5.906867020271994173e-02,1.393963698876689306e-02,1.580066521281755024e-02,-7.203696136115966819e-02,8.419255506945689041e-03,3.150724470615386963e-01
2.669590931563539660e-01,-2.390181038421496096e-02,-2.413425844307766355e-02,-5.489444950448335711e-04,-5.014885398913887342e-03,-6.717365948836974583e-04,2.911106944084167480e-01
2.595787494179906951e-01,-2.000721142129649466e-02,-3.453396440047577787e-02,-1.227944169276747695e-03,-1.524413341576066330e-03,-9.639512833056703735e-04,2.871499657630920410e-01
2.682734782488839231e-01,-2.800764104348729688e-02,-2.432655438638640921e-02,-9.362415800011597133e-04,-4.271472757272419367e-04,-2.374569809741980050e-03,2.944919466972351074e-01
2.730760916066863331e-01,-3.405089025792840118e-03,-2.735953775240257402e-02,2.056566128580761179e-03,2.666507045078644628e-03,1.606797647309444847e-03,2.892756164073944092e-01
1.880906574178407287e-01,-3.311469425842081260e-02,8.549940950397516559e-04,-5.082148798972280918e-02,-6.350324504108506574e-02,2.970290329818792152e-02,2.550778687000274658e-01
2.669884912735843718e-01,-2.278864808295409661e-02,-2.223640669845036721e-02,-6.855710592043129034e-03,-3.203208124452564930e-04,-6.480837569239206045e-04,2.897475361824035645e-01
2.633016379020187703e-01,-1.802371909026191654e-02,-3.490225683505787657e-02,6.238727647884198015e-04,-9.338923793291780198e-03,-7.287832218120354191e-04,2.905883789062500000e-01
2.278526470649235580e-01,-2.303875120671815269e-02,-1.435724277510816438e-02,-1.211064208978780178e-02,-3.693719355834439860e-03,-6.553670121835704007e-03,2.478982359170913696e-01
2.676535101922209448e-01,-2.573054542112238052e-02,-2.268046267309495323e-02,-3.034320513868594450e-03,-2.990713868201175241e-02,-7.047155814182705889e-04,2.964811623096466064e-01
2.749925965482498680e-01,-9.127454674302357129e-03,-1.253122463358273542e-02,2.661935281735316756e-03,2.455447384123589198e-04,5.273013781474287197e-03,2.860204875469207764e-01
3.553714409612904745e-01,-4.454644573509511374e-02,2.427854291290179600e-03,-1.878083330374715268e-02,-6.968630373369837094e-02,3.189296445178523703e-02,4.025335013866424561e-01
3.246443085888903735e-01,-5.459839859306792054e-02,1.093505643985150100e-02,7.761044230301647473e-03,-1.876408295092832357e-02,-1.410192845575093884e-03,3.528590500354766846e-01
2.691992214547996864e-01,-2.427129662332599969e-02,-2.328331126567656506e-02,8.057664709741631758e-04,-1.408112056934115943e-04,-1.528787096143566617e-03,2.929931581020355225e-01
2.700866076507121294e-01,-2.799270098516493110e-02,-2.786525471279109600e-02,-2.513133250736369786e-05,-4.868453636413449734e-04,-1.158813405331812242e-03,2.980235517024993896e-01
1.990484613008333126e-01,-1.360311942745008607e-02,-1.491702808769171384e-02,-1.259112438302527857e-02,-3.756368504812130087e-04,-6.416585472142012810e-03,2.147123068571090698e-01
2.488400500177715968e-01,-1.683055822010556812e-02,-3.371048539940678379e-02,2.204076077512092681e-04,-1.081088783608645520e-02,-2.081933768558725346e-04,2.751385271549224854e-01
2.732109044155497934e-01,-2.355553260315232378e-02,-5.668863928820488951e-05,-1.617996165947968546e-04,3.460004511660545018e-04,4.232598001160437808e-03,2.858374118804931641e-01
2.930592883323736020e-01,-1.778474911906938183e-02,-2.172468113586316363e-02,-3.151809471966960513e-02,-1.094864786306295329e-02,3.125652885844379392e-02,3.226994574069976807e-01
2.710739745073564855e-01,-1.354053461014756432e-02,-1.453924758110103355e-02,-6.715833872376846371e-04,-8.208237430844487212e-04,2.651325632911059882e-03,2.851580679416656494e-01
3.042212084869712063e-01,-3.859725649598289010e-02,3.149105556458170474e-03,2.409447627103258535e-03,-5.621631085847870676e-03,-1.063376817765781948e-03,3.241472542285919189e-01
2.653531651218969389e-01,-1.849015568947329213e-02,-3.436886545274912830e-02,-7.488997884631388004e-05,1.490312492593115100e-03,-1.889729010852701536e-04,2.921181619167327881e-01
2.581072382988938152e-01,-1.789340288240595656e-02,-3.408511232317470996e-02,3.166327678053884012e-04,4.488391042032573164e-03,7.953171185676987656e-04,2.845524251461029053e-01
2.758882789894161469e-01,-3.120520520603721482e-02,-1.586133764550187730e-02,-1.656043822560920691e-03,6.904812677205558746e-03,1.842826405816563179e-03,2.999854683876037598e-01
2.622733291249255139e-01,-1.806715226951216557e-02,-3.521372244721616973e-02,7.501348544371122746e-04,-3.336445010989152029e-04,-6.973447658327133498e-05,2.892986536026000977e-01
2.332286120112517236e-01,-1.769762415870923533e-02,-2.174727088059194569e-02,1.969231105326296055e-02,3.145252172851750044e-02,1.863875834169990975e-03,2.610327601432800293e-01
1.793231346611204313e-01,-1.767521610031580481e-02,4.599848786296628633e-03,1.298665418539671559e-02,4.342462999837803234e-02,4.796563300632718588e-03,2.028508186340332031e-01
2.689403100554666470e-01,-2.017282417499034752e-02,-3.447216370822515918e-02,1.071783261975828381e-03,1.934174194974035491e-03,-3.715437107184185283e-04,2.965469360351562500e-01
2.735497515571603810e-01,-2.507597249668266914e-02,-2.412006838602799574e-02,-8.275520127639400536e-03,-5.192360229998083977e-03,-1.537049274480327106e-03,2.986405789852142334e-01
3.648902948916658007e-01,-2.991429606559911636e-02,-1.885227792232338495e-02,-2.739350345981393653e-02,-4.843930315852297552e-02,3.699691531534657352e-02,4.062294065952301025e-01
3.000900703016035065e-01,-3.316514870345607657e-02,4.194626102791726430e-03,1.937290861468625534e-03,-2.717059467398554289e-03,1.412844262399947856e-02,3.172328770160675049e-01
2.830931904502222429e-01,-1.984302277041348483e-02,-3.518497258514483028e-03,1.503449970036561836e-04,-5.651450526406764235e-03,1.185240297977508891e-02,2.959879636764526367e-01
3.275156900698631413e-01,-2.428138660522249914e-02,-1.570631391816165734e-02,3.869749228175344631e-04,2.078641025895237773e-03,2.803652287521495035e-02,3.509837388992309570e-01
2.602462648351737684e-01,-2.402687535431087540e-02,-2.800049923695006882e-02,-2.833783378507397609e-03,-3.489328546777518969e-03,-3.972383402893711786e-03,2.864691317081451416e-01
2.744557702574869640e-01,-9.672687291254256081e-03,-1.845287561952764499e-02,5.611966982541395383e-04,1.693346924817824622e-03,7.325640324274262406e-03,2.889140248298645020e-01
2.625587953406993691e-01,-3.203937706542961394e-02,-2.130956024345631583e-02,-4.934676411232631317e-04,-1.034954225611823533e-03,-2.737862494012366366e-03,2.894281446933746338e-01
3.793134066226587775e-01,1.176055589909602572e-02,-4.742021210731248160e-02,-6.984246533411746227e-02,2.329605982622533038e-03,2.120797031691725940e-02,4.199393391609191895e-01
2.713138358383529458e-01,-2.939659721620502264e-02,-2.411928241710016574e-02,2.917950734286154334e-03,-6.709098220459228925e-04,-2.628069009644971258e-03,2.981866598129272461e-01
2.740395839326003613e-01,-9.232529642952125304e-04,-2.197441909454488085e-02,-3.192959621937120716e-03,-3.984080712981665114e-03,2.971042843970165583e-03,2.862528264522552490e-01
2.740026546042133582e-01,-4.834551806994838441e-03,-1.787788447268569281e-02,-2.947478065307432976e-03,-4.180829896739764531e-03,6.778346305148666082e-03,2.859608829021453857e-01
2.881002698386425642e-01,-1.908886237833147537e-02,-1.748106629498971665e-02,-1.656193629155612622e-03,-4.440531764632336779e-03,7.239132105247916837e-03,3.067547082901000977e-01
2.732297027008319112e-01,-1.803705859857274163e-02,-1.698748664275213927e-02,-1.625992497768300252e-03,2.295505423260761060e-04,1.065682178845092035e-03,2.907631695270538330e-01
2.298723236741084253e-01,-1.288421071655083960e-02,-2.302225552525292984e-02,-5.000095583186382189e-04,-2.658401406277927656e-04,-5.805615020509752831e-03,2.481867671012878418e-01
2.162705545846022592e-01,-1.774475472310961532e-02,-1.537675137196821418e-02,1.844996118949487202e-02,-1.745822121306556118e-03,-5.351484919188805034e-03,2.352251857519149780e-01
1.438947147196074083e-01,-3.863022513005999470e-03,-3.423133050405362254e-03,1.638225012380387785e-02,3.906201841304308107e-03,-2.657583892672084943e-03,1.504647582769393921e-01
2.781975951669078406e-01,-1.504630135449379347e-02,-1.787447481349725698e-02,2.031790095155579495e-03,6.489037143340453673e-03,2.134038638382607794e-02,2.972108125686645508e-01
2.709216826486666729e-01,-2.336986868861576361e-02,-2.542914777983998342e-02,8.342218621644079081e-04,-1.215430577949184587e-03,1.870857558530992961e-04,2.953377962112426758e-01
2.855675091123818787e-01,-2.448266021587111596e-02,-2.987313403292543579e-03,-4.231728963654405977e-03,-4.506810148277749437e-03,1.106962984352962559e-02,3.006838560104370117e-01
2.658710463658032763e-01,-3.178774333869760493e-02,-2.152621990061218127e-02,3.532571165948151029e-03,-8.761601404168896639e-04,-2.409895300857871174e-03,2.927606403827667236e-01
2.920208227839011794e-01,2.228198122785964019e-02,-3.578469048852928047e-02,2.023200500536738444e-02,1.224223956150885355e-02,1.915117668564956729e-02,3.075248599052429199e-01
2.771726621111176847e-01,-2.632847343001171181e-02,-2.713323035785801529e-02,1.573759771307449429e-03,5.038993105060637565e-03,1.116489622047105472e-03,3.040479719638824463e-01
1.997162213930640251e-01,-1.086977105268212285e-02,3.161976743732572426e-03,6.395516534144810028e-02,5.167603825972402753e-02,1.213410631323434859e-02,2.496241182088851929e-01
3.230612998472859321e-01,-1.857109940767048828e-02,-2.138766250823576076e-02,5.518944942464874825e-03,4.854232863522690844e-03,2.228182002903555253e-02,3.454480767250061035e-01
2.059531817279854071e-01,-1.769297864708403722e-02,-1.440608888398917098e-02,1.369997833860229879e-02,8.126481211852980974e-03,-3.444798110014659492e-03,2.238081693649291992e-01
2.226726881720254847e-01,-1.122126542101420377e-02,-2.376018166303503487e-02,-5.091299616995379135e-04,-6.974372073938413285e-04,5.925148521008985611e-04,2.404156178236007690e-01
3.130092203990473276e-01,-4.631872479196161296e-02,1.841677282856159226e-02,2.542155178014843253e-03,-8.464217212319234684e-03,6.427571550356451363e-03,3.322713375091552734e-01
2.689243750193214266e-01,-2.374999177296606423e-02,-3.127667580585286045e-02,-3.592330766772285663e-04,5.016571648272555480e-04,1.406102467277385408e-03,2.965213060379028320e-01
2.823576196032951957e-01,-3.712627575816615511e-02,1.378892218086931465e-02,1.938751940056395416e-03,2.403663493448014114e-03,1.743422823071330173e-03,2.973776459693908691e-01
2.822272986909513670e-01,-3.435159489849004544e-02,9.258780011697803625e-03,1.965158785489672273e-03,1.666491870003606896e-03,-9.659497298324365823e-04,2.972215414047241211e-01
3.369106189883873115e-01,-5.527118274210754412e-02,1.156469139418546399e-02,3.795392423913800627e-03,-2.702852043173420427e-02,-3.554523136066674392e-03,3.665167391300201416e-01
3.236869426305580832e-01,-4.685481872716698581e-02,7.691632083244678841e-03,7.650300773845621766e-03,9.455530816084198320e-02,-1.716570237102719651e-02,3.846381008625030518e-01
2.794445431605113717e-01,-2.990235476925387492e-02,-4.730133013340243053e-03,1.134054025152642347e-03,3.162698377019438917e-03,-2.497090419679136048e-03,2.976487278938293457e-01
1.801486573295965898e-01,-2.013419594373012933e-02,8.072509933704112572e-03,1.862141013534587830e-02,-6.199693706632913859e-02,-1.648911941723880253e-02,2.205591201782226562e-01
2.337631931890070958e-01,-1.260487548891336962e-02,-2.746977650275332639e-02,-5.893530119224724834e-04,9.284667903719094270e-03,-2.021413157737182373e-03,2.546612322330474854e-01
2.554726731923954719e-01,-2.233635709760520283e-02,-2.368933268974389439e-02,2.490999514208872348e-03,6.409221728722587150e-03,-2.398298955295961356e-03,2.787734866142272949e-01
2.582307947043832597e-01,-1.684152220958626267e-02,-3.393483702530364354e-02,9.588312288405394224e-05,5.045932275042434509e-03,-1.003866842356439986e-03,2.841448485851287842e-01
2.557113722281474377e-01,-2.097662083673973443e-02,-2.864050546885540949e-02,2.148809303992833299e-03,7.600149644949932490e-03,-1.097009516266980039e-03,2.809381186962127686e-01
2.722111347597750974e-01,-1.943803203695516901e-02,-2.097244284723535912e-02,1.097012044315537208e-03,-7.183529792355591859e-04,-3.177527595506709243e-04,2.924287319183349609e-01
3.498884997399903107e-01,-3.034403958403977808e-02,-3.158380879436928357e-02,-2.033798340698377005e-02,7.756139951493799811e-02,-4.755653324550314365e-02,4.136699140071868896e-01
2.727074951451355922e-01,-1.928911424109866490e-02,-2.399435543203441712e-02,1.673333295282302888e-03,9.493901361404830444e-04,-8.429425724503535663e-04,2.943999171257019043e-01
2.721728201925162072e-01,-2.322940433822409667e-02,-2.595874180851605317e-02,4.370380339544645103e-04,-7.418422937619094815e-04,3.630752738300878661e-04,2.967807054519653320e-01
3.062953209010519928e-01,-6.873336399586232881e-03,-3.459432777908691414e-02,4.373424228487945466e-03,8.373057958928887407e-03,-1.381049936835378016e-02,3.291873335838317871e-01
2.712003348208293918e-01,-2.078119113520807137e-02,-1.964980539291925898e-02,1.646009402390690357e-03,1.363854021444508397e-04,-5.129934617797048601e-04,2.914328873157501221e-01
2.745252344699679048e-01,-2.401124686350428195e-02,-1.715264143980056721e-02,3.182498569768709828e-03,-1.268997150087801786e-03,-8.336642044816203493e-04,2.952301204204559326e-01
2.784240489247428174e-01,7.470284694438389383e-03,-4.003931569662247392e-02,1.181469415241236109e-02,1.128842092838994214e-03,-1.347267841029315891e-02,2.991874516010284424e-01
2.544048718410654719e-01,-2.866555102816825684e-02,-2.052752147368200331e-02,9.677477437234393090e-04,-1.410572723885919000e-03,2.556416116586733914e-03,2.791412472724914551e-01
2.592386583904111585e-01,-2.307034379291682258e-02,-2.201235059891420986e-02,6.058935039916866355e-03,-3.111608849248716571e-03,2.383368700107492847e-05,2.820283472537994385e-01
2.460494507533114994e-01,-2.208263998404903783e-02,-2.356671309302514616e-02,-7.103912696772657028e-05,1.162074099240273471e-04,5.684971344355672050e-03,2.690575420856475830e-01
2.478405082953623051e-01,-1.486194708739933812e-02,-3.091162414696480010e-02,3.316744848157279920e-04,-1.237206317264904424e-04,3.662807717886053683e-03,2.711587846279144287e-01
3.119929440011927624e-01,-4.369385056849750537e-02,2.560027381555834980e-04,2.889236120688063597e-02,-7.858008393347317919e-03,-2.636717906570541087e-02,3.429103791713714600e-01
2.498361170917275942e-01,-2.182230355146232148e-02,1.589945599676581556e-03,4.775687548809257055e-02,-3.566763457310050123e-02,-2.362937688093305622e-02,2.834078967571258545e-01
2.855694235581258678e-01,1.823361914405310924e-03,-3.296410582366318676e-02,-4.390365687624181792e-03,3.235586494809102043e-03,-1.094200927778172464e-03,3.027963340282440186e-01
2.406555167243944471e-01,-1.389590766481899053e-02,-3.227142242691702356e-02,-3.239513657082753080e-03,-3.893883582841692120e-04,-1.565257287032590641e-03,2.642931938171386719e-01
2.591321868433860143e-01,-2.413113778318855263e-02,-3.025348206482034175e-02,5.487623543059950808e-03,-7.628044431371293344e-03,3.870088423831439823e-03,2.869140505790710449e-01
2.717664961437695204e-01,-2.222145332481925695e-02,-2.912462831809860264e-02,1.185365463712916879e-03,5.166457252538267375e-03,2.002643477560463094e-03,2.976614534854888916e-01
2.756200090621656607e-01,-2.700278386995197399e-02,-2.659093409374077566e-03,-1.432060419453147103e-03,1.590263933863749314e-03,4.208575458804246321e-03,2.913298606872558594e-01
2.803474025222516541e-01,-3.393845531090949885e-02,8.923108498309600956e-03,1.722939381403237923e-04,-1.117234275398510356e-03,7.746637197821609581e-03,2.955093979835510254e-01
2.723379773858382036e-01,-1.835824875182437421e-02,-1.430188756081357537e-02,-2.249992764326557045e-03,-1.805370208945018991e-03,8.865584675635679052e-04,2.887367308139801025e-01
2.774025310219162543e-01,-3.039510600691630593e-02,6.517622985901277977e-03,-3.663681084344485618e-03,-2.220262713437882746e-03,3.567462135586281762e-03,2.912619411945343018e-01
2.734983339909433098e-01,-2.195374925759484286e-02,-5.120262420534593684e-04,4.283558262824619951e-04,2.794244159816479042e-04,3.187966322246811243e-03,2.853908836841583252e-01
2.763669587590494858e-01,-2.523069806085943834e-02,-2.820190474108051626e-02,-4.038055264428494511e-05,4.972115857119486755e-04,-1.613435045539969885e-03,3.031083047389984131e-01
2.742331647524418603e-01,-2.395461334905510387e-02,-3.102912585490308350e-02,-1.012788782393338411e-03,-9.366811669654095691e-04,-6.690234614137140212e-04,3.017989099025726318e-01
2.579562211833578700e-01,-2.470077006602355851e-02,-2.389283600754664449e-02,2.627432061868247015e-02,1.503405617531707733e-02,-6.838630294623535694e-03,2.873267233371734619e-01
2.755116629331030853e-01,-1.246055214125706134e-02,-2.799165492199033600e-02,-7.995108785691570083e-04,4.804142478693327993e-03,-1.002423687610555850e-03,2.961687147617340088e-01
2.803789342265290419e-01,-9.363642611101105628e-03,-2.863605745106442835e-02,-2.641312918489477010e-03,4.243397285237787697e-03,1.231046693276607255e-04,2.999686896800994873e-01
2.878816570301803712e-01,9.283709699988054731e-03,-3.698150805021030441e-02,9.333120390393164281e-04,1.692936855111625959e-03,-1.919720881551949037e-03,3.044157624244689941e-01
2.713023273641834709e-01,-2.935239015897428416e-02,-2.455897141305345144e-02,2.163007777085819948e-03,-9.120599495061343116e-04,1.026352683191150694e-03,2.983199059963226318e-01
2.858937925817702785e-01,1.385747344204001086e-02,-3.927285686314269109e-02,-4.566570306077863406e-03,-2.256406205254820056e-04,1.091287490901709720e-03,3.022354245185852051e-01
2.812783202437104668e-01,1.454884769323742943e-02,-3.494162495753158626e-02,-8.414611023021456495e-04,2.984153796971856804e-03,-5.260656383997661632e-03,2.947988212108612061e-01
4.131474590021723681e-01,-1.370017833422204623e-02,-5.557910588077405456e-02,5.203994174956688701e-02,8.414579820346157479e-03,-3.982369597256148891e-02,4.635982513427734375e-01
2.830238856751713383e-01,-7.827669409073992335e-03,-3.376309162229446104e-02,-4.156448847250572738e-03,3.196638641215790878e-03,-5.019631959838954070e-03,3.049077093601226807e-01
2.782693402350923106e-01,3.516520117903820797e-03,-3.027480327252524139e-02,9.791748128808216555e-04,2.185560158515989417e-03,-7.488009098590206643e-03,2.934291064739227295e-01
3.360311629479940665e-01,2.010452049144537123e-02,-6.029764192591519079e-02,4.717489530248302615e-02,3.577860435077514362e-02,1.923767237295962926e-02,3.785529434680938721e-01
2.871543386192547676e-01,2.683626505564971898e-02,-4.385010689392013217e-02,5.665973859430880125e-03,4.641487510552606832e-03,-2.755631186662445189e-03,3.022361993789672852e-01
2.736976402999736768e-01,-5.138292092769961017e-03,-2.382723248123577720e-02,-2.793686453795416694e-03,-1.486393018576034290e-03,6.572103008645118621e-03,2.889109253883361816e-01
2.796669374772989269e-01,4.078033084278551157e-03,-2.906150626856707220e-02,-2.283446979217348873e-03,-2.364615627050838803e-03,3.984187891301093840e-03,2.937012016773223877e-01
3.210899029364733259e-01,1.374901583669389804e-02,-6.882679390554907739e-02,-7.153892973631091612e-02,-1.061950727390375063e-02,1.207360795171035818e-02,3.778692781925201416e-01
3.049048424110727407e-01,1.346633575327539634e-02,-4.424535404056911814e-02,-1.982892634944733931e-02,-1.180477622608961524e-02,2.209469446381247607e-02,3.288595378398895264e-01
2.533978777316423514e-01,-2.039611718530698337e-02,-1.492607596687567373e-03,2.042860183267648788e-02,2.802934384111037402e-02,2.198315657738135823e-02,2.742325961589813232e-01
2.880220548492783417e-01,-5.192432820066747445e-03,-2.025391159428663324e-02,-2.165761588955202738e-02,-1.249041456772991866e-02,2.521115551438134553e-02,3.072455525398254395e-01
2.625654200338817246e-01,-3.501240423478667319e-02,-1.908433573276405171e-02,-1.023888342617143782e-03,1.555996425599552807e-03,6.778256252353441393e-04,2.899624407291412354e-01
2.586608614977498055e-01,-3.637391188142644061e-02,-1.676610059927965968e-02,-4.954758772494208437e-03,5.608504908338841693e-04,7.463798272586502853e-04,2.858693003654479980e-01
2.576280577723528697e-01,-3.365257173417075809e-02,-1.809241487936585902e-02,-5.885902983495016260e-04,-2.073520028978614513e-04,6.149241640021114617e-04,2.838246822357177734e-01
2.475268608186403652e-01,-1.887067453196225597e-02,-2.329739033278026283e-02,-4.914799272922549221e-03,-1.078133220613757166e-02,-1.189005119548011170e-03,2.694288790225982666e-01
2.705256604498788020e-01,-2.327843911307442282e-02,-2.355864093221751721e-02,2.728783877687941781e-04,-5.402821080542084646e-03,-1.194705921664648797e-03,2.941008806228637695e-01
2.673915169209759579e-01,-2.238341847539174201e-02,-2.921722449880496952e-02,-4.207965040583994641e-03,-5.848208425619042319e-03,-1.666977127323289757e-03,2.935311496257781982e-01
2.686437859836089959e-01,-1.038600715331490509e-02,-1.199794438208037772e-02,-7.763229314690329530e-04,-9.127574489812969542e-04,2.809848457469123553e-03,2.798892557621002197e-01
3.083977929754113112e-01,-2.959945216811687985e-02,-5.782666467354966033e-03,-5.607160331827168963e-03,-1.559081727634381229e-02,1.501252478701948015e-02,3.290274143218994141e-01
2.695480011283151178e-01,-1.992241399366280474e-02,-1.692540389985337790e-02,2.381653631796893083e-03,2.221383454246628544e-03,2.735575707740268807e-03,2.880778014659881592e-01
2.693462802433465031e-01,-2.368479918028587594e-02,-2.593068710682927547e-02,-1.578515788817203783e-03,-2.341587168397293839e-04,-2.509198483393501578e-04,2.941737473011016846e-01
2.499532564515183075e-01,-3.790546605199682229e-02,9.177534488501920551e-03,-1.652694448814925540e-02,-5.521508222412015165e-02,1.337305239266367053e-02,2.864057421684265137e-01
2.848056704600364641e-01,-2.476249291209481340e-02,-2.285878091343701568e-03,1.031216272190411650e-03,-1.215281507656878687e-03,1.013986822311109016e-02,2.994923591613769531e-01
2.800358524774330116e-01,-3.002068714439011521e-02,-1.181513583108903531e-02,4.823718704843289913e-03,-4.786708988569612216e-03,4.134116815849867769e-04,3.015970885753631592e-01
2.616344957261255710e-01,-1.903068958158016244e-02,-3.054078546272961936e-02,3.295132885217320982e-03,8.262798352010734815e-03,2.451390085463636508e-03,2.870389223098754883e-01
3.452412365224901691e-01,-4.536096467348457728e-02,-8.056031042454198099e-04,-5.246618786627650806e-03,5.200666024221695799e-02,-2.651640822929384952e-02,3.840024173259735107e-01
4.203645254301302536e-01,-7.121591129481530391e-02,-4.957429998089124545e-03,1.104707728619680127e-02,1.781173619670414418e-02,-1.521892820321692728e-02,4.642013311386108398e-01
2.730798055781825662e-01,-1.715126855255910687e-02,-1.444258683043436742e-02,1.022964880951250221e-03,3.788953130892989225e-04,-3.150537989739671859e-03,2.889439761638641357e-01
2.441794547773338819e-01,-1.490780086852454278e-02,-2.547636775644501750e-02,-2.690337614200391872e-02,1.041181488720391984e-02,-4.015728188027012889e-03,2.692973315715789795e-01
2.796264622031741087e-01,-3.444281106281366078e-02,1.284461563915155480e-02,2.090558771931603881e-03,1.330937920019401076e-03,-1.482146475650246995e-03,2.933412492275238037e-01
2.752836987127074142e-01,-3.466347924257548452e-02,-3.151417105006520947e-03,5.430661242086172111e-03,1.164081589824670152e-02,3.162348475717752239e-03,2.963413298130035400e-01
2.481267451614050101e-01,-2.018139826667307568e-02,-2.564795139655234868e-02,-2.214951567014644598e-03,1.863854778043541952e-02,4.380086028640766890e-03,2.731305956840515137e-01
2.569346058487625983e-01,-2.793179312906050871e-02,-2.323558484685339653e-02,-2.328797249230046395e-03,2.276978236242156728e-03,4.630517351828183567e-03,2.827176749706268311e-01
2.719699734499937960e-01,-1.909289043916848061e-02,-4.503509368530306256e-03,2.513016550666414238e-03,1.725614875727930970e-04,-4.672429191717014305e-03,2.841980755329132080e-01
2.813710499335283499e-01,-3.245282382047667835e-02,-1.333460230749897169e-02,-3.741201796795859402e-02,9.380430080104211824e-03,-3.030340640257294174e-02,3.163368701934814453e-01
1.256068216939402460e-01,-9.959433846458184969e-03,9.778948276557355990e-04,-3.537733280865367619e-02,-5.915398138683690410e-02,5.278114357228942156e-03,1.770619302988052368e-01
2.177778927991692315e-01,-2.792521775959691532e-02,-2.153299590656941598e-02,6.628958349906256819e-02,-3.993617014360143630e-02,-3.684213566664421707e-02,2.843939960002899170e-01
2.001015927153127483e-01,-1.728720803940443640e-02,-9.982769539386315838e-03,2.646320238145281542e-02,2.179403220188131166e-02,-3.539358723623832123e-03,2.220062315464019775e-01
2.694675523171946585e-01,-2.951831263866622201e-02,-6.309524235771135636e-03,-1.530981102534704694e-02,-1.554900869237477471e-03,4.734339891461548412e-03,2.894300520420074463e-01
2.661733354286959230e-01,-2.267571582573585376e-02,-3.218913572125535472e-02,1.453656019481780557e-03,-2.748578781030491802e-03,7.702401504707019229e-04,2.937737405300140381e-01
2.285135896115577658e-01,-1.258097112461249723e-02,-3.855183756961635955e-02,6.880658677871626105e-02,-1.448039261732905064e-02,-3.284869758453011490e-02,2.883256971836090088e-01
2.316423757373521075e-01,-2.172407390374235525e-02,-2.221219523945733298e-02,-8.734157527569556823e-03,-8.543491339722476124e-03,-6.804373103734127036e-03,2.547649741172790527e-01
2.238196560765825516e-01,-2.159091830634525533e-02,-1.661356293105871462e-02,-8.510181227318806482e-03,-9.642153247022960125e-05,-7.246660347009790948e-03,2.437303215265274048e-01
2.888500322736092807e-01,-3.292433905703542885e-02,-8.422557340320088737e-03,1.749658516018340760e-03,-5.777741460514951126e-03,-6.933835195538243321e-05,3.104261457920074463e-01
2.268363018922111840e-01,-9.285440157254756799e-03,-2.804778611650468600e-02,4.165360156641225711e-04,-6.712352224384444607e-04,-2.686268096928305128e-03,2.460878342390060425e-01
2.275907775403927524e-01,-1.064781227155606191e-02,-2.845897348552733908e-02,1.803536462346642943e-02,-3.035818360741857069e-02,3.083175676878525950e-03,2.551222741603851318e-01
2.663031952321567308e-01,-2.768669406842580449e-02,-2.683878436841126425e-02,-1.300988849928395776e-03,1.224533014301515789e-04,-2.086941983467334623e-03,2.935978174209594727e-01
2.579069858938711768e-01,-3.511065951145667108e-02,-1.861226053406009329e-02,-1.716142837551858959e-03,2.138374855310896938e-03,5.750826278985720925e-04,2.851679623126983643e-01
2.607259495315582543e-01,-3.346642348098920194e-02,-1.976226448165696592e-02,-3.506279653194168652e-05,1.139459805314174939e-03,1.528813282696942204e-03,2.876042425632476807e-01
2.539653374467503721e-01,-3.429267024833536348e-02,-1.760684879249785340e-02,-4.230528484534401210e-03,-2.003190741769885101e-05,2.052006203102793146e-03,2.804061472415924072e-01
2.623197572299540981e-01,-3.537098756580836501e-02,-1.859768454005654437e-02,-2.444759779553464657e-03,-5.347986762521139432e-04,6.154752583970411620e-04,2.897029221057891846e-01
2.574034452413413998e-01,-3.642332420484151179e-02,-1.720806089332280187e-02,-3.760182683288312150e-03,1.306905214783634370e-03,-3.717848286353526662e-04,2.847900986671447754e-01
2.571921017759912220e-01,-3.299910026915733874e-02,-1.958668245074163261e-02,-1.949137136129709159e-03,1.331130400314100041e-03,1.127138149411819690e-03,2.837590277194976807e-01
2.546667497763296373e-01,-3.676214702216971941e-02,-1.569689990066577834e-02,2.491416375779308048e-04,1.802720966618422043e-05,-5.679367731356033946e-04,2.814901173114776611e-01
2.527758814698596868e-01,-2.343571797971426285e-02,-2.759409509974343477e-02,6.181709701286881560e-05,-3.124596256173953028e-03,-5.006794145134388190e-03,2.785017788410186768e-01
2.447840930255872627e-01,-2.605334345957960318e-02,-2.294856980378130740e-02,-1.014027751030680859e-02,-3.574606431394825707e-04,-4.576436983297331278e-03,2.699877023696899414e-01
2.791965688356903841e-01,-3.658170125515508575e-02,4.978180983583199715e-03,1.571802078634503387e-03,-5.179637957798861880e-03,1.427806968391094090e-03,2.973439991474151611e-01
2.715238327799558982e-01,-2.153387157313291222e-02,-1.939687031376212401e-02,5.682826911915414255e-04,-2.013957651357153357e-03,-1.253074576775269544e-03,2.920256257057189941e-01
2.831417956641828493e-01,-1.958760180119280270e-02,-2.217269886282434432e-02,-3.003918209457062671e-02,-2.079165838775831956e-02,1.515476284201095793e-02,3.116525113582611084e-01
2.683964981030150243e-01,-2.435978656045691138e-02,-2.860615791716587808e-02,-1.228108518762846806e-03,-2.228430004560409770e-03,-1.273924378064418593e-03,2.949435710906982422e-01
2.588486544724935556e-01,-2.690535585251359330e-02,-2.242847249225761452e-02,-3.192893552589965572e-02,-4.408461638306502423e-02,8.810627425011381686e-03,2.991951107978820801e-01
2.679184312221276620e-01,-3.007931534300405108e-02,-2.293465620348594802e-02,-5.257305766420620856e-03,-1.546143939359828461e-03,-2.578026732861713344e-03,2.946771681308746338e-01
2.546473665504418449e-01,-2.050638949136752986e-02,-3.042429212287248164e-02,-2.362039770181629389e-02,-1.025271937159748584e-02,7.545055921401599280e-03,2.840718328952789307e-01
2.586129683061535456e-01,-2.171811001816076336e-02,-2.602160917991951095e-02,-1.314569558422757712e-03,-5.870569188850385811e-03,-2.297289327662223411e-03,2.827275097370147705e-01
2.702216837315296050e-01,-1.581563232914917627e-02,-2.059959626361426710e-02,-2.309555661867735993e-03,2.917587292205318125e-04,-3.237999149203184290e-04,2.884877622127532959e-01
2.713583465099921876e-01,-8.973696366807490388e-03,-2.227889844735211899e-02,1.695158544650608463e-03,2.529301378986555538e-03,1.503828973282507779e-03,2.872760891914367676e-01
2.765210418999763387e-01,-6.001971896573365939e-03,-2.351165511987042545e-02,-7.177591792003135476e-03,-1.305008140622504389e-03,6.926757666085859612e-03,2.921922802925109863e-01
2.627830253272037120e-01,-1.992386083310281053e-02,-3.430010606460409672e-02,9.327944087763749732e-04,-2.286019085201389158e-03,-1.099114430025114903e-03,2.901999950408935547e-01
3.267792948827387134e-01,-1.527013492070461442e-02,-1.649117451011114510e-02,2.273412243529408273e-03,1.978652001952495472e-03,2.657504148533899532e-02,3.457787036895751953e-01
2.703434583898128851e-01,-2.699207714320843443e-02,-2.669436458818912061e-02,2.099002144328890318e-02,8.335205346294246795e-03,-1.989063441923153569e-03,2.997699677944183350e-01
2.713824800011610527e-01,-2.547515619134688158e-02,-2.658782130176676195e-02,1.575476865102589307e-03,5.212811389028427448e-04,1.324387702360441295e-03,2.974382638931274414e-01
1.866427868570153803e-01,-2.233413964497354964e-02,-1.532617814601715256e-02,-3.921425848923017210e-02,1.276696277170926395e-02,-2.355000411980198542e-03,2.176576703786849976e-01
2.573556049987643091e-01,-3.498230378544175956e-02,-1.788023522126430676e-02,-1.516001852132548336e-04,1.997178218012803617e-03,1.669674651200605923e-04,2.841944098472595215e-01
1.953816507658565071e-01,1.050925696647994623e-02,-2.742507515638607785e-02,-4.822892795084029322e-02,-2.107649947938352013e-03,-1.496974867348655229e-03,2.227733433246612549e-01
2.559024589539699024e-01,-2.395290031948871246e-02,-2.685441208359938547e-02,-2.124118089551383596e-03,4.057031494664731924e-03,4.983119405469827248e-03,2.815614640712738037e-01
2.281876732942731967e-01,-2.079435218801152507e-02,-2.060075556792470564e-02,-1.920313096027870259e-02,-1.421697618683963327e-02,-5.006854390245496327e-03,2.524514496326446533e-01
2.583335923739964457e-01,-2.292571885643011897e-02,-2.166772389146451316e-02,-4.059218453238770154e-03,-1.045387664562914517e-03,-5.764308629279179868e-04,2.807281017303466797e-01
2.513133272401621432e-01,-3.598710814836830751e-02,-1.632548173651539314e-02,-5.583448179576775729e-03,9.424266761340668180e-04,7.623853683354160681e-04,2.781676948070526123e-01
2.392570187519121039e-01,-3.161214598687631105e-02,-1.630875381480174913e-02,-1.021107574098314812e-02,-4.508446755045155026e-03,-3.922725725681904495e-03,2.643463909626007080e-01
1.945647033407535142e-01,-1.418941064159354171e-02,-1.301014106960876604e-02,-9.564298474229935426e-03,-8.545455119208348466e-03,-6.997149713534735888e-03,2.096994817256927490e-01
2.741439728015573341e-01,-1.408364213315919933e-02,-2.701264008784917681e-02,-4.660279010007131219e-03,9.357120821135000294e-04,4.250812872198037723e-04,2.950205802917480469e-01
2.727316810089468468e-01,2.975808898760284871e-03,-2.260889775774908850e-02,-1.152181061680980370e-03,-8.395817129917984654e-04,5.727286909432981014e-03,2.835999429225921631e-01
2.296079937446910690e-01,-1.260379235098627038e-02,-4.664563753377876099e-02,7.297812889587683427e-02,-2.305958587198859728e-03,-1.771940133234624348e-02,2.915579378604888916e-01
2.743190035979149455e-01,-1.894254700456393659e-02,-2.341471400953057391e-02,3.692280663343355763e-04,1.824254030435050293e-03,-1.443276585660110804e-04,2.955406904220581055e-01
2.850511171100360563e-01,-1.904567663319078896e-02,-3.165565791809721308e-02,6.371060555073531848e-04,-9.628859317785398719e-04,-2.678847903153272589e-04,3.106006085872650146e-01
2.690039195763856972e-01,-3.405088828918503840e-02,-2.098564881664198578e-02,-3.685511262992460747e-04,-6.999034416070053959e-04,-1.592837410956272860e-03,2.967539727687835693e-01
2.767748748763453892e-01,-1.635713096098420638e-02,-2.873006128368375822e-02,5.051072527566234822e-03,2.929023725556870010e-03,-8.361977936713685389e-04,2.996844053268432617e-01
2.749739894792629924e-01,-1.000066865569750052e-02,-1.499064592007239016e-02,1.729027780406993536e-03,1.602447004349186275e-03,6.974739236903988379e-03,2.877847850322723389e-01
2.635830449460716540e-01,-2.512098468184487121e-02,-2.665085062167428520e-02,-2.205701715074576824e-03,2.560917219229386609e-03,1.724324892244429985e-03,2.895465791225433350e-01
2.650458974125625700e-01,-2.917789574120213669e-02,-2.230842756178563757e-02,2.409911683147909073e-02,2.808266953323355821e-03,-3.709954643014716242e-03,2.939403355121612549e-01
1.872080995147230587e-01,-9.081871806532734737e-03,-1.228174259697357995e-02,2.452859335655187267e-02,-5.886696366583793992e-03,1.132444495256767873e-02,2.036215513944625854e-01
2.923167859833388227e-01,6.383213216149818958e-04,-4.335871619668599242e-02,7.881720923071716331e-03,8.657622339285653626e-03,1.150136073161459570e-02,3.172587752342224121e-01
2.544456384982315411e-01,-3.195343077436457735e-02,-2.063195026081593442e-02,9.520796396236484369e-03,5.275207112734793362e-03,9.095579255606987140e-05,2.815414369106292725e-01
2.681078834715765469e-01,-2.338859798095301035e-02,-2.205975340243158944e-02,-1.541578289292716130e-03,-7.914028096375675704e-04,6.060285465902611086e-04,2.908517122268676758e-01
2.583585343554945513e-01,-2.529933236602326108e-02,-2.032728164363044321e-02,8.544643763597935954e-03,2.534077278574538034e-03,-6.579845264125510490e-04,2.816305160522460938e-01
2.665813492445384680e-01,-2.517846981662442973e-02,-2.313663181319317030e-02,-3.088685922686057526e-04,1.974762919882277687e-03,2.363975218160494971e-04,2.907651662826538086e-01
2.637512890516904851e-01,-2.991492561659339633e-02,-2.462741672778337443e-02,-1.065843514973551561e-03,2.857790944430903273e-05,-2.798141269586037604e-03,2.911046743392944336e-01
2.628010573879263623e-01,-1.960777946519423609e-02,-2.631668436667021493e-02,1.208318517309964072e-03,6.726614799617853385e-03,3.434989243410042068e-04,2.860679924488067627e-01
2.698633135865838861e-01,-2.256876567547765056e-02,-2.383667587199685134e-02,3.786101286737884354e-03,1.463740307314661399e-03,4.777597167758287992e-05,2.931524217128753662e-01
2.520572152192497306e-01,-7.015603336284231828e-03,-2.903894476179871842e-02,2.245474745104556955e-02,-1.841227197900087778e-02,-1.672367702159070768e-02,2.769081592559814453e-01
4.372654984820095181e-01,-5.707595715283605986e-02,-2.343149436549368803e-03,1.882674394192187378e-02,9.417740229721898587e-03,2.571804895576601871e-02,4.728912413120269775e-01
2.745749960712020599e-01,-2.119081921159927939e-02,-5.071335554430941861e-03,-2.101027659738095854e-03,-1.554645550857426195e-03,4.643669250031083086e-03,2.881923913955688477e-01
2.754482829585525594e-01,-2.408230192591324925e-02,-1.673287917390792190e-02,-2.624733798140712997e-03,1.442635975237694258e-03,2.495266792621184723e-04,2.959701120853424072e-01
2.722330385257406005e-01,-2.150039915326379392e-02,4.454701624221485412e-04,5.264521257556682016e-04,-1.660890202531628164e-05,3.095787077157531250e-03,2.834506928920745850e-01
2.847505771092201377e-01,1.099916958846786086e-03,-2.072232511258985388e-02,-5.235812887448156039e-03,-8.315554254556640698e-03,1.354816141235058204e-02,2.965874969959259033e-01
2.756035439831209244e-01,-2.825811035648984060e-02,-1.371253688523436931e-02,-1.791219477368578838e-03,3.610037344472021188e-03,1.056703746612682035e-03,2.969439625740051270e-01
3.101498144274960067e-01,-2.088591181361937332e-02,-1.334800186091990304e-02,1.060073075550870859e-02,5.322753748733414364e-02,3.605391283822315107e-02,3.462404608726501465e-01
2.772442315035850702e-01,-3.008899757530844599e-02,-3.324523488320629827e-03,1.341733793010890579e-03,9.141703663668799759e-03,7.273765103262192812e-03,2.955660223960876465e-01
3.566023315313595066e-01,-6.696532313697489691e-04,-3.259914459269599996e-02,-7.494334117950873092e-03,3.025072583017155564e-02,3.651899822343487173e-02,3.833862245082855225e-01
2.838847136384838876e-01,2.763120240005190187e-03,-1.709566284873875741e-02,9.839755362053425811e-03,7.463909690893860693e-03,2.202114728439867955e-02,2.948200106620788574e-01
2.732291205421162328e-01,-2.485489389249709302e-03,-2.174953176393372434e-02,1.299710688502504936e-03,1.555800781038062545e-03,2.099427754260468383e-03,2.858785986900329590e-01
3.040878987568301772e-01,-9.357850205167619895e-03,-2.286694271857603322e-02,4.992574959576972192e-03,1.176605837759219647e-02,2.954455427696969436e-02,3.252288997173309326e-01
2.399279382311591546e-01,-2.481242608602489408e-02,2.291503192775876108e-02,-2.828555403472522711e-02,-5.463744625484633077e-02,1.879867218096889156e-02,2.686003148555755615e-01
2.571903457133393744e-01,-1.964385483890325468e-02,-3.034384527262828923e-02,-2.038710554867062454e-03,1.559014940713646796e-02,3.105442428021373477e-03,2.836976349353790283e-01
2.753060322037783614e-01,-1.383593785179483560e-02,-1.282459151827698707e-02,1.094874836821684667e-03,7.174771863602414767e-04,7.820781437405634889e-03,2.889642119407653809e-01
2.824863272063548036e-01,-1.789743492827357285e-02,-3.022377783527244177e-02,6.370470483659184356e-03,1.342383872134958163e-03,3.345865655566765753e-03,3.069946467876434326e-01
2.744100381032110181e-01,-8.655211596526671269e-03,-2.303891058654186641e-02,-4.000441365832282416e-03,-4.278740672604993030e-03,2.048189161918927657e-03,2.907230257987976074e-01
2.740404068847099861e-01,-1.904475921168381769e-02,-2.413301632046900569e-02,-2.035794995853503885e-03,-2.903228373903209928e-03,7.595489548649303696e-04,2.957288324832916260e-01
2.836354921540862328e-01,-1.107435694552498517e-02,-6.472546633380149572e-03,1.508295045148612705e-03,-1.377370474397911085e-03,1.361320929460127852e-02,2.934064567089080811e-01
2.782771126639264070e-01,-2.757582067986796837e-02,-2.726601098890946151e-03,1.514119407844559525e-03,5.587932670204119080e-03,3.479448333726869059e-03,2.944489121437072754e-01
2.803801142467388097e-01,-3.383286357525486232e-02,1.095188882596682955e-02,2.108565429172552710e-03,2.087478593546679938e-03,5.184644303922606237e-03,2.945684492588043213e-01
2.738322404460397097e-01,-3.873816947323943660e-03,-2.406162198169864430e-02,-2.940601383732675128e-03,3.938291116472357001e-05,3.898507824714762468e-03,2.884545326232910156e-01
3.156461307056009913e-01,-2.922233324180845138e-03,-1.711202467655051351e-02,4.499284007741861068e-03,4.466407732926234823e-03,2.636402088396154128e-02,3.292618095874786377e-01
2.733109113691466474e-01,-2.400721715447795557e-02,4.504305921455259432e-03,-7.879682314889861847e-04,-8.427567826787009907e-04,6.751603883826039383e-03,2.843848168849945068e-01
2.770940523979250614e-01,-3.396519432139974426e-02,1.480857301404595039e-02,-5.351068564308036988e-04,-1.707318709330211091e-03,6.228714417097604497e-03,2.899848222732543945e-01
4.254592844590140976e-01,-4.636892336516315605e-02,1.012249290842404115e-02,-2.043452315279532111e-02,-1.359472299467493275e-02,1.751510037910752188e-02,4.493176937103271484e-01
3.313209927280089673e-01,-7.610185213516551528e-02,1.571763083465539668e-02,7.315100915600492503e-05,-1.472828463323797715e-02,1.344682649468359470e-02,3.717634677886962891e-01
3.378575967690755633e-01,-4.173064414853219772e-02,6.023267730028064593e-03,-1.100861087981120853e-02,-3.635818986458700178e-03,1.925763449227086907e-02,3.602174818515777588e-01
3.153312634740382259e-01,-1.642695229163107506e-02,-1.022743368942334585e-02,4.237178509450672051e-03,8.080820607854699578e-03,1.778337424022016777e-02,3.305203616619110107e-01
2.802907180233318307e-01,-1.815918754942144608e-02,2.183020398811574836e-04,-2.099442698792414099e-03,-2.754669243569829191e-03,1.587103233932682378e-02,2.910618185997009277e-01
2.699767850968505245e-01,-1.406566309132520343e-02,-1.232041294297703260e-02,-1.710622415921272867e-03,2.802043972587224346e-05,2.971339070591485707e-03,2.832361161708831787e-01
3.081647766760872709e-01,-2.704682907917491108e-02,2.425550650131058639e-03,-1.035595751059227750e-02,-3.873590954393242060e-03,2.380426361541464891e-02,3.246885240077972412e-01
3.874900661223873999e-01,-2.145895329083957748e-02,-1.842925099993400484e-02,-1.576063714419732864e-02,4.421492642761537528e-02,3.602137128719246767e-02,4.201335310935974121e-01
3.018142892354793161e-01,-3.859858124910844901e-02,-6.825890602998624379e-03,1.153620928008389050e-02,-2.319919901255545341e-02,8.295058845327475672e-03,3.290818631649017334e-01
2.682708524496080216e-01,-2.150917198060343927e-02,-1.727063771311963813e-02,-3.587372981683601553e-02,-3.270783735235778533e-02,4.050203143232732755e-02,3.078207373619079590e-01
2.745128668435378172e-01,-2.598301634684643813e-02,-7.424826905669618116e-03,-2.216608895620729176e-03,-2.764471584424028818e-03,2.227069413241178613e-03,2.917500138282775879e-01
2.742033200791214043e-01,-2.316955109914534128e-02,-9.279340480186193396e-03,-4.072647487664758821e-03,-4.087506746274042861e-03,1.735977332637588574e-03,2.908640801906585693e-01
2.829161404796866064e-01,-4.235169163953253491e-02,6.387657371385038751e-03,4.888567546094910871e-02,2.345281658086941293e-02,1.753030645923749423e-02,3.194727003574371338e-01
2.708606387754316502e-01,-1.523599326324380498e-02,-9.953992139533685002e-03,-8.019332770408157517e-04,-6.930145133539534650e-05,6.633124411574009040e-03,2.837286591529846191e-01
2.785984747866173672e-01,6.833659545647810529e-03,-2.981398044381070034e-02,-3.965074153371102132e-03,-2.555616997141447674e-03,2.364248993670194521e-03,2.919627130031585693e-01
2.726265964221896709e-01,-1.238183107832441232e-02,-1.592717448440097994e-02,-2.269599383748779464e-03,-2.792997464039156247e-03,3.451473941619108681e-03,2.869275510311126709e-01
2.696488190332149704e-01,-1.426239703987192131e-02,-8.407822930100020131e-03,-1.605111447535635715e-03,-1.362965865781567802e-03,2.585995304127072705e-03,2.810890376567840576e-01
2.666064230239719723e-01,-2.220060223859542103e-02,-1.855143600875790166e-02,-3.083130332665791622e-04,3.027497243173425927e-04,7.376388848481831018e-04,2.870036661624908447e-01
2.673555257173619859e-01,-2.366433715684583550e-02,-1.823985337821577846e-02,1.477779614368404919e-03,-3.122389341152823593e-04,4.198430587005935245e-04,2.883586883544921875e-01
2.548129473047707205e-01,-1.866991444123652921e-02,-3.293926611374348168e-02,5.577927781340485036e-04,-6.036301335256672677e-04,-4.486420753663151496e-03,2.810005843639373779e-01
2.615088096013291619e-01,-2.151915980641951054e-02,-3.302897474640119346e-02,-2.578519377088136686e-04,1.565438994176276239e-04,-1.504669727344317733e-03,2.889670729637145996e-01
2.641991797210085924e-01,-2.320045840065360077e-02,-2.586013979390423823e-02,-1.555921497497417001e-03,-9.166650384622311142e-04,-5.223780908063549401e-04,2.887570261955261230e-01
2.696965785096804291e-01,-2.040047786707131772e-02,-2.030952263463256524e-02,6.791203868181622076e-04,1.322930277983883464e-03,-8.897633109804485173e-05,2.900630533695220947e-01
2.732250409818902104e-01,-4.519011264212030587e-03,-1.744121939653156539e-02,2.008946191516565796e-03,1.717078968010383143e-03,3.752721638952426653e-03,2.845364809036254883e-01
2.696505287646476789e-01,-1.881861345645620409e-02,-1.464968071938127503e-02,1.328296723746247472e-03,1.252816011975892195e-03,1.034661861523873162e-03,2.864305078983306885e-01
2.781208998716457881e-01,7.592630242779438432e-03,-3.912608258357741509e-02,-6.290135974773152470e-03,8.985267159186195382e-03,1.542634691041197765e-03,2.972792685031890869e-01
2.699890549015697694e-01,-2.057063988701365864e-02,-2.210396924333657420e-02,7.276470781410722746e-04,-5.565426921646233994e-04,-8.503016621287624388e-05,2.913337349891662598e-01
2.685179063559272605e-01,-2.441729377862059125e-02,-2.814263734347050017e-02,-1.164348037856930860e-03,4.790495635559850274e-04,-2.202021891677624285e-03,2.948482632637023926e-01
2.539903904646467758e-01,-1.487818880960030399e-02,-3.538653430344422535e-02,2.118701622073427670e-03,-4.814122951470586019e-03,1.022905833883877048e-03,2.798411846160888672e-01
2.238414564389736849e-01,-1.015045911967968340e-02,-2.904160403612723873e-02,-1.028503437918037826e-03,-2.159802038045227288e-02,-2.753714268007183708e-03,2.468902915716171265e-01
2.723825603720725352e-01,-2.713980748793630438e-02,-2.500784432293266801e-02,6.096195615167802765e-04,1.616795019241117244e-03,1.196721745790775039e-03,2.984842956066131592e-01
2.680806616540452603e-01,-2.747713122029628308e-02,-2.436745079995862595e-02,9.927356792534709762e-03,-1.032077849382094585e-04,5.704138486531943296e-03,2.946833670139312744e-01
2.620206051393431657e-01,-1.979422323543139628e-02,-3.437784150334557975e-02,2.088504070835228016e-03,-8.391820269626178511e-04,1.161938109395563518e-03,2.894156277179718018e-01
2.615781581821515767e-01,-1.941818680334436720e-02,-3.304705895999145160e-02,1.106369712467225467e-03,-1.098654127585060912e-04,4.791589925158545329e-04,2.880603373050689697e-01
2.966689464025288325e-01,8.317520153147572870e-03,-3.129104621683617693e-02,-3.889910395367759954e-02,-3.715616664258071522e-02,2.675866528506640196e-02,3.270562887191772461e-01
2.134548559119646693e-01,1.697893727298338540e-03,-2.748255182291543808e-02,-3.766888795668346668e-02,-3.512599797145848218e-02,1.604138089220785712e-02,2.461747229099273682e-01
2.694015119131660807e-01,-2.587933786761310861e-02,-2.251948475033312136e-02,-3.337361896425770913e-03,-1.562464132605859298e-04,-1.636417280880629339e-03,2.936860322952270508e-01
2.504892510917491322e-01,-3.313799636764984402e-02,-1.665900386699255276e-02,-8.835964587348336605e-03,-2.760153088731648330e-03,-2.302053907747958050e-04,2.762233018875122070e-01
2.823886960590661355e-01,-1.065908397966892907e-02,-3.425839599523114454e-02,-1.586421902905339743e-02,-3.931579884764359149e-03,7.657521144765649587e-03,3.071269392967224121e-01
2.616514878103263220e-01,-1.971213668515080231e-02,-2.268395122389194052e-02,-1.886392038408815294e-02,-1.688663209200337925e-02,3.957989750776667696e-03,2.863223552703857422e-01
2.122294605528245171e-01,-2.980381403856770250e-02,-2.164542998254484485e-03,-2.320149472889512093e-02,-6.484563348552933870e-02,1.812355805902894981e-02,2.605179548263549805e-01
1.959821472702989731e-01,-4.374760923527482026e-03,-2.167513649393382202e-02,9.606855250163694583e-05,-1.953080832078991913e-02,9.895058606646323432e-04,2.122634351253509521e-01
2.629201176973671727e-01,-3.574378436943402571e-02,-1.584639930093212357e-02,4.447314893675100890e-03,2.090290854044498769e-04,2.116240688480741553e-06,2.893317639827728271e-01
3.073193395417099238e-01,-3.424548978076971673e-02,-2.183213851920445814e-02,-1.124360335087194350e-03,1.323752676433973506e-02,7.274349768211460857e-03,3.365544378757476807e-01
2.544531005171963844e-01,-2.580750439552309539e-02,-2.277391589839260211e-02,3.506231735279360245e-03,4.584211362434211477e-03,-5.195213271324629171e-03,2.790804803371429443e-01
2.662806398920068429e-01,-3.002882909976413439e-02,-2.186006190380522518e-02,-2.629687188099920857e-04,8.365924288813674208e-04,-3.752738052250921292e-03,2.923869192600250244e-01
3.682130663506168466e-01,-1.325056902642590684e-03,-5.934939743505820986e-02,5.547161871179118187e-02,1.235201393125634484e-02,1.717321171261431551e-02,4.146579802036285400e-01
2.656497338842168654e-01,-2.604816822035925516e-02,-2.325591625406880913e-02,3.594270704243605376e-03,-4.849469360617105401e-05,-1.523103524242726530e-03,2.903905808925628662e-01
2.560514768615275161e-01,-2.142559471637221769e-02,-2.229777516593794973e-02,7.971489131561527303e-03,4.726146830954688601e-04,-3.677460092392050191e-03,2.783310413360595703e-01
2.746500490031327790e-01,-1.137812801059742696e-02,-2.093685714071776005e-02,-4.182992123376114840e-03,-4.263175477647513680e-03,3.420251181858023019e-03,2.911694645881652832e-01
2.754864233962667219e-01,-2.564435793493705096e-02,-6.129224574329183994e-03,6.483801157290540809e-03,6.321731451685673811e-03,9.737633322183232229e-03,2.927703261375427246e-01
2.644516845218145562e-01,-2.057380246564100013e-02,-3.326444660716826318e-03,-5.441321224732103418e-03,-7.955272296835028123e-03,1.135901808000430203e-02,2.780050933361053467e-01
2.704806596885420689e-01,-2.211303177765369665e-02,-2.086752877290537489e-02,-4.846028431156465185e-04,4.553379358420222515e-04,-1.049985338023649677e-03,2.919808626174926758e-01
2.709039740092321624e-01,-2.324093175647541643e-02,-2.452841200055323745e-02,-3.720731310999518039e-04,-9.967930275120665679e-04,3.173491145647491535e-04,2.947970330715179443e-01
3.143683236757054966e-01,-4.039877741569636305e-03,-3.091071517954679937e-02,-1.779599441484060185e-02,-5.408434897997432649e-03,1.878665336237975506e-02,3.357951343059539795e-01
2.753774059631340365e-01,-1.896166338368936166e-02,-1.514319958314634673e-02,-1.780668464857191918e-04,-1.736288910472735814e-02,1.109726068407313262e-02,2.946185767650604248e-01
2.377427087937890038e-01,-1.905378811254906934e-02,-2.265081647084148109e-02,-2.692938005316264372e-02,-2.251721768880085919e-02,-1.959971487944129568e-03,2.656863927841186523e-01
2.741774744179149015e-01,-1.444494921783315289e-02,-1.990494445074872387e-02,2.949876115813521247e-03,8.288075930051910485e-04,-2.506552993440104484e-03,2.914714515209197998e-01
1.650213403520507105e-01,1.140160402978698112e-02,-1.089385315467991666e-02,6.775356935729297259e-02,-3.295061983110527531e-02,-1.874025430109201029e-02,2.135499715805053711e-01
2.163458506907846579e-01,-2.063795264209668245e-02,-1.217171239667047544e-02,-7.514799944902178161e-04,7.043523682493928878e-03,5.611570146996813779e-03,2.333915978670120239e-01
2.192170767047289526e-01,-1.166948075103146909e-02,-2.145491017446965465e-02,6.584971591147520918e-03,-1.160373356251692516e-02,6.754170389351220848e-03,2.373490333557128906e-01
2.608748904963980042e-01,-2.212571438488510067e-02,-3.079921397990166565e-02,7.632068264073286882e-05,-1.623610145942288360e-03,2.890488487494098993e-03,2.874929010868072510e-01
2.708354421382193067e-01,-2.940276093773799837e-02,-2.192869386471844872e-02,9.378560803173471502e-03,-1.629493381493585073e-03,1.368322615124665555e-03,2.970392107963562012e-01
2.847862933324689649e-01,-1.314423530484357117e-02,-3.140244739149047892e-02,1.520324949253783892e-02,-7.662015019653531725e-04,-5.734289554282036121e-03,3.087547123432159424e-01
2.746441179473592120e-01,-2.335634064507399743e-02,-2.441282352294542324e-02,4.398388600131024340e-03,7.065732847309927431e-04,3.053795679411761758e-04,2.986302673816680908e-01
3.277201504857984449e-01,-2.472659892115550151e-02,-3.619555214577882540e-02,1.029967232154744422e-01,-3.635838279752075936e-02,-4.744963662560268414e-02,4.134460389614105225e-01
3.331147109391814354e-01,2.934031574593098934e-03,-4.102041767489356117e-02,6.817255150797549290e-02,-1.754119724089531554e-02,7.889151676229427118e-04,3.746086359024047852e-01
3.167044548280315563e-01,-1.658797749716839354e-02,-2.101653798751665359e-02,4.179280154993029323e-03,8.141758860661265154e-03,2.101638043229785147e-02,3.378694951534271240e-01
3.670019183736413781e-01,-7.679043281078323790e-04,-4.027225934543687824e-02,3.512383068467494346e-02,-4.222001044715810447e-03,-2.099461541541701795e-02,3.955004215240478516e-01
3.288810829731906860e-01,2.253135925073233847e-02,-5.085532919428129017e-02,-1.905306669816317355e-02,-3.414996298196583749e-03,1.477103272585781821e-02,3.514204621315002441e-01
2.849628454825555712e-01,4.773767546804863482e-05,-2.958579792166410316e-02,3.054715929792074011e-03,5.329189364808681328e-03,9.031400773205302060e-03,3.014228045940399170e-01
2.831856612377007254e-01,-3.287369187117319957e-03,-3.742391777005171782e-02,-4.477045279401755014e-03,1.929092145857192516e-03,-6.711500378025308502e-05,3.050944209098815918e-01
2.820041487879481612e-01,-9.979296107811147509e-03,-2.822934481733412049e-02,-4.185697919719957795e-04,-8.682796008775135570e-04,4.282840554905058966e-03,3.016188442707061768e-01
1.967593728182472079e-01,-1.208739854328949592e-02,-1.023720820735354864e-02,-1.021038266235801137e-03,2.432275593914135555e-04,5.230663141618349839e-03,2.081330716609954834e-01
2.178350183337373347e-01,-1.151787014038341272e-02,-2.245469005103674365e-02,1.705904328954713190e-04,-4.902938471293339555e-04,4.164928033544008749e-03,2.351246476173400879e-01
2.244539344153187455e-01,-9.299283057263504904e-03,-2.547031599900366483e-02,4.294476899846351274e-03,5.227482357336814094e-03,-2.911083398029192578e-03,2.425795346498489380e-01
1.395289009135780023e-01,3.434424037260429274e-03,4.432862673871773573e-03,-3.441536393187160162e-03,9.002277413817792902e-04,3.104857445712675356e-04,1.357389986515045166e-01
1.375649879140169174e-01,-5.747843525968375500e-03,-1.183971274839643040e-02,-5.163865300810335096e-02,-4.764912920660614032e-02,2.320106864356337537e-03,1.904621720314025879e-01
2.654839974418179982e-01,-2.084492596172733692e-02,-3.447071896375339395e-02,-3.191538884306987177e-04,1.646999878006179816e-03,8.865238085575829303e-04,2.933976352214813232e-01
1.184055624708387766e-01,-1.861556953542421039e-02,-3.582012313834428974e-02,-2.972900011996294778e-02,6.002762402862796276e-02,-2.157674453774012860e-02,1.904894411563873291e-01
1.418272261465300388e-01,1.296963030901959746e-03,1.227404289378418445e-03,-2.115584697760913499e-03,3.531465327891797281e-04,1.572329859407307657e-05,1.406141370534896851e-01
2.758983380699405186e-01,-2.078224687352886457e-02,-2.437764441273210236e-02,-1.468495023115684714e-03,-1.579586417685284374e-03,-1.116832853085898691e-03,2.985241711139678955e-01
2.736444253036606211e-01,-1.467157459359971772e-02,-2.808147233302939194e-02,-2.910056130620571925e-03,-1.027076415088173066e-03,1.359775565793380379e-03,2.953072190284729004e-01
2.760970186278682847e-01,-1.619415436657445362e-02,-2.510788257101710663e-02,2.787567006010761676e-03,-6.222007856503375921e-04,-1.620401646774964253e-04,2.968897819519042969e-01
3.940096227540296203e-01,2.093382916228292423e-03,-4.430590484703617049e-02,-2.482958238710713909e-03,2.617439705689057067e-02,2.540700013102904081e-02,4.218367040157318115e-01
2.746792451518564881e-01,-2.897221967217457339e-02,-2.320394352712742969e-02,3.520318040416839725e-03,5.278624381363934128e-04,-1.028057636519231393e-03,3.008772432804107666e-01
2.731005837240130241e-01,-2.141700295435688961e-02,-2.374073009280770752e-02,-3.535921492090612970e-04,-8.168049200639664964e-04,-1.032143038074262290e-04,2.956903576850891113e-01
3.004706437100890248e-01,-2.015088824778099585e-02,-2.731016788142257012e-02,8.806380622173860112e-03,1.085978496789360460e-02,1.061428130228112519e-02,3.256828188896179199e-01
2.562647933211165685e-01,-2.854430754737022347e-02,-1.591537125947956044e-02,4.913320423608911504e-03,6.884133260999928446e-04,3.610544505128772505e-04,2.788424491882324219e-01
2.590367858055930284e-01,-3.276567155692797217e-02,-2.121621890022691581e-02,-2.514704721239957932e-03,-1.133851053891119171e-03,-2.880577903652779392e-03,2.862859070301055908e-01
2.727021334631061222e-01,-1.109034060082801643e-02,-1.623651491975144912e-03,-3.348087765795049794e-03,-2.611203722068325146e-03,1.595703696090894005e-02,2.806406617164611816e-01
2.568551424485538970e-01,-2.545303249158545333e-02,-2.230727272209140355e-02,-2.594691685530751621e-03,-4.265531191886141882e-03,-5.465635319567502606e-04,2.808832526206970215e-01
2.692235347187316163e-01,-1.477151121228266473e-02,-1.648181085146813163e-02,1.006564982465913034e-03,5.216097865120915928e-04,4.081002718795918860e-03,2.849484980106353760e-01
2.780482181281887510e-01,-2.765380497914271540e-02,1.817246856096174645e-03,-1.397238678196939879e-03,-4.353810434298247163e-03,1.435434709603217174e-02,2.932469546794891357e-01
3.251966715023698051e-01,-1.959412977226052122e-02,3.818161340248260593e-04,-8.403195613327538518e-03,-1.922369300673314185e-02,3.410954240646581898e-02,3.423493504524230957e-01
2.741476182645166126e-01,-1.570474365959106944e-02,-2.514301248017844492e-02,-7.487940384661903245e-03,-2.532098837895215872e-03,5.312640108731148418e-04,2.950041890144348145e-01
2.774534379832373499e-01,-6.867271550806408609e-04,-2.668053035408407547e-02,-4.542546340209738590e-03,-1.743337617473906013e-04,2.865869364383984413e-03,2.921543717384338379e-01
2.695625016724691458e-01,-2.533422082335258507e-02,-2.341084629341935730e-02,-3.536364248160899122e-03,-1.149412007195575779e-03,-1.429160420510700328e-03,2.940207123756408691e-01
2.865145510155708286e-01,4.281223706943393381e-03,-3.550751923441028413e-02,1.305863109155270228e-02,1.860334487173134245e-03,4.182065891275250219e-03,3.050294220447540283e-01
2.688864155210561324e-01,-1.879756408532631817e-02,-2.287034518126977722e-02,1.541610343750881608e-03,1.450476013691444051e-03,5.467465708076220616e-04,2.897665798664093018e-01
2.762342827320394267e-01,-1.402884476852397921e-02,-3.246589520793179140e-02,-2.749327907928916792e-02,-2.654867057325095616e-03,-3.390265979009487573e-03,3.037556111812591553e-01
2.735984763366087202e-01,-3.204926927058471264e-02,6.291234091925584915e-03,5.838941773953212552e-03,1.113188583390636996e-03,1.460038666015717711e-02,2.896849215030670166e-01
2.635423825618279370e-01,-3.094621417649011386e-02,-2.304940517553374923e-02,-2.127653617408303648e-04,-4.560998793559711351e-04,-5.155704632653994833e-04,2.906233370304107666e-01
2.748976838604498818e-01,-2.201361438015704552e-02,-5.454822850854829097e-04,-4.040389377160384654e-03,-3.874633345544415720e-03,3.210663804109247389e-03,2.869982719421386719e-01
2.694143218351739977e-01,-1.569003286089493132e-02,-9.889171823120407323e-03,-5.557909764899963013e-04,-2.952961381338044299e-04,8.989864961165707326e-04,2.822550237178802490e-01
2.755530281749685173e-01,-3.328868877769922130e-02,1.041922237014245023e-02,3.129181989721311176e-04,-1.457437774732431648e-04,4.938039401199053116e-03,2.896001935005187988e-01
2.779697595682844025e-01,-2.868328146973044002e-02,-4.012520232293620426e-03,-2.904548142239090150e-03,-5.856400062562387883e-03,1.181125841951278978e-03,2.953163683414459229e-01
2.729005858736048840e-01,-2.395659892662116430e-02,4.660969820955651599e-03,-9.869120039156938865e-04,-9.237745054320480303e-04,6.569194571004409108e-03,2.838710546493530273e-01
2.695695790451259066e-01,-1.817362424681660815e-02,-2.961601371466736354e-02,2.764908556745944435e-03,8.087320982087959839e-03,-1.915325060673247082e-03,2.940233051776885986e-01
2.695113253751530991e-01,-3.095196719007747843e-02,-2.288692234613358412e-02,-4.258397399256558073e-03,6.415140996057598112e-03,3.566226499696754926e-03,2.968770861625671387e-01
2.704098285773021138e-01,-2.726245783554179236e-02,-2.254034678797944835e-02,-6.779757175787587582e-03,3.089150818796120024e-03,6.455723242847771640e-04,2.956234514713287354e-01
5.950975967047521242e-02,1.107120059998472662e-02,5.170435287907605010e-03,-3.548135388179582406e-02,-9.315528113822704737e-03,8.387410074807590335e-03,8.315708488225936890e-02
1.432222888038621744e-01,-1.587293766458790223e-02,-5.725914918162385014e-03,2.098409750481017039e-03,5.249847167844830242e-02,2.336269869950281710e-03,1.791584938764572144e-01
2.073774052030206705e-01,8.740414427877346570e-03,-2.378576221878775376e-02,-4.831465828459941686e-02,1.603318861440260895e-02,-1.528858821884327215e-02,2.354800254106521606e-01
2.779021195039693692e-01,-2.707897240927167881e-03,-3.337188117312669955e-02,8.815222705348447780e-04,-9.588638087322273770e-06,-3.140174413627537520e-03,2.971847951412200928e-01
2.641787160931968192e-01,-2.993153716681164200e-02,-2.468381568458298536e-02,-1.196974153873920288e-03,-9.513473396819927767e-04,-2.778889047500796797e-03,2.915735840797424316e-01
2.749736620901418460e-01,-2.576440827585912974e-02,-3.485356819517823612e-03,8.589690380855882074e-03,2.428317464393556745e-03,-1.803266676147487896e-02,2.923254370689392090e-01
2.801612836686858121e-01,-3.346329836209180342e-03,-2.523652866521097771e-02,-6.718058652720084855e-04,1.562653721056745781e-03,-2.971928683872817733e-03,2.951219379901885986e-01
2.687797144277068728e-01,-2.954173958145436818e-02,-2.500838516635198183e-02,2.345386025969047853e-04,5.807387374336968116e-04,9.916373120928243141e-04,2.960877716541290283e-01
2.850567389804902207e-01,-4.767508053923563693e-03,-3.906289043151944806e-02,-2.438956736408182807e-02,7.834317208736014948e-03,3.679121428352654169e-03,3.116459250450134277e-01
2.729906633487897971e-01,-1.845993324727901452e-02,-8.893621706087831424e-03,-1.219190815231923188e-03,3.197102816022481635e-03,-1.095321093265986222e-02,2.874750494956970215e-01
2.935534267301177502e-01,-1.849958540021158504e-02,-2.070412575157988544e-02,-1.603990606024179727e-02,2.852147726001574152e-02,-1.147385752424076241e-02,3.188684284687042236e-01
2.757390469757176055e-01,-2.377955970961805054e-02,-5.838281604582634676e-03,-2.815398638915298912e-03,3.054081375428085044e-03,9.515661911591980632e-03,2.915183305740356445e-01
2.840136457108539680e-01,-8.816760186585864689e-03,-5.496805557328274250e-03,1.470532224682582004e-02,2.134081655234668085e-02,3.170535747450567432e-02,2.996985316276550293e-01
2.994067150836066671e-01,-2.489782575893606520e-02,3.926690221395592872e-03,-3.203872754693734559e-03,-3.089845960275930739e-03,1.530150835683154187e-02,3.121189177036285400e-01
2.802569760226113482e-01,-2.444172418195919572e-02,-7.549675063483057835e-04,1.000415253281793917e-03,5.432753501543345284e-04,1.199455223056565718e-02,2.943136692047119141e-01
2.745901005649968862e-01,-2.404629545940574487e-02,4.176611304412991554e-03,-2.584698776244155616e-03,-2.929975054158044830e-03,6.522177339314206602e-03,2.858763039112091064e-01
2.715867554002714401e-01,-7.341081702294846578e-03,-1.944734883734203224e-02,8.812055920851488439e-04,-1.598257068215330583e-03,3.395689085380823851e-03,2.852519154548645020e-01
2.720783429188010638e-01,-1.416303844142936808e-02,-1.784172061593548853e-02,-1.555508239108661624e-03,-3.013045538021301775e-03,2.136170353493446056e-03,2.881819605827331543e-01
2.997135053688013695e-01,-2.813508670702222214e-02,5.334364039177696970e-03,-3.138202430718073713e-03,-4.584339387551652871e-03,2.327511737541682751e-02,3.151980042457580566e-01
2.728189975500191489e-01,-2.258271145827271675e-02,-1.764375251546393408e-02,-1.328891475516479504e-03,-4.373193014988604153e-03,1.891912563101830723e-03,2.930887043476104736e-01
2.723283925380647341e-01,-2.342071872830679691e-02,-2.605974402397956413e-02,-6.411605740624352770e-04,-1.625025375699838855e-03,-9.491022547546939647e-04,2.970973849296569824e-01
2.690000883984376978e-01,-2.370745711196473038e-02,-2.241699540879044106e-02,-1.729984267650669372e-03,1.357661171767141984e-03,4.048036874782213166e-05,2.920892834663391113e-01
2.444698388914362253e-01,-2.439325973959562133e-02,-2.437980536136775955e-02,-1.864771208162569610e-02,-7.930328514080979552e-03,-6.614479770665446755e-03,2.713795900344848633e-01
2.681888304635427489e-01,-1.471188002253018268e-02,-1.262348518436724742e-02,-1.884375360505815124e-04,-8.811554362274330848e-04,9.312718358250147857e-04,2.818712592124938965e-01
2.728740358678337641e-01,-2.135126241479275155e-02,-2.562376971517815738e-03,2.054290998580176730e-03,1.519539983381767816e-03,2.046933560613885088e-03,2.853516042232513428e-01
2.688404579262800853e-01,-1.527096805595279383e-02,-1.756491026919299037e-02,8.310735397851022393e-04,-1.277621320590156741e-04,7.277271072315922651e-04,2.852718234062194824e-01
2.761596332242863827e-01,-2.689681401550197970e-02,-6.002211880592953075e-03,2.722669032153449218e-03,1.185187139342091557e-03,1.412248397173310145e-03,2.932234406471252441e-01
2.784974257244805518e-01,-4.081660550393292897e-02,1.488186039845873498e-02,4.479927277479537479e-03,-5.836394028437667109e-03,6.388336611790079202e-04,2.957060933113098145e-01
3.262177844306526908e-01,-1.974374543866647125e-02,-1.007219545723750387e-02,-2.119392628905658604e-02,-1.864816383731510499e-02,3.343338533833146303e-02,3.495441675186157227e-01
2.741771485085239268e-01,-1.488755508890036994e-02,-1.747348443147893338e-02,-4.263816149000498705e-03,-4.945709106643733297e-03,7.028266729366165581e-03,2.908413708209991455e-01
2.750120247041866195e-01,-2.562088998875981793e-02,-1.908027580766245845e-02,-9.896989506991233851e-04,-3.114523552940967870e-03,5.037260880752895964e-04,2.974717020988464355e-01
2.729323188498298247e-01,-2.286378024851105917e-02,-2.924871411030827151e-02,6.634323753748611182e-04,3.106051484026549174e-03,-1.000668925856761397e-03,2.990953028202056885e-01
2.240879218030538411e-01,-1.461649094114771119e-02,-2.466809041936780800e-02,1.023268768338705947e-02,2.740509661208020975e-02,-5.832840891881934352e-03,2.492980211973190308e-01
2.712815396548290403e-01,-2.089639114284812249e-02,-2.965420176422471632e-02,8.317769711824182311e-04,3.677583318360816769e-03,1.783294875682990414e-04,2.967258393764495850e-01
2.628040864808967036e-01,-1.891918308842141516e-02,-3.395014319325083407e-02,2.515945125309950250e-03,4.123310000665053772e-03,-2.527189615455038927e-03,2.896854579448699951e-01
2.495979267361130016e-01,-2.370421504967419601e-02,-2.586784327415628248e-02,9.439840648470315329e-03,4.244910227181401471e-03,-5.415755851894986372e-03,2.751353383064270020e-01
2.705031429372239948e-01,-2.224104134780005571e-02,-3.003763795430700045e-02,-9.832072820687942053e-05,-3.524716265206689295e-04,-1.876637740094059073e-04,2.967201769351959229e-01
1.259253376574552274e-01,-1.139882456410008099e-02,-3.043352072779212381e-03,1.413671468744614676e-02,4.582310499218434307e-04,-4.465117732810150453e-03,1.357951164245605469e-01
2.172158482226954068e-01,-1.919476655279085675e-02,-6.004892539833703302e-03,6.323317797054155143e-02,6.461969631798607228e-02,1.918288385285242537e-02,2.803071439266204834e-01
1.242769732969204316e-01,-1.551493665284197493e-02,-3.560726655210107172e-02,6.221672549032486454e-02,3.944000922306038076e-02,4.376025809776820652e-03,1.977143883705139160e-01
2.683729581699414446e-01,-2.772805167275969873e-02,-2.544201530005570089e-02,5.185055559620840382e-04,9.267801182945861901e-05,-6.696934907347260350e-04,2.949683368206024170e-01
2.010857618744343045e-01,-1.058808890740377262e-02,-1.457021833181677828e-02,8.376508431774232211e-03,7.795860773827028439e-03,-4.598582262554777762e-03,2.147576659917831421e-01
2.571417814748444552e-01,-1.539364706173139419e-02,-3.433317986587519632e-02,2.157516994595369553e-03,7.090180986962886164e-03,1.275647104088022251e-03,2.827819287776947021e-01
2.011397163601520155e-01,-1.184335620769540187e-02,-1.639400204692165186e-02,5.680269997665582035e-03,1.800825797306809459e-02,-2.208990675677949440e-03,2.177981585264205933e-01
1.372901656637036116e-01,3.894635280904779062e-03,4.199321192533647662e-03,7.835585791775671882e-04,6.815774750008902344e-04,-2.559803593748739337e-04,1.332563310861587524e-01
2.867554567214766204e-01,1.318329517065061629e-02,-3.731662382793932142e-02,3.384405285629651060e-03,2.634278059638102930e-03,2.276261343187250662e-03,3.021225929260253906e-01
2.793990120089000495e-01,-3.244116155542278723e-03,-3.233403813250507186e-02,-3.971621382637700870e-03,-4.237593268950795881e-04,1.948389808421259863e-03,2.983532845973968506e-01
2.767863504118869278e-01,1.695302669951062602e-03,-3.042903911637276360e-02,5.287032799082568880e-03,1.556211620282662959e-03,2.843384698905171599e-03,2.926765382289886475e-01
3.114319623146613591e-01,1.880307298633426827e-02,-4.489164018610170004e-02,4.599600931900207912e-02,1.173770056888364006e-02,3.731808800882604679e-03,3.393075168132781982e-01
2.829443586713841774e-01,9.645006073160419802e-03,-3.617566595205354285e-02,-3.019926766968518243e-03,4.505843669522704032e-04,5.298834944844049884e-03,2.990435361862182617e-01
2.846836140403018467e-01,-1.101430390541241477e-02,-3.097791357615206631e-02,1.882057572246196436e-02,3.044963102806027937e-03,-1.141973894963562580e-03,3.079502880573272705e-01
2.716165510354967561e-01,-2.562937426259304097e-02,-2.530000558832580515e-02,1.811949545579151499e-02,-8.040832089012499555e-04,-7.618533214202496268e-04,2.987406551837921143e-01
2.860048091867270492e-01,5.534582415297334412e-03,-2.239447509961275951e-02,4.172825520924467596e-02,2.574767691177322002e-02,2.750529932891337265e-02,3.110611438751220703e-01
2.802317697054257373e-01,-2.275586488805284024e-03,-3.108933397347585226e-02,1.714283680305784836e-03,-1.138310126720781779e-04,-7.305136957720401517e-04,2.979785203933715820e-01
3.119029576501362588e-01,6.800973830905276962e-03,-4.376890743101538583e-02,1.316268720323311193e-02,-4.800947811649383841e-03,-9.563856632121258956e-06,3.341592848300933838e-01
3.248517767204911477e-01,1.637265253699202172e-02,-4.634566989175256668e-02,7.303533021960328595e-03,-2.079798499498140981e-05,-1.790738452657605201e-02,3.457778096199035645e-01
2.585347291233426326e-01,-2.739249351572471680e-02,-2.539452771456969515e-02,-6.212610500036132646e-03,5.743973119168266708e-03,5.004293533330629595e-03,2.854417562484741211e-01
2.684375644103841885e-01,-3.059800009110855146e-02,-2.688816472208174768e-02,1.159196452378871537e-04,-3.247686940923122357e-04,1.913313395610025027e-03,2.972171008586883545e-01
2.676167423884551200e-01,-2.630938960640988311e-02,-2.381762227921445374e-02,8.869199030089873655e-04,2.374983787981308891e-03,1.415399911034258523e-04,2.927212417125701904e-01
2.705835544587904540e-01,-2.543665823443341800e-02,-2.530036333641809410e-02,-7.109733183471849012e-05,3.362502426215387055e-03,4.857687958364437036e-04,2.960106134414672852e-01
2.605252885494687698e-01,-2.618561392406044963e-02,-2.517725071842839835e-02,-3.719132529230323621e-03,1.771980169553225449e-03,2.508648318386055408e-03,2.863299548625946045e-01
2.627385805893165394e-01,-2.443750557840268511e-02,-2.805476104249578218e-02,-1.666479363478108947e-03,6.207793455193376018e-05,4.000627215915284439e-03,2.890991866588592529e-01
2.680537705047058572e-01,-2.808419926909602737e-02,-2.653028076671822000e-02,-3.900017591680597509e-04,-2.256778460779182579e-04,3.121435730229962097e-04,2.953656017780303955e-01
2.715188490576286306e-01,-2.717795775798484414e-02,-2.798472215787672912e-02,3.134894473780385524e-04,9.465914585909155580e-04,7.038239205825664625e-04,2.991084754467010498e-01
2.691690204330420277e-01,-2.549448909991441914e-02,-2.963337139670585429e-02,3.529100447168236217e-04,3.501193378154984206e-04,5.801500710065825381e-04,2.967575490474700928e-01
2.691965796246899023e-01,-2.875490001464495182e-02,-2.455929796379395513e-02,-1.715126338859282191e-03,1.896425020943265545e-03,1.261687269174243059e-03,2.959172129631042480e-01
2.995640169411876719e-01,-2.183837157087724357e-02,-3.061623340303168406e-02,2.400140046223169649e-02,-1.190802609289640622e-02,-1.122990344826490204e-02,3.297418951988220215e-01
2.312587242619567884e-01,-1.267805228470596235e-02,-2.829990523650931233e-02,3.372132171418820885e-03,-1.469764733266632623e-02,2.315774400490389594e-03,2.534920275211334229e-01
2.024371410398462523e-01,-1.383579079993509098e-02,4.104470186031411449e-04,6.243638284410560346e-02,-5.173808020120440609e-02,-2.510545691831860687e-02,2.559533119201660156e-01
1.938010812294816976e-01,-1.448066773572956323e-02,-1.968788291984102656e-02,6.927632216839160750e-02,-3.313997525851555825e-02,-3.458949404956590534e-02,2.564657330513000488e-01
2.194962832523331409e-01,1.553538043890800857e-04,-3.276949037154228139e-02,1.083541681003651613e-01,-7.369286817604145910e-04,-3.427867822766904327e-02,3.084880113601684570e-01
1.663793035067581694e-01,-1.987669204534844858e-02,-1.613285234060587992e-02,3.163090577757480398e-02,-3.159912047629637871e-02,-2.633023616659116786e-02,2.051460444927215576e-01
2.068197510269718098e-01,-1.101878646614065649e-02,-2.646071828879752175e-02,2.284555115431116234e-03,-2.099326995411341171e-02,2.748143401694803055e-03,2.289462685585021973e-01
2.692041484027084541e-01,-2.069734905171811967e-02,-3.337673663755619247e-02,3.494021753964804411e-02,-1.580849148051689801e-02,-4.227810874857221637e-03,3.038835823535919189e-01
2.798176849074933137e-01,-2.676590578444881796e-02,-1.387724447622371016e-02,7.919758801502948425e-05,-5.308721535005227372e-03,-3.037761937068322610e-03,3.005335628986358643e-01
2.604143134205032517e-01,-3.750594482824401443e-03,-2.826454608232412125e-02,3.077379052453441816e-02,-2.252149215074398386e-02,-2.096266510366741331e-02,2.872991263866424561e-01
2.674598813282710874e-01,-2.446013358960982820e-02,-2.440383850282733247e-02,-2.553189362942226166e-03,4.964731371869055953e-04,-1.460720871673392525e-03,2.919375896453857422e-01
2.769157253517089412e-01,4.879441289230984635e-04,-2.944940965335246519e-02,-2.773020049486298044e-03,3.626193435792165153e-03,-3.471431642121463289e-03,2.927161455154418945e-01
2.739922036262592564e-01,-2.410035850183032957e-02,-2.306282584767947730e-02,2.973052238777197567e-03,4.417915806737949353e-04,4.976911682726509699e-05,2.976207137107849121e-01
2.772456686405194159e-01,-4.729214751223731472e-03,-3.191310049289003414e-02,-4.607526724651575534e-03,3.952914610320135656e-03,-4.832681268090930404e-06,2.966893017292022705e-01
2.785550391904407785e-01,-6.541949902394095240e-03,-2.073073968818012203e-02,5.586288531815046011e-03,-1.599692760002899587e-03,-1.223443944543157330e-02,2.933890521526336670e-01
3.309552078288248711e-01,3.885814339487092539e-03,-4.452869961660901876e-02,-4.336661713163748877e-02,2.117446569360277933e-02,-2.619577034564054066e-02,3.663317859172821045e-01
2.684007809486224083e-01,-2.738792190243684310e-02,-2.841320116653602013e-02,4.845642084675687734e-04,4.473138261182371504e-04,-1.531559397896899936e-03,2.963167428970336914e-01
2.694621472748481850e-01,-2.649733357664568745e-02,-2.890395395968491099e-02,3.639575463021510167e-04,-7.750050489198708099e-04,-5.858153625002295419e-04,2.971755266189575195e-01
2.665899146644520323e-01,-2.478674417729585799e-02,-3.024467527829982627e-02,-6.464634520720064642e-04,-3.087587664462474661e-04,-9.879473239511233924e-04,2.941511869430541992e-01
2.730182917935906617e-01,-1.297786903006857562e-02,-3.006364957038698549e-02,-4.463650565589301344e-02,-1.597400802204981124e-02,5.538334786083462871e-03,3.062792420387268066e-01
2.587838219583725174e-01,-2.335632276393423412e-02,-2.779225829808021353e-02,-4.151358559154477018e-03,-2.331363897543532911e-03,-4.367398276891813931e-03,2.846041619777679443e-01
2.699692114510493512e-01,-2.524082549739131709e-02,-2.424565062219355416e-02,1.812963810675338717e-04,-1.212701719824383967e-03,-6.310054352661765295e-04,2.947233915328979492e-01
2.692637711490372121e-01,-2.395666891144104804e-02,-2.527067254383956463e-02,-9.742190070214354667e-06,1.230063741995372686e-03,-6.220367213108378026e-06,2.938873767852783203e-01
2.312417009755523278e-01,-2.370024131337311601e-02,-2.003846122828985277e-02,-1.890046650748733806e-02,-1.638592492335082251e-02,-6.821115601196688777e-03,2.570836842060089111e-01
2.655758522195326155e-01,-2.590708584537500248e-02,-2.274398774398035672e-02,2.615205119865666983e-04,-5.514690507834182302e-04,-1.810937504703556006e-04,2.899164259433746338e-01
2.664977260054897656e-01,-2.584382147545286057e-02,-2.262073975432969675e-02,-2.210029147140611834e-03,4.894872851743370233e-05,-6.719680377188559260e-04,2.907709479331970215e-01
2.604391248334514408e-01,-2.293462834739094791e-02,-3.091499620845808427e-02,1.807118183066094700e-04,-2.879444952937641657e-03,-3.008130091964468077e-03,2.875376641750335693e-01
2.665910742754006302e-01,-2.842097806335169841e-02,-8.123904133674905714e-03,2.241472969226025388e-03,-1.786798313107840902e-02,1.528655119728730867e-02,2.883229255676269531e-01
3.992232818363315450e-01,-7.743892526961310141e-03,-1.965346361643760531e-02,-2.453461561071305225e-02,-4.980711966417215170e-02,3.119187028999972217e-02,4.275252223014831543e-01
2.878595679870354362e-01,-3.282264126338885202e-02,1.209456835193883917e-03,-2.224215537903700274e-02,-2.829861339674556026e-02,1.662174698604843015e-02,3.127254247665405273e-01
2.733656846591588363e-01,-2.389327086158869740e-02,-1.725302613372217686e-02,1.473420442510472300e-03,-6.032672453202705606e-03,1.554848842834254379e-03,2.942040860652923584e-01
2.845606405516144521e-01,-7.522138092334498816e-03,-8.926788534906013317e-03,-6.794164919095395383e-02,-6.017903459554165002e-02,3.455130619608696996e-02,3.376666009426116943e-01
2.658649400133221152e-01,-1.720566435474663036e-03,-3.289751024202307306e-02,-3.417405675345564636e-02,-2.282966489343736180e-02,3.130295076239323487e-02,2.982001006603240967e-01
2.981214767348991934e-01,-2.216148523646346846e-02,3.986314020209824616e-04,-3.240122492243138058e-02,-5.131416620558825609e-02,2.786823245127265439e-02,3.305198550224304199e-01
3.543731837269335494e-01,-4.364969643857230519e-02,3.958149922980200297e-03,-1.142528116970848405e-02,-4.822981278555598522e-02,3.390024540379111412e-02,3.905858993530273438e-01
2.585192692506659284e-01,-2.782530853310356822e-02,-2.629309612218391767e-02,-4.041225132616781124e-03,-5.274052303041364999e-03,-4.256402371984043670e-03,2.859084010124206543e-01
3.175127419199155199e-01,1.821488528182733935e-02,-4.303627900123313532e-02,-1.104773067663662386e-02,-4.692890109514129444e-03,1.774245291280402217e-02,3.362140059471130371e-01
2.980700693533208101e-01,-1.462228605162541051e-02,-3.536044928443379809e-02,-1.631959800063916347e-02,-1.033283868636932640e-02,1.075605375588550676e-02,3.258183896541595459e-01
2.185589247228280074e-01,-2.619935205710631487e-02,-9.364322289277346445e-03,-1.782016861048317860e-04,-2.131336326841298118e-03,1.998481369780231044e-03,2.368443012237548828e-01
2.731186403070343660e-01,-2.065950927565024520e-02,-2.108248365775280964e-02,-1.406188746031539986e-03,1.400015399554217516e-03,1.460145029704462347e-03,2.940208315849304199e-01
2.693804527077733324e-01,-1.557316984198169052e-02,-1.455929982044854021e-02,1.193395680400158830e-03,1.904710615150866006e-03,9.918056964481030812e-04,2.844798564910888672e-01
2.191304382837363784e-01,-3.792096874887782021e-03,-7.149000836687069427e-03,-6.081290618366884393e-02,-4.859066662541132453e-02,2.787550158658816044e-02,2.663887739181518555e-01
2.633888607544726534e-01,-1.460114861824429733e-02,-8.121846976334598511e-03,-2.448421988770312432e-02,-2.440625758216309615e-02,2.557150055374006817e-02,2.847215831279754639e-01
1.524846180772941318e-01,-2.583489065406313623e-02,-1.228914780706006488e-02,-3.671770850482033999e-02,-3.861756988396275458e-02,2.581963602989629722e-02,2.002107501029968262e-01
2.496573031810498389e-01,-2.373064848006269101e-02,-6.099211767647341742e-03,-3.168855861576264782e-02,-6.061115943727771183e-02,2.881490270637565576e-02,2.945439517498016357e-01
2.550618263115241868e-01,7.561534667401836884e-03,-2.462880105114634288e-02,-3.185636493045751472e-02,-1.830625349086538109e-02,2.111575084613575432e-02,2.750403583049774170e-01
2.874875425536747020e-01,1.932128604614083422e-02,-4.493624574380869485e-02,-4.168862085157221120e-02,-8.205123721650551746e-03,3.344240414875208466e-03,3.142025172710418701e-01
2.657843041181763288e-01,-2.664657373250609029e-02,-2.829489743913225774e-02,1.353848351518997068e-04,-9.383871226574965179e-04,-1.914509737491266409e-03,2.932818531990051270e-01
2.656887406131622220e-01,-3.332712573655235988e-02,-2.049529633908318826e-02,-2.832724017511366495e-03,4.300139156928199950e-04,-1.252430916800285335e-03,2.928609848022460938e-01
2.593389405863876229e-01,-3.453010851713701757e-02,-1.840024051530202154e-02,-4.027020045879231482e-04,-6.712291426777694135e-04,-1.132992487460737774e-03,2.861552238464355469e-01
2.117567827716800855e-01,-9.699469190373233296e-03,-1.672221679643924597e-02,-5.661848719438052069e-02,-1.353105537193238783e-02,4.311195398846348614e-03,2.467172592878341675e-01
2.685947392272826084e-01,-2.793381077967362069e-02,-2.850167512491964816e-02,-7.761278569170521188e-04,-1.207465813290975161e-03,-2.044448050586267739e-03,2.968444228172302246e-01
2.635355328202509395e-01,1.373060192325867290e-02,-3.140841595477136816e-02,-4.502604578865620349e-02,-3.362607278186869469e-03,1.904256242305607874e-02,2.879579663276672363e-01
2.821673385108171561e-01,1.590264592988395453e-02,-3.715499195970844992e-02,-6.906397503136525381e-03,1.447258008435283166e-03,1.091766921041839589e-02,2.972311079502105713e-01
2.117606863397431538e-01,-2.435180229456049283e-02,-1.769264930026744065e-02,4.480824827831036798e-03,3.416297004604116477e-02,6.720247599153063474e-03,2.406619787216186523e-01
2.700221848428290272e-01,2.252052144743513229e-03,-3.123595338228365992e-02,3.101851650236261623e-03,2.326104056150136903e-03,8.488892915450158005e-04,2.860710322856903076e-01
2.760344752819987590e-01,3.479997812202678675e-03,-3.296595189663470427e-02,-5.478464947979737841e-03,-6.434030775540225226e-04,2.840041551066140816e-03,2.926828265190124512e-01
2.799548824355894694e-01,1.267695619799849571e-03,-3.678624483554862601e-02,3.541147670893455938e-03,3.250700290849863755e-03,-5.802839737440042799e-04,2.996500134468078613e-01
2.630011938327327381e-01,-1.404755823305378626e-02,-2.702462371892576376e-02,-1.593867812355255834e-02,1.048440737067334039e-02,5.747341369536058432e-03,2.858507931232452393e-01
2.892092986695922185e-01,5.061649928501943396e-03,-3.817601576338933156e-02,-5.715166184677065997e-03,3.606197167996353162e-03,-6.657719514939882061e-04,3.082751929759979248e-01
2.692604486502506167e-01,-1.725735809809161858e-02,-2.652445261651401043e-02,-9.133962547963245769e-04,2.819278618829156036e-03,7.455195515098013035e-05,2.913072109222412109e-01
1.363835124422109746e-01,1.440421251887932796e-02,-1.832988618906418454e-02,-5.214780750899111056e-02,-1.938129664273089553e-02,4.330298367413179528e-03,1.711277067661285400e-01
1.779503003309002573e-01,-1.433954345897844873e-02,-7.221966421018938265e-03,-3.236228697176388863e-02,-1.198472014765286772e-03,-1.337617177173390336e-05,1.969864666461944580e-01
2.655663895246503925e-01,-1.702437634174842895e-02,-2.432092484328066129e-02,-1.089253140323659559e-02,-4.381045867675132342e-03,1.569170770662863109e-03,2.870429158210754395e-01
1.816398649628629403e-01,-8.711022020470873817e-03,-8.203499828439569930e-03,-1.265580908473603987e-02,-1.475952924563975893e-02,-2.243820744465223945e-03,1.930964887142181396e-01
1.533149389376364802e-01,-9.287135358692633069e-04,-3.813911326280755576e-03,-1.474449070080203691e-02,-7.844179481346891768e-04,1.916504017713737025e-03,1.578274965286254883e-01
2.228577717579531270e-01,-2.669670037140889352e-02,-1.023644498965640970e-02,-2.746514287400277435e-04,-2.243738764763516299e-03,-2.963142775200827781e-03,2.418311685323715210e-01
7.868891732404036110e-02,4.003605916006326704e-03,3.355569348978508504e-04,-5.565024869769758659e-02,1.346658444596316763e-02,-6.688344122724254950e-03,1.258348077535629272e-01
2.041000196983137616e-01,-8.320912120696882797e-03,-2.211968298953752299e-02,1.242150346410540794e-04,-1.454680057395168688e-02,-4.886571034720471433e-03,2.212480902671813965e-01
2.310982187523151765e-01,-2.985171820325759062e-02,-1.298360370272964859e-02,-6.277023747119825706e-03,3.741290925365436601e-03,3.988703059710864418e-03,2.533487677574157715e-01
2.766826219285637434e-01,1.460405367039717406e-02,-3.578943381381208266e-02,-1.067868943904914979e-03,-3.276309125691625221e-04,5.354798675901083389e-03,2.907257974147796631e-01
2.690484369726592884e-01,-1.031228651833705767e-02,-1.729454080204298472e-02,3.171557811419753307e-04,-3.917852542688743107e-04,3.177911481025883032e-03,2.829713523387908936e-01
2.721383118095566100e-01,-2.597809771989588457e-02,-7.966916301436949288e-03,-2.437923086942302142e-03,-1.116638941131030405e-02,9.106239615978603541e-03,2.906355559825897217e-01
2.999613596329410159e-01,8.137069197739335569e-03,-4.499281389653106422e-02,-3.575278498637443278e-03,-1.980371804362785447e-03,1.176894537479267547e-02,3.224196434020996094e-01
2.232272026586125391e-01,6.898295798463863204e-03,-2.414325114665949457e-02,-8.280656202550318312e-02,-2.331048309771425672e-02,1.700063066351426011e-02,2.784689068794250488e-01
6.662951460514617008e-02,2.486139086579491897e-03,6.508305068666821180e-04,-2.913191912459201643e-02,-8.996195691184254162e-03,8.681960316901434632e-03,8.514924347400665283e-02
2.430281524419623251e-01,-3.261557551330965254e-02,-1.377430927131882699e-02,-6.553409884051652687e-03,-1.630716541135227059e-03,3.507649924737308482e-04,2.669797241687774658e-01
2.014931723976263467e-01,-2.425292564374276205e-02,-5.997830264227690944e-03,-1.863469202759493806e-02,1.236371248774623469e-02,3.175581226863903768e-03,2.206901162862777710e-01
2.028789449147376245e-01,-1.778196661805381273e-02,2.868421883413935225e-04,-2.366737902084556713e-02,-6.244673565495968692e-02,2.485295860921796218e-02,2.454849630594253540e-01
2.687125811680609044e-01,-2.387420229886502709e-02,-7.257739855006981045e-03,-2.577363908090762792e-03,-8.562359082332717322e-03,1.051841493068089543e-02,2.856451570987701416e-01
2.753531711437964269e-01,-1.286316675769884343e-02,-2.218479353099375717e-02,-5.266076355152702129e-03,-2.377929836525468840e-02,1.377625763390979800e-02,2.969698905944824219e-01
2.729300754981736077e-01,-2.342333539282596966e-02,-1.604382756787135766e-02,-2.197077628770418407e-04,-3.501980302571740256e-03,7.159776367260861554e-04,2.927991449832916260e-01
1.116975474444630162e-01,-6.829893021951125021e-03,-8.396065820941656099e-03,-5.073670448993627263e-02,-3.138952283791437980e-02,2.586332906255652334e-03,1.579096466302871704e-01
1.500282857999980790e-01,-4.797889651223657959e-03,-5.426230959628262907e-03,-1.125551215733530458e-03,-1.540111446425646013e-02,-1.090022417832564047e-04,1.574301123619079590e-01
2.687869988443511993e-01,-2.265183582873545043e-02,-2.453309461447492068e-02,-9.597427136163565187e-04,-3.737166808786307123e-03,-2.215615704439941264e-04,2.924606204032897949e-01
2.603395766961359437e-01,-2.772138095773160615e-02,-2.483925010500165342e-02,-2.309836112452196433e-03,-3.877086290918059465e-04,-2.730260749065011820e-03,2.866984605789184570e-01
2.322504949936356478e-01,-1.892231621520232276e-02,-1.924411921719754170e-02,-2.682238602481615969e-02,-1.806331387337334338e-02,-2.275751156652358522e-03,2.575294673442840576e-01
2.669511198981571187e-01,-2.348386189842592564e-02,-2.447568709883919669e-02,-9.786253009083289642e-04,-5.349015431180299297e-03,-7.229851323224423818e-04,2.910872697830200195e-01
2.712004507266417286e-01,-2.439487817386760959e-02,-1.969770994258578101e-02,1.613361260578506911e-03,1.080543093353556004e-03,4.851495226903507858e-04,2.932954430580139160e-01
2.186914300499623043e-01,-1.641578799472737105e-02,-2.216015838525639547e-02,-1.222862284442648162e-02,-4.948941965394377824e-04,5.060057077520209619e-03,2.391340881586074829e-01
3.063491697498316735e-01,-4.026911514872699716e-02,9.577935180339169907e-03,-3.191383785465308140e-03,6.648464450299299000e-02,-1.941850310366865714e-02,3.460830450057983398e-01
2.769481532855019301e-01,-2.569088966155801124e-02,-2.422874870993546592e-02,-2.616324741692071642e-03,9.226039358438369378e-03,7.503566855972794523e-04,3.023699820041656494e-01
2.478693476562923159e-01,-1.478005204441812381e-02,-3.276322681336456266e-02,1.187624281993965259e-03,-6.142405112372673753e-03,8.985060299768392409e-04,2.723072171211242676e-01
2.200087861196758643e-01,-1.915641107101166696e-02,-1.949567389513057192e-02,8.358154273014351270e-05,-1.513259107451207439e-02,7.734518768353782631e-03,2.411383837461471558e-01
2.442502245304834230e-01,-2.006822271709911287e-02,-2.251929727894654010e-02,5.365089254337053991e-03,-8.299815672963044982e-03,7.025617453126898476e-03,2.663816809654235840e-01
2.756129868713315667e-01,-2.728353616848437635e-02,-2.500053382917803713e-02,-8.198639262242077850e-04,-1.647551515051093492e-03,-1.944180946904339007e-03,3.017971217632293701e-01
2.718726471774901565e-01,-2.469134970198555434e-02,-2.570408599309101372e-02,-2.604485432972066753e-03,2.512445846427096684e-03,3.458714497393245400e-04,2.971383929252624512e-01
2.474991660253697545e-01,-2.654834047680033893e-02,-2.093803113204988076e-02,2.957248128287428418e-03,-1.683829929292151228e-03,5.506881722892978913e-03,2.715174853801727295e-01
2.641216493158399237e-01,-2.628219090507338818e-02,-2.312736135549092742e-02,1.151227902631866452e-02,-7.245988093442753616e-03,3.632551546521760929e-03,2.898669838905334473e-01
2.514516117037478016e-01,-2.495058222628268596e-02,3.660429936349712809e-03,2.377866994348163190e-02,-4.094853914690498031e-02,-2.531756596378963511e-02,2.792099118232727051e-01
2.682653650067735041e-01,-2.444894100029351702e-02,-2.522712693865090949e-02,7.028210573327463642e-03,-1.113029669710973411e-02,2.175640790705890906e-03,2.940137684345245361e-01
9.954541005455039282e-02,-2.818460295748474037e-02,-5.359231678055353942e-03,2.075426464312122785e-02,-2.678472361927333040e-02,-3.226341197358934682e-02,1.431353688240051270e-01
1.926181832418132900e-01,-3.159070157044026328e-02,-1.781274276288935532e-03,3.859678392426545146e-02,-4.980826618470510225e-02,-2.862942610591423867e-02,2.425805926322937012e-01
3.047784891947434849e-01,1.142548311943897277e-02,-3.169940611478075376e-02,-6.997739114496384161e-04,-2.793486123742297631e-03,1.403438944379900577e-02,3.180916905403137207e-01
1.665386219021344483e-01,-8.701978613028168996e-03,-1.168744040525027117e-05,-1.240226512099322845e-02,-7.295861642861225247e-04,4.739779064389604496e-04,1.724111884832382202e-01
3.137921255428745559e-01,-2.087570865811938514e-02,-2.471515979871213853e-02,-1.339428082202497733e-02,2.077657467559010721e-02,-1.582962019404426934e-02,3.404220640659332275e-01
2.302841013308737361e-01,-2.637101613335508798e-02,-1.317649856150655829e-02,-1.773324868110382965e-02,3.024825115802738575e-03,4.412011555287774500e-03,2.523663043975830078e-01
2.141462088415417298e-01,1.897433343558516811e-02,-2.997064553644515628e-02,-7.041151940269296805e-02,5.919547583753953859e-03,7.755888078798293256e-03,2.553415000438690186e-01
2.092918254354945995e-01,2.000850870548644134e-02,-2.990921958405795555e-02,-6.972989516794216025e-02,-1.154224033454869479e-02,1.712903196135439482e-02,2.522601783275604248e-01
2.722128045801468499e-01,-1.651319547280975797e-02,-2.973736518865635614e-02,4.236556404846386278e-04,-7.304172214113942340e-04,-2.460365952374100754e-04,2.955639660358428955e-01
2.787367982434592051e-01,-3.580075139493404945e-02,2.648914195803708793e-03,4.009485671994879145e-03,2.792056113628015642e-03,-6.698698985540811612e-03,2.975308597087860107e-01
2.733648309511936270e-01,2.145197325837261415e-03,-2.974514459037777558e-02,-1.592091870718315150e-02,2.298032097518001252e-03,1.130579865460799209e-03,2.898387014865875244e-01
2.744746309991787925e-01,-2.386358753481118700e-02,-2.596923883653957932e-02,-2.022221572731631913e-03,6.266429660113982149e-04,-6.431807323510919114e-04,2.994211316108703613e-01
2.760569300796717473e-01,-2.541481816850418851e-02,-2.913843024599012399e-02,-7.505082028236735375e-04,-3.266620714334490241e-04,-1.281385930820692345e-03,3.033621311187744141e-01
2.767187982192239604e-01,-2.852381023684257000e-02,-2.681935503586899139e-02,2.648036764921258158e-03,1.547451922226135120e-03,-4.294045574652031495e-03,3.045311570167541504e-01
2.694777917049933080e-01,-2.331432597924709693e-02,-2.308587928419439383e-02,-2.099595257879877282e-03,-1.571767548936142537e-04,-1.125191864276772757e-03,2.927071750164031982e-01
2.683216545815122478e-01,-2.589410041500316007e-02,-2.426206537412772812e-02,8.031186599560818798e-04,5.498531848138715587e-04,-2.939889715072222898e-04,2.934084236621856689e-01
2.700508220160534600e-01,-2.323712403260733139e-02,-1.979016587707500829e-02,1.076825245746367704e-03,1.155299194611896516e-03,3.218821981431810677e-04,2.915931046009063721e-01
2.695166849987658542e-01,-1.927849518206629920e-02,-2.010464697168476422e-02,-4.225100029285024572e-04,8.172014969433200830e-04,4.858161777214802988e-04,2.892147600650787354e-01
2.693251875736638601e-01,-2.553267199573688861e-02,-2.356609444161586464e-02,-9.403131441184543065e-05,-1.298807589054985258e-03,1.394291878795860982e-04,2.938882708549499512e-01
2.700797158693696298e-01,-7.944784615724301280e-03,-1.770342746614926577e-02,-2.200635842952426875e-03,-1.670911311103222076e-05,1.735854766117355969e-03,2.830716669559478760e-01
2.700498435069566550e-01,-2.097396612621395262e-02,-1.816046246235746009e-02,1.139487911628351375e-03,1.411909594670753216e-03,2.290577510608259851e-04,2.896446287631988525e-01
2.689845928451136126e-01,-1.886762415725298792e-02,-2.276575545201926787e-02,1.661882210052591799e-03,1.255373603689086083e-03,5.449088753669211827e-04,2.898449301719665527e-01
2.698963665960226743e-01,-2.072591962114346542e-02,-3.117597614533501593e-02,6.357849483826871848e-04,-7.936587390338070615e-04,-9.014233604651894277e-04,2.959950566291809082e-01
2.647572370140119369e-01,-2.003756113859751775e-02,-3.262707736978150141e-02,8.365715777009890804e-04,1.090933221925141335e-03,-2.615009822601435164e-04,2.913037538528442383e-01
2.638006220101171140e-01,-1.635603754027513401e-02,-3.402213471050087590e-02,-5.377398746112473267e-04,3.321701881186324683e-03,-5.900874623606540935e-04,2.894548773765563965e-01
2.341355618264746030e-01,-1.480935840920721835e-02,-2.815538294044288292e-02,2.404318837875863975e-04,8.316768380352274406e-03,-2.393242009865822095e-04,2.562849223613739014e-01
2.640726092073875653e-01,-1.826277351088356760e-02,-3.298290470954809428e-02,-4.954045520234463384e-04,1.401740101706239899e-04,3.072421573379270670e-05,2.899771630764007568e-01
6.067774142783783492e-02,-2.455781912822281587e-02,-7.542076338186657486e-04,-9.041251525852476295e-03,1.636186709522340164e-03,-1.415414194469988979e-02,8.159094303846359253e-02
2.721296369207798493e-01,-1.877807785158655540e-02,-2.237225704679163263e-02,1.088784393822543996e-03,1.068645992234983208e-03,1.331492066648285290e-03,2.927423715591430664e-01
2.116855725662986076e-01,-1.985643270055401088e-02,-2.386418960874280015e-02,-1.232857006122794682e-02,-3.058193313222611065e-02,-2.814636226440547437e-03,2.405020594596862793e-01
2.434629436914996226e-01,-1.359059539056596544e-02,-3.383125906870552979e-02,-1.866477296701063524e-03,4.291915186791462819e-04,-2.036157078037160312e-03,2.677920460700988770e-01
2.327163645768095257e-01,-1.371285156922484594e-02,-3.130781962415982167e-02,6.384504772477461385e-04,-8.577192758668108347e-03,1.272050640561244936e-03,2.561242580413818359e-01
2.681970368171019414e-01,-2.400178655241548553e-02,-2.359905232534061092e-02,5.581553339918992641e-03,1.951692652280860064e-03,-7.880420376057278593e-04,2.921803891658782959e-01
2.361911415922679502e-01,-1.289591858085897824e-02,-2.987607589231980332e-02,2.737425953314703581e-03,-1.057141803436639424e-02,3.095127346831396103e-03,2.587444782257080078e-01
1.224316692857267408e-01,-5.285640661432881859e-03,-6.768716906813111722e-03,-2.974374740888852814e-02,-6.669391475227329051e-03,-2.350050014381354843e-03,1.389510929584503174e-01
1.572191821438599368e-01,-6.870564645260687775e-03,-5.286280814396693284e-03,-1.255210482790748185e-02,8.341792788033198375e-03,5.161232378541127236e-03,1.656180173158645630e-01
2.451798916814225404e-01,-1.786600351208822435e-02,-2.869165578746543654e-02,5.172734158489739574e-03,-5.767977097762407197e-03,2.701513151660412098e-03,2.689980566501617432e-01
2.512177563252196988e-01,-1.404202776717058954e-02,6.332407687831970167e-04,4.608290357411205795e-02,-3.790123179473184334e-02,-2.820421206337456188e-02,2.824043333530426025e-01
2.749257345038110811e-01,-2.869153646903248311e-02,-2.289717834873902791e-03,4.852419339389642435e-03,-1.021353117008726510e-02,-4.826881432615311510e-03,2.920923531055450439e-01
2.713586677588229468e-01,-2.675166568164039083e-02,-1.752824283775744618e-02,2.288552675014960715e-03,8.280913005511552087e-05,-8.816366183169269696e-05,2.936341166496276855e-01
2.716680041054323480e-01,-2.420145531530572269e-02,-2.544900450187696783e-02,2.847620648554060642e-03,-3.973659705167121789e-03,1.745421933720145077e-03,2.966314852237701416e-01
2.386655385606778756e-01,-2.353751266779204043e-02,-1.973842359799998780e-02,-9.363948113874556028e-03,1.365536417095027620e-02,7.125217853531862038e-03,2.621898353099822998e-01
2.762982931371658624e-01,-2.562539133248863121e-02,-1.868101593478668776e-02,1.216351866445381001e-03,2.174412691646331053e-03,-4.919294807783057295e-04,2.985444962978363037e-01
2.905287595171198722e-01,2.647503071066079072e-03,-3.654865564879533624e-02,-7.283642858559295774e-02,2.719406932268970262e-02,-2.214119104873462154e-02,3.395592570304870605e-01
3.045426703044452066e-01,-3.976924526720254649e-02,2.938128398263670227e-03,-1.159998006930238693e-03,5.203497709769340507e-02,-3.012194828200225744e-02,3.413486480712890625e-01
2.870457113353901413e-01,-4.428099068728805210e-03,-3.549365174528129607e-02,-7.857711667777590031e-03,3.312056195985877555e-02,-1.902014758766093494e-02,3.154968917369842529e-01
3.346015731231660739e-01,-6.322663853426446767e-02,-6.980414240948668025e-04,-1.280167433197478000e-02,7.490635617099976329e-02,-2.498764469863106255e-02,3.955997526645660400e-01
1.798171804982867106e-01,-1.925821683096656800e-02,-7.324680628291432849e-03,-3.512124093427074212e-02,5.665356027929099869e-03,4.196627433046253887e-03,2.030945122241973877e-01
2.699206677341858263e-01,-2.100506281271459497e-02,-3.155904280423947605e-02,1.970046649735384455e-03,3.078817547846918190e-03,1.188401368396468883e-03,2.964184582233428955e-01
7.911131569317872425e-02,-2.431622287717068870e-02,3.259819938764778324e-03,-5.861041270752104758e-03,6.338340587085673945e-03,-4.467423028291857452e-03,9.428162127733230591e-02
1.712999286167622426e-01,-7.803717057801071166e-03,-3.536924879766603635e-03,-1.713941479430884998e-02,-4.039648938062224861e-04,-3.724806456175209796e-03,1.795981973409652710e-01
1.861970558553441013e-01,-1.145199097072503724e-02,-1.479025497024466507e-02,-2.629453423046962390e-02,-1.757970356147677687e-02,-2.682645657905793207e-03,2.067825645208358765e-01
1.583231127641848979e-01,-3.416056044885908138e-03,-5.882554116433257041e-03,-9.637714629760261650e-03,6.465977264732370930e-03,3.579249828432828472e-03,1.643383353948593140e-01
2.694813009260618730e-01,-3.148203757926648638e-02,-2.538052990500444528e-03,4.372473891125623797e-03,1.752670040266559801e-02,1.110834208183132145e-02,2.899218797683715820e-01
1.287084980351797525e-01,-1.154329828633955668e-03,8.282800856764666042e-05,-9.248383712230766329e-03,2.874145494425661002e-02,5.160948933171588884e-03,1.397137790918350220e-01
2.712034782738532157e-01,-2.368483839373151933e-02,-2.563076532352429049e-02,1.921570489253396959e-03,-7.260998791993989549e-04,-3.944961678557834029e-04,2.958882749080657959e-01
1.396654437152574091e-01,-1.538788544880400483e-02,-4.246408517057986831e-03,-5.096726061873053937e-02,2.522041468176007550e-02,1.197732327191837172e-03,1.792864799499511719e-01
9.022689592968194394e-02,1.871943593203907047e-03,-4.097486341101234941e-02,-3.673703999423020422e-02,1.370352908422360107e-02,-1.459440651370267836e-02,1.366724371910095215e-01
9.911310929608259379e-02,-2.167001312859469925e-02,-4.002460587252692353e-02,-1.181987342352355461e-02,8.672884639825996500e-03,-1.022786042058912263e-02,1.345399171113967896e-01
2.191534938962964307e-01,-2.597125861769339350e-02,-1.311148596528850796e-02,-1.542969773983407847e-04,5.790932722496496161e-03,4.195444468490301670e-03,2.392754703760147095e-01
2.679636813980363352e-01,-2.137294182275444043e-02,-2.916548604757497609e-02,-3.761054888675474661e-02,-3.657308890549364026e-03,1.380052063486912877e-03,3.005338311195373535e-01
1.497254336355047233e-01,9.878689071479568318e-04,-4.941833121864830369e-03,1.392962129542048462e-02,-1.841629162123170974e-02,4.409259409680441055e-03,1.571556627750396729e-01
1.944155424026769718e-01,-2.325288885318420318e-02,-3.371674264137647370e-03,-1.708201042294470173e-02,-7.892191228348312488e-04,7.280550351964600259e-04,2.105377465486526489e-01
1.306655410123690741e-01,2.544119565707325670e-03,5.768106269451088453e-03,-1.536585793664474887e-03,8.890747118395787157e-03,2.011981352648110292e-03,1.275491863489151001e-01
1.880834531963919698e-01,-1.623889668842821987e-02,-1.722323706042883096e-02,-3.083180717224171669e-02,-1.812298884079587349e-02,-4.247882083963737572e-03,2.141050547361373901e-01
7.333019930375214712e-02,-3.098479064985026205e-02,-2.497142745869166541e-02,-2.789017840872707373e-03,-1.071251221766638100e-03,2.947455948507966914e-03,1.017021834850311279e-01
2.731526971881370613e-01,-2.522803911069031180e-02,-2.075301443991035832e-02,6.839955307254320938e-03,-1.696662596559615549e-03,2.470902862517842819e-03,2.964509129524230957e-01
2.668835429707330231e-01,-2.954938652616902195e-02,-1.947394190690301952e-02,1.634434574344204938e-03,-1.923191325223874357e-02,-2.049426354922493330e-03,2.934578657150268555e-01
3.720329017419303219e-01,-7.652065586739589809e-02,1.505893680306988336e-02,4.101502089412981805e-02,-6.749495331922418517e-02,1.119283522208237586e-03,4.326961040496826172e-01
2.486550735257754274e-01,-2.550789581860450628e-02,-1.074233352334939828e-02,4.779424065737001778e-03,-2.749973487774236974e-02,-1.198084777464910678e-03,2.714345753192901611e-01
2.803325965190703317e-01,-3.866011158971988104e-02,9.204332136855924995e-03,5.254995868414606003e-03,-3.823141792325384508e-03,-1.297888721409467183e-03,2.981789708137512207e-01
2.752815463120502626e-01,-2.759520044383374782e-02,-1.299152079639898094e-02,4.509298975188638951e-04,-7.937436259156219892e-03,4.112564501783692265e-04,2.961665093898773193e-01
2.152836727322900434e-01,-3.737450188439944698e-02,2.450901352091348906e-02,2.927199497942510262e-03,-7.146576975135711385e-02,-8.359144425383808683e-03,2.599764466285705566e-01
2.529896482668728686e-01,-3.267267582942309789e-02,-1.784301497242872514e-02,-1.661963868988294813e-04,-5.901262676075350435e-04,3.384096007427021303e-03,2.786074280738830566e-01
2.713772413875961131e-01,-2.828323908828396516e-02,-2.216482981722144030e-02,6.126215788643649476e-03,-3.321352895357340424e-03,1.843498704960837590e-03,2.969112098217010498e-01
2.034955998769193142e-01,-2.040362451583434267e-02,-1.769095545691698468e-02,-2.363435842834123515e-02,2.857535346252906838e-02,8.199953649465532846e-03,2.320732176303863525e-01
2.648044329865475999e-01,-2.746176831430846565e-02,-2.203158877694638695e-02,2.329154206603526248e-02,2.694084326956895387e-03,-1.696742332922579043e-03,2.924377918243408203e-01
2.764549238820752097e-01,-2.109162048010330970e-02,-2.481234378805358132e-02,9.303626324344962950e-03,-2.443203760621695097e-03,-1.034270190997620175e-03,2.998927533626556396e-01
2.708390939317263379e-01,1.056118074167197718e-02,-4.311605722102618277e-02,1.286458311191182764e-02,1.324111833799112778e-02,-8.846539851423931844e-03,2.930086851119995117e-01
2.254194127933747682e-01,1.303698197289709926e-02,-3.856634256511454195e-02,-8.074987806138998747e-02,-1.619342916497067131e-02,2.390197898093187473e-02,2.842376828193664551e-01
1.567561046805583114e-01,-8.684545830254901400e-03,-2.533000693533894732e-02,-6.331180895468552228e-02,-2.057236979439034871e-02,2.020281848067374472e-02,2.119452804327011108e-01
2.693726452369833990e-01,-1.802143160216441997e-02,-2.358821181224143859e-02,1.652127352773537141e-03,3.463385425860997756e-03,1.151663370119486310e-03,2.903004586696624756e-01
2.519293008123286715e-01,-3.245623241130694836e-02,-1.726441423246308227e-02,-9.617413281845767214e-03,3.877404316593741768e-04,-1.944095367498155889e-05,2.776031792163848877e-01
2.249270532468385930e-01,1.666544178823574363e-02,-6.860209710457118581e-02,-5.592213307188959037e-02,1.468867704962070753e-02,-1.080045982049222635e-02,2.806786000728607178e-01
3.013228546970085908e-01,2.811746695829372977e-02,-4.884069116283332179e-02,-4.338394868026231727e-02,5.193126814962904618e-04,4.288592560346413292e-03,3.275539875030517578e-01
2.764118564205524375e-01,2.067789084425480928e-04,-3.370672869056742793e-02,2.395956014190768653e-03,3.475872183910480237e-03,-7.189520279675943020e-04,2.947227060794830322e-01
1.894452640906874596e-01,-1.354207374857081814e-02,-1.018940977941580617e-02,2.550846089315733992e-02,-1.374417482952302108e-02,-3.694631921469862523e-04,2.074938863515853882e-01
1.945519578891440893e-01,-1.187073029429470961e-02,-1.038891014535298085e-02,-1.249560231182753316e-03,1.470961604162369929e-02,-3.932531180966124425e-03,2.073809057474136353e-01
2.196929183440423095e-01,-1.538022196354961457e-02,-1.417037849549661332e-02,7.245345572073029830e-03,-6.999669033439371961e-04,-2.713295716074913023e-03,2.348563075065612793e-01
1.604658690496871820e-01,-1.255586388149135257e-02,-7.147212450003076478e-03,4.323444203859226447e-03,1.717501287197300067e-02,2.640793553575537843e-04,1.731218844652175903e-01
1.488423492138726822e-01,-4.514861810204051640e-03,3.029866009030698915e-03,1.602486855139785213e-02,-4.031644709002865559e-04,-5.908312368830275114e-04,1.522834300994873047e-01
2.715718236300613819e-01,-2.459830072773963594e-02,-2.532053198187718401e-02,-1.084034356840460822e-03,4.305629668212592950e-03,5.749286977933330389e-04,2.966332733631134033e-01
8.802824595524580409e-02,-9.653344021373008732e-04,-2.059048982374467318e-03,-2.516980235730308102e-02,-5.689376567178210109e-03,-6.527605303384542874e-03,1.007168292999267578e-01
2.688612581552872749e-01,-3.088058801219119298e-02,-2.176070741374547257e-02,-6.347450038640752197e-04,-1.022556966601419117e-03,-2.082815842009297803e-03,2.953169345855712891e-01
2.671601857647489253e-01,-3.100309997433052522e-02,-2.086734705231683973e-02,-6.657842344346934400e-04,4.240381760734136156e-04,-1.013863047660846671e-03,2.932352721691131592e-01
2.691495184534963281e-01,-2.951745172431481656e-02,-2.289962779580757835e-02,2.202528056875759348e-03,7.742050805194777277e-04,-2.470333040529412629e-03,2.954723238945007324e-01
2.591828270801745937e-01,-3.195181603096128309e-02,-1.950953333979342508e-02,-3.209042459250661212e-04,2.857514958330105177e-03,-3.150145543553983102e-03,2.852128744125366211e-01
2.692571217044076315e-01,-3.376200596354989036e-02,-2.185510655422305548e-02,-9.853356174474596409e-04,-9.923526335621098409e-04,-4.274071773881793772e-04,2.972553968429565430e-01
2.690375430301800153e-01,-3.331335283511242806e-02,-2.082825032444560187e-02,1.444372335833589210e-03,1.009713840394416574e-03,-1.268742848845190755e-03,2.963295578956604004e-01
2.518909692155388846e-01,-2.555186057934581700e-02,-2.288477841355590625e-02,-1.220234187716559473e-03,3.697302545784773679e-03,-6.727250821138684549e-03,2.764469683170318604e-01
2.630547062503045819e-01,-3.322864891981366919e-02,-2.366140732107990807e-02,1.234033138152159509e-02,5.863463745992900447e-03,-4.453967539005153527e-03,2.926777303218841553e-01
2.740904544884003036e-01,-2.489288370431666508e-02,-8.642420742535988909e-03,-1.666813251644383128e-03,-1.980375224139708894e-03,1.282862004868019897e-03,2.912413775920867920e-01
2.768064816743079914e-01,-2.419456981202088020e-02,-2.539598374354502808e-02,-2.935267024414659615e-03,1.053410882964471570e-03,-1.544051296839660551e-03,3.016637861728668213e-01
2.746445718643885092e-01,-2.604302078972975387e-02,-6.802154099769933127e-03,-1.589306477806591133e-03,1.829044830590550921e-03,6.120504345765161863e-03,2.917665839195251465e-01
2.590934772814817988e-01,-2.262595562231599355e-02,-3.177049085294314512e-02,2.736064433101743128e-03,7.889133092893681892e-03,-4.719940903756705483e-03,2.868826687335968018e-01
2.739889883814663474e-01,-2.371490864403466570e-02,-4.252402312929781658e-04,-1.162859142966315030e-03,2.063883522519506259e-03,6.566954852538711349e-03,2.870240509510040283e-01
2.736902637884147671e-01,-2.301968905262644083e-02,-9.107522689502822733e-03,-4.289122893253075053e-03,-3.901234951422932577e-03,1.691514058177192529e-03,2.901928722858428955e-01
2.763666208879096420e-01,-2.403716867647436028e-02,-2.780092499258247918e-02,-1.954331712721536969e-04,5.609468428280190658e-04,-1.938928285953137823e-03,3.023236393928527832e-01
2.605384517142411704e-01,-2.127360981408091267e-02,-2.357786694257696380e-02,6.826612486773436794e-03,7.190972061624809758e-03,-1.640031836788374397e-03,2.835061252117156982e-01
2.466558593755766304e-01,-2.293535101336023618e-02,-2.029246876413755285e-02,5.908776298181330454e-03,3.908810746120744417e-02,2.953266967248044644e-03,2.769268155097961426e-01
2.148677366879095108e-01,-1.158767975327537614e-02,-2.054525663256540069e-02,1.098304375020600979e-02,1.217364895040897246e-02,-1.872205730224563158e-03,2.328256368637084961e-01
2.570959362640544699e-01,-3.173666011554306110e-02,-1.963657978789691561e-02,-3.113456004931453372e-03,1.275785681480217076e-03,2.424261645412130461e-03,2.830677926540374756e-01
2.744699283564674408e-01,-2.410907427437861128e-02,-3.118915411640486857e-02,7.816467731987910075e-03,1.613119348383933171e-02,1.749413053723514579e-03,3.037871420383453369e-01
5.526219075993558938e-02,1.325740446992615049e-02,-2.426190045567874071e-03,1.882296532444294526e-02,-4.785313220546020402e-02,-4.683818842802930926e-03,1.032843515276908875e-01
2.863523197663113140e-01,7.797747499745807942e-03,-3.812224273609643443e-02,1.330583145473533679e-02,7.992139828036094436e-04,-2.121248513034694808e-04,3.050011694431304932e-01
1.704313919918989395e-01,-4.391795735692524683e-03,-3.630783598859710359e-03,-3.922510230409656019e-04,-5.676271960457702397e-04,3.778174869538719269e-03,1.745707243680953979e-01
2.673864264210237818e-01,-3.232347495846522867e-02,-2.082363523880519096e-02,8.672052271752040114e-04,4.208385671407448877e-04,-2.109490437563160507e-03,2.941560745239257812e-01
2.667610204677411945e-01,-3.437118718944934259e-02,-1.986900006922866224e-02,3.565567443054546565e-03,2.527186346683221469e-03,-2.570836300528366904e-03,2.942804396152496338e-01
2.772435171190115732e-01,-4.790283048642970942e-03,-2.861916650479880142e-02,-3.883696131196026982e-03,-3.694004646791181241e-03,1.701083755369570865e-03,2.948326468467712402e-01
2.536361120773656386e-01,-2.785148248384348990e-02,-2.121230091784123695e-02,6.279632290902376242e-03,5.688157536119384456e-04,-3.949353259564001434e-03,2.785256803035736084e-01
2.778746911993530411e-01,-2.522297598676000174e-02,-2.256796453317480577e-02,-8.286110581744193142e-04,-5.623255216074836806e-04,-1.593163016159364733e-03,3.017965257167816162e-01
2.714534026809288791e-01,-1.614899560745197693e-02,-1.393281406439934866e-02,-2.257211221653770603e-04,1.291909582915636489e-03,-2.760911612571799283e-03,2.865496575832366943e-01
2.919462934457103254e-01,-1.728312496006782772e-02,-2.279536901008805128e-02,2.904227789677125016e-03,7.136051615384596605e-03,-9.290323916495667189e-03,3.127215504646301270e-01
2.739125913758357345e-01,-2.103557351434506839e-02,-1.214908825313200380e-02,-6.937236960265057845e-04,1.220905935782603310e-03,-1.128018224678327321e-03,2.906235754489898682e-01
2.714513583358435511e-01,-2.526751230183740815e-02,-5.423930387982875412e-03,-1.352647948626553402e-03,3.662849071821292976e-03,-2.138016698541375313e-03,2.874149382114410400e-01
2.728486655414689155e-01,-2.577193749965915603e-02,-1.730372437341975989e-02,3.858092542870934435e-03,-3.558386053328011682e-04,-8.801208145933137788e-04,2.945582270622253418e-01
2.866517896357260176e-01,-2.134080901408792752e-02,-7.349031241809175774e-03,-8.082488634791754403e-04,3.109883539272512848e-03,-1.150033431920654582e-02,3.019496500492095947e-01
2.777581942600384490e-01,-2.616751159957032835e-02,-1.675841043876206971e-02,3.343846023407467515e-03,-5.017695869413001629e-03,2.375565345818960708e-04,2.995145022869110107e-01
2.875832369794272814e-01,-5.130321242032448437e-02,1.828198147527153317e-02,3.550015279874515345e-02,-7.890856367297377494e-02,-1.195286006982241959e-02,3.449546694755554199e-01
3.066990611758435570e-01,-1.275623520692217849e-02,-2.777747433116192766e-02,1.197210454567927511e-02,-3.565361784743688832e-03,-2.491282790603647351e-02,3.307658135890960693e-01
3.468404811266003751e-01,-3.776481144837656734e-02,1.024846927505165817e-03,4.733777303944719517e-02,-3.588963628520328020e-02,-2.595921518054110713e-02,3.835565149784088135e-01
3.600859453634671636e-01,-4.603263774119153995e-02,-1.914530336783484832e-02,4.293844544863572449e-02,1.409003751222513007e-02,-3.399681107325214224e-02,4.053761959075927734e-01
3.015858249796832258e-01,-8.024246451402733404e-03,-9.698453254087052722e-03,-3.905067064255015284e-04,1.268209932250505918e-03,-3.108762200352999799e-02,3.150938749313354492e-01
2.530013371145876655e-01,-2.263400607519631957e-02,-2.540241922922296947e-02,9.907294975623995303e-03,-1.760791062064108459e-02,1.856110021533171521e-03,2.792498767375946045e-01
2.585213809070648905e-01,-2.236791269471487265e-02,-2.090460684348854903e-02,-1.484693766802044424e-03,3.759564298912036577e-03,-1.259899895820249232e-03,2.802564799785614014e-01
3.778883939126004843e-01,-8.710670059227099138e-04,-4.400255449092915772e-02,-3.529178014566311528e-02,5.086627917176055752e-02,-2.569617137460486131e-02,4.184913933277130127e-01
2.784947715950032432e-01,-2.256679829746459365e-02,-9.328484477349838211e-03,1.516634411697034748e-03,3.344257732697265275e-04,-8.687352029593607694e-03,2.950617372989654541e-01
2.707274287958881809e-01,-2.675906920037018910e-02,-1.311837111421096380e-02,2.271740073922945847e-03,-6.180027266223165304e-03,-2.774279942383916717e-03,2.911692261695861816e-01
1.322026832228069271e-01,-4.188544706934402284e-03,-2.840854056684702367e-03,-2.592665074155327612e-02,-7.287644578837897125e-03,-1.594828513408700060e-03,1.435412913560867310e-01
1.421857270929852424e-01,3.951842401724824094e-03,6.754223628682720637e-04,-1.761673322985356401e-03,-5.274767709283705204e-03,-2.620976379665802608e-04,1.402328014373779297e-01
9.501772030866699470e-02,-3.767832662121978898e-02,-2.378772004164554643e-02,2.816516911116409561e-02,-2.419602735438504751e-02,-1.175468327129335425e-02,1.432084292173385620e-01
2.495569072818014378e-01,-3.584375142182724683e-02,-1.426754580669600814e-02,-5.583165594894089895e-03,1.539056722573861494e-04,9.842004029546452533e-05,2.754175364971160889e-01
2.385460693576197944e-01,-2.931228077306050062e-02,-1.414526481208336350e-02,4.040146840492794128e-02,-1.885890408978654550e-02,9.780446702613188482e-04,2.718127965927124023e-01
2.029880338244254012e-01,-9.617837874981535751e-03,-1.990500486933230451e-02,8.975259249039645865e-03,-1.747697379299743489e-02,4.000065048920523579e-03,2.206812053918838501e-01
2.715257675699391804e-01,-1.215974219941225176e-02,-2.509815087063964334e-02,-3.798562066129495228e-03,-1.238013855409745038e-03,-1.607917101066224123e-03,2.904667854309082031e-01
2.716391703937405255e-01,-1.873063214144057853e-02,-2.351868105449129998e-02,8.770181943827688037e-04,-6.282616642742165462e-04,1.145613906594666496e-03,2.928058803081512451e-01
2.712635491434140511e-01,-1.956749547164798875e-02,-2.241331265412808971e-02,2.235624642341314978e-03,1.609089921320647340e-03,7.149517425005675600e-04,2.923059165477752686e-01
2.706450031433469405e-01,-2.299092814870361268e-02,-2.341586940180372112e-02,-7.322596753390631791e-03,-1.621896421607784550e-03,-6.159450630111861793e-05,2.941356599330902100e-01
2.656033861170669086e-01,-1.433605812339538987e-02,-2.131638907777902436e-02,-5.552530510466378334e-03,-1.798457671601723287e-03,4.930587207495013523e-03,2.838027775287628174e-01
2.809133430966882505e-01,7.812193264521094527e-03,-3.095604054966175078e-02,-1.033452755110889857e-03,5.360041252675103347e-03,2.041660174546108125e-02,2.966728210449218750e-01
2.668327742453993068e-01,-1.980994246619498245e-02,-2.611458830944206333e-02,-1.358145812724450077e-02,1.839197296564217942e-03,-2.552594649295314281e-04,2.908172905445098877e-01
2.530125017075900429e-01,-2.398396829941319697e-02,-2.271484028631928775e-02,-1.356846451734975041e-02,-5.221157277328010958e-03,-2.869222886717774017e-04,2.775093615055084229e-01
2.546231499256269570e-01,-1.568565775922996230e-02,-3.578396066122084551e-02,-2.700565523752956816e-05,-7.237787869802933321e-04,-3.336514902916991343e-04,2.809011340141296387e-01
2.642911578337693301e-01,-3.220242277329105063e-02,-8.811018128441344688e-03,5.153089016128124464e-03,-1.416576944966669444e-02,1.337166978646072476e-03,2.867180407047271729e-01
1.302173911470268786e-01,-4.077578220673129528e-02,6.028672828973794667e-03,-1.747388555268679713e-02,-5.399790363146787092e-02,5.226512509135710152e-03,1.821300685405731201e-01
2.090291750159461726e-01,-1.590403815998281400e-02,-2.102299039014030035e-02,-9.547092577315631143e-03,-8.641838782371239619e-03,-7.689106245557270070e-03,2.290140390396118164e-01
2.065178653956753207e-01,-8.093216521535939734e-03,-2.413220551545258719e-02,-1.286421850945246173e-03,-1.337899606025425014e-02,-4.800531117482178742e-03,2.244290560483932495e-01
2.093887005588980776e-01,-2.516270448822227612e-02,-1.523181133802022080e-02,-2.319823514694998451e-02,-2.734309689666772347e-02,1.166365831743786975e-02,2.388497740030288696e-01
2.387629848352850470e-01,-3.402490572534480617e-02,1.419690245418905872e-02,2.877438281953556380e-04,-8.080496547206547642e-02,8.336292021247401762e-03,2.887582182884216309e-01
2.558686179869730792e-01,-1.989839373034876790e-02,-2.564389428058579112e-02,-1.855057920496865596e-03,-6.137971381862966473e-03,-3.191867837426017995e-03,2.789601981639862061e-01
1.621526962969060404e-01,-3.385405373168287602e-02,1.609795009477554828e-03,7.163565997724826578e-03,-7.281999928199414662e-02,4.512982898839632516e-03,2.210169285535812378e-01
1.843659566728382826e-01,-2.240953211897639408e-02,-1.414195094709770617e-02,5.486417806654872442e-02,-5.679738660648837867e-02,-1.342291110952549028e-02,2.456898689270019531e-01
2.394050789488807451e-01,-1.863108651468485533e-02,-2.770125017319143013e-02,-4.549167052875190131e-03,-1.396346376914851459e-02,-5.058975609641893668e-03,2.640627920627593994e-01
2.588598916276332318e-01,-2.326303136492553769e-02,-2.300142937509334906e-02,-1.521456674249810348e-02,-6.995782825438523825e-03,-2.660737999037973700e-03,2.835173904895782471e-01
2.517065200065782271e-01,-1.771577958497150274e-02,-3.088031866530921432e-02,-1.424050476610944777e-03,-5.387582949303634967e-03,-3.121437376453358413e-03,2.764613628387451172e-01
2.310834728583172903e-01,-1.590572592747892255e-02,-2.700099651726912964e-02,-4.181758960615985024e-03,3.121373778755451279e-04,-5.595514454682987658e-03,2.530096173286437988e-01
2.635367751629281718e-01,-2.175444779665249018e-02,-2.755655415934335495e-02,-6.804115003735219285e-04,4.036140123874066405e-04,2.845222836360628222e-05,2.882393300533294678e-01
2.627054234388627729e-01,-2.184881462964576027e-02,-3.159017143772122060e-02,-2.276437125773531100e-04,1.908159919414875489e-04,-9.945890977808694890e-04,2.895534336566925049e-01
1.963136830711511294e-01,-1.208366835094075442e-02,-1.320491239261126215e-02,1.481193422865430720e-04,-8.208930175048024603e-04,-5.846453899929254967e-03,2.092104405164718628e-01
1.887817074537624096e-01,-1.007174237477825862e-02,-4.526428526733114466e-03,-5.844275831950018329e-04,-4.978557026490714778e-03,1.413941028088230465e-03,1.963469386100769043e-01
1.637915446263097374e-01,1.647922913057472960e-03,-8.526527973106295955e-04,-6.358660014288292366e-05,5.043092079739559678e-04,2.816150246384013789e-03,1.634834110736846924e-01
1.924688151223323818e-01,-8.634722903311048414e-03,-1.745613261995462850e-02,-1.144039562381678719e-02,5.648867719786111047e-03,5.314211968795220370e-03,2.070448398590087891e-01
2.390101531221252573e-01,-3.023181283637788042e-02,-1.487612125691498144e-02,-6.555540688968444253e-03,-1.974970366134335949e-04,3.999356398039641963e-03,2.622396945953369141e-01
2.418470262478281674e-01,-2.206431222227657474e-02,-2.284923823355598793e-02,-4.247221991558386422e-03,1.003752224620966041e-03,6.733951841684209481e-03,2.646698653697967529e-01
2.088508106804154163e-01,-2.281502278727226551e-02,-1.186005103853406129e-02,-9.531988844685651205e-03,4.652615479383343487e-03,5.070815477229055970e-03,2.273011952638626099e-01
1.296596993287293109e-01,-6.530418891448279417e-03,-2.214214788981660326e-02,-1.856815926215673110e-02,-2.664783097572159115e-02,1.702410567156715723e-02,1.579612195491790771e-01
2.313647785942377910e-01,-1.217544510336647512e-02,-2.900407150417275148e-02,-1.132747263788307280e-04,8.895226234988940633e-03,3.186647226320523437e-03,2.529058456420898438e-01
2.662866021791842064e-01,-1.846880013590349034e-02,-3.601642772471630449e-02,1.248249497086960022e-03,4.520604387569778469e-03,-7.989330206524121155e-04,2.940378189086914062e-01
2.659175963542296239e-01,-1.850093118247310431e-02,-3.509868878035203588e-02,6.649899133245765030e-04,1.927293966411300873e-03,-2.218467104445923056e-04,2.930916547775268555e-01
2.435054498377051679e-01,-1.542612692250265594e-02,-2.948394693855291293e-02,4.212229678230297938e-03,-4.092073790776434351e-04,3.482367478702742478e-03,2.664081752300262451e-01
2.426144794408337801e-01,-1.626666881693808464e-02,-2.622177130786633448e-02,-1.824578607379108691e-03,2.203754316944344857e-02,9.365063703112116349e-04,2.667682766914367676e-01
2.626205803761314517e-01,-2.040820897381452614e-02,-3.147850027573331766e-02,1.038488532650486173e-03,2.631254008812596024e-03,-2.051972505973279331e-03,2.887865900993347168e-01
2.200081097248953454e-01,-2.315684115030743062e-02,-1.685198976584222075e-02,-1.181482288371962612e-02,6.974010160505448447e-03,6.845351512020082969e-03,2.415389865636825562e-01
2.226765850116186607e-01,-2.631028665747417450e-02,5.778933935750171780e-03,-2.120599997100738182e-02,5.397712089947201419e-02,-1.357314471467987310e-02,2.562747597694396973e-01
2.531348246287148385e-01,-1.686294933001099283e-02,-3.450145565181540752e-02,2.777494897165444510e-03,6.407083396178890958e-03,-3.725315724875893995e-03,2.795714735984802246e-01
2.463436467746031866e-01,-1.950610443372137459e-02,-2.963358047156156028e-02,-5.082738467185783822e-03,5.965666766703677654e-03,5.891130442014395202e-03,2.715868651866912842e-01
3.007677966342061637e-01,-4.648760212311039974e-02,-1.049165502511900661e-02,1.116420698280399040e-02,5.477912979057875283e-03,1.405179537391978246e-03,3.314394354820251465e-01
3.090263308160530187e-01,-3.112313772084829289e-02,5.281928437364524775e-05,7.850690712407085159e-03,7.372136544818702619e-02,3.440632850757521614e-03,3.501343429088592529e-01
1.996944578541857973e-01,-2.727622895943561387e-02,-1.289084621301765654e-02,-9.713251878895861474e-05,-2.586164408433652001e-02,-5.467765075102866282e-04,2.246440947055816650e-01
2.498676167255119429e-01,-1.735144667524711470e-02,-3.464254437408359477e-03,-2.342086299541882091e-02,-3.295435059423344748e-02,2.370310447103202503e-02,2.729048430919647217e-01
2.068421240884983081e-01,-6.806415771670459858e-03,2.056001975105775648e-03,-4.881781635169791383e-02,-5.794829924518904440e-02,3.111066840571916070e-02,2.528991401195526123e-01
1.999785627125131859e-01,-4.326566216641861140e-03,-1.514095134817809718e-02,-5.657581700108113565e-02,-5.841709743998378668e-02,2.487280167080933163e-02,2.564431428909301758e-01
1.581369389037386164e-01,-9.807719362694977683e-03,-1.187948572680444514e-02,1.927669886528176474e-02,-1.412893489750910100e-02,-5.413631001367802051e-03,1.742389649152755737e-01
2.369609919379720986e-01,-3.139159554982860756e-02,-1.382067455365118547e-02,-6.526806048152143311e-03,2.672688307994618411e-03,-2.400330184681925133e-03,2.603327929973602295e-01
2.632325336085217793e-01,-2.720619770419582806e-02,-2.666026632666394780e-02,-1.301729193598550986e-02,-1.895499719212622586e-02,-2.592584912946080920e-03,2.929211258888244629e-01
2.084672124240746771e-01,-2.246374592071191667e-02,-5.987067854218833252e-03,-1.227456044218545178e-02,-4.997900338640820679e-03,-4.049010477280982553e-03,2.244364619255065918e-01
2.430958391717984446e-01,-1.374421784585211359e-02,-2.096913119703516792e-02,-6.075890750545456798e-02,-1.746222285924466794e-02,3.295424430706365895e-03,2.826605141162872314e-01
2.693525851854965403e-01,-1.599984611574210847e-02,-1.768680711460947352e-02,1.661144193172011188e-03,-2.283558698938005656e-04,9.467543397213612402e-04,2.862190604209899902e-01
2.699947309689671449e-01,-2.040707105049496817e-02,-2.068816560304778673e-02,1.239506030481203310e-03,5.234901983655380160e-04,1.961848659179463053e-04,2.905519902706146240e-01
2.697718058660657503e-01,-1.835767511123287399e-02,-2.079559620885794435e-02,-4.157273589929151602e-04,-9.786203216255507688e-04,1.180058203213362042e-03,2.893692255020141602e-01
2.709154508962084984e-01,-2.117773514286916403e-02,-1.927749744235260354e-02,1.712496767678657172e-03,1.603953340059075059e-03,1.101380807528807172e-03,2.911823391914367676e-01
2.695691012236576256e-01,-1.303971873661655123e-02,-1.935696456759944395e-02,-2.313559386971030928e-03,4.137925461282914190e-04,2.903304122519783596e-03,2.858930230140686035e-01
2.732123827799358140e-01,-2.200472354761705274e-02,2.555479085012274387e-04,6.028146112289429126e-04,-7.847707978739168477e-04,4.505390445531063173e-03,2.848523855209350586e-01
2.704319230988344591e-01,-1.968893252949013850e-02,-1.951710415145918587e-02,5.096191418712023953e-04,1.884682196852356401e-03,2.385104970961485129e-03,2.900841236114501953e-01
2.717384628345609343e-01,-1.717702969363160692e-02,-1.173892339540812124e-02,-3.931191753245571498e-03,-1.552905682657862788e-03,6.132119319760633014e-03,2.865257263183593750e-01
2.635441479807817400e-01,-3.257049546177193111e-02,-1.802851040324436604e-02,-8.236446886300286332e-03,3.063294009381995007e-03,2.519375219827358053e-03,2.895513176918029785e-01
2.766381228467130193e-01,-1.419050999517067202e-02,-3.003664083697096809e-02,-6.640541554760009436e-03,2.139382397509753089e-04,-2.306857670830240580e-03,2.993147075176239014e-01
2.901366285168401893e-01,1.413035119376114535e-02,-4.289536989819131563e-02,-7.293286325577427731e-02,-3.019508178866758819e-02,1.451511800031236345e-02,3.383722305297851562e-01
2.846928596454734728e-01,-1.131932600166644931e-02,-3.447766240608282629e-02,-1.894866900900011100e-02,2.624393994012374511e-04,8.094021474217972037e-03,3.103040158748626709e-01
2.720709732868714648e-01,1.726614131072497227e-02,-4.306371221854740639e-02,-3.213980111052511246e-02,-5.527950273086048357e-04,2.405136227701675650e-03,2.950503528118133545e-01
2.529806005296151294e-01,1.782965840922635936e-02,-6.111255555808881024e-02,-7.346687523397291142e-02,-1.504845178190297381e-02,9.871285669602110346e-03,3.118573725223541260e-01
2.602605947011478182e-01,1.768109157558866995e-02,-4.312761837703160683e-02,-5.493180874267196423e-02,9.283253409671735762e-03,2.216608122440004783e-02,2.967802584171295166e-01
2.531106167276500063e-01,-1.771826194955082590e-02,-3.020689314931231106e-02,-4.473727435693070423e-03,-4.743011249118437786e-03,-5.954781521660626291e-03,2.777056694030761719e-01
2.498092311580682456e-01,-1.745062629938455567e-02,-3.271266895773852768e-02,-1.854489378018712217e-03,1.726585945628422237e-04,-3.678644249568677801e-03,2.753010988235473633e-01
2.443316761433431128e-01,-1.822659582116881172e-02,-2.945300802868537626e-02,-2.300726212154729990e-04,-5.170745942796505824e-03,-5.325799507564114854e-03,2.686557769775390625e-01
2.718405936241311549e-01,-8.017138788770986069e-03,-2.174194319722649871e-02,-7.817383632609619867e-03,-5.349781914267100029e-03,1.053609005150751496e-02,2.880137860774993896e-01
2.670685822309949997e-01,-2.368436547201800690e-02,-3.156208238396236709e-02,8.127686525268736344e-04,-1.193519972362866314e-03,-1.148459559734126131e-03,2.947880923748016357e-01
2.632222188148577446e-01,-2.188136475959261140e-02,-2.894058054811750325e-02,-1.670711934521527291e-03,-6.350106589782572499e-04,-1.033188404414782033e-03,2.887200713157653809e-01
2.559574264669892685e-01,-2.220528921303817349e-02,-2.840774973941498360e-02,2.159822050673923001e-05,-6.036738866302899034e-03,-3.442349694532053760e-03,2.815726101398468018e-01
2.684639236300485621e-01,-3.131920745931543459e-02,-2.238552488843550958e-02,2.940396201340034557e-03,1.366582185803388817e-03,-2.121867981860859047e-03,2.954938411712646484e-01
2.375464093329688331e-01,-2.778977848515495896e-02,-1.486890119933526044e-02,4.621473188659861592e-02,3.045721952074100652e-02,-6.131383315118268083e-03,2.764868438243865967e-01
2.682425330993474799e-01,-3.155639752792911701e-02,-2.135351092300674658e-02,-2.805718674752296911e-04,-8.437933573878672556e-04,-6.163117554168396793e-04,2.948358654975891113e-01
2.757203284347298222e-01,-5.553135193888864007e-03,-2.575952983087669013e-02,-3.571388799129960982e-03,-2.035749048080507349e-03,2.569811284840993210e-03,2.920224070549011230e-01
2.434483462840234536e-01,-2.886796962021481727e-02,-1.673503214525698390e-02,8.920945041551178734e-03,-1.393727939867393047e-04,-4.932302559313650470e-03,2.670415341854095459e-01
2.691503908126842148e-01,-9.559028991355800198e-03,-1.127313297294670058e-02,-1.159188165125270677e-03,-1.828624102380944482e-03,6.321740813676999214e-03,2.798098921775817871e-01
2.741586135846569849e-01,3.592539000991407105e-03,-2.594445689662600030e-02,9.377324985079496956e-04,5.730240135726330291e-04,4.235429741590457202e-03,2.865791022777557373e-01
3.061831957139816707e-01,-1.239857120519613498e-02,-1.418678803892239881e-02,5.895870734320658724e-02,2.666543922383379783e-02,3.426152509973798971e-02,3.437300026416778564e-01
2.761175838201219146e-01,-2.541081834515698801e-02,-2.508790105574312812e-02,1.440648491577330430e-04,-1.820952618863016907e-04,-7.000573739887838666e-04,3.013697862625122070e-01
2.468699226451417095e-01,-3.334844971355831189e-02,-1.550971783550096628e-02,1.458901169857665337e-04,2.152942449182559340e-03,2.306369516233385420e-03,2.717935740947723389e-01
2.493875614120972806e-01,-3.108955592311793414e-02,-1.413982071618712089e-02,-5.283944897616328976e-03,3.022818529556712749e-03,4.027308153154152831e-03,2.726912498474121094e-01
2.515844427678959327e-01,-3.580697396596875526e-02,-1.414961602269987351e-02,-4.932914834511422687e-03,-1.295237085962741780e-03,-3.247968355339279868e-04,2.773392796516418457e-01
2.513094517517152626e-01,-3.154294076456029550e-02,-1.736380304290729981e-02,-7.554270000989527986e-03,4.673904401861711001e-03,2.197323323032277734e-03,2.764907777309417725e-01
2.596314237437906125e-01,-3.385824119162363088e-02,-2.010101136835436286e-02,-3.402199403968012535e-03,2.498125769203908813e-03,2.187365820193681344e-03,2.869767248630523682e-01
2.635095655463117748e-01,-3.656149478862340263e-02,-1.781334009824919740e-02,-1.007358095742010972e-03,1.263927247377817859e-03,-2.149477190938479444e-04,2.911637425422668457e-01
2.457488859831593042e-01,-2.311086232228484749e-02,-2.031735195970046925e-02,3.871116255577739711e-04,6.949444908597448081e-03,-5.905837981937378349e-03,2.679408192634582520e-01
2.849590087895511603e-01,-4.363163557012439409e-03,-1.747048257841006536e-02,-2.483177346152456565e-03,-5.187274928085285237e-03,1.788971556825815282e-02,2.978770136833190918e-01
2.331768728136717761e-01,-1.547565774313995612e-02,-2.379512136732361838e-02,6.090856319054884470e-03,-8.874474348856014640e-04,-3.667142115526050936e-03,2.532191872596740723e-01
2.434453692540032577e-01,-1.843779026175755564e-02,-2.735877060714686504e-02,3.178645991522137306e-03,5.789012982838886295e-03,-3.481683389386322405e-03,2.667692601680755615e-01
1.913036739422947496e-01,-1.186456708371165514e-02,-1.426785312783619697e-02,4.217865604679533337e-03,3.547866177067381110e-02,2.789525907558962174e-03,2.135984599590301514e-01
2.776583630694635652e-01,-2.771064297576988911e-02,-2.704147292884138964e-02,-6.232403082009198118e-03,-1.168340895722155571e-04,-5.381387233954685115e-03,3.053682744503021240e-01
1.497416764251476851e-01,-2.192741192740882417e-02,1.035485608064511120e-03,-1.363189329316391585e-02,4.642439864586763582e-02,-1.384468714030591841e-03,1.818913370370864868e-01
2.752636634474815991e-01,-3.494193378127530281e-02,-1.217659257916151039e-02,7.060762100378996722e-03,3.172684954414226044e-02,5.700040755349139107e-03,3.048780858516693115e-01
2.147349575898995777e-01,-2.300898815334753711e-02,-1.157110418309265087e-02,-1.088289561495372169e-02,-1.494599223501897754e-04,5.851454117157459806e-03,2.332205325365066528e-01
1.987481126625044170e-01,6.711357291503579348e-03,-5.446260069999594999e-02,-3.799644070613904939e-02,4.367769730599920658e-02,-2.957483442568230661e-02,2.550420463085174561e-01
2.636530086006290685e-01,-1.999096382268529537e-02,-3.360405673649854985e-02,7.599697520513503269e-04,5.722984023435995736e-04,8.909688166136852132e-04,2.906984388828277588e-01
2.416804857549366692e-01,-3.026429160461183154e-02,-1.433131338727036685e-02,-2.099317130682405025e-02,9.241299897814629627e-03,2.196325818678808613e-03,2.673345208168029785e-01
2.062316741522303154e-01,1.377184193889208208e-02,-5.995175689978474165e-02,-5.237795478808663502e-02,1.059075464251144766e-02,-3.233842299708555943e-03,2.554662525653839111e-01
2.292730833386580347e-01,-1.999832564677837821e-02,-1.835482357901427330e-02,-2.098417313075223375e-02,1.344601452676444722e-02,1.808583546089522669e-03,2.521952986717224121e-01
3.038997268139972396e-01,-4.461624837713762393e-02,-1.203447096795198790e-02,5.221057880677228494e-03,6.526567342524138872e-03,3.243653057602771932e-03,3.337825834751129150e-01
3.091029691635144294e-01,-3.477435307722917535e-02,4.390270905345952657e-03,-3.225280312973937205e-03,2.144779813146053263e-05,1.353396246920336200e-02,3.269531726837158203e-01
2.800033854672681066e-01,-3.051580080125215755e-02,6.353454918921502825e-03,1.719197014141392484e-03,2.517692258814831631e-04,3.527528748808692396e-03,2.939035296440124512e-01
3.182560112214155579e-01,-4.425369737117640367e-02,2.511087043339400859e-02,8.518503454124236665e-03,2.376539146592190205e-02,1.476622973016739927e-02,3.371136486530303955e-01
2.741897536852206940e-01,-2.635092381937630124e-02,-1.340470107447185033e-02,-2.394542894039750156e-03,-7.114998056534645871e-03,1.602828929191686853e-03,2.945814132690429688e-01
3.238282473271457129e-01,-5.410060620129314435e-02,1.887278264442930620e-02,6.960082495265454763e-03,-1.087474083231894026e-02,3.464039531325244572e-03,3.480124771595001221e-01
2.859054459250685021e-01,-3.003776497189822314e-02,-6.394602394164256021e-04,-4.292520293589403846e-02,-3.730607174633761985e-02,2.947185567932642664e-02,3.220324516296386719e-01
2.711397043859119504e-01,-2.772111435114239797e-02,-1.250176325770190056e-02,-1.722216282912678465e-03,-4.757820362691487365e-02,8.691475347302128618e-03,3.033604025840759277e-01
2.696972752068761969e-01,-2.608665851255022317e-02,-2.062748766434915892e-02,3.476669894704500531e-03,-1.410352105256856836e-02,3.239612459794898557e-03,2.942238450050354004e-01
3.899121772250816464e-01,-1.977846708471206472e-02,-1.288578352940999983e-02,-5.357681789931448280e-02,-1.643362282795448812e-02,3.446295637955072710e-02,4.219653606414794922e-01
2.736551994911182173e-01,-2.183700767193358372e-02,-3.747317282409609596e-03,-4.719512282677616483e-04,-3.905582023697186898e-03,3.756839803547084439e-03,2.870301306247711182e-01
2.788052434589248785e-01,-2.455358233274322621e-02,-8.054770870221522605e-04,3.035811913788980486e-03,-3.428950728472560214e-04,1.080353867755675518e-02,2.928557693958282471e-01
2.800517091279843829e-01,-3.022813057507858781e-02,6.822682134076704652e-03,-1.654915468818288357e-04,-4.621225185720584817e-04,2.209513120736021196e-03,2.935397624969482422e-01
2.638559204420925508e-01,-3.300309740615289811e-02,-2.149188651415519236e-02,-2.006736217478678145e-03,-2.768201709580874717e-05,-2.832608311726771046e-03,2.913361191749572754e-01
2.629460931443590721e-01,-3.147675204373559521e-02,-2.301368464679955095e-02,7.521648013031437827e-05,8.092547714638644984e-04,-8.765744814693707471e-04,2.902912497520446777e-01
2.664661566153287975e-01,-3.167183747159177387e-02,-2.318069172110095999e-02,-7.663682067860916596e-05,-1.207553557685852675e-03,-8.744339560300423307e-04,2.939957678318023682e-01
2.473360327381183277e-01,-2.968996641136599501e-02,-2.156090456822917778e-02,-5.033529833285515370e-03,-2.180193750194948238e-03,-4.630531135102353146e-03,2.733351886272430420e-01
2.531283878962469203e-01,-2.766600156943986588e-02,-2.362366406371596561e-02,-3.678465988704268316e-03,1.178258147240791398e-04,-5.022121251387933957e-03,2.790037095546722412e-01
2.563757304407949800e-01,-2.382430979809675720e-02,-2.139357694614422989e-02,-2.153714722920500521e-02,-2.205887454568459735e-02,-3.145970651883594083e-03,2.841089665889739990e-01
2.669462196978309443e-01,-2.550108856690255776e-02,-2.431854868909064105e-02,6.410557603916712532e-04,3.523170401669096694e-04,-3.158499936016296748e-04,2.918610870838165283e-01
3.012389389854913668e-01,-1.453978927260948795e-02,-2.803119198624967612e-02,2.266846160148226156e-03,3.039051439738320315e-02,3.226888833394150197e-02,3.317657709121704102e-01
2.786083341796948831e-01,3.272597154045195356e-03,-2.676287015416561887e-02,-3.281337463514887118e-03,-2.514505488606286719e-03,5.573296005951555374e-03,2.917639315128326416e-01
3.548939465751212441e-01,3.098519537376429045e-03,-4.647246712835936822e-02,3.478416827904919073e-02,2.369196515862265207e-02,5.840471067810570384e-03,3.860987424850463867e-01
3.250610748436926212e-01,-2.022638666165119115e-02,-6.244844123263149083e-03,3.591625865142781399e-03,2.610615069624212803e-03,3.899389687105602603e-02,3.452708721160888672e-01
3.036091170855244048e-01,7.285755832344156802e-03,-4.385472483654520581e-02,4.256568314151444078e-03,6.469172570557787244e-03,4.131100222762497214e-03,3.252815902233123779e-01
3.029169068996300784e-01,1.908947501946547942e-03,-3.797967252335712751e-02,-8.821524739891757963e-03,5.176708917427834573e-03,1.122963870204225778e-02,3.238762915134429932e-01
2.766479920246284196e-01,-6.042376379356562133e-03,-2.506465142269162505e-02,-4.681119600424212164e-03,-2.085042796855244174e-03,2.618284371077891307e-03,2.928352057933807373e-01
3.176178998497435346e-01,4.838446772899018811e-03,-2.110040855750727751e-02,-2.244775607091326758e-02,-9.843540556399205804e-03,3.217442204988978094e-02,3.339534699916839600e-01
3.254797019815494630e-01,-2.400465693363909581e-02,-5.375208777879933453e-03,2.575120848430906013e-03,-5.304194171897515676e-04,2.213874482434902841e-02,3.427342772483825684e-01
3.409994775049980942e-01,-2.450894542973755530e-02,1.004701809311329963e-02,2.893631111653608562e-02,6.191110689273766898e-02,2.952816586902506230e-02,3.725408017635345459e-01
2.911319068646396335e-01,-1.395171901862721220e-02,-8.824510831469054017e-03,8.015128447059694655e-03,1.312260203107822217e-02,2.725533048989480303e-02,3.073694407939910889e-01
2.749613540254035593e-01,-1.271584337378460494e-02,-1.886851134525431573e-02,-1.593899340053487939e-03,-1.790843185138547584e-03,6.169190902355213731e-03,2.910282313823699951e-01
2.855466634064431908e-01,4.220782861970362454e-03,-4.571506881669304412e-02,7.102339351146828850e-02,3.262386750581741657e-02,7.184680958704850462e-03,3.378858864307403564e-01
2.760125884772382521e-01,-1.783654592744954304e-02,-1.794359939125593495e-02,-3.755705809639135924e-03,-6.896920945321627361e-03,9.420960304901927415e-03,2.946694195270538330e-01
2.614044006839583156e-01,-3.066975380193377732e-02,-2.066278092218851170e-02,4.908278918886265982e-03,3.749196956065655242e-03,-3.968235960542657211e-03,2.874827980995178223e-01
2.771354619175278033e-01,-1.731246920689427649e-02,-2.571930873710176479e-02,3.266163503842845796e-03,-1.837928663373838349e-04,-1.191327717216717657e-04,2.987938821315765381e-01
2.766856973669319930e-01,-4.875398121157586973e-04,-4.541857948822197732e-02,4.421040252446725716e-02,4.025063087698934478e-02,2.046739882013443035e-02,3.213693201541900635e-01
2.749803227205203093e-01,-2.899993871081937846e-02,-2.295678313312894681e-02,7.181675460875050140e-03,-1.138275311344445675e-03,-2.271961365851635304e-03,3.012932538986206055e-01
1.786676621055863501e-01,7.308434980914005341e-03,-2.174378013303644719e-02,5.510474758655722893e-02,3.589451790438438761e-02,7.946647315893118346e-03,2.198878675699234009e-01
2.951518416633063802e-01,1.547629837081593296e-04,-2.317413009728044870e-02,-8.917096327588672558e-03,-8.755857467225481097e-03,2.199620236621708733e-02,3.104343712329864502e-01
2.740514833490120816e-01,-1.117531094697161997e-02,-1.777008735125137906e-02,-3.816878399384698167e-03,-4.368374949554901243e-03,3.293096479183353284e-03,2.888118922710418701e-01
2.854870905303148465e-01,-3.997641154850670175e-02,1.424996291568919604e-02,1.877731212627450907e-03,1.010972763676589239e-02,5.538120594128534240e-03,3.027003407478332520e-01
2.783236570993565806e-01,-2.633273767249272312e-02,-2.565015636075819450e-02,-3.536896126484787364e-04,-3.220122540331542054e-04,-2.459620401987562630e-03,3.043466210365295410e-01
2.661435945376167123e-01,-2.370213362454540174e-02,-2.972458502701402772e-02,-3.104205158699419780e-04,1.439914744523836283e-03,2.344609146013904195e-03,2.929426431655883789e-01
2.735559325446207390e-01,-2.305323057415187282e-02,-2.343662774457219711e-02,5.045218763702247243e-04,2.896246904553893917e-03,-5.567511307966199570e-06,2.968447208404541016e-01
2.528170988900421134e-01,-2.388354821211456647e-02,-2.734821870214264317e-02,4.542206373918165983e-04,1.997108299213745837e-03,5.590470989850031096e-03,2.786400318145751953e-01
2.561209294346492582e-01,-1.945548685321216165e-02,-2.939223271266649951e-02,9.849293161210894310e-04,-1.897941545018615736e-04,5.053141499613831786e-03,2.808185517787933350e-01
2.617752447797276893e-01,-2.195832553763150952e-02,-2.751332825572917751e-02,-2.635885081123420098e-02,2.279810527852791854e-02,-1.484473782534854016e-03,2.928514480590820312e-01
2.709864944013633536e-01,-2.753097019385390698e-02,-2.380584708024016671e-02,-2.709452450610300156e-03,3.159467191431171267e-03,2.446058627132973243e-03,2.967902719974517822e-01
2.669194174050538715e-01,-2.252822959105282852e-02,-3.283245178011043319e-02,-3.327214132440201272e-04,9.965286962742689238e-04,1.129117333815127895e-03,2.947469949722290039e-01
2.545298790269711064e-01,-2.104600844258369685e-02,-2.974461972499975460e-02,-1.962694425155481204e-03,-4.270860032927019205e-03,-2.560559557881407315e-03,2.801799476146697998e-01
1.780426532660998318e-01,-4.019951083894385269e-03,-1.684204279657634806e-02,-9.091525078844281404e-03,-4.230521537725780851e-02,-3.110935242062388799e-03,2.032038718461990356e-01
2.040176442993965888e-01,-1.418973867672689015e-02,-1.100624757307973323e-02,1.389789521790242219e-02,1.841758795582991610e-03,-7.516424182349438132e-04,2.179937213659286499e-01
2.417677104276614586e-01,-2.950597376434130337e-02,-1.689914871823455789e-02,7.983214199866247446e-03,2.585571059691830521e-03,-3.870170916288959671e-03,2.656776905059814453e-01
2.514310096464804634e-01,-3.086099108047808681e-02,-1.977984638026243636e-02,-6.568136249187408147e-03,2.512112382914722004e-03,2.193828008574893063e-03,2.772115468978881836e-01
1.730626317380811185e-01,-6.255036820907444728e-03,-1.186401228007334663e-02,5.872076078425556575e-04,-2.340084071210474584e-02,7.016529799900251586e-03,1.870390474796295166e-01
2.731678304789491030e-01,-2.991815765122105009e-02,-2.281852840301895613e-02,2.376217506978853342e-03,5.354577868258012701e-04,-2.083825384551504876e-03,2.996506989002227783e-01
2.169458817557579633e-01,-1.819870049204413975e-02,-1.698455098393095164e-02,6.830365581180282419e-03,-5.482542350562501525e-04,6.470433382762709809e-03,2.351072281599044800e-01
2.743151786083993793e-01,-1.643894023914323210e-02,-1.787103048017739393e-02,4.612998552621607427e-03,-3.935609854237845026e-03,-6.952257235732281666e-03,2.919104397296905518e-01
2.561586666599171558e-01,-3.427728745098304608e-02,-1.685503809776595086e-02,4.903944391939368472e-03,1.149120711317125538e-04,1.147485146166158992e-03,2.822634577751159668e-01
2.315536030807265333e-01,-2.499250723905489802e-02,-1.445816297842986153e-02,1.154508890986736397e-02,-4.690197669133099739e-03,4.685470884366457409e-03,2.524996101856231689e-01
1.550958695389672015e-01,-1.303617874899128115e-02,-1.929624199026723497e-03,2.341973212801322368e-02,5.318650772676986917e-03,-4.348292617586582264e-04,1.680929958820343018e-01
2.503549076934155071e-01,-3.208249519258353499e-02,-1.612155116214775141e-02,-3.837965371818779147e-04,-4.246343687710161792e-04,-2.475145621157342785e-04,2.748069167137145996e-01
2.559085824725805258e-01,-2.808349670778223506e-02,-2.108053574132677521e-02,1.278297551704915373e-02,-2.436191798526356461e-03,4.763502391626660108e-03,2.815809845924377441e-01
2.780687735259943505e-01,-2.185573088223254079e-02,-9.132894830980106682e-03,9.486345190187484011e-03,-6.390293678348236972e-03,-9.204999870778185836e-03,2.948683798313140869e-01
2.811796025950620281e-01,-6.312715668617324694e-03,-3.097727964699414915e-02,-7.182795741451138832e-05,2.661774806188224683e-03,-8.333321342391659600e-03,3.009662032127380371e-01
2.738320129859833640e-01,-1.595614948057971771e-02,-1.535897349647545596e-02,-1.334219211076722277e-04,8.737899177560855702e-04,-3.959279116080155481e-03,2.895753085613250732e-01
3.169570349803131348e-01,-4.874337751559218446e-02,1.346439876933075430e-02,-1.968385777207562470e-02,-6.563995423701429743e-02,5.354824742624221014e-03,3.592093884944915771e-01
2.955618091916519807e-01,1.352429659731965716e-02,-4.273770160848935906e-02,5.455774350534733919e-02,3.718099756083956611e-03,-2.517318909404238012e-02,3.308334052562713623e-01
2.711919907876505498e-01,-1.868284150440704949e-02,-1.130392587306457142e-02,2.484966618532971172e-04,8.489992215318666567e-04,-1.869179541837598119e-03,2.862791121006011963e-01
2.737501539964357078e-01,-2.729984858420902993e-02,-3.059192450803993601e-03,2.556737655257355652e-03,1.834401024491012343e-03,-1.929292973279860771e-03,2.897618710994720459e-01
2.742937442616065202e-01,-3.067500366364780962e-02,-2.808339069337473237e-03,-1.453265851089839689e-03,1.362292161835148554e-03,-1.752736239580568239e-03,2.920704483985900879e-01
2.812949283543781931e-01,-2.502967079107461246e-02,-2.351929556157746071e-02,-2.600337456885021877e-03,2.968004285931828690e-02,-6.514905344477264076e-03,3.101043403148651123e-01
2.723076808851244146e-01,-2.430659294197493048e-02,-1.925291642244195134e-02,8.807429347786846930e-04,-7.712775552183446159e-04,1.231295930608810154e-03,2.941347360610961914e-01
2.740368431215192135e-01,-2.100492143430128522e-02,-1.357666537621325664e-02,-6.362012554964546979e-04,2.111290224370729936e-03,-2.359639238950023577e-03,2.914523482322692871e-01
2.758446996884678093e-01,-4.865562696207914595e-03,-2.163945345172746393e-02,-8.108249093134074770e-04,4.283149846899449859e-04,-4.008381302076253865e-03,2.895495593547821045e-01
2.721350565125136844e-01,-1.654140515045034177e-02,-1.589850715720739216e-02,-5.591765197817334838e-04,1.059552198684100485e-03,-1.332327360245799891e-04,2.883630990982055664e-01
2.712915128936036480e-01,-1.884560642260654784e-02,-1.572324136387494298e-02,1.404539630300702044e-03,-3.466501074696175656e-04,1.107018397443936247e-03,2.886058390140533447e-01
2.744379523564106638e-01,-1.662151508064452221e-02,-2.404250435622251603e-02,-2.549111551605595574e-03,1.648031755562916808e-03,-2.198938678469716511e-05,2.948868870735168457e-01
2.913277516977093584e-01,-3.618786488762323894e-02,-5.601278479843069258e-03,1.309491280328491450e-02,-1.342718377378424033e-02,-1.784897512905277497e-02,3.165367245674133301e-01
2.708952229203147599e-01,-1.663692120503450222e-02,-1.210703180423938763e-02,4.382069577585264710e-04,-6.134245357982949466e-04,-2.268037103144702072e-03,2.853242158889770508e-01
2.726517340355182339e-01,-2.593599090123244189e-02,-2.167083973597987157e-02,-9.143330272910507421e-04,-3.397565413641720012e-04,1.835070768397738456e-04,2.964831292629241943e-01
2.574269434111157162e-01,-3.610044993720885886e-02,-1.779224307552351725e-02,-4.721441263661038147e-03,1.897728953726415552e-03,5.700445886403717084e-04,2.849529981613159180e-01
7.820443356137643520e-02,8.830001476656520326e-03,-5.772848168052541196e-03,-4.309892240121089568e-02,-3.037097592343740438e-02,4.334285951306333408e-03,1.201466470956802368e-01
1.226844780494133202e-01,-6.452606079845289722e-03,7.659467705262476556e-03,-3.044313502372673896e-02,-1.305559283194697440e-02,-2.710145253257465305e-04,1.354439556598663330e-01
9.473527547823953898e-02,-4.397195731246037603e-02,-2.346859924664384395e-02,1.685597596446932259e-02,-1.322167324374386166e-02,-1.279164488735497207e-02,1.366887241601943970e-01
1.884809290558789596e-01,-1.510904725404688120e-02,-1.645883828166168350e-02,-3.698695387417932218e-02,-1.683862270277222337e-02,-7.014376023374948796e-03,2.163973897695541382e-01
1.093634434859790533e-01,5.610967781799966470e-03,5.184261786230437430e-03,9.653426965908432772e-03,-1.333927621477268288e-02,4.044146828208104727e-03,1.080345809459686279e-01
5.032626708008375999e-02,-1.141645438386386033e-02,-4.281664350972481242e-03,-1.473611603820208435e-02,1.051625625030459289e-02,1.892063101654473459e-02,7.402534782886505127e-02
1.023531397823933403e-01,-1.857357147208648501e-02,-2.349193279344317931e-03,1.467938246813694060e-04,-3.963706032858853312e-02,1.570452609697815458e-02,1.355647146701812744e-01
1.140746759676412592e-01,6.040432700457037951e-03,5.337768478075426148e-03,-2.337987737214976269e-03,-8.024255700188984153e-03,2.987966997557506537e-03,1.094721481204032898e-01
2.719839399656344692e-01,-2.690132591982240251e-02,-2.892252887155141727e-02,1.801448728294658959e-08,5.235417430238658307e-04,1.521292581306437654e-04,2.999024689197540283e-01
2.720064032954643274e-01,-2.718049264703559231e-02,-2.881191345817311900e-02,-4.965735793656645379e-04,-5.383314219789803351e-09,4.795178295850027538e-05,3.000071644783020020e-01
2.696452971576064339e-01,-2.540172828388241599e-02,-3.155727249955590785e-02,7.773598181722767095e-04,-5.616676506381736156e-04,1.058467455348927186e-03,2.981827259063720703e-01
2.691142263285967173e-01,-2.467668591405881851e-02,-3.055981656168287042e-02,-3.363970382794186954e-04,4.315426561531747994e-04,9.195197858220342238e-04,2.967819869518280029e-01
2.704872875413524280e-01,-2.898602976659156449e-02,-2.685339407753528640e-02,-1.364022007748528055e-03,-4.685184065632468434e-04,7.110948775924650668e-04,2.984257042407989502e-01
2.658522995454050131e-01,-3.023394200606469018e-02,-2.420002114427491358e-02,7.434280059832106425e-06,7.525427743069487783e-04,1.844256783595446840e-03,2.931361794471740723e-01
2.031256721792873421e-01,-9.561476290977838355e-03,-2.053883386621732643e-02,5.459251008662203801e-03,-1.401302011308587156e-02,6.106307531960808790e-03,2.201849967241287231e-01
2.615074705621481810e-01,-2.928999638370094472e-02,-2.054745903421262287e-02,3.332766039710578169e-04,1.176584692210745587e-03,6.767180754583334104e-05,2.865341007709503174e-01
1.698989629950206359e-01,-6.042630622293473919e-04,-8.269846350060325313e-03,7.455817567525911682e-03,-1.521828159965816010e-02,6.977031444306480354e-04,1.769184321165084839e-01
1.637299629149759905e-01,-3.769323157652847145e-03,-1.056276571832150124e-02,2.031002745044776722e-02,-6.842828362078070235e-04,4.849030715553048071e-03,1.747841387987136841e-01
2.092189384762569160e-01,-1.104063502576836664e-02,-1.994097064650619811e-02,9.253353805283991585e-04,-3.579026358783148933e-03,6.437230472168366420e-03,2.252092212438583374e-01
2.448327185273097006e-01,-2.227694489534691458e-02,-2.227416506194430934e-02,7.798838550476128867e-03,-6.093856858818753885e-03,6.100645577076406652e-03,2.678663134574890137e-01
2.643806599388272560e-01,-3.435182036535455730e-02,-2.068987453600740212e-02,-1.126367833693689684e-03,-1.991792411063123252e-03,-1.216199891043059353e-04,2.921681404113769531e-01
2.634442456504730856e-01,-3.402015562563322215e-02,-1.910459945059600484e-02,6.336739134640425415e-04,2.762501471134161954e-04,7.647167083688718352e-04,2.902996540069580078e-01
1.357999145682483588e-01,9.257815410562003633e-04,3.170787453928430866e-04,2.155559800743160268e-02,2.510157150565649632e-03,2.687584101803775286e-03,1.403851956129074097e-01
2.318877299308036155e-01,-2.850269459896759283e-02,-1.235092158734286960e-02,1.191706180583059806e-02,-3.019030572533703519e-04,-7.184552169827830917e-04,2.535471618175506592e-01
2.947081864613768643e-01,-2.117015276648713529e-02,-3.767486150128129818e-02,1.392698473137740298e-02,1.280550604103962604e-02,2.369985875907525564e-03,3.261221945285797119e-01
2.010686219931978602e-01,-2.064790399789884212e-02,-1.521187579804807177e-02,-3.111909008404174781e-02,2.563156055814391418e-02,2.485537869782411362e-03,2.299503684043884277e-01
2.571370454341258549e-01,-3.560358973400758187e-02,-1.658685357261807658e-02,-4.347862368654823763e-03,1.021582153235835741e-03,5.299681666183516217e-04,2.838175892829895020e-01
2.167765947429380335e-01,-1.852258912337398367e-02,-1.651333950856728738e-02,-1.734068711550018280e-02,2.521129894246786074e-02,4.457498776670110012e-03,2.403445541858673096e-01
2.423868268562389128e-01,-1.968754162416629094e-02,-2.562002743152745621e-02,-4.755439936021581618e-03,5.738373483048785605e-03,6.817176674502175779e-03,2.656670212745666504e-01
2.683198929192064375e-01,-2.686433339229853112e-02,-1.183570797779354145e-02,4.628989927621171736e-03,-4.224507989393894916e-06,-7.491576386282539817e-04,2.880786955356597900e-01
2.577139416342757450e-01,-2.888763618125289589e-02,-2.492124527423282554e-02,-5.696051374516863421e-03,1.308850662661351430e-02,5.351221781319574983e-04,2.857123315334320068e-01
2.342126710617189467e-01,-2.067143957376325891e-02,-2.091700204649450667e-02,2.594147520636903501e-02,-7.476594398401030517e-03,9.507216355095244199e-04,2.592640519142150879e-01
2.643463852998992891e-01,-2.123228389170457586e-02,-3.149813961422177899e-02,4.843001586801228692e-03,-3.784361756723662873e-03,3.241593660627364090e-03,2.910964190959930420e-01
2.680689193711216500e-01,-2.605047482967853822e-02,-2.860227299695428105e-02,1.320509789260984786e-03,-1.300372873518162694e-03,3.875090825832389757e-03,2.954972386360168457e-01
2.535721764609557005e-01,-1.983485647697010024e-02,-3.052468778689153284e-02,1.411763081132416664e-03,3.872209690871555431e-04,4.255297765042801578e-03,2.790145277976989746e-01
2.731567377828970078e-01,-1.471053672679849267e-02,-1.347226293099944294e-02,-1.211658732223059088e-05,1.468445944598849957e-03,-6.806867723023354161e-03,2.875032424926757812e-01
2.701462242008232373e-01,-2.925290883131370645e-02,-2.485926408717459291e-02,-6.112861931802579247e-05,-8.500852220421430171e-05,3.225679217849476373e-04,2.972272336483001709e-01
2.473280427939996140e-01,-2.174550265066287069e-02,-2.120704429992742446e-02,2.713737761667025031e-02,-2.241551102847768456e-02,-2.876808971353163498e-03,2.756763994693756104e-01
2.422926260411634725e-01,-2.368815416919720085e-02,-2.217901478955339178e-02,1.010082720339460470e-02,-5.036530585182016559e-03,5.274610896836010726e-03,2.661058008670806885e-01
2.191409453653849482e-01,-1.754743108758213821e-02,-2.104127799428057166e-02,4.139607791392887863e-03,-1.139922146612278205e-02,7.495748462871959505e-03,2.397297322750091553e-01
2.385274411320320309e-01,-1.887749975772970434e-02,-2.603518074973376617e-02,4.879447602264707154e-03,5.870144305035027068e-04,5.812896241416854078e-03,2.613901197910308838e-01
2.723358772028973696e-01,-2.563669529297166183e-02,-2.257001641825738536e-02,-2.669815460301491121e-04,-4.795011836826624119e-04,-2.050425777181024486e-04,2.964528799057006836e-01
2.730019732313442860e-01,-2.732566713334463882e-02,-2.259838972423879044e-02,6.089936519008552936e-04,-1.800544116819810070e-04,1.267882091003823307e-03,2.980022430419921875e-01
2.720611603942875711e-01,-2.080928741861555464e-02,-1.944128080457691032e-02,-1.181090848226122245e-03,1.312978802291917164e-03,-7.236369771308733337e-04,2.922075390815734863e-01
2.728319100895104654e-01,-2.095263353899297354e-02,-2.036209715002096354e-02,-1.147590413521907453e-03,1.803505567125893074e-03,-1.667690799721008971e-04,2.935132086277008057e-01
2.717837653665406417e-01,-2.201741303903974323e-02,-1.829991681179014840e-02,-4.496701027992203040e-04,1.526094900615900191e-03,-4.787102737861070965e-04,2.919743657112121582e-01
2.718899476544780480e-01,-2.522210546874575909e-02,-2.467175862196281655e-02,3.489943045903548882e-03,-8.911285144405452132e-04,1.911206142253357948e-04,2.969030141830444336e-01
2.727648723236809625e-01,-2.483919267497607108e-02,-2.274460115307300190e-02,2.551672947604795901e-03,-3.204681981282161019e-03,1.435202877995218635e-03,2.966575920581817627e-01
2.722189536468879179e-01,-2.302596987723561084e-02,-1.769517303786244389e-02,-1.976992721462266075e-04,2.422402938745293454e-03,-9.917467461642332123e-04,2.926512658596038818e-01
2.576022884850775463e-01,-2.919752761281754760e-02,-1.989631255732721149e-02,-3.869926414395640293e-03,1.777062504848142717e-03,1.578166701390772814e-04,2.823606431484222412e-01
2.722762390955287826e-01,-2.472785958083038860e-02,-2.254714515788280860e-02,2.376730115171674790e-03,-3.132227752454957732e-03,1.263885754883777631e-03,2.960062026977539062e-01
2.730903461185049119e-01,-2.052172878535854506e-02,-2.104655227011889562e-02,-9.490821311690514957e-04,2.033004409764709291e-03,-1.784597448516196260e-04,2.939006984233856201e-01
3.246289240028595313e-01,-4.360520704813272697e-02,3.646258041227076752e-03,6.473501562011572258e-03,-5.174379832899662912e-02,-2.048899907330732975e-02,3.603426814079284668e-01
2.740062282845462938e-01,-3.221223020339418486e-02,-2.756098376813262418e-02,5.265323741787691220e-02,-1.776937536451511646e-02,-4.363808401913608914e-02,3.276343643665313721e-01
2.248970485997983382e-01,-3.346258879619590232e-02,1.708760683656064538e-02,2.507972360265565970e-02,-7.036530701403599652e-02,-1.354088242473973011e-03,2.701688408851623535e-01
1.794157845158553533e-01,-1.460039400742538240e-02,6.195432995299295087e-03,1.306270963216100414e-03,-4.257846715331602833e-02,4.591552847421744368e-03,1.988646835088729858e-01
2.766085317573978020e-01,-1.797268623206300930e-02,-1.131005016082869963e-02,3.480145860100885939e-03,-1.985634763723230500e-03,-3.594907255457892737e-03,2.914562225341796875e-01
2.743392290168266134e-01,-1.372731160930711070e-02,-2.391860517036510647e-02,-2.143703712163666855e-03,1.594494292751583945e-03,-2.179451183646591642e-03,2.933557927608489990e-01
2.724843002204392906e-01,-2.391448470971020701e-02,-2.215056825290230569e-02,1.760910833243924892e-03,5.227647308213201251e-04,1.380205121056980429e-03,2.955475747585296631e-01
2.703332656812078572e-01,-2.288674461336144550e-02,-1.953190486046700591e-02,1.010394726358294004e-03,1.620725724825505549e-03,3.995986882129781204e-04,2.915766537189483643e-01
2.996323953854337363e-01,-4.929946945363777866e-03,-2.783977911345336675e-02,-3.028877410294616990e-02,-8.509104973072516634e-03,1.152662849202411993e-02,3.219139575958251953e-01
2.692923188516928579e-01,-1.745031668820284931e-02,-1.217063063213721930e-02,-2.778243920576987588e-03,-2.954160769389889852e-03,6.668795583585193990e-03,2.844609916210174561e-01
2.742828579248912657e-01,-2.016168424779005153e-02,-2.073928898938019738e-02,-3.861011393783721907e-03,-3.166866479316849184e-03,5.253836073620419232e-03,2.950010299682617188e-01
3.920248334396298495e-01,-5.780488703891514812e-02,1.076941045724971735e-02,1.024692536805701677e-03,1.503518442220362974e-02,4.306029986268229259e-04,4.205761849880218506e-01
2.308316429455938290e-01,-2.665363031603751320e-02,-1.575989761676338530e-02,2.542791908831670703e-04,-4.540968595658495879e-03,-5.516318697879208505e-03,2.525187134742736816e-01
2.502845102513830966e-01,-2.468756417727166474e-02,-2.310532115749271143e-02,-1.115533545068499686e-02,-8.484676990626950285e-03,-1.206500394762576901e-03,2.752648293972015381e-01
2.132993129015942346e-01,-2.030044688576912448e-02,-1.728467983750592296e-02,-2.779847386339545645e-02,-1.546789356894548439e-02,-2.943640099406377199e-03,2.386115789413452148e-01
2.568582948355884743e-01,-3.563232977506926302e-02,-1.655889028309477651e-02,-7.814709321128281497e-04,7.824560364084303657e-04,4.647658471446564662e-04,2.834432423114776611e-01
2.452923317053755103e-01,-2.031017825357543660e-02,-2.088692876548053912e-02,-1.625223873828760338e-02,2.175927816238115860e-04,1.763241778498563981e-05,2.673775553703308105e-01
2.019384979554586235e-01,-2.030492228662322818e-02,-5.890962333817570395e-03,-1.316099048165985178e-02,2.266238769993890109e-03,2.567342519308922922e-03,2.166825085878372192e-01
2.222744296604695080e-01,-2.734888786108444214e-02,-1.096660775374778962e-02,-1.890725519742353714e-02,-2.912155215563857168e-03,-1.525651314705440465e-04,2.441080659627914429e-01
1.359618621271160566e-01,-2.972881067019941814e-04,-1.557854104394000572e-02,-7.333536132911591676e-02,-1.755673199179658486e-02,-8.410905752839444634e-05,1.947851330041885376e-01
2.728907012224703887e-01,-2.632001888461930894e-02,-2.420825855618165268e-02,-1.031728459469549719e-02,-3.974456514007827746e-04,2.597618526920521752e-04,2.986966073513031006e-01
2.519720422265402382e-01,-2.058020133060348145e-02,-2.240665456666404709e-02,2.797331702668420968e-03,-8.147934296764199492e-04,-5.673903358809378149e-03,2.736930847167968750e-01
2.730779572041499570e-01,-2.685846365272624714e-02,-2.672657991380654463e-02,1.106233641772865622e-02,9.660382134702031123e-03,-4.857204747002291136e-03,3.010650873184204102e-01
1.883847759104594899e-01,3.913992015524100920e-03,-2.197205964148733759e-02,5.946430539763770950e-02,3.756342452548358524e-02,1.077200322198381029e-02,2.338031828403472900e-01
2.677888171822374042e-01,-1.043748416715600813e-02,-1.212777294552142004e-02,-5.068970286236790246e-04,4.882401910190602981e-04,3.134884760909968822e-03,2.791307568550109863e-01
2.697180427213974330e-01,-9.753555087806009549e-03,-1.586573925264295193e-02,-1.704922660764393062e-03,-2.360756091124157144e-03,3.945176343188269361e-03,2.827048897743225098e-01
2.703073341683599473e-01,-1.511365416805404704e-02,-1.115192775040767248e-02,-2.009836266126189749e-03,-1.122509428504806558e-03,4.502755905669894761e-03,2.835961878299713135e-01
2.688747861120939775e-01,-1.245304922298018369e-02,-1.077955737041855211e-02,1.398451436505049328e-03,1.290652959820671715e-03,4.460992380409567991e-03,2.806206047534942627e-01
1.644000195108156204e-01,-2.754350906170610624e-02,-1.244628399210281899e-02,-1.587131204663691855e-02,4.904114253464478268e-02,7.916295098743992426e-03,2.057455480098724365e-01
1.601265557406009177e-01,-9.619204598509928372e-03,-1.222127973306937065e-02,3.519055233162607377e-02,4.370257417831890923e-02,2.037933480680344505e-03,1.967725008726119995e-01
2.612628652290487352e-01,-2.738206490574539298e-02,-1.581179411067405727e-02,4.415931581390536084e-03,6.379864190478500008e-03,3.778001829662862949e-04,2.833568453788757324e-01
1.633330152664149992e-01,-8.412970383521317652e-03,-8.243279092954844400e-03,1.796237399887882016e-02,1.717932089502550649e-02,-4.334116599289588277e-03,1.771362423896789551e-01
1.999247213415222268e-01,-1.016933885729513765e-02,-1.915667786435741593e-02,1.302975214135810265e-02,1.164339956340761616e-02,-2.380734192046646616e-03,2.168905436992645264e-01
1.767420615831549746e-01,-8.337490467344471634e-03,-1.562678957283844539e-02,-4.837437522192913029e-03,4.267279580098061464e-02,2.456750099137091498e-03,2.029972523450851440e-01
2.750865637014440201e-01,-2.591074852695472719e-02,-1.801196155120921016e-02,1.032391958627783182e-03,2.438994997045735788e-03,-6.577855443368821331e-04,2.971642613410949707e-01
2.763407559011191728e-01,-2.737578444018411161e-02,-1.600541452389570019e-02,3.863719839787468566e-03,-4.827294779712955862e-03,1.116906671433084888e-03,2.983925044536590576e-01
2.778173992207813026e-01,-3.077453178623060226e-02,-2.541051081698347813e-02,1.495918471247030188e-02,-1.026421958452670286e-02,-5.385963358800775237e-03,3.076960742473602295e-01
2.724224511117020464e-01,-1.906190277139116485e-02,-1.704734007814082131e-02,4.930219877207632061e-04,-3.365149146944621515e-04,-2.510301278640441388e-03,2.905167043209075928e-01
2.758046644432263217e-01,-2.579507037902793731e-02,-1.288720166824348923e-02,-7.781473185848326434e-04,-1.692972164779280551e-03,-5.859015876162354877e-03,2.955493330955505371e-01
2.824260499373563160e-01,-3.380020308771680693e-02,-6.000359511906805388e-05,7.020898936725126528e-04,1.959571490115773282e-03,6.475466394873769351e-04,3.008025288581848145e-01
2.795138307439889447e-01,-3.597410257570807235e-02,-1.212506287296362395e-02,2.280928941185171241e-03,-3.357662910524299160e-03,2.729370848984075809e-03,3.043831586837768555e-01
2.598407080326234908e-01,-1.944450711042651492e-02,-3.222657341016135768e-02,-1.089444791346310651e-04,-1.043703533395972131e-03,-2.562299347652238247e-03,2.859308421611785889e-01
2.557229587748308663e-01,-2.656135132605777494e-02,-6.999075263821485926e-03,-1.618316344217981878e-03,-1.127783495231897068e-02,1.950852978987639534e-03,2.737623751163482666e-01
2.591689552231335458e-01,-2.000715493407949352e-02,-3.351123085195148454e-02,-1.803235331860140751e-03,-3.376039881761066890e-03,-3.140255361332831494e-03,2.862956523895263672e-01
1.916049407685637418e-01,-3.141439991530030340e-02,1.723567561754171806e-02,-3.338505511211408566e-02,-8.093996285351998110e-02,1.826063651928647516e-02,2.554455399513244629e-01
2.976232874874688017e-01,-3.608787598446971945e-02,8.675922641011149516e-03,-4.193309630258075515e-02,-7.073445321716290146e-02,1.646730090513814915e-02,3.457275331020355225e-01
2.420378226041768333e-01,-2.578903930313233839e-02,1.066326343328426185e-02,-2.742095658797618490e-02,-5.476894010169160165e-02,2.544561574676623000e-02,2.765758037567138672e-01
2.049083201686342226e-01,1.434105549639939914e-02,-3.359415861613081200e-02,-5.931255815036635959e-02,2.562664118643926195e-02,-6.697744826987088451e-03,2.457788437604904175e-01
2.737461927632858227e-01,1.214123733836355856e-02,-4.016739494098195418e-02,-3.007501444343844976e-02,1.223143387863201252e-02,-1.301547567626405721e-02,2.975367009639739990e-01
2.714324135153782791e-01,-2.566561832418987055e-02,-2.268921865471552890e-02,-1.827088524284335713e-02,2.369216614644630275e-03,4.020680933495793686e-04,2.973392307758331299e-01
2.718848308516699230e-01,-1.488750943271784088e-02,-1.943051836516683506e-02,7.035155110924318743e-04,9.510242639572100056e-04,-6.382106302342632721e-04,2.890799939632415771e-01
2.798745233539313704e-01,-1.483139758003954034e-02,-2.525144748938754069e-02,8.847297470834404945e-03,1.287152903768574259e-03,-6.350223385834225139e-03,3.006522655487060547e-01
2.632698600375065756e-01,-3.416619602073160678e-02,-1.827846008676101142e-02,-3.057030155208203138e-03,1.427966262806925008e-03,4.311152234221373261e-04,2.898788452148437500e-01
2.728679050491369384e-01,-1.833674180018947386e-02,-2.319802435513529382e-02,1.175608459933127252e-03,2.334179385261862371e-03,8.103146808806943493e-05,2.937003970146179199e-01
2.304837572714937277e-01,9.593954023118786423e-03,-2.657410397969801885e-02,-8.617574044876306905e-02,2.328619885236596354e-02,-1.226573250839032431e-02,2.871348857879638672e-01
2.373154491777526853e-01,1.036645539725546128e-02,-1.930012718576265551e-02,-5.997152608300809762e-02,5.162135798522751035e-02,-2.660879920790557365e-02,2.828902304172515869e-01
1.569313436286267349e-01,-6.346578060975542612e-03,-1.463004917757962375e-02,4.560248246055197824e-02,-2.200735240819958610e-02,-1.174238364561792057e-02,1.902266591787338257e-01
1.925806111761386441e-01,-5.966487127475277041e-02,-1.788268363341981304e-02,3.010636445943627032e-02,-3.279373436491708066e-02,-3.045417850500161533e-02,2.521150708198547363e-01
1.989076907512992987e-01,-5.107849113492130000e-03,-1.252550269860636112e-02,6.468645601327654981e-02,-4.037033104501731168e-02,-2.114321070003053263e-02,2.489459514617919922e-01
2.321853759637964865e-01,-2.688601247104598080e-02,-1.801465615231245820e-02,3.942966528873045884e-02,3.438622668168411778e-03,-2.551422702901519996e-04,2.638145685195922852e-01
1.406070934330920230e-01,5.544235282558193645e-03,-4.485183371765057159e-02,6.176181195965850523e-02,2.189746136845583183e-02,-1.983036074912869137e-02,2.040837258100509644e-01
1.793009656080008785e-01,-1.102588968212808718e-02,-8.830201633503204084e-03,2.235736807048721575e-02,-3.584954650583593166e-02,5.956273302023979387e-03,2.031570672988891602e-01
2.081659824089233113e-01,-2.491677169038779283e-02,-1.053755810387005387e-02,3.713465225187650987e-02,-5.618752631221317351e-02,-8.980757888191191404e-03,2.550153136253356934e-01
1.692277337078028632e-01,-8.794222566837206490e-03,-9.656972528707577497e-03,6.187605933884887666e-02,-4.049357839127379344e-02,-1.248288545062745114e-02,2.207232415676116943e-01
2.763997572267724023e-01,7.053144311970904745e-04,-4.049605520730059638e-02,3.304046750678288347e-02,8.052912841549570225e-03,-1.764288295481736962e-02,3.057242929935455322e-01
2.819188490830896177e-01,-2.470576518181652470e-02,-3.511312505500982506e-02,-3.306824708291695308e-02,1.604468052859354260e-02,-5.642585130585468095e-03,3.185380101203918457e-01
2.699697435450544303e-01,-1.672078235226252818e-02,-2.400555743456687929e-02,9.548861355029027945e-04,3.796547893580966976e-03,1.098640728020511346e-04,2.904806733131408691e-01
2.682042002994856622e-01,-2.531537243239605217e-02,-2.464711920224539610e-02,1.116837668080294211e-05,1.633687138928813752e-03,7.634333055386788780e-04,2.932026684284210205e-01
2.713903960812932281e-01,-2.641145218478824219e-02,-2.986762715778432109e-02,1.492655507865609877e-04,1.643322007096321806e-03,2.080498474262703831e-03,2.995801866054534912e-01
2.570858037000988694e-01,-2.864151394249402072e-02,-1.824540332143279042e-02,-3.460728155449900069e-03,2.231780136769060102e-03,1.276227114090024758e-03,2.807730138301849365e-01
2.548901238939529357e-01,-3.399674248437271895e-02,-1.735092064245556676e-02,-2.966762872990755598e-03,9.510177043433617030e-05,2.194765915545197378e-03,2.810068130493164062e-01
2.595763150699589294e-01,-3.239766717255916639e-02,-2.019293196204485774e-02,3.648405190866024880e-04,2.473309261883055530e-03,9.964662903607201649e-04,2.861049175262451172e-01
2.636706457968437389e-01,-3.374616821437956271e-02,-2.233973911855041683e-02,-5.112525981569920403e-05,-1.771006132572840066e-04,2.293289936457402513e-03,2.919079959392547607e-01
2.336047903365473799e-01,-2.390131474759948915e-02,-2.216149833390507196e-02,4.527630815905624162e-02,-3.542791931350905248e-03,-1.888896324539254129e-03,2.684447765350341797e-01
2.552009936769508158e-01,-2.467253444204174639e-02,-2.498314805085954937e-02,2.561088624477360354e-02,-2.181018333364632966e-02,7.382278630259243163e-04,2.860291302204132080e-01
2.232725629148240298e-01,-2.711986578171456108e-02,-1.468891616946141343e-02,1.392170967032231935e-02,-5.809771354051872921e-03,2.332727042891352513e-03,2.458400130271911621e-01
2.426723605170528208e-01,-1.692282885032653228e-02,-2.677662515878298510e-02,3.627969786524095838e-03,3.126054857281011790e-02,-7.885096231422333846e-03,2.705594897270202637e-01
2.027040061523529557e-01,-1.764963132405901469e-02,-1.319544503095358701e-02,9.690809480931246098e-03,-7.768714833036897624e-03,6.421482266877617286e-03,2.195007354021072388e-01
2.205300808133115187e-01,-1.878502304683514479e-02,-2.208364138746841954e-02,1.891831205822754394e-02,-2.324229981576493131e-04,6.208481931552809786e-03,2.434368729591369629e-01
2.618974084742303754e-01,-2.947056345915800846e-02,-2.218292086967470211e-02,5.438321484713161402e-03,7.215501254266131620e-03,2.690611577551637462e-03,2.882562279701232910e-01
2.557197683295646673e-01,-3.103631045105831321e-02,-2.000161222790403093e-02,6.891798191976952759e-03,-1.204915026196233963e-03,1.971783117983945052e-03,2.816825509071350098e-01
2.666198449965762607e-01,-1.392628845046212094e-02,-2.567578871121900530e-02,1.311452711557551526e-02,-4.495560608511095686e-03,-4.524159531688381509e-03,2.877124845981597900e-01
1.845254545706424276e-01,-1.030319107054379624e-02,-2.237425819632196666e-03,-4.748140981158955470e-02,-7.007060240963554343e-02,1.233206169526771152e-02,2.416633516550064087e-01
2.480212079344533693e-01,-1.902027962823527041e-02,-2.387084742137356164e-02,-4.318177942140037293e-03,-1.142255567853707986e-02,-1.301186662306060872e-03,2.703376114368438721e-01
1.378503878157890661e-01,-7.281632182854144708e-03,-7.747036628689675519e-03,-8.053472648600927466e-05,-5.348451207010258140e-02,-6.649727460796284184e-03,1.727585643529891968e-01
1.420256401422795300e-01,-5.744256124952634712e-03,-2.653593948172883188e-03,-5.062408745544588057e-02,-3.247799949976731826e-02,8.680085549777082077e-03,1.801878958940505981e-01
2.601630981689839195e-01,-2.238272132596662300e-02,-2.759183445901057519e-02,-6.850684023235132031e-04,-2.823308536115593827e-03,-2.930515569706539612e-03,2.852756083011627197e-01
2.322715181015721775e-01,-1.791492358074586733e-02,-2.956860251105213055e-02,-8.349692171631247981e-03,-2.339059036923261947e-02,-4.808480080538956973e-03,2.599317729473114014e-01
2.766876993181889288e-01,-2.325092233818444598e-02,-2.563741296006308290e-02,-4.012901115629156456e-04,9.022142562796018478e-04,2.901619673761622912e-04,3.011442422866821289e-01
2.290961588992505571e-01,-1.697927950569272371e-02,-2.610849211838649209e-02,-7.184801563389960760e-03,-3.140560565231260808e-04,-6.269424674233033123e-03,2.513086199760437012e-01
2.750823599129339492e-01,-2.392766445045803325e-02,-2.103232473792820967e-02,-1.129054583722790802e-03,-1.171760477623758588e-02,7.550789862473116388e-04,2.982735037803649902e-01
2.480192900999011740e-01,-1.475066396297573801e-02,-3.336586069597323456e-02,1.022865923122095365e-04,-1.097891898469190164e-02,8.203211819075989508e-04,2.732210755348205566e-01
2.148107281245548450e-01,-1.013167506633672055e-02,-2.355704061067596944e-02,5.127760185325763503e-04,-1.352297293454441177e-02,-3.685215778751382322e-03,2.332153618335723877e-01
2.634186970756548507e-01,-1.772046682464248346e-02,-3.414077896748506091e-02,1.194230601020422784e-03,-8.730157201139621126e-03,-9.754386023698467052e-05,2.901003360748291016e-01
2.739272261732472180e-01,-1.727951904111124648e-02,-1.102780099455562268e-02,-4.450044209785569563e-04,9.720926814371587919e-04,9.309317808284093415e-03,2.885885238647460938e-01
2.752311226264859689e-01,-2.417549531966767251e-02,-1.486821753534670054e-02,-4.256586452343059089e-04,3.091833450719382384e-03,1.556919492552125747e-03,2.949250340461730957e-01
6.747017663424924316e-02,3.732560344957940035e-04,2.029297610126767903e-03,-1.036168396232036576e-02,3.933447703778246429e-02,3.027255462204636073e-03,9.687525033950805664e-02
9.234522497433142463e-02,-1.629789226312745865e-03,-4.176600232876137575e-03,-4.160377686881062964e-02,-4.648461817753302139e-03,-4.551388122690922487e-03,1.199863255023956299e-01
2.525256164900551159e-01,-2.024410911171777017e-02,-2.861602833636930909e-02,-7.247161281266543921e-04,9.156548259094919595e-03,2.471872604118074642e-04,2.775073051452636719e-01
2.027063657192595958e-01,-1.882687169905279678e-02,-1.643262043057007460e-02,-2.411063402867758346e-02,2.836208582351362750e-02,9.841277191331336896e-03,2.302173823118209839e-01
1.785298121092473156e-01,3.881166648283362886e-03,-2.067219279829184131e-02,-3.645398846383730157e-02,1.762797408654431797e-02,-1.058002162548140647e-02,2.016133815050125122e-01
2.146655751264245626e-01,-2.059262857033894445e-02,-1.773105334232406849e-02,-9.683738640776495127e-03,1.500439622482776028e-02,6.161170943071505972e-03,2.361186146736145020e-01
2.083249865576933257e-01,-1.441901543743819014e-02,-1.771667898481243952e-02,-4.807825594789111355e-04,1.455087551993412137e-02,7.832484511134357730e-03,2.262304574251174927e-01
2.663801524409706301e-01,-2.089950495000846009e-02,-3.190919889465634873e-02,3.841836615717185411e-04,2.221489618689293476e-03,1.556630682443468743e-03,2.929781377315521240e-01
2.080964382638083032e-01,-3.942976310666201911e-03,-1.825309635098816552e-02,-2.874792370588821755e-02,5.884614731996534731e-02,-2.005032893962923474e-02,2.495471686124801636e-01
2.716123150946702092e-01,-2.519151409075801040e-02,-2.528536853627590120e-02,-8.588388980546009591e-04,4.306017728441694642e-03,6.179043497921058283e-04,2.969501018524169922e-01
2.769226594642683059e-01,-2.505712399697219983e-02,-2.608326685969127035e-02,7.728248418005540400e-04,5.343299452451818338e-03,-1.131996131699323886e-03,3.026450276374816895e-01
2.820865028574244815e-01,-3.228055269068877409e-02,-4.544033427583207829e-03,-2.034381967708383514e-03,-4.951733162562828479e-03,6.710706823442459494e-04,3.016021251678466797e-01
2.243403676948362846e-01,-1.334810625049295818e-02,-2.310140768001794909e-02,2.630706928515826309e-03,-4.737787495049274175e-04,-3.659121052544944512e-03,2.428390085697174072e-01
2.738181881491774661e-01,-2.441105327348901122e-02,-3.603982699881463914e-03,-1.595247375170017606e-03,6.588754189959001055e-04,7.567553213428934548e-03,2.887023985385894775e-01
2.815986949005697126e-01,-2.832879654992151441e-02,-1.408692019655871652e-02,-2.577514578851092426e-03,-3.564937044504390418e-03,3.014773922758739750e-03,3.031983673572540283e-01
2.856318373066692451e-01,-3.569596632661473090e-03,-2.789793274290300329e-02,-6.993141220642389369e-03,-4.018524835557282099e-03,9.648586772943982051e-03,3.028854131698608398e-01
2.733000997700706924e-01,-1.476386257163408988e-02,-2.381335433036847749e-02,-3.088658673426513106e-03,-2.303241815925961486e-03,2.325431352209167846e-03,2.927974164485931396e-01
2.750863914210833761e-01,-2.550806883374920342e-02,-1.278858630641015182e-02,-1.024853825091328425e-03,2.286808300605500978e-03,2.041650281568503211e-03,2.944940626621246338e-01
1.149610433099964857e-01,-3.701760601169612475e-03,-1.652475812034433222e-03,-3.769717734968103251e-02,-1.947613702160777560e-02,7.759972302048633030e-03,1.393690407276153564e-01
1.018251505058849482e-01,-4.054324125422122116e-03,-2.595102785201710421e-02,-2.856071503692955010e-02,-4.677162028127482968e-02,2.175871518383281841e-02,1.563283801078796387e-01
2.765603987480533821e-01,-2.216990283771852477e-02,-6.121047905567583713e-03,-2.410931520477608767e-02,-3.823269338795891314e-02,1.276944607660177901e-02,3.021940588951110840e-01
2.772186727383050275e-01,-3.083897588826914338e-02,3.398832971600401764e-03,4.803703909581080473e-04,-5.025528084397255270e-03,4.136516310870968528e-03,2.926641702651977539e-01
2.482458985556430242e-01,-2.951352453768903150e-02,-1.183868059838830145e-02,-1.177563850338039265e-02,-1.990468927022476242e-02,1.116312443047477038e-02,2.730050981044769287e-01
2.644448078608760966e-01,-1.820446312622203688e-02,-8.899164556211425214e-03,-8.056999779278123386e-03,-1.151758309026536080e-02,1.233069742006261821e-02,2.799926996231079102e-01
2.214500279009149752e-01,-3.264905645299309711e-02,5.608359090126233126e-03,-4.019995244687929459e-02,-5.005849509178572632e-02,1.356875317021885401e-02,2.631098628044128418e-01
2.897665617635462043e-01,-2.604732875354753840e-02,-4.568426396315841687e-03,-3.593926238068673173e-02,-5.975286785738988249e-02,1.814017136655415863e-02,3.301359117031097412e-01
2.154681478101437841e-01,-5.311772639429873655e-02,1.364621618945430215e-02,-2.120241049972759403e-02,-6.135793106046659451e-02,1.746899766769580142e-02,2.687423527240753174e-01
2.626409202167487855e-01,-1.918518385272072191e-02,-3.320274246561004394e-02,-6.007647161751342212e-04,-7.511255585192161757e-03,-2.001063509785990305e-03,2.894051074981689453e-01
2.829477063775858170e-01,-2.756578864208178437e-02,-1.278403000068824291e-02,3.298950774467637303e-03,-7.861965763751276037e-04,-8.415246668845239100e-04,3.034531772136688232e-01
2.704158626451826364e-01,-2.519137390616973948e-02,-2.049685901069259186e-02,1.790988261903534318e-03,-8.861868244804075190e-04,3.769262202806181032e-04,2.933093011379241943e-01
2.824658035242950671e-01,-2.863411350821919166e-02,-1.112294893570517362e-02,4.696986443200091427e-03,-1.578598956018585978e-03,-1.541484112930192841e-03,3.028578460216522217e-01
2.767616619717617743e-01,-3.469051153940747034e-02,5.394242943746851982e-03,1.258921394071880898e-03,4.774287059271618318e-03,-3.994919852924214317e-03,2.936763167381286621e-01
3.901993701585463881e-01,-6.545185795667399220e-02,2.529677874904823209e-04,3.720137816376999085e-02,1.071391400620550806e-02,-1.952850199801552805e-02,4.331708252429962158e-01
2.799967131849036561e-01,-3.254026774926943588e-02,-3.974162428217825616e-03,-1.212219578407028060e-03,-3.743720353940205997e-03,2.716694025736077732e-03,2.993927597999572754e-01
2.867546944304518175e-01,1.431128377648156758e-02,-4.964127088443284763e-02,-9.700577332024182611e-03,8.294824488563060788e-03,-4.306499736221883028e-03,3.102952539920806885e-01
2.507889640736710168e-01,-2.787189284827451541e-02,-2.093495119529514836e-02,2.122604320226063185e-02,-1.213525894742370145e-02,4.906722937187296164e-03,2.786262631416320801e-01
2.731016727627889606e-01,-1.957478731476826328e-02,-1.114076169906960678e-02,6.278014777551997562e-04,-1.306942722141524486e-03,-3.134623863229949771e-03,2.886139154434204102e-01
2.540069429696195646e-01,-1.231550896576563692e-02,-3.155067838940378566e-02,1.833954258493140921e-02,9.312955923533735095e-03,-4.924710645609686266e-04,2.787298560142517090e-01
2.758432386991033214e-01,-6.751093501624144677e-03,-2.434140740016685345e-02,-1.430227976927649514e-03,3.985895130278115268e-03,-2.294214846615755948e-03,2.919066548347473145e-01
2.862004306515111285e-01,-3.382965519924266418e-02,-2.551840288993049988e-02,1.530599235996963833e-02,-2.110835239884078715e-02,-9.936056002944176554e-03,3.196313083171844482e-01
2.756839331665370540e-01,-8.071541824129946363e-03,-2.132493933124801622e-02,-2.241638007532863880e-03,1.759410975805098063e-03,-3.324538707539416958e-03,2.907078564167022705e-01
2.214539695903715022e-01,-2.263046565925361242e-02,-1.816568022069096899e-02,2.404161758017651224e-02,-2.481947933068869103e-03,-5.042461854320730947e-04,2.454803436994552612e-01
2.796352879046662410e-01,-2.001363501110392518e-02,-2.987673357946836472e-02,8.837325851864280546e-03,-1.426138143328762892e-04,-6.542127114866204234e-04,3.050866425037384033e-01
3.064359592750526273e-01,-3.201153315659846510e-02,-3.301726507364446950e-03,9.883224012578021439e-03,6.676607154300270679e-03,-1.398812638517455027e-02,3.266006112098693848e-01
3.070126825141644145e-01,-2.527745025660846356e-02,-1.200955474854839555e-02,6.365555814642713701e-03,2.579166005502639067e-03,-2.568266141302568903e-02,3.290961682796478271e-01
2.724862039822100734e-01,-1.873972402316811947e-02,-1.800260762785357849e-02,1.399332627065239237e-03,7.261550371856642996e-04,-3.239175467808885333e-04,2.908714413642883301e-01
2.723388622954054927e-01,-2.095682608998751528e-02,-1.797077022193446783e-02,-5.828355141838571394e-04,4.661141764025767938e-04,-9.692084985968180697e-04,2.918218076229095459e-01
2.857261889973796709e-01,-3.659272710432195930e-02,-2.058247674479878053e-02,2.634157498637468287e-02,-1.469538504296615325e-02,-6.397747598434871605e-03,3.191201984882354736e-01
3.637021193727542623e-01,-6.518668798528789998e-02,4.750209346281744627e-03,4.591770585336136384e-02,3.018606654204468876e-03,-1.153780699047557423e-02,4.069319665431976318e-01
3.256074257529988913e-01,-5.171117275908326816e-02,1.780580716581132983e-02,7.065258350000776233e-03,-2.695789192284362562e-02,6.961042507515138172e-03,3.513505160808563232e-01
2.730238084997336223e-01,-2.172652715434233994e-02,-2.397957035999387365e-02,8.609672056575645716e-04,1.752555835988085873e-03,4.806963141001226679e-04,2.959038019180297852e-01
2.899313542755080908e-01,-3.886492683427289485e-02,1.217457808916619366e-02,9.267639771431534362e-04,-3.491496310897092975e-03,-1.811029058320644426e-05,3.065445721149444580e-01
2.695847894665389655e-01,-2.373747515261862007e-02,-3.057215864951674800e-02,-1.178241447267959442e-03,7.246699845072742579e-04,6.784581599468735100e-04,2.968106269836425781e-01
2.779558257636371987e-01,-2.822810239985602820e-02,-9.148069718320162025e-03,4.369844959440678279e-03,7.675847109569609861e-03,-9.926537708119498836e-04,2.975023388862609863e-01
2.241058614950168781e-01,-2.412303713916641446e-02,-1.343137946794727144e-02,2.381331910573416741e-02,2.096728060945343784e-03,1.494186182575484945e-04,2.465611398220062256e-01
2.796296365803160322e-01,-3.387195205777213114e-02,-2.158965631906026306e-02,8.698159464640460234e-03,-3.613349885711159698e-02,6.035009836231537174e-04,3.142109811305999756e-01
2.979255791339747717e-01,-4.045466422418764196e-02,-1.937042228508005504e-02,1.118244767415250800e-02,-9.756230643914443751e-03,-9.493213293883138656e-03,3.297609686851501465e-01
2.756718009866078178e-01,-1.815779497010311383e-02,-4.067550355550772490e-03,6.960839750772319923e-02,-5.757038793153960998e-02,-2.440591081396945375e-02,3.296364843845367432e-01
2.557501905287538069e-01,-2.467860064129333286e-02,4.436905541121055618e-03,3.926702539992631830e-02,-4.390285703531616318e-02,-2.882014506364637824e-02,2.902121245861053467e-01
2.854717664973196456e-01,-5.286525503381286906e-02,4.532579265915229194e-03,9.148244940749877124e-03,-3.338551311353731010e-02,-2.481395122614968307e-02,3.221625089645385742e-01
1.291773948162552310e-01,5.592437781425582677e-04,-6.756429716926727613e-03,2.576203983260822242e-02,-3.052537056580924973e-02,-1.274162540232721616e-02,1.510316729545593262e-01
2.526981704424712261e-01,-4.641778126717371888e-02,1.932826082483425634e-02,1.573817247661501648e-02,-6.989350127634445797e-02,-1.542541455827818771e-03,2.992201745510101318e-01
3.066937333867154059e-01,-5.000409963611246456e-02,1.579070173602112326e-02,5.870547084436521235e-02,-7.626296002447735534e-02,-1.585208425900934415e-02,3.696409165859222412e-01
3.708040683545989896e-02,-1.983317412284597153e-03,-1.054072416359418118e-02,1.815856082616362083e-02,2.886656407136194147e-02,1.812239171998888954e-02,8.004865050315856934e-02
1.948401526842986342e-01,-1.322469095082949575e-02,-6.196063821829744800e-03,3.293574191866865952e-02,-3.998665592739833463e-02,2.512658571564777357e-03,2.234904915094375610e-01
1.668313136967263799e-01,-2.879927003034407629e-02,-2.979974204438594343e-02,2.012167271381327949e-02,3.516928261921305199e-02,6.980277209555720876e-03,2.086612135171890259e-01
2.634164191167184255e-01,-3.622355123999859705e-02,-1.858574615429080257e-02,-2.840566598121061349e-04,5.243364037641214505e-04,1.892353183336036504e-03,2.912422120571136475e-01
1.677168259472866241e-01,-7.948491730424722679e-03,-1.031459797050959803e-02,-4.846200202582185562e-03,1.305528515819757637e-02,-9.870911316415564331e-04,1.785055994987487793e-01
1.520868463964606399e-01,-3.341218543287741150e-04,-9.651104446259342606e-03,1.574895925952798903e-04,1.314884068546814250e-02,-1.074383950971088703e-03,1.589379608631134033e-01
1.631763131221546093e-01,-4.008735118779693796e-03,-1.262136796335468214e-02,5.184140650425910629e-02,2.860068234482880667e-02,-1.101978611662505353e-03,1.999628841876983643e-01
2.114512829551899731e-01,-1.163389350390992005e-02,-1.770032283132172424e-02,-7.099270866236394219e-04,4.021113546791168364e-02,1.659012025841825281e-03,2.366805970668792725e-01
3.098016553270284135e-01,-2.962563438018914197e-02,-3.492315814408286645e-03,-3.462639900132081366e-02,8.239275509052317037e-02,-1.989184488593068525e-02,3.635563254356384277e-01
2.936256686193162713e-01,-2.883103047483573378e-02,-3.013230806918069937e-02,-8.059879724058126652e-03,6.544572142018825756e-02,-4.393515124469900973e-02,3.510481715202331543e-01
2.722463608812308866e-01,4.184383893722581904e-03,-3.384936589234313620e-02,-1.735062532324338144e-02,3.710747052782751437e-02,-1.952872488714542734e-02,2.994617223739624023e-01
3.045142515064532818e-01,-2.018357772995382771e-02,-3.136058957052081930e-02,-4.819018890696842236e-03,1.706127327676026234e-02,-1.095696087695792985e-02,3.323941230773925781e-01
4.331664760794337043e-01,-1.723605798443120229e-02,-5.587147642033216122e-02,-4.987379982613190585e-04,2.506170551763023738e-02,-3.333821286745497492e-02,4.764199256896972656e-01
3.122653092594307456e-01,-3.771883070226667023e-02,1.228237096121866101e-02,7.020365269737071853e-03,-1.102966580311704088e-02,1.050690256705512880e-02,3.291403949260711670e-01
2.716542197105880074e-01,-2.954824273362388620e-02,-2.657074870767391073e-02,3.603952160947076740e-04,-2.069762068140487341e-04,3.907126318765819645e-04,2.997264266014099121e-01
2.703068171722841084e-01,-2.951096517539723851e-02,-2.561429248847864326e-02,1.197335299975218494e-04,4.861004211047193976e-04,4.297484670865485629e-04,2.978907525539398193e-01
2.694602758444010204e-01,-3.102282793935209892e-02,-2.464344105052165834e-02,8.013359018017964571e-04,-3.806721024105524541e-04,1.037388451948406416e-03,2.973541319370269775e-01
2.579202100203475401e-01,-2.046974834634862628e-02,-3.368423290925148805e-02,1.465259461152381478e-03,-2.839600504014556936e-03,1.582229199048048544e-03,2.852937281131744385e-01
2.695912802656187934e-01,-2.489402122128031580e-02,-2.408341952345753600e-02,2.593721384899435218e-05,9.685201282464473739e-04,2.992538562765950151e-04,2.940860688686370850e-01
2.633209715408061369e-01,-2.437540556091906396e-02,-2.921182496390013761e-02,1.021184620492757286e-03,-9.686137604427691970e-04,8.415918392045103943e-04,2.901587188243865967e-01
2.703095919433550209e-01,-3.052123465845303640e-02,-2.474332499757961323e-02,-2.851594192500707479e-05,-1.639594567547817631e-04,9.388757406047518270e-04,2.979884743690490723e-01
2.725168121876777594e-01,-2.571382836371331748e-02,-2.536674137949054830e-02,1.231536766359197978e-03,-3.750018296289283915e-05,7.632704627208491879e-04,2.980678081512451172e-01
2.743073919017979811e-01,-2.171124046854445988e-02,-2.485955085287241961e-02,-1.565698747851156135e-04,6.131420266769231002e-05,-1.892248197461626023e-05,2.976054251194000244e-01
1.877299039873593089e-01,-2.342320621514470957e-02,3.654840037215077719e-03,-1.741822126526580000e-02,8.143794455600425475e-02,-1.993169897856798475e-02,2.481927871704101562e-01
2.552964438805365166e-01,-2.241460425854240046e-02,-1.342400062888361723e-02,8.148535462063462298e-03,1.635988439950739060e-02,2.677057237696631956e-03,2.751928567886352539e-01
2.640097966991689638e-01,-1.854309970050969925e-02,-3.594026882849431226e-02,-1.745960576162455759e-04,-8.880763156391469938e-04,1.766482066688593807e-05,2.916451394557952881e-01
2.592432681421488194e-01,-2.140815771993100081e-02,-2.423682404970850524e-02,4.014556686703571464e-04,4.116180574492958079e-03,-2.335452643553358621e-03,2.821963429450988770e-01
2.372179610619402357e-01,-1.251856612948194780e-02,-2.890436947123126155e-02,1.181161869668534902e-03,8.120402384397895981e-03,1.144735130775765891e-03,2.587178051471710205e-01
2.369234617097421003e-01,-2.478849726427037603e-02,-2.429499192537409868e-02,-4.668448875265329007e-02,2.860903121756995515e-02,-3.307427506783036479e-03,2.781920433044433594e-01
3.204697140837277636e-01,-6.296858286295012319e-02,8.818772269915398088e-05,2.468586791728969582e-02,8.232579031075137888e-02,-4.787976618404582961e-03,3.860728740692138672e-01
3.054367122658945277e-01,-4.358659537188125377e-02,2.286136021697426912e-02,1.981103399636275145e-03,3.269761779201176000e-02,2.148795463721307406e-02,3.280931115150451660e-01
2.957436862178901560e-01,-7.133357146836116769e-02,1.876354450319842049e-02,6.583740234604052582e-03,3.432543344927879714e-02,-1.395015366051829443e-02,3.376968502998352051e-01
2.783409255694214157e-01,-2.061882941115268653e-02,-5.458646843461020803e-03,1.713016154822876672e-03,-1.364839748120319236e-03,-4.717915029345346074e-03,2.918144166469573975e-01
2.491008160128662385e-01,-1.816058729662287097e-02,-2.680159149983826761e-02,-1.307401711517329999e-02,2.519866482812627151e-02,-4.894259000252666574e-03,2.762286961078643799e-01
1.340837365488035116e-01,-5.282034122528526943e-03,-2.131271565398926149e-03,-6.091200439443922310e-02,3.909507907249544501e-02,-6.731363639939117946e-03,1.866699308156967163e-01
2.632293299842461964e-01,-3.400476472421717911e-02,-1.940490729866709008e-02,-1.996180684629810783e-05,6.085669551552160429e-04,1.110818712293258625e-03,2.902180254459381104e-01
1.547492173044125174e-01,-1.605106593798871772e-02,-2.280952743119735171e-03,-3.466597854712659410e-02,1.897947652731937773e-02,4.921088144666845238e-04,1.780364960432052612e-01
2.419388882898027282e-01,-1.789066023835476915e-02,-2.008459214037254525e-02,-2.212036535514334823e-03,1.471472928843903238e-02,8.867493260445710734e-03,2.626526355743408203e-01
2.314267426117190274e-01,-1.190009127263731703e-02,-2.933973983195801993e-02,-5.079692795394340687e-04,1.065918553574415895e-02,1.793032091139432332e-03,2.531934082508087158e-01
1.321954770914668675e-01,6.599539877032996327e-03,3.519071202502721540e-03,4.551842348134231032e-03,-7.364656709580004804e-03,3.105177033218915663e-03,1.281581968069076538e-01
1.547099953636539849e-01,2.264515359745866707e-04,-3.302673533687815188e-03,-1.533462785491446656e-04,1.222471657907911978e-02,2.945208543475910483e-03,1.577885746955871582e-01
1.645631020792273358e-01,-8.259243658986267778e-03,-3.759311015807481615e-03,-1.648684718153321446e-02,1.556279662124714774e-02,4.772548223128897024e-03,1.752726584672927856e-01
2.154508068507303142e-01,-1.558707184370772270e-02,-1.728159945713710066e-02,-7.055647779947217015e-04,1.099687724607811487e-02,6.416769132978512001e-03,2.329392284154891968e-01
2.355821449791344613e-01,-1.402553093476849311e-02,-2.915689300212416513e-02,-4.616140468888022506e-03,8.867897871234991722e-03,3.044169210386263313e-03,2.581424117088317871e-01
1.930423725925171918e-01,-1.001898145359034209e-02,-1.594466640020159032e-02,3.452675355891176006e-03,1.793209133565619451e-02,-7.593943983022666440e-04,2.085053473711013794e-01
2.751881255318231467e-01,-2.696079082521420089e-02,-2.374452179969539778e-02,1.609489181036680410e-03,-4.706523616173336312e-04,-1.065673643294672577e-03,3.005733788013458252e-01
2.741979687668276711e-01,-5.871569244364827078e-03,-2.427635495434853075e-02,-3.857487281166345136e-03,-3.064255872400201662e-03,3.535473986924889383e-03,2.899010479450225830e-01
2.744116059158431264e-01,-2.693307305212411240e-02,-2.370008814105016570e-02,3.925387981428605719e-03,-1.190531298769685522e-03,-1.801400419204110754e-03,2.998417019844055176e-01
2.755773555033255162e-01,-2.400929360906609022e-02,-2.341584146550729217e-02,-3.801162665802346164e-04,9.333697317367509183e-04,-6.047970180332853989e-05,2.992954850196838379e-01
2.701738835709875941e-01,-2.392111079709186017e-02,-2.472517234175554413e-02,5.388810617493479914e-04,-1.367281817887451047e-03,-1.562297785400222757e-03,2.945212721824645996e-01
3.121889579618185029e-01,9.875976035971026357e-03,-3.961466270321403749e-02,-1.171253943472924837e-02,1.381269214586707201e-03,2.160488455901285465e-02,3.325984179973602295e-01
3.817600381623926231e-01,4.315338248118499864e-03,-4.536361342956674036e-02,-3.768399751848616058e-02,-4.721140108415002208e-03,2.077630832083440446e-02,4.114676713943481445e-01
2.486548429277700700e-01,-2.642422311753583886e-02,-2.189197822764377133e-02,1.305347663986591508e-02,-8.187303137713639045e-03,6.191391994035537125e-03,2.743530273437500000e-01
2.466813930665234245e-01,-2.942356169057806781e-02,-1.699724379857600609e-02,1.190955464073660888e-02,-4.408133898648554719e-03,3.859194155950609884e-03,2.710827887058258057e-01
2.575160473466658884e-01,-3.175504716377493264e-02,-1.967500092370680354e-02,-3.059249004737783946e-03,1.594373941323958509e-03,2.441143955650816946e-03,2.835187315940856934e-01
2.425213560803411161e-01,-2.872004019060389601e-02,-1.321105038432694723e-02,-2.130940174134815165e-02,9.510368957081235392e-03,8.507136674508514629e-05,2.669070661067962646e-01
2.750900533010278703e-01,-2.495122146411117570e-02,-2.408103255218650707e-02,5.580219014084758511e-03,1.524846979810644135e-03,-1.127485859884805406e-03,2.997809946537017822e-01
2.824045089129925135e-01,-2.735053128986839055e-02,-1.022781327697139253e-02,1.959910503076700995e-03,4.155130551746101866e-03,-8.331637498738730246e-03,3.020084202289581299e-01
2.696269948480106704e-01,-2.966406330113682821e-02,-2.331045764506904650e-02,-2.148613858981716657e-03,4.346961982221955343e-04,9.104042294431279828e-04,2.961938977241516113e-01
2.672504431893958365e-01,-3.235704368420534716e-02,-2.136910710750776488e-02,-2.860618910316255637e-03,2.255816847984449050e-03,1.548490515642184789e-03,2.943472862243652344e-01
2.692392363697502233e-01,-2.389196995972495130e-02,-3.074687370304361733e-02,-3.865999754320373371e-04,1.790716668542283521e-04,1.060465095908852276e-03,2.966246902942657471e-01
2.704611425101605127e-01,-2.778052004643892514e-02,-2.786144612853810876e-02,-2.790600107460005264e-04,8.070767532320745818e-04,1.002527819254789027e-03,2.982908487319946289e-01
2.673264769446042632e-01,-2.031904402556047873e-02,-1.882971712972587863e-02,-2.124000682339925467e-03,6.482557477434704521e-03,-4.818299409561548584e-03,2.872681915760040283e-01
2.289548042319314580e-01,-3.709147007882156177e-02,2.793959148635741241e-03,2.184787812959881545e-02,3.542584575933910990e-02,-9.625438382450647590e-03,2.592971324920654297e-01
3.174181840630292961e-01,2.170785185951427942e-02,-5.243371390355086592e-02,1.993450261365228415e-03,4.723715441583816246e-03,-1.778737360253570968e-03,3.390491902828216553e-01
2.772214505104492188e-01,4.201737315074977053e-03,-2.754541431195189904e-02,-1.126441343415691878e-04,5.312379820085351943e-03,-9.582622960322934730e-03,2.908185422420501709e-01
2.883956619363712282e-01,1.532801685553328297e-02,-4.191658023757957596e-02,-3.169702707141114264e-03,1.916236032237759318e-03,-1.677341240569457746e-03,3.058171570301055908e-01
2.781291432460675783e-01,7.065111970121301654e-03,-3.783886352956533639e-02,2.521890669048740610e-03,3.605972345432346612e-03,-1.521237103668867914e-03,2.961907386779785156e-01
2.883338164243264834e-01,1.878945187451729060e-02,-4.237096038637347406e-02,-5.496101233993753825e-03,1.892755464689548865e-03,-3.512751654170130546e-03,3.049894869327545166e-01
2.680185960530577782e-01,-1.331260570265174747e-02,-1.103304407197583381e-02,-3.041638650547979572e-04,-1.947127111332929469e-04,9.159681312004725471e-04,2.802035510540008545e-01
2.671860715521990892e-01,-1.280647839760225282e-02,-1.101712009467868680e-02,-4.986362056454534666e-04,2.097679924013885777e-05,7.951593199480151654e-04,2.791069149971008301e-01
2.683578958994793373e-01,-1.201852499558371534e-02,-1.296670487604403843e-02,-1.472380622783515318e-04,1.035851166502039464e-04,4.210488124873403037e-04,2.808528244495391846e-01
2.662426839603102557e-01,-3.234724194072938208e-02,-2.126011758310153432e-02,5.982781943170144799e-03,8.150061507691681558e-04,3.301085227037043723e-03,2.934457957744598389e-01
2.842854127157247723e-01,-1.655146407668064978e-02,-1.592883360142627325e-02,-5.180538650007534933e-03,-6.095909670455146312e-03,1.154767956742276842e-02,3.015094399452209473e-01
2.735828675842367774e-01,-2.033117162786131360e-02,-1.616206615489237941e-02,-3.752059534394585304e-03,-3.993361315350086281e-03,4.733784486353477886e-03,2.921211719512939453e-01
2.727214737478108608e-01,-2.068566564168346222e-02,-4.144405268829184918e-03,-3.935158295734376429e-05,-5.413132641637661375e-04,-4.987748144692088353e-03,2.856283485889434814e-01
2.392530291205003101e-01,-1.890461251322995972e-02,-2.578365633985582606e-02,-4.236175680167653980e-03,1.168233800207630659e-02,4.022008332997898880e-03,2.626411318778991699e-01
2.740343232187100186e-01,-2.379999803150870119e-02,-2.265851043767337647e-02,6.861102144528715601e-04,4.298676620700384726e-03,-6.306918074609304853e-05,2.973608374595642090e-01
2.813814389106015224e-01,-2.217736574634288083e-02,-1.846400861536950933e-02,-4.316403489653465901e-04,6.590315587636003461e-03,-2.880128913528539735e-03,3.019772469997406006e-01
2.726952568813105771e-01,-2.040313522709304161e-02,-1.311125515388301965e-02,-8.289903658108953383e-06,1.578071695377254377e-03,-1.109806889321242806e-03,2.895406186580657959e-01
2.716561289154788561e-01,-2.600680758234488743e-02,-2.781974159843801642e-02,-1.716128378432905596e-03,1.963117352466958732e-03,2.366541156550151098e-03,2.986358106136322021e-01
2.690436460298230581e-01,-2.356200610761126357e-02,-3.113791973880292163e-02,-1.022561082504321039e-03,7.778906112080978541e-04,1.171788768968029222e-03,2.964815199375152588e-01
2.659938359213188663e-01,-2.255626854961022276e-02,-3.034571690354731510e-02,1.269321623108961468e-03,1.490886607419682989e-03,3.265464845985807923e-03,2.925969660282135010e-01
2.672758659804292947e-01,-2.504412980745597539e-02,-2.733730409444043441e-02,1.069348224224053517e-03,7.177648690238808181e-04,2.032239395401561240e-03,2.935028970241546631e-01
2.705686437098703823e-01,-2.615385276883611110e-02,-2.958419968756434426e-02,-1.288340066823625695e-04,-8.614648511799011569e-05,1.165445768466646416e-03,2.984594106674194336e-01
2.687412258617659644e-01,-2.606424018711893387e-02,-2.842610802985738594e-02,-5.379527973338169879e-04,1.622552308269269465e-03,2.156283915494537542e-03,2.960318326950073242e-01
2.746178481085014278e-01,-2.225993820953438285e-02,-1.901280630093765689e-02,-1.143922851011126493e-03,-9.627934317194902173e-04,1.396203210513642483e-03,2.952888607978820801e-01
2.743257608935344427e-01,-1.728707578879179474e-02,-2.086827887430801887e-02,1.425667153176195289e-03,-1.913725334724348734e-03,8.385285149298930558e-04,2.934525310993194580e-01
2.731890148499668269e-01,-2.162892019188224213e-02,-1.783678018185753944e-02,-2.121247263698695842e-03,-1.692604074691013904e-04,-1.003039047337184577e-03,2.929686009883880615e-01
2.713764678744780001e-01,-1.549899396807703778e-02,-1.603861424872207730e-02,-1.343032939171478948e-03,-1.326734660551981589e-03,4.941062390072928140e-04,2.871655523777008057e-01
2.724141406512331498e-01,-1.871665562377680669e-02,-1.591310307950555281e-02,-5.449962232417786170e-05,2.392462644756539756e-04,-1.084896102372999091e-03,2.897455990314483643e-01
2.702469358992639625e-01,-1.685950567961903845e-02,-1.326949151577111463e-02,-1.517493359234989595e-03,-1.006509805998704758e-04,6.037749340084909476e-04,2.853424549102783203e-01
2.741764193739271160e-01,-1.920286912999211171e-02,-2.103102827248190532e-02,-5.903149999754201088e-05,-1.287236234351199016e-03,1.852433635928036476e-03,2.943235933780670166e-01
2.690865568402564523e-01,-1.323658555780930779e-02,-1.341153939099859471e-02,-6.058715997149332179e-05,1.171851660272114665e-04,-3.889454516690949988e-04,2.824115455150604248e-01
2.690054848350267869e-01,-1.331856216001649218e-02,-1.185948743892599466e-02,-1.004169710240155819e-03,-7.523662090109229077e-04,5.618365761387090259e-04,2.816074192523956299e-01
2.759610750434877691e-01,-2.740998306681878549e-02,-2.397097565339195713e-02,1.495108163838292092e-03,-4.989453678079705913e-04,-1.875184604812880993e-03,3.016960918903350830e-01
2.872135437346899911e-01,1.077194827770845686e-02,-3.739995481089108953e-02,1.543944366438677537e-02,-1.669834038336238946e-03,-1.877138623425308323e-02,3.063295483589172363e-01
2.701475610852374087e-01,-9.501957793648069250e-03,-1.942375318269572160e-02,3.616129639509608616e-04,1.333325115583608011e-03,-3.563171426510594163e-03,2.848170101642608643e-01
2.609763718816356382e-01,-2.026187970839386787e-02,-2.616001294679409783e-02,-1.299501841504286867e-02,1.218519063609799918e-02,7.439047075049288679e-04,2.859059870243072510e-01
2.732889913364555667e-01,-1.887120123565097507e-02,-2.142343577656792564e-02,-1.320341900116226612e-03,4.741382934304024053e-04,1.605816144159545773e-03,2.934678792953491211e-01
2.736978687156442214e-01,-7.429988297654246954e-03,-2.582471204558652034e-02,-4.366102550604657531e-03,4.718310218421443124e-03,-7.208814787125640729e-03,2.912428379058837891e-01
2.741966207321249183e-01,-1.934929598947787710e-02,-2.561934419513813010e-02,-9.042531292931881362e-03,3.377405594814023113e-03,-2.817773058618062830e-05,2.972012758255004883e-01
2.591628593838534167e-01,-1.451939184069495070e-02,-2.614401349760786530e-02,-1.902414937741863515e-02,7.533266555631853295e-03,-2.501790737146865080e-03,2.819456458091735840e-01
2.892445690402054570e-01,6.077679520144790848e-03,-4.034612351514077488e-02,-3.218548791318603941e-02,2.505856392250397843e-03,-1.581395806089284234e-02,3.152160346508026123e-01
2.557881204091382310e-01,-3.228948163288826445e-02,-1.699642090529680793e-02,5.878034776355731302e-03,-8.803526970744483381e-04,4.041419889919541791e-03,2.810195088386535645e-01
2.917234099131016389e-01,-1.312591486895303694e-02,-2.147815772669861567e-02,7.647479276088817168e-02,-3.944825109807313657e-02,-2.515844583708829255e-02,3.459213376045227051e-01
2.057290229081153721e-01,-1.138208467739222629e-02,-2.252761222206478564e-02,9.090229351522222806e-03,-1.816663566330311771e-02,6.253257862135767203e-03,2.259127199649810791e-01
3.141749525813922195e-01,-8.757277866556431589e-03,-3.667169450454157986e-02,7.192891660266997195e-03,9.790354804323257113e-04,-7.464733094329922651e-03,3.382368385791778564e-01
2.834970250402619185e-01,-1.493253328842382432e-02,-3.373819334794395108e-02,1.793047869953116186e-02,6.425178453767362366e-03,-6.752578550127042410e-03,3.102437257766723633e-01
2.799492286758519244e-01,-1.602258019777202946e-02,-2.864747401230140211e-02,4.020001512973729596e-02,1.831950727130660095e-03,-6.181444366597961537e-03,3.105931878089904785e-01
2.770467656640792642e-01,-2.230163055007443329e-02,-2.377312191176018941e-02,1.126317045968735359e-02,-1.401205687825350047e-03,-7.358193231751527326e-04,3.007327914237976074e-01
3.023597432837309418e-01,-9.886247667521330662e-03,-2.614346018753879730e-02,1.126659262438556297e-02,-6.284388785162163711e-03,-1.046449207545985249e-02,3.219719231128692627e-01
2.671913994068548792e-01,-2.758442959959638008e-02,-2.700166708690256157e-02,-2.276355494619100648e-04,-3.380228033786181712e-05,2.541828577811202847e-03,2.945180535316467285e-01
2.515374400597529814e-01,-2.929664008318856594e-02,-1.994432302189805273e-02,-7.362504844038796070e-03,2.095189915721116895e-03,3.552741903230661157e-03,2.766630649566650391e-01
2.696002704991268262e-01,-2.380779802616073138e-02,-2.992618048669627717e-02,-1.099038330048338584e-03,1.554083916323560589e-03,2.031797584931233774e-03,2.965538203716278076e-01
2.621700754728932270e-01,-2.352507708051602975e-02,-2.740682145867898156e-02,-1.022542044816040401e-03,4.171780723117054883e-03,1.988451184514334821e-03,2.877724766731262207e-01
2.716390134236953413e-01,-2.391619705077337177e-02,-3.025184543813504157e-02,-1.805869262797188293e-04,1.766918957220235068e-03,1.168879917624140790e-03,2.987961173057556152e-01
2.702519537607123712e-01,-2.271424430235793879e-02,-2.567646156357243636e-02,3.905604969402139419e-04,-8.207756076863308766e-04,3.947630961087151310e-05,2.944627106189727783e-01
2.669197576699693375e-01,-2.461183202393861513e-02,-3.065831097436393093e-02,-1.572612161678939476e-03,3.237195688574115698e-03,3.386330169401714774e-03,2.947256863117218018e-01
2.537240587675634318e-01,-2.855658450871949305e-02,-1.876577702058548902e-02,-9.578492847517761782e-04,6.044237871690647662e-03,5.886413442504697877e-03,2.779042422771453857e-01
2.697845275551523647e-01,-2.851433722108887014e-02,-2.457705916952150627e-02,-4.376432620553085892e-03,1.512081904664596028e-03,2.078005205656850880e-03,2.964801788330078125e-01
2.748256354417738523e-01,-1.708142247725251417e-02,-2.365559342801852594e-02,-2.035123535064498144e-03,3.335384656341964116e-03,-5.679145415440869015e-04,2.953282296657562256e-01
2.963753164437268328e-01,1.722985317834851982e-03,-3.295317203407499562e-02,-3.435176562188034521e-02,-3.754616503758819585e-02,3.046696821028973753e-02,3.298390805721282959e-01
3.067085524824153531e-01,-1.128314445953099154e-03,-2.003953253601273299e-02,-3.506468041955082549e-02,-1.752310887588907559e-02,2.829319969542667609e-02,3.285635709762573242e-01
2.675914520855842693e-01,-3.103549515361103683e-02,-2.282019671753200696e-02,2.950597896772686607e-03,-2.746972921101611086e-03,3.626676751528542207e-03,2.947548925876617432e-01
2.817898575630041758e-01,-2.849122074777771241e-02,-6.266873606729200796e-03,1.754017248961694218e-03,-3.371169212934403431e-03,-2.905368398732260178e-04,2.998600602149963379e-01
3.752935734128741707e-01,7.871477774041457653e-03,-4.820657666036690103e-02,-3.960773798860148937e-02,4.271834689528879701e-03,1.746222441703364561e-02,4.054921865463256836e-01
2.777822436088238645e-01,-1.188374214754782388e-02,-2.565622991185430302e-02,-1.266881273743236842e-02,9.205122964584316544e-04,5.237726071911713403e-03,2.977445721626281738e-01
3.045372311156558931e-01,-3.183642277069201332e-03,-3.238716161366800295e-02,-2.715851762993494456e-02,-1.517664502919893049e-02,8.223641560043551749e-03,3.280825316905975342e-01
3.054093937503780110e-01,-1.518174263389544809e-02,-2.818030693563369771e-02,-1.219443240656733866e-02,-6.006929998758709678e-03,1.615381438063749620e-02,3.293206095695495605e-01
2.735846519462709625e-01,-2.491902195565910694e-02,-2.053969694790758194e-02,1.380435037294712951e-04,1.864333503563724709e-03,3.527374101640571723e-04,2.963565886020660400e-01
2.783553663470065276e-01,-6.474793148622232097e-03,-2.482420699350591786e-02,-3.911590464657475202e-03,3.470029141069605992e-03,-1.635945379492267449e-03,2.945868968963623047e-01
2.778543079004109906e-01,-3.224876288227040977e-02,4.998804346227000983e-03,2.199220846927857700e-03,3.001021681891997712e-03,4.918546000726073918e-03,2.934532463550567627e-01
2.886450451066809308e-01,-2.349065724655158283e-02,-1.712419462319075825e-02,8.961790868277679650e-03,-1.877995955064017380e-03,-4.030107004131467524e-03,3.094871044158935547e-01
2.786663075149639623e-01,-1.114521841409246705e-02,-2.652696394489541254e-02,5.222828084588946630e-03,-1.055972447168379656e-03,-2.392647409248865181e-03,2.979722917079925537e-01
2.767957700421546097e-01,-2.462777329684365246e-02,-2.420346191259528656e-02,7.744052417015496320e-03,5.200084778531197842e-04,-3.235121733898593897e-03,3.015635311603546143e-01
2.743895448282039906e-01,-2.149070858503414339e-02,-1.863603767824868751e-02,2.857707466450422687e-03,-1.413041170314196637e-03,-1.980945605393909063e-03,2.945350408554077148e-01
2.786393084522162944e-01,-2.679459643859059825e-02,-1.750332536079410306e-03,-1.011680336727256713e-02,2.111673554489577539e-02,-2.765753981081036858e-02,3.003453612327575684e-01
2.766525971663049699e-01,-2.771197789198086292e-02,-1.343874761483866698e-02,3.604383611084663840e-03,6.415232074067746607e-03,-9.207807043890784814e-04,2.977620363235473633e-01
2.708139169753834841e-01,-2.438362075412836560e-02,-2.547250130500790244e-02,-2.273384069413383717e-03,3.164334523177885113e-03,2.749320375815624785e-05,2.958204746246337891e-01
2.615233028062148302e-01,-2.418580440400719400e-02,-2.750461095256427624e-02,-1.263065910422182261e-05,2.483144283466260076e-03,5.134767986787761029e-03,2.875526249408721924e-01
2.710803817864155807e-01,-2.424052489334514726e-02,-1.136074264623243568e-02,8.009605925372654308e-04,-1.588452325780030736e-03,-9.266544646973742848e-04,2.891171574592590332e-01
2.701583825666821204e-01,-2.350946548643280398e-02,-2.535004546857154428e-02,1.395870315910721854e-03,8.275792874932995109e-04,-3.440263447007539319e-04,2.946064472198486328e-01
2.723583527494930490e-01,-1.967872408836998654e-02,-2.194519475177932055e-02,1.642323750462308619e-03,6.451311319210329765e-05,1.390382797584754553e-05,2.931907176971435547e-01
2.718197553253816068e-01,-2.409725415210148269e-02,-2.564572549331681217e-02,1.479078761012727868e-03,-3.404607925519379809e-04,3.546344721363101299e-04,2.967065572738647461e-01
2.721611733766999830e-01,-2.148726036268427952e-02,-2.581901363707053698e-02,-4.620370098483467421e-04,1.219130232268601614e-03,-9.886838457346146854e-04,2.958516776561737061e-01
2.635586573774770791e-01,-3.012524899677587742e-02,-2.024971969902031321e-02,-4.599315259724367534e-03,-6.958711052773859087e-04,1.680040985811458772e-04,2.889852523803710938e-01
2.724023978105124533e-01,-2.308371285365236336e-02,-2.773932981261439945e-02,-1.370996862834476110e-02,4.039423513329116512e-03,-4.470843793266020098e-03,2.989685535430908203e-01
2.732526809680463353e-01,-2.060316976877532569e-02,-2.067120677484546309e-02,2.036931839630936898e-03,-1.414148012477051727e-04,-9.079308139256794753e-05,2.939111888408660889e-01
2.895952513538587736e-01,-3.379239924353960589e-02,-8.272559878495511221e-04,-8.983804554741469522e-03,-6.403849025014514201e-04,1.672689054330277203e-02,3.099814057350158691e-01
1.538522218102726657e-01,-3.255848110471036561e-02,-1.604245989577648274e-02,-9.053714724397180294e-03,3.459294297844382748e-02,1.499451914410719101e-02,1.909277290105819702e-01
1.933260465696182151e-01,-4.464986498212059063e-03,-1.611199379740906046e-02,7.261818155958252568e-04,1.547936539530627223e-02,3.420574507680512657e-03,2.057088613510131836e-01
2.449083908850118452e-01,-1.686323387738650204e-02,-2.807599924185111284e-02,-4.189819618684926432e-04,6.802513108265229730e-03,-4.543405591732426439e-03,2.679301500320434570e-01
1.286662712794673369e-01,-2.771522401657948442e-03,1.208048376812195790e-03,-1.888896909026799298e-02,-6.028588951278624104e-04,-2.013249499334033698e-03,1.336124837398529053e-01
2.036418474299531989e-01,-1.620382028171818423e-02,-1.314899475196440459e-02,-7.579110818772933039e-05,-7.761326049167878785e-03,-6.147969057151934751e-03,2.190068066120147705e-01
2.239971636239943553e-01,-1.724790603092621333e-02,-2.291932068909569020e-02,3.864924981371911086e-05,-9.920156798954488792e-03,-7.327568680907061219e-03,2.450629770755767822e-01
1.762485419445238288e-01,-4.109493979471315339e-03,-1.021497159445518277e-02,-4.901441129984878201e-05,-1.641138250195320683e-02,-4.306849915580611941e-03,1.858255267143249512e-01
1.834871396856042891e-01,-4.362010706573452024e-03,-1.352981056004212701e-02,-6.995267689281423062e-03,-2.679589626358396914e-04,-2.599541343621930307e-03,1.930305808782577515e-01
2.001628082797901886e-01,-5.022062928318485331e-03,-2.280278821714959436e-02,-4.399768791809835662e-03,-1.806081654714749088e-02,-1.573667767817196923e-03,2.170470058917999268e-01
2.750755989784866573e-01,-1.867529182228014339e-02,-2.260492826598189953e-02,1.621712815809949956e-03,-9.142707689697252352e-03,3.321063076284934499e-03,2.962281405925750732e-01
2.766581766145259635e-01,-7.663917312438109364e-03,-1.663581914258910333e-02,1.628417209092274803e-03,-2.281534394650478956e-03,9.742620327167056046e-03,2.894456386566162109e-01
2.737117516758051927e-01,-1.887490397750317406e-02,-1.289598681546040571e-02,1.091393714038544835e-03,-2.478944821058942909e-04,5.806962153040357011e-03,2.898245453834533691e-01
2.851463437467530171e-01,-1.264635358787746799e-02,-1.606590831749053760e-02,-3.618098714876867052e-03,-3.627489861723579880e-03,1.336209731363989864e-02,3.005409836769104004e-01
2.752212494548819111e-01,2.044564608248242155e-03,-2.456280777881969524e-02,-1.036380313148123474e-03,-1.804811498286151838e-03,5.043519572148567887e-03,2.875609099864959717e-01
2.709022995099371611e-01,-1.566121902693733137e-02,-1.945971853016248421e-02,1.860712989196352043e-03,2.057075725666999370e-03,2.858347858456775949e-03,2.885639965534210205e-01
2.725465927609704297e-01,5.668767475441691128e-03,-2.342680873469045466e-02,-5.057601291949025612e-04,-7.329952142155818622e-04,8.375214175050098298e-03,2.829277217388153076e-01
1.173599907967342038e-01,-3.020916883173774270e-02,6.898981390888844073e-03,-3.513541796602236839e-02,-1.782890831024748143e-02,5.527382387914152144e-03,1.497545093297958374e-01
1.668300298830564521e-01,-7.169246072334115039e-03,-1.740686259850594830e-02,-1.181970354388668827e-02,-3.429518423914575814e-02,-1.765576243225588145e-03,1.900495737791061401e-01
1.921406359703322075e-01,-1.897400987079328472e-02,-1.706211901366236350e-02,-1.422838997998214158e-02,-2.751059750446317037e-02,-3.248190759062493608e-03,2.169767618179321289e-01
1.401730211557201122e-01,-8.291169086634200824e-03,-5.940320282142620700e-03,-2.228741275084886869e-02,-3.839551374864001720e-02,-4.712537704713246241e-03,1.663658022880554199e-01
1.885066514479902811e-01,-9.639712819491760842e-03,-2.268304381435516659e-02,-2.052898423991566385e-02,-1.880231991308577155e-02,-7.792456091262567504e-03,2.110063135623931885e-01
1.487630575838066738e-01,1.319754419110634458e-03,5.969652935630120894e-04,-4.329040650580725721e-03,-1.331263508005314745e-03,5.602912701261243559e-04,1.480172276496887207e-01
1.215235539770862377e-01,-6.711003238460695741e-03,-2.723152894651768852e-03,-9.082918135408108926e-03,-2.717472853761656454e-02,-3.860184132478572394e-03,1.358536779880523682e-01
7.308084492099185814e-02,1.019878534009836454e-02,-4.158435740116812190e-02,-3.346675600182364568e-02,-2.639335867749382017e-02,1.491592749858748276e-02,1.265275925397872925e-01
6.762660948229345936e-02,-6.675598156902946834e-04,-3.428941898480118017e-03,-4.341419819335033681e-02,-1.972440997132848123e-02,-4.143138798946763984e-03,1.083205267786979675e-01
2.847250214866737239e-01,-3.517635388204523594e-02,1.064720141057669267e-02,1.243558143449143699e-03,5.679257574466178675e-03,9.766021476148946390e-03,3.002752065658569336e-01
2.771032691489289101e-01,-2.583367694096851130e-02,-2.619037969676379918e-02,3.110101998432061518e-03,9.226363427480357982e-03,-5.467173636360471781e-03,3.037318587303161621e-01
2.704885463588661554e-01,-2.044458110388344685e-02,-2.188224496141238928e-02,-2.243608295710174897e-03,4.786930877677134100e-03,-2.807133056065865342e-03,2.918388247489929199e-01
