sxx,syy,szz,sxy,sxz,syz,smises
5.202264286291060497e-02,5.202264286291060497e-02,1.793847142741795131e-01,-1.477943862565668029e-52,-1.005486457869815515e-52,-5.027432289349083141e-53,1.273620724678039551e-01
