sxx,syy,szz,sxy,sxz,syz,smises
1.333333333333364124e-02,1.333333333333364124e-02,-2.666666666666639429e-02,4.000000000000000777e-02,4.000000000000000222e-01,4.000000000000000222e-01,9.830564856529235840e-01
