sxx,syy,szz,sxy,sxz,syz,smises
-1.206066948933953026e-02,-1.206066948933953026e-02,1.141213389786799454e-01,1.147560448817028319e-52,5.721579719198262849e-53,5.721579719198158064e-53,1.261820048093795776e-01
