sxx,syy,szz,sxy,sxz,syz,smises
1.080000000000058691e-02,1.080000000000058691e-02,-2.159999999999939746e-02,3.239999999999999825e-02,3.599999999999999867e-01,3.599999999999999867e-01,8.841940164566040039e-01
