sxx,syy,szz,sxy,sxz,syz,smises
8.056263126951160314e-02,8.056263126951160314e-02,4.388747374609781593e-01,-2.234595889463835968e-51,-1.229027739205107364e-51,-1.229027739205045346e-51,3.583121001720428467e-01
