sxx,syy,szz,sxy,sxz,syz,smises
-8.112570438026781017e-02,-8.112570438026781017e-02,-1.456433280815692677e-01,2.914166905769148215e-52,1.384229280240320402e-52,1.384229280240320402e-52,6.451762467622756958e-02
