sxx,syy,szz,sxy,sxz,syz,smises
5.199483770917551206e-01,-9.834278492534404004e-03,5.262325783733368123e-04,-6.189333314127245904e-03,1.935475718028099954e-03,3.412374890666653587e-02,5.281170606613159180e-01
5.428938250505378482e-01,6.813061685710108950e-04,-2.851681917612966521e-02,4.688945281442936583e-03,-1.122589261890421250e-03,2.889170190662264728e-02,5.596896409988403320e-01
5.876753552746494247e-01,-1.155633732078203968e-02,-1.378191850113358319e-02,-3.926892285253879428e-02,-1.043813535531111850e-02,2.787054837774105565e-02,6.063831448554992676e-01
5.760526124929602476e-01,2.996378684669565029e-04,-1.995709868494799366e-02,9.610079941805091050e-03,1.932152603261008683e-02,3.787836994260885409e-02,5.909873247146606445e-01
5.510861932122204099e-01,-9.843554539773258227e-03,-9.925232368568126518e-03,-2.736504434129712494e-03,-8.514875039614967431e-03,3.161987413356127236e-02,5.638505220413208008e-01
4.852517499218276242e-01,-4.455268738119613769e-02,-2.539945222385836532e-02,-2.857820701117281051e-02,-7.331102832401725604e-03,-1.209234594039895055e-02,5.234139561653137207e-01
4.590603234441249514e-01,-1.519033914438305821e-02,-3.216042301618479704e-02,-4.250838375615936110e-02,-3.882142653839654178e-03,-9.543348070180113782e-05,4.885855913162231445e-01
4.589156409767041200e-01,-3.531628368177208710e-02,-1.798739870160348531e-02,-3.803223656160958227e-02,-4.550010792273888154e-03,7.248763964283652141e-03,4.904692471027374268e-01
4.863816596313899066e-01,-5.155439577325104938e-02,-2.716129350686868893e-02,-2.513085023788026034e-02,-9.348205386913631398e-03,-8.609937084088005455e-03,5.284198522567749023e-01
4.867409350322359773e-01,-4.101843772456503778e-02,-2.842672177232319353e-02,-1.648830791772896640e-02,-5.741039265781054148e-03,-6.357923401288968768e-03,5.225694775581359863e-01
4.154819224251201093e-01,-3.660903831182332757e-02,-2.052417894363334216e-02,-3.131807334905649387e-02,-6.538429471681620961e-03,-9.456214833964587604e-03,4.480090737342834473e-01
4.574163392846884446e-01,-4.831445992125379951e-02,-3.118146242556768533e-02,-3.660294913093498081e-02,-5.551727125217154751e-02,-2.678158750681312612e-03,5.105681419372558594e-01
4.622789416754838343e-01,-4.774747795469305722e-02,-2.682651602832292204e-02,-4.202832209103073841e-02,-1.162047874996493570e-02,-5.341768364400796207e-03,5.056523084640502930e-01
4.626704017509253863e-01,-5.361008992031235376e-02,-1.754516039491135770e-02,-1.540047659267631056e-02,1.508992489801929283e-04,-4.136183353520910336e-03,4.999895095825195312e-01
4.883909571856421272e-01,-5.169280351243987770e-02,-2.806465172444358447e-02,-2.518509927822163222e-02,-9.954454772402887910e-03,-8.360932487040758157e-03,5.309401154518127441e-01
4.394384721023940621e-01,-3.859129229606006461e-02,-2.882659190173580965e-02,3.900597347974609636e-02,-2.760850830346738352e-02,9.016314907275453649e-03,4.806609451770782471e-01
5.026070107263148623e-01,-4.238783204040136310e-02,-3.123724636731178839e-02,3.171807884936176519e-02,-2.745691252813804370e-03,1.079264531562141964e-02,5.426387786865234375e-01
5.082688679678815102e-01,-3.425961090990423119e-02,-3.528635087344894616e-02,1.085473004636273477e-02,6.538654595401603535e-03,4.792955137731309500e-06,5.434859395027160645e-01
4.868150463980365217e-01,-4.689865129664619325e-02,-3.028603275934957373e-02,3.964224362651482328e-03,-9.975501414154510065e-04,3.309834681249997600e-03,5.256832838058471680e-01
5.129528724655594285e-01,-4.199639706752744672e-02,-3.365483360575199923e-02,1.867142409676321793e-02,2.107265495495164523e-03,-4.993365976051488157e-04,5.517871379852294922e-01
5.123102545740346736e-01,-4.124445749736871392e-02,-3.139019972173501261e-02,1.874157948060171247e-02,-2.167889088438908912e-04,3.620594168527524817e-03,5.496892333030700684e-01
4.981900387450049483e-01,-2.792749094568700019e-02,-3.184142225738481602e-02,1.290596267926510596e-02,-1.156603109191990707e-03,2.662046135900394180e-03,5.285821557044982910e-01
5.002110118691316387e-01,-3.385703343343759997e-02,-3.276741123990009608e-02,1.162514861697818390e-02,-6.700178106977793804e-04,-3.770351019971125359e-04,5.339055657386779785e-01
5.307083423895697649e-01,-1.860588919439160049e-03,-2.488974670061389061e-02,-1.612938173220732421e-03,-8.201749866051543563e-04,-1.060664869994581115e-02,5.447677969932556152e-01
5.238816710078566530e-01,-2.019157179146757741e-02,-1.974821815025248894e-02,-2.296799541263320164e-03,1.156050136179566194e-02,-1.494891103593449198e-02,5.448502898216247559e-01
5.374062672297932330e-01,-1.891641883076328190e-02,-2.606450063514767490e-02,1.098674392713110473e-02,-8.912739062931976722e-03,-2.100729296951214797e-02,5.616466999053955078e-01
5.611996231050973005e-01,-2.119435441379252660e-02,-2.555367228153201942e-02,4.836160172635163047e-03,1.030492828047281650e-02,-2.957223288042074016e-02,5.871565937995910645e-01
5.213586684369548863e-01,-1.015186533808692948e-02,-2.862568819803271158e-02,-2.684954117202169657e-03,2.379011587228697846e-03,2.846811385354171189e-03,5.410422086715698242e-01
5.952182665061513944e-01,-1.114380761122771291e-02,-1.660235899856205011e-02,4.202906582181870705e-04,-8.596891924770262488e-04,-5.236640859528744751e-02,6.158279776573181152e-01
5.147693862155913180e-01,-1.119075082762016615e-02,-1.493895741868811466e-02,-7.450989702311475128e-04,-6.593166274225456275e-04,6.875979888328434195e-03,5.279814004898071289e-01
5.434276792850005755e-01,-1.042904433494054595e-02,-2.363639305937845214e-02,1.315532029006965132e-03,9.430701002133198016e-04,-3.639646448523538302e-02,5.641176104545593262e-01
5.318026806746696256e-01,5.977026403547552880e-03,-2.455538604816562276e-02,-3.394509825280197298e-05,6.174328474551900141e-03,-3.244596966660001636e-02,5.447496175765991211e-01
5.138266343448075757e-01,-3.373280131294464912e-02,-4.682680067332828378e-02,-7.323325646908119407e-03,2.319959255152436936e-02,-2.719173834279042627e-03,5.558419227600097656e-01
4.586835377144876658e-01,-2.777706132401405736e-02,-4.664494226128079735e-02,-1.867112828240143768e-02,1.337673193910877446e-02,2.723365866859275061e-03,4.977783560752868652e-01
4.928777793692309950e-01,-2.808711236230371222e-02,-3.664391541384726114e-02,2.682454617184283630e-03,9.703446361994775421e-03,1.791893019496723161e-03,5.255940556526184082e-01
5.066410568423439509e-01,-3.524636577171746943e-02,-3.734410002357252401e-02,-6.112125995469375704e-03,8.998744384475183822e-03,9.278122991837779851e-04,5.432685613632202148e-01
5.205719066742365841e-01,-4.169266810213578811e-02,-2.192974496074831525e-02,4.952055702406065081e-03,1.471175762132675285e-02,-4.622493150242412349e-03,5.533597469329833984e-01
5.166965779182117746e-01,-4.479887003734683848e-02,-3.999385891063389487e-02,1.038000524299738440e-04,2.913614616733839913e-03,1.343288080967986213e-03,5.591360926628112793e-01
5.267315826336298468e-01,-3.428050892815590056e-02,-3.358704390790365202e-02,1.217230644619819897e-02,1.697586127176266627e-02,-1.152806387181634770e-03,5.618354082107543945e-01
5.240001608196956928e-01,-2.673296104132530382e-02,-3.102716640726280173e-02,-4.417972882600007881e-03,-5.641318403876847097e-03,3.312803024645697390e-03,5.530617833137512207e-01
5.310205204503865017e-01,-2.132610412345384288e-02,-2.874554900389655887e-02,4.042556521681097727e-03,3.578131972782813523e-03,7.447449701955118247e-03,5.563216209411621094e-01
5.100782691707401728e-01,-1.724822191002461924e-02,-1.121750368000018483e-02,-1.064834908349805926e-03,-2.160959868933756114e-04,1.079222690258295741e-03,5.243438482284545898e-01
5.046183316245941297e-01,-3.125830856420797055e-02,-4.289991614799612552e-02,8.080627683212625312e-04,5.691453949370232565e-03,2.508232843054711107e-03,5.419001579284667969e-01
5.288622259554314198e-01,-3.072625995486660821e-02,-2.353658800540664453e-02,-1.470085939187092995e-03,-1.272093277172726359e-03,4.900180954451813231e-03,5.561034679412841797e-01
5.301725844761627782e-01,-3.216247822695855740e-02,-2.727500670268667715e-02,-2.629254996226227520e-03,6.341332768009335687e-03,8.945835817554733185e-03,5.602478384971618652e-01
5.305871067143606012e-01,-5.359220220669008716e-03,-4.050283989425670916e-02,2.397406861728632391e-03,6.002309919052027133e-03,8.013231301211426461e-03,5.546409487724304199e-01
5.223363107049303622e-01,-2.325624168025439142e-02,-3.904283392795548924e-02,-1.646572139020812883e-02,6.734453976129509307e-03,5.021411093598938426e-03,5.545796155929565430e-01
5.060306577306206144e-01,-2.538938373787893998e-02,-3.808479200848227664e-02,-3.432670209649824489e-03,9.371553109513704877e-03,1.241666193330874307e-03,5.381621122360229492e-01
5.398065098767281800e-01,1.879181612554181591e-03,-5.431857318610017193e-02,-3.698566512765322223e-02,2.870185410594931243e-03,3.227123090499534226e-03,5.717639923095703125e-01
5.242523849458629037e-01,-1.528988394139130236e-02,-4.920096069300072816e-02,-1.050558450934042931e-02,7.238688869617392919e-03,-4.125004971451494266e-04,5.577105879783630371e-01
5.097293324403985304e-01,-3.281652972925505618e-02,-5.302828969296127792e-02,-1.184040739776543043e-05,2.246239746053299569e-03,2.155686953749605742e-03,5.529551506042480469e-01
5.089284563035219033e-01,-5.789956181906613653e-03,-4.383812121625513258e-02,-1.853632754135715183e-02,9.149932330558508894e-03,8.152052611674246536e-04,5.359577536582946777e-01
5.257656824368962534e-01,2.688593893337976048e-05,-4.566928461604521927e-02,-3.034952815683610375e-02,5.771824128998574895e-03,3.646628661064375831e-03,5.526452660560607910e-01
5.307344809067884306e-01,-1.680518527159774456e-02,-4.465897057979906215e-02,-1.306654032830713470e-02,9.624264981211975599e-04,9.965221482668687372e-04,5.624451637268066406e-01
4.768524433147912078e-01,-3.150893154503078830e-02,-2.390973673336235783e-02,1.178300540082271274e-02,7.408186601248091009e-03,-5.265293763622684933e-03,5.052625536918640137e-01
4.333570026765536931e-01,-3.121733346456007085e-02,-3.520032504867109946e-02,4.991317922181257721e-02,3.871539559333078001e-02,-1.201448162250464075e-03,4.792395234107971191e-01
4.788046097572191684e-01,-3.252932922416409967e-02,-2.752936117746043743e-02,1.254793379810986015e-02,1.072544051384655139e-02,-2.144098099382945330e-04,5.096551179885864258e-01
5.552372748228054933e-01,-3.238911388551005133e-02,-3.936226161381675692e-02,2.346619992557035655e-02,2.281232480067204790e-02,6.454846401768113981e-04,5.938563942909240723e-01
5.402664003138073490e-01,-1.981011434232110568e-02,-3.824404782448670437e-02,1.167263022781946796e-02,1.877274682685641481e-03,9.050575561108137324e-03,5.701008439064025879e-01
5.326745151061780259e-01,-3.957204023869606568e-02,-4.447618213325579828e-02,3.027209839696933663e-02,1.075068742639343454e-02,-5.103815492776781447e-03,5.774691700935363770e-01
4.453380039308477700e-01,-1.464263146430791473e-02,-4.752622779142079423e-02,5.443487054381608917e-03,-1.156840511393635550e-02,4.780123590205970739e-03,4.778580069541931152e-01
5.129920695013825416e-01,-4.588226573095499639e-02,-3.563262681162868151e-02,-5.978969953904074430e-03,9.469895469613170275e-03,4.176477873194521517e-03,5.542075037956237793e-01
4.629673681544819730e-01,-2.771722199349746507e-02,-2.334919646212557653e-02,-3.020729951847772599e-02,2.304981666344897012e-03,5.197820103571856518e-03,4.914077222347259521e-01
5.024567658331593467e-01,-3.510843410007594145e-02,-3.178737240474882597e-02,-1.781847895496561918e-02,8.149357147669766474e-03,6.964481750425161044e-03,5.371213555335998535e-01
4.736453882496673984e-01,-4.526003408390674720e-02,-2.474205068182377953e-02,-3.128066781629356558e-02,8.314546093187422104e-03,6.353662031949618670e-03,5.121531486511230469e-01
4.410653799978193068e-01,-1.544533804303740987e-02,-5.046126710534462600e-02,-3.488706444464191418e-03,-1.701456082663186167e-02,-3.315893383170860371e-03,4.759740233421325684e-01
5.180331985238805226e-01,-4.617672647684589737e-02,-3.594051372277592971e-02,-2.850350874445494939e-03,7.750081959758639560e-03,2.239853162848578355e-03,5.593584179878234863e-01
4.957058572340654057e-01,-3.657526828072327207e-02,-3.329483736305557939e-02,-2.917078805575357495e-02,1.237926676643333161e-02,1.033315235277257500e-02,5.337796211242675781e-01
5.027495664424015409e-01,-3.081372233178505948e-02,-3.620989436466923173e-02,-5.916202822373494569e-03,3.772428510202860408e-03,1.241275486065966790e-03,5.364237427711486816e-01
5.264203733432630816e-01,-4.535480007593353791e-02,-3.675622663009672775e-02,-4.199559086230312089e-07,3.324579601756915922e-05,-1.875281757945303869e-03,5.675340294837951660e-01
5.203317710191746048e-01,-4.393147541834357961e-02,-3.582525460064536760e-02,3.826906377904443560e-03,3.542287913476859559e-03,-5.187216776693756755e-03,5.603989362716674805e-01
5.269252189432573896e-01,-4.503589789356379769e-02,-3.782941448319479538e-02,6.254685214466103142e-03,4.433017999606294474e-03,-6.603469169732938474e-03,5.686622262001037598e-01
5.194951273709900175e-01,-4.459707044204916371e-02,-3.438324652807558945e-02,1.040436884908802319e-03,7.208903116949010384e-03,-8.579964902102639804e-03,5.593950152397155762e-01
4.891077707472601399e-01,-3.850732026488043469e-02,-2.703521905028136163e-02,4.737592071924665547e-03,3.679355954464800637e-03,-3.213887121192085354e-03,5.221066474914550781e-01
4.963870887964707546e-01,-2.366429753846155393e-02,-3.412826118072964654e-02,2.805214397235474000e-03,-1.034638877507302766e-03,-1.358877831505373216e-04,5.253871083259582520e-01
5.588429207026791579e-01,1.924780062308562023e-03,-1.066741806229001832e-02,-6.873344831250191057e-03,-6.307349178615375383e-03,4.055777849699439275e-02,5.679129362106323242e-01
5.195674983138299785e-01,-3.274092449953677764e-02,-4.357437731531418890e-02,-4.946849803515326015e-04,3.300622227733074603e-03,-9.359389094517801431e-04,5.578363537788391113e-01
8.079531379853840400e-01,-6.826414244771206175e-03,-2.978236626386621122e-02,-6.779603541497457309e-02,-8.827234892379676873e-03,4.503245783152400733e-02,8.385720849037170410e-01
5.477179371404702346e-01,-1.719233511045442642e-02,-2.839144458932127413e-02,1.353542506916226296e-02,1.157596593117035493e-02,1.917053918689649514e-02,5.723894834518432617e-01
5.394859349808915905e-01,-8.827382930031268948e-03,-1.104368193976940082e-03,2.031600182779785390e-03,-1.072115478864100069e-03,3.424220116849675810e-02,5.477279424667358398e-01
5.406834742103249214e-01,-1.603908741914997216e-02,-2.348029737686255225e-02,-9.652022217319424294e-03,-9.908866404542181552e-03,2.200084827714606991e-02,5.622848272323608398e-01
5.251461623405633272e-01,-9.064391635884377907e-03,-9.203567992119854324e-03,-4.567747165185946125e-03,3.794715465868891795e-03,3.306552722496104019e-02,5.374393463134765625e-01
5.199879088373287050e-01,-4.509307018425171010e-02,-3.526734349698831816e-02,1.001584741943872684e-03,-1.353262820582026415e-03,-1.241199335373785722e-03,5.602444410324096680e-01
5.208727130423776996e-01,-2.767939801722121840e-02,-2.320105286568180381e-02,4.229001613140754125e-04,-3.607527633060542485e-03,-3.692256718177953402e-03,5.464003682136535645e-01
5.178572306044588736e-01,-1.987236229382591257e-02,-1.544722309109711200e-02,-9.944323424957231435e-04,4.333023612344704539e-03,-6.349553046397378962e-03,5.356990098953247070e-01
5.282912314798964282e-01,-1.422161760920639950e-02,-1.204401262379209414e-02,-6.872296193391696714e-03,8.798228181630807568e-03,-1.122279993036162486e-02,5.421211123466491699e-01
4.855694262876795730e-01,-5.367880741530567379e-02,-2.621191040700984742e-02,-2.108115062523416988e-02,-1.424062627434508933e-02,1.476412069014381313e-03,5.279012918472290039e-01
4.991729031003318551e-01,-4.181617399842335603e-02,-3.385465371078455465e-02,-3.852926023194051114e-02,-3.289512873359279332e-02,-4.018752486044004958e-03,5.442184209823608398e-01
4.971184303370810298e-01,-5.064205051075099107e-02,-2.536571268966314463e-02,-1.472391738390600811e-03,-1.551668406101597416e-03,-5.317360223636355236e-03,5.356618165969848633e-01
5.180833332437180250e-01,-3.869162721028057694e-02,-4.360644895011034361e-02,-3.498515846785955593e-04,-1.472338943782059350e-03,1.055880531029659408e-03,5.592576861381530762e-01
4.926059046859692092e-01,-3.512768685195080676e-02,-4.143458382500850301e-02,-1.345176849024824935e-02,-3.366952311688100469e-02,-8.080878166828829937e-03,5.347995162010192871e-01
4.598402369370220288e-01,-3.340124908299133000e-02,-2.898404786163694125e-02,-2.790737905185310119e-02,-3.614005145158106364e-02,-4.948875321843901505e-03,4.974496662616729736e-01
4.945995731070266799e-01,-3.531168329642356274e-02,-3.565028692029423296e-02,-4.489471587232487550e-03,-1.018729552517703800e-02,-4.943135056361133185e-03,5.305003523826599121e-01
4.901959593763647871e-01,-3.654293148454451634e-02,-3.527751282463836846e-02,-1.698312340853950012e-02,-1.050650380482438979e-02,-8.236404679660582276e-03,5.274361371994018555e-01
5.234752572137184590e-01,-2.122619757047217171e-02,-4.664053893347874791e-02,1.417570324289792877e-02,7.499968172843520832e-03,2.163151958096972461e-06,5.585341453552246094e-01
4.841597175631452421e-01,-5.701300401216377600e-02,-2.491146295365015417e-02,-6.079608790916896446e-03,-1.678350138962353454e-03,-3.124691668576403195e-03,5.259986519813537598e-01
4.548453172299057323e-01,-3.089995843481474491e-02,-3.986046638361784300e-02,-2.394284337147621622e-02,-2.134168278271857469e-02,-1.279547341064025782e-02,4.939216971397399902e-01
4.543703752894057701e-01,-2.784827448171547926e-02,-4.237590332662560799e-02,-2.113124811324336785e-02,-2.897793465979838987e-02,-8.904749475569019926e-03,4.938097000122070312e-01
5.172893402324201251e-01,-3.678777962674723012e-02,-3.819234640756941079e-02,-9.900807097235031842e-03,-7.752931414164246533e-03,-6.402544438784935933e-03,5.553188920021057129e-01
4.739643305665519057e-01,-3.030452895010532499e-02,-3.760214551872245736e-02,-1.618774039332598197e-02,-1.814696366233178176e-02,-8.648745013092425798e-03,5.099203586578369141e-01
4.902202688434036948e-01,-2.785566697322103269e-02,-4.359277560638236126e-02,-5.203119923510996815e-03,-2.187880963216188787e-02,-7.326989823698128700e-03,5.277135968208312988e-01
4.984378629242052772e-01,-3.953181031735653050e-02,-3.068998984556778331e-02,-9.744612207856212863e-03,-2.395361583412164430e-03,-4.837778532695394783e-03,5.339524745941162109e-01
4.912480045769683779e-01,-4.056306102341611375e-02,-3.473734883003018470e-02,-1.321269167126470391e-02,-1.149475297374296170e-02,-8.349348382469165206e-03,5.299887061119079590e-01
4.703098118627728752e-01,-2.454166099363661036e-02,-2.959429648176115091e-02,-1.147438594014655970e-02,-8.523731736078819093e-03,-2.009132879142832610e-05,4.980128109455108643e-01
5.080270334095280393e-01,-3.507212406270113214e-02,-3.550268225979122394e-02,-8.913838088492996234e-03,-1.357157732759479811e-02,-4.085056324396581749e-03,5.440879464149475098e-01
5.705936095730264057e-01,-7.715846778003715434e-03,-5.194579712730323928e-03,-2.778951153152736577e-03,-4.890405678834718484e-04,3.349291028264086978e-02,5.799821615219116211e-01
6.175912024015743906e-01,-3.282687210856694016e-02,1.532409323609765228e-02,2.832585720604411089e-03,3.080323600823788120e-03,4.942747149871815071e-02,6.335816383361816406e-01
5.913170704506864883e-01,-3.704121378387634222e-02,-5.928489164986228133e-03,2.292284055573511059e-02,1.456316322312830105e-02,3.121074085131935946e-02,6.175655126571655273e-01
5.714947170804951515e-01,-1.498567777325032768e-02,1.029985017369644540e-03,-1.181668833316048238e-02,-3.483241718686799944e-03,6.493029284181747740e-02,5.898525118827819824e-01
5.361163176350478565e-01,-7.708742803186036108e-03,2.505388034473116088e-03,-3.893025085125601924e-03,-2.859742953769380067e-03,3.921203623284080092e-02,5.431188344955444336e-01
5.401164934541035079e-01,-2.521241632334964011e-02,-1.823671446358038351e-02,-8.223086283050237873e-04,7.178899220349241979e-04,2.097869644183396332e-02,5.630503892898559570e-01
5.386248843207197545e-01,-3.089412199806412795e-02,2.276337307436732127e-03,-1.101048689057732184e-03,-2.207479184504760900e-03,3.717668300635525863e-02,5.574275851249694824e-01
5.290827802419851844e-01,-1.689601686319316953e-02,-7.869340262024376864e-03,5.094702039855812659e-03,1.613268109101127171e-03,3.007447413268301076e-02,5.441002249717712402e-01
5.145219197650843235e-01,-2.090905622382518980e-02,-2.810965218531574772e-02,1.642974882831337285e-03,2.189623254385742856e-03,7.187785653515599629e-03,5.392319560050964355e-01
5.502524218034927639e-01,-2.364613763717082762e-02,-3.701877316101159776e-02,-2.707857789153217745e-03,-1.008139332310134702e-02,7.810928838592636272e-03,5.811392664909362793e-01
5.253278523802528133e-01,-3.199261301267489199e-02,-3.390688672069297471e-02,2.918117169056691409e-03,-3.519643706573174786e-03,3.332278523863527360e-03,5.583660602569580078e-01
4.846322059303293517e-01,-1.240081868094700113e-02,-3.037711852748287145e-02,3.900804575939924301e-02,2.729167122360919365e-02,6.269796779026463353e-03,5.130468606948852539e-01
5.316368761045113800e-01,-8.169042948251881153e-03,6.573901584703945034e-03,-4.064590345173133001e-03,-5.846131332728782097e-03,3.421637430431291593e-02,5.360166430473327637e-01
5.375806829778561058e-01,-6.144418281673336146e-04,-4.226140759449326101e-04,2.235402206353073132e-03,-3.032308998066887760e-04,3.857417402956355573e-02,5.422452688217163086e-01
7.075795667955131485e-01,-3.739062949311117157e-02,2.037532415266885000e-03,-5.847486033416537943e-02,1.016108930665283183e-01,5.250679394180529647e-02,7.593849301338195801e-01
5.416954664813482534e-01,-4.301229392021044262e-03,-2.625496345890088179e-02,3.669455609600106249e-04,1.403115247964643745e-04,2.667656105843931036e-02,5.592105388641357422e-01
5.969974125558552558e-01,-3.173064155789984131e-02,-1.251107761309153132e-02,-4.754271310238435654e-03,-1.803771837206954304e-02,3.762068532967988849e-02,6.235978603363037109e-01
5.784334188200024318e-01,-7.665633405160299230e-03,-1.008427982963239211e-02,-2.910883334186508895e-02,-8.065792757916837377e-03,3.158190669394583816e-02,5.921696424484252930e-01
5.157510538611475015e-01,-3.226423997205304928e-02,-2.541484559199216897e-02,-3.782930581244000300e-03,-1.651350648238975516e-03,4.447815676395638755e-04,5.446703433990478516e-01
5.129786079940366061e-01,-2.052422844422291393e-02,-2.724584974706587004e-02,3.956958486080908166e-03,5.671660218998880038e-03,4.802144714136167246e-03,5.370932221412658691e-01
5.185278409284187484e-01,-3.242653907916678846e-02,-2.894838050111619987e-02,-3.992064215026068161e-03,-2.122252107334743343e-02,1.376555797801270369e-03,5.505008697509765625e-01
5.125957961429643550e-01,-3.788480750312739342e-02,-3.810673731696945232e-02,-5.866766442034724617e-03,-1.617134659082895137e-03,-7.458784327269529606e-03,5.508440136909484863e-01
5.134474872648195909e-01,-3.824011750300110313e-02,-3.834260577616219190e-02,-4.585287820487158640e-04,-1.967667738984734283e-03,-6.236282647154829835e-03,5.518556833267211914e-01
5.165491478718773344e-01,-2.487153884822954075e-02,-3.266150831615649563e-02,-7.185679897680284645e-03,-5.595291664399596604e-03,1.523478418488323678e-04,5.455855727195739746e-01
4.956377660091756954e-01,-2.890963610724012200e-02,-5.376652640422849294e-02,-1.729167770425812977e-03,-6.584882076760606787e-03,-6.147385522070222125e-03,5.376419425010681152e-01
5.051020702813249219e-01,-3.232283799262566926e-02,-3.728845060596469585e-02,-5.874158259630713613e-03,-1.395557026948209033e-03,-2.266684532602298782e-03,5.400403738021850586e-01
1.228462585171052335e-01,1.860793746701477902e-03,6.990182160680168122e-03,7.151223762907409076e-02,3.957907697009414166e-02,1.438894878225947718e-03,1.846373081207275391e-01
4.876316375236823819e-01,-2.732500910896618063e-02,-3.150444796545090465e-02,-1.130917627540232485e-02,-5.221652795578988343e-03,7.981226205336026513e-04,5.175108313560485840e-01
5.391855933515468102e-01,-3.276328389756877346e-02,-1.240604728901931186e-02,-2.775477194780235149e-02,-1.421674000764469072e-02,2.481517501135455106e-02,5.662696957588195801e-01
5.375577104173295817e-01,-2.570053472586322774e-02,-3.441249814490124348e-02,-5.763766764687819170e-03,-1.214651066416905928e-02,1.940148745435325145e-02,5.691347718238830566e-01
5.409081744663584157e-01,-2.758020637201807901e-02,-2.277992505491985287e-02,-3.544549032031925860e-03,2.885079442766384783e-03,1.469226683711623987e-02,5.667304992675781250e-01
5.254248301328474646e-01,-1.400429417809526123e-02,-1.992566201147200067e-02,-1.321852648401225115e-04,-3.841550552279514221e-03,1.719131707319528427e-02,5.432715415954589844e-01
5.146784594761120157e-01,-1.834778290108279863e-02,-2.508987897849604409e-02,-8.381798639686742144e-03,-5.161772739716143608e-03,8.560148017471956236e-03,5.369046926498413086e-01
2.969365044001131548e-01,-3.186041371447470572e-03,-2.978679126199856864e-02,4.249632855252886976e-02,3.002184442970983608e-02,4.583972767833564485e-03,3.270312249660491943e-01
5.152826331845925534e-01,-2.433151345212247740e-02,-3.024462047437220802e-02,-5.947145687136833362e-04,4.842279524877906227e-04,2.949520543946129638e-03,5.426205396652221680e-01
5.090543717384941047e-01,-2.715210810835433364e-02,-3.087743877152204774e-02,-1.439387931765474804e-02,-2.242086594297999086e-02,3.060553050582785501e-03,5.400801301002502441e-01
5.342583327553345196e-01,-3.233444272616209370e-02,-2.818181109071563051e-02,-1.925385866224545162e-02,-2.099249987917196220e-02,8.396919992646051378e-03,5.668663978576660156e-01
4.944576241441710485e-01,-2.670622608079892268e-02,-4.964444375068341464e-02,-5.952569599579741761e-04,6.047494658636068908e-03,1.896578667666914270e-03,5.331172943115234375e-01
4.905607607720425256e-01,-3.638645719943581214e-02,-2.419718256362476949e-02,6.563277555290235842e-03,1.049069809244359934e-02,2.977628276814336603e-03,5.214257836341857910e-01
4.982628885364934201e-01,-2.750590756521306690e-02,-4.022922711409576690e-02,-5.258173563178936312e-03,6.969707198937051540e-02,3.095122107499212287e-03,5.458653569221496582e-01
4.927166183821996004e-01,-2.892980328087357833e-02,-4.726549946178643102e-02,3.903297965812348082e-03,-1.120597080246063569e-03,5.077331361088285172e-03,5.311710834503173828e-01
5.016797390251974686e-01,-3.403887607175651309e-02,-1.980225640599242443e-02,9.308027841134564745e-03,-1.882730204332473678e-02,-1.599557624321134219e-03,5.300012230873107910e-01
5.133495187342476118e-01,-4.329211804836166633e-02,-4.344574637804571315e-02,1.843863792616106875e-02,-1.313719946396754018e-02,1.019218079168557160e-02,5.583769083023071289e-01
5.036451299992575903e-01,-3.625004815374763267e-02,-3.769186199054017083e-02,1.934747103133788171e-02,-1.406904200931277833e-02,4.295244768319511457e-03,5.422540307044982910e-01
4.813797470518683119e-01,-3.245010721812777166e-02,-1.795034671404280302e-02,2.888062603362916148e-02,-4.454755366106855075e-02,-3.376751093392084749e-03,5.150445699691772461e-01
5.056657022403858726e-01,-3.188148643004137806e-02,-4.338731408726828609e-02,1.461707083186842421e-02,-9.881122824348892095e-03,1.357176610854529588e-03,5.442551970481872559e-01
5.037244608739268603e-01,-3.572848172952189372e-02,-3.082663244843583672e-02,1.051945103646427342e-02,-3.503238914129116685e-03,9.662051199379028538e-04,5.373646616935729980e-01
5.203556277063976498e-01,-4.207994156368849437e-02,-4.415389886761766913e-02,1.866682590020540822e-02,-1.397163153608933957e-02,-1.053693317073562579e-03,5.649237632751464844e-01
5.032793530440473617e-01,-3.602509474762607966e-02,-3.615144570811051894e-02,1.113480676332828309e-02,-7.110309652885071080e-03,2.582280716744117782e-03,5.398713350296020508e-01
4.922237953578679215e-01,-3.459771117888923997e-02,-3.660210524779028418e-02,-1.000516661363715087e-02,-1.594820306464991150e-02,-4.693792107973472627e-03,5.288953781127929688e-01
4.852812777254563725e-01,-3.064557484657678965e-02,-3.221967325741462163e-02,-7.769576134144440607e-03,-6.697549301149459226e-03,-2.561391609360757810e-04,5.170212388038635254e-01
5.132448084612515338e-01,-3.051705796946735383e-02,-3.490760314514074203e-02,4.567753438185047192e-03,-2.331090141348954314e-02,-3.086665462396811967e-03,5.475445389747619629e-01
5.006575500544420132e-01,-3.410203601356451286e-02,-3.973886002018509056e-02,-6.407494213467525464e-03,-2.878342974230570228e-02,-6.558790265594968000e-03,5.401403903961181641e-01
5.022949069627933305e-01,-3.243680695717685025e-02,-3.458326374994130648e-02,5.900964279068722854e-04,-9.654848880105346837e-03,-2.189354902067976432e-03,5.360834598541259766e-01
5.334290876046943186e-01,2.935641720931866927e-02,-3.714609646991906544e-02,3.665328248211482867e-03,7.618357072998929898e-03,3.274923845741085221e-02,5.435677766799926758e-01
5.330265817646309134e-01,2.813341445640893390e-02,-5.219929590494751248e-02,1.500549513089668736e-03,4.531143852986056417e-03,1.253945484553191034e-02,5.499727129936218262e-01
5.178517059635967534e-01,1.363873605330948036e-02,-2.448466422992701119e-02,2.342421957852914953e-03,1.450720217205798881e-03,1.086100232678339876e-02,5.246742367744445801e-01
5.381145611378739257e-01,-9.625682533221963100e-03,-3.713199182264406706e-02,-6.899798975168303268e-03,-3.452307218877559251e-03,1.073125094284774206e-02,5.624645352363586426e-01
5.232157449387919712e-01,-6.074701590275177754e-03,-2.899427967979922860e-02,-9.288584029885013638e-03,8.983915225116084063e-03,2.008887095105910126e-02,5.426936745643615723e-01
4.926292554986737571e-01,-2.923305373061388379e-02,-2.447200822004347298e-02,-1.285978349763390940e-02,-1.704409694680672840e-02,2.957308928114315075e-03,5.208379626274108887e-01
4.678328069607059492e-01,-4.061455929126572828e-02,-2.815822379732180192e-02,-4.469988591626179036e-02,-2.369336798367314631e-02,-1.051314166789795584e-02,5.102454423904418945e-01
4.410049364085724677e-01,-4.122267054205097647e-02,-2.106040523686864008e-02,-2.251193633408596351e-02,-5.102818327967315916e-03,-8.716530538288792124e-03,4.743981361389160156e-01
4.985956155637326082e-01,-4.186241779636398763e-02,-3.155193622412008625e-02,-1.200236381720888243e-02,-1.926701195520279936e-02,-1.128606532240285405e-02,5.371748208999633789e-01
4.739279004025721553e-01,-3.328570845033923531e-02,-3.932761772513138077e-02,-3.237932440949969470e-03,-1.219910776237089975e-02,-1.136339427624229355e-02,5.111085772514343262e-01
4.435124333824967402e-01,-3.064603032040991160e-02,-3.289541165093032293e-02,-2.211979843108214175e-02,-1.410047200723697422e-02,-1.362491307114072590e-02,4.780367314815521240e-01
4.239765214302275154e-01,-3.008147572979855133e-02,-2.509838611549464193e-02,-2.517021349821768963e-02,-3.442116093589771969e-02,-1.417454833895232663e-02,4.582452476024627686e-01
5.394900481541338166e-01,-2.382662692665607485e-02,-3.313081368954853834e-02,1.062498299970436252e-02,9.662231956502140154e-04,-1.170897968912606307e-02,5.686881542205810547e-01
5.298908959649226702e-01,-3.675403854033404416e-02,-4.654922217061305267e-02,-5.658809038312985484e-03,1.788240019141409259e-02,1.456262032039576989e-03,5.725334882736206055e-01
5.099736790421045551e-01,-2.668757474078442549e-02,-3.524338009681537986e-02,-5.301310183744140613e-03,1.665971045787851754e-02,-8.271746057282180695e-03,5.420261025428771973e-01
5.102409382326282827e-01,-2.621905926910619855e-02,-3.096298604205355298e-02,-1.212120447404878461e-02,1.719101988126019512e-02,-4.097478664012923523e-03,5.401245355606079102e-01
5.757996972772706501e-01,-2.796709928506041498e-02,-3.928658648313052004e-02,-2.340614057806079951e-02,3.755053696619806841e-02,-8.103585807035785377e-03,6.144651770591735840e-01
5.398874116693518355e-01,-2.246443154000549169e-02,-3.802385006036068660e-02,-9.631321552413380643e-03,7.639244024204339166e-04,-3.036994054382093338e-03,5.705604553222656250e-01
4.968078774541378473e-01,-3.905433956064832679e-02,-4.332658400054550940e-02,9.889508944218880146e-03,-3.471009937554278297e-03,8.977618678489661733e-03,5.385417938232421875e-01
5.155843423592670893e-01,-3.896300429618376748e-02,-3.739184130160472241e-02,7.314705880693751772e-03,2.517794643193320501e-03,5.868743858739113722e-03,5.540187954902648926e-01
4.723455816466431423e-01,-3.762980916457484004e-02,-4.131907940614765185e-02,1.442400892862860835e-02,-2.269435434601563967e-02,8.154994045707382802e-03,5.141388177871704102e-01
5.242625411446329986e-01,-4.194243154842425270e-02,-4.436048645860093953e-02,1.153520850609402078e-02,-1.435074531607693875e-02,9.758041453973697460e-03,5.685645937919616699e-01
5.085866020488325479e-01,-3.339363576631990127e-02,-3.052899419318438889e-02,1.295312706676060056e-02,-6.020627067395973968e-03,-1.341537508842132777e-03,5.411244630813598633e-01
5.019801454952609321e-01,-4.452067732684694690e-02,-3.590393141762115992e-02,1.111812826719874372e-02,-9.652395856018635562e-03,5.484642015960003794e-03,5.429262518882751465e-01
5.222951064061973625e-01,-1.620482453725857752e-02,-2.411609338474351993e-02,-4.549486718817529959e-03,-7.549496175375911000e-03,1.052086293746499514e-02,5.430194735527038574e-01
5.253939012816676302e-01,-1.186335672790006512e-02,3.435013741473841309e-03,-7.583601317612971224e-03,-9.940069811376094078e-03,2.032081422352869857e-02,5.313830971717834473e-01
5.256758134128589610e-01,-1.885491827390819997e-02,-1.175955847593668224e-02,-2.042951084749207100e-03,-3.291515271906697310e-03,9.600668135097030487e-03,5.413150191307067871e-01
5.175452542487696261e-01,-1.498576707000651154e-02,-1.572673997508577948e-02,-7.143137415990511059e-04,-8.508062404219686415e-04,1.140370940220654730e-02,5.332713127136230469e-01
5.194667963889887385e-01,-1.541805501610246654e-02,-2.019697880095325249e-02,-5.133612697395360932e-04,-3.007819224889109189e-03,1.244574292211252098e-02,5.377485156059265137e-01
5.268144798773504167e-01,-1.235486369877628055e-02,-1.749417851486276265e-02,-8.382860437817623092e-03,-4.308062017419922473e-04,2.222506857028653734e-02,5.433177351951599121e-01
5.219696962814244223e-01,-1.643628891798465386e-02,-2.332891882605614420e-02,-8.160026478497192301e-03,-1.031501598810023387e-02,7.881083476316535358e-03,5.425355434417724609e-01
4.231594168819561297e-01,-3.311050960573796997e-02,-2.741218272516335319e-02,-5.071338899777686621e-02,-8.703922048402370007e-03,3.539336906417562233e-03,4.621635377407073975e-01
5.250962409725761226e-01,-4.212038967096887188e-02,-1.011117167810898776e-02,5.830072441755405205e-03,-1.259892689197064652e-02,-4.686227067276079079e-03,5.524917840957641602e-01
4.401574330458879469e-01,-4.058448639190834206e-02,-2.090081050721381839e-02,-3.313363064083340442e-02,-4.588798527479826146e-03,-1.036779984591211165e-02,4.750964343547821045e-01
4.576369780065120962e-01,-2.295656675267371272e-02,-3.157298974982694628e-02,-3.354443092957293260e-02,-9.974119772614227844e-03,3.515713471338004822e-03,4.887705147266387939e-01
4.052846135265280592e-01,-3.076490736700757123e-02,-2.258410926567847032e-02,-4.988941829500476155e-02,-2.984925564056827366e-02,-7.343636009047680747e-03,4.437797367572784424e-01
4.663893713967478538e-01,-4.017478050343201157e-02,-3.015247135803364453e-02,-3.698692936408441712e-02,-2.005838138992151534e-02,-1.293493419865474579e-02,5.073891878128051758e-01
4.363962394033503722e-01,-4.173764038539501398e-02,-2.043959705304490559e-02,-4.428358289615449278e-02,-1.988590514548193439e-02,-1.109885852925761654e-02,4.757323861122131348e-01
4.834945049299795294e-01,-5.317684351684118238e-02,-3.515786965378120410e-02,-3.337684021585683031e-02,-1.767690719086251541e-02,-8.300601687375598614e-03,5.321246981620788574e-01
4.813288284544808837e-01,-2.223655931172185962e-02,-4.065543698990914390e-02,2.633501048611882646e-03,-1.269747517423044404e-02,2.204800232433146764e-03,5.135285258293151855e-01
4.855827643717555153e-01,-2.295838653471685142e-02,-5.242635706346765456e-02,-1.771626009403304194e-03,-1.817170786613383701e-02,-4.119660680841939282e-04,5.248511433601379395e-01
4.785262396613616520e-01,-2.811163020519366618e-02,-4.606895655616852214e-02,-7.871385504459723834e-03,-3.571950980773307138e-02,-3.716864557253333166e-04,5.197270512580871582e-01
4.849168729210804329e-01,-2.512937707702300738e-02,-3.786029040669630641e-02,-2.949583419083456610e-04,-1.850270230545481356e-02,-6.713100175566964886e-04,5.175241827964782715e-01
4.735397339775017089e-01,-2.127731460479609371e-02,-5.581787302264296091e-02,5.926061730119053586e-03,-5.337384703577305496e-03,5.428205081202849532e-04,5.131470561027526855e-01
4.810774921954498740e-01,-2.336809341085047120e-02,-5.293740906841823413e-02,-3.828404034771153500e-03,-1.662318845360509847e-02,-6.271862980724943540e-03,5.208135843276977539e-01
4.794590045013455426e-01,-2.412154499012256204e-02,-5.251943373096418233e-02,-5.126648630017291951e-03,-1.093167741658013226e-02,-2.715231723772497472e-03,5.188062191009521484e-01
5.103612787712434873e-01,-3.811511743923970408e-02,-3.572764928771066106e-02,-9.587592899069996653e-04,1.505484718867849600e-04,-9.566416967713698132e-04,5.472916364669799805e-01
4.327605480690137618e-01,-1.982477233325191657e-02,-4.071803631878484486e-02,-7.027524206770938099e-04,-3.117252580715398555e-02,2.666688215648433530e-03,4.665447175502777100e-01
4.627757752991157325e-01,-2.021405726843536477e-02,-4.962570047220998815e-02,5.340085337605689556e-03,-2.452362502256739268e-02,4.497081204186030925e-03,5.003001093864440918e-01
4.323585436107729718e-01,-2.129270705452562806e-02,-4.711271449505072262e-02,4.613024297793182765e-04,-4.338228864602958895e-02,-5.791105131197563614e-03,4.732089638710021973e-01
5.426992585166556804e-01,1.430983902499816107e-02,-3.747612589027957131e-02,2.913447556833673874e-02,-5.190620586463077710e-03,4.256826190398101811e-02,5.632972121238708496e-01
5.482293360801845372e-01,-4.343401102855723450e-02,-3.245538430967967458e-02,3.590594387138183047e-02,-2.842823416378658860e-02,-1.251357126738278759e-03,5.915972590446472168e-01
4.757007227365344093e-01,-3.607303630427952101e-02,-3.340657036321845186e-02,5.029571694151470374e-02,-3.034312150955293871e-02,3.347691915449756660e-03,5.205185413360595703e-01
5.108506978536118126e-01,-1.640547068860404023e-02,-2.981728475123612832e-02,2.376922313887078544e-02,-9.849965178042537767e-03,-1.294361628835256732e-02,5.364130735397338867e-01
4.800359386137919571e-01,-4.100688737501856362e-02,-3.017666361094853422e-02,5.941322185532173922e-02,-2.493091129460311625e-03,-1.882640065647940217e-02,5.269076228141784668e-01
5.228978970762976353e-01,-3.785041122723720175e-02,-2.066902719910121422e-02,1.552179349459279628e-02,-6.318954190181585648e-03,-8.306561160231975757e-03,5.533073544502258301e-01
5.423253987983172042e-01,-4.127289153300325864e-02,-3.787017619126339940e-02,9.829182039881591629e-03,-1.051761594753776105e-02,1.256066953330942960e-03,5.824424028396606445e-01
5.336191903270310899e-01,-3.955320247868571171e-02,-3.538674141229611325e-02,1.338433402415047969e-02,4.499477724637359656e-03,-4.665307120703473414e-04,5.716245770454406738e-01
5.293965090564105580e-01,-3.684418438237127558e-02,-4.234483228542962330e-02,7.285602258893042818e-04,3.886085855694259867e-05,-1.418822677731416265e-03,5.690176486968994141e-01
4.736880418988591024e-01,-2.850840708441260141e-02,-3.628852435366852758e-02,4.992039834162673856e-02,-3.357662197323021958e-02,7.625729928299141043e-03,5.169155597686767578e-01
4.974855443463953031e-01,-3.458250010415567233e-02,-3.259047742682302795e-02,1.732328749379868915e-02,3.964954423250421716e-04,-2.680207398256181494e-03,5.319424867630004883e-01
4.938437585586934464e-01,-3.377081216932570351e-02,-3.508486095440965791e-02,1.030638443138070376e-02,-9.926139128546620019e-03,-8.541194059360332404e-04,5.288559198379516602e-01
5.234285228177228966e-01,-3.698888311987347244e-02,-3.603620734200801978e-02,-3.542436182582715375e-03,-1.870824709376912561e-03,-3.715992854219617343e-03,5.600216388702392578e-01
5.206981744841205906e-01,-3.458129694814077171e-02,-3.422074647170844641e-02,3.690327259414443676e-03,3.010326809216816186e-03,-3.721301100149338251e-04,5.551609396934509277e-01
5.221651495216623751e-01,-3.515228791088681470e-02,-3.961005671808937034e-02,-2.106617647791503463e-03,-3.246569167782752032e-03,-1.478953897787356041e-03,5.596056580543518066e-01
4.346903649867381869e-01,-3.241798164389061987e-02,-1.690975906180938737e-02,1.263710196890381740e-03,3.334979722193831065e-04,-4.402036142568369233e-03,4.596193432807922363e-01
4.884094292307956109e-01,-2.800417385081122035e-02,-4.277312942660849160e-02,2.419457156307630238e-02,-2.451495146693166011e-02,5.018834200950487816e-03,5.274112820625305176e-01
5.329893001010490572e-01,1.251102324050204495e-02,-3.998809324304788970e-02,-4.507674142646263434e-03,-1.711737467688387868e-03,1.928868405461843169e-02,5.496947765350341797e-01
5.485586122247603225e-01,-8.119772372550737582e-03,-5.431367625329328042e-02,-1.338528575266811627e-01,-1.041399519274959357e-01,7.242974533606214016e-02,6.631464362144470215e-01
4.727222015793861587e-01,-3.166860931789422517e-02,-4.095148659206288011e-02,1.801180748041010873e-02,-2.176517494180156553e-02,9.700335704760067179e-03,5.117178559303283691e-01
4.850532181730412007e-01,-2.834100010834653127e-02,-4.914355592927174832e-02,1.672871172869678895e-03,1.051974992278491153e-03,7.028427628872502102e-03,5.242577791213989258e-01
4.782182834778095915e-01,-2.844307494742170928e-02,-4.233178998172662522e-02,-1.060914159218541604e-03,-4.020197943720010651e-03,9.191490597921493644e-03,5.140435695648193359e-01
4.892242919436525228e-01,-3.243452642268018771e-02,-3.793206462019715897e-02,1.366639515620757944e-02,2.182835296753640048e-02,-1.251618138236034296e-03,5.263273119926452637e-01
3.473720909500878640e-01,-4.634954726140677606e-02,7.788941807139723728e-03,-3.245856706665423835e-02,7.817258027066471826e-02,-1.052171765730761446e-02,3.980676531791687012e-01
6.244389980392397455e-01,3.331981367050296239e-02,-6.398960298878092479e-02,-2.490512754676432045e-02,-4.117432487412861671e-03,1.487581146416576102e-03,6.467849612236022949e-01
5.202269544376291188e-01,-3.430146934382646839e-02,-3.639658729960321137e-02,1.624550121417852461e-02,3.691685703926201462e-02,1.460209429219554936e-03,5.599595308303833008e-01
4.106863450204454868e-01,-5.553769688471663080e-02,6.003419793251391079e-04,-1.660730407638672315e-02,7.909985280694087351e-02,-3.910458539797029461e-03,4.625873565673828125e-01
5.145350890112447839e-01,-6.366838181969650123e-02,8.992544884493719470e-03,5.578673695563594707e-03,2.339572984022464039e-02,-1.263172137270129891e-02,5.475401282310485840e-01
5.324612948897584630e-01,-3.818192854717031293e-02,-3.316387991138808333e-02,-6.330436806312951352e-03,2.000105401919802239e-02,5.560562914971294707e-03,5.693930387496948242e-01
4.116873375851384798e-01,-4.211958612927124701e-02,-1.477924822740417365e-02,-8.468728217601544095e-02,1.580010872863666510e-02,4.050729558045797381e-03,4.653976261615753174e-01
4.835369316448854815e-01,-3.590933440802698828e-02,-3.261291790608036867e-02,-1.403241082362686500e-02,1.726432993735593432e-02,-9.310425321048015207e-03,5.194881558418273926e-01
5.222302708325143872e-01,-1.923811685415111050e-02,-2.537426538908055251e-02,1.184574450680393048e-03,1.265706840632384788e-03,5.383949101764583592e-03,5.446504950523376465e-01
5.320532366534321822e-01,-3.881479930694067826e-02,1.150176345271902711e-02,-1.641447154189687148e-03,2.120952001062673554e-03,2.297017721803247536e-02,5.489102005958557129e-01
5.216085341397654895e-01,-2.780764484563663652e-02,-9.364429053845713113e-03,-7.620222562109557098e-03,-7.455370968712436014e-03,3.410131291979585748e-03,5.407782793045043945e-01
5.218648807780866816e-01,-2.768529761595170391e-02,5.615628879159312303e-03,-3.863840393732535187e-03,-5.280139548287684018e-03,3.713447568179622637e-03,5.338385701179504395e-01
5.256745095628153619e-01,-3.289908838284338888e-02,1.118591148833775195e-02,-2.308674602849742057e-03,-4.749497686106002835e-03,2.013139464374204268e-02,5.390943288803100586e-01
5.441362972457868263e-01,-2.645820949161215019e-02,1.347965202388401451e-02,5.111423231703125791e-03,4.906941095658473931e-03,3.276598850358133225e-02,5.547578334808349609e-01
5.193219524751233607e-01,6.924895095336280892e-03,-2.847330452452712102e-02,-2.536362584852769201e-04,-4.964170914180101798e-04,4.810252832921497503e-03,5.310480594635009766e-01
5.271884214262155810e-01,-3.462984968097468363e-02,1.339375860843866617e-02,-1.362498660565453863e-03,-4.699330786782177430e-03,1.378668667236453149e-02,5.400069952011108398e-01
5.210255975111574012e-01,-3.565240118694196214e-02,1.833969579803443328e-02,-1.389090201585780129e-03,-4.297702458640056088e-03,1.132993241595096033e-02,5.321612954139709473e-01
5.179656345487704261e-01,-3.465190408763382801e-02,1.575072658474233056e-02,-1.462909874552445087e-03,-9.908768050219179599e-04,1.181958976392494601e-02,5.296241044998168945e-01
4.984938580588582080e-01,-5.532625635172805367e-02,-2.367992852207295718e-02,-7.611044525970777318e-03,1.790535434901351910e-03,-1.265383742856403910e-03,5.388692021369934082e-01
4.856226459733946621e-01,-5.752776870270709386e-02,-2.305685907283480662e-02,-1.182670706330429941e-03,2.772398876889291784e-03,-1.689036761715485271e-03,5.267955660820007324e-01
5.100028169114084742e-01,-1.993412858952006705e-02,-1.384279968999957422e-02,-1.469401741213457535e-03,-1.027304505468134730e-03,2.649316253737842887e-03,5.269468426704406738e-01
4.687717056389990589e-01,-3.895701405507717707e-02,-2.197499300253807908e-02,-2.827287956654248036e-02,3.487578212622596471e-03,-4.157884321805764907e-03,5.019372701644897461e-01
4.894833537621473551e-01,-4.760979916251065203e-02,-2.352436247125241908e-02,-5.390644273347540774e-03,-1.047663459611603660e-03,1.513871088368232186e-03,5.255572199821472168e-01
4.939436211926285236e-01,-3.974823991796716527e-02,-3.157588794810611832e-02,-9.532176388925776844e-03,-5.250033500582512377e-03,-5.216306276087378201e-03,5.300652384757995605e-01
4.884227093216943483e-01,-5.751025651308913633e-02,-2.388924835469138919e-02,-4.024614036507999024e-03,2.287281888816486506e-03,-2.618798216660741737e-03,5.300030112266540527e-01
4.999341419614267146e-01,-4.564177468117427972e-02,-3.109569629064479201e-02,-1.473384939338586060e-02,-9.110020735506726627e-03,-5.995458219371229899e-03,5.393855571746826172e-01
4.299456571969776375e-01,-4.270333405618351175e-02,-1.449616826272398518e-02,-4.866553818247464774e-02,-1.055376562361625900e-02,-1.472189678928415056e-03,4.672325849533081055e-01
4.527142085450456266e-01,-3.846050370232487192e-02,-3.078764110120846276e-02,3.864866646240897041e-02,-1.328096804189542700e-02,7.641049133308095917e-03,4.926745593547821045e-01
4.539529917743816978e-01,-3.837642182445794026e-02,-3.349829263055453810e-02,3.772473234336792131e-02,-1.301330539233277149e-02,6.039347167025823325e-03,4.948710203170776367e-01
4.148516195166208065e-01,-1.771794778909588364e-02,-3.193891072871946069e-02,9.435576120273271583e-02,-1.256878524920190983e-02,-1.541313884721765351e-03,4.697449207305908203e-01
4.779097517050343580e-01,-3.996389732415109308e-02,-2.958275644284732997e-02,-2.636280683850852902e-02,2.469870929499348722e-02,9.360068683982928489e-03,5.168197751045227051e-01
4.263671496489218060e-01,-1.554106553371673027e-02,-2.408209763818464078e-02,-2.240844696093011873e-02,2.142544375718448066e-02,1.744559133742178266e-03,4.494695365428924561e-01
4.179160665897468929e-01,-4.131404103209096457e-02,-1.848962916037763526e-02,-6.701475702823318781e-02,1.128514826868643427e-02,7.766363694770487755e-03,4.636459052562713623e-01
5.186035407869620251e-01,-3.495729205704109499e-02,9.275399364177372430e-03,2.272070663023939357e-04,-6.321203915837645586e-04,-5.235007548843062866e-03,5.329017043113708496e-01
4.746776333074795295e-01,-4.712242850227865709e-02,-2.296939379426965466e-02,-2.903450185804029235e-02,5.396477114190227804e-03,5.705232069547578819e-03,5.128056406974792480e-01
4.310998544496060791e-01,-2.655469360911952292e-02,-3.459726783960018204e-02,-5.086625983256863603e-02,4.471809412796552696e-02,-4.179488452305793814e-03,4.764522612094879150e-01
3.492440071244881095e-01,-2.192590118695589285e-02,-1.145472674624614662e-02,-7.172801427292205267e-02,1.739699370405478271e-02,2.183969746803669700e-03,3.877462446689605713e-01
4.216525978251274287e-01,-4.315848733359312073e-02,-1.449463033867134931e-02,-3.464012358809885617e-02,2.176692205978281516e-02,3.117067931010076599e-03,4.567253589630126953e-01
5.194675841592941712e-01,-8.087779870649458580e-03,-1.131600655485934248e-02,2.965687589911850976e-04,-1.230656186250393908e-03,1.741738904425719700e-02,5.300406217575073242e-01
5.173525604307482872e-01,1.530140727298537340e-02,-1.638533700889108213e-02,-2.580355828115177882e-03,-2.149948818785684269e-03,2.419425095019343830e-02,5.203438401222229004e-01
5.185733019044189707e-01,5.557176841701372272e-03,-1.074212046397921005e-02,2.008699575334369197e-03,2.258157565792009817e-03,2.378757228045243546e-02,5.230085849761962891e-01
5.331907340928191408e-01,-2.545817493523497288e-02,4.962813773932567285e-03,1.065137752634221727e-04,-6.616979065425553259e-03,4.097651473580360415e-02,5.488059520721435547e-01
5.379253544712782054e-01,-1.233496128767905264e-02,-1.312173934266655517e-02,7.383194841299778148e-03,7.497343540095562087e-03,2.440028448478570242e-02,5.525742173194885254e-01
5.195671915431200327e-01,-2.946166088993562582e-02,-1.107980172827593979e-02,-3.161810424469017368e-03,-3.045526558519610991e-04,7.103108926866363512e-03,5.402407050132751465e-01
5.044123308698714725e-01,-4.004276466921982691e-02,-4.048853412937922225e-02,-5.845926962475800868e-04,6.723854007989305860e-03,-7.637214027230036610e-03,5.449641346931457520e-01
5.184731104811114433e-01,-1.193159924945835781e-02,-1.789957008778583769e-02,-5.516682398548154731e-03,-2.452671415096936008e-03,1.297795202646294214e-02,5.339895486831665039e-01
5.232547432454724978e-01,-1.873080604257240656e-02,-2.389686596220966242e-02,-6.676356742947671744e-03,-8.278974678836039172e-03,6.322665393995999771e-03,5.450084805488586426e-01
5.354610217792856730e-01,-1.326658753532544699e-02,-1.200710711702387967e-02,-3.666088766545807370e-03,2.660217752943706826e-03,1.875097103942363966e-02,5.491163730621337891e-01
5.570118005838691211e-01,-4.237870318408518133e-02,-2.356464489588788735e-03,-1.860033779864564071e-03,1.739402644341547788e-02,2.831345182389852916e-02,5.832707881927490234e-01
5.636022583785766926e-01,-3.386955802386723557e-02,5.266711739868645825e-03,8.400914531003288860e-03,2.461633857580811883e-03,1.878499154858260037e-02,5.800085663795471191e-01
5.364793371333611560e-01,-2.786875813437639238e-02,1.989077225873792099e-02,-8.182005739488417339e-04,-3.225575018538731371e-03,2.915420805635645166e-02,5.444262027740478516e-01
5.837287218617448481e-01,-4.505386265039587612e-02,4.099082666191866675e-02,-5.788106982775318918e-03,9.933256186903393486e-03,4.113082586917111982e-02,5.950962901115417480e-01
5.667440619672856617e-01,-4.335904236939586154e-02,4.125883552347123229e-02,3.940850905900606348e-03,7.178269814107505510e-03,4.236866244326979725e-02,5.773619413375854492e-01
5.772371687257724648e-01,-2.808197481170821019e-02,5.024737574634813297e-03,-1.607917185939520405e-02,-1.585589298987671522e-02,4.099522718536107585e-02,5.950116515159606934e-01
4.348044464260568120e-01,-1.391275784056389409e-02,-4.509427462922818708e-02,2.317121519493562428e-03,1.955547531180185789e-02,4.060759064869190471e-03,4.663946032524108887e-01
3.619762305700801042e-01,4.160737010981963024e-03,-1.638904551016132083e-02,5.191628514226301512e-03,3.411199906870945181e-02,1.126849048881568171e-04,3.733350038528442383e-01
3.768725191588376267e-01,-1.092196937818371016e-02,-1.796221738463077422e-02,-3.614045260150619554e-02,3.880329948732036405e-02,4.638677901627124428e-03,4.020750522613525391e-01
4.157960264524770966e-01,-2.356893914942032042e-02,-3.203683668623469316e-02,3.715557712896795390e-03,4.241895943337883890e-02,-9.684440462507612826e-03,4.500607252120971680e-01
4.735199254009900827e-01,-1.588401171808292989e-02,-4.792753078154257662e-02,8.631177792797435633e-03,1.716393798979874014e-02,2.585701650281435181e-03,5.072993040084838867e-01
5.239646750220544602e-01,-2.303431833248839600e-02,-4.107513274175522699e-03,2.500491410857405474e-03,2.175831814177393506e-03,1.673322428178477747e-02,5.385964512825012207e-01
5.442178950895418810e-01,-2.125428765534018161e-02,-4.801201644004371438e-02,-3.614447265095087347e-02,-1.110498373363779170e-02,3.920962520428327228e-03,5.830444693565368652e-01
5.366012700289226611e-01,-7.238544549980185927e-03,-4.925268139520430632e-02,-2.851465634142374625e-02,-1.486131092787554243e-03,9.235161095212940374e-03,5.683991909027099609e-01
5.226199714250161499e-01,1.214037328262890236e-03,-4.552298577475191732e-02,-3.085051557660661511e-02,-9.855234024448459793e-03,9.404226713174966903e-03,5.493900179862976074e-01
5.357617469810977973e-01,1.596556587546180128e-02,-5.683741789791574295e-02,-1.420050505965689096e-02,3.708921515381688721e-03,2.034148450381575643e-02,5.614433288574218750e-01
5.348772622523507714e-01,-3.805497337066035546e-02,-2.698413926396844853e-02,3.720764320597284847e-02,-2.768062066962536510e-02,-7.142905406718447724e-03,5.732678174972534180e-01
5.372747003587386994e-01,-1.810737355753377908e-03,-2.578204057140756622e-02,1.460592567014358349e-03,1.209207724552105803e-02,-2.444422374556476027e-02,5.534870624542236328e-01
5.081769231507942131e-01,-5.997599526702923622e-03,-3.337844419472824065e-02,1.914986753999972646e-02,-1.273136150963169108e-02,-1.810768608273678748e-02,5.308236479759216309e-01
5.374173398653228073e-01,-1.544013809540203952e-02,-2.315749331015856671e-02,7.448992825051898962e-03,-1.042402692905265021e-02,-1.319805587099615561e-02,5.576670765876770020e-01
5.052411087836843340e-01,-3.832547033992655949e-02,-1.628925129237152047e-02,1.174725862682160504e-02,-2.341531357222555870e-02,-1.484791315835712030e-03,5.348247289657592773e-01
5.302091973893368060e-01,-4.624838443461740112e-02,-1.938071135697705394e-02,3.377073599324436834e-03,-5.195706727552598658e-02,-7.134160070749523061e-03,5.708087682723999023e-01
4.915320880421091831e-01,-3.939914676243197467e-02,-2.738787716857221666e-02,2.487528836370736865e-02,-3.890018869423664954e-02,-6.043503716457314899e-03,5.311880111694335938e-01
4.859706693813200529e-01,-4.608586227624578147e-02,-1.918120002621340192e-02,4.108548037228289262e-02,-4.441106134468749550e-02,-1.320620539495755835e-02,5.300920009613037109e-01
5.307734893428973644e-01,-6.126864242833734986e-02,-8.352092067165806100e-03,2.234003312985402209e-02,-9.629137325994902366e-03,-8.293979537412884961e-03,5.691809654235839844e-01
5.137610445174816132e-01,-1.719577310332234821e-02,1.935530659422451949e-03,-2.143994169405400926e-03,1.252861661399941621e-03,9.431778584336620794e-03,5.219277739524841309e-01
5.191455245469427382e-01,-3.726082187500245890e-02,-6.593283559504115043e-03,1.466174463499327237e-02,-1.106298204715037981e-02,-1.568458122182644909e-02,5.433369278907775879e-01
5.174075371367723442e-01,-8.679436619994540525e-03,-1.520016152430067602e-02,-3.818115288887376658e-03,-5.096980380807437754e-03,9.785392131641194868e-03,5.297635793685913086e-01
5.136086329708158260e-01,-1.169110475468707055e-02,-1.105372824303596513e-02,-1.522260022730515926e-03,-1.757477236559000814e-03,6.559770514910525166e-03,5.251197218894958496e-01
5.128757916113506621e-01,-8.281643010026928931e-03,-1.347384715651070430e-02,1.082873568644780174e-03,-5.146628269217111591e-04,4.158483160822576755e-03,5.238264799118041992e-01
5.131820378785905135e-01,-6.578141279099114502e-03,-1.804906049427654202e-02,7.497946375670465997e-04,1.806861317188550591e-04,3.389763584516492130e-03,5.256240367889404297e-01
5.111668555172104167e-01,-4.870041365204691441e-03,-1.637616263305760600e-02,-3.761838008124007530e-03,-5.721438049650378775e-04,2.033061553167551244e-02,5.231132507324218750e-01
5.192214267629207125e-01,-1.024804617152447195e-02,-2.428802854960793178e-02,-3.639376016094895538e-03,-4.394936374303116608e-03,8.272655180390305410e-03,5.369094610214233398e-01
5.172346228718153194e-01,-2.189043913710253531e-02,-4.835710065873966013e-03,-3.211793891087430519e-03,1.809779114348903902e-03,4.959530250586321846e-03,5.309111475944519043e-01
5.197320123589683760e-01,-9.444027492018586267e-03,6.428605239949231054e-03,-6.274808818725021581e-03,-4.729127113234821329e-03,2.776820148911500127e-02,5.238112807273864746e-01
5.518572426439327661e-01,-4.393375790904624489e-03,-2.024276280893094748e-02,-4.403243326224458298e-03,-6.881411612159812029e-03,3.097546111554615525e-02,5.670633316040039062e-01
5.217496272124764189e-01,1.435120126326849821e-03,-1.077373492079738981e-02,8.804022415889636421e-04,-3.530517983849403396e-06,2.107194472101286617e-02,5.277907848358154297e-01
5.110382859536654054e-01,-4.729109309956877616e-02,-4.099459188759246864e-02,1.479983702857212138e-03,-7.098062689156847509e-04,1.116498406498052723e-03,5.552185773849487305e-01
5.216811894210912071e-01,2.507378078650174258e-03,-1.913523833082533820e-02,-3.256805823101219331e-03,-3.040562708752679068e-03,3.047639113655409987e-02,5.330029129981994629e-01
6.257809195177208572e-01,3.233511925903242989e-02,-8.465349205422462164e-02,-1.283946200735553052e-02,2.331640041700658555e-04,9.452446459496419845e-03,6.603434085845947266e-01
5.526974271152554907e-01,3.630374238398648146e-02,-5.993936116827061622e-02,8.745077659495812750e-04,-4.657676219330848973e-03,4.966839929889698899e-03,5.707590579986572266e-01
5.591814951227889186e-01,3.447813055310816610e-02,-6.321469978673566192e-02,1.513433164941321027e-03,6.456601136734066090e-03,2.866930909858105480e-04,5.798702239990234375e-01
6.370345607344346517e-01,2.699048381900717719e-02,-8.986821669038397298e-02,-4.943651358722028072e-03,9.482940690560557120e-03,4.737882913352622384e-03,6.763942241668701172e-01
5.449404901455926487e-01,3.708118337667110076e-02,-6.266158488108788949e-02,2.025197718668199018e-03,5.450140262355287687e-03,-1.707741873390247744e-04,5.644701123237609863e-01
5.482894312264297021e-01,3.472089409702089347e-02,-6.475585074226997140e-02,-1.921263446811054959e-02,1.067055526634941298e-03,-4.635719564623319404e-03,5.708867311477661133e-01
5.290333726756908383e-01,-4.194099298747586135e-02,-3.838537863049917842e-02,-9.152795068835301202e-04,-6.471983328038881595e-04,-1.852555991744027700e-03,5.692172646522521973e-01
5.002415320144637523e-01,-2.515426662498906896e-02,-3.459494290053868881e-02,-2.787500081726773313e-02,5.172513410658967012e-04,2.260645488636342255e-03,5.323881506919860840e-01
5.212678184868624331e-01,-1.665109007547582731e-02,-4.303727147541666631e-02,-3.397291610342504514e-02,-3.814512156124000297e-02,1.074280792899084264e-02,5.589458346366882324e-01
5.489327909775756353e-01,9.713374617067588312e-03,-4.440898935793577418e-02,-3.330021776262566402e-02,-2.478193310519383186e-02,1.452795215470110979e-02,5.733000636100769043e-01
5.224171810250093362e-01,-2.860852211414627311e-02,-3.692609823984302486e-02,-2.834768298761290717e-02,-9.578297844521804424e-03,6.194725560107821119e-03,5.577480196952819824e-01
5.167715205479005425e-01,-4.768659591450363777e-02,-3.395660007744275011e-02,3.439969102846592974e-03,7.763886750551040813e-04,1.634767656197053153e-03,5.577605366706848145e-01
5.198902038366349787e-01,-1.143456897974079456e-02,-2.483772551826080033e-02,-1.856657763086706422e-02,-9.879495668817508611e-04,2.013903140658404936e-02,5.402415394783020020e-01
5.090550819483206091e-01,1.154548396108029396e-02,-4.652821585326624709e-02,-2.892590994990010267e-02,-7.860705205775742532e-04,1.458702135114970343e-02,5.319125056266784668e-01
5.465744016984671605e-01,5.045715801719502513e-03,-3.986015539062837121e-02,2.125917525634429817e-03,3.038956976947021862e-04,1.335091599620249168e-02,5.658058524131774902e-01
5.513122261973351090e-01,2.868824123676805282e-02,-4.178590802283224659e-02,1.007081923559603569e-02,4.772019397552688426e-03,3.732837362568210832e-02,5.652315616607666016e-01
5.352035096563557692e-01,2.720830645774632850e-02,-2.689230204246415012e-02,-3.151759753557041924e-03,-4.319308339188267752e-03,3.438579031811397207e-02,5.404644012451171875e-01
5.569654283564053898e-01,5.003138045453039973e-02,-6.061072176213877505e-02,3.607564243842897866e-02,2.319676794942625991e-02,3.358226876042234160e-02,5.781124234199523926e-01
5.790021127823934410e-01,-2.153285298738102926e-02,-5.169544271013010173e-02,1.719867446303178365e-02,-9.159852105236979949e-04,1.806614997410069257e-02,6.176850199699401855e-01
5.204108776933247249e-01,-3.474107248829308436e-02,-9.699434339020263085e-03,-2.263230369862195748e-03,8.302036583404722586e-03,-1.406464125433706629e-02,5.438147187232971191e-01
5.042080802397248540e-01,-2.080543390735398179e-02,-2.406216097948907229e-02,-2.479808156947845357e-02,3.475801683723866997e-02,-1.427064998313425960e-02,5.323905944824218750e-01
5.121707119728189372e-01,-3.548206203239137602e-02,-3.239367821856256602e-02,-3.294616216634878216e-03,4.201731031911177042e-03,-1.323722520452654330e-03,5.461982488632202148e-01
5.130862589438240917e-01,-1.717614021853183792e-02,-2.258773676045700007e-02,2.998978795719164404e-03,1.875575127438688710e-03,1.110104589799906175e-03,5.330274701118469238e-01
5.917802123876756415e-01,2.801194510718679753e-02,-5.426968989146463418e-02,-6.159340073384417594e-03,-8.974820377299514221e-03,2.144031350744795075e-02,6.105139255523681641e-01
6.190787857843099706e-01,2.843300518965927171e-02,-6.132284039155128097e-02,2.535221578508506119e-03,-1.368996385987514448e-02,1.753491141639374265e-02,6.414330601692199707e-01
5.908355030204468505e-01,-4.968811330642558532e-03,-4.636462538354349516e-02,-9.167216917869978540e-03,-9.933435985980752780e-03,1.629278487478024590e-02,6.186313033103942871e-01
5.460991717076086882e-01,-9.705355820424726998e-03,-3.819383223707550901e-02,-2.777600100701231589e-02,-3.359379701595846968e-03,1.989448542726319352e-02,5.736724138259887695e-01
5.370312064955405917e-01,3.376178305852622907e-02,-2.808683168551528997e-02,-9.419398890937057470e-03,-2.267564433602147801e-03,4.093782521840422933e-02,5.417944192886352539e-01
5.450537531082053633e-01,2.303233083853042928e-02,-4.896766347193973190e-02,-1.281644233954629120e-02,3.391041933940273120e-04,1.636481182365459586e-02,5.626477003097534180e-01
6.013675471760194791e-01,2.771894679106454151e-02,-5.784853499782274810e-02,-2.935058141789812294e-02,-8.765749947431813321e-03,3.337920969753544603e-02,6.258095502853393555e-01
5.835680570327217431e-01,-5.733614164096387245e-02,2.747725453943467011e-02,1.890320005664741440e-02,7.766226410511541112e-02,3.242797533659361880e-02,6.212207674980163574e-01
6.123461581391715924e-01,1.856278261121777073e-02,-6.585788836592865181e-02,-2.692679535469833657e-02,-2.092970321167343575e-03,2.477413585261880810e-02,6.433216333389282227e-01
5.085965724993815051e-01,-4.162761221878019668e-02,-3.864609259099760497e-02,3.279445968668686685e-03,-3.621053339011040106e-03,2.971322103294171593e-03,5.488288402557373047e-01
4.896821579795251345e-01,-2.907625629612362039e-02,-3.692920674417418669e-02,1.180634851155574171e-02,-3.771056639522731707e-02,7.311492757574309873e-03,5.273429155349731445e-01
4.980894569391963733e-01,-3.274925672686468392e-02,-4.655580109657658783e-02,4.723553762633193702e-03,-6.026947119470677655e-03,7.783825046252358139e-03,5.382072925567626953e-01
5.143896703332035969e-01,-3.617353171324305672e-02,-3.486543772448372214e-02,6.951114112935069707e-03,3.488059660996643656e-03,1.732565040917544673e-03,5.500834584236145020e-01
4.912408861984017827e-01,-3.046615379930292522e-02,-4.402893283607370312e-02,9.707261819439290743e-03,-1.944889302929114078e-02,7.103801229904024503e-03,5.301007628440856934e-01
4.670711373507790420e-01,-2.720779979073342791e-02,-4.321774645473935861e-02,1.111577683176421735e-02,-1.621634098249901540e-02,1.054280903083663033e-02,5.039587616920471191e-01
5.122262307209305421e-01,-3.626567152831264296e-02,-4.453454858903857505e-02,1.469850596623678606e-03,-7.192042680440846082e-03,3.712428957446576704e-03,5.528563857078552246e-01
5.198891212977768683e-01,-2.221767984413572372e-02,-3.290046784296329907e-02,2.350917136447178840e-02,-1.257420923305339021e-02,-1.049916770462614064e-02,5.497710108757019043e-01
4.689936927981505632e-01,-3.218852293883378568e-02,-3.594603470217799801e-02,-1.365058497043858225e-02,-2.815283525005005116e-02,-1.287456826732606349e-02,5.064730644226074219e-01
5.085565190339742525e-01,-3.231325719730970825e-02,-3.604011182239300060e-02,4.976433160746347728e-02,-3.985210656219106279e-03,-8.664757823454358882e-03,5.497927665710449219e-01
5.283548487697968810e-01,-4.118159203962204473e-02,3.488108764420619345e-02,1.922837646880957594e-03,1.084936298492236023e-02,5.917570304983781754e-03,5.360094308853149414e-01
5.148975615048727583e-01,-3.698219608454780816e-02,-3.887309071156247464e-02,2.038035906362219152e-02,-1.190142592306287113e-02,3.846999089335771237e-03,5.543769598007202148e-01
5.067279446660524211e-01,-3.377266108248921928e-02,-2.275533915079386293e-02,1.345616128066707412e-03,-5.638301400681425615e-03,-1.422993782650373677e-02,5.357384681701660156e-01
5.216575267112352199e-01,-2.100405090179272016e-02,2.058072922370701718e-04,-2.931697892281742452e-03,-3.213802333885940575e-03,6.234418346207579349e-03,5.325364470481872559e-01
5.111834261569025983e-01,-2.081265118647504520e-02,-2.341404993817228219e-02,1.116816861514116979e-02,-3.029687715697964960e-03,-1.178335032889960866e-02,5.340681672096252441e-01
5.132541070760880952e-01,-2.148280536296395815e-02,-2.985765588571137608e-02,1.307157370931971534e-02,5.210409163043689708e-03,-1.365811137874932760e-02,5.400423407554626465e-01
5.038646888206683716e-01,-3.746659475291114205e-02,-3.564392338364080759e-02,2.464591433184299199e-02,-1.345515170466832049e-02,1.076721069193594098e-03,5.426095128059387207e-01
5.880994869612088394e-01,4.868723516548012498e-02,-7.578211841767212853e-02,4.628701552640224898e-02,4.788129810905807256e-03,2.972096740363140699e-02,6.186636686325073242e-01
5.514838068365512935e-01,4.966184118377924006e-02,-8.074524634337054696e-02,1.343579564506700887e-02,-1.215391492915158557e-02,3.905919952134118828e-03,5.790534615516662598e-01
6.293791760856995987e-01,4.585358037384504315e-02,-7.899072511315008427e-02,2.607399572604987559e-02,-2.112943267757524859e-03,9.572706475105881990e-03,6.567084193229675293e-01
6.203012452126208665e-01,3.593444223183908659e-02,-8.595071746200927398e-02,2.872254657594713878e-02,9.581127613841637289e-03,6.709270335131719068e-03,6.560881137847900391e-01
5.439699656726865173e-01,4.977505417748691319e-02,-1.130001661642701105e-01,-2.850282124029819564e-02,8.126138677374480923e-02,1.490471147169265820e-02,6.116216182708740234e-01
6.561410241397662713e-01,2.908404349149903978e-02,-9.801717479128213562e-02,-3.122931786373733115e-02,5.691980688657324872e-02,1.932020347504295396e-02,7.090981006622314453e-01
5.953512434189215385e-01,5.078195484747935473e-02,-7.758003933447638056e-02,-1.282679272028631190e-01,8.717567341161278766e-03,-6.142085051474909657e-03,6.577489376068115234e-01
6.172624937647273047e-01,4.541367221309186575e-02,-8.174138799488739338e-02,1.584777689264442804e-02,2.205580616988432954e-02,1.056769065399840689e-02,6.468700170516967773e-01
6.198897159930201184e-01,3.678031739818438117e-02,-6.929843940868785079e-02,-2.023381590649601935e-02,-7.962842409447959402e-03,1.163398853600649228e-02,6.441655755043029785e-01
5.477853109369417162e-01,3.756283514242542143e-02,-6.392821227350192759e-02,-2.460182655756889755e-02,6.474546886262137757e-03,1.107053687867285904e-03,5.695222616195678711e-01
5.276997617667538165e-01,4.037373610606612151e-02,-5.256059017914160858e-02,-2.251871278567312701e-02,3.076537900390982107e-03,6.193510769331803285e-03,5.413663387298583984e-01
5.194004845206141585e-01,-1.497349219984456248e-02,-1.742105873190588627e-02,-1.457953014938487626e-02,-1.089219274700104802e-02,2.153625357116528000e-02,5.378238558769226074e-01
5.204291489024344131e-01,-3.863660801254470423e-02,-3.743947040063930198e-02,-1.387550017784794712e-02,-7.156425184885721429e-03,-1.685972956556550106e-03,5.591300725936889648e-01
5.275296961681434915e-01,-3.551920465170202434e-02,-2.436922283391521060e-02,-1.851745733900540467e-02,5.694004471572610727e-03,5.733623101102209262e-03,5.586546063423156738e-01
5.087850913319813539e-01,-4.372402223993918091e-02,-3.909463305225335805e-02,-5.816214464780217891e-03,-5.861269424797859763e-03,-5.232239841152957691e-03,5.504694581031799316e-01
4.950815819371326976e-01,-3.388754914196773216e-02,-3.157152973623914005e-02,-1.013277261385006449e-02,-9.165182644427992756e-03,-3.094734348013741549e-03,5.283723473548889160e-01
5.104646491648612283e-01,-4.402408243504121743e-02,-3.826432384658870478e-02,-5.836760270815402954e-03,-2.157533965111784434e-03,-6.438208454473658311e-03,5.518493652343750000e-01
3.512082954891488917e-01,-7.025393562916912304e-03,-1.035428795106568822e-04,-8.613812320991823257e-02,1.080602271906558609e-01,-3.355435959283618180e-02,4.319348335266113281e-01
4.643559944972986409e-01,-4.010274639032246347e-02,-3.950182021137091382e-02,-6.927279107396558389e-02,4.527895333025005326e-02,2.221785561158232288e-03,5.241539478302001953e-01
4.993758303774662455e-01,-3.893705973906225193e-02,-4.008421772782488901e-02,-4.518515467183610579e-02,8.464411009982046596e-02,-1.757598420436036653e-03,5.639395713806152344e-01
5.628905689819450053e-01,-5.508550649418225698e-02,2.611583692042215854e-02,1.321616861273641752e-02,6.460517362515494355e-02,2.557124240753714736e-02,5.944028496742248535e-01
5.081364203032419091e-01,-4.643010854864831893e-02,-4.150792401287134448e-02,-5.646370495904492331e-02,8.315089673829706429e-02,-4.890139592688946477e-03,5.789792537689208984e-01
5.251542244418649918e-01,-3.615758279524677876e-02,-3.610347830537391500e-02,-7.212639110032577523e-03,-2.728593520183988236e-02,-1.503660510135344753e-03,5.634154677391052246e-01
4.163849838149165650e-01,-3.129396142824114602e-02,-3.100756622041289656e-02,-3.970872760891696468e-02,-6.835405830136123684e-02,-4.505289751476243207e-03,4.680773317813873291e-01
4.369849440391274098e-01,-2.222727216836714592e-02,-3.229615709488661834e-02,-2.155104885677875184e-02,-7.989886748015997964e-02,-1.077001257354931810e-02,4.863062798976898193e-01
5.225529613054070710e-01,-2.849267486932161031e-02,-2.093984847157479012e-02,2.175128562889000732e-03,6.107055604251581185e-03,-1.128675447771428000e-03,5.474269986152648926e-01
4.913357002563075726e-01,-2.090879460965583414e-02,-1.640746071390139504e-02,-1.408262263483865337e-02,-3.178862741627133670e-02,1.444781223230962551e-02,5.141611099243164062e-01
4.119632510147956950e-01,-2.338534338280778835e-02,-1.409253577660610213e-02,-2.394286301963846966e-02,-4.405542691618738460e-02,6.397250019335130010e-03,4.395842850208282471e-01
4.749104178365259887e-01,-2.937396423813595780e-02,-3.949558527152824405e-02,-4.555063018479296039e-02,-3.409159163573600992e-02,6.417973153776655032e-03,5.189838409423828125e-01
5.215888007710051122e-01,-3.167959781696813581e-02,1.127515325971778504e-02,7.982006959957125549e-04,-4.481409487033228417e-03,1.967343791013733204e-02,5.342366695404052734e-01
4.995665469831875316e-01,-3.115989982161429528e-02,-3.515120812907987502e-02,-5.965733238977629325e-03,-2.914746257596716184e-02,-1.662307237910592072e-03,5.352275967597961426e-01
5.255131654162860100e-01,-3.800751164805812876e-02,-4.176755568251064310e-02,-1.319035876907552734e-03,2.306461397033833700e-04,-6.237050172145372018e-04,5.654158592224121094e-01
5.115252465245173630e-01,-3.749595702467681257e-02,-1.806829087355651953e-02,-5.201899140936828980e-02,-5.296537167705094723e-02,9.986279546850364286e-03,5.549492239952087402e-01
3.786254973936946655e-01,-1.869879434289983822e-03,-2.404732728779368500e-02,1.227295088635503920e-02,-3.225531547160442880e-02,7.141235051026570239e-03,3.967783749103546143e-01
3.686538123396067568e-01,-2.196444189503443667e-02,-5.423552631021344439e-03,3.481393035165616934e-02,-1.370937085386221554e-02,9.583194647987436018e-03,3.884204328060150146e-01
4.010853387918406066e-01,-2.407213907594926705e-02,-2.467661450184993610e-02,4.476077862398059048e-02,-3.934369014463599823e-02,1.015684766837535516e-02,4.381553232669830322e-01
3.590239899416621805e-01,-4.153556713773792763e-03,-4.415907051247558446e-03,1.891234891552077968e-02,-1.404425725736044468e-02,1.520298778651577205e-02,3.665398061275482178e-01
5.629571836197480028e-01,-2.177618524916849485e-02,-4.656000141915520030e-02,-2.879178509817746298e-02,-1.157083689600446087e-02,9.603944722277511781e-03,6.001537442207336426e-01
5.275716746449927719e-01,-3.581568965957165895e-02,-3.739725042925459708e-02,-1.907906704821310875e-02,-1.176521278283831906e-02,8.927315147966687417e-04,5.655161738395690918e-01
5.423396261187272138e-01,1.207773386808100313e-02,-4.664519655566629064e-02,-5.160363088924636811e-04,9.739430847661812579e-03,1.602297934234687624e-02,5.628678202629089355e-01
4.837104637478963354e-01,-2.020433474925478756e-02,-5.524835694880475545e-02,-1.106476549440533769e-03,-3.303404447359183354e-03,2.031715534129603304e-03,5.223659873008728027e-01
5.259588949128162216e-01,-5.321508409726366517e-03,-4.756247045546796448e-02,-2.036386758058007784e-02,2.914353187098642738e-03,9.696654145023639662e-03,5.550104379653930664e-01
5.201142707866971415e-01,-1.273715700294777986e-02,-3.412430322528733906e-02,2.488988489436709181e-03,-7.141353796004036580e-03,9.291603233150038180e-03,5.442562103271484375e-01
5.507787911006390980e-01,-1.105270999024876577e-02,-3.971827670850480718e-02,-7.860524033905918681e-03,-4.815639172689603967e-03,9.316426258656002046e-03,5.771454572677612305e-01
4.817771367370074498e-01,-2.528627346365514006e-02,-5.163897265807859682e-02,1.279428968877864732e-02,-2.033274809981448425e-02,3.184066434747129942e-03,5.224289298057556152e-01
5.025540037547679972e-01,-3.691928904881960904e-02,-4.749600423884733913e-02,1.553201806848687619e-03,-4.457222378901417453e-03,5.039736822448382357e-03,5.449699163436889648e-01
4.892493315190470926e-01,-5.804005882963270135e-02,-2.035064244062415040e-02,3.703543503489028360e-02,2.261174250780849989e-03,6.246904220619173276e-04,5.333390235900878906e-01
3.977610900959830942e-01,-3.465604434335459172e-02,-1.855847597913681812e-02,4.254340747779540577e-02,-1.682233810341626085e-02,-1.072386817476560575e-02,4.323270022869110107e-01
3.152819053345440325e-01,-1.646751373684265940e-02,-1.519572002691874091e-02,9.076055872403657188e-02,2.185410406113634865e-02,-8.047361349493062366e-03,3.687504529953002930e-01
3.907814379589302223e-01,-1.184751491077307151e-02,-1.553668166756130842e-02,4.169821626540993337e-02,-1.706501687998511485e-02,-2.283427099465400525e-03,4.119642674922943115e-01
4.853614588973041433e-01,-4.918658547450435736e-02,-2.381178969728120487e-02,1.384663128930524456e-02,-4.088543391728282662e-03,1.168041378779952587e-02,5.233126282691955566e-01
4.108283674279038511e-01,3.081936522073244755e-02,-1.417863019400855684e-02,1.198975104788680968e-01,3.644297643601664832e-02,2.373543750083333473e-02,4.607948958873748779e-01
3.462475110303816495e-01,-7.007453861326543021e-02,-1.982587028868311452e-02,7.168265252456912850e-04,-7.105126847549104487e-03,-1.326898788267421962e-02,3.944750130176544189e-01
4.330208555313344587e-01,-2.624134187963989007e-02,-2.501866514771666772e-02,7.220895001846626415e-02,1.014433262015951472e-02,-1.079720844738120758e-03,4.757271707057952881e-01
4.159764303148903997e-01,-1.319936179036301782e-02,-2.134033726525882968e-02,8.632870863145411522e-02,-2.019785672812727910e-03,1.318399612736627542e-02,4.589593410491943359e-01
4.712080053372699195e-01,-2.284728478199388180e-02,-4.024634820209893604e-02,-1.444642382824527088e-02,-2.275084412269910358e-02,-9.055801184035693410e-03,5.053853988647460938e-01
5.169426285611896654e-01,-3.650275539538735958e-02,-2.246102544310737970e-02,-1.022389363461916403e-02,-8.912071633318537078e-03,1.276361227169050443e-03,5.470688939094543457e-01
4.845680292180834514e-01,-2.695153014223769516e-02,-4.505341147507560540e-02,-6.002562678370727128e-03,-9.509470490295764827e-03,-2.717845373536502494e-03,5.211918354034423828e-01
4.816013660159366161e-01,-2.563151202110872107e-02,-5.053966999249950853e-02,-4.911016369688559098e-03,-6.929934715968583472e-03,-6.363920217374670688e-03,5.204591751098632812e-01
5.037453892192854665e-01,-3.345992806749545356e-02,-3.878154337109940286e-02,-3.754493382201855040e-03,-1.204015772841207123e-02,-5.759133834882505625e-03,5.404196381568908691e-01
5.187743878948365417e-01,-3.263168276181058203e-02,-2.081195302864652374e-02,5.093745850110849988e-03,2.822498888762916777e-04,3.819876930890072318e-03,5.457038879394531250e-01
5.250402735354202655e-01,-3.871872988811683736e-02,-3.698398276362385717e-02,-3.023037342208783566e-03,-2.216700477295759086e-02,-6.355468617467678952e-03,5.643332004547119141e-01
4.879196620482358915e-01,-3.254103780802045098e-02,-3.201908042742923621e-02,7.982587290759519949e-04,-1.070026676052509944e-02,-2.017170630805414618e-04,5.205318927764892578e-01
5.120989313104482576e-01,-2.908315993673182831e-02,-3.722754985714712972e-02,-3.090027045095279038e-03,-9.129224837152413383e-03,-2.715721318085843731e-04,5.455555915832519531e-01
5.002412017826104451e-01,-3.348997713962301170e-02,-2.491492256064714583e-02,6.495841314803498835e-03,-3.830554106661804726e-03,9.622520065707074405e-04,5.296594500541687012e-01
3.676264059678321372e-01,-1.561752406975092100e-02,1.128833351028646348e-03,-3.374289359307075780e-03,3.444059892640459995e-04,-5.216358667026884180e-03,3.753059506416320801e-01
4.978256406424158009e-01,-4.407443783039494134e-02,-3.494193354798139084e-02,6.062155084646053899e-04,5.858476004203098421e-04,-6.031709185447258793e-03,5.374955534934997559e-01
4.987300330723944963e-01,-2.525422297210991318e-02,-5.589357100812855639e-02,3.477027812455195290e-03,-2.087383040391227636e-03,3.168349730885247281e-03,5.400298833847045898e-01
5.178492422457625644e-01,-3.476459305348830742e-02,-4.037169887895405984e-02,-2.325099135370376760e-04,-1.417289604137763476e-02,-5.489137906750740301e-03,5.560622215270996094e-01
5.172876167156954530e-01,-3.304803386313900915e-02,-4.089472530397572636e-02,1.027752852843091553e-03,-4.406698808706309943e-03,-2.464450947661027749e-03,5.543724894523620605e-01
5.136693373533357532e-01,-3.689532572872394889e-02,-2.982169485955504795e-02,-3.247102966878357734e-03,-1.134361167127162159e-02,-2.751406928053207711e-03,5.474644899368286133e-01
5.052930523965024623e-01,-3.934370793059424609e-02,-3.989027303318154472e-02,-9.716923987440921270e-03,-1.298401321793581781e-02,-8.781282793108736301e-03,5.458456873893737793e-01
5.056857101523132281e-01,-2.799015847569483184e-02,-3.215502762892366584e-02,-2.505253023008572125e-02,-2.004107176689324740e-02,8.454225386963920216e-03,5.388433933258056641e-01
4.851568368565504219e-01,-4.094798712432223819e-02,-3.232802698770995131e-02,-2.200706260493007563e-02,-4.400077485751598301e-03,-8.478473813692152111e-03,5.235000252723693848e-01
5.031316120740845221e-01,-3.184905946507060603e-02,-3.898109638481050965e-02,-1.390424980118560964e-02,-1.636703897042535508e-02,-5.200767655933541227e-03,5.399402379989624023e-01
3.838214842741399790e-01,-8.368608067279348361e-03,-2.858335902875028256e-02,-1.089168599468172266e-01,-2.527389076644339424e-03,3.160871605013688447e-03,4.447330832481384277e-01
4.887294436867997138e-01,-3.914450870348012979e-02,-3.236310629614261303e-02,-2.408874455608311926e-02,-9.799922715897664907e-03,-2.137328407829879647e-03,5.264596939086914062e-01
4.924171930865678393e-01,-3.444425346350099559e-02,-3.175530792847938710e-02,-3.002821295467927171e-02,-7.381803934301350845e-03,-5.841347515156591202e-03,5.283412337303161621e-01
5.110125486468091172e-01,-3.951926019757884267e-02,-3.385179302384419553e-02,-1.836149722904459672e-02,-4.381165784171610691e-03,-2.049937283645805134e-03,5.487065911293029785e-01
4.885897754390208236e-01,-3.277780812603225957e-02,-3.014925218876429724e-02,-2.589298081264926332e-02,-2.972746147252496376e-02,1.999535851647073811e-03,5.245332717895507812e-01
3.864449648483766486e-01,-3.267765022560445431e-02,-2.229234431442558839e-02,-2.506059291742597853e-02,-5.536455806377836575e-02,6.783648401269484415e-03,4.273602366447448730e-01
3.774551243286471403e-01,-8.295597236225901727e-03,-3.163022368318488264e-02,-1.611911269195385327e-03,-4.836461744815257618e-02,1.454393202315542363e-03,4.066706597805023193e-01
3.965553524293113918e-01,-2.390530244102506696e-02,-3.246363273998628673e-02,-2.670968562425738487e-03,-4.640362170642056694e-02,3.582980159446063056e-03,4.324102699756622314e-01
4.355078502681523078e-01,-1.179989149653606906e-02,-4.470815351685272776e-02,-6.156624436839598646e-03,-5.132658645955143900e-02,-1.376227415248207613e-03,4.731912314891815186e-01
4.292320883566296263e-01,-1.408588347297709542e-02,-4.920809942097234546e-02,5.943685666646043690e-03,-6.018310013244541901e-02,3.199959217765542194e-03,4.736427068710327148e-01
3.978641864475435108e-01,-1.851187807655166329e-02,-3.127895941696812177e-02,2.462187114406210256e-02,-5.967452718306779508e-02,6.069470241579240756e-04,4.374367296695709229e-01
4.544459603750006793e-01,-2.079671532399382516e-02,-5.016919430334160213e-02,1.210360822588917029e-02,-5.597701287993106511e-02,5.804679003469526838e-03,5.006178617477416992e-01
4.991098692421804817e-01,-2.313902980373272467e-02,-5.566463790962253300e-02,2.579682067926542238e-03,-8.008369740551206720e-03,-6.978905915672233224e-04,5.394461154937744141e-01
4.820018918670341823e-01,-3.107837532062565633e-02,-2.935735675365719333e-02,2.786174927842683530e-03,-2.874483488775904719e-02,-9.813825030435441472e-04,5.146613121032714844e-01
4.700127845764017764e-01,-2.239492553458136137e-02,-5.012814358496925360e-02,1.903992060971007073e-04,-3.738537826229086647e-02,-1.255487972050317851e-03,5.109680891036987305e-01
5.022902601999905681e-01,-4.379773277528700715e-02,-3.880317509001771081e-02,-3.756542348578084450e-04,-2.262061822450049144e-03,6.996037854986227739e-03,5.437574386596679688e-01
5.044529234871049095e-01,-4.396465827511522595e-02,-3.885174877018851558e-02,1.930540625211229046e-03,-3.537556206862841387e-03,4.681342359488435342e-03,5.459839105606079102e-01
5.176162336404253050e-01,-4.340841560371053176e-02,-4.279284601505647934e-02,-1.189045169208734139e-04,1.189928734207148240e-03,2.530787497816071839e-03,5.607380867004394531e-01
5.146847068256297231e-01,-4.165787343891499961e-02,-4.258370588133347789e-02,3.569650223253823689e-04,-2.554834284433875184e-04,3.856646515079372849e-03,5.568466782569885254e-01
5.121388734018831324e-01,-4.170414674365582886e-02,-4.242524194145314009e-02,-1.560253026305590787e-04,-7.280610596409598217e-04,3.809560901531392103e-03,5.542446970939636230e-01
4.983127467167103308e-01,-5.515741884578145848e-02,-2.397311683181088671e-02,-8.126006538550549496e-03,-1.224961268864579577e-03,-1.049683116193539855e-03,5.387467145919799805e-01
5.463742367822858048e-01,-2.477505077440109171e-02,-1.038662740993026579e-02,-2.697565211442817541e-03,-3.367624597229889293e-03,2.628821420794224054e-02,5.659767389297485352e-01
5.237296397654399582e-01,-2.892701824414528611e-02,-2.096366512545280725e-02,-7.918801080676348900e-03,-7.923062932677122847e-03,5.133937836672312904e-03,5.491332411766052246e-01
4.888655934782427104e-01,-2.404240734335896801e-02,-5.766549120896585778e-02,2.216350990843595880e-04,-1.153157708876677116e-03,3.009166512508362756e-04,5.305234193801879883e-01
5.239193419202650137e-01,-1.821873805938584168e-02,-2.338964601914841901e-02,9.930422325634181459e-04,1.238311831864927937e-05,9.773312454973806171e-03,5.450075864791870117e-01
5.234660236956037993e-01,-2.730009913309006109e-02,-2.035957031622123714e-02,-7.342768888550265001e-03,-8.052762718002157497e-03,3.835807591984643269e-03,5.476945638656616211e-01
5.243070388523154435e-01,-2.607354002416076288e-02,-2.916180562103737328e-02,-7.511354810641637618e-03,-8.407108834409222214e-03,3.146858147524889213e-03,5.523033738136291504e-01
5.896176556816551395e-01,-8.215608701038035200e-02,1.967848453257420305e-02,2.318407705364447513e-02,-1.539239759972185415e-02,-6.868696494720590538e-03,6.290510892868041992e-01
5.248579575045103640e-01,-5.917645642812036089e-02,2.971144479070597644e-04,1.812798848857259670e-02,-3.461381671103883062e-02,7.499295457724163699e-03,5.609346032142639160e-01
5.147399622459400970e-01,-5.770716266496958569e-02,-8.435467002352620147e-03,1.795976393292287795e-02,-1.560370123008300580e-02,3.211224695852089861e-03,5.510417222976684570e-01
4.861248194270781364e-01,-6.023179990302077180e-02,5.591991792144876405e-02,1.019069816174557677e-02,-1.456334598118229628e-01,1.248472033823104684e-02,5.594130754470825195e-01
5.579662364455915124e-01,-7.940591905612859325e-02,5.218940651099568395e-02,2.167084074261529242e-02,-8.637559310473101604e-02,-2.927566629069341259e-02,6.050187349319458008e-01
5.086795470669782659e-01,-4.262389367124691519e-02,-7.558797258864852209e-03,1.948150738711123403e-02,-2.465051745025083080e-03,-1.606691248090260727e-03,5.357220172882080078e-01
5.437771709150686084e-01,-1.289391665530609243e-02,-3.795735347597176124e-02,-3.486668661510609196e-02,-1.907995860376703393e-02,1.933506616074387452e-02,5.747379064559936523e-01
5.476747200759902734e-01,-3.118884253984927080e-02,-2.985999434201117020e-02,1.233483038883427790e-03,-2.360832594239535825e-03,8.256067017952997342e-03,5.783954858779907227e-01
5.184095517150323351e-01,-2.375503193969752402e-02,-1.830691297704090115e-02,-6.894905701778866573e-03,-5.595397765414142008e-03,1.684191860929600340e-02,5.404681563377380371e-01
5.369143270921790112e-01,-1.737276451443175995e-02,-1.560952432036935567e-02,5.707009429910443049e-03,4.865475609104976708e-03,2.233403010296166474e-02,5.549100041389465332e-01
4.997767016668784312e-01,-4.376431482409709472e-02,-3.450149709804403719e-02,-8.309425994302102950e-03,-1.398955956975411578e-02,-8.140488118601438977e-03,5.398898124694824219e-01
5.286791115943725305e-01,-3.282268836241566956e-02,-1.652679791636835205e-02,-3.055399424394238811e-02,-6.673552941530231514e-03,1.908689177850128246e-02,5.571596026420593262e-01
5.134063490253291118e-01,-1.822843572639867848e-02,-9.818216493248460575e-03,-4.001669690011665026e-07,1.189200591995717704e-03,3.772317634691046539e-03,5.275244712829589844e-01
5.147834243306101953e-01,-1.521719660825182618e-02,-9.509665949019974196e-03,4.210363589233509160e-03,1.274973237848292052e-03,1.394457090601011057e-02,5.277780294418334961e-01
5.146028122378538683e-01,-1.977273378154936756e-02,-5.190391435885455262e-03,8.043073883098530042e-04,-1.815519706125800006e-03,1.547171956110076924e-03,5.272536873817443848e-01
5.101728674897937355e-01,-3.469753105231909718e-02,-2.574446474783589900e-02,7.126384424108722464e-03,1.243101072278949767e-02,-9.546998705785186487e-03,5.412716865539550781e-01
5.094412821948288705e-01,-2.953762159806153087e-02,-2.272112368833326124e-02,-4.277990685909307395e-03,1.307656615041075630e-02,-8.101219615059581172e-03,5.363166332244873047e-01
5.217438331995216672e-01,-3.503388205601790095e-02,-3.533660381434769460e-02,3.081551227341756613e-03,1.073449221389971434e-03,-4.336176844785405980e-04,5.569583177566528320e-01
5.100466378166526038e-01,-4.053568546101149472e-02,-4.370690998241733016e-02,-1.272937483365184927e-03,1.980328216029847606e-03,1.454211899905785265e-03,5.521955490112304688e-01
5.279059305010110892e-01,-3.411084234853503649e-02,-4.127094402166486820e-02,7.993331135305077259e-03,3.617720805561522486e-03,1.670778600901868995e-03,5.658423304557800293e-01
4.747482242675864494e-01,-3.160733316849245744e-02,-4.255438522870405582e-02,-1.953965333748564591e-03,-4.656061990250427197e-03,-8.536095395010191711e-03,5.122050046920776367e-01
4.609293077120203974e-01,-3.255532656111326251e-02,-3.733201049335321819e-02,-5.733803907831083735e-03,-4.277678701534427753e-05,-1.239966877274753694e-02,4.964544475078582764e-01
4.673993766561355123e-01,-4.110140839059076012e-02,-3.292132973627012738e-02,-1.705239298938085804e-02,-2.458952978640194416e-03,-1.140349668909143924e-02,5.057281851768493652e-01
4.931439928118827587e-01,-4.338661631244258854e-02,-3.617284588449906635e-02,-6.194507624987252194e-03,-4.899730376499411219e-03,-7.259108335032988558e-03,5.332841277122497559e-01
3.080490033428873731e-01,-2.927156136865188829e-02,-5.170981786433895278e-03,-3.909236246231028583e-02,1.087238651606248045e-02,-8.496938636096188630e-03,3.337547481060028076e-01
4.495944300390586346e-01,-3.207718609300774792e-02,-3.204710477220537590e-02,-5.165955835361042345e-03,-4.511735559810374496e-03,-1.206871969374234861e-02,4.822563230991363525e-01
4.703435599188715011e-01,-4.235557194653588597e-02,-3.296056639625125073e-02,-7.775092836285861682e-03,-5.810025659859353701e-03,-1.038977957184359507e-02,5.086632966995239258e-01
5.269304667492693550e-01,-3.499749268195048724e-02,-2.675801206644604080e-02,-1.099172704974462136e-02,-2.061109823865043406e-02,5.640695669816338936e-03,5.594043731689453125e-01
5.403019990773267889e-01,-2.690176414180298070e-02,-8.985450357094471041e-03,-2.566892349517417050e-03,-4.117067258931625569e-03,1.211131027965244369e-02,5.589182376861572266e-01
5.943595714129719099e-01,-4.267937043744365888e-02,-1.175111125850000771e-02,-1.159674959310941049e-02,-2.633220293874048018e-02,2.476677639145496643e-02,6.256168484687805176e-01
5.467758236203842381e-01,-3.081673884479244063e-02,-5.590407243305006713e-03,1.241435070091354963e-03,-1.767749445367869723e-02,3.826364949710912150e-02,5.700994729995727539e-01
5.099121118723912716e-01,-2.571188810452479379e-02,-9.772156717656049763e-03,2.146078939661302375e-03,-5.206036621513068265e-03,1.390050459174421889e-02,5.284734964370727539e-01
4.732883598212914711e-01,-2.877489465671517754e-02,-3.761778855630915075e-02,-5.596780924521270288e-03,-3.742046379331659400e-02,-6.537661586193724804e-04,5.107656121253967285e-01
4.867815502006135886e-01,-3.427519870422424120e-02,-2.364861355952380118e-02,3.444072858680057025e-03,-1.744191100336780695e-02,6.319357140207705961e-04,5.167450308799743652e-01
4.971763727827875345e-01,-3.503177552602615430e-02,-4.019161977734470037e-02,-1.684771971385868802e-02,-2.006945332266232840e-02,-8.718519532163534688e-03,5.369414687156677246e-01
4.278538101926570025e-01,-2.955318534482026527e-02,-2.696095325917760577e-02,-3.690006882221188306e-02,-7.780423151512172453e-02,2.587654178238070132e-03,4.799037575721740723e-01
4.481920821001924571e-01,-2.122531675847488808e-02,-4.440619096946279987e-02,-1.518606878345691961e-02,-2.488926295949531187e-02,-1.102405724091922411e-02,4.844444394111633301e-01
4.931541555946063471e-01,-3.000393313791802075e-02,-4.698436213784576432e-02,-1.199137022778983680e-02,-4.125306091389785434e-02,-3.411733741011630655e-03,5.370641350746154785e-01
4.916589914644575732e-01,-3.510794006709602733e-02,-2.979537059969725177e-02,-7.479791067258623194e-02,3.378743003283376633e-03,1.736477202628189777e-03,5.399450063705444336e-01
5.241384498163301764e-01,-3.832607621680686472e-02,-3.505463594371682756e-02,-3.582013785897718988e-02,6.027427419362192673e-03,-5.975014242948230823e-03,5.644486546516418457e-01
4.628570348351166985e-01,-3.111711890770862965e-02,-2.861163657840981589e-02,-1.448344319785621094e-02,7.551975979304930385e-03,-1.098141613867852995e-03,4.935414195060729980e-01
4.787981792880334764e-01,-2.071577264058077628e-02,-5.261983133014513925e-02,-5.296358504005267351e-03,-1.133582428962028911e-02,-2.280680096022149207e-03,5.166757702827453613e-01
4.686162710289275002e-01,-4.830879795642209484e-02,-2.058661464137664932e-02,-3.550602770573915018e-02,4.258834808436556818e-03,-5.293488953676353873e-03,5.075138211250305176e-01
5.154253874366255816e-01,-3.245629708866401564e-02,7.173178227907250903e-03,7.391099265298240774e-03,5.437174810435638217e-03,1.918785046383516754e-02,5.304617285728454590e-01
5.295366387390476604e-01,-3.689594864002379571e-02,-3.602663194628827337e-02,-1.956909737080738624e-03,-5.469242154772797470e-04,-3.417369964032584192e-03,5.660403370857238770e-01
5.256870904836856706e-01,-4.086817401822476215e-02,-3.163922140936220595e-03,-1.666221535976347787e-04,8.117294584018533779e-03,2.945377169564361575e-02,5.512216091156005859e-01
5.834608693166782878e-01,6.429534812582182735e-03,-1.988950520153412449e-02,-1.562264003483336723e-02,-8.931905619427044779e-03,5.084549407425781320e-02,5.979733467102050781e-01
5.052572984839394099e-01,-4.276585166499877189e-02,-3.892000017857705219e-02,4.153068079826653311e-03,-5.784287372169188632e-03,8.458389285684134520e-03,5.464460849761962891e-01
5.091883561324801466e-01,-4.031650338463454997e-02,-3.591026746075651199e-02,2.676856898475931269e-03,1.223942361552987418e-03,2.736706316391633587e-03,5.473592877388000488e-01
5.144567240256729956e-01,-3.704462912284847698e-02,-3.426081652349791118e-02,7.657850108615705739e-03,-2.725925130296293856e-03,-3.959182376832516472e-04,5.502952933311462402e-01
5.084571734770758633e-01,-4.012497318596425222e-02,-3.865610452659845597e-02,3.490773827766078738e-03,-3.041907653653500195e-03,2.621503195499542624e-03,5.479267239570617676e-01
4.913000819041896117e-01,-3.669577403336746202e-02,-3.840834345558727381e-02,1.010103237551413999e-02,-7.002602961655049127e-03,8.838402635943617622e-03,5.295038819313049316e-01
5.130795968549815012e-01,-3.902354862775514466e-02,-3.785173612294967516e-02,1.692469152935818788e-03,1.824584147470238900e-03,2.220404280055598110e-03,5.515484213829040527e-01
5.123441096865010147e-01,-4.006084149425587215e-02,-4.357166139246440584e-02,6.072775629693428351e-03,-3.527370892248632341e-03,1.105322503616842618e-03,5.543054938316345215e-01
5.099575070093620432e-01,-3.677489238035089314e-02,-4.820085207290472629e-02,7.503263004103915591e-03,-1.110068540876839142e-02,6.889873574908947189e-03,5.531498789787292480e-01
5.976734067922934157e-01,-6.436905026379791117e-02,2.805092077092066760e-02,-2.177491411484288198e-03,8.989189841171697781e-02,-4.065837712918278501e-02,6.441047191619873047e-01
6.151500166939756209e-01,-8.123826612409973391e-02,2.447213810390716504e-02,2.246507514198129232e-02,-1.688697955721518359e-02,-8.658702280918832359e-03,6.520048379898071289e-01
6.000631640771206810e-01,-7.420694601973509830e-02,3.786115317941304848e-02,8.044729709324242167e-03,-5.055173892252946832e-02,-2.113721891909097622e-02,6.331162452697753906e-01
6.043894184199551933e-01,-7.421029470352363822e-02,2.618911821928052164e-02,8.935044018260932322e-03,-1.146151684993393025e-02,-1.131320179895384248e-02,6.351882815361022949e-01
5.243610520992127988e-01,-3.456548627825717368e-02,-3.084463413787796870e-02,-7.038564163043057979e-03,-5.812882286000561026e-03,-8.631117800859145492e-04,5.573017597198486328e-01
4.913367960292522318e-01,-2.413718603861281231e-02,-5.207125885391256093e-02,7.154476489181026523e-04,-1.937724289917055684e-02,-1.352202023691352747e-03,5.310616493225097656e-01
5.135506988384201943e-01,-3.522005396322977488e-02,-4.167558662992637553e-02,7.348920657489934130e-03,7.456243661986690710e-03,-6.796423460554213043e-03,5.524500012397766113e-01
5.130949536273140543e-01,-3.588519906990514374e-02,-3.705738031670705035e-02,8.664026707164453750e-03,8.266458845317552900e-03,-3.344239051471237147e-03,5.499889254570007324e-01
5.382660190660164545e-01,-3.790683503298519774e-02,-3.757997761167825024e-02,2.134453899201509824e-03,6.818190880464237123e-03,-4.429742802359797928e-03,5.761935114860534668e-01
5.305178427300637489e-01,-3.564171398149704184e-02,-3.743215026153720593e-02,-3.345661864096867184e-03,1.002491746631619524e-02,-3.354946297024170593e-03,5.673820376396179199e-01
5.119648959222793394e-01,-3.512897498687311826e-02,-3.660841500409420246e-02,6.643136482823393916e-06,-1.177227157604722116e-03,-2.018999906448765928e-03,5.478500723838806152e-01
4.713371716640689657e-01,-2.304022422807602832e-02,-1.602883841555385880e-02,-2.853407173034728725e-02,-3.664514201754541511e-02,1.498273024163276033e-02,4.981330335140228271e-01
5.353063527084837014e-01,-2.861829854516353966e-02,-1.430468881361257605e-02,-7.224533738555578670e-03,-1.022993440766300013e-02,1.824174821275265437e-02,5.582230091094970703e-01
5.300626008263625843e-01,-2.303625552219418227e-02,-1.282446963430691755e-02,-4.107956786555905931e-02,-6.354560487154597981e-02,1.987356974280762856e-02,5.645672082901000977e-01
5.053499891942885291e-01,-2.797587149681099450e-02,-2.678871633018145570e-02,-2.603754745522338099e-02,-1.731915036168314367e-02,7.422109540393793600e-03,5.356339216232299805e-01
5.212176575179623406e-01,-3.150825874908899649e-02,-3.112788779931000005e-02,1.185998641201748771e-03,-5.708259694964775213e-04,3.528786493947271875e-03,5.525743365287780762e-01
5.042531218297821027e-01,-3.308502258978524013e-02,-5.601057747764159878e-02,1.204588415191041413e-03,-1.695706621577173362e-02,4.216837674107059425e-03,5.499972105026245117e-01
4.920204387467745910e-01,-2.721690860245001842e-02,-3.096243076036170327e-02,-1.235098777289111126e-02,-2.041459819733484199e-02,2.453807193804579279e-03,5.227736234664916992e-01
2.491222201288146310e-01,-2.086789581511309943e-03,-8.602021445947982681e-02,-7.763256471902045541e-02,1.902304832092328521e-02,1.420377722369985237e-03,3.322766125202178955e-01
5.145081735571042092e-01,-1.473366748234269941e-02,8.452644930395991629e-03,3.498927570869434824e-03,2.445843568506343192e-03,2.030916159422915118e-02,5.192835927009582520e-01
5.201790847087689462e-01,-3.004324717130196776e-02,-2.602332292554987436e-02,-5.520536704481902000e-03,-6.212638829389519231e-03,3.244302783206691031e-03,5.484411716461181641e-01
5.163527852590306111e-01,-2.788966579550403169e-02,-2.488172560658585830e-02,4.818707216114229142e-03,3.458005518371669480e-03,4.683401086878622582e-03,5.429025292396545410e-01
5.329504768627345568e-01,-1.220707315928218351e-02,-1.613142891871671702e-02,7.216637743687057821e-03,3.053528231464030900e-03,2.429790611343205647e-02,5.489143133163452148e-01
5.181196750603138668e-01,-1.777767546959049816e-02,-2.305218923297719380e-02,-6.527277537194710322e-03,-8.379138807840712244e-03,7.028765685277977779e-03,5.390056371688842773e-01
5.096790757078415446e-01,-3.107052468971691073e-02,-3.909704535291988470e-02,-1.556434622352913331e-03,-1.113285234571701268e-02,-4.553780699559363239e-04,5.451555848121643066e-01
5.154571417384866683e-01,-1.945463731134947083e-02,-2.506860111818273729e-02,3.641724394264745247e-03,3.321499149394606387e-03,3.980155475341813631e-03,5.378527045249938965e-01
5.119001126660077672e-01,-6.033880983267736475e-03,-2.298297439543209308e-02,1.569750473741871218e-03,-8.449193552461825877e-04,1.087466360941958914e-02,5.269589424133300781e-01
4.849890578937098295e-01,-5.948480163733343984e-02,-2.058521024130066657e-02,3.145838927178688186e-04,6.270891312222414598e-04,-7.841395401000051876e-04,5.261068940162658691e-01
5.102478256948929092e-01,-1.799071855303996381e-02,-1.190768434546005117e-02,-1.226792665559642325e-03,-3.452380954946294468e-04,3.897974391106280405e-03,5.252714753150939941e-01
5.116570955109580598e-01,-9.690640538844857987e-03,-1.024013212752680757e-02,3.700372127975833873e-03,2.244019803591874775e-03,4.547986401545352046e-03,5.217360258102416992e-01
5.121887172345021000e-01,-1.778010736517471324e-02,-6.695313416234138781e-03,3.096191274385950033e-03,2.765340552289614895e-03,2.961240949508258877e-03,5.245886445045471191e-01
5.138302675389714302e-01,-1.020337177363969672e-02,5.948485381701951180e-03,-4.853322891732155323e-03,-3.958262720650152985e-03,2.206428403256786158e-02,5.176738500595092773e-01
4.541686162551937800e-01,-4.426194075108988435e-02,-1.855374562029904473e-02,-1.962766585561613597e-02,-7.885134076048299842e-03,-1.207673267936066122e-02,4.879139065742492676e-01
5.128517353618040620e-01,-2.043900823322666871e-02,9.457509668339414421e-04,-2.858978821891318758e-03,-1.683162011564217015e-03,1.071190106630843207e-02,5.232869982719421387e-01
5.203172961735478275e-01,-2.080464578972943124e-02,1.248818625677466931e-03,-1.953051852044360333e-03,1.686957347969089303e-03,1.063794966319910919e-02,5.307778716087341309e-01
5.031048813785061746e-01,-3.841762440021026515e-02,-3.661783554659939210e-02,-3.197954755959692228e-03,7.673930756215461592e-03,6.735260033206317762e-03,5.409423708915710449e-01
4.990032106860811112e-01,-3.665359119886327233e-02,-4.302535066984922163e-02,-2.847182099859628564e-04,6.375712442182465516e-03,5.552601190596289510e-03,5.390700697898864746e-01
5.101944006073224624e-01,-2.948652800901013782e-02,-3.287276152096962889e-02,-4.827121613558382459e-04,5.182258694684398898e-03,-2.684179102377920022e-03,5.414770245552062988e-01
5.205009594383023241e-01,-3.783634154255213766e-02,-4.421252936186537141e-02,-1.058444881284991042e-02,1.946096088646723926e-02,5.599680526876931949e-03,5.629454851150512695e-01
5.063479715865929487e-01,-3.924020071966666245e-02,-3.756270329040586886e-02,-1.663896648451446830e-02,2.076479886304250302e-02,7.383433003680473471e-03,5.468470454216003418e-01
4.913757360916370387e-01,-5.913866761082253731e-02,-2.091212448764059872e-02,-3.552196786423735680e-03,5.360127424322508674e-04,-5.828839995068861883e-04,5.324686169624328613e-01
5.172986313139051884e-01,-3.340547730341486554e-02,-3.189065317534170441e-02,8.328149241926145806e-05,3.580662745379882988e-06,-9.801750576266666896e-04,5.499508976936340332e-01
5.085527830268373739e-01,-3.896167209647313778e-02,-4.384105824849221511e-02,2.252747491934206734e-03,-3.901656294953213095e-04,6.494989289126425550e-03,5.500996708869934082e-01
4.958485850650993787e-01,-3.410959786077863432e-02,-3.181867910586608228e-02,-4.973780971978918920e-03,-9.505127043512003396e-03,-1.804449778992174005e-03,5.291520357131958008e-01
5.140550348114605317e-01,-4.137687766473691076e-02,-4.179295425650242368e-02,3.840466116807337627e-04,6.879129451893714825e-04,8.342362147608422748e-04,5.556436181068420410e-01
5.138098830723900612e-01,-3.976672557943555786e-02,-4.291968960811934353e-02,6.919817039752445675e-04,1.213790288043772175e-03,5.531718603215761117e-04,5.551658868789672852e-01
5.393090589423836789e-01,-2.328380027470799973e-02,-8.477149675351625113e-03,-4.001279076739036947e-03,2.088510708326023722e-03,-1.916098621395486562e-02,5.563833117485046387e-01
5.176896819236445069e-01,-2.352871333835848677e-02,-1.651386510582938949e-02,3.290552485379715127e-03,2.198945871410110629e-03,-1.168811730080803780e-02,5.381698608398437500e-01
5.289499310320757708e-01,-1.126706523503284707e-02,-1.529756883572241932e-02,6.285758032582710632e-03,-4.621435580832904469e-03,-1.275197660654398511e-02,5.428613424301147461e-01
5.367609481935267102e-01,-1.613774632076073190e-02,-3.367990827938091569e-02,-5.236577244008198267e-03,1.066784682401686508e-02,-8.163897031911044808e-03,5.624298453330993652e-01
5.303295557119416248e-01,-1.349654860741927864e-02,-2.596091217110715887e-02,5.868046374864236900e-03,-5.379472358476901535e-03,-1.756533045233096488e-02,5.511772632598876953e-01
5.184357162344925829e-01,-1.631271841657253030e-02,-3.053728690489496134e-02,4.657983725137290580e-03,-1.802032604114988789e-03,-7.529028254044550263e-03,5.422266125679016113e-01
4.958373668657400923e-01,-3.332562047268161631e-02,-4.210044146491084827e-02,-6.575535863400970918e-03,-2.487271605913508182e-02,-6.262257770929174905e-03,5.355717539787292480e-01
5.198302204585978359e-01,-1.804604311942467620e-02,-1.220047622420170064e-02,-7.013396677259265679e-04,-1.761884948853202843e-03,-3.726429042079501194e-03,5.350264310836791992e-01
5.185201717297781565e-01,-1.243187107508317291e-02,-8.466331658443376762e-03,-1.498880408898850287e-03,2.941878955001578887e-03,-1.412439303861001520e-02,5.295767188072204590e-01
5.169084396562947381e-01,-1.732041169246814616e-02,-2.446354632673899965e-02,2.273909967937534117e-03,1.135713039543203998e-03,-4.523295449641411871e-03,5.379110574722290039e-01
4.912337871411410206e-01,-1.547801129869755266e-02,-3.083269271401065104e-02,3.695807240601690913e-02,3.528595265439521747e-03,-5.397996682779310912e-03,5.186477303504943848e-01
5.257407849384148069e-01,-2.655644291233963394e-02,-3.835450289611486152e-02,-2.434246237994109816e-03,-6.410867910221908043e-04,-1.794360028126789578e-03,5.583154559135437012e-01
5.245164423694763656e-01,3.733532656164106900e-03,-5.096979427232781190e-02,-1.192629202679260022e-04,-4.737173635596502418e-03,2.381658222303382772e-03,5.502547025680541992e-01
5.334365735393572505e-01,2.980717394303777912e-03,-4.196379986067630408e-02,-1.354110587179855121e-02,8.089955563016908505e-03,-1.074132916015178157e-02,5.552810430526733398e-01
5.202908438103157618e-01,-2.963316744038554940e-02,-3.779680232982879362e-02,-4.521445155221221097e-03,-1.862734887279857881e-03,-1.784304414634137800e-03,5.541242957115173340e-01
5.287367994914873304e-01,-4.688123825511300580e-02,-4.220155641527231771e-02,2.040164761157870280e-02,-3.601195549429905829e-03,2.383203544531811539e-03,5.744292140007019043e-01
5.205069446629878582e-01,-3.478117074370254413e-02,-3.046842594826976169e-02,-3.809000884260696669e-03,5.979256119842216459e-05,1.274003825115185709e-03,5.531880855560302734e-01
5.060729034114197500e-01,-3.922033363893015490e-02,-3.791934099049290574e-02,-4.970329195099894466e-03,-3.936862225184385201e-03,-2.455182897550867594e-03,5.447711944580078125e-01
5.440938793286951292e-01,4.030126515258469766e-03,-4.438173929806918383e-02,-1.570880929316231106e-02,-8.445863581011217938e-03,1.209382641731607255e-02,5.670548081398010254e-01
5.326452799440892782e-01,-1.840949013060294570e-02,-4.423726773809730228e-02,-2.042684138984929374e-03,-1.317536031967251990e-03,2.318736078503272520e-03,5.644420385360717773e-01
5.649019785303336372e-01,-1.199044080689268266e-02,-2.804177148693148824e-02,1.717865687398267838e-02,-8.246385198138205669e-03,3.316714729246495602e-02,5.888224840164184570e-01
5.200461627776220563e-01,-1.636678095473989569e-02,-3.308428423247278261e-02,-3.924510173319113379e-03,-4.537922776082609425e-03,6.175254134921345610e-03,5.451680421829223633e-01
4.809382658044759618e-01,-1.631339285867239308e-02,-3.233476344774852129e-02,3.443622157688718682e-02,3.129797032215381192e-02,9.462712054767051864e-03,5.121009945869445801e-01
5.289844343216311140e-01,-3.967700146574881792e-02,-4.371041736337663575e-02,2.579077713958769294e-02,2.091258301799239772e-02,-4.956118358317837015e-03,5.736435651779174805e-01
4.331516674933486577e-01,-3.896999943104070829e-02,-1.760037326928079460e-02,3.515988620185118985e-02,-6.410085405351349970e-03,1.021694772739106458e-02,4.662741124629974365e-01
4.516386462908989485e-01,-2.886145877151632955e-02,-4.055402770284646796e-02,3.694266030386031407e-02,-9.612313533435456331e-03,4.100224027891451704e-03,4.909758269786834717e-01
4.525685958172709911e-01,-2.299174847013615852e-02,-2.708686250415914820e-02,2.960975031313641329e-02,-1.680810936138351849e-02,1.557481332995817695e-02,4.820034801959991455e-01
3.956497298777372773e-01,-1.529397546289210097e-02,-1.630525240755725802e-02,3.265814583665839488e-02,-1.366748727038706243e-02,9.803829344902283832e-03,4.163408875465393066e-01
4.875464519471044977e-01,-3.338877329998465870e-02,-3.650801692004504440e-02,2.890492268826050024e-02,-3.999256438333800845e-02,-1.622616841848012470e-02,5.301912426948547363e-01
5.109644189242372736e-01,-3.882400823635467901e-02,-3.689283738892201736e-02,4.246210211095255427e-02,-5.391070557128487852e-03,-3.959525495248395442e-03,5.538525581359863281e-01
4.187194617548773978e-01,-1.810351727198603045e-02,-3.792537452794084163e-02,5.804843356794581188e-02,1.757518853490936880e-02,-8.096465273458532466e-03,4.594540596008300781e-01
4.839898284554621233e-01,-3.378345126821455380e-02,-3.500346870806875232e-02,1.028730614318976687e-02,5.377821013064529136e-03,-2.966330350400360732e-03,5.187995433807373047e-01
5.221369600743211992e-01,-2.757296446660689737e-02,-2.021705572039950161e-02,-1.138063679135901084e-02,-9.794142239938652753e-03,7.882536293543624187e-03,5.468584895133972168e-01
4.685166677323866491e-01,-3.154139582927600882e-02,-3.248476503544267535e-02,-4.066348880503155988e-02,-2.191866070586451221e-02,-4.968629193202303562e-03,5.069581866264343262e-01
5.141297759530887301e-01,-2.115456184194919320e-02,-3.427749825098663772e-02,-4.720056084138438655e-03,-5.740758389901930506e-03,2.331791970599922641e-04,5.421179533004760742e-01
5.155854555983112597e-01,-3.996618240087698726e-02,-3.564202292636961533e-02,-2.658891027758174264e-02,-1.408613874716923772e-02,-3.505308362174059354e-03,5.558840036392211914e-01
4.801726502400917584e-01,-3.717049176631201379e-02,-3.054878912748121289e-02,-1.909731685746729815e-02,-1.304963242345486257e-03,-2.515011803846573663e-03,5.151507258415222168e-01
4.656452596275756917e-01,-2.104940309069622262e-02,-5.542326388938059734e-02,-8.167730270141884338e-03,-7.402459357726229837e-03,7.693557899277612185e-04,5.051229000091552734e-01
4.792818739711833809e-01,-2.386004866476523767e-02,-5.191701078883376175e-02,7.133295298857029836e-03,-1.226661859806163143e-02,2.787587048495740634e-03,5.183464288711547852e-01
5.080481122805456939e-01,-3.628733098807787605e-02,-3.160312752005114967e-02,1.109081383806437846e-03,-6.570975102475043461e-02,-2.946449467065434796e-03,5.538558363914489746e-01
4.807486166067816424e-01,-2.291584254746806271e-02,-4.694630709240443789e-02,4.341653995913105461e-03,-4.767725720463613683e-03,7.547044393550340034e-03,5.163857936859130859e-01
4.761136391065777795e-01,-2.208534174941576000e-02,-4.453361734366353963e-02,1.836373774583796581e-02,-5.128824641352008190e-02,5.740435695798180686e-03,5.185478329658508301e-01
4.771566246991238436e-01,-2.225451235615816259e-02,-4.693208638470433569e-02,5.476672665524242624e-03,-1.290751151872229427e-02,6.176789030943711373e-03,5.128830075263977051e-01
5.050508388576585572e-01,-2.914889647820673169e-02,-5.417483608308218401e-02,-2.910571955390423710e-03,-1.368876853782688766e-02,-3.791104993430932137e-03,5.477181673049926758e-01
4.981968904853432134e-01,-3.195935926403245531e-02,-4.654975828929053261e-02,1.530432696986362869e-02,-9.916023872063273528e-03,2.819092750715024472e-03,5.385491847991943359e-01
4.328288639128808346e-01,-1.575425126152923960e-02,-4.333232773824463591e-02,1.928669893846657758e-03,-3.388073955269912257e-02,1.542062834822315954e-03,4.667123556137084961e-01
4.322410464462696500e-01,-3.780168476964934632e-02,-1.745981084169845321e-02,-4.305138199999546458e-04,-7.488019000277189134e-03,-1.165793474604166595e-02,4.608350098133087158e-01
5.235613196737296526e-01,-3.834977341296480491e-02,-2.946432293971862348e-02,9.457987176582057301e-03,-1.396476243347270947e-02,3.121949583611565056e-03,5.583124756813049316e-01
5.041249832138462450e-01,-5.059630213471988380e-02,-3.229680534104856227e-02,-1.928230128952825159e-03,-7.768937656227141702e-04,-3.198422308865322885e-03,5.458416342735290527e-01
5.267421192643988448e-01,-4.150016667645989310e-02,-4.207663972214492620e-02,8.088428816473943947e-03,-2.015556674097437884e-02,2.562841988667424785e-04,5.697739720344543457e-01
3.135566074109841228e-01,1.567767808090927972e-02,-6.551630801182209418e-02,-8.743806663787943856e-02,1.164447243618492028e-01,-4.483102833562779138e-02,4.349185228347778320e-01
4.984830240666102696e-01,-3.175955839367525235e-02,-4.098712095323023274e-02,1.091774289212832719e-02,-2.217449760070151765e-02,-1.424719378682695083e-03,5.366320610046386719e-01
5.128040040170886993e-01,-5.057260779793834593e-02,-4.129371236479781326e-02,1.090410336038174881e-02,-2.593527611478438355e-02,1.807708708726006369e-03,5.609244108200073242e-01
5.428689548230569706e-01,-1.825671811814935652e-02,-3.468920800548522254e-02,1.662480348158629218e-02,2.540452000128817431e-03,2.467257435266357463e-02,5.718631744384765625e-01
5.423005693349529643e-01,-8.415883574078963925e-03,1.151936604189596203e-02,2.368919256835504399e-03,1.469034552274007697e-03,4.465408614978535334e-02,5.465461015701293945e-01
5.527791250312432680e-01,1.816619651775844280e-02,-4.614570274667806338e-02,-1.524450807768592750e-02,-7.677199171814289361e-03,2.074897333196951826e-02,5.713970065116882324e-01
5.179918262835017106e-01,5.293079205046485880e-03,-1.765238015068046340e-02,6.580736409987818442e-04,5.046122310085362876e-04,1.995146578531005466e-02,5.256870388984680176e-01
5.761812328534687833e-01,2.384881616994299902e-02,-5.166190605355014398e-02,4.820947739103729514e-03,-3.118165157762514857e-03,3.336785188794077345e-02,5.965895652770996094e-01
3.966684722345802938e-01,-2.767322993405357812e-02,-2.136205739923333069e-02,-6.982584700305587144e-02,-7.422359062781404282e-02,-8.894165992978868285e-03,4.569675028324127197e-01
5.464998315478337698e-01,1.581750872316767254e-04,-3.361964580753831755e-02,3.856407416050105456e-03,6.195257268952959750e-03,2.022111074483108270e-02,5.652174949645996094e-01
3.731391968139513016e-01,-2.808659413367825541e-02,-1.838159767084623919e-02,-7.649369838261341203e-02,-3.498217116091600909e-02,-1.126981908520339679e-02,4.228339791297912598e-01
3.968089712490194265e-01,-3.007882115486232300e-02,-1.718890310390377985e-02,-6.318802533902082019e-02,-2.515689139202908348e-02,-9.466362584289554974e-03,4.370839893817901611e-01
3.156413733504809249e-01,-2.482447707352251898e-02,-4.240755982302404914e-03,-5.615219220429566727e-02,-6.858594024517867746e-03,-4.881288360926151065e-03,3.449701964855194092e-01
5.292827659746918156e-01,-1.147950650825033114e-02,-2.100872354599170322e-02,4.733366950862454015e-03,2.195370051466466813e-03,-1.815590651385304982e-02,5.465695261955261230e-01
5.279512714078975488e-01,-3.816734310677419306e-02,1.606702131360582264e-02,9.192724623311523263e-03,-1.852602368293117946e-02,-2.497994396890549501e-02,5.439519286155700684e-01
5.294330160356039983e-01,-1.706210929258078490e-02,-1.866273256093028965e-02,-5.823791841570198982e-03,1.260378077290164045e-02,-1.664693514479525724e-02,5.485835075378417969e-01
5.228463939294683005e-01,-2.469900597988930468e-02,-2.259235437845508176e-02,3.465731884216651393e-03,-1.460018606428504844e-03,-7.857903386811895081e-04,5.465356111526489258e-01
5.212229506182819438e-01,-3.635066360853175804e-02,-3.410947203190581312e-02,1.285854884490109746e-03,8.267839719386318661e-03,3.306519106190007259e-04,5.566453933715820312e-01
5.312252323101378515e-01,-3.313429947330762126e-02,-1.638899520690875744e-02,1.082774009702157196e-02,-9.751055887978983538e-03,-9.404532366925254239e-03,5.569865703582763672e-01
5.207673812104742783e-01,-2.809745089090312509e-02,-2.009830060573158939e-02,3.992464949261031039e-04,-4.364500442892162396e-04,-8.260380608354276136e-03,5.450980663299560547e-01
5.216457521565411870e-01,-3.153138399454177843e-02,-3.277326942386446507e-02,1.390788086931563951e-02,-5.593167530296054915e-03,-6.265623865551242337e-03,5.545136332511901855e-01
5.205309358405824094e-01,-3.189383339898491099e-02,-2.110061588200043414e-02,1.317956158362035106e-02,-1.037680235645690140e-02,-7.001784225941297402e-03,5.480131506919860840e-01
4.000040425400844257e-01,-3.156400251155358494e-02,-1.613443553433108191e-02,-2.631595630144514114e-02,-1.116528821600963096e-02,-1.237365055690270617e-02,4.274822175502777100e-01
2.983183830737600739e-01,-3.976783671606642923e-03,-3.340117706652975804e-03,-2.407032175357393805e-02,-3.218466445878233329e-02,-4.227266907694365340e-03,3.099832534790039062e-01
3.915237646052940890e-01,-2.835965618515917663e-02,-1.284384896233309314e-02,-4.379174865914899767e-02,-1.961532203349293860e-02,-3.204836878085327943e-03,4.206735491752624512e-01
4.488649519666728649e-01,-3.964820778870897788e-02,-2.581221223785146179e-02,-2.785782456472311527e-02,-9.479960380737584638e-03,-8.991011788690418671e-03,4.846831560134887695e-01
4.169226277059045471e-01,-2.658844792018336123e-02,-2.671663369401144905e-02,-6.312102471054595321e-02,-5.217400820718533921e-02,-1.293007927780981219e-02,4.662399291992187500e-01
4.220256199492148919e-01,-2.353597741531338050e-02,-2.678728625346896153e-02,-1.432242521989298724e-02,-2.756583330416826835e-02,-1.370435314785676227e-02,4.510463476181030273e-01
4.609896426873619779e-01,-4.745319185344282209e-02,-2.746307047995069639e-02,-1.265788095361698208e-02,3.544058431846634945e-03,7.124201070825961560e-03,4.994201660156250000e-01
4.693603336895765810e-01,-3.220424991842152362e-02,-4.368601006497774275e-02,-8.804777978649133696e-03,1.062695551640496262e-02,1.167063913131126569e-02,5.083676576614379883e-01
5.147350901010414592e-01,-3.389073777597231829e-02,-2.929242122961803196e-02,1.515499320931603007e-02,-1.563987454170744085e-02,-1.554964766733589422e-03,5.476484298706054688e-01
5.274280196254739206e-01,-1.603646758880816758e-02,-2.278959590958440362e-02,-7.054910292270929854e-03,6.954449656483441093e-03,-1.266836046941617784e-02,5.475812554359436035e-01
5.514115054262680449e-01,-3.879144487249142070e-02,-8.543644013909779122e-03,1.835788193165207097e-02,-4.007007366018949454e-03,-1.993473133650860291e-02,5.776274800300598145e-01
5.291074594307074719e-01,-3.842529749228823510e-02,-2.952227739914567439e-02,9.944871368552684991e-04,3.358618297110887822e-03,3.944729724068964192e-04,5.631671547889709473e-01
5.289853006743170383e-01,-3.877504786921551205e-02,-2.895832660405564529e-02,1.582851693232177528e-03,3.459200569548232743e-03,1.189243113620540694e-03,5.629585385322570801e-01
5.315864755648789242e-01,-1.947309173231961954e-02,-2.232563052346314691e-02,1.315708915703182186e-02,-1.090716441413508778e-02,-1.243352939632174151e-02,5.537027120590209961e-01
5.293074095295866588e-01,-3.707842025974802946e-02,-3.380171350214339343e-02,7.173136047016148665e-04,1.880824262856523998e-03,2.020075185936789919e-03,5.647761821746826172e-01
5.259105517892215254e-01,-3.337876342648973815e-02,-3.794226298545300136e-02,1.247949378329940573e-02,1.943760497310344226e-02,-1.588251508346425660e-03,5.630150437355041504e-01
5.317323705903167497e-01,-4.053591303058909356e-02,-2.898394126932973824e-02,5.622747931265183012e-03,8.912714247633886019e-03,-7.932035211551833817e-04,5.668762326240539551e-01
4.714689234156605457e-01,-3.648685233252438320e-02,-2.284948978783449269e-02,-2.415990352983754183e-02,5.628180372235870588e-03,5.003342067926860350e-03,5.031889081001281738e-01
4.824482959839122009e-01,-5.093375484989817736e-02,-3.132195997874648308e-02,-4.253797891156976818e-02,8.481420968572329910e-03,-1.338867738846474332e-03,5.292164683341979980e-01
4.740084546493557038e-01,-5.198981587196419007e-02,-2.298456966410186708e-02,-6.890773695246586207e-03,9.420062962947615623e-03,2.779907910648039045e-03,5.125335454940795898e-01
2.470303385752546932e-01,2.593288860088916598e-02,-6.913202768441795154e-02,-1.006443364661058770e-01,3.720793583084054668e-02,-2.292593033706259026e-02,3.392019569873809814e-01
2.494920956747194996e-01,2.622313102299225762e-03,1.292896378650738864e-02,-8.036804482263454341e-02,4.737823083061182272e-02,-2.019195689400665739e-02,2.929860353469848633e-01
3.410300953527215517e-01,-1.914451685786972002e-02,-7.466764915711104900e-03,-6.202560083273764985e-02,4.154154616397424948e-02,-2.472162979750822803e-02,3.797475397586822510e-01
5.223015215980233439e-01,-3.509063136756140899e-02,-5.025437811968072599e-02,-7.084083102758466366e-02,8.294629954590619636e-03,-4.002862979978266331e-03,5.785135030746459961e-01
3.982272583420228829e-01,3.927330571583503849e-02,-4.708279827485853386e-02,-1.117018983346767247e-01,2.116898869360603688e-02,4.340510365251024419e-03,4.540220499038696289e-01
3.842029878473115501e-01,3.373489732580269018e-02,-3.431808839016367574e-02,-9.878659891529881221e-02,1.295621366753107150e-02,2.715997788638986089e-03,4.255720674991607666e-01
3.905427185558055792e-01,-4.192506680500043825e-02,-1.882728696092816900e-02,-7.704977829900602759e-02,3.081308641700489237e-02,1.113410613601103095e-03,4.452357888221740723e-01
5.205391754302928220e-01,-3.584454742704953900e-02,-4.935401153252064188e-02,-7.416476597084928346e-02,3.551868103295967999e-02,-1.119765477347912713e-03,5.809918642044067383e-01
5.217791040326965613e-01,-2.337802795516108478e-02,-2.741216965729378896e-02,3.547851482459808952e-03,4.215311271386882816e-03,-7.990016170566881107e-04,5.472702980041503906e-01
5.297570480474118604e-01,-2.309307876425029105e-02,-1.247851282849479770e-02,8.119736543067461454e-03,-5.124909221218765937e-03,-1.303401717867458745e-02,5.483373999595642090e-01
5.193775568834853029e-01,-3.285627530810653063e-02,-2.726478379945565522e-02,1.618384290996278344e-03,1.224554861993788725e-03,5.419493026869451812e-04,5.494714975357055664e-01
5.260039989662786963e-01,-3.028513484874584272e-02,-3.543935880812629224e-02,1.851785400827561786e-03,2.504847751181794001e-03,1.036492430126554785e-03,5.589129924774169922e-01
5.157362487996024480e-01,-1.530593669550042724e-02,-3.143792471121836796e-02,-6.608368543084990054e-03,6.134210408654280737e-03,-6.022517342355336589e-03,5.396161079406738281e-01
5.350086466802104201e-01,-1.840742364851932766e-03,-2.866069179544600276e-02,6.455154602088479607e-04,4.773264981800641807e-03,-1.761322326357344509e-02,5.516567230224609375e-01
5.211790536455223055e-01,-2.275612177000979619e-02,-2.538993275114009851e-02,2.620565847603130091e-03,-4.289029065652102111e-04,-2.049151613188754904e-03,5.452877879142761230e-01
5.270216818203476983e-01,-3.312935800935173924e-02,-3.921710612017376141e-02,2.771981415810246228e-03,3.794412218128735172e-03,1.683415681121389496e-03,5.632859468460083008e-01
5.248674170072855638e-01,-2.659840411495340007e-02,-2.342729173577420831e-02,7.165459867191339462e-03,-1.119665806948356166e-03,-9.900790224936128342e-03,5.502978563308715820e-01
5.256825328563807798e-01,-2.482544551375942543e-02,-1.286803261686952915e-02,1.433868990594991052e-03,6.321796242337985802e-03,-1.534334294208633716e-02,5.453913211822509766e-01
5.344016426949664833e-01,-1.636203624038856663e-02,-1.532229975211818473e-02,-2.639540223338649339e-03,-7.406515476077506698e-05,-1.114871655000261412e-02,5.506022572517395020e-01
5.335549902589201698e-01,-3.080320518834889221e-03,-1.230074975052225517e-02,3.999373332455058785e-03,-6.509623674491643933e-03,-2.974735033428064709e-02,5.439120531082153320e-01
5.345031876625436773e-01,1.698028185168037885e-03,-4.155512553450038671e-02,7.900956710454725210e-03,6.017232395735767903e-03,-2.164653038403697646e-02,5.572246313095092773e-01
4.984337977094811523e-01,-5.541371337931522145e-02,-2.493264062371225442e-02,-1.951720095141517772e-02,4.035643252499352372e-03,8.517009952635362386e-04,5.403591990470886230e-01
5.365839623999582031e-01,3.408980241461351257e-02,-5.931424306557386839e-02,-1.695174647356642063e-03,3.052587557727544539e-03,-7.730755286439142983e-03,5.553157329559326172e-01
5.672751096604959908e-01,-1.307764687485621358e-02,-4.922583635371277633e-02,1.393953857966422419e-02,4.618313536972119306e-03,-9.454960209279586816e-03,6.000081896781921387e-01
4.966013390156363005e-01,-3.285887203923018585e-02,-3.588667768753997511e-02,-1.134965623214318625e-02,1.426719941648451999e-02,2.309148369247815934e-03,5.319337248802185059e-01
5.391798071472746479e-01,-1.122681745230891259e-04,-4.723637850799580762e-02,1.466063901163154820e-03,4.068795730184026141e-03,-7.160037181131978512e-03,5.645176768302917480e-01
5.378275105456098437e-01,4.731690548996164702e-03,-4.257800409845957645e-02,-4.983085256434835984e-03,4.568255376532197147e-03,-9.668903164680034759e-03,5.586300492286682129e-01
5.389363795097559251e-01,-1.505646772023097602e-02,-4.237601268441895663e-02,-4.524417838413872378e-03,3.993715385338299576e-03,-1.653433917765819447e-03,5.682488083839416504e-01
5.311485388045267264e-01,-1.777978408961428114e-02,-4.388005056172455953e-02,1.168235254316492451e-02,1.079754724952462080e-02,-2.168800142617746327e-02,5.643589496612548828e-01
5.155947056452194754e-01,-2.750170315200575755e-02,-3.075464418273510248e-02,8.212355404164612489e-05,-2.298577063745543998e-03,-2.948464213996781266e-03,5.447686910629272461e-01
5.140910138036998145e-01,-2.455737420998652110e-02,-2.465436867782019870e-02,4.391995234017782791e-04,3.487549417457835171e-04,1.619957333597974542e-03,5.387050509452819824e-01
4.767094463085959077e-01,-3.953452222232423097e-02,-3.021014009059955208e-02,-2.440447975199916755e-02,6.395895413445290556e-03,4.355317958978212421e-04,5.135086774826049805e-01
5.214459635452960429e-01,8.300583925867410784e-03,-2.782422092499303723e-02,1.351216122474469504e-03,5.758565673421458348e-04,6.801249126738137876e-03,5.322647094726562500e-01
5.048069929145105883e-01,-5.074944809646900201e-02,-2.927751673548334432e-02,-1.346333140692420119e-02,2.493109837636676030e-03,4.552525642129310636e-03,5.457103252410888672e-01
4.981815537419487794e-01,-4.590879496742503174e-02,-3.324733571997154358e-02,-8.822096461350679639e-03,1.435254655386031253e-02,6.965180700824234218e-03,5.387974381446838379e-01
4.866731118166343073e-01,-3.749996544504946572e-02,-3.258322493340223835e-02,-1.750309182018953275e-02,2.205865754653947922e-02,2.850399321132337290e-03,5.240301489830017090e-01
4.955469568753775866e-01,-4.389743925135700109e-02,-3.229215004898949859e-02,-3.916159413605595739e-03,1.443816880774087888e-02,9.808344398498983902e-03,5.346349477767944336e-01
4.678753733247076885e-01,-3.591761578655552900e-02,-3.118499279570380311e-02,-1.817923759163445757e-02,1.220788982186656567e-02,7.924245605309193294e-03,5.030630826950073242e-01
5.248581838556418688e-01,-6.064791136126818083e-03,-2.580744867094775241e-02,-9.216472994744089042e-03,-8.262420434390795390e-03,1.269781026350022546e-02,5.419355630874633789e-01
5.182763277775289668e-01,-1.914521352351669647e-02,-1.357924411622188354e-02,-2.131051853327619412e-04,1.868161342300521605e-03,7.942574032237808765e-03,5.348471403121948242e-01
5.190813011746046035e-01,-1.990423555815679091e-02,-1.651106503382768209e-02,2.649030116827990233e-04,-2.318579009053591943e-03,9.166444501650680352e-03,5.375466942787170410e-01
5.157948868617242555e-01,-2.611372613219137273e-02,-7.814026154642217392e-03,-3.571188192731605728e-03,-1.781977647059194384e-04,1.241633550120400421e-02,5.334640741348266602e-01
5.460808714482833226e-01,-1.824394221183855969e-02,-1.903037829355938571e-02,1.249170883223556586e-02,1.311381946113522254e-02,2.099533338734730151e-02,5.667569041252136230e-01
5.402948804117100323e-01,-2.621212141274145702e-02,2.081982387889397268e-02,-7.628505247068728158e-03,-9.254772920957800991e-03,3.138268586797745424e-02,5.476170182228088379e-01
5.211483584044320772e-01,1.640843114130430269e-04,-1.790952164075393371e-02,-3.957969073827979738e-03,3.587458119583590392e-03,3.495673768124902409e-02,5.337778925895690918e-01
5.444478150813776285e-01,-3.215735909553052441e-02,9.849928002919672299e-03,7.042896053311002193e-03,1.923591157335532943e-04,5.031937760582376462e-02,5.637034177780151367e-01
5.422812607299698495e-01,-3.012990849798899418e-02,9.488148155727960109e-04,-1.041056435111644383e-02,-3.568853913514432805e-03,3.976226931062293996e-02,5.620828270912170410e-01
6.125148835575281447e-01,-2.046077867029935660e-02,6.917997933631236940e-03,-1.678406094318162997e-02,-3.095331090505882427e-02,5.676146628394655030e-02,6.304464340209960938e-01
6.091200794714975997e-01,-2.245177861607028369e-02,3.661120048630922552e-03,-3.262490096674546675e-02,-5.161943626589475531e-02,4.979593626559744579e-02,6.337968707084655762e-01
7.014935941294947463e-01,-3.229614847500916763e-02,-4.037989154108467815e-03,-6.240063164413620772e-02,-7.125132195460641416e-02,4.307651354096555391e-02,7.422862648963928223e-01
6.168117218500850374e-01,-2.618265045502676802e-02,-1.749821985732680218e-02,-4.113688907583684662e-02,-1.815173923493388491e-02,5.981528665368456704e-02,6.517146229743957520e-01
6.204211317463512732e-01,-1.530910353118197786e-03,-1.516514433640622772e-02,-2.364153390932102750e-02,-2.267669250175609677e-02,5.352275824390973630e-02,6.382033824920654297e-01
4.906422113929583273e-01,-4.848928397629126419e-02,-2.565215247291616207e-02,3.070462272416204369e-02,-3.461657038849319523e-03,2.865855521072667271e-03,5.308116674423217773e-01
4.821827775128655902e-01,-4.249124442874918639e-02,-2.939544937421020854e-02,9.831910885414340065e-03,9.602776766646481041e-03,-2.037161306763605843e-03,5.188086032867431641e-01
4.741574607245326312e-01,-4.386663262758855319e-02,-2.071642522953751064e-02,1.451511011440725571e-02,2.568977214946429211e-03,1.483522586711147903e-03,5.074948072433471680e-01
4.179370080961266609e-01,-3.383334371676285923e-02,-2.648229993864748000e-02,5.042242221832465149e-02,6.488988767191848465e-03,-8.749320157153914765e-04,4.567115008831024170e-01
4.690216639605603310e-01,-3.606161084573050735e-02,-3.557723364872616978e-02,-1.794526602814741634e-02,2.090872545648414862e-02,6.677342762421241765e-03,5.072239041328430176e-01
3.994003360187414198e-01,-1.176073645177086457e-02,-3.416404058249550291e-02,-2.255780884464352216e-03,5.743587588059539950e-02,-2.468959673235747703e-04,4.343717098236083984e-01
4.797270368761202830e-01,-2.059477358619962728e-02,-4.761484481651465095e-02,-5.250006039753232811e-04,1.776209701926031309e-02,-9.029691968314685442e-04,5.152868032455444336e-01
5.178470181035874642e-01,-3.863157948747961146e-02,-3.840727635910140547e-02,-2.391514507990682038e-03,5.669229725301562495e-02,-5.980962364480179802e-03,5.650753974914550781e-01
5.206974853500319078e-01,-4.212816704431332493e-02,-4.796629762849591305e-02,-1.003023913822539796e-03,1.887360941393252667e-02,1.245537062652254869e-04,5.667136311531066895e-01
5.168324823531671441e-01,-3.024640768684844216e-02,-4.789979401544494642e-02,5.369088489003352293e-04,1.958835912924028130e-02,1.405359655437736326e-04,5.571506023406982422e-01
5.406716519328932380e-01,3.059236366446477229e-03,-2.344631528559698586e-02,6.310897104760532922e-03,-8.150267836827956858e-04,1.785032914408997418e-02,5.523194074630737305e-01
5.191857434940392313e-01,-1.560634885891312718e-02,7.682484641615583421e-03,-2.902731165580291640e-03,5.514328308189272478e-04,2.056035907802707119e-02,5.247710347175598145e-01
5.192282526750824356e-01,-1.158637989460903350e-02,-7.596241448123375317e-03,2.757652060899948472e-03,3.276108898641441440e-03,2.966378693012660869e-02,5.313726663589477539e-01
5.327596976803229412e-01,-2.801117616018880541e-02,2.552843702529511427e-02,-6.418539592314213317e-03,-8.358875324327420808e-03,3.138157278367494085e-02,5.390682816505432129e-01
5.183731569858984756e-01,-1.485152656882213207e-02,-1.152903098718774388e-02,-2.956116102591894133e-04,-4.413162798257323945e-03,1.044252560885164556e-02,5.319340229034423828e-01
5.710454038375492036e-01,-3.234743452408894715e-02,-5.440936385798511576e-04,-1.285128490765101265e-02,-1.485843529897984058e-02,3.590253378867739459e-02,5.923928022384643555e-01
5.712786626957225833e-01,-8.114967708153203452e-03,-8.217210400935426318e-03,-6.993955790807625597e-03,-7.792512243243710467e-04,4.648752469665413944e-02,5.851393342018127441e-01
5.313623109046513582e-01,-2.292697661149789568e-02,2.397132000553706122e-02,-8.990534052918720299e-04,-3.236882862503819187e-03,3.256037857177179751e-02,5.354019403457641602e-01
5.050522898190707988e-01,-5.020316210791064826e-02,-2.873373345762253450e-02,5.736367365259815304e-02,4.837519392109443199e-03,5.659930798929646914e-03,5.539734959602355957e-01
5.066373815848359552e-01,-4.885431851652810575e-02,-2.885183279573225179e-02,6.874685326411012973e-03,3.054698599321581300e-03,3.065302429926806613e-03,5.459467768669128418e-01
5.287172644177910996e-01,-1.698079588734913159e-02,-3.885231785046927566e-02,3.205141215095707458e-02,3.484539880115052057e-03,-5.887069223134372940e-03,5.598412752151489258e-01
5.287144640312415600e-01,-3.265749915081667121e-02,-3.610351219127563849e-02,1.845462285511442410e-02,5.765192907389127090e-03,-2.011760440544291175e-04,5.640978813171386719e-01
5.023883246565559180e-01,-3.628645271477509704e-02,-2.858749942630164909e-02,2.873207192404893251e-03,2.193192044457197530e-03,-3.445580381920215296e-05,5.349035263061523438e-01
5.379127008717203839e-01,-6.024853415594749739e-03,-5.489308522925698264e-02,-9.315668550500675466e-03,1.129006873710073668e-02,1.302720787004413945e-03,5.705131888389587402e-01
5.241458288605148619e-01,-1.754525788380820184e-02,-3.809079560731046254e-02,6.239570273803772028e-03,7.761787021534758595e-04,-1.082835151839016711e-03,5.523611307144165039e-01
5.269361160993810689e-01,-3.040122576741804972e-02,-4.138094552253449021e-02,1.627827774323681309e-02,1.350475630216319695e-02,-3.720252099864761273e-03,5.641351342201232910e-01
5.568103844248383227e-01,-7.230218267100407825e-02,3.783855850450001945e-02,2.931815798618158091e-03,6.117451401022691061e-03,-1.410176124406603386e-02,5.825438499450683594e-01
5.791916878799597823e-01,-7.992430858355303869e-02,3.973774707394553407e-02,-4.289380960262304324e-03,-1.237980797944315814e-01,-4.443783628824308032e-04,6.449150443077087402e-01
5.858033532066546645e-01,-1.039185626035137866e-01,3.032975557515879550e-02,7.964509379936066114e-02,-3.799906483502360488e-02,-1.735531264135154253e-02,6.522349119186401367e-01
5.663935269409700046e-01,-5.491715985619138873e-02,3.157999295241648019e-02,2.495542897429663814e-02,-2.939121925090476886e-02,-1.749575212983731434e-02,5.874906778335571289e-01
5.519716510774694829e-01,-5.829661398290483798e-02,1.714848259756746041e-02,2.292079738573748679e-02,-4.938575032509085437e-03,-1.562091161667278870e-02,5.783241987228393555e-01
7.671717579173737978e-01,-8.055983666186911085e-02,2.759040152080635688e-02,3.313246896022416926e-02,-8.933797168164986369e-02,-3.190663656511238434e-03,8.160457015037536621e-01
4.834226072031085342e-01,-3.206822764665748227e-02,-4.292179770412840600e-02,2.662178476932762126e-04,-5.002689978894244577e-03,-8.658347502696724790e-03,5.212904214859008789e-01
5.112205674083559748e-01,-3.831871342772852351e-02,-4.376123489585140303e-02,-1.441820641932481593e-05,-2.655796145768725847e-03,-5.663864924291724980e-03,5.523869395256042480e-01
5.028743044825868536e-01,-3.901404724463367057e-02,-3.496428972227649812e-02,1.473011752484922662e-03,-2.613759271291475183e-03,-2.406704741334678068e-03,5.399159789085388184e-01
5.042565310303136483e-01,-4.493158737225411148e-02,-3.679799707783465434e-02,-5.079860070415777654e-03,-6.989184314239805032e-03,-6.201039809743040185e-03,5.454779267311096191e-01
5.118072249570897458e-01,-4.302532985563961576e-02,-4.287095860398792979e-02,-1.984681559280518457e-03,-3.194845890527753945e-04,-4.780028578075305908e-03,5.548281073570251465e-01
5.020486928372429603e-01,-3.875913217786874920e-02,-3.596491072954596802e-02,4.544609427424860281e-04,-1.634506373436690134e-04,-2.412502421337525595e-03,5.394330024719238281e-01
5.317963448214624300e-01,-4.748683332025629977e-02,-4.507024516406277215e-03,3.257493046665017530e-03,-7.046488426989494513e-02,1.118755441927092587e-02,5.725574493408203125e-01
4.373082997021501273e-01,-5.154620681724539355e-02,-1.077073766251845921e-02,-1.750274507493416662e-02,-6.514850838245519419e-04,-7.838999021463065623e-04,4.707762300968170166e-01
5.619613972534386326e-01,-7.068944619223843651e-02,3.885707143056194024e-02,-2.401071433145324230e-02,-1.160023784933170710e-01,1.432904471416095171e-02,6.210137009620666504e-01
4.562296502704616397e-01,-4.569622909258755361e-02,-7.189133492486621257e-03,-1.206781599834672210e-02,-9.818908281722527054e-02,9.008726801415341962e-03,5.135059356689453125e-01
4.990334359040685119e-01,-7.226576016075669795e-02,3.548872370232648843e-02,-2.597527671691320095e-02,-1.431882331921592033e-01,9.197555171568019827e-03,5.832840800285339355e-01
5.411712516285362984e-01,-1.657494767111111766e-02,-3.577701868198468471e-02,-7.097587801375353916e-03,2.431758140688511372e-02,-1.918979982649682281e-02,5.702537298202514648e-01
5.367898957768203472e-01,-1.681904398989925165e-02,-3.251627844759188979e-02,-7.675540759170013105e-03,9.611729405293829159e-03,-6.934056048353336166e-03,5.621543526649475098e-01
5.306803582631789418e-01,-3.618019716287487753e-02,-3.929999002247205886e-02,-4.443174332719402632e-03,9.677940809170055073e-03,4.328059161740871984e-03,5.687754750251770020e-01
5.196540167238508090e-01,-1.638621327696981878e-02,-3.980827770441691671e-02,-9.508608540677953788e-03,5.517237112575041659e-03,-5.242001529801398538e-03,5.485324859619140625e-01
4.943488484348500522e-01,-3.360127731137788065e-02,-3.128023755026862474e-02,1.321461496927921718e-02,1.390739915206240691e-02,-4.472855146145713993e-04,5.278409123420715332e-01
4.987255238522844691e-01,-3.170877761975263165e-02,-3.562984131960389433e-02,1.371382416304459465e-02,1.485636314912161700e-02,-3.654312155250167161e-04,5.335565209388732910e-01
4.994893485152579471e-01,-3.131081026344861851e-02,-2.585187424310550486e-02,4.362056008683446590e-02,2.729921754840695935e-02,5.796206299809967578e-03,5.356545448303222656e-01
5.271388852955543047e-01,-3.490939117387062418e-02,-1.270376875277415274e-02,8.019868002198328634e-04,2.864418050274733247e-03,2.528603673191507153e-02,5.530419945716857910e-01
5.076996556245145786e-01,-3.690010552513109388e-02,-3.020937733353759591e-02,8.917920335934846968e-03,-5.498338288851664125e-03,2.016699539762324082e-03,5.416007637977600098e-01
4.862528084901217018e-01,-4.817427623195594255e-02,-3.138745619258351272e-02,1.429080343528546689e-02,-6.667966128962184678e-03,7.118686176840637557e-03,5.270871520042419434e-01
4.551603014756584464e-01,-3.350911108654819337e-02,-2.371966918818974035e-02,4.911261937103973685e-02,-2.280470731219836830e-02,3.084510258121093019e-03,4.928840398788452148e-01
4.498738541458754403e-01,-2.749670791329661412e-02,-3.401138461621835973e-02,6.184225117132169380e-02,-5.721514688999965875e-02,-2.643414762114236916e-03,5.023446083068847656e-01
4.509352437221429977e-01,-2.790619437676281067e-02,-3.313727439924943341e-02,7.871094291063229775e-02,6.300749816710872128e-03,-2.039794241184108431e-03,5.005388855934143066e-01
3.885723204863992253e-01,-2.440811214265872775e-02,-1.569299172433136214e-02,4.902455259882149835e-02,-3.464777209025891869e-02,1.090510649909715545e-02,4.221350550651550293e-01
4.854514504460372137e-01,-4.258609235170793261e-02,-2.983519849191040851e-02,1.273556662521978071e-02,-7.201620177746953164e-03,1.024706369866179405e-02,5.226953625679016113e-01
4.802839996074235729e-01,-3.466981166100077671e-02,-2.605851879342405142e-02,3.477707013193054308e-02,9.164378805303477265e-04,-6.605463248521651612e-04,5.142463445663452148e-01
4.780064722104804820e-01,-1.658890411449587265e-02,-3.303634263128726878e-02,1.977937165246453077e-02,-4.503887905896650050e-03,-8.352840444025821584e-03,5.044539570808410645e-01
4.628579315747340384e-01,-4.553600241498481638e-02,-1.858545949957329801e-02,2.291588643789367261e-02,-1.012094839873066941e-02,8.058770401221115182e-03,4.975608289241790771e-01
5.002285780481284805e-01,-3.882054732903539307e-02,-2.690276091884294396e-02,2.769454902818167114e-02,-1.641399048553330436e-02,-6.321282275032334588e-05,5.360978841781616211e-01
5.698277030139805577e-01,-3.106784561901604347e-02,-4.133489245536250967e-02,6.554541124473525771e-02,-1.352966207841136206e-02,-1.133227286773100945e-02,6.173923611640930176e-01
5.218622244276489575e-01,-2.049424472720734469e-02,-3.918204009835241086e-02,2.067038586260237440e-02,-5.251930704856865723e-03,-1.222945361646456640e-02,5.535778403282165527e-01
2.781375427816439871e-01,-1.756631772698510896e-03,9.277006730874615137e-03,-2.873231817164356716e-02,-7.919779968951700180e-03,-1.934187706690901516e-03,2.793747782707214355e-01
5.168339955691585441e-01,-3.949953967711655745e-02,-3.792510636810389468e-02,-3.045954417410784779e-03,4.688885461644337616e-03,7.504708548571615775e-03,5.557844042778015137e-01
4.575969899414473741e-01,-3.137672885219408569e-02,-3.195408837921151490e-02,-6.640275916949725521e-03,2.661369232876496099e-02,1.062971325741946318e-02,4.919085800647735596e-01
4.934583761155652004e-01,-3.134213106734684562e-02,-4.299359527517440660e-02,-4.010430782880577798e-03,4.976422509710290779e-03,5.601275128980945026e-03,5.309262871742248535e-01
4.905608721581163345e-01,-5.496836681448430406e-02,-2.655977127878342281e-02,9.047939666163696756e-03,-2.702592213758814007e-04,2.987767900161223452e-03,5.321504473686218262e-01
4.647860660073023786e-01,-2.390778446368219123e-02,-4.429080519225678247e-02,-1.269807895713817060e-02,1.953581512678532334e-02,7.880588569716845751e-03,5.010121464729309082e-01
5.023448748848295953e-01,-2.758537568537608453e-02,-4.576013762846653510e-02,-3.591510050520749925e-03,2.499759707510136597e-02,8.128641752001952714e-03,5.412017107009887695e-01
5.072157436632001026e-01,-3.231554779027173696e-02,-3.300759894500956970e-02,-1.790467110967324318e-02,-9.073078826695394478e-03,-9.125935236857690746e-04,5.409982204437255859e-01
5.167188579534131021e-01,-3.337368010861493928e-02,-3.256994759478798462e-02,-1.149744302473676254e-02,-7.823118966393552420e-03,-2.177544509560115030e-03,5.502315163612365723e-01
5.058894223673161550e-01,-3.943806574011199384e-02,-4.347535090779588995e-02,-1.606824648132414244e-03,-4.277606062068260023e-03,-8.462917157831132201e-03,5.476107597351074219e-01
5.119999050546887309e-01,-3.286923680171888185e-02,-3.246575335541118656e-02,5.469213935763462273e-04,1.163672523304499568e-04,1.707375666379089458e-04,5.446684360504150391e-01
4.939059893910765497e-01,-2.288888782091128005e-02,-6.039025189175001307e-02,4.706976173400157599e-04,-1.739152573093378845e-03,-7.731577688086871880e-04,5.365401506423950195e-01
5.088502484295036599e-01,-3.583076040475069446e-02,-4.439550091153476874e-02,-4.822468600049757172e-03,-3.313220549895796400e-03,-3.586670552004376372e-03,5.491421222686767578e-01
5.133448061143816021e-01,-3.840332493803441660e-02,-3.969325558720201985e-02,-4.837323193145709639e-03,-3.937805356340112750e-03,-6.587264898186988987e-03,5.526176691055297852e-01
4.914430284682878014e-01,-3.676655820795055041e-02,-3.745764509053273184e-02,-6.058120590539066604e-03,-4.030158068521934485e-03,-7.525238387412150169e-03,5.288663506507873535e-01
5.160471019580210594e-01,-3.318792522249744414e-02,-3.446535059827318670e-02,-6.529841615340641059e-03,-8.441504501692407084e-03,-2.397512715435582819e-03,5.502011179924011230e-01
5.147732158662935431e-01,-3.213367708697764669e-02,-2.775022788879691338e-02,2.410329722509711899e-03,2.825828444452682404e-03,6.381338922088159804e-04,5.447674989700317383e-01
4.980380123128980152e-01,-2.826832976823240307e-02,-3.861062718327407106e-02,-1.683131600340374671e-03,-5.023554427129192645e-03,-7.890202965489532313e-04,5.316339135169982910e-01
5.187771194958235021e-01,-1.168464977116659420e-02,-1.353211699177234162e-02,4.769021814688219688e-03,-3.074826664733181815e-03,-1.341225627818908202e-02,5.319862365722656250e-01
5.290587414085548001e-01,-1.363748427709116084e-02,-2.913076905279624040e-02,-1.912874076367519034e-03,6.915950324783016155e-03,-1.438244163406145540e-02,5.513097047805786133e-01
5.549226972853515960e-01,4.078247627875009051e-04,-2.240339184025297303e-02,-3.190998693620747222e-04,8.584271372077430587e-03,-2.450636201085325955e-02,5.680487155914306641e-01
5.402107911862842338e-01,-2.756712545802189607e-02,-1.511126392298881016e-02,1.487675548841990367e-02,-4.211511008201555134e-03,-3.721224966751722485e-02,5.659736394882202148e-01
5.280167671567308485e-01,-1.250747052344092225e-02,-2.957997462496847474e-02,2.695944211688316647e-03,-3.502813056772015169e-04,-1.506492298358721484e-02,5.498991012573242188e-01
3.197521701305675035e-01,-3.983837636955395167e-04,-2.332709119945647336e-02,1.506631552565877632e-03,-6.670997892394697759e-02,-4.854566666646842159e-03,3.518393337726593018e-01
4.300082353702698312e-01,-2.075598391940947085e-02,-3.770834796901964547e-02,-1.351100814161934442e-02,-2.157764851834265141e-02,-1.128476619367687131e-02,4.619997143745422363e-01
5.339520587717005995e-01,-2.240196906671076960e-02,-3.496335406474981866e-02,-4.194319851737623311e-03,1.468997315104546633e-02,-2.747865088959379736e-03,5.633817315101623535e-01
4.228803187538365815e-01,-3.191580467610524718e-02,-3.465034197465319266e-02,-3.121517055132657509e-02,-7.017957415110280539e-02,-2.863138435559134647e-03,4.751988351345062256e-01
4.919441751392673035e-01,-2.125651555254534641e-02,-6.030612751603123267e-02,3.237411801125449442e-04,-2.395321384387930075e-03,-2.522388758614992738e-04,5.338144302368164062e-01
5.552556067461880129e-01,-2.899367409653744176e-02,-2.569772613389217919e-02,1.453071710737445900e-03,7.040412735089178562e-04,-9.213622411120104411e-03,5.828335285186767578e-01
4.933695624020059678e-01,-4.057210999205232427e-02,-3.369370496368589984e-02,1.134039588097937763e-02,2.233521237155546013e-02,-1.696633994879689824e-03,5.323151350021362305e-01
5.369726093739053407e-01,-8.945667669777751518e-03,-3.507324822473320558e-02,4.335624695327448125e-03,5.834488267534716256e-03,-1.505281962599834891e-02,5.601885318756103516e-01
5.043187236225589176e-01,-4.493987773331775681e-02,-3.245510956215175158e-02,-1.530937007933333774e-02,9.048465354757138923e-03,4.572647648621681535e-03,5.440542101860046387e-01
3.688348495391212678e-01,-2.505613859524177811e-02,-2.550304279972320787e-02,-4.624024337745055724e-02,-8.084396648949034037e-02,-1.352846579410431523e-02,4.264939725399017334e-01
4.955276478640989746e-01,-3.731531560215822774e-02,-3.660521991525350627e-02,-6.305667888945730437e-03,4.212675065781480016e-02,-1.030292688803646078e-02,5.378712415695190430e-01
4.872857130508226886e-01,-4.151933348574071703e-02,-2.987911392271111466e-02,-2.521377683229994796e-02,2.242177915532566138e-02,9.784992804060432120e-03,5.266094803810119629e-01
4.976792768189877703e-01,-3.883221770599581957e-02,-3.218115305321084252e-02,-1.635284477208396106e-02,8.707671638656787338e-03,7.453068123980705235e-03,5.343377590179443359e-01
5.107622890362231161e-01,-2.143324249283903860e-02,-3.434904973132699157e-02,-2.703759323682177265e-02,2.980179381790349497e-02,-7.029059670059904091e-03,5.433952212333679199e-01
5.614793889280280670e-01,-2.450175418581193587e-02,-3.762131568758975142e-02,-2.231585238969362867e-02,2.972576878364927705e-02,-8.393517411341099715e-03,5.963137149810791016e-01
4.932746859265021433e-01,-3.344481515779412772e-02,-3.299602894731604175e-02,-1.356598617006747783e-02,7.766957940774637560e-03,1.305895491887330622e-03,5.271958112716674805e-01
5.183593544300852951e-01,-1.610811061012556999e-02,-2.904222933109751326e-02,-9.493868286608184159e-03,9.316143737559267821e-03,-1.020313860895255380e-02,5.418290495872497559e-01
4.962019151950080587e-01,-4.007272648667223325e-02,-3.281491619452933661e-02,-1.272137613765905381e-02,9.906837528938856191e-03,5.118189106714683516e-03,5.334880352020263672e-01
2.496888808703340012e-01,-1.834106315294616041e-02,8.954079012424939754e-03,-6.867563211443139179e-03,-9.203382184604250171e-02,1.758966815129860486e-02,3.029018342494964600e-01
5.343823910765435059e-01,-3.531859776803333850e-02,-4.548393802748759707e-02,-6.658698299272177573e-03,6.651718299049444970e-03,4.620126424947323431e-03,5.751378536224365234e-01
4.548678616287692988e-01,-2.988720791847307434e-02,-3.827648311071160658e-02,-1.002282730205821155e-02,2.160256889763366439e-02,6.990874578091503706e-03,4.908896088600158691e-01
4.961079130456040875e-01,-3.299198495840038881e-02,-3.514707911261413797e-02,-1.034855666663328858e-02,1.413647792022303465e-02,3.742412911009392572e-03,5.310879349708557129e-01
4.900561035227724571e-01,-5.735761922247387123e-02,-2.525626047651993722e-02,3.749032906440150385e-04,-1.761451367166276365e-03,-2.556989729153346606e-03,5.321173667907714844e-01
5.290126584811004617e-01,-3.411466974441890176e-02,-3.358693444130278483e-02,1.122992127326449905e-03,1.638017570750302521e-02,-3.632725760663365472e-04,5.635819435119628906e-01
5.183603735842430282e-01,-3.664863889978672851e-02,-4.463581095127608367e-02,-3.640289721997338763e-03,2.401804750968621407e-02,5.556864177760958631e-03,5.607091188430786133e-01
4.014614241469267597e-01,1.537782391043458763e-02,-1.074137293474428101e-01,-1.075844960540671691e-01,6.978607027639703586e-02,-2.880771766725166369e-02,5.131952166557312012e-01
5.176545272787141938e-01,-3.958828256884866503e-02,-3.964925411820158230e-02,-3.382892820970226019e-03,5.261778523007029119e-03,6.589386478815293866e-03,5.574954748153686523e-01
5.369690947554000005e-01,-3.836491824425433683e-02,-3.538839244089617142e-02,1.135258970785661377e-03,1.344687104711184480e-02,-3.448747969408463496e-03,5.743584036827087402e-01
5.301500910673211386e-01,-3.650281636130814356e-02,-4.107481793199979636e-02,1.601329934427352412e-03,1.159932551325072551e-02,1.090310350332744085e-03,5.693171620368957520e-01
5.183238759567251330e-01,-2.700964744966227737e-02,-3.297329020068878735e-02,-2.310393481198248430e-02,-4.167672297905333952e-03,1.230566125034531551e-03,5.498494505882263184e-01
5.163857467783894428e-01,-3.301614829933904871e-02,-3.649504038318124310e-02,-4.408161832243665218e-04,-1.183499220830337186e-02,-6.703977882622293464e-04,5.515323877334594727e-01
5.212300017737669933e-01,-4.845729257566855352e-02,-1.071618086337533526e-02,-9.298366779181339858e-03,-1.323985031223052881e-02,6.646943252587341443e-03,5.526166558265686035e-01
4.903707628909778071e-01,-3.608437717808157807e-02,-8.782306663058014884e-03,-1.079279917261263301e-02,-1.571675370317723169e-02,3.701431179485523484e-03,5.144498944282531738e-01
5.089793734154153260e-01,-4.226515425773835766e-02,-3.687802219809740989e-02,-9.200313153001639030e-03,-5.426355834930399885e-03,-7.357850266358882847e-03,5.490306019783020020e-01
4.925448136603768901e-01,-4.085124419640162596e-02,-4.311887660160088065e-02,-1.067358891110311951e-02,-7.085639108272129456e-03,-7.499298446750561620e-03,5.351515412330627441e-01
5.218535641535559932e-01,-2.451823843744793674e-02,-2.768708610869621833e-02,-3.053700007582909031e-03,-1.704961964269735737e-03,2.234177182815095912e-03,5.480102300643920898e-01
5.106033725636939247e-01,-3.056102974438926201e-02,-3.373123984081360938e-02,-9.082842417467909893e-03,-7.312719916256894652e-03,-1.998281951464240050e-03,5.431431531906127930e-01
5.164384144111413555e-01,-3.060108153652407736e-02,-3.721151815046394584e-02,2.155716009037572569e-03,6.590949467167420443e-04,-8.820329880297168943e-04,5.503904819488525391e-01
4.936807462994123874e-01,-3.303653323789859653e-02,-2.569611518304826259e-02,-1.233545627662362837e-02,-1.680207554003105772e-02,5.533007376547906080e-03,5.244176983833312988e-01
4.694455922861378028e-01,-4.974720836408955127e-02,-2.228980143464565078e-02,-2.780344014495437360e-02,-8.015839844858129934e-03,-5.971679075179569737e-03,5.086041688919067383e-01
4.782155798374190803e-01,-3.967996598014852938e-02,-2.685341839337537784e-02,-4.545600874974749933e-02,9.279183497919049617e-03,-7.955496168490346076e-03,5.180583000183105469e-01
5.513596475095817739e-01,-7.295893880992027070e-03,-4.683497997968899540e-02,-4.374511194180913387e-02,-1.709913717116485349e-02,1.031833715977054262e-02,5.853934884071350098e-01
5.095897057746566761e-01,-3.377735659281891345e-02,-3.388062125365673416e-02,-3.058583879749526835e-02,-7.502795365202786018e-03,-3.992018836281654992e-03,5.461932420730590820e-01
5.162645453947690699e-01,-1.871580040451820137e-02,-3.873307859991437230e-02,-1.277113989263782036e-02,1.176643082007291716e-02,3.827550582012580801e-03,5.461338162422180176e-01
3.431364815356765519e-01,-6.357359893343614288e-03,-2.614354676149502343e-02,-8.055787920246111622e-02,-7.137969880007034862e-02,6.935746040311531468e-03,4.054020345211029053e-01
4.326568258763047181e-01,-3.461382836815357633e-02,-2.230314772511673982e-02,-3.538794615401371496e-02,-2.388326530961835600e-02,-1.640242812093041513e-02,4.679917395114898682e-01
4.187330217580284564e-01,-2.546804637588850895e-02,-1.834981606123894937e-02,-6.607756491415227307e-02,1.300772925460840640e-02,-6.048422957556171854e-03,4.559818208217620850e-01
5.020330189571230450e-01,-3.512046433148624525e-02,-3.903680636565062811e-02,-2.794294702626625403e-03,-1.592322680076589322e-02,-9.504011269303591289e-03,5.400999188423156738e-01
3.920523535056196773e-01,-4.062912290995521203e-02,-1.725387500474712121e-02,-6.770070511946713054e-02,-3.446209481997818125e-02,5.386971449625923246e-03,4.416398406028747559e-01
5.020164329842504713e-01,-3.781521464268045030e-02,-3.347055867840795229e-02,-3.400152848303664849e-02,-5.464293664521098493e-02,5.021822951422531475e-03,5.491750240325927734e-01
4.912872739369397723e-01,-3.322121851738127352e-02,-4.172891241979581611e-02,-8.429762503812308211e-03,-2.259162435844954547e-02,-9.435906758599092378e-03,5.307121276855468750e-01
4.812983866666698529e-01,-2.799266378296938473e-02,-5.129896547068904522e-02,-2.987489342176750332e-03,5.929218337695031649e-03,-7.290245461147894929e-03,5.216147303581237793e-01
4.598241496797077499e-01,-2.661095657771372913e-02,-4.705995374281471411e-02,-2.204584190102374698e-03,-1.073543648036832249e-02,-9.211914131710482664e-03,4.975934922695159912e-01
4.456674518794609963e-01,-1.482146325475122706e-02,-5.096505422190447665e-02,5.395242913030118704e-04,-2.336408602485755964e-02,-7.287482228067905347e-03,4.814540147781372070e-01
4.960647366548241455e-01,-2.913762865336216867e-02,-5.054840683198233431e-02,-7.062756450094835646e-04,-3.636043139940739813e-03,-5.769508462787192697e-03,5.363599061965942383e-01
4.952069708758987110e-01,-2.703661521838288118e-02,-5.558123676795087564e-02,-1.816226423774710630e-03,-5.597500555913547879e-03,-5.483450917090845061e-03,5.372657775878906250e-01
5.106384255340270517e-01,-3.873302008304035926e-02,-4.404318099330253866e-02,-6.462585371674867823e-03,5.378314937420448916e-03,4.084688399027791225e-03,5.522830486297607422e-01
5.090889934504632119e-01,-3.801000535895404653e-02,-4.215765614412586570e-02,1.817391489624572238e-03,8.113566911364412113e-04,3.441355828366364760e-03,5.492277145385742188e-01
5.162079950889941760e-01,-3.555071963241954180e-02,-3.824445896230799224e-02,3.260145680645924922e-03,-1.561085877735055895e-03,-2.686095843410175247e-04,5.531461238861083984e-01
5.155801689196015669e-01,-3.699286503495996525e-02,-4.472135233755261674e-02,-1.166898049729178438e-03,-8.059913339232259184e-04,2.384106566682434036e-03,5.564982891082763672e-01
5.170251052567682581e-01,-3.954436593325141858e-02,-4.341112825213300219e-02,-3.000447852516731633e-04,9.122896746874906019e-04,4.614139765390878022e-03,5.585725307464599609e-01
5.693867097492314455e-01,-3.483911497541181124e-03,-3.549147970743210534e-03,1.788020763609394007e-02,4.406944454937936594e-03,4.048386278035254887e-02,5.780590772628784180e-01
6.282758010182603048e-01,-1.541234107425321076e-03,-3.221629359532529602e-02,7.610148845104641388e-03,-1.253360959819012875e-02,4.001932363769522549e-02,6.499075293540954590e-01
5.206969354625354818e-01,1.333269191684943733e-03,-1.665379069156211478e-02,-7.825124695750145789e-04,-1.347956427496254739e-03,2.158226567001430424e-02,5.299137830734252930e-01
5.366788835256879331e-01,-3.355178680274115144e-02,-1.085275540438840336e-02,-1.793545444981095929e-02,-2.623601822610554732e-02,3.145943510350111133e-02,5.645650625228881836e-01
5.207930816797445850e-01,-3.285004494493629079e-02,7.492709165164146423e-03,3.053616531846870897e-04,-2.292248777198804648e-03,1.642411039105937109e-02,5.353859066963195801e-01
5.429551625868210829e-01,7.999115321460747996e-03,-2.486120713962158835e-02,1.240881639283364628e-03,-1.047901476929027735e-02,4.689450989978809214e-02,5.583618283271789551e-01
4.947038827641191960e-01,-3.140855263553804511e-02,-2.795658365027309245e-02,-5.664762661436715564e-03,-1.397015000966290825e-02,1.270182457827720738e-03,5.250492095947265625e-01
5.167420976745642491e-01,-7.156312595107516827e-03,-1.876063657558035835e-02,-5.509629940002741706e-03,-5.553861717997856697e-03,1.544206426360912945e-02,5.306436419486999512e-01
5.236756961436428437e-01,-3.562907974865284211e-02,-3.561331578930293507e-03,4.288559737373610903e-03,6.049991422413058748e-03,-1.202416965677184993e-02,5.445303320884704590e-01
5.346246896013518990e-01,-4.159269623601574706e-02,-2.313003336164576318e-02,-4.916162356800972411e-03,-1.009091409843903241e-02,8.339837795112977964e-04,5.675463676452636719e-01
4.603965662827226857e-01,-3.432454358839454045e-02,-3.520023261912350043e-02,-4.243420397714651321e-02,-5.175752423463372137e-02,-1.190560201586887169e-03,5.085525512695312500e-01
5.400838374325663827e-01,-4.320753066887586535e-02,-1.704870552180867693e-02,-3.119479969703238369e-03,2.961371231402101442e-02,-5.790776229547859102e-03,5.730755329132080078e-01
5.262119978699265621e-01,-4.183361278191216615e-02,-3.847978709727126190e-02,-1.654901040991240764e-35,-2.309316025119607842e-03,-1.004358418700464608e-03,5.663929581642150879e-01
1.369782964734573283e-01,1.125916011859304233e-02,6.611831228811003436e-03,-7.412871493794772997e-03,-7.201842470681610320e-02,1.294115811303244226e-02,1.806609779596328735e-01
5.533393079261131886e-01,-5.694843830402587792e-02,-4.170254870047324092e-03,3.781890159133688856e-03,1.109644372099388536e-02,3.408712585860438227e-03,5.860664844512939453e-01
5.216803042411595204e-01,-4.199899150347841115e-02,3.286587627065906680e-03,2.087997499615041903e-03,7.979893197167912261e-03,-1.267982730193375519e-02,5.430884361267089844e-01
5.324099075048610574e-01,-4.670705261009988618e-02,6.090202955136903018e-03,-7.418200254751159631e-04,-8.607354066826238340e-03,1.041474885098618228e-03,5.548111200332641602e-01
1.673427893661868227e-01,2.897089050548418143e-03,3.581373798651747709e-03,-5.701826023527058196e-02,2.097562746978382658e-02,-5.723704711241493250e-03,1.951967924833297729e-01
5.173420694168990863e-01,-4.096914521250247243e-02,-2.666851128874730970e-02,1.030635157212894410e-03,-3.115299631951516917e-03,-9.469617564497041610e-04,5.513317584991455078e-01
6.076582928096101455e-01,-8.473254736359797645e-02,4.279490822231446501e-02,1.105893264997625733e-02,5.674754692117605498e-02,2.697874824519857617e-04,6.460630297660827637e-01
4.917176041060680181e-01,-3.809552815045599838e-02,-3.508678186633915064e-02,-2.625733090922574217e-02,1.660930703053686147e-02,7.755548128265832980e-03,5.312187075614929199e-01
5.076075549247226482e-01,-3.841070632788087802e-02,-3.825706838493747597e-02,8.909529329527048677e-04,2.670012880425558992e-04,3.924462904674324258e-03,5.459861755371093750e-01
5.077481091764063370e-01,-4.322931742228558472e-02,-3.482258262385948266e-02,-4.194743673823417003e-04,2.918451544846858460e-03,7.996133030997578522e-03,5.470217466354370117e-01
4.785378292927055521e-01,-2.547506411149252914e-02,-4.892989004416692378e-02,8.971574001843151888e-03,-1.659928382189041970e-02,5.257534494884179115e-03,5.172539353370666504e-01
4.935306393075047926e-01,-3.798346550633696639e-02,-3.614027612394823952e-02,9.510956665910076527e-04,4.944388189952600605e-03,8.605001966012035264e-03,5.308758616447448730e-01
5.282428849744242871e-01,-3.589674053514713137e-02,-3.553349816448808651e-02,3.833932895354525295e-03,6.609335463254677710e-04,-1.697603177148997730e-03,5.640060305595397949e-01
4.913552105172759865e-01,-3.459247280123026180e-02,-3.293527184594585711e-02,2.824942204785088184e-03,1.549731344493760626e-02,-3.074080310289648010e-03,5.258563756942749023e-01
5.087125298140449114e-01,-2.712558049873384225e-02,-5.222567224126767327e-02,2.936871445785955645e-04,2.091964191680738966e-02,-6.362669772355830818e-03,5.501242280006408691e-01
4.909998678238837178e-01,-3.138473822445567163e-02,-5.149028979733197287e-02,1.281711543136871898e-02,2.245773469035859324e-02,-6.609391288598049155e-03,5.347239375114440918e-01
4.939432047070902998e-01,-2.643364764320654814e-02,-4.324166594712700040e-02,1.935892016064135303e-03,5.396935203664961038e-03,-2.961881576296431992e-03,5.290992856025695801e-01
5.201622645923305033e-01,-3.422877713268618338e-02,-4.076511923795275716e-02,8.345930534235325784e-03,1.356273203532937233e-02,-2.227316073912121667e-03,5.583829879760742188e-01
5.224645112297685579e-01,-3.622657590173683495e-02,-1.574861066151481137e-02,-5.291776886169107050e-04,-7.765544952187872912e-03,2.022691949875179886e-03,5.489155054092407227e-01
5.328360748672207325e-01,2.980969178013051502e-02,-2.261296349499813951e-02,8.910544268659796943e-03,1.028512273309958522e-03,3.931106091202415942e-02,5.357528328895568848e-01
5.347792943968600055e-01,-3.250566401231749780e-02,2.891026390922313283e-03,9.043657510265319449e-04,-1.845002171254757654e-03,1.722106648705470228e-02,5.512599349021911621e-01
5.434981276746135848e-01,-1.225847286306580575e-02,-3.418543985042543643e-02,-1.695612236463282796e-02,-1.442507468919313959e-02,2.174740746753562118e-02,5.695945024490356445e-01
6.220826223980069347e-01,-2.672080354107650435e-02,-2.495397554471553980e-02,1.958614923615031693e-03,2.061711171632932618e-03,4.016112783983815521e-02,6.516637802124023438e-01
5.380289220749321366e-01,1.094382836287349781e-02,-2.065356611811539067e-02,-1.574635582363652538e-03,-7.163470483025080777e-03,4.364505443279802915e-02,5.489514470100402832e-01
5.787215179910778495e-01,1.735736544129393155e-02,-4.176609263676520079e-02,7.000901150023061160e-03,1.026760104065883687e-02,2.460238889825167377e-02,5.950581431388854980e-01
4.833476850317803275e-01,-3.519817202654915156e-02,-3.304018472022191011e-03,2.128363468310406816e-03,-1.867440367151704250e-02,-5.256510604744140633e-05,5.044088363647460938e-01
4.995810024241648106e-01,-3.450220293298303376e-02,-3.427008502344494612e-02,-1.129223062501680773e-02,-2.024022898766406758e-02,-2.400324431672689034e-03,5.354902148246765137e-01
4.414783527504508309e-01,-2.963217424226549657e-02,-2.550642267562308607e-02,-3.079345240819326632e-02,-1.073900069004033037e-01,-5.667705458321831320e-04,5.074071288108825684e-01
4.715319390580418046e-01,-3.709798326234550747e-02,-1.725673415665174293e-02,-2.478491393975680926e-02,-8.626401840452113667e-02,-1.549321352078962327e-03,5.226669311523437500e-01
5.007472049171701745e-01,-3.742313820400883229e-02,-4.475491653611834986e-02,-2.817351011222750216e-03,1.732857970382228104e-03,5.476095329858685773e-03,5.419867038726806641e-01
4.923806438516963313e-01,-4.288029062908463307e-02,-3.722450799982035541e-02,-1.083092835206641256e-02,1.060064239341502318e-02,1.094655243330476882e-02,5.334392786026000977e-01
5.227694798189819192e-01,-3.656935260316826475e-02,-4.980557583277320233e-02,-1.309373908612780895e-03,2.238393242158292964e-04,-3.724345370540004495e-03,5.661144256591796875e-01
4.908046105947906357e-01,-4.946151918644720036e-02,-2.826541654916267521e-02,-4.265336591909888071e-03,2.357999572046777514e-03,5.315409705760018241e-03,5.301332473754882812e-01
4.944158574010916185e-01,-4.409078845616484776e-02,-3.437305243997484938e-02,-2.419788974000110920e-02,1.456699194774393330e-02,7.373804902549498975e-03,5.361036062240600586e-01
5.116858339913477050e-01,-3.841405405618550373e-02,-3.525461162227463974e-02,-7.490802323165085368e-03,8.216035061424190392e-03,6.750279183394576089e-03,5.489894151687622070e-01
4.911002577719816853e-01,-4.498174475571864450e-02,-3.496144820041285906e-02,-1.299588717758730187e-02,1.069930489500538554e-02,9.607853147060330459e-03,5.322026610374450684e-01
4.907663886328829661e-01,-4.900548769991427966e-02,-3.491553096182067883e-02,-4.384106577058941891e-03,4.829423516480533911e-03,5.891712718255471062e-03,5.330840349197387695e-01
4.937685761967960940e-01,-3.657199816336784148e-02,-2.814507775391017486e-02,1.093239060011127854e-02,-5.866087174934316896e-03,3.956890172238060853e-03,5.266609787940979004e-01
5.289104138684135314e-01,-4.133261454412459623e-02,-1.134588921181234333e-03,-6.240900784853569902e-03,-1.116813880202355107e-02,3.179175377321312446e-03,5.517170429229736328e-01
4.856296770201614654e-01,-2.800938038594613655e-02,-4.044275467237889998e-02,-3.611457717128638365e-03,-1.483368890623542116e-02,8.329293232560661467e-03,5.208390355110168457e-01
5.330853679665019662e-01,-5.107406830363697692e-02,1.320315523161225135e-03,2.327920534125226936e-03,7.868637462131504445e-03,-4.616650706155530672e-03,5.600416660308837891e-01
4.602953792611036987e-01,-3.572677518710237754e-02,-3.894371634243815050e-02,1.590928637442284160e-02,-2.768468092668040573e-02,1.210013258981354652e-02,5.011405944824218750e-01
5.328305316993636742e-01,-3.769635401515239459e-02,1.043447070408931587e-02,2.762059759323163242e-03,4.095962745391324052e-03,7.930485586208077878e-03,5.482877492904663086e-01
3.385736861783222307e-01,-8.437411438247138795e-03,-2.692111493907320408e-02,1.684598547636490321e-02,-4.564450795821602125e-02,7.652654523825614882e-03,3.666738569736480713e-01
2.988687623824132222e-01,7.408833979010376325e-03,-1.395409376881545649e-02,4.986982069576250537e-02,-4.710827393230963833e-02,1.039135560720155782e-02,3.256903588771820068e-01
3.450076823550242144e-01,-1.128087746083986098e-02,-1.383403328868333670e-02,1.004554330617993263e-02,-8.706971099402925629e-02,4.076429255502703533e-03,3.885276317596435547e-01
8.309082139711554404e-01,-9.218418951682766371e-02,1.610267263472389687e-02,1.435395509773395271e-02,-4.109317231762447259e-02,2.714823188031314019e-02,8.784998655319213867e-01
3.951972585299842744e-01,-4.137980467455118494e-02,-1.283359102892958625e-02,-7.636930579371752070e-02,9.116394329148358455e-02,8.860106622510254687e-03,4.707618355751037598e-01
4.375702226454895039e-01,-2.462166754394068402e-02,-2.811602542553176542e-02,-2.462729815972174857e-02,5.637858725212059607e-02,3.722475190634396552e-03,4.760728180408477783e-01
4.475390521662634402e-01,-2.686028663382361570e-02,-4.442366989894233620e-02,-2.126595965863041157e-02,5.496423860741499884e-02,1.036283614831487974e-02,4.944060742855072021e-01
4.775427989293274389e-01,-3.478779950744484428e-02,-2.852361772218095504e-02,-2.293866043489852652e-02,4.609787024508937847e-02,6.406089908261345485e-04,5.169790983200073242e-01
4.097229141309637890e-01,-2.445651386807973227e-02,-2.672357053527171789e-02,-6.863449318731568161e-02,2.032024649927674509e-02,1.407713114978082283e-02,4.532841742038726807e-01
5.721623958513113450e-01,-1.868983253495645758e-02,-3.646534437262283213e-02,2.198782571611976322e-02,1.786833188260458435e-02,1.148252830664348197e-02,6.022697091102600098e-01
5.049341370481461588e-01,-2.341333799968217666e-02,-2.136904978119066878e-02,1.963339645585852541e-02,2.186093982623371276e-02,1.534690609813516536e-02,5.304449200630187988e-01
5.192000981589395270e-01,-4.495395917278849351e-03,-1.681468849237544028e-02,1.149244321228983651e-02,1.054030521252003871e-03,2.606436247709040255e-02,5.322573781013488770e-01
4.548991887295455450e-01,-3.346767634241418210e-02,-3.600367572847659736e-02,4.412884220842897692e-02,5.962311858424929750e-02,-1.610076515499684821e-02,5.069828629493713379e-01
4.507373969425642057e-01,-3.913176126168149693e-02,-3.856406262241843241e-02,5.044867916954234172e-02,5.107081102691588687e-02,-9.014367416567650726e-03,5.053688883781433105e-01
5.088450190219628855e-01,-4.861895034962535056e-02,-2.294293191555848987e-02,1.513649866160822303e-02,1.888996243281229614e-02,7.304724943161043475e-03,5.468361377716064453e-01
4.879642105711099465e-01,-3.083285546005171129e-02,-2.662424509771585401e-02,2.671648665844303036e-02,2.923639641484215498e-02,3.860803014297923847e-03,5.212820768356323242e-01
5.517941822369549776e-01,-2.801555109209719063e-02,-2.725152662493013356e-02,-5.560853884456363333e-02,-4.929621802925873708e-02,2.433453765370987426e-02,5.950468182563781738e-01
5.290208825980211582e-01,-1.542427259108508641e-02,-2.619306241507537991e-02,7.409753386801491920e-04,-5.770072049307932091e-03,1.263125819167019125e-02,5.504359006881713867e-01
6.048442184198017380e-01,-2.918402319550100765e-02,8.700318623357988779e-03,1.358790565925867928e-03,8.798053189746316005e-03,4.142932151827960485e-02,6.203178167343139648e-01
5.455633318040616908e-01,-3.501889371175090360e-02,-5.642160697277742720e-03,-1.685415044551386672e-03,-8.612578464025907182e-03,1.161868309713275094e-02,5.670265555381774902e-01
5.324015707316361867e-01,-4.084469686396632881e-02,-2.185415520209876838e-02,1.545721469307832514e-03,-1.587545515895153608e-02,1.503189224716976191e-03,5.646730661392211914e-01
5.212630846669026319e-01,-3.290968794376772366e-02,-2.324622126255404542e-02,-6.083112857563316260e-03,-8.974845162765221832e-03,1.341799549040717044e-03,5.497305393218994141e-01
5.129680270558354405e-01,-3.184096845943279463e-02,-2.590557647939123465e-02,-1.445680470266547894e-03,-3.406184636645003677e-03,1.745924193624816311e-03,5.419120192527770996e-01
5.139861407804493521e-01,-2.643030583582911541e-02,-2.939661814436092535e-02,-3.302594237199170737e-03,-1.505944112918688235e-03,2.545786603862200230e-03,5.419601202011108398e-01
5.042672132418738462e-01,-3.117767298193616088e-02,-4.243954347443079644e-02,-1.321771604789915254e-02,-3.707427942697360396e-02,-4.754587809299219876e-03,5.455030798912048340e-01
5.227928061721311970e-01,-2.854918993289753959e-02,-3.404897756261143771e-02,-2.188232607965470353e-02,-1.793536947546537502e-02,5.059002307439191236e-03,5.563441514968872070e-01
5.165433007375423990e-01,-1.536332579061164272e-02,-2.131218654922500955e-02,-4.539328772082636132e-03,6.461022267377950585e-04,1.926959972047602790e-02,5.360049605369567871e-01
5.168738731551900667e-01,-3.495920054631898588e-02,-3.372465630145499160e-02,-1.065865336608776137e-02,-9.327723815417385961e-03,-3.537198487836519848e-04,5.517628192901611328e-01
5.232649338953303531e-01,-3.019624172746201984e-02,-2.566311536266549509e-02,-3.339322740695537493e-03,4.173831849241409534e-04,4.189090071948446681e-03,5.512871742248535156e-01
5.215085797315093252e-01,-1.529941518144004031e-02,-3.034092689103445872e-02,-1.634762664620769768e-03,-5.517998391786392912e-03,1.257204689192302450e-03,5.445801615715026855e-01
5.181877863236734605e-01,-1.513295039760434446e-02,-2.446171297515403742e-02,-2.626489602320517328e-03,-6.116051341846112134e-03,2.389303733524591935e-03,5.381851792335510254e-01
5.184577942030456077e-01,-1.699192403313465327e-02,-1.946973648609454099e-02,-2.103397500949674009e-03,-1.915326784774300630e-03,3.304717776590421728e-03,5.367460250854492188e-01
5.186004590726303043e-01,-1.531675977163385327e-02,-1.414586465702086238e-02,-4.047100137576933009e-03,-5.351901374281636987e-03,4.616172605566335775e-03,5.335192680358886719e-01
4.763684718580772914e-01,-4.518241908256043216e-02,-2.254314528211068258e-02,-3.251165411758245860e-02,3.717860136797069680e-03,7.015543013692434292e-03,5.138875842094421387e-01
5.192598615237080661e-01,-2.366955198876805055e-02,-2.226897393322782581e-02,-5.197132480474008810e-03,-6.708266121781626505e-03,3.289166688121043704e-03,5.424595475196838379e-01
5.195387403145085292e-01,-4.237980085694506571e-02,-3.442221499555300768e-02,1.760415472472962387e-02,-1.924407655081700414e-03,2.116822248435446668e-03,5.588367581367492676e-01
5.068945227895604866e-01,-5.163360456072677018e-02,-3.127449699983225750e-02,2.351664965836355447e-04,-4.724164960443082476e-04,2.624134716052455366e-03,5.486515760421752930e-01
5.106257738047035311e-01,-3.863587804357737632e-02,-3.064900663935188341e-02,-8.901982629687684280e-04,2.505717796739404240e-03,1.263533196653101199e-03,5.453359484672546387e-01
5.069193577680013441e-01,-4.898117671648008487e-02,-3.344170311246513760e-02,-3.393865578035058111e-04,1.719343053594316940e-04,1.125141476802123900e-03,5.482998490333557129e-01
5.087642705812738253e-01,-5.074790645434340552e-02,-3.435566017029181851e-02,3.607752969808415960e-03,4.088408405136798106e-05,5.948861795956594638e-03,5.516304373741149902e-01
5.166313967051070488e-01,-2.279137023026986397e-02,-1.266651096310331126e-02,-3.117473175599761240e-03,-7.532411111753311824e-04,1.192960826695022881e-02,5.348604321479797363e-01
5.157052388885212668e-01,-4.135830214525895721e-02,-3.639759719987728515e-02,1.063533673945837041e-03,-1.592724985136822818e-03,2.662760452899065600e-03,5.546289086341857910e-01
5.262756231909999638e-01,-4.439486176395626704e-02,-3.721131460908105870e-02,1.018928286485640961e-02,3.956940895670252312e-03,5.816906585368688577e-03,5.675182342529296875e-01
4.838134657162979635e-01,-2.707872599761618204e-02,-2.363394258501294587e-02,1.743163726529978544e-02,1.123901922289335421e-02,-1.369411421725824467e-02,5.109950304031372070e-01
5.784980247256723551e-01,-3.822968441692725650e-02,-2.747144835889633874e-02,2.948211799892998600e-02,-5.488112639840599626e-03,-2.887452728505889368e-02,6.156566143035888672e-01
5.213279346233790079e-01,-2.487608900914217713e-02,-2.102188542821400996e-02,2.095136550281919037e-03,7.846778345405119003e-04,-3.606097623554050356e-03,5.443367958068847656e-01
5.427338157781728123e-01,-2.838694690059032077e-02,-1.331875107425162241e-02,-1.385739097393165562e-04,3.708750408324149473e-03,-1.530999188964726754e-02,5.643976926803588867e-01
5.140405670536694061e-01,-1.883892399130338013e-03,-1.520709793282348787e-02,2.060126791018160926e-03,3.456149526313868621e-04,-1.056709358136065195e-02,5.230462551116943359e-01
5.643397151406660539e-01,-9.636119765634471035e-03,-1.457177110745733195e-02,-8.429339490887472267e-03,1.971630883613447599e-02,-5.368659352011452557e-02,5.850911736488342285e-01
5.265522265484389175e-01,-2.900239473927951339e-02,-2.282755074750469904e-02,1.737840779940559924e-02,-1.504684044048071496e-02,-1.182943528452945481e-02,5.543046593666076660e-01
5.515217275078421189e-01,-2.468446752376901587e-02,-9.353959799446559531e-03,1.114989507372851803e-02,-6.241891981810270516e-03,-1.934731257303679008e-02,5.701121687889099121e-01
5.166154409184500196e-01,-1.829924489042852875e-02,-3.576686736940484779e-02,1.221790370235946790e-02,7.210023390047277762e-03,-9.797738981561571886e-03,5.446781516075134277e-01
4.761568869506393464e-01,-3.990691991730338506e-02,-3.419008984328972267e-02,5.141652737706715881e-02,-3.009787058667647008e-02,1.141312581596950950e-03,5.235043764114379883e-01
4.746148281952426995e-01,-4.290866802484039066e-02,-2.780868195076710570e-02,3.813190907784737294e-02,-2.573927242242923796e-02,5.728074458662549447e-03,5.164223909378051758e-01
4.995636761516454305e-01,-4.622708478951853550e-03,-4.008804356370412880e-02,1.922756780518935713e-02,3.256121128060986136e-03,-1.405344339603068447e-02,5.244771242141723633e-01
4.478008690135775738e-01,-4.309489327748827758e-02,-2.295727017744314535e-02,1.564593804133480523e-02,-2.827751112210909711e-03,8.093004267631664223e-03,4.821343719959259033e-01
4.903904079142567540e-01,-5.616101514522872651e-02,-2.605907362309420328e-02,-3.172231396667437794e-03,3.474280377138317267e-03,8.581831527938295562e-04,5.322038531303405762e-01
4.899205346982891673e-01,-4.805141323261888364e-02,-3.083955663955545434e-02,1.192115481841618876e-02,-2.255666345436788470e-03,4.486010006238128414e-03,5.300495624542236328e-01
5.209722655256268098e-01,-4.672907930407604882e-02,-3.716785386271997949e-02,3.866489078738044594e-02,-1.184477901918746558e-02,4.036488020179868595e-03,5.673649907112121582e-01
5.072066263531308516e-01,-2.166751592475490984e-02,-3.941628579537725940e-02,2.016136317660366037e-02,9.386352466801039379e-03,-3.208013432411229663e-03,5.393740534782409668e-01
5.018696736127995495e-01,-4.252577254208264601e-02,-3.336150676429525119e-02,1.864747736208801840e-02,-1.143342364991183861e-03,8.813512218399077378e-03,5.410559773445129395e-01
4.468227211984542313e-01,-1.757108432216333838e-02,-4.302538331526978288e-02,1.253925046326734641e-02,1.700397163892344160e-02,-9.423726954374898879e-03,4.793077111244201660e-01
5.270607326857454922e-01,-4.835423592491297495e-02,-4.045640589975990631e-02,2.307240443415222581e-02,7.470663667778027102e-03,-1.061440621880318808e-03,5.730515122413635254e-01
5.419256413655602067e-01,-4.551337022824067380e-02,5.162053252218967714e-04,3.993611410528448251e-03,-1.934681331042194252e-03,-8.694205220872311748e-03,5.660826563835144043e-01
5.430640768120148509e-01,-5.444354626076208792e-02,2.945925846688043914e-02,7.678092144403767666e-03,-3.216984547616573171e-03,-3.842150253801847066e-03,5.605128407478332520e-01
5.260802386250109652e-01,-4.779276268647802972e-02,2.381499064068914873e-02,5.595315616016629211e-03,-1.291434156537581146e-02,-8.134265179667761470e-03,5.423623323440551758e-01
5.374274041773036137e-01,-5.463941358917098756e-02,3.987424010052670331e-03,6.149537720776265988e-03,5.748388851411771923e-03,-4.842433683440618489e-03,5.652894377708435059e-01
5.406559983907951450e-01,-4.447951087521520575e-02,2.051057302801612137e-03,2.949075957804705560e-03,6.001072969607335701e-04,-2.824478963802609394e-03,5.633587241172790527e-01
5.341712215824904186e-01,3.586544140871034125e-03,-3.243558892721057352e-02,-4.888198024611729170e-03,2.344639220380812916e-03,1.535824226493442794e-02,5.502057075500488281e-01
5.175306256700473728e-01,-1.219738881934953612e-02,-4.709180840816701297e-03,6.965492463851247337e-04,4.218722486965987770e-03,2.146189674014127580e-02,5.273877382278442383e-01
5.231163733251040782e-01,-2.990262010807498427e-02,-2.465108844076846495e-02,-2.723896284860941649e-03,-1.982191866555847379e-03,3.526574261176979551e-03,5.504768490791320801e-01
5.187776093157470125e-01,-3.499494601161448615e-02,-4.131732727942499794e-02,-6.654683144060796925e-03,-1.218646516368069102e-02,-3.870329120115912919e-03,5.575199723243713379e-01
4.943414629086466117e-01,-1.927337162007056182e-02,-3.291031338395761230e-02,-4.505175498966110248e-02,-3.930212633701111319e-02,9.240745653279093877e-03,5.310079455375671387e-01
5.190415319598170596e-01,-2.244204696964915979e-02,-3.372330222484276607e-02,1.806790086835061235e-03,7.473789671678695082e-03,4.502208392474091152e-03,5.474290251731872559e-01
3.947103035759326195e-01,-2.452078951783401295e-02,-1.374978887851963094e-02,7.092897015283533557e-02,-1.023762831008057789e-01,-3.011414467459516860e-03,4.668167233467102051e-01
3.471817531632513387e-01,-2.693749218143073887e-02,-1.034308242042701609e-02,3.419628493029717997e-02,-4.249155108286371829e-02,7.316643308579820829e-03,3.783089220523834229e-01
3.963739618965008704e-01,-2.186048633579487643e-02,-1.124091483097161559e-02,6.252361340051429406e-02,-1.071715431454558221e-01,-1.033559770954083600e-02,4.659363329410552979e-01
4.733126873383735611e-01,-4.066245354533598588e-02,-3.192551206979352130e-02,2.369733930264839375e-02,-1.919032281219956379e-02,1.073068675121364828e-02,5.127291083335876465e-01
2.736138174207503049e-01,1.599270312588006726e-02,-1.650424169875153169e-03,3.055904447253415118e-02,-2.446713186716059640e-02,3.253521399891959494e-03,2.754167914390563965e-01
2.827530113963095948e-01,-2.331775462741630944e-03,-4.647612459134906060e-03,-1.640549440307103451e-02,-3.905113888108906195e-02,-4.541842234467611920e-03,2.956064641475677490e-01
2.786375356032275152e-01,2.886708634330728551e-03,-6.668266473506739844e-03,-3.633562471613521055e-02,-3.066640243882664402e-02,-2.938384847798365413e-03,2.925280034542083740e-01
2.006428784390230924e-01,-1.216188324285717715e-02,-1.005469037882691929e-03,-5.601233237306406376e-02,-6.098470477499264714e-02,-1.448185878334087330e-02,2.534460723400115967e-01
2.999138433264275649e-01,2.195860708251715088e-03,-5.279948647088639202e-04,3.938014899061647450e-02,-4.495487604726806918e-02,1.053131773199724418e-02,3.170209825038909912e-01
1.762517807773124334e-01,-6.797387037275384736e-02,9.594928372113713938e-03,-1.188119724387871889e-02,-7.920948409997677353e-02,9.133091079899331374e-03,2.573226690292358398e-01
5.065514302141476133e-01,-4.744460200798222838e-02,-3.140813607678452635e-02,-1.159814104817944412e-02,5.652203571807241922e-04,-5.042831384728896534e-03,5.465943813323974609e-01
4.850241999974954643e-01,-4.784948131519078940e-02,-3.203893438037519470e-02,-6.954862327066160636e-03,-1.947561932567284677e-04,-8.647887375378150374e-03,5.254986882209777832e-01
4.937224669092619700e-01,-3.647767807225257841e-02,-3.522206135340122390e-02,-1.209473689956175498e-02,-1.797715826656223065e-02,-3.625346377884958778e-03,5.309386253356933594e-01
5.087220011883007986e-01,-5.204206241538975042e-02,-2.870742294237402237e-02,-1.242770701665450728e-02,-7.200536052851961091e-03,-6.169137304279464357e-03,5.501351356506347656e-01
5.030309876387506485e-01,-3.645096743832743069e-02,-3.362567562196822069e-02,-6.620614406185190010e-03,1.676462139778848906e-04,-2.708315826670074176e-03,5.382175445556640625e-01
4.612174576387604308e-01,-1.308456626801862699e-02,-4.652009226947931286e-02,1.521377453974182697e-02,-3.616340728083795170e-02,-1.076599997303577744e-03,4.965482056140899658e-01
4.044082328589469477e-01,-1.965840986088268627e-02,-2.544204175189410111e-02,1.493754517302383483e-02,-9.921460348291594178e-02,-8.992883282314099308e-03,4.612604677677154541e-01
3.515476857267724187e-01,-2.177578851804501392e-02,-1.479629885826976021e-02,9.024941062967592811e-03,-8.492330659849195440e-02,-1.706747927892494909e-02,3.994592130184173584e-01
5.250282659434812871e-01,-4.023340404185121733e-02,-3.735149541243534821e-02,-2.333483633801493404e-03,-3.157596387287674514e-03,-1.312832077986576286e-03,5.638718605041503906e-01
4.720496662377091646e-01,-1.770480913807806478e-02,-5.287876085566398099e-02,-1.453852589496919647e-03,-2.272483136910693688e-02,5.412689572008389481e-03,5.098693370819091797e-01
5.228871192750517150e-01,-3.568322111280128328e-02,-2.531322465574367686e-02,1.566543775552992068e-02,-8.801626280329821750e-03,-1.969360422147781002e-03,5.543431043624877930e-01
4.909625872462610174e-01,-3.253583381019703458e-02,-2.938709572324693653e-02,1.092715164379498040e-02,-1.103718736528119457e-02,2.197644144124095370e-03,5.226378440856933594e-01
5.257405145382215705e-01,-3.800617095713376692e-02,-3.486050941085644395e-02,3.627269364186848366e-02,-1.791274119882544508e-02,7.703247506876929624e-04,5.665318965911865234e-01
5.419473064536879381e-01,-3.081662917802241441e-02,-4.299792303010646632e-02,1.341517949582876103e-02,-4.279025112305161194e-02,-1.608890590337441751e-02,5.848020315170288086e-01
4.955968503451194662e-01,-3.783544608130037790e-02,-3.822402074768105340e-02,1.123319521277346862e-02,-1.638850944658151731e-02,1.092358308688435968e-02,5.350698232650756836e-01
4.897747741428720158e-01,-3.696212277518851064e-02,-4.389311504861523328e-02,2.154476064294112703e-02,-4.715669256847361546e-02,6.595153508073610393e-03,5.379078984260559082e-01
4.476511276748900703e-01,-9.535184555347772650e-02,-6.328410657632649317e-03,5.508164121919753575e-02,-1.226199479403940057e-01,-2.885405996772094986e-02,5.578028559684753418e-01
5.459354846058330768e-01,-2.198030504906459126e-02,-9.424985310657690851e-03,-3.385127465773790992e-03,-3.968836927516593803e-03,1.478280456669018098e-02,5.623992085456848145e-01
5.211052080162462685e-01,-1.442300519518655011e-02,-1.130624792435691583e-02,-2.343639001169100632e-03,-2.528372013895859808e-03,8.704409055580876464e-03,5.342228412628173828e-01
5.180956094544248991e-01,-1.165909533333869819e-03,-2.349284395902881406e-02,-9.349027788327251339e-04,-3.880749987456349071e-03,7.878310434652986693e-03,5.309976935386657715e-01
5.200187541899671251e-01,-1.721228716034356454e-02,1.158961054079943320e-02,-5.010510884993659222e-03,-5.138110719185629005e-03,2.095450699311975779e-02,5.248287916183471680e-01
5.223913448172515794e-01,-3.769792433179125490e-02,-4.095089118538478012e-02,-3.356978579381976035e-03,-3.846997473557843550e-03,-4.903231611228230438e-03,5.618566274642944336e-01
5.348757544267133124e-01,-4.745517618488478973e-02,-4.226231383719053492e-03,3.876737124498623975e-03,-8.286107083575260449e-03,-7.650029264993753533e-04,5.621897578239440918e-01
5.671506985555166969e-01,-3.996263203124184038e-02,6.265146382402997371e-03,8.932429483032673298e-04,8.983949939055841521e-03,3.445921579243790139e-02,5.886127352714538574e-01
6.273476368770152245e-01,-3.988600180231441361e-02,3.968277402268099996e-03,2.230535647182544864e-02,2.748683793631429353e-02,4.464661168394960800e-02,6.539128422737121582e-01
5.845068906654744545e-01,-2.584515799342818054e-02,-2.569064438360543767e-02,2.452008691335275103e-02,-1.295312832990171137e-02,4.416923656929172548e-02,6.169239282608032227e-01
4.275110054874115550e-01,-3.783750001540756025e-02,-1.776562590023730848e-02,-4.687950658752227523e-02,-2.153596878636514569e-02,1.772102774587688704e-03,4.643334746360778809e-01
5.174167406953060766e-01,-2.888971097812390032e-02,3.354159763116287829e-03,-2.488211488261518178e-03,-7.333974213007769458e-03,1.125016473067843095e-02,5.314461588859558105e-01
4.120829409027528811e-01,-3.619242813437137385e-02,-5.802504791590834543e-03,-4.572996368626122687e-02,2.854654145804558230e-02,9.208304323359136831e-03,4.440991878509521484e-01
4.147808541634380730e-01,-4.373757173136899601e-02,-1.276097168376744140e-02,-5.382269320069948265e-02,2.152118264341568860e-02,1.932208107862142107e-03,4.550677835941314697e-01
4.130600172878887699e-01,-4.316064430367758109e-02,-9.522840368260732102e-03,-6.726289647550201534e-02,-1.045484538871861886e-02,2.641162763520922552e-04,4.558766782283782959e-01
4.125753829863836875e-01,-4.399669672768935502e-02,-9.404709692611590288e-03,-4.035717563825916288e-02,-6.300643808415617303e-03,-7.881559997370788176e-03,4.461529850959777832e-01
3.913149285115611331e-01,-3.333548822664583744e-02,-9.400221315232965003e-03,-2.280415498739416652e-02,-1.492922418708347507e-02,-5.677118400663947427e-04,4.158923625946044922e-01
3.361984904652647321e-01,-2.458851150250140893e-02,-5.958330374973980215e-03,-7.021302863692638341e-02,-1.214909576703374072e-02,-4.904649439099459558e-03,3.729576170444488525e-01
4.446976837892680501e-01,-2.440998720788267740e-02,-3.158037922565246070e-02,1.672238776332888796e-02,-8.524121138268385411e-02,-2.466233699974094279e-03,4.961173832416534424e-01
5.266502073951184748e-01,-4.147108207814251268e-02,-2.395533750470915657e-02,1.432599429610962628e-02,8.893521555988753019e-04,-4.108591281206898024e-03,5.601662993431091309e-01
5.436873279529021996e-01,-4.021302730057035868e-02,-3.102498129825889683e-02,3.493479829790042956e-02,-2.411963928068190655e-02,-7.367955857812530894e-03,5.841477513313293457e-01
5.564292332139593178e-01,-3.930956388264583712e-02,-2.747574674895703062e-02,3.016326587225058586e-02,-1.163320307308605972e-02,-9.990612259512249640e-03,5.928151607513427734e-01
5.276482274882785539e-01,-3.885545558643788144e-02,-4.408328785428178298e-02,-1.778416411900907807e-03,-1.589028417282081209e-03,-8.320781347781851245e-04,5.691524147987365723e-01
2.632791520264158303e-01,-3.759042664578035597e-03,-3.475726463467304628e-04,-6.307511868849366432e-02,-4.881185330363765895e-02,-1.216319218398952476e-02,2.998951077461242676e-01
2.984591229797296519e-01,-1.980328609630023495e-02,-3.464305293226041527e-03,-7.032311003674369954e-02,-3.915314251624097547e-02,-6.065698009248885955e-03,3.404455184936523438e-01
3.793364870216511253e-01,-2.964673059859196380e-02,-7.004818893318942585e-03,-2.598828603935640982e-02,-1.377325017000144945e-02,-7.237652583835850126e-03,4.015870988368988037e-01
4.131434210114522942e-01,-1.969343423894578948e-02,-2.965907373561488258e-02,-2.046805476363502962e-02,-4.830754726914242986e-02,-1.629178422669481582e-02,4.481233060359954834e-01
3.966673441341104223e-01,-2.650439894107872729e-02,-2.296773545953434414e-02,-7.530584863834774434e-02,-7.251361620501411975e-02,-6.575377227786518251e-03,4.588109850883483887e-01
3.889977829621026340e-01,-3.100513421879644294e-02,-1.619578102601540448e-02,-4.802468325735213817e-02,-2.267862741428299661e-02,-1.464499505613426483e-02,4.236830174922943115e-01
3.843297145762757383e-01,-3.132219085121037971e-02,-1.463741508527943713e-02,-4.638726543210652115e-02,-2.750866334205368663e-02,-1.300298220572716421e-02,4.187392592430114746e-01
4.578792463434663285e-01,-3.666920755312580438e-02,-2.747201222487738459e-02,2.506129421103735905e-02,6.514452104586135328e-03,-1.219176112804932870e-02,4.925157129764556885e-01
5.162450915855447686e-01,-3.561237876546860526e-02,-4.142249856260249441e-02,-2.368877475170324664e-03,-9.055977154666222098e-04,-8.396429504699294902e-03,5.549933314323425293e-01
5.175594499703842777e-01,-3.767279203335452409e-02,-3.409039032078012288e-02,5.118719666529180897e-04,-1.309558332768624668e-03,-1.640793507661755714e-03,5.534623861312866211e-01
5.271166762145418350e-01,-3.463821267897540523e-02,-3.672342117109544946e-02,-2.817492166706295469e-03,-4.633119751589337421e-03,-4.655425253729434526e-03,5.629364848136901855e-01
5.310088244354206344e-01,-3.823792092614133886e-02,-3.466914115387520479e-02,-4.050683793335874659e-03,-2.330490886882530255e-03,-3.799802943613839103e-03,5.675666332244873047e-01
5.166342925649627382e-01,-2.064583183254295462e-02,-3.493824760152058895e-02,-5.185718548970842494e-03,-6.446785077316406765e-03,5.832243242024626878e-03,5.448492169380187988e-01
4.839071337576313359e-01,-3.014096135376034824e-02,-4.463936897435510920e-02,3.175671343344306247e-03,-7.746506610067395698e-04,-8.443130578156758659e-03,5.216842293739318848e-01
4.644087860146804414e-01,-3.744363751627308168e-02,-3.135703267881903566e-02,-2.523397358255910147e-02,1.523293304443559294e-02,1.038625839849235608e-02,5.017651915550231934e-01
4.782659463229342323e-01,-4.926046730270075558e-02,-2.425170872615664552e-02,-5.323859732102954878e-03,1.077426986133573315e-02,3.200854548103774112e-03,5.159271359443664551e-01
4.573805305722592474e-01,-4.039463866277917536e-02,-2.085707267686326416e-02,-7.079691501411017329e-02,5.399502899169725256e-02,3.273634174674459017e-03,5.121051073074340820e-01
5.273177659155161567e-01,-1.698309608121742476e-02,-3.784954837485651757e-02,-7.995173291223749493e-03,1.500593755725780805e-02,-1.707223919898462859e-03,5.558169484138488770e-01
4.126635459198281231e-01,-4.303498034982775056e-02,-7.943294778477827389e-03,-4.347661383473791497e-02,-6.000954052495612208e-03,-1.200621378562089902e-03,4.457402229309082031e-01
5.054322622063556203e-01,-3.846224019006419526e-02,-3.097185665077506478e-02,-3.754967029565236397e-02,-2.554245728789767810e-03,-3.170780423514834960e-03,5.441350936889648438e-01
4.908199684182467659e-01,-1.293466068927881518e-02,-5.664246755387059018e-02,-3.277321174136270387e-02,-1.695315268622175561e-02,3.136518910738412018e-04,5.308313369750976562e-01
4.163016322848533401e-01,-2.574079983119237358e-02,-2.851615578869115541e-02,-6.557927596595235220e-02,7.823869469392846429e-03,-1.919462640902464597e-03,4.579657912254333496e-01
5.185924613533354766e-01,-4.031552550389291834e-02,-3.282167148363915321e-02,-3.260919208332184460e-02,1.069782780545395877e-02,-4.106385363528573178e-04,5.583724975585937500e-01
4.194644473544379415e-01,-2.537218236329422116e-02,-3.886600010267021732e-02,-6.317357981533872069e-02,6.527191721630670046e-03,1.747248988277383397e-03,4.649450778961181641e-01
5.348892682186789926e-01,-4.645805435269351191e-02,2.364092995984820589e-02,6.591561039840825205e-03,-4.036961519070024311e-03,-8.672226345869114492e-03,5.500286817550659180e-01
5.190712123957228474e-01,-3.830615772378365147e-02,-4.258646126657514297e-02,-2.397469676918462689e-04,-1.024828417019352841e-03,-6.493634457376058766e-03,5.596457719802856445e-01
5.435597851981706086e-01,-5.754838461406375227e-02,2.803519572049223418e-02,9.504146184515803453e-03,5.238389404497388038e-04,-1.840043380481301387e-03,5.634647607803344727e-01
5.342422262435273517e-01,-5.043971396290125586e-02,4.795803814948029764e-02,3.044982168766374470e-03,3.327702954781088483e-03,-8.015740101085376546e-03,5.424550771713256836e-01
5.302345102800374299e-01,-4.375433447508542129e-02,3.320523632655641988e-02,3.320527883565047716e-03,-5.992961355771506647e-03,-1.882338961894181734e-02,5.407548546791076660e-01
5.336423379841428449e-01,-4.904721559671984532e-02,2.666817161471823905e-02,3.390300555161021492e-03,6.445491303163538785e-03,-2.476555535991721135e-03,5.489252209663391113e-01
4.707641419502336388e-01,-2.830751545819532033e-02,-2.470321599402486301e-02,9.894382278280216755e-03,1.708809059391601728e-02,1.016499457369204060e-03,4.984571337699890137e-01
4.812244210512435227e-01,-2.361607398632506460e-02,-4.483736273292590613e-02,6.018018933543716267e-03,1.345213968040336744e-02,-5.776199820028140100e-03,5.165067911148071289e-01
4.953309131880615501e-01,-2.920754133381259221e-02,-3.310771254629013560e-02,-1.208165823767751472e-03,8.461571965807646728e-03,1.312036628783917280e-04,5.267075300216674805e-01
5.207600369639513449e-01,-3.321260127865563461e-02,-4.063631695747568773e-02,-1.257260043498068707e-03,7.712804660133520951e-03,-1.814799260747291349e-03,5.578946471214294434e-01
5.116524091803771324e-01,-4.326263420502796109e-02,-2.349502302132475129e-02,1.743035362212334849e-02,4.264746809205229722e-02,5.395187913284548754e-03,5.511871576309204102e-01
4.942230530206133121e-01,-3.219598887279273569e-02,-3.804413858778216140e-02,1.548841667872101393e-03,6.767019255973634635e-03,-1.240399330674808384e-03,5.295082330703735352e-01
5.131187040200180238e-01,-2.475143607216026553e-02,-2.672173958779108793e-02,-1.138625700415777557e-03,1.472045470119661900e-03,6.444505374021987539e-03,5.389832258224487305e-01
4.534360581310574734e-01,-3.866174407009834169e-02,-3.544178154165339434e-02,7.437243306537988201e-03,7.870314975138842373e-02,-5.735364446592781593e-03,5.093458890914916992e-01
4.963936733604446538e-01,-2.926918923607285672e-02,-4.106144276664294712e-02,-1.781222226522582650e-03,3.786147527503426913e-03,-3.273115529405873033e-04,5.317067503929138184e-01
4.946754844779369109e-01,-2.765398298534735289e-02,-4.124302804374402331e-02,2.077646212898475592e-03,2.243767235635337441e-03,-2.513086804987777704e-04,5.292815566062927246e-01
5.144896912756571350e-01,-3.940807127827303247e-02,-3.607678096771566034e-02,-3.033131372963084244e-04,-2.025907516930206074e-03,-1.687124544875075747e-03,5.522587895393371582e-01
5.143893773295217242e-01,-4.199248287902898613e-02,-4.394065522876935970e-02,-3.012635810800673832e-04,-5.378573074156970486e-04,-2.344240871597763187e-03,5.573742985725402832e-01
5.081947684213043992e-01,-3.685068778295680358e-02,-3.936240109337907356e-02,1.030829654988096129e-03,5.040665607273634753e-04,-1.433112752298136387e-03,5.463148951530456543e-01
7.459624470895257486e-01,-9.836022578561171015e-02,1.003282023739490714e-02,4.726774789748011685e-02,5.503788310730423072e-02,1.257908836706705599e-02,8.058387041091918945e-01
5.172667260019976343e-01,-4.939123475455162171e-02,-3.359876355413360383e-02,3.233212953481341256e-03,-1.007241878706189572e-04,-3.930317058777126407e-03,5.589985847473144531e-01
5.113715045906219725e-01,-3.910653772432748365e-02,-4.379578368176142988e-02,-1.376766674908668745e-04,-5.884130869744961601e-04,-2.239221801141204164e-03,5.528521537780761719e-01
5.117971597284131091e-01,-3.775369230873751314e-02,-4.704494870050521249e-02,-2.325880287948633909e-03,-7.045468197744754208e-04,-1.498630440844737378e-03,5.542769432067871094e-01
4.779718456123843162e-01,-2.404719686051273730e-02,-4.884419674635795405e-02,-2.975537201600142933e-04,-4.928344549691537598e-04,5.468044936127790766e-03,5.149536728858947754e-01
5.115413837365265781e-01,-3.709312919362259264e-02,-4.588536980076293736e-02,-3.047586881365540036e-04,-1.780521386473180468e-03,-2.725708295630299618e-03,5.531120300292968750e-01
5.373245480722677048e-01,-5.195848501213609638e-02,-3.514888459635437390e-02,-2.475809213625930569e-03,5.510992522301234181e-02,-1.366175133741148739e-02,5.893394947052001953e-01
5.260556066734453085e-01,-3.491550055352277138e-02,-3.655080011338074364e-02,-3.403299267458300987e-03,1.605311557356500036e-03,-2.541846786359353016e-03,5.618456006050109863e-01
5.044403791754177302e-01,-3.768961059428158067e-02,-5.551775106108186586e-02,3.211308304638615246e-02,9.045068136383566104e-02,-1.591429361911055052e-02,5.764420628547668457e-01
5.262937428268850137e-01,-4.338910503356088744e-02,-2.488613342957665675e-02,2.259441624551085034e-02,4.867655601809592336e-02,6.936008437008323209e-03,5.684400796890258789e-01
4.976367754063613646e-01,-2.990592155217741688e-02,-4.887216329711677187e-02,-7.730924660391659889e-03,2.903061688007538277e-03,4.155862972857700399e-03,5.375155210494995117e-01
4.973488947547095584e-01,-3.276949082766644761e-02,-3.195086692409318530e-02,1.355711133273024022e-03,1.490761607128148099e-02,-1.625648139510068257e-04,5.303437709808349609e-01
5.189167208620033556e-01,-3.413143754737801849e-02,-5.048521526795671233e-02,8.887909003337837429e-04,1.079465759067176241e-02,2.561495572507834981e-03,5.617346167564392090e-01
4.936961052064223754e-01,-3.305745383592537112e-02,-4.511808672238759588e-02,-4.813331414810655129e-03,9.047645125683579856e-03,1.176952629705031901e-02,5.335713624954223633e-01
4.938193489734044594e-01,-5.013713939848027379e-02,-2.876320671317716959e-02,-2.038791654872521963e-03,-3.738345623988433421e-04,-3.501089765138854382e-03,5.336372256278991699e-01
5.417191180371250248e-01,-3.158944896893697840e-02,-5.175618927190156482e-02,-1.530982816950536736e-02,1.913007233511092656e-02,3.488353773131822912e-03,5.852253437042236328e-01
5.260201757536411282e-01,-3.983962734957760543e-02,-4.058500990635721672e-02,-8.268210879957565594e-04,4.859889976000620975e-04,-3.878398292862442979e-03,5.662751197814941406e-01
5.287808492044023811e-01,-4.101101653308561468e-02,-4.061402587571147360e-02,5.305696804000183857e-04,1.045204092310616931e-03,-3.769838296783973881e-03,5.696344971656799316e-01
5.220053524085417340e-01,-3.771812149462266950e-02,-4.091090113565074016e-02,1.447188547400442326e-03,2.016536225106519125e-03,-4.916991307198894691e-03,5.614077448844909668e-01
5.240336716613472889e-01,-3.816746120088779226e-02,-3.991580892059742869e-02,-3.549601771666807161e-03,-2.306606921692239565e-03,-4.864901181597074652e-03,5.631881356239318848e-01
2.646878856591239337e-01,2.486101479784930124e-02,-1.544229011954986741e-02,-1.338356488591718463e-01,-1.869105835845693078e-02,2.896976578335923314e-02,3.551180958747863770e-01
2.983764118380237695e-01,-1.344139655929926791e-02,-4.011902299803554728e-03,-7.241930867392602778e-02,-3.914252830995152560e-02,-5.272413066519070733e-03,3.388103544712066650e-01
3.392246590532547179e-01,-2.068647829559498719e-02,-6.072112114255359683e-03,-6.267760390610223331e-02,-1.395039282822734331e-02,2.200424172465874242e-04,3.699448108673095703e-01
2.119998627112324452e-01,3.185055517053912710e-03,-2.080525084993993523e-02,-9.609324885365470859e-02,-2.332636379978677774e-02,-1.149465322802891223e-02,2.809255421161651611e-01
2.090613740848890623e-01,1.717558653861570028e-03,-3.911585317108694226e-02,-5.597995333299581044e-02,1.012492834740309072e-02,-2.549455890563470661e-02,2.545272111892700195e-01
2.588657894079104960e-01,-4.270280203716073086e-03,-2.674784969488724906e-03,-1.096943274323392281e-01,-1.824617852840317370e-02,7.277590072974555666e-03,3.256984651088714600e-01
5.298068580619933465e-01,-3.686346437487908467e-02,-4.135377726942746079e-02,5.658165152503228951e-04,-2.466376237292926244e-04,-1.356159059517433960e-03,5.689346194267272949e-01
5.131171112787620281e-01,-2.857166907085348373e-02,-3.756700039066573904e-02,5.091377972898067025e-03,-8.372863831988899136e-03,-4.269484405892706529e-04,5.465061068534851074e-01
5.300448692092110115e-01,-1.229618506600618777e-02,-4.384409111918918800e-02,3.585058872611821684e-03,-2.303144804945813588e-03,8.548202332918830929e-03,5.590281486511230469e-01
5.166338276472929314e-01,8.190216958366886013e-03,-3.756250039041128530e-02,1.019047046413087444e-02,8.106476542119857298e-03,1.502140992391827641e-02,5.339068174362182617e-01
5.344983862409733444e-01,1.612411257879808879e-03,-4.052489177693741063e-02,-1.264387270494070695e-02,4.129267443023960232e-03,-6.869968382610840314e-03,5.557605028152465820e-01
5.308384008627494710e-01,-3.267524063360818798e-02,-3.820942932941071013e-02,4.618838671394099454e-02,1.425664332761871107e-02,-2.101341748531433944e-03,5.724682807922363281e-01
5.061476298912858107e-01,-1.982038756798717993e-02,-4.220374263213266808e-02,5.380152611015939085e-02,-2.184659046888969350e-02,1.410592530989965981e-02,5.473836660385131836e-01
4.944723249273075272e-01,-3.593727994987255814e-02,-3.167386046103093378e-02,2.056103595343903093e-02,-8.725630079799197043e-04,-5.144935390839229229e-05,5.294919610023498535e-01
5.355894935821502445e-01,-2.329569288487215450e-02,-4.147916437531537492e-02,5.252043742733568388e-02,1.259355928316131801e-02,4.353333420891843109e-03,5.758937597274780273e-01
5.530855577750901642e-01,-2.929463961874090305e-02,-5.546580086996191761e-02,3.582822552647074721e-02,6.563035320574076882e-03,1.068638472533288983e-03,5.992301702499389648e-01
5.171029692168347403e-01,9.829471061936934095e-03,-4.061180030264088803e-02,9.383999474536785373e-03,1.053835753640042054e-02,1.022233879262110859e-02,5.351346135139465332e-01
3.657568564398219757e-01,-2.334610183208868373e-02,-2.209664842671804630e-02,-2.487153411803717101e-02,-5.659396983245075508e-02,-1.056688816673513089e-02,4.033805727958679199e-01
4.317088202782208284e-01,-1.336604058609100476e-02,-4.113641846357377063e-02,-4.524555991523911028e-04,-1.156136713670217206e-03,-6.812513229180963345e-03,4.597462117671966553e-01
4.936713228268557185e-01,-2.281823306043956334e-02,-5.876656680007097400e-02,1.407000825716009070e-03,-4.199784188264254689e-03,-1.661401965918939518e-03,5.354323387145996094e-01
4.039698830861199186e-01,-1.025773570069049567e-02,-3.435027336988347169e-02,-9.199030262905069644e-03,-3.211444915325419036e-02,-1.440072003790821530e-03,4.306958019733428955e-01
3.965882976331730481e-01,-2.995316082248972167e-02,-4.409728192755624221e-02,-1.326635174956951671e-02,-8.986217063674943606e-02,-1.004867677363402954e-02,4.617653787136077881e-01
3.568078074313871806e-01,-7.389433409164494759e-03,-2.861549224995410534e-02,-4.041650755351138685e-02,-3.762947474871951997e-02,-1.074930252830266948e-02,3.877056837081909180e-01
3.797842812881803143e-01,-8.632844723967678102e-02,3.137871282749060686e-03,-3.604234607885014891e-03,-1.026435770438591383e-01,1.537568635640653054e-02,4.646711051464080811e-01
5.209892181753599250e-01,-3.832461292351527216e-02,-2.657189801327264345e-02,3.422448530877182735e-03,2.535641757080921762e-03,-8.209132306814727765e-04,5.535820722579956055e-01
5.094584675540738683e-01,-3.335704775834327784e-02,-3.354246989334805362e-02,-4.496773196914014524e-03,-3.021684334885772066e-02,2.760714196030052484e-03,5.455016493797302246e-01
4.825727914725156942e-01,-2.586987903378809572e-02,-5.259474138577147073e-02,-5.235743319726984639e-03,-1.664878660935574864e-02,-8.469416568672418627e-03,5.233977437019348145e-01
4.684233252519650059e-01,-2.412741519441879978e-02,-4.357686507349067817e-02,-6.491056915820875121e-03,-2.470688895489988463e-02,-1.136161884165117278e-02,5.048854351043701172e-01
6.166787867987654215e-01,-2.957301700826783786e-02,-9.264676402863464277e-03,3.903483308758442984e-03,-3.343581768453697794e-03,4.075351983088203872e-02,6.403056383132934570e-01
5.204648981579604872e-01,-3.176174933599260064e-02,-2.723993386021542062e-02,-1.898204739598594948e-03,4.399365358238039626e-03,9.098464054425060496e-03,5.502679944038391113e-01
5.166609346121151525e-01,-3.934054123923455548e-02,1.639659810812438279e-02,2.195329653491025386e-03,-2.623920516217436577e-02,1.810695849391714615e-02,5.332146286964416504e-01
5.184994350615077519e-01,-3.130824725826636401e-02,5.563416074818194890e-03,-2.793203624903412615e-03,-1.461247665528449344e-03,1.758727089380826558e-02,5.332292318344116211e-01
4.867367218114848071e-01,-2.062764939105302120e-02,-6.021244479836446173e-02,9.019817116434096700e-05,2.250092948692521437e-04,-6.322961097435247793e-04,5.282715559005737305e-01
6.307600908088535352e-01,-4.347831856422545993e-02,1.564111667115139492e-02,1.116793598085406153e-02,1.558558774409243147e-02,3.505838147928333481e-02,6.504015326499938965e-01
5.693311579296470581e-01,-4.492342572909133191e-02,1.393951968477014081e-02,-4.123164669008257989e-03,-2.314220472644772097e-02,3.113061946899952845e-02,5.909160375595092773e-01
4.516681633045382394e-01,-2.761000936752611157e-02,-7.989575760824624284e-03,-2.328499905105887308e-02,-3.379642810586501456e-02,7.905996565511134652e-03,4.753204882144927979e-01
4.748527099429635245e-01,-2.653435363136846803e-02,-2.919564168750002353e-02,-3.119083585709596027e-02,-3.530985232189026712e-02,2.279593090712873915e-02,5.108309984207153320e-01
5.155896866175784243e-01,-3.911512959007226731e-02,-3.937885775337549021e-02,-2.791291572725240755e-02,-1.718588229611956938e-02,-1.764057442715943414e-03,5.577424168586730957e-01
4.236340811177323196e-01,-2.981263446503221171e-02,-2.733346576787809568e-02,-6.041489889071518377e-02,-4.703876376192314690e-02,-7.061269091996099333e-03,4.714162647724151611e-01
4.670766449426702049e-01,-2.392134504505730175e-02,-2.955545217841407113e-02,-3.883459801766287606e-02,-2.891726574302944455e-02,9.722317667750570184e-04,5.009121298789978027e-01
5.015795281252699578e-01,-2.924239489919561175e-02,-4.614114816380768258e-02,-7.682621180966606221e-04,-2.498073505835533142e-03,-4.169951245132108054e-04,5.394893288612365723e-01
4.507619042755944272e-01,-3.560976328703988059e-02,-2.900735121442390985e-02,-4.858277831483787806e-02,-8.542062515560233660e-02,-5.962720539028760341e-03,5.123156309127807617e-01
4.404997874695845694e-01,-1.948556659992717321e-02,-4.378155536819836047e-02,-1.906075602886118936e-02,-3.199204314165319391e-02,-9.812203503518836245e-03,4.772859513759613037e-01
4.664575468668180624e-01,-1.672328609527681809e-02,-5.185617954678337083e-02,-3.601897161654943292e-04,-1.202190419709783971e-02,-3.673337959419073744e-03,5.021434426307678223e-01
5.923631760091787601e-01,-6.280286557527162139e-02,9.873052730813597355e-03,1.918850752278712657e-02,2.659934346048103450e-03,-1.230125533599636320e-02,6.232891082763671875e-01
5.894643929569531871e-01,-5.602771524595712149e-02,2.506461712616364634e-02,2.617788538362844555e-03,-2.585014762494711876e-02,6.070093307080515026e-03,6.107596755027770996e-01
5.824941229994216041e-01,-6.609887421437443678e-02,3.942419812749936581e-02,-7.414098117989256645e-04,-5.903759219217320081e-02,3.505237309987377370e-02,6.144188046455383301e-01
6.460515405129989563e-01,-1.087191698011199525e-01,2.927684595573776249e-02,2.957939673438393299e-02,-5.120855886659206324e-02,1.840134269219700219e-02,7.043251991271972656e-01
5.742918294400594093e-01,-5.585168686696215246e-02,1.745933705177987738e-02,1.395001673714443271e-03,-2.974126822428536845e-03,5.896949720711456948e-03,5.969887375831604004e-01
4.935087986794110537e-01,-4.503769451658989897e-02,-2.525045406742396081e-02,-1.286641237643635326e-02,1.483682881159850003e-03,9.159992421309463492e-03,5.296437144279479980e-01
4.059211650097018786e-01,-4.323778735628561187e-02,-6.066661139192103258e-03,-5.369342716098469276e-02,1.103512606358736381e-02,5.315117739609042909e-04,4.420914351940155029e-01
2.668778468364366718e-01,-4.945916986484055755e-04,3.013301931110698439e-03,-3.087688985222668270e-02,-2.175735618480941630e-02,-1.829621058967454642e-03,2.735922932624816895e-01
4.088388471384299949e-01,-3.588707812473576619e-02,-9.796278628414478717e-03,-1.149316100819499503e-01,3.324068541433727181e-03,-5.868398955216749813e-03,4.760492742061614990e-01
4.657790865313232720e-01,-3.349908334616677474e-02,-2.005259418779165026e-02,-3.293264441300654960e-02,3.601991971289940971e-03,-3.047390242919056696e-04,4.960230290889739990e-01
4.560562368617335771e-01,-4.099770870954458357e-02,-2.337408020265935304e-02,-1.957835980456378022e-02,1.000212264950562507e-02,7.989227739344021556e-03,4.901579916477203369e-01
5.831110480331501700e-01,-2.530134248644733130e-02,-2.679555327389579467e-02,4.338813686175908152e-02,-1.692429737931329175e-03,-1.702726097720506579e-02,6.144940257072448730e-01
4.723809761665729301e-01,-5.315038156773546629e-02,-1.994435188318197105e-02,-1.352757471282536351e-02,1.787736634974213673e-03,-2.017469123989744720e-03,5.102997422218322754e-01
5.336063232650976040e-01,2.218747304101925666e-02,-4.337220602662242297e-02,-1.579869004167465656e-03,2.543590414978859088e-03,4.603020341907638688e-03,5.472350716590881348e-01
5.873737789894004635e-01,7.161012828773405392e-03,-5.084682744470772620e-02,5.283463115782757041e-03,-2.286778903675065928e-03,1.326606531610416764e-02,6.117973923683166504e-01
5.169077450975682053e-01,-2.046131289944078113e-02,-1.824625645634700422e-02,-3.327508299297969943e-03,-3.515480760343915947e-03,1.022345873626437926e-03,5.363334417343139648e-01
5.475060504146085361e-01,9.306090481160073091e-03,-5.548184350756821259e-02,2.225462395051346336e-03,1.418919782421174114e-02,1.400680780884220634e-02,5.743979215621948242e-01
4.750201361765791219e-01,-2.597445583895752197e-02,-4.138468179027468552e-02,4.942124415691012684e-02,4.007894180056811168e-02,-1.355005208269027296e-02,5.212011337280273438e-01
6.235702727128156209e-01,-6.878681946542092307e-03,-1.777690133306641940e-04,4.901519479559218739e-02,5.810289223512061368e-02,6.107090815257149724e-02,6.494693756103515625e-01
5.284622372868630347e-01,-3.653139411547795534e-03,-3.253888370923854745e-02,1.921929235957999405e-03,-1.394352250314649828e-03,1.428731760559935268e-02,5.477052330970764160e-01
5.280210041653304875e-01,7.414711418053526737e-03,-3.083714352917130141e-02,-6.984154001085865135e-03,-2.739508195469001536e-03,2.265836086284020792e-02,5.423258543014526367e-01
4.798758634954144453e-01,-2.582746579704461865e-02,-5.213096091360416851e-02,-3.070645187372808994e-03,-9.499522105674871458e-03,-2.979893542078803238e-03,5.196682810783386230e-01
5.328660623046839184e-01,4.300427624114791514e-02,-4.412274269019847428e-02,-6.239290511025297366e-03,1.134564144310589535e-03,2.702935046498343083e-02,5.408773422241210938e-01
5.041973812444162650e-01,-3.064198462019560032e-02,-4.806098933858510280e-02,2.749829541113202281e-04,-8.944315168259503110e-03,-5.087504926344466917e-03,5.440503954887390137e-01
5.406159197958824159e-01,1.292322836100978645e-02,-3.486484727644659221e-02,-2.699918442624111344e-03,-2.710851119943706242e-03,2.408764788840515175e-02,5.547479391098022461e-01
5.280026286989261131e-01,-5.094574469091295299e-02,3.840796529081325072e-02,-2.091867353657483148e-04,-1.199588072299029133e-02,1.675732105125195617e-02,5.410252809524536133e-01
5.344040972832158065e-01,-5.316571548465479080e-02,1.287249298052717261e-02,4.116176492591938521e-04,5.473223760143438796e-03,6.571440907754015626e-03,5.576891899108886719e-01
5.302430490628926574e-01,-6.585484777587280458e-02,1.931653407509620335e-02,2.829142059178862273e-02,-3.215482270916767554e-02,2.084372425109780672e-02,5.644668340682983398e-01
5.757727776872603176e-01,-6.622613556629247666e-02,-6.219500160994428928e-03,1.658412563374715015e-02,-4.222386238002583808e-02,1.155573213049093488e-02,6.195268034934997559e-01
6.064665977546570552e-01,-7.072384357342798022e-02,3.160372481934864419e-02,1.038988073878564788e-02,-3.189818546324851151e-02,2.775849798709492319e-02,6.367499828338623047e-01
5.583387370298077412e-01,-5.729963506627941405e-02,3.321884754310544530e-02,1.234123793852615969e-03,-6.384013989058155703e-03,5.563023108842061288e-04,5.758517980575561523e-01
2.514198959346396478e-01,-6.372520928393861361e-02,-3.333252245511647560e-02,-4.193031574231986802e-02,-5.358293771583817755e-02,1.464128956247685680e-02,3.243347108364105225e-01
5.683909905459210155e-01,-7.668173861475346964e-02,4.936289509292160482e-02,1.104112521759222088e-02,1.107226752320786267e-02,8.799412304992685133e-03,5.930125713348388672e-01
5.111427453887977812e-01,-3.659844921758020897e-02,-3.356746531572787906e-02,-1.397046933349766623e-02,-7.109064268487002604e-03,-4.158645788494005208e-03,5.469537973403930664e-01
5.019041106265411667e-01,-2.631144275986779801e-02,-5.848528798446414600e-02,1.460211347718937515e-03,-3.169987579822732340e-03,2.690921850170393485e-03,5.450686216354370117e-01
5.427857966808034007e-01,-4.168227780164981966e-02,-2.462015784871346424e-02,6.475731443052562715e-03,-2.024588931367961656e-02,2.793851713861843743e-03,5.773220062255859375e-01
4.491174519436285095e-01,-3.163561351060717453e-02,-3.146472592129098689e-02,-1.626682653290539501e-02,-3.134383218611197508e-02,-4.273181391257470027e-03,4.846001565456390381e-01
4.688954752959293426e-01,-2.322675844474089701e-02,-2.339066064456910010e-02,-4.472496147899944485e-02,-3.346921915497644284e-02,1.234978525351833160e-02,5.020797252655029297e-01
5.524984468661100490e-01,-3.341063772368865759e-02,-1.607148437996036572e-02,-4.697507018459205763e-02,-6.266768470543583602e-02,2.457403231739450564e-02,5.946799516677856445e-01
3.197679460675880714e-01,-1.728180726006289802e-02,-1.284321371375857224e-02,-8.550696901527316332e-03,-3.354906152925102303e-02,1.009872281119345884e-02,3.406290113925933838e-01
4.698129007316555472e-01,-3.011155730707590350e-02,-2.826418829022397938e-02,-1.301521978872932292e-02,-2.425394335656819167e-02,1.549602578182266138e-03,5.012828111648559570e-01
4.839814586743370062e-01,-2.887567120068690318e-02,-3.434048216102669748e-02,-8.203714111222702027e-03,-1.375131140951482180e-02,-5.415468088095068454e-04,5.163574814796447754e-01
4.415043328200230488e-01,-1.086436429709822238e-02,-4.641819935832960931e-02,-1.265455087786496180e-02,-4.939960570713140819e-02,-1.472352282941042029e-03,4.793671071529388428e-01
5.400000457993399117e-01,2.746686037369266975e-02,-6.424605711546996223e-02,-6.469228031625110127e-03,-1.150922783634638312e-02,7.967856286304164995e-03,5.646422505378723145e-01
5.413718943577043863e-01,2.153529743502105576e-02,-3.454338761222858212e-02,-2.372153050918187310e-03,-2.069701477591413211e-03,2.979077756167473889e-02,5.524661540985107422e-01
5.719170205075263524e-01,-7.208634841361277745e-03,-6.922030342517748736e-02,-1.307958318625312803e-02,1.252727357365654264e-02,1.267412444017571374e-02,6.136859655380249023e-01
4.409570421534532714e-01,-2.209344808415750205e-02,-3.858687482354322684e-02,-6.983868822719146129e-03,-2.182296830149422356e-02,-1.270534797192083079e-02,4.736922979354858398e-01
5.904602423685125778e-01,-6.766605411002193926e-02,7.535651445813668081e-03,-8.821877939453112846e-04,-2.271564613124835499e-02,5.420894537764376318e-03,6.252453923225402832e-01
5.127143197847665590e-01,-3.820985144127159172e-02,-1.240681794502759838e-02,5.335143598794261227e-03,2.587292009773600916e-03,-2.005087667116544313e-03,5.385956168174743652e-01
5.606786834254742224e-01,4.418886959279505477e-02,-5.510590194772099770e-02,2.174485033166204465e-02,1.078452113403145958e-02,4.299276960728556224e-02,5.789805650711059570e-01
5.538058391687246118e-01,2.472244936203496501e-02,-6.048951932570648116e-02,2.047779197895882933e-02,1.311021162090125237e-02,9.291531394296630511e-03,5.781930685043334961e-01
5.739797634211585287e-01,2.645707423192175667e-02,-6.295549599074581892e-02,8.259497151913167134e-03,1.121153915312312656e-02,1.302669193468388754e-02,5.981822013854980469e-01
5.348706952661838043e-01,2.820995407494941709e-02,-4.275399941213153809e-02,-5.158562982384398005e-03,-2.769489292415635521e-03,1.055689873630192253e-02,5.460153818130493164e-01
5.903049861736209269e-01,4.278442045141178651e-02,-7.059099356709580553e-02,9.088732660421658741e-03,3.534322179980789284e-03,1.911919688243653506e-02,6.132618188858032227e-01
5.238551857215476559e-01,-3.105297967216666399e-02,1.213219585197378159e-02,-1.146496600975746973e-04,-1.023503730719091181e-03,9.561084413896938500e-03,5.348846912384033203e-01
4.831683927359697317e-01,-3.741204639448639235e-02,-3.432689683637690781e-02,1.432093168998687348e-02,-3.718195677578092252e-03,-3.576492480554541598e-03,5.197139382362365723e-01
4.774457045634886709e-01,-4.136648023303490795e-02,-3.167028787445702598e-02,2.311479467803378984e-02,-1.655272605003933750e-02,1.135316554865170059e-02,5.167602300643920898e-01
5.205948498467600771e-01,-3.917066887211231863e-02,-3.933985881823523489e-02,4.528907949848534446e-03,5.018155200895991737e-04,5.024206473473589139e-03,5.599733591079711914e-01
4.054296874305711729e-01,-1.613479726211000664e-02,-2.975495951263509853e-02,4.402945619328745702e-02,-2.561166805804697064e-02,1.145397450577447657e-02,4.379738867282867432e-01
5.057006879604243332e-01,-4.037672438383441142e-02,-3.875671471265709767e-02,4.165115855120325727e-03,-1.304345387789343329e-03,3.731830046023006803e-03,5.453599095344543457e-01
4.954452673260451023e-01,-3.733970379481554858e-02,-3.760647794944663169e-02,1.040786755207421914e-02,-3.902577083965657733e-03,5.812681155209880636e-03,5.333610773086547852e-01
5.079342916066581504e-01,-3.315044000121120105e-02,-3.828735859741796976e-02,1.043830891830148030e-02,-2.288250539170146817e-03,3.344619962261999313e-03,5.440171957015991211e-01
4.992397866230507963e-01,-4.166957966012224679e-02,-3.508400564500699370e-02,6.169704393735652402e-03,-9.825012255532941316e-03,8.017867438662779414e-03,5.382013916969299316e-01
3.751185899957316661e-01,-2.299399182277572784e-02,-1.761515449391742871e-02,3.086086735154145930e-02,-4.233125805148985066e-02,2.567038296530415892e-03,4.057510793209075928e-01
5.045955121221872286e-01,-5.421143053628896258e-02,-2.763906615821792867e-02,1.398779294984128221e-03,7.203815805502162715e-04,1.604550153795866177e-03,5.460197925567626953e-01
5.059638728656143947e-01,-4.327096769601457282e-02,-3.478397784749098776e-02,3.619368407800780535e-03,2.657892392431720390e-04,4.080216002175263666e-03,5.451229810714721680e-01
5.125388935957678749e-01,-4.716455374754940921e-02,-3.171883248308507430e-02,1.043735248789248900e-02,4.908462701253909696e-03,6.391977102359868920e-03,5.526148676872253418e-01
4.939418680918830074e-01,-3.403646615803965214e-02,-4.481482091387997690e-02,-1.737875044813052845e-03,-3.687182757607363782e-03,7.358932609576513718e-03,5.336481332778930664e-01
5.126473568529272828e-01,-1.174330830724407138e-02,-1.410255066428370285e-02,-7.139813909195721377e-05,-2.033991297638840408e-03,1.090189883798838239e-03,5.255894660949707031e-01
4.061090423204000710e-01,-2.295348657306758855e-02,-2.887079104503154081e-02,4.009457019530674599e-02,-2.874249069073387536e-02,9.325057136661431614e-03,4.407159388065338135e-01
4.926888390173507770e-01,-4.388030389542596499e-02,-3.252796025393292489e-02,1.013391101810909301e-02,-1.676875074441973182e-03,7.991794158027341194e-03,5.314622521400451660e-01
3.978086723092612575e-01,-2.137153468996796923e-02,-3.723128539061756892e-02,1.594481710192509338e-02,-6.861263587628152472e-02,-3.894412304237953714e-03,4.444580674171447754e-01
4.280435028726176649e-01,-2.216864815635494201e-02,-3.159107874721503451e-02,4.984048059210002823e-02,-5.191772418362535640e-02,5.144946263619119657e-03,4.718472659587860107e-01
4.555397116567860838e-01,-3.468327011938718285e-02,-1.772854254601713420e-02,1.844358791937377590e-02,-4.135445515053481381e-03,1.342117277437410161e-02,4.836389422416687012e-01
4.132535182827553055e-01,-1.677939029099320689e-02,-3.013037393949835607e-02,1.828160784092584118e-02,-2.267556165577881006e-02,1.210267563794560457e-02,4.402641654014587402e-01
2.835250794323462831e-01,1.275018402006472540e-03,-3.105645974804893683e-03,3.201840110616762519e-02,-3.126022245447553777e-02,2.568868071656041970e-03,2.948688864707946777e-01
3.677284716556717958e-01,-2.910102465723710119e-02,-1.750131410961303091e-02,4.250304411252161380e-02,-4.054875288630250402e-02,-1.501425723877843326e-04,4.041748344898223877e-01
3.421565988526267810e-01,-1.369801770623942094e-02,-1.474050814512053997e-02,6.893674365646501601e-02,-4.452584286969880206e-02,1.380521295502509273e-02,3.844226896762847900e-01
4.052097583556665827e-01,-1.741743137452700374e-02,-3.154513732707550644e-02,-1.781519734515838588e-02,-7.285790427021233973e-02,-2.607178518006310081e-03,4.490895867347717285e-01
4.034411008067749216e-01,-1.650803485310944896e-02,-2.479300317516575092e-02,2.560005485090023625e-02,-4.452658803058078679e-02,1.129794687053279310e-02,4.338226020336151123e-01
3.552194082690812160e-01,-6.016623593378400692e-03,-2.108125744168476423e-02,5.063686787248482257e-02,-4.727443447533058452e-02,1.048027607583658025e-02,3.884413838386535645e-01
5.917941952829542940e-01,-5.527920854391962791e-02,1.804854295966781819e-02,8.054521936438116536e-02,5.485491312447533796e-02,4.323105454251545410e-02,6.408814787864685059e-01
5.969420414711050782e-01,-3.914460512031234241e-02,-7.280722354337632041e-03,1.935500103406751632e-02,8.548460802257788760e-02,4.488770177792299892e-02,6.437738537788391113e-01
5.279970795431934150e-01,-4.604809359589104312e-02,9.624945452768041143e-04,-1.291359129672133227e-03,-8.236438479833969872e-03,3.072390042577341756e-03,5.522576570510864258e-01
7.446247026538564961e-01,-3.847150219195877296e-02,-1.160502797474066705e-03,-1.435776550634003911e-02,-1.408048809438843148e-02,4.421439738296974176e-02,7.697347998619079590e-01
8.172200570558511012e-01,-5.479455722993481492e-02,-4.242652411123981615e-03,4.056421987840901772e-02,6.960162302356506792e-03,3.967999982910238449e-02,8.536323308944702148e-01
5.419662858368430314e-01,-4.869000638434431427e-02,-1.734254586177202961e-02,6.361530521713479498e-03,3.013558706889015587e-02,2.009353778446497547e-03,5.781002640724182129e-01
7.635939516999719068e-01,-4.087791865206330533e-02,-3.057460804501588303e-02,-1.958014577015310814e-02,7.258063478522340170e-03,4.805708784002773321e-02,8.045054674148559570e-01
8.933125974830524729e-01,-4.202099190156716180e-02,-3.149283593172197415e-02,-5.787787613660048958e-02,4.075836460904937869e-02,4.642443214193130857e-02,9.416004419326782227e-01
4.977670726467988138e-01,-3.507534264302511473e-02,-4.717901311386038521e-02,-3.986550805131949989e-03,-7.063949889165734020e-03,-9.155214478480631912e-03,5.394123792648315430e-01
5.054517267311620099e-01,-4.350369225375910753e-02,-3.805046662458080875e-02,6.687700630138372466e-06,-5.384531690360600843e-03,-8.931169791886527792e-03,5.465477705001831055e-01
5.140789468891854286e-01,-2.728999931137615631e-02,4.096088242231954446e-03,6.542752176461471940e-03,5.543241371191465552e-03,5.051684626017064438e-03,5.266603827476501465e-01
4.741630940066972610e-01,-1.073018257400498721e-02,-2.359525523439295891e-02,-4.005856464233882586e-02,-2.429205781764208136e-02,1.600049809084225227e-02,4.988763630390167236e-01
4.868400497556555906e-01,-3.912662461008797887e-02,-3.642444325930133120e-02,-1.260228288320437880e-02,-1.224715389111408030e-02,-8.841854326036100581e-03,5.257261395454406738e-01
4.917731686774649003e-01,-3.032823367834203143e-02,-4.453252373957308774e-02,-4.259034960980799360e-03,-5.858431580891504918e-03,-5.683529063228146341e-03,5.295866131782531738e-01
3.148211570036183460e-01,-1.355327712328757706e-02,-5.379963990780681216e-02,-8.769106629088982419e-02,-1.833569804286355395e-02,2.803972940284652285e-02,3.861370980739593506e-01
4.659311926587562103e-01,-1.831823334675741766e-02,-3.848906769289928143e-02,1.119796946459697060e-02,-2.166424483660655750e-02,1.382620902206432682e-02,4.970209002494812012e-01
5.000688816471405840e-01,-3.221222850002466997e-02,-4.724825863090906242e-02,-2.872973813933059426e-03,-5.164509891157053820e-03,-7.607234307017761085e-03,5.402138829231262207e-01
5.048639152357203841e-01,-2.968277621036183311e-02,-3.406513514684114674e-02,-5.442167612211734617e-02,7.176990893303593355e-02,7.065552989713055985e-04,5.589645504951477051e-01
4.429308163927724862e-01,-3.742170439648995206e-02,-1.611044731506100502e-02,-3.134839566834772551e-02,7.295209246857358755e-03,1.186248820673478817e-02,4.737993180751800537e-01
3.820417039372979717e-01,-1.826207616185218652e-02,-1.444528480101317514e-02,-4.367498921987517102e-02,5.291511168380377828e-02,1.007379330377541210e-02,4.161211252212524414e-01
3.828948414565075398e-01,-2.165592121040887941e-02,-2.891564783288036455e-02,-4.750785649767007290e-02,4.809341222669116789e-02,1.574157609423616029e-03,4.246979057788848877e-01
3.225382139570348583e-01,-5.278280562024825762e-03,-1.288994213414915158e-02,-8.908721975219992262e-02,2.777583473138947601e-02,-3.002024822612158264e-02,3.726184964179992676e-01
3.823956083531545591e-01,-1.851032740164978985e-02,-1.943421044324661340e-02,-4.344455380759883190e-02,5.464557800463538256e-02,8.512664194841925228e-03,4.194459617137908936e-01
4.453441278192600272e-01,-3.533574786609186558e-02,-2.926558490675529312e-02,-1.888914690841027311e-02,-2.204919175739876100e-02,-1.249110309456645876e-02,4.808005392551422119e-01
4.402936739359810669e-01,-3.225570848215855713e-02,-3.026053359953023714e-02,-1.475103900123745336e-02,-1.892152970058461406e-02,-1.309223352570360564e-02,4.739252626895904541e-01
5.306555104499284248e-01,-4.227988707909385857e-02,-3.818927877297548235e-02,5.454640676719256336e-03,2.005185246246935296e-02,-3.657583419830896018e-03,5.720696449279785156e-01
4.802709878533660826e-01,-2.512872590744258394e-02,-5.009817686586748309e-02,1.020281736578494865e-02,-2.241789651322592669e-02,4.050006395737587757e-03,5.201356410980224609e-01
5.111973283373232313e-01,-3.511225869623885165e-02,-3.797757271874790952e-02,9.473953294929771812e-03,-1.723234778055161842e-02,2.871925479067209946e-03,5.488283634185791016e-01
5.025910053854555359e-01,-2.859009786632180083e-02,-5.282840326699700384e-02,2.625493280799452277e-03,-1.664062190435824234e-02,-8.140806778519972010e-04,5.444898605346679688e-01
5.116038927633497213e-01,-3.090500050845407243e-02,-3.869910745163829269e-02,1.126076186422858040e-02,-1.489219572223509855e-02,-1.796222128046631337e-03,5.474125146865844727e-01
5.038834394304438913e-01,-2.991225501771299644e-02,-4.538939250228177236e-02,6.638735208561976492e-03,-5.696011393511179327e-03,-1.272100625562102086e-03,5.419164299964904785e-01
4.773577691254069499e-01,-4.442768285271950224e-02,-2.861473488576971036e-02,1.530033901878148292e-02,2.781104316129986292e-03,-6.909024433654246348e-04,5.147680044174194336e-01
4.467767102129024392e-01,-3.027400143899525164e-02,-3.199090787758510079e-02,3.173562372920232799e-02,3.906221867877370663e-02,-1.181762622936534043e-02,4.862276911735534668e-01
4.958780124341847229e-01,-3.910631199265984792e-02,-3.182233640802678565e-02,9.961893141208008270e-03,-2.389292123359939776e-03,-4.754735316553882450e-04,5.316765904426574707e-01
4.853337636035716662e-01,-2.143042660832575330e-02,-2.837522552335636217e-02,1.294967052460431825e-02,6.954008076191841919e-04,-1.477814670836526340e-03,5.107725858688354492e-01
5.155673892683139137e-01,-3.162435064712959543e-02,-4.198371476922607703e-02,4.482141293745475763e-02,1.516204211210415292e-02,-2.891887026971261374e-04,5.584903359413146973e-01
5.176562681282492751e-01,-3.366010115090137256e-02,-3.242897513495074380e-02,1.899391748116754149e-03,4.125933545730372382e-03,-1.426133826005655369e-03,5.507635474205017090e-01
4.975086969387047531e-01,-2.831416127594277299e-02,-3.382164953612754044e-02,4.542540884333908652e-02,2.125166403653096572e-02,-5.315320618083865453e-03,5.357667803764343262e-01
4.918829773190055432e-01,-2.659621427075531397e-02,-5.236994188618310231e-02,6.254737564468066486e-04,8.643897603599799695e-04,-4.035358246009870635e-03,5.318837761878967285e-01
4.804139185798787515e-01,-4.868267653080010637e-02,-1.598147898922841481e-02,1.803533962035659688e-02,6.958470726440819411e-03,-5.062013994093710750e-03,5.146925449371337891e-01
5.858662556017262268e-01,-3.566069784279043975e-02,-1.248001297864476111e-02,-9.573707194533200016e-02,-1.282217597045562651e-01,7.000687988480717994e-02,6.811371445655822754e-01
4.370193915296138876e-01,-2.970817704253267411e-02,-1.337049432605205701e-02,4.346560072331115410e-02,1.178350279277246612e-03,4.256965055559787381e-03,4.649759232997894287e-01
4.556917962140223377e-01,-4.320337225730791486e-02,-2.213493871377553157e-02,1.459904533237579329e-02,-6.987240293334751919e-03,7.244640756353743632e-03,4.896658360958099365e-01
4.490301466848420353e-01,-4.271801976901140607e-02,-1.873244395722536981e-02,1.518532371809343078e-02,6.709790898013064282e-03,4.069591568731263480e-03,4.811166524887084961e-01
5.149011565040054750e-01,-3.471964570336319444e-02,-4.312827068563884758e-02,1.237095227377361245e-02,8.822929615374293377e-03,5.051148352294392539e-03,5.545669198036193848e-01
5.226113436673480717e-01,-3.612007145490739313e-02,-3.536156459568640109e-02,1.322233862311914150e-02,7.328814542186743754e-03,-4.986292270849406079e-03,5.590329170227050781e-01
5.118360635048850860e-01,-4.136119844278524083e-02,-3.710208822292493380e-02,1.555973363561047144e-02,-1.026936551671418611e-02,5.163844856420656514e-03,5.520977377891540527e-01
5.168095781693227142e-01,-3.446105682178968177e-02,-3.575372993511879982e-02,1.461487130729285065e-03,5.522315638011135973e-03,3.759183658366762075e-04,5.520071983337402344e-01
5.252411096563101012e-01,-3.763620611414980610e-02,-3.555692163554846630e-02,6.164540388283512584e-03,1.273533667845789218e-02,-4.403100449702182680e-03,5.624265074729919434e-01
5.286296011945992301e-01,-3.320577499703178392e-02,-4.358272478129920913e-03,-7.761590926325733636e-03,-1.187096581636743788e-02,7.583753828888263951e-03,5.486890077590942383e-01
5.601945039107696367e-01,-5.640036765775571781e-02,-3.684384833952253357e-03,3.781916376366907875e-03,5.441083958411550847e-03,5.507302961164177706e-04,5.921118259429931641e-01
5.264212873265532444e-01,-3.877967272340740457e-02,-4.124387279575819631e-02,-2.505912732054175855e-03,-4.586721540531085695e-04,-1.466762110426677495e-03,5.664599537849426270e-01
5.404891523796004904e-01,-5.401759399088021385e-02,-3.527198210842269477e-03,9.082060502010469091e-03,2.084445913533532549e-02,-1.084895592165619795e-02,5.726034641265869141e-01
5.603697392910060859e-01,-4.601283355471186276e-02,-3.355255907118079306e-02,-1.264768635105602279e-02,9.561055163883449073e-03,-1.007179633328502723e-02,6.011304855346679688e-01
5.188863601523507896e-01,-4.266943598578321062e-02,3.904953191374846422e-02,-1.063173162414269717e-04,4.540239049401256083e-02,1.100644829752195786e-03,5.313388109207153320e-01
5.480374246852088849e-01,-6.203283903639567054e-02,2.598995342836754596e-02,7.781818358038754269e-03,1.987668314951114936e-04,-1.569870992660742093e-02,5.719744563102722168e-01
5.917408777392068053e-01,-6.442150649380512517e-02,4.989113279743959128e-02,1.483569948058956200e-02,7.832125269888882968e-02,1.006945021628362358e-02,6.228771209716796875e-01
5.059402960288124085e-01,-3.719547553725269240e-02,-4.050674922320079974e-02,-5.131143634319845770e-02,-3.779645146107867698e-02,7.634008755419939563e-03,5.560261011123657227e-01
5.045097925630349645e-01,-2.553428197398366351e-02,-4.009564550543207040e-02,-1.838697412403869288e-02,-3.848978422087860618e-02,5.652706426924798862e-03,5.426153540611267090e-01
4.966225460182036033e-01,-3.198782826206117424e-02,-4.476384757838555717e-02,-3.220446288295386768e-03,-6.891221537398236480e-03,-3.525822934805079769e-03,5.353097915649414062e-01
5.335425517611016577e-01,-4.304526485665272073e-02,-4.196328810527893971e-04,3.785293401611098448e-03,-7.733624107138072426e-03,-6.190146427557666892e-03,5.568037629127502441e-01
5.079303194807819333e-01,-3.353984214547586773e-02,-4.077171138034166309e-02,-5.865724046190503086e-05,1.061349793494823293e-03,-6.412193589824251132e-04,5.451263189315795898e-01
4.983691962998313962e-01,-3.058530960109406838e-02,-4.459058437543456099e-02,-9.653387578023507566e-04,-6.024143112763354242e-03,-2.405573964925258879e-03,5.362147092819213867e-01
4.818663755351016431e-01,-2.703575724587498064e-02,-4.837637772211630938e-02,-4.281600890378735140e-03,-5.951954890435094334e-03,-4.212494117430985729e-03,5.201072692871093750e-01
4.723115064468945690e-01,-1.723656038648943567e-02,-5.594431016517539823e-02,-2.280519752716007962e-03,-4.985178476309442240e-03,-2.061042557719224878e-03,5.101056694984436035e-01
5.024903125811178706e-01,-2.725914581820754190e-02,-5.034230560648184083e-02,-2.414327227700830813e-03,-1.517087915873107686e-02,-5.906848830793664899e-03,5.424096584320068359e-01
4.861269227186109099e-01,-2.540464228811337155e-02,-4.785304867037259990e-02,-4.690730008642221213e-03,-3.330759689231156673e-02,-6.124547150762311640e-03,5.264582037925720215e-01
4.762071128725641755e-01,-3.777152741081454823e-02,-3.837658087022327580e-02,-1.926665903651108430e-02,-2.201066827859649369e-02,-9.221375904707427434e-03,5.170179009437561035e-01
4.985610231262166403e-01,-2.727884896443438789e-02,-4.794737991152317469e-02,-1.858730722258718823e-03,-5.997684201048895068e-03,-3.345977790687738786e-03,5.366143584251403809e-01
5.163144387895350906e-01,-3.094943290513843537e-02,-3.305553760400620211e-02,1.990291603620203669e-03,1.882275552891997253e-03,-1.525755350227960515e-03,5.483468770980834961e-01
5.000858583278594560e-01,-3.628622943805900891e-02,-3.910249964917547616e-02,-6.443930577424686681e-03,-1.417597375741999621e-02,-1.004625115113249798e-02,5.387427210807800293e-01
5.126639293244547035e-01,-3.168756654728532851e-02,-3.214964299554265437e-02,-9.521330821355936114e-03,2.045383476741345196e-03,2.504598470488881602e-03,5.448611378669738770e-01
4.948138825009698594e-01,-4.398451633751693235e-02,-3.455760715256844806e-02,-7.668904992279392159e-03,-7.084635902813677701e-03,-4.771084145061969470e-03,5.345172286033630371e-01
4.575207275574653676e-01,-2.022671071170803470e-02,-3.328936373849653019e-02,-4.945995641415261435e-02,-7.628559162846083874e-02,7.431183742103554882e-03,5.095261335372924805e-01
3.449146535217900711e-01,-2.058997989143898644e-03,-3.993451970981412580e-02,1.028461367381878211e-01,7.229181112462189362e-02,3.780867489406340015e-02,4.320484399795532227e-01
5.105944815223935063e-01,-3.507010294854040477e-02,-4.642891386356182148e-02,-2.273982756786975881e-03,-5.221505625112035469e-03,-6.031432371816809745e-03,5.516188740730285645e-01
6.739925390481924516e-01,3.333743212367207276e-03,-5.049062514347529840e-02,7.459171375171660956e-02,2.413727253990953156e-02,4.191467102842811460e-02,7.158827781677246094e-01
4.978616855434516708e-01,-3.656631313658392779e-02,-3.835108590493788161e-02,4.907211033813319717e-02,-4.612430881669558891e-02,-8.101692683979481958e-04,5.478857755661010742e-01
4.437955016607759151e-01,-3.036803754362452090e-02,-3.354487772999112383e-02,-9.064886408799004494e-03,-7.208406979185776053e-02,-5.280296427599985012e-04,4.921211004257202148e-01
4.812303311874059908e-01,-2.808418487086966620e-02,-4.285963605651743613e-02,-3.314393243407057210e-03,-2.710741536558007245e-02,-4.611149593446284452e-03,5.190820097923278809e-01
4.796079390928286168e-01,-2.198706811494086089e-02,-5.602340094785127067e-02,4.922385150085521743e-03,-8.779752594377585387e-03,-1.333552290443930626e-03,5.197477936744689941e-01
5.348953300735856953e-01,1.678181559574082327e-03,-5.264181190215014294e-02,1.059760795851387438e-02,-3.478252892403990368e-03,7.544511948464998653e-03,5.628316998481750488e-01
4.481876661941845974e-01,-3.116178518007503562e-02,-3.421078779991826302e-02,-1.042851856346884570e-02,-1.190344475115363322e-02,-1.284715390139435504e-02,4.821754992008209229e-01
4.309939773888996628e-01,-2.102079632376935292e-02,-3.606668713980012986e-02,-2.491454651364114620e-02,-2.824811427400458416e-02,-1.425356742266320649e-02,4.649841487407684326e-01
4.947142959917421035e-01,-4.335499932432021475e-02,-2.767741139611656909e-02,8.381165455684659593e-03,6.106855855949346566e-03,-4.281450762306046424e-03,5.307601690292358398e-01
4.976871203321462378e-01,-5.040209333513520629e-02,-2.548179463524521959e-02,-1.081726720034868923e-02,3.559813128524922689e-03,-5.996856936919331242e-03,5.365269780158996582e-01
3.981403952323291917e-01,-3.167365348339964970e-02,-1.659643475038197202e-02,-2.791600415580258385e-02,-3.455382782530141278e-02,-1.146396128414602089e-02,4.298849999904632568e-01
4.830362492673195840e-01,-3.819883166765503102e-02,-2.914442502037309368e-02,-1.160338102995787067e-02,-1.265031173380270699e-02,-1.144556635862661528e-02,5.180014967918395996e-01
5.307732961396695037e-01,-1.558907952469046343e-02,-1.885233877677561232e-02,1.527921014111172440e-02,1.620152296762064625e-02,1.993232736080366094e-02,5.504408478736877441e-01
5.335807794998008724e-01,-2.392323327461315374e-02,-4.293015051055126818e-02,1.116706746486038210e-02,9.439350026745826905e-03,2.763332043620210596e-03,5.678316354751586914e-01
5.861424938355596082e-01,-3.846075650861324746e-02,-5.306223113857047591e-02,2.479127417621941262e-02,1.993293375601308190e-02,4.034780618486401814e-03,6.344660520553588867e-01
5.214428298373525728e-01,-3.701224947182549241e-02,-1.904015667925737509e-02,-9.804225847545278497e-03,-7.945855582995342906e-03,5.050563348025122710e-03,5.501933693885803223e-01
5.240997095437600617e-01,-1.638711426586267339e-02,-2.561262170078582034e-02,3.023763254454164828e-03,1.273427059913409022e-03,8.728688402205182426e-03,5.453973412513732910e-01
4.979579857529258247e-01,-3.180089882542228019e-02,-4.397520066824203711e-02,-6.933453558892545320e-04,-4.649900131987615495e-03,5.323928850354864338e-04,5.360124111175537109e-01
4.418021871411438317e-01,-2.094213444328715812e-02,-4.851585612825737304e-02,-1.037432506586274256e-03,-3.378704951936443296e-02,-8.729096424074531341e-04,4.807103276252746582e-01
5.117912765171628298e-01,-3.271488199978322964e-02,-3.881861820090110049e-02,-1.628215114202946493e-03,-1.461882559090053706e-02,7.862652480994988119e-04,5.481775999069213867e-01
5.077908952055771863e-01,-3.305112762232051415e-02,-2.706642899248237755e-02,2.591394364485700638e-03,-2.980704044281857947e-03,1.807058681610964994e-03,5.379272699356079102e-01
5.263613389885717364e-01,-4.406918423339209467e-02,-2.792807572981165221e-02,7.254121381840114742e-03,1.497305258648391540e-03,-5.470772971678169181e-04,5.626807212829589844e-01
4.790811740052662304e-01,-3.401325880996952655e-02,-6.887736296187552121e-03,4.044002882469734973e-03,-1.774251228515129689e-02,2.158568502704296625e-03,5.010899901390075684e-01
5.130803578030753709e-01,-1.654747581888305064e-02,-1.705662678943276056e-02,1.523301056879739759e-03,8.263664985628909861e-04,-1.125942317907215311e-03,5.298947095870971680e-01
4.878993480589474130e-01,-3.184143291817970178e-02,-3.699255016844935073e-02,-3.418624039984128737e-03,-1.618710068893512710e-02,7.067832751907368420e-04,5.231222510337829590e-01
5.369986025716628752e-01,-2.915313765172908300e-02,-7.845013146916629543e-03,1.050760634415298829e-02,3.890135356268547076e-03,1.482719520976026953e-02,5.567354559898376465e-01
5.132752219480291034e-01,-2.435346753369752038e-02,-2.205300213987609892e-02,8.624808914157605384e-04,-1.833005956908460637e-03,1.081455327709036820e-03,5.364968776702880859e-01
4.931738287993971959e-01,-2.817481191362974924e-02,-5.259213552950053883e-02,1.018147652208516640e-03,-1.119913339447162160e-03,-1.323141862290273373e-03,5.339875221252441406e-01
4.374193431663375153e-01,-2.787553296920655677e-02,-3.111483019977714926e-02,-2.378373685191382397e-02,-4.750149106559588275e-02,-1.161879184904825385e-03,4.759067893028259277e-01
5.219184635081063339e-01,-9.023170569771227223e-03,-1.208467555413123007e-03,-4.088778887002956705e-03,-4.615649864910759646e-03,2.236608352542911182e-02,5.286073684692382812e-01
6.082921857304430802e-01,-3.958041418151567181e-02,2.492340446308027868e-03,8.034565596522825245e-05,-1.524453509100464656e-02,3.115443096267129022e-02,6.307616233825683594e-01
5.893057663524153833e-01,-1.556717418964853605e-02,-2.868062355592004842e-02,-3.789563159326759384e-02,-1.308409621544911680e-02,3.842644956703402531e-02,6.190531253814697266e-01
5.214408664368161972e-01,-1.486612198324688272e-03,-3.291077957719598657e-02,-2.215584052160989113e-03,-3.282637163319237616e-03,1.016708112397758830e-02,5.396575927734375000e-01
5.202106420972236744e-01,-3.841266725310821251e-02,-3.453616390271113668e-02,-1.686398245177982494e-02,-2.128190398993783441e-02,-1.665527243752195274e-03,5.586857795715332031e-01
5.133062480627447188e-01,-1.171328110646396858e-02,-2.628151949825144329e-02,9.859642168218646970e-04,3.022004934690107874e-03,4.696473147787673212e-03,5.325437188148498535e-01
5.202866121546856348e-01,-2.061306031741849676e-02,-2.636078078654391366e-02,1.392237121530813136e-03,1.528041210024537423e-03,5.316280197711089305e-03,5.438860654830932617e-01
5.106135071784083657e-01,-1.719594583008834943e-02,-1.389275680352614062e-02,2.711225972142771931e-03,1.716304796495774594e-03,8.816834553420768369e-03,5.264165401458740234e-01
4.634541825025044193e-01,-3.755758702815911731e-02,-3.061154222385620294e-02,4.649568621779841260e-02,8.502654241919707645e-02,-7.925494331856706987e-03,5.253032445907592773e-01
5.178341912023380900e-01,-4.240918070186214250e-02,-3.765953168231792048e-02,-4.337457204839019519e-04,3.889631699881831908e-03,1.479282928371486406e-03,5.579307675361633301e-01
5.189827366715835666e-01,-2.968663749637534544e-02,-1.341088491408878869e-02,2.943748786148569357e-03,-9.332542508493640518e-03,1.200709702941366551e-02,5.413804054260253906e-01
4.920512503682682448e-01,-2.920990115841151646e-02,-3.495731234216775674e-02,1.943408149893890253e-03,2.368801262310371927e-02,2.210825069980793325e-03,5.257865190505981445e-01
5.147970592058902506e-01,-3.548581402760667136e-02,-4.744213093469767939e-02,-2.908971102936190167e-03,1.526272207963877067e-02,5.621577778076816516e-03,5.570929646492004395e-01
5.018817701070948933e-01,-3.439506035636982761e-02,-4.511083155962430924e-02,-8.196879871742678708e-03,8.311459415928262526e-03,6.638441054909190175e-03,5.422133207321166992e-01
5.218493617983605004e-01,-2.744923784805780587e-02,-3.636930979105121309e-02,1.974852705607123109e-03,2.191737658002794692e-04,8.128044067653877360e-04,5.538250207901000977e-01
5.063297297410893627e-01,-4.003073836469850377e-02,-3.970134942726419314e-02,-1.634808168459541203e-02,3.095360646992911802e-02,5.459238529194843266e-03,5.496321320533752441e-01
4.938113309910824311e-01,-3.172539622973769013e-02,-3.155713526754663767e-02,-7.551000837820579827e-04,8.226250526622810519e-03,1.874509106860567384e-03,5.256574153900146484e-01
5.100340174640360935e-01,-2.243466497358401202e-02,-3.400972113113134854e-02,-9.814709205296787836e-03,1.566470598994678526e-02,-2.729315711375891306e-03,5.393215417861938477e-01
5.180318777909516115e-01,-2.339056635388500616e-02,-3.388757226857525007e-02,4.043839798596510562e-03,-4.806964740824639395e-05,-6.256497062587718832e-04,5.467924475669860840e-01
5.188764358704641699e-01,-3.424032461199405519e-02,-3.939332759030830799e-02,2.520592598943153639e-03,-2.256977997325550125e-03,4.948207125280517336e-04,5.557427406311035156e-01
5.088375329947650849e-01,-3.259166552056652622e-02,-4.734802705094928732e-02,-3.652236146350076700e-03,2.100636601682248639e-02,4.953972160485445309e-03,5.502638220787048340e-01
5.150763035336980433e-01,-3.244497920446715034e-02,-3.875058984541449036e-02,-6.986837751160919138e-03,1.696689965176059658e-03,2.392653200691638882e-03,5.508575439453125000e-01
5.136474000050379463e-01,-3.224501302263535485e-02,-4.045365561984490266e-02,6.149649614432215264e-03,3.050619752239774884e-03,9.772930288138611914e-04,5.501737594604492188e-01
5.028140291677698492e-01,-3.160864893436490797e-02,-4.944111504221593290e-02,-2.835449738891056715e-03,1.409790976599785244e-02,7.463549958175380063e-03,5.442822575569152832e-01
4.864284597852637226e-01,-3.563668443993578405e-02,-3.648625990629869587e-02,-6.086617484009298334e-02,1.087949834623129454e-03,1.133320882487463420e-04,5.330234169960021973e-01
5.262749313068545431e-01,4.133591997856872480e-03,-5.221231973132212101e-02,-2.354127951139012992e-02,2.261247215554789899e-02,-1.210279332798423453e-03,5.553628802299499512e-01
5.201625742536724051e-01,-1.163658503899084318e-02,-5.244124130756436242e-02,-4.690190306644334561e-02,1.711924127099545209e-02,-6.698651245916615107e-03,5.601682066917419434e-01
4.917999792526761560e-01,-2.729752649922592700e-02,-4.767822051637532477e-02,6.314985070468581013e-03,-3.971550038689806994e-02,-8.580434762956801534e-03,5.343497395515441895e-01
4.868485702009267002e-01,-2.709504220267905383e-02,-5.172996561720066833e-02,-5.633383502330728716e-03,-1.269663360372099044e-02,-7.360435476569310298e-03,5.273966193199157715e-01
5.291140632256490228e-01,-3.294184090722315772e-02,-2.438660748209384166e-02,-1.407147864071559354e-02,-1.610735796059578964e-02,3.200099533510958588e-03,5.590837001800537109e-01
4.271061007660947317e-01,-1.998690233603775401e-02,-2.786694117632568246e-02,-3.184975493265863183e-02,-8.722317375002226758e-02,-6.956710505939855613e-03,4.790505468845367432e-01
5.232167290120536274e-01,-3.650235959915368311e-02,-2.481405474092562846e-03,-1.099851060860589959e-02,-3.744091030694647604e-02,7.544037966173158805e-03,5.478501915931701660e-01
4.921446024027175681e-01,-2.719113256270327961e-02,-4.585319401653925597e-02,6.273665470684826502e-03,-4.353414321274745417e-03,2.295160229508626216e-04,5.290792584419250488e-01
4.653617512514057197e-01,-2.792046396931383012e-02,-4.113717007427089567e-02,-2.459587802492960162e-02,-3.471151490571061649e-02,-6.698936932568977723e-03,5.055549144744873047e-01
5.012754707816604594e-01,-2.807324185250356652e-02,-4.983662046364326081e-02,-4.043932200385335143e-03,-1.179475874784316133e-02,-6.682515757761589570e-03,5.411141514778137207e-01
5.167977710500539779e-01,-3.452370773275953431e-02,-3.590641252447093756e-02,1.312830687836906646e-03,9.828180202688997259e-04,-3.468192226556437389e-03,5.520541071891784668e-01
5.325155696170582598e-01,-4.069829011595865742e-02,-1.316860451012369371e-02,-4.265247502983782885e-02,-6.435990897542788469e-02,2.456606033965611988e-02,5.772749781608581543e-01
5.244912802896910531e-01,-3.599670271970070723e-02,-3.507810626817578492e-02,-2.869839197347812901e-03,-2.790276513582845910e-02,-2.307853624808289643e-03,5.621469020843505859e-01
5.156135859135713151e-01,-3.621563046510878348e-02,-9.073104163744516448e-03,-5.187495577330538711e-03,-8.810319395087660987e-03,1.400349235785207369e-02,5.396072864532470703e-01
4.630965383333173202e-01,-3.636644353057560952e-02,-2.994308757296296197e-02,-2.850085264721472986e-02,1.163736202442223165e-02,-5.846729992383223502e-03,4.992414712905883789e-01
4.259945456356221127e-01,-4.603149443123896734e-02,-1.764017997455341602e-02,-4.408432405148589306e-02,9.082964231847814396e-04,-4.483490022338544774e-03,4.648723304271697998e-01
4.733323677862236734e-01,-5.062062434699265978e-02,-4.154908653219585579e-02,-6.230824047957779499e-02,-1.034863982634533913e-02,-1.058174414752187376e-02,5.311874747276306152e-01
4.356767069272146076e-01,-4.134654669229542723e-02,-2.223406690221799153e-02,-2.647739401016728847e-02,-3.203114572584732367e-02,-9.796417022707202410e-03,4.735698699951171875e-01
5.387895995277043326e-01,-3.883727268868625293e-02,-3.389646573597748791e-02,8.231380266768813583e-03,-1.047743192499806138e-02,-3.767737044689348311e-03,5.756721496582031250e-01
5.433896335476589012e-01,-4.688448742937617597e-02,-3.796760576766852746e-02,-8.626977612012159350e-04,8.599799373327412372e-03,-2.755199618801776589e-03,5.860772132873535156e-01
5.227885346478233775e-01,-2.661983486549712730e-02,-2.493983920411671495e-02,-2.140359809173121835e-03,-1.478919953812564880e-04,2.657007064231003187e-03,5.486021637916564941e-01
5.244112189024687787e-01,-2.294919998269140393e-02,-9.637138095466901699e-03,-6.844260342805126747e-03,-3.899520473921049609e-03,1.256970484405663113e-02,5.414372682571411133e-01
5.713413086528797979e-01,-4.552768886754013367e-02,-2.919456711074391864e-02,-1.454311457243185994e-02,3.518079970382772398e-02,-1.397531662428663085e-02,6.129047274589538574e-01
5.132090134911375667e-01,-3.346869842667157813e-02,-5.316977358354912919e-02,1.591887260912818423e-03,3.429382797383644706e-03,1.996888334053120717e-03,5.568389892578125000e-01
5.109154279887322403e-01,-3.544878050690525306e-02,-4.981998432463111137e-02,-4.877700078648565529e-04,-3.979998094566195802e-04,3.189082251909732425e-03,5.537183284759521484e-01
6.136979353469329546e-01,7.997193045633649300e-03,-4.355214256639619586e-02,-1.667559871975520663e-02,1.176575710718494056e-03,3.961397958044600431e-02,6.374169588088989258e-01
4.598506943359795818e-01,-2.306218054185177335e-02,-3.333604753254201802e-02,1.976272719927582924e-02,1.470554410838110539e-02,-2.467074573072598580e-03,4.900107085704803467e-01
5.770291389675890059e-01,-2.602054737287620712e-02,-2.905259498206383406e-02,2.318485867210936385e-02,2.023450228277275109e-02,1.410488836044823148e-02,6.074079275131225586e-01
5.146072586201008159e-01,-2.041999935327629134e-02,-2.182817648038551384e-02,9.813519657063424217e-03,-1.846662256621957625e-03,-1.318155422800432013e-02,5.364978909492492676e-01
5.772477847780532745e-01,-3.710376426755926382e-02,-3.399355403363918393e-02,2.635723824261894041e-02,2.902715335691670798e-03,-2.079482701040489753e-02,6.155756711959838867e-01
5.167342642710331946e-01,-3.732914718649804620e-02,-3.230171007930998650e-02,5.848839536198773524e-03,3.474443877180973493e-03,1.701310453950924308e-04,5.516927838325500488e-01
5.046050678426587943e-01,-4.618288467921916052e-02,-2.183439812997545193e-02,4.105917093978943971e-02,-9.313155812589797578e-03,-1.348933227185584657e-03,5.439417362213134766e-01
4.042281584508373715e-01,-1.109516705769442169e-02,-3.434101353039664684e-02,-1.074834516071372786e-01,-2.750355130523103944e-02,-1.401750090711576489e-03,4.686381220817565918e-01
3.954423292483262298e-01,-3.912438370848292379e-02,-6.940649041549340481e-03,-4.214830135937111533e-02,2.594971839762295895e-03,-2.123472903933935896e-03,4.257478117942810059e-01
4.018037246664952766e-01,-4.545339982882484753e-02,-1.064062907887250442e-02,-3.623034556705981984e-02,2.861363717338197971e-03,-7.187455853329152711e-03,4.356581866741180420e-01
4.028004878102271480e-01,-4.235632588240476060e-02,-1.505612757361340925e-02,-7.202023441509421142e-02,-1.405368747209464683e-02,-1.061839097458698936e-02,4.508309364318847656e-01
3.650297096606797131e-01,-1.637957085744040642e-02,-1.846123489651857463e-02,-1.889754563609174695e-02,-6.378347042926504895e-02,-5.391530476789631494e-03,3.995433449745178223e-01
4.467173936609364904e-01,-2.942219097134385342e-02,-2.940564004757129091e-02,-1.745941454908690044e-02,-3.215234256924250772e-02,-7.235305580779349127e-03,4.804933667182922363e-01
4.576727862946974867e-01,-3.257020425654488793e-02,-3.247825163997047904e-02,-2.539149328565646138e-03,-2.283112991766620987e-03,-1.213480145377413173e-02,4.906830489635467529e-01
4.493486025870629952e-01,-2.228756466145184745e-02,-4.128967170142183729e-02,-8.646722332540070916e-03,-2.788916930533523464e-02,-1.226684367700996668e-02,4.845337867736816406e-01
5.035864021592486584e-01,-5.280485521062597276e-02,-2.729186921813656075e-02,-4.011731797363259078e-02,-7.968362701520863419e-04,-1.154598401212723890e-02,5.488688349723815918e-01
5.243880352347123353e-01,-2.698076124266393649e-02,-2.191199709143673569e-02,-3.881411420149246099e-03,-4.643139645944382304e-03,2.981692945536891168e-03,5.489763617515563965e-01
4.401642197545596047e-01,-1.223121255405101859e-02,-4.321889763349470726e-02,6.005606121142766096e-03,-6.086170652798818595e-04,-3.693645367305143940e-03,4.688185155391693115e-01
4.668154112620953589e-01,-3.058764676805789118e-02,-2.757666420714419142e-02,1.454362754107885528e-02,-2.593433255712993685e-02,-2.491770021302132723e-03,4.985901415348052979e-01
4.913827450681704234e-01,-4.041211351746309965e-02,-2.210660797960289914e-02,-3.652374733753282424e-03,-2.259247393394020129e-02,1.750366856849120897e-03,5.243915915489196777e-01
4.748479685952126106e-01,-2.282520457446693407e-02,-5.201922877294248848e-02,8.349200246459541504e-05,-2.966659800263665714e-02,-4.733401074110921321e-03,5.155264735221862793e-01
5.177916256108425763e-01,-1.810589719218122506e-02,-1.507506121413551559e-02,-2.950780818615625876e-03,4.072735117237063010e-03,-3.742259048028049370e-03,5.344988703727722168e-01
4.086821368774906094e-01,-2.403305422787546664e-02,-2.352201346421040062e-02,-2.920563735718027798e-02,-6.573573384319079949e-02,-4.164025329555014257e-06,4.500489234924316406e-01
5.254276428501190033e-01,2.923832581206040060e-02,-4.060758435228156715e-02,-2.802875177602110347e-03,-2.067375984442090548e-03,7.700771422373082174e-03,5.347461104393005371e-01
5.248576767256403208e-01,-1.781500643705810627e-02,-2.875707059134802179e-02,5.247527919530042481e-03,9.197915859573019834e-05,-1.354097265535417031e-02,5.488023757934570312e-01
4.337517559284841950e-01,-3.183070121695577570e-02,-2.632400230417811238e-02,-1.334993831286935759e-02,-4.589478394486309898e-02,-1.315778913128654026e-02,4.707510769367218018e-01
4.375079784223575574e-01,-2.406125557056087994e-02,-3.263427870025431554e-02,-1.584236443472991293e-02,-1.376783402135350887e-02,-1.455610163278888390e-02,4.680106341838836670e-01
4.856422180408692668e-01,-4.468675769155733279e-02,-2.470182929531106186e-02,1.711456553473562903e-02,-2.942456168428076802e-04,8.167488823976418871e-03,5.216596126556396484e-01
4.965680099916949253e-01,-4.118862401160414133e-02,-3.406479890336297500e-02,8.675756289158894491e-03,8.899702579754334604e-04,1.082603277628327136e-02,5.347726941108703613e-01
4.977985373540181890e-01,-4.157240158632466431e-02,-3.491970732995763882e-02,1.164906810408018051e-02,-4.411275986998107359e-04,4.339049397962498229e-03,5.365083217620849609e-01
5.190299917124737705e-01,-2.579732920935398632e-02,-2.542442642334669101e-02,2.623778878037320156e-03,2.189535380159369528e-03,-6.165472573827769989e-03,5.447778105735778809e-01
5.096906779870695736e-01,-3.735912623729070736e-02,-3.607059495999426213e-02,9.733523875443326990e-04,6.662591670163515870e-04,3.804005009149735283e-03,5.464501976966857910e-01
5.682304435760336947e-01,-4.082480708691740845e-02,-2.989931653103705678e-02,1.740680570827410345e-02,-1.952829067860741702e-02,-2.517909514241850957e-02,6.069336533546447754e-01
5.024061326781443793e-01,-3.936534752741796539e-02,-4.199906929348334872e-02,4.460732627686826365e-03,-9.052601906059788359e-03,8.603648348514158703e-03,5.435786843299865723e-01
5.131614195186979810e-01,-3.848891847584004489e-02,-4.179828756320413952e-02,7.940650513329873886e-03,-5.691684654618374070e-03,7.069240919356334189e-03,5.537065267562866211e-01
4.031633464906271280e-01,-1.915479623664334552e-02,-2.511305077237926953e-02,3.997631986317110725e-02,-2.594525302858428570e-02,1.535481927884592077e-02,4.340800642967224121e-01
5.302075422798828708e-01,-1.935554341382392241e-02,-7.310457122820107623e-03,1.334760145175498645e-02,-4.651061554019909547e-03,-2.214399801213864580e-02,5.455415248870849609e-01
5.444725892953428126e-01,-3.428549775320430260e-02,-3.914074027243255594e-02,4.439933743089712059e-02,-3.569187918526425113e-02,-1.622500721470186355e-02,5.901862978935241699e-01
4.551641005293948217e-01,-9.656692619189499727e-03,-3.852330790930216797e-02,-4.715649375750367162e-02,3.499142397470293448e-03,-4.415611534973059617e-03,4.869043827056884766e-01
5.191876133738040355e-01,-3.920719967515817750e-02,-3.387882827147262188e-02,-2.233078586464259593e-02,1.997615735579640756e-02,3.214572918652833667e-03,5.581952929496765137e-01
5.021347606158181875e-01,-1.941249510107953546e-02,-4.262854797541551499e-02,-2.936502036680743721e-02,4.448062725850951415e-03,-2.408330976110747111e-03,5.360246896743774414e-01
4.879931131562626478e-01,-3.475203667093496041e-02,-3.180554853733058573e-02,-6.601579798964860024e-02,8.042122978540688222e-03,-2.174276333364452089e-03,5.338664650917053223e-01
5.133898005690075150e-01,-3.458708934185472650e-02,-3.836361910310928658e-02,3.301855950417658010e-03,9.118412015044923859e-04,1.702112885919716259e-03,5.499147772789001465e-01
2.752021828172734330e-01,-2.499263634478830765e-02,3.138348142257089274e-02,1.011857257269371119e-02,-9.728636671083926157e-02,9.169338329247784386e-03,3.245376348495483398e-01
2.680744475520269177e-01,-3.495634814646848831e-02,-6.636862844693600105e-03,-1.937451945636716605e-02,-6.491393083593174906e-02,3.616779197542239338e-02,3.189668953418731689e-01
2.275371938940785044e-01,-6.992605973147547616e-03,4.893017960216405893e-03,-2.302865491322914071e-02,-7.853370258539089932e-02,1.462245284307933831e-02,2.703571617603302002e-01
4.014741104885304335e-01,-3.723531238772198604e-04,-3.422794726991754133e-02,-4.181131708803009599e-03,-3.245338039627290033e-02,-2.599542880891032252e-03,4.236318171024322510e-01
3.337747614896526271e-01,2.926471550530870824e-03,-1.210629981017048717e-02,-9.472253582728730643e-04,-3.761698781414662528e-03,4.067540312246498320e-03,3.387549519538879395e-01
2.307598474134346100e-01,-1.868955378266813627e-02,1.675982395569174110e-02,-4.682645788624460043e-02,-1.219567146173187594e-01,1.434947227792080753e-05,3.253264725208282471e-01
3.291338938365506728e-01,2.976110980482352120e-03,-2.422878725750124418e-02,-9.895778656993226355e-03,-6.851478695562913945e-02,-6.760055873301999349e-03,3.612558543682098389e-01
4.833130600154138534e-01,-5.102252407290552849e-02,-2.264188154556295851e-02,-8.609540856966297132e-03,-1.136435319367171256e-03,-5.735848990552518470e-03,5.210375785827636719e-01
4.449967139226827517e-01,-4.191101597136767665e-02,-2.045341514072560041e-02,-2.108262477570467877e-02,-1.675192440898210129e-03,-1.029424430516503140e-02,4.782796800136566162e-01
5.082967140827230335e-01,-3.444402328402640379e-02,-4.536585853324115458e-02,-2.305556487813711572e-03,8.173735551099342925e-03,6.399531531090359160e-03,5.485925078392028809e-01
4.998714651506905859e-01,-4.482534092593676300e-02,-3.268913557021557725e-02,-1.146154156924714985e-02,-2.851615808249528990e-03,-1.139969272573232266e-02,5.394809842109680176e-01
4.940125509705287632e-01,-4.366943300660541816e-02,-3.175757480217067386e-02,-3.308594950807197937e-03,-2.303873572326914712e-03,-4.785574127512509136e-03,5.319365262985229492e-01
4.968125348347454673e-01,-5.113099091020464892e-02,-3.315915049254719582e-02,-5.307175873725001117e-03,-4.657097502474807221e-03,-8.537708477756839054e-03,5.395236611366271973e-01
4.770959013059162257e-01,-3.672917700044475708e-02,-1.843812821455495521e-02,-3.635441834635581848e-02,-1.982364088665529434e-02,7.234462742479960858e-03,5.101501941680908203e-01
4.859040241533600368e-01,-3.524729031966222781e-02,-3.734211857188915462e-02,1.967189482955575969e-02,4.111781846720254791e-02,5.582553375545130014e-04,5.281370282173156738e-01
5.560091842523178229e-01,7.147773282629610314e-03,-4.396825850352570342e-02,1.296990698217813896e-02,3.859072573044155380e-03,1.830645979006604446e-02,5.774703621864318848e-01
6.344859821741783978e-01,-4.961628374147755705e-02,7.034600208574381952e-03,2.550449290431280880e-02,6.293156432351783985e-03,4.290642216505969470e-02,6.633576750755310059e-01
6.762840434001931023e-01,-4.640885513090531322e-02,1.018561148530158778e-02,3.714059107491896484e-03,-1.007932370280783252e-01,5.541244309141187679e-02,7.240983247756958008e-01
5.287602399144208931e-01,-3.310749541113597316e-02,-6.119492331973369614e-03,5.209776998158451022e-03,-5.212302470293070367e-03,-2.238076422253246125e-03,5.490337014198303223e-01
8.484412563611161140e-01,-7.683142800132991557e-02,1.339425297738394693e-03,1.039615663243711498e-02,7.448327264682065574e-03,4.087558651044836955e-02,8.918598294258117676e-01
5.677578950642767630e-01,-3.353875752240922936e-02,1.847709953487736145e-02,2.910731720333880126e-02,-8.780694985727538135e-03,5.707093730425571998e-02,5.878185629844665527e-01
5.992853871763681450e-01,-6.242862626787024083e-02,2.325719018004893113e-02,3.896977602074651326e-02,1.326105525636363247e-02,4.467384278684480292e-02,6.321223974227905273e-01
8.203549099680150780e-01,-4.354446594507016544e-02,-1.518990356792287999e-02,-3.249038239368538111e-02,5.977660164095227081e-03,4.937606969140943131e-02,8.562818765640258789e-01
4.703440826553291210e-01,-5.296033591222101822e-02,-1.803136126767831970e-02,-1.396837867959021748e-02,5.092482718406516305e-03,-1.438033838734902243e-04,5.073975324630737305e-01
4.909152975633420679e-01,-3.225514319159511478e-02,-4.134403636835273788e-02,-4.831832999612884968e-03,-2.327929723993821948e-02,-5.785187074921933036e-03,5.294725298881530762e-01
5.531568596672786775e-01,-1.452001235561201087e-02,-5.029354339378350192e-02,-4.126007191537489627e-02,6.079223185785473729e-03,1.120982158758285392e-02,5.911341905593872070e-01
5.170642979512694026e-01,-2.669544293211092989e-02,-1.874849158089653134e-02,-3.392529903790235824e-03,-7.171590711569501061e-04,1.483013564022094867e-02,5.404742956161499023e-01
5.132682725591690698e-01,-3.966935690255168900e-02,-3.193976926812791550e-02,-1.757006311456063563e-02,-5.945026562506151572e-06,-2.285921813849455930e-03,5.499705076217651367e-01
5.208965243797225586e-01,-2.013948897638037638e-02,-3.708180516007050787e-02,-1.042927033972384024e-02,-7.778846422632742889e-03,4.727873650256121142e-03,5.502256751060485840e-01
5.951833750309509785e-01,-4.434269879168462047e-02,-1.561637371665178242e-02,-1.194273981006371312e-02,-2.684342887119215565e-02,2.836520971508818892e-02,6.296434998512268066e-01
5.191443532584379961e-01,-2.319978009011805509e-02,-3.023799173211080826e-02,-2.474302446567472075e-03,2.969441599650001710e-03,-4.730662279253631565e-03,5.459998250007629395e-01
5.187947510525779959e-01,-2.873027695956739680e-02,-2.753315689394289500e-02,2.758805897192362529e-03,6.274532835281557662e-03,-6.466602759141233496e-03,5.471709370613098145e-01
5.080030203950883783e-01,-3.364658742593387708e-02,-4.228699685934519947e-02,2.370037285001324809e-03,2.026700314038279525e-03,4.739700027264997020e-03,5.461094975471496582e-01
5.536446367887264408e-01,-3.778337940580742127e-02,-2.615877629047275166e-02,-2.364039102824064612e-02,3.819124594446039744e-02,-9.778062975400901233e-03,5.910890698432922363e-01
4.507217405514971631e-01,-2.259610017014437866e-02,-2.028048003176724512e-02,-3.901210253194271893e-02,2.986575499522793262e-02,-2.984840606014846267e-03,4.797995090484619141e-01
5.265793607442794677e-01,-3.604743348515088153e-02,-4.532161128479011980e-02,1.506051941144489386e-03,-1.939812664345056954e-04,-1.757837543828671923e-03,5.673350095748901367e-01
5.229368997936182373e-01,-1.653750142820689661e-02,-3.762146263080143327e-02,-7.050723665866047256e-03,3.944117378025562698e-03,-1.013945072085718942e-03,5.505000352859497070e-01
5.172613759625721563e-01,-2.440172286906241994e-02,-3.743517510229307788e-02,-1.840130548847945108e-02,2.946423147486576435e-03,-2.371760188243193269e-03,5.492606759071350098e-01
5.135106999808790595e-01,-3.200692080042844001e-02,-4.117183040975533337e-02,4.513880705896211772e-03,2.197316637248471899e-02,2.164782490666350076e-03,5.515403151512145996e-01
5.032002643219752880e-01,-3.686690150574209457e-02,-2.438298083357823276e-02,2.915455793979372223e-03,3.471829917740057447e-02,-7.995329286395723781e-03,5.375124216079711914e-01
3.282581475163085516e-01,-1.802121488264681048e-02,2.478436186650570527e-03,-6.211876837937915091e-02,5.865020860541966113e-03,-2.080579975721992341e-04,3.534269034862518311e-01
4.810673605344003567e-01,-2.618379560674929940e-02,-4.590790405258712847e-02,-3.965560010827702368e-03,1.368777964293438343e-02,1.422381019268876548e-03,5.179895162582397461e-01
4.044721354360235610e-01,-2.772742094010585689e-02,-2.732368869626419783e-02,2.902607383977380464e-03,6.695781615824909772e-02,4.377311165503961279e-03,4.473867714405059814e-01
5.207641033055909752e-01,-3.760784166227496006e-02,-4.016469627906726902e-02,6.826582010930920975e-04,2.557892405028520943e-02,-1.058585392438539255e-03,5.614098906517028809e-01
5.230284745723423612e-01,-2.346578482589437020e-02,-1.195889837937719191e-02,-3.550263882584636134e-03,-2.464889829438438561e-03,1.085680114912991254e-02,5.412112474441528320e-01
5.318295219217139547e-01,6.591266108110421795e-03,-3.772039314046934932e-02,-4.704852960635696676e-03,-6.602873136871408727e-03,1.478755486646287157e-02,5.495144724845886230e-01
5.316014221669999040e-01,1.397855794317104383e-02,-4.648985129935789828e-02,-3.007814123648198164e-03,-2.750891925443213915e-03,1.888170583215785167e-02,5.513702034950256348e-01
5.353601472641735803e-01,1.456070173832710313e-02,-3.651297682205026374e-02,-5.258590237745785351e-03,-3.370349437375742309e-03,2.323174030590826472e-02,5.497052669525146484e-01
5.850072045283251088e-01,2.203882689135350237e-02,-3.858233371587094229e-02,-2.750628270703203704e-02,2.094772376822644222e-03,3.872468096239470303e-02,6.012635827064514160e-01
6.176976760957280099e-01,-3.408815521056379749e-02,-1.600985361140763730e-02,-1.064237357352078132e-02,-9.961750341767395753e-03,3.450293271367654152e-02,6.462022066116333008e-01
5.977782751686078200e-01,-3.037159725978313962e-02,-4.922520518076040075e-03,-1.040426319753117107e-03,5.969636626215864272e-03,4.022091771502168261e-02,6.198365688323974609e-01
5.437189717230518360e-01,2.689124568447165409e-03,-2.102022937647640699e-02,1.018134412604276492e-02,-5.202694604390916550e-03,1.516803673205677563e-02,5.542429685592651367e-01
4.657164172785050460e-01,-5.038184385289520839e-02,-1.166114194643005919e-02,-1.243304706213889388e-02,-7.605207638646018778e-04,-7.057182244289442359e-03,4.984856247901916504e-01
3.837154721462289197e-01,-3.269978566179257418e-02,-5.121472552124223254e-03,-2.653693222589065606e-02,2.819961331369989777e-03,4.594860601287911045e-04,4.059745371341705322e-01
4.376102352408161589e-01,-5.162723426455406717e-02,-1.657200241096043469e-02,-1.673135307394225946e-02,1.199538888505645787e-03,-2.531145533156097666e-03,4.735981225967407227e-01
4.362743955842089960e-01,-4.849730993358053466e-02,-1.036170157392607427e-02,-1.225732431184422232e-02,-3.353811799312734869e-03,-7.155817655498786407e-03,4.675563573837280273e-01
4.965019764663929913e-01,3.043767705467381735e-03,-2.340152223083422078e-02,-6.005161691023570836e-02,-3.366190703325046968e-02,4.055455626659616730e-02,5.257394313812255859e-01
4.651974695878796640e-01,-4.921392251400549811e-02,-1.132122222444725823e-02,-1.758120930264758797e-02,2.542843453655539709e-03,4.975818815604016523e-03,4.975776076316833496e-01
3.765162283601458104e-01,-3.266767305725992721e-02,-4.745180612524324548e-03,-2.325347928697023281e-02,3.431610616614381819e-03,2.621909388880526263e-04,3.980495035648345947e-01
4.122312131226383292e-01,-3.590981995519781922e-02,-3.418932815985462059e-02,-1.140581654643251924e-01,-1.915628452538093753e-03,-2.321896238654812435e-03,4.889962077140808105e-01
4.994588469532202923e-01,-3.985864290722693215e-02,-4.038448863705121350e-02,3.362060058795237824e-04,3.228942448626535497e-03,9.658559537458793337e-03,5.398691892623901367e-01
4.960583491560948133e-01,-4.394989829860018737e-02,-3.982119674875567172e-02,-4.060411396508277482e-03,1.634287840377585772e-03,8.357814362551334308e-03,5.382038950920104980e-01
4.960921781881664216e-01,-4.285531106029163984e-02,-3.603591820254570255e-02,-5.431364523876771981e-03,4.219680934357099462e-03,3.741159583687650274e-03,5.357420444488525391e-01
4.690402205010816283e-01,-2.853752461971043042e-02,-2.590441228923515138e-02,-1.890002247222729789e-02,4.776790111666316674e-02,-4.587874713449799705e-03,5.042424798011779785e-01
4.893765033288687283e-01,-2.618406650626387000e-02,-5.057230381447869183e-02,-1.850362734615877604e-03,7.268811624942814534e-03,6.167147132693030602e-03,5.284448862075805664e-01
4.726422470394281428e-01,-3.179818045253213210e-02,-3.633087764467848868e-02,-3.368791416133344596e-02,4.551904209479733232e-02,5.813952205566524358e-04,5.161285996437072754e-01
4.830889124952241209e-01,-2.921569233596277293e-02,-3.499083251270693196e-02,4.757643037832270071e-03,-1.179571356392151125e-02,-2.995376951003810972e-03,5.157133340835571289e-01
5.362146534939683518e-01,-2.308503349724044806e-02,-1.614171836424077577e-02,4.795423546726716897e-03,1.541001695617344068e-03,-1.503697741875182313e-02,5.565387606620788574e-01
5.152178894852672553e-01,-3.260306485293584799e-02,-3.784559093398115470e-02,-5.476131146650908832e-03,4.930257900658856045e-03,1.334886645340924768e-03,5.506137013435363770e-01
5.244530156915578889e-01,-3.490703697681954432e-02,-3.176422260308323087e-02,1.293327456176724712e-02,-6.323555743527491980e-03,-6.099031821436349914e-04,5.583533644676208496e-01
3.563442933437908633e-01,-1.085487743339458300e-02,-3.223360605573932780e-02,4.081169570781936068e-02,-7.138701458517637821e-02,5.906766604083798534e-03,4.043912887573242188e-01
4.873104666372004012e-01,-3.245514370252358671e-02,-4.998863875220205255e-02,2.782698145242908441e-02,-5.661753037450082543e-02,-1.929059232249070565e-03,5.399332046508789062e-01
4.924202779226374838e-01,-3.653249474370548477e-02,-4.299791632673552466e-02,3.700655058884316784e-02,-4.966907067531201730e-02,9.139451536482037439e-03,5.431508421897888184e-01
4.502720201164474578e-01,-4.286663548196112394e-02,-1.811305392920717350e-02,1.511627044157770605e-02,-7.584950853685013331e-03,8.095125544032579293e-03,4.823341369628906250e-01
5.307756479907449476e-01,-4.892205552932674117e-02,-8.225032269886883851e-03,3.812197203010412542e-03,1.624451244372246070e-02,8.441229609907095061e-03,5.613935589790344238e-01
5.015159472729948664e-01,-4.744613687784485223e-02,-3.124282429433281050e-02,1.166897064088553287e-02,6.265312944757898093e-03,-9.036423329068957871e-03,5.417546629905700684e-01
5.290730608426608139e-01,-3.805364020277018922e-02,-3.633767073778684797e-02,-2.914905565321873702e-03,-5.785075153089239836e-03,-3.776519891773819169e-03,5.664196014404296875e-01
2.988425838048507366e-01,1.095677211794990336e-02,-3.627172004660311755e-02,1.033129047838059339e-01,2.089348401582242359e-02,1.508881670775715292e-02,3.643054664134979248e-01
5.605458293275301651e-01,-2.578513101425927712e-03,-4.750771718814378319e-02,1.122655210395541586e-01,7.914679968001686605e-02,1.741363168666033856e-02,6.339884996414184570e-01
5.159467177242302860e-01,-3.462159140681403402e-02,-3.835944341058872276e-02,-1.315070586958701042e-03,-1.856236607514289783e-03,-2.507848744375350443e-03,5.524778366088867188e-01
4.884203129960895673e-01,-3.069113322011512990e-02,-3.368657987631168416e-02,1.512002524855297209e-02,1.935896205099221128e-03,-4.751424086814867546e-03,5.213496685028076172e-01
4.792382344843179043e-01,3.302450806243173442e-02,-1.986180382478466844e-02,5.353701289661796231e-02,4.402961834491910670e-02,4.526829784660012929e-02,4.960487484931945801e-01
4.693235467063462396e-01,-4.948470683804384596e-02,-3.595754691221764165e-02,8.425872358856691113e-02,6.464817004749362495e-02,-2.199167059474163414e-04,5.442094206809997559e-01
5.147346266402317294e-01,-3.504959110788513632e-02,-3.657020479393169321e-02,-2.730461315981778068e-03,1.405721432305131330e-03,-2.000532972622731231e-03,5.505827069282531738e-01
5.223363676349708218e-01,-2.613775000506909918e-02,-2.596486592289282136e-02,-1.939627021845682572e-03,8.920263576530156025e-05,2.678427855551891636e-03,5.484176278114318848e-01
5.304683961129748049e-01,-3.841829292401871543e-02,-3.528537601021822234e-02,1.008612054727969429e-02,1.131918480484197034e-02,-3.337279406629525477e-03,5.679635405540466309e-01
5.192629419545751190e-01,-4.148475539230295217e-02,-4.097354588361587502e-02,-4.068890934950642976e-04,-2.492174057292909344e-03,-8.097403662150450335e-03,5.606848001480102539e-01
5.155728818463063412e-01,-3.624269205753735679e-02,-3.462208190372029204e-02,-5.011466725931753305e-04,-2.545778020632198917e-03,-2.558064091417013800e-03,5.510432124137878418e-01
5.251919401807623178e-01,-3.790550444573470568e-02,-3.567282840740204630e-02,1.638124715835035804e-04,-5.769731616365967979e-03,-2.909693227469240147e-03,5.620959401130676270e-01
4.186548026329441341e-01,-3.056929509715952675e-02,-3.421734563999506706e-02,-3.760338547910605650e-02,-7.219332545740315965e-02,-4.814181629047673168e-03,4.726537764072418213e-01
4.801240558315520990e-01,-4.885968871012619230e-02,-2.464994389876781766e-02,-5.210518936660394132e-03,2.817333873833073599e-03,-6.129724027062160262e-03,5.175145864486694336e-01
5.154689597134245460e-01,-3.806452587741238069e-02,-3.285097640530773577e-02,-1.388131686519894145e-02,-2.718770254523866087e-02,1.593912670108227694e-02,5.541645884513854980e-01
5.088085780901246968e-01,-3.377073770772850980e-02,-4.252996312046442018e-02,-1.333070713882718132e-03,-9.067767325251595636e-03,-5.847289829142231742e-03,5.473355650901794434e-01
4.844449726978033444e-01,-4.915043017030762407e-02,-2.778251300671602531e-02,-1.133141909512024731e-02,-9.514408681172092930e-03,-6.202617544086980877e-03,5.239761471748352051e-01
4.825213769103984807e-01,-3.701109278669856284e-02,-2.969941833413775045e-02,-1.116220276750671050e-02,3.799157049004372230e-03,-3.898685656924080062e-03,5.163636803627014160e-01
4.867844156585290905e-01,-4.502949046199233862e-02,-3.104443537351206372e-02,-2.880792517046274620e-02,-1.005138861255574362e-02,-9.166984313902937914e-03,5.278532505035400391e-01
4.498565525555732747e-01,-3.925509664532550458e-02,-2.663808389253027875e-02,-2.552994459553542886e-02,-5.354148506348212905e-02,-6.005289258033261884e-03,4.938439726829528809e-01
4.941377405131203715e-01,-4.465745615499841503e-02,-2.590293634859813787e-02,-2.461417814816777884e-03,-8.668060960464362341e-04,-2.295574701919439117e-03,5.297012329101562500e-01
4.068924152100172886e-01,-4.120134607222658563e-02,-7.613776142635642064e-03,-3.140345303099673774e-02,-5.238321188264622418e-03,-1.439553099369083157e-03,4.357898831367492676e-01
4.657434246141228806e-01,-5.272099032331178936e-02,-1.702430067986263063e-02,-1.610986662353545637e-02,-2.620584905853667705e-03,-6.647017613007028891e-04,5.023670196533203125e-01
4.717083915838489183e-01,-5.004598047370814595e-02,-1.803858609122485634e-02,-2.814164367883211643e-02,6.387531383305477964e-04,-4.788760224017102156e-03,5.089184641838073730e-01
4.354398173014321638e-01,-4.254832047816370366e-02,-2.118386318124093615e-02,-3.004114609182509388e-02,1.078346875294676835e-02,4.611892883577685225e-03,4.709959924221038818e-01
4.910433929389678709e-01,-3.418474334604143516e-02,-4.209992140862439669e-02,-6.292011580028514239e-02,5.558246258927858514e-03,1.368250606254503522e-03,5.404254198074340820e-01
4.290234092390962095e-01,-3.839297065647184759e-02,-1.908332359229242270e-02,-5.791222618978360964e-02,-3.075544434156337811e-02,-8.494613868839737819e-03,4.721662104129791260e-01
4.897074974159802419e-01,-3.708459067014044375e-02,-3.033503073993312760e-02,-3.658753234577233338e-02,-3.730107657628437250e-03,-2.946374152168452620e-03,5.273362994194030762e-01
4.942054475636897259e-01,-1.236583765759591280e-02,-3.987505608399147250e-02,-2.592110014888149988e-02,8.058827867353308277e-03,3.803081968096723702e-03,5.230301618576049805e-01
5.181460695944872796e-01,-3.444834806173519004e-02,-4.038904315176886084e-02,1.748588731926987256e-03,3.597549366305926363e-04,2.881314970156907663e-04,5.555974245071411133e-01
4.885633165133774769e-01,-2.409314663672254553e-02,-5.788897100443621269e-02,-4.039209759015502128e-05,-1.460437224124411281e-03,7.221151431566034951e-05,5.303686261177062988e-01
5.117418439637831939e-01,-3.498716006455085403e-02,-4.261711285705283014e-02,2.937171917241830372e-03,-5.107602324477340978e-03,3.863392843062486356e-03,5.507188439369201660e-01
5.151021994545978977e-01,-4.681893914142257196e-02,-3.632199863296586839e-02,2.127576400602519419e-03,-3.060891003848134530e-03,1.105083004233673285e-03,5.567876100540161133e-01
5.203521717531935931e-01,-4.374236716044238582e-02,-3.365037455379599196e-02,3.896658525994836555e-03,1.113757799468888818e-03,-7.255987238987660591e-03,5.593021512031555176e-01
4.956043272838410174e-01,-3.964016043131574074e-02,-3.254495647366428823e-02,-1.367295915787195622e-04,-8.972362169925421392e-04,-6.748324153155121387e-03,5.318631529808044434e-01
4.644003902380913207e-01,-4.393238197486951102e-02,-2.847620053176769250e-02,-1.054275531618202068e-02,1.824333509317405122e-03,9.543490180497916919e-03,5.013989210128784180e-01
4.894004600914284020e-01,-5.711243614117866851e-02,-2.337420014473395868e-02,-2.887289697310030812e-03,2.251217463435328109e-03,3.824424985567374336e-05,5.304870009422302246e-01
4.529283379011107002e-01,-3.033767050557992229e-02,-1.753857688101759238e-02,-2.656152540332489334e-02,-2.702751222124952571e-02,1.308311215151632817e-02,4.820228219032287598e-01
5.105745030571136045e-01,-2.519457905023519961e-02,-3.614163819172575010e-02,1.153570467604082654e-03,3.051232744516180553e-03,2.016360584243301443e-04,5.413552522659301758e-01
4.935878035781905426e-01,-2.463153625285666171e-02,-5.618764584083432712e-02,-9.750953986100678464e-04,-1.614449316644550429e-03,-1.850920395325642270e-03,5.347158312797546387e-01
4.817522401280986966e-01,-2.403174022662507570e-02,-5.333091436850925793e-02,-4.283942951704873547e-03,-5.731173518402870107e-03,-5.385368048637931976e-03,5.212825536727905273e-01
5.007386510135096724e-01,-3.151387129397481557e-02,-5.237922957081764253e-02,-1.325856302117356779e-03,-1.336258911541307820e-03,-2.051907886602578196e-03,5.430073738098144531e-01
4.944010786065919927e-01,-2.880035818295764716e-02,-5.378131223655754911e-02,-5.015450248435530467e-04,-1.005204229850601219e-03,-1.074174276304892166e-03,5.361353754997253418e-01
4.910281110898653267e-01,-5.711007453058730698e-02,-2.523051474102810943e-02,-7.225578124403718092e-03,-2.391812101472678889e-03,-3.049372493524488484e-03,5.331032276153564453e-01
4.939775173314350232e-01,-5.630301147064223355e-02,-2.469286402954090631e-02,-2.488543167879905035e-03,-1.794609898100512540e-03,-2.364758746854976092e-03,5.352181196212768555e-01
4.893253314627659667e-01,-5.899382486327542363e-02,-2.089582681495472105e-02,-2.120498440808150573e-03,4.427022477627161096e-04,-1.131328439374023947e-03,5.303144454956054688e-01
4.778835277114428237e-01,-5.689831315607343787e-02,-1.987160340612309506e-02,-7.931273221676794077e-03,-1.006834061597396552e-04,-2.736200309146396246e-03,5.174674987792968750e-01
5.003005531570112741e-01,-2.923680297865788313e-02,-5.373194490331265061e-02,1.830115006935788529e-03,-1.518954150164655327e-03,2.472823162018714278e-03,5.422326326370239258e-01
4.982641122784960963e-01,-2.702953718619710566e-02,-5.368826189158062978e-02,1.220880914911298991e-03,2.368740480090927771e-04,7.325861864745009024e-04,5.391233563423156738e-01
4.991177146009339038e-01,-2.524135441492361687e-02,-5.418207934558766370e-02,1.287105005140082130e-03,-6.699232460840804163e-03,3.707052773671766152e-03,5.395796298980712891e-01
4.980383442343048195e-01,-2.548560308759170723e-02,-5.787885815142737589e-02,2.022730110598630875e-03,-1.510781033951581667e-03,1.600431716436247600e-03,5.404739379882812500e-01
5.306463227313115150e-01,-3.670087894747811608e-02,1.687860747063543720e-02,1.684991445367159000e-03,5.086888609903181908e-04,-1.147128433407113013e-02,5.429176092147827148e-01
5.379902749249960703e-01,-4.616642530288392332e-02,1.445609080278276171e-02,4.095924100764682108e-03,-3.566799302848229079e-04,-7.193907879443519129e-03,5.565133094787597656e-01
5.516881625382803467e-01,-5.444111129407788741e-02,4.215738184894959883e-02,1.683355358671066249e-03,-1.232997024818584426e-02,-6.310511006493577796e-03,5.645855665206909180e-01
5.298796902624056671e-01,-3.811200079770921123e-02,3.075191306331342966e-02,4.273007709472626588e-05,-1.704493393047010891e-02,-1.851315044370025267e-02,5.386487245559692383e-01
5.947341874659277661e-01,-5.352950700318626076e-02,-7.945891742443256245e-04,3.626477294519161575e-03,-1.779645402636400621e-03,-2.474437414523329021e-02,6.250811815261840820e-01
4.831638106870461691e-01,-5.208636978053798883e-02,-2.286524359178118693e-02,-7.106624863872227846e-03,-9.622535295561081021e-04,-6.255961620569343296e-03,5.215148329734802246e-01
4.852900276101666521e-01,-5.715379083699642648e-02,-2.137493675308141383e-02,9.635686093955343745e-05,4.733764401784714337e-04,-2.170295395711997061e-03,5.254828333854675293e-01
4.849486368255557789e-01,-2.246307347709666780e-02,-5.730882499547557130e-02,1.495178527966801139e-03,-1.862768394458816194e-03,-2.324662246687415575e-04,5.257178544998168945e-01
4.856541906747853798e-01,-5.951672401290783454e-02,-2.218596132206149263e-02,4.614934463436209120e-04,3.483291167229878070e-04,-6.003831988438666258e-04,5.274991393089294434e-01
5.060625396914417706e-01,-1.342526763467780104e-02,-3.162559422562244427e-03,-6.933022075762156067e-02,-6.067138583688094083e-02,4.350544966674708969e-02,5.438591837882995605e-01
5.784310524927243069e-01,-9.732857532544103574e-03,-2.241579262831405739e-02,-2.389840421376163149e-02,-1.312210457100602967e-02,4.102500525861128844e-02,6.006966233253479004e-01
5.337241434707837850e-01,-3.291136521802728865e-02,5.191523203857267843e-03,3.274682109369984103e-03,1.253119519540253505e-03,1.768942022401109176e-02,5.494659543037414551e-01
5.688991728618177923e-01,4.553975782830399499e-03,6.626253633461060000e-03,-8.637121902313575628e-03,-4.030437576868607999e-03,5.225821053869169480e-02,5.707763433456420898e-01
5.347543871641569080e-01,-4.633770654511301657e-02,2.456921982116255787e-02,-9.012616828976719938e-03,-8.640798494179115913e-03,2.690722409241218596e-02,5.514816641807556152e-01
5.451062768069598885e-01,-4.153885267376397628e-02,8.906847909360610105e-03,-5.214717341707946451e-03,-2.458578659448995736e-03,2.355483840163980283e-02,5.646837949752807617e-01
4.968147753425760094e-01,-3.109130172108576229e-02,-3.262621793554107419e-02,1.110909625132044769e-02,-2.529198130498587840e-02,3.200884171692713626e-03,5.308648347854614258e-01
3.740881376620063259e-01,-6.627284618191703336e-03,1.065365121790839975e-02,7.349676880934115364e-02,-9.903463024250135083e-02,-2.570184720032188744e-02,4.315951764583587646e-01
2.381527442618965318e-01,-2.571630656632382939e-02,9.771488224193103367e-05,5.168938470386460343e-02,-7.613423010984496364e-02,1.585787587906020007e-02,2.994006872177124023e-01
2.349261088952145082e-01,5.524428338948672579e-03,1.817007615114918373e-02,3.860425354451372387e-02,-5.918256684646015092e-02,-1.428790718993011577e-02,2.558811008930206299e-01
4.865772010717478446e-01,-2.515555895876345205e-02,-3.494378946327345026e-02,-2.991043276228453132e-02,-9.343705709151346045e-03,3.319274597769107746e-03,5.195710062980651855e-01
2.587022530119248431e-01,-2.121065489982201790e-02,5.391396755839703014e-03,9.892593719456796442e-02,-4.207641262859987408e-02,-3.743260906194723070e-02,3.323951661586761475e-01
3.563792621039154618e-01,-4.035059927663811608e-02,-2.865897836622949280e-02,3.709998823379589278e-02,-3.486091364472122811e-02,-1.353966116845437689e-03,4.008409082889556885e-01
4.924398211300469730e-01,-2.641720143839565438e-02,-5.764920751538704646e-02,-3.042870278845354395e-03,-6.228840294392897457e-03,-3.151344820426728224e-03,5.353195071220397949e-01
4.772696706493447794e-01,-2.034800645922230089e-02,-5.697945603416101901e-02,-1.005674817052703321e-04,-5.806123043230765161e-03,-2.892664084734472996e-03,5.170299410820007324e-01
5.145867433321136275e-01,-4.184196728887432104e-02,-4.848096419032887905e-02,-2.238361848618365755e-04,-1.303961856959610390e-04,3.674744522895415956e-03,5.598140954971313477e-01
5.130233551204510523e-01,-2.095889525830832434e-02,-3.026694319558101420e-02,-1.540311865958345116e-03,-7.563124718201611526e-05,2.130891130139755951e-03,5.387158393859863281e-01
4.949099663217504386e-01,-2.515114590370615133e-02,-5.775567493828731580e-02,-9.103226356869550907e-04,-6.277087638512690408e-03,-3.223316561923767441e-03,5.372474789619445801e-01
5.267085863971510129e-01,6.517302149315173931e-03,-4.774730350356234942e-02,-6.890337774692494033e-03,3.220615238069568531e-04,-8.924969701206761754e-04,5.494694709777832031e-01
5.378255843238510803e-01,2.789853930355973288e-02,-5.881984654743066532e-02,-3.867528524007949947e-04,4.907987572119773372e-03,-9.613939489304587898e-04,5.584274530410766602e-01
5.436231432486713366e-01,-2.109725408015244996e-02,-5.419693681016093945e-02,3.121983007226683191e-02,-2.849532621001560611e-03,2.122350447796485066e-03,5.845157504081726074e-01
5.251191373937962314e-01,-2.895535359551237864e-02,-4.399497393601267681e-02,3.937828845488478696e-03,4.296240698314393938e-03,7.932079330273360393e-04,5.618376731872558594e-01
5.263695487854103128e-01,2.393446448342748112e-02,-4.669650615155251927e-02,2.186986939290631524e-02,5.115207764972043263e-03,5.132453514034180167e-03,5.426874160766601562e-01
5.569462445087899338e-01,-1.108029169704388694e-02,-4.545332970682119944e-02,3.508006130769324767e-03,-4.391794296874251824e-03,7.593395603277945140e-03,5.861980915069580078e-01
5.277288938458135625e-01,2.470158269613584312e-02,-5.405760322138206120e-02,9.362447575974030059e-03,9.798310761318920412e-03,3.617263016811159463e-04,5.471826791763305664e-01
5.112747923761357116e-01,-4.187349346858101895e-02,-3.210043808062942872e-02,-9.119925974714976347e-03,-2.305508089831976443e-03,-2.136517452821811835e-03,5.485816001892089844e-01
4.991993127549025910e-01,-2.878987974584215626e-02,-4.542609019259097325e-02,2.366671341387995876e-03,-2.925502374721295189e-03,8.460788254812522547e-04,5.365423560142517090e-01
5.339613942952423642e-01,-3.356424342808222994e-03,-4.694980948796864673e-02,-1.103964426749337938e-02,2.118601765619271878e-03,3.069844974095969100e-04,5.607260465621948242e-01
5.370607597608639816e-01,-2.148716052963947631e-02,8.142567340505002527e-04,1.506125027848742234e-02,-7.575506350639495817e-03,-2.380463029367525796e-02,5.500630736351013184e-01
5.691825886772332588e-01,-3.661601275067594141e-02,-1.290965636602206534e-02,8.297660010091330654e-03,3.148634577492261458e-03,-3.086160727105532325e-02,5.968971848487854004e-01
5.022227761472172203e-01,-3.327655168460982860e-02,-5.043466953144859488e-02,2.897835358448210431e-03,-3.707773474839574056e-03,1.219835661050963161e-03,5.443463921546936035e-01
5.274495035542026145e-01,-3.677595615914586169e-02,1.235205443476070086e-02,4.376446645380245430e-04,-4.783864982774792621e-03,-2.297549634545224817e-02,5.428605079650878906e-01
5.166481946964296412e-01,-4.603274943601237679e-02,-3.765383832783833484e-02,-1.023480404383786879e-03,6.752157615963770608e-04,1.055106685356836486e-03,5.585456490516662598e-01
5.339515386042648082e-01,-4.446280036206134989e-02,2.011226885661920871e-02,2.762334951541062060e-03,5.414534803538707287e-03,-2.651183100316921448e-02,5.510003566741943359e-01
5.257498766773215371e-01,-6.164345596594955623e-03,-3.387907959741146002e-02,8.809513004960571603e-03,7.227854480276885022e-04,-7.314531336021133645e-03,5.466604232788085938e-01
5.546757083376139263e-01,-5.729136668633927343e-02,4.471611300712555193e-02,1.298922884691078479e-02,-9.330759978459522708e-02,-2.864856414214685468e-02,5.929344892501831055e-01
7.647772256198547280e-01,-7.031002318047119282e-02,-1.633886986336041680e-02,4.923533419176240322e-02,-1.036002337598965727e-02,-4.779998248072880179e-02,8.183286786079406738e-01
3.732057921690360991e-01,-2.879717119555805227e-02,-8.744057211006309172e-03,1.398341490264714019e-03,-4.684636540349619051e-03,2.722829491975190582e-03,3.924806416034698486e-01
5.689295926543578297e-01,-3.944091244373246208e-02,-3.488533480793365449e-02,1.209751142150309287e-02,1.900068559284480083e-02,-3.858282593300218360e-02,6.110253334045410156e-01
6.319836619403289557e-01,-1.330248253475527220e-02,-1.946722796872388250e-02,-1.746963654752295425e-02,1.126307832833098321e-02,-4.133998833391285682e-02,6.533248424530029297e-01
5.220822402730795897e-01,-2.446909624983251152e-02,-2.442555330694984317e-02,1.240255300636267837e-03,5.373217744691462586e-03,-2.728114039588435628e-03,5.466334223747253418e-01
3.530973147505112042e-01,-1.713368952150322311e-02,-2.482556224029544567e-02,-5.184085854055704018e-02,-2.260659502476815297e-02,-1.976708413941560046e-03,3.867625296115875244e-01
5.012216840156571429e-01,-3.954032744795948906e-02,-4.412585903653584718e-02,-1.523621566009838784e-03,1.076134940458228512e-03,-7.011026671806428259e-03,5.432146787643432617e-01
5.206857885551936516e-01,-5.978248272861697021e-03,-4.076223222791755529e-02,-1.759176421471389876e-02,-1.136758039060945316e-02,5.719656397459859341e-03,5.461855530738830566e-01
4.598396929415201062e-01,-1.613656820838976769e-02,-4.940398789037431238e-03,-1.043854604136670305e-01,-1.022560179898400756e-01,4.242804786457812088e-02,5.392661094665527344e-01
3.774137145407664429e-01,-4.240216180553044167e-02,1.298184424654143243e-02,-5.003214418951487663e-02,-1.277036080929747353e-01,6.398506951005045185e-02,4.741078019142150879e-01
5.210724869111513780e-01,-2.997008632411995999e-02,-2.269875777145755058e-02,-4.054186726726125012e-03,-1.210793214629018273e-04,-6.720113845822343586e-04,5.474894642829895020e-01
4.914360795164320894e-01,-5.944399600783853432e-02,-2.112910884072508044e-02,-3.719572303254814905e-03,7.534942308087530299e-04,-3.054436105705125751e-04,5.327977538108825684e-01
5.306055632424109270e-01,-3.762343386394945144e-02,-3.937459868107026639e-02,5.167511764204050584e-04,-8.575672746731227041e-05,-9.391673026657324039e-04,5.691096186637878418e-01
5.236085097759168860e-01,-3.430203683715093987e-02,-4.208491274949824335e-02,9.931591197357501899e-03,7.417679156491573979e-03,9.964605468186024735e-06,5.622525215148925781e-01
4.066464240089809334e-01,-2.111527443028396456e-02,-3.293441853794412677e-02,-1.355068016713730297e-02,-1.832680974497377657e-02,-1.387182756597780432e-02,4.362468421459197998e-01
5.385876406135139405e-01,2.240402862423349073e-02,-4.991118079822215448e-02,1.901154465025808448e-04,1.398084218962200543e-03,-2.367780308558998723e-02,5.573964715003967285e-01
5.952314015101818345e-01,1.491159371867784023e-02,-5.828066711662835409e-02,3.601089659623211113e-03,4.891268731466316168e-03,-3.547465907385876499e-02,6.232889890670776367e-01
4.344675058600911965e-01,-3.218685479211680356e-02,-1.786588617964304793e-02,-1.381156042803284578e-02,-1.642543882902159497e-02,-1.274682469949778643e-02,4.616898894309997559e-01
5.577109791702388186e-01,3.575363507317888545e-02,-5.648996398806532815e-02,1.884340759248411337e-02,-3.579064379018321793e-03,-2.516770195214879796e-02,5.762807130813598633e-01
5.177242056106474699e-01,-2.480204469551280932e-02,-1.837317350344755407e-02,1.458898312961068441e-03,3.649381875618570858e-03,-1.289743941822261552e-03,5.393881201744079590e-01
5.313490290253946036e-01,1.445306884328453889e-02,-3.175376348646946623e-02,-4.729365132505520576e-03,-5.990782774299904627e-03,9.850518103477486076e-03,5.419100522994995117e-01
7.715588866050980821e-01,1.599398008666258475e-02,-6.834746189631346613e-02,-6.003404639654411068e-02,-3.013871298299215188e-03,-3.058787339996071886e-02,8.095452785491943359e-01
5.917475068573139207e-01,-5.799346754036788232e-03,-3.017137088420773772e-02,1.424190603605701710e-02,9.472579822832382160e-03,-2.716113784771000128e-02,6.126259565353393555e-01
5.241338529809220770e-01,-3.243851172717820974e-02,-1.484150009523024782e-02,1.088846078889456337e-02,4.725732724743323364e-03,-8.490065857428515106e-03,5.485684871673583984e-01
5.691719735080585929e-01,-4.625012293576591382e-03,-2.835014279006048410e-02,3.505476558422732959e-03,8.115803456299764893e-03,-2.714172878287643073e-02,5.881018042564392090e-01
5.142600731597065655e-01,-1.791812353242733247e-02,-1.319880607919524107e-02,3.872805939849534567e-03,-3.269201975536267985e-04,3.609317951510676147e-03,5.299139618873596191e-01
8.409232322547698368e-01,-2.294018920168405806e-02,-3.177061059243879715e-02,4.481321301150822251e-02,-2.954775802262953315e-04,4.610766041973227147e-02,8.754249811172485352e-01
5.837258297707220711e-01,5.073443811402816861e-03,-2.353849689755649344e-02,-2.534602483681313093e-02,4.804724909353545606e-04,3.750470756711979381e-02,5.986329317092895508e-01
5.288298994822997479e-01,-5.801895396133141536e-02,3.423912108729962323e-02,-1.414296174201335864e-03,3.302700902422664366e-03,7.606399074107456949e-03,5.467850565910339355e-01
5.400109642219812489e-01,-5.413010320156314004e-02,4.919836661419277335e-02,-4.089078519014160973e-03,-9.282838711095064629e-03,1.365214451006552775e-02,5.505964756011962891e-01
5.180945939222894037e-01,-3.634974622789927112e-02,-4.459144828198213784e-02,-9.477280523028120416e-04,3.155097607376824986e-03,-4.323099978883825079e-03,5.586901307106018066e-01
5.430167082827201952e-01,-6.132817368842036210e-02,4.758076889961518341e-02,7.735004198822800422e-03,4.277703543158158962e-03,-7.496827445171775489e-03,5.582816004753112793e-01
5.487052082274372911e-01,-6.174626649625172825e-02,3.862403796833890901e-02,7.479144711577718693e-03,1.689471250599057506e-02,-6.493458691464561519e-03,5.679829120635986328e-01
4.937117352617972355e-01,-2.477739960624375515e-02,-5.906459345487832802e-02,-3.136264148662814741e-04,-1.003670526304610480e-03,2.969827619091930902e-03,5.364829301834106445e-01
5.714104658584822083e-01,-6.965891364357137960e-02,3.403759807596754006e-02,-4.166437709509199054e-03,1.161064984267849709e-02,-1.163572411814874433e-02,5.967486500740051270e-01
5.259261325205087934e-01,-3.408855891997791820e-02,-3.579325158165683196e-02,6.061933134534380416e-03,2.707454143861678410e-03,-2.086289224014706430e-04,5.609869956970214844e-01
5.062002551249218385e-01,-2.969322337378685339e-02,-5.136514519961662972e-02,4.379294023123938250e-03,2.519272116293267468e-03,6.251715639558752882e-03,5.472286343574523926e-01
5.271199095429742743e-01,2.072482389598276353e-02,-4.141825105005528251e-02,6.128143920653756314e-03,1.238468118245627863e-03,-4.692940404604436372e-03,5.403239727020263672e-01
4.961379745204280156e-01,-2.974629163613790039e-02,-4.871406025029656472e-02,-5.946860140758661664e-03,1.353939161243779797e-02,6.054941089266139935e-03,5.363346934318542480e-01
5.053804378416899556e-01,-3.470332800176934018e-02,-4.796691260765822973e-02,-4.235673838640655747e-03,1.180216136656089994e-02,7.566749131919518929e-03,5.474242568016052246e-01
5.320280900583065353e-01,-2.055621326163731277e-02,-3.682270980483609568e-02,-8.300993081458858105e-04,-3.936658689737453781e-03,7.184428724134469049e-03,5.610758066177368164e-01
5.124291019930912183e-01,-1.384654078791039411e-02,-1.465798843546134433e-02,-1.873479168594240562e-04,2.799808028523722973e-04,6.301603413601791076e-04,5.266832709312438965e-01
5.183540137061650732e-01,-3.594029590963915277e-02,-5.125282780154308271e-02,7.287345267378898296e-04,6.389706704668802681e-03,1.452887825986848291e-03,5.622230172157287598e-01
5.061822052856678189e-01,-3.640631689595777432e-02,-4.739192888652840607e-02,-1.787305182055914186e-05,2.383309712767667492e-03,5.841955073543574246e-03,5.482727885246276855e-01
4.741703667490686502e-01,-5.011599868628419108e-02,-2.087080521836212621e-02,1.526537221001619034e-03,9.674042485713000954e-04,3.746003810607665546e-03,5.103435516357421875e-01
5.197867125234219010e-01,-3.540218153990112859e-02,-4.552606817511847814e-02,-2.411016008900603545e-03,-1.277479146771361325e-03,-1.815220052294440898e-03,5.603482127189636230e-01
5.046563429448169824e-01,-3.756230759703255151e-02,-4.480993123451768034e-02,-3.388937346842551060e-03,4.279897455390301378e-03,5.383455852193925334e-03,5.460400581359863281e-01
4.972128454051922830e-01,-2.934424620166559139e-02,-5.172592719217183888e-02,2.895629276183845149e-03,1.509605431224988678e-03,6.680664644858455049e-03,5.382512807846069336e-01
4.927912880750022762e-01,-3.169219443709342388e-02,-4.735615050135597026e-02,3.815307766525953591e-04,-1.604429800338087514e-04,7.229819547128280358e-03,5.326359868049621582e-01
5.716023433584525026e-01,-4.118051702740785358e-02,-3.613516837003574733e-02,-3.037478482255719786e-02,1.156287677479515968e-01,-5.442283322749168206e-02,6.513063907623291016e-01
4.958058325725536175e-01,-4.491201547903730940e-02,-3.694259399629801210e-02,1.556691968588139185e-03,2.140603894996321883e-03,-8.496884937113398720e-03,5.369988083839416504e-01
4.700288336147299129e-01,-3.316685951423717360e-02,6.218770481818236551e-03,-5.681653365431457020e-02,5.271618539747507243e-02,-3.528961926931455106e-02,5.066516399383544922e-01
5.167734673189573469e-01,-4.082802914027708341e-02,-4.620142776628843873e-02,7.140245552683491563e-04,-7.173527801527419812e-04,9.594133106376390900e-04,5.603127479553222656e-01
4.922163600888412316e-01,-2.679582764674803830e-02,-4.731428714910210220e-02,1.794886152239661076e-03,1.409322285147207024e-03,9.931139747119791666e-03,5.298636555671691895e-01
5.051069500934572964e-01,-4.000138588159554698e-02,-4.402863080554803021e-02,2.451969091345111186e-03,-1.207129615967061356e-03,6.842909703653184648e-03,5.472819209098815918e-01
5.252347360528933917e-01,-3.397859599861427493e-02,-4.719968081786957148e-03,-3.588507855382999656e-02,3.183492231891756064e-02,-3.620184330638095277e-02,5.550217628479003906e-01
4.521129450548606599e-01,-2.809822940849471262e-02,-4.722402320130225650e-02,-5.336685941002785108e-03,1.142379521331048434e-02,6.952598524732080641e-03,4.906882345676422119e-01
4.598369485457896033e-01,-3.147610868720740473e-02,-4.171731957404817281e-02,-3.434582684175009615e-02,6.835990445407644223e-02,-2.239783666826176706e-03,5.139048695564270020e-01
5.360778220234240221e-01,-5.128386975470836107e-02,-1.574282968078749567e-02,2.272129463032035793e-03,-1.170050720956271849e-02,-1.197587552437932162e-02,5.711724162101745605e-01
5.771679030302152569e-01,-4.186407699534494542e-02,-3.974549057373291672e-02,-9.564942018537431895e-03,3.868060067218195841e-02,-9.654192078060055623e-03,6.220420002937316895e-01
5.135868286781490877e-01,-3.557804729714375558e-02,-3.671919261427955550e-02,-1.956476728132898555e-03,7.008310395816753522e-04,-3.032570464218580842e-04,5.497483611106872559e-01
5.133627446749711165e-01,-4.118130141059372917e-02,-4.187649497070131122e-02,1.677067294769448835e-04,1.207729807204008113e-03,-3.150983243574210059e-04,5.548962354660034180e-01
5.052316449841560697e-01,-3.321621540669400519e-02,-2.438948288426870392e-02,9.952265243669101784e-05,1.671393580858367449e-03,3.326473316726681053e-04,5.340973734855651855e-01
4.769231911881504637e-01,-3.804015629422657918e-02,-3.609958447842134821e-02,1.250212517543619183e-03,1.405522601161465854e-03,-1.130346941141588575e-02,5.143788456916809082e-01
5.136765340390454515e-01,-3.686406566614988667e-02,-3.692637542649318538e-02,1.749808612494624729e-03,9.359389964676174956e-04,1.821256328969796112e-04,5.505825877189636230e-01
5.137990341798199800e-01,-3.985231266885558288e-02,-4.105995816513455243e-02,2.748802662316232517e-05,-1.253456706057536887e-03,-2.387180068463357410e-03,5.542758107185363770e-01
4.362797813358511023e-01,-1.461711621519740101e-02,-4.008129562646675637e-02,1.110220700829142940e-02,-1.285565780791293050e-02,7.470662003009660539e-03,4.652646183967590332e-01
5.193952231435297051e-01,-3.045171628817552878e-02,-1.833156948666425645e-02,-1.791114280541495317e-03,6.442295836515631730e-03,-7.967384216710031095e-03,5.441864728927612305e-01
5.039271775459726044e-01,-3.492153948109608108e-02,-4.444759192170913420e-02,1.983306290538524880e-03,-1.137581992924664720e-03,-7.120220067683369347e-03,5.438286066055297852e-01
5.246034095618102855e-01,-3.882795497471683288e-02,9.018161693981063820e-04,7.466194868474075423e-03,-2.083236004322451193e-02,-1.325063440500732527e-02,5.464835762977600098e-01
5.279052088949259813e-01,-2.644455821791255601e-02,-7.040665331207895949e-03,7.261661931621280971e-04,-4.875000967540748359e-04,-9.881548404950486753e-03,5.451778173446655273e-01
5.393978566832233756e-01,2.883567642790954566e-02,-4.269707868104105630e-02,-1.572840640426715828e-02,-6.215087286904014650e-03,2.246237703411600728e-02,5.519821643829345703e-01
3.593792033379424877e-01,-6.843188329292981820e-02,-2.814691402893113037e-02,9.482257442147321025e-02,-7.496335513950862228e-02,-6.068004718394960639e-02,4.714758992195129395e-01
5.177233879616742751e-01,-2.375809524564073683e-02,-5.405873070347816389e-03,3.504307165706998378e-03,-1.072788769433898190e-03,-7.829316911226916198e-03,5.327530503273010254e-01
5.297618727640667213e-01,-2.785848540175134280e-02,-6.689411478349394091e-03,3.637162629890667177e-03,1.984554435098348762e-03,-1.740535286183306565e-02,5.482195019721984863e-01
5.287565257406614538e-01,-2.017478085002655241e-02,-1.247529278731773772e-02,-4.799332250943716231e-03,2.814439503746455316e-03,-1.349690502658231449e-02,5.457084774971008301e-01
5.634706879649962197e-01,-2.875598105508106461e-02,-4.306404467541213865e-03,1.670637948556656606e-03,2.339997760835744664e-02,-4.921857090846917110e-02,5.880212187767028809e-01
3.523767940537746446e-01,-9.975286101281635731e-03,-8.888993537024741931e-02,1.252203825473256205e-01,2.038221420415696483e-02,-3.649225585978697201e-02,4.673363268375396729e-01
5.027809429278411457e-01,-5.326795226394639982e-02,-2.457431055521572261e-02,-6.916703529845970875e-04,-7.315506455361184572e-04,-3.010675164448887216e-03,5.422996282577514648e-01
4.938265249432434167e-01,-5.893911830456044498e-02,-2.258163450867695099e-02,-4.687252838443170186e-03,1.604457912798677244e-03,-1.814804546635752662e-03,5.355913043022155762e-01
4.935840693784313560e-01,-2.145351884133658849e-02,-5.904386870923827857e-02,1.497473610404400886e-03,2.162346206554542662e-07,8.230497492691208825e-04,5.348326563835144043e-01
5.111771311740637147e-01,-3.525164068884303892e-02,-4.965062269193656896e-02,8.006735925434489145e-05,-2.345705698444309996e-04,3.212633186374623962e-03,5.537968277931213379e-01
5.171557419028547375e-01,-3.879660620594682641e-02,-4.302724804501772971e-02,-7.501319603951232557e-04,1.603780026101552956e-03,2.655280648887851751e-03,5.581070780754089355e-01
5.158478042618970250e-01,-3.730451033634446523e-02,-4.656467471109868028e-02,2.368958504992474867e-04,-1.076854301509814430e-03,1.126458967670573548e-03,5.578467249870300293e-01
5.307058366438408559e-01,-4.204295145986758353e-02,-4.200888621612056117e-02,-1.022779290815194544e-03,-1.364273358836577037e-03,-1.627306444593846785e-03,5.727462768554687500e-01
3.740658420226555259e-01,-1.506890447977055070e-03,-1.842558285343257052e-02,-1.540840595659027663e-03,-1.923157395832759790e-03,1.378447998390158183e-03,3.843426108360290527e-01
5.193802287200612877e-01,-3.259057964397768514e-02,-4.960598473977093081e-02,1.951625875490612966e-03,1.547324917543237231e-03,-1.358228801018317817e-03,5.606937408447265625e-01
5.170851173049584304e-01,-2.763986295481993261e-02,-2.091824724420321413e-03,-4.476323857558414838e-03,2.779221497599360709e-03,4.118957317324142137e-03,5.325368642807006836e-01
5.160157870094732591e-01,-3.993065034009987690e-02,-4.633463309623250814e-02,-2.061991999156870140e-04,-3.674433040674023455e-04,2.139895698632850087e-03,5.591886639595031738e-01
5.914556194272521106e-01,3.167225104774676336e-02,-1.156441539992124623e-01,8.634486559018118845e-02,1.217363646150191464e-02,-2.043989593238240698e-02,6.645216941833496094e-01
4.678920619216846988e-01,-4.231201911044604747e-02,-3.310719116260871231e-02,-7.077151628842889494e-03,-1.342470520959902422e-02,-1.087144596048765857e-02,5.066972374916076660e-01
5.127977844168910559e-01,-3.999961382544506283e-02,-3.631757149787281924e-02,-7.626787763316792042e-04,7.399076520843633287e-04,2.918927039251357678e-04,5.509688854217529297e-01
5.108018078943649121e-01,-3.775741603691468162e-02,-4.810869915471766012e-02,2.160827075490996414e-03,-2.100975200776385252e-03,2.539490781881244795e-03,5.538495182991027832e-01
5.013877899446406161e-01,-2.889578692535771376e-02,-4.848124800656503086e-02,4.512812806820701121e-03,-2.624059620166898504e-03,6.415609938670483424e-03,5.405324697494506836e-01
5.171554987914128709e-01,-2.073213974445461960e-02,-2.561085234829657553e-02,-6.579265933106856045e-04,1.842007544756181893e-03,-4.612811396937400131e-03,5.404132008552551270e-01
4.889573757948399435e-01,-2.893560955576685023e-02,-5.355893950341653054e-02,1.981180249587985182e-03,-7.429355520386479901e-03,3.801298621860333023e-03,5.308412313461303711e-01
5.319109140278641679e-01,-3.829553579605757263e-02,-5.189827379911110539e-02,-2.577805587079455563e-02,2.585799362495296710e-02,-2.775581155752472606e-03,5.806025862693786621e-01
5.168193742507922739e-01,-4.275235697577034477e-02,-4.466585637104031337e-02,7.703476804382930606e-04,-7.625401548735076009e-04,7.699063810877188876e-04,5.605356693267822266e-01
4.849420215529530731e-01,-5.961888765245956789e-02,-2.099703876333924857e-02,-1.969370332938731060e-05,3.459624505696240427e-04,-6.508201045999049972e-04,5.263153910636901855e-01
5.023262837014990101e-01,-3.438821721807219789e-02,-4.404172155751776008e-02,2.965613634588328690e-03,-6.189008723602348579e-04,3.851957333087155117e-03,5.416722893714904785e-01
4.970664670305030564e-01,-3.286566710451208073e-02,-4.785977560652135421e-02,2.826416342224292197e-04,-4.544450556080106667e-03,5.321312970385205267e-03,5.377228856086730957e-01
5.199165186271569317e-01,-9.476521832033235615e-03,-3.957148944974725469e-02,-7.279126778764236604e-04,5.850674509691851377e-03,-4.389823213197836284e-03,5.452126860618591309e-01
5.718783500540653986e-01,-3.020491257234936278e-02,-5.617673189727828698e-02,8.634792197267242980e-03,-5.159647333131337464e-03,-2.409097452046617474e-02,6.171391010284423828e-01
5.067218512974778211e-01,-3.640771875144677150e-02,-4.995772698524034161e-02,-3.322178271069501764e-03,6.378426011360825015e-03,5.257761510472125192e-03,5.502461791038513184e-01
5.248499294948304472e-01,-1.250933160982750647e-02,-3.973663003049016096e-02,3.434428286835444766e-02,1.275263050973957698e-03,-4.737575745782233658e-03,5.547413229942321777e-01
5.651935716559368661e-01,-2.228391642633503755e-02,-4.025923863130950742e-02,1.388759950617641549e-02,1.119755355672395075e-04,-1.324729425046653614e-02,5.975936055183410645e-01
5.151766873656739021e-01,-2.942078421711236125e-02,-4.871705909066756379e-02,2.292312000819221769e-03,6.935113669965744902e-03,9.993090449963550406e-04,5.546444654464721680e-01
5.207614135465974403e-01,-3.535884207883979724e-02,-2.995797971070277010e-02,5.235595069445198296e-04,3.849489422927377790e-03,-1.207013600051507884e-03,5.534844398498535156e-01
3.497646645718180958e-01,-1.196204352959134853e-02,8.129586402333743855e-03,-2.464144415157547806e-03,1.204104045464062965e-03,4.061886023319388750e-03,3.522133827209472656e-01
5.185275330479333089e-01,-1.434815662152716387e-02,-3.421395674107366447e-02,-4.609278250739832182e-03,3.476416848754779101e-03,-2.469798886525225671e-03,5.431900620460510254e-01
5.181125303157587680e-01,-4.329092219124222596e-02,-3.982212800184134482e-02,1.494615991880779090e-04,1.287526384878569111e-03,1.343188604394349227e-04,5.596816539764404297e-01
5.181937013455205632e-01,-3.849243063854493330e-02,-3.314567149067693119e-02,8.162963745466251522e-05,2.123987642844197068e-03,-6.382197042932107565e-04,5.540454387664794922e-01
5.188815161008553112e-01,-4.352601579090070727e-02,-3.805624185529626891e-02,1.912599461505495131e-03,7.806239646885287497e-04,1.973162336819546739e-03,5.597145557403564453e-01
5.186828357038513193e-01,-1.436642846998908984e-02,-2.755035479599257653e-02,2.263210084986578413e-03,-1.072641841305205668e-03,-1.680273578325611498e-03,5.397872924804687500e-01
5.192318751537940980e-01,-2.205949076196991876e-02,-3.063253679206703883e-02,4.152035548956147133e-03,-1.022790238640842748e-03,5.104574893532344429e-04,5.456793904304504395e-01
5.105530165386767960e-01,-4.247399882086580480e-02,-4.164477665785074056e-02,1.077193773200265910e-03,-6.509294805056721044e-04,3.155555941719996680e-03,5.526441931724548340e-01
5.173124236169230894e-01,-2.172196714275564933e-02,-2.341014013277367689e-02,1.209662963713199323e-03,2.269675267508347583e-03,-2.316847461653289298e-03,5.399137735366821289e-01
5.359138692099414403e-01,3.813463417501411490e-02,-5.708825493141689300e-02,-1.500756576152556011e-03,3.703068507061317745e-03,-3.707290806760321872e-04,5.516337752342224121e-01
5.184474727599930333e-01,-2.652914736972364351e-02,-3.084838996198141503e-02,1.444516688522702900e-03,-1.601764445367967861e-03,1.139285905523938086e-05,5.471617579460144043e-01
5.005508788117527530e-01,-4.506086881949727951e-02,-3.176828154514083069e-02,-1.984958696975242919e-03,-3.687462018696177277e-03,-1.486587245191720594e-03,5.391433238983154297e-01
5.075317079164887168e-01,-2.566198376847150797e-02,-3.352618954647149097e-02,1.564877641329006069e-03,2.406838875449583606e-03,5.806869140983044993e-04,5.371929407119750977e-01
5.102038125937350399e-01,-4.600599987404699331e-02,1.272980549082344814e-02,6.415416110925034957e-03,3.338573156925558200e-02,2.402769128281450478e-02,5.341807603836059570e-01
5.090200863080116545e-01,-2.698182854566438804e-02,-3.296022101600762366e-02,3.253939128774818029e-03,-4.081684311909516798e-03,2.553403862495376431e-03,5.391099452972412109e-01
5.137276888041952816e-01,-2.882472803406596618e-02,-3.409130334542417873e-02,1.463871694261501422e-03,-2.672938429153947000e-04,-1.683494515052168889e-03,5.452186465263366699e-01
5.026147550962518640e-01,-4.222224296434964885e-02,-3.107454200881368256e-02,-4.928212607204597107e-04,1.894269675997264967e-04,-1.515066813537884870e-03,5.393567085266113281e-01
5.170410494505772725e-01,-3.848200697419515426e-02,-4.814637556852349731e-02,8.360175053492373796e-04,1.719852112163727754e-03,1.383745911154979618e-03,5.604326725006103516e-01
1.364620808901925719e-01,1.761009490004215861e-02,1.009966700742630230e-02,8.787920567203495736e-02,-1.778827849288489439e-04,1.823426220086711569e-02,1.980925351381301880e-01
2.170886485894131801e-01,8.822931119248977883e-03,2.128786152409938709e-02,-1.686470689490155578e-02,1.636647586283665814e-02,4.918578810615381082e-03,2.065511643886566162e-01
2.404198820777901091e-01,1.202489200858339324e-02,1.123637875246223661e-02,1.640183810521393323e-02,3.074963750652255287e-02,-4.862920767258360755e-03,2.367691099643707275e-01
2.747594328270684949e-01,1.498194958908011243e-02,4.831338903327958567e-03,1.089005643258210247e-02,2.265220711654041333e-02,-1.556585799367737021e-03,2.685641348361968994e-01
5.130408556582312096e-01,-4.175509856949072285e-02,-4.423360655059305202e-02,-1.330167310770675245e-04,-3.599686965511737888e-04,-1.721569140496304962e-03,5.560477375984191895e-01
5.134615799932367164e-01,-4.051759942634858280e-02,-4.251441272896766543e-02,-1.462500093571767563e-03,-2.929973162443494334e-05,-1.966722218042480080e-03,5.549964904785156250e-01
5.133304102044935480e-01,-4.371792499502891172e-02,-4.255148248739334949e-02,-8.314497829545375220e-04,-7.269999497298224381e-04,-1.288964820674108613e-03,5.564737915992736816e-01
5.448556157536349476e-01,-8.775027553306496975e-02,-3.197708725636155824e-03,9.000337921212761549e-02,-1.286487639176450148e-01,-6.038717268246582281e-02,6.623775959014892578e-01
5.119110210383098769e-01,-4.424997525951748778e-02,-4.249028692129910856e-02,3.087647037132242489e-04,-6.474467144886403248e-04,-1.379161986100080773e-03,5.552897453308105469e-01
5.064815856168001229e-01,-2.955525357918617479e-02,-5.359721597853417396e-02,1.384730214414209076e-03,-4.760277809479098701e-04,-2.801111853781098997e-03,5.484805107116699219e-01
5.160000544556826441e-01,-3.319136182672746682e-02,-5.113235927108916723e-02,1.669877712534909280e-03,1.507849549110850448e-03,-1.680374556457278580e-03,5.583993196487426758e-01
5.054848542050602855e-01,-3.002350978766724077e-02,-4.870439744505231094e-02,-1.522026077337619923e-03,7.217647690491061675e-03,-4.565803615522173384e-03,5.452960133552551270e-01
5.158816115664676127e-01,-3.394810939735010136e-02,-4.821896267699177230e-02,9.537327164031453525e-04,-1.685012848641316509e-04,-2.752769471138748203e-03,5.571251511573791504e-01
5.120526719895200918e-01,-4.115548759410389557e-02,-4.005491907986249989e-02,1.181353540912489716e-03,1.896503054897964334e-03,1.728099629572113710e-03,5.526803731918334961e-01
4.922301163992249262e-01,-5.338327810827087072e-02,-2.382745017555248923e-02,1.006709013376794713e-02,1.881203927840214890e-04,-1.248940652151516199e-03,5.317426919937133789e-01
4.636716706328714022e-01,-4.390579649259906958e-02,-2.213332025339009856e-02,-1.071498128339138517e-02,8.963633964114268602e-04,1.019437111711844757e-02,4.977110922336578369e-01
5.171084276312417627e-01,-3.157425886087411593e-02,-3.766347142153445016e-02,-4.223982249279348831e-04,-4.078356385948340231e-04,-8.336411993173591497e-04,5.517553091049194336e-01
5.083445605308312132e-01,-3.325276442518104725e-02,-5.286108886252374739e-02,1.222940562077547968e-03,4.734971858071273848e-05,1.555567964620824077e-03,5.516735315322875977e-01
5.193485209968016214e-01,-3.852659825883328337e-02,-4.416650820073672601e-02,1.170925120566825147e-03,1.351425718049522901e-03,2.443585388359268643e-03,5.607408881187438965e-01
5.185830194251463965e-01,-3.503895773938436875e-02,-3.859148837054576786e-02,2.102188843633424897e-03,-1.917540463171838198e-04,1.362512720457428059e-04,5.554188489913940430e-01
5.226922835046361460e-01,-2.776084548674534469e-03,-2.408568247224571190e-02,2.452466363549968276e-03,2.776116084852074065e-03,-1.258479765297624772e-02,5.369216799736022949e-01
4.446992894978575306e-01,-2.291584157640433328e-02,-4.608732406885265864e-02,-1.071972785366707114e-02,2.954280793125246829e-02,7.437747039735859329e-03,4.828718304634094238e-01
5.146270299847300889e-01,-1.329988735213277762e-02,-1.725121516416386336e-02,9.249955195798103451e-04,1.391796279100993884e-03,-4.755881404106343871e-03,5.299855470657348633e-01
5.192076954628008778e-01,-5.232992549441373153e-03,-2.134395689600854240e-02,-1.746469895727055304e-03,2.229150097986692166e-03,-7.603376917388987924e-03,5.328642725944519043e-01
5.216175204290195433e-01,-2.751146839926280063e-02,-2.108417260977493712e-02,2.699893582852703252e-03,3.314321500514005956e-03,-9.043452345171168125e-03,5.462185740470886230e-01
5.564512847757977498e-01,1.542166895672331117e-02,-5.153883954039106818e-02,5.802591695009963815e-03,-4.734985972536683713e-03,-3.808446476260583108e-02,5.813294649124145508e-01
5.073959674847607904e-01,-4.965645122752493368e-02,-2.908807981650224361e-02,-1.927740704289327269e-04,1.782262672638942544e-03,-1.529623646404905000e-03,5.470735430717468262e-01
5.349537389918190833e-01,2.822674623471904676e-02,-5.083881344993909646e-02,1.225185203580797869e-02,-1.268033549385979251e-02,-3.009747464569985723e-02,5.538398027420043945e-01
5.349055807542344443e-01,1.641018970238161678e-02,-4.072700461393882754e-02,4.072917499508010158e-03,2.983104243904056985e-03,-8.789623583813290994e-03,5.495777726173400879e-01
5.460608929751517016e-01,2.736699149469409842e-02,-5.996664915066460266e-02,5.549953767566666307e-03,2.389805167942424344e-03,-6.261758685587361269e-03,5.676240921020507812e-01
5.452400992910719779e-01,1.457233798574811279e-02,-5.351504150413172178e-02,-2.061368931880384892e-02,6.742357829669177148e-03,-2.526623820936686401e-02,5.707032680511474609e-01
5.465345726319656983e-01,3.877004630853475575e-02,-5.899711897325563004e-02,-2.167676620850346805e-02,6.008555457428523504e-03,-9.733463534791781530e-03,5.646486282348632812e-01
4.826211575819571720e-01,-2.250416533561611088e-02,-5.209324497010828225e-02,-3.464480413261140945e-04,7.252514557730396967e-05,1.595265222172667424e-03,5.205586552619934082e-01
3.967174686183633225e-01,-3.331268987755603428e-02,-8.607988675169764292e-03,-2.449804470894782760e-02,-8.376058897139420506e-03,-3.327484618528013440e-03,4.206621646881103516e-01
5.301752319219685816e-01,-4.026536425072696490e-02,-4.066277062261156039e-02,-8.529660055103089299e-04,-7.061381606747563038e-04,-2.973008583663827088e-04,5.706428289413452148e-01
5.289665639925176244e-01,-4.080091718346162688e-02,-3.882315928937440930e-02,-3.737243432386531863e-04,1.154614175290786512e-04,-1.447980127587168014e-03,5.687870979309082031e-01
2.455443341633693488e-01,1.480885784457286469e-02,1.090426691283719052e-02,-3.187642755870820008e-03,-4.586018566538925534e-02,-3.839379925975108625e-03,2.460471689701080322e-01
4.818823178304155186e-01,-1.529525335978110245e-02,-5.293396094392904816e-02,-2.363664249068160757e-03,3.211755307045662173e-04,4.733139014479650040e-03,5.171069502830505371e-01
2.611762968693445153e-01,1.238026414685940158e-02,-5.994955598055268231e-03,-1.723343289584696250e-02,-4.106274425457610150e-02,-7.597978235724637749e-03,2.700581550598144531e-01
5.009167308928580420e-01,-2.568035900714282782e-02,-5.375409156955104906e-02,-5.956747106761397115e-04,3.892209565928313316e-04,-7.922610908102894599e-04,5.411834716796875000e-01
3.136908944675799726e-01,9.502611452528897384e-03,-7.843572455551853229e-03,-1.064255636430242423e-02,-3.092499220149854539e-02,-6.002713682768984378e-03,3.184727132320404053e-01
3.086922953122911983e-01,-9.888570960227355267e-03,1.208744535540623444e-03,-3.319911708296619662e-02,-1.424574013474795564e-02,-1.374857154373931509e-02,3.202560842037200928e-01
3.559023055389209933e-01,-1.536983619216358843e-02,-1.390478506375762702e-02,-1.799977313669428453e-02,-1.807972767827366323e-02,-1.212071935600129817e-02,3.737573623657226562e-01
6.094034933764789219e-01,5.914585003981259748e-03,-2.559425288143341026e-02,-2.595076448209889669e-02,4.877584021507057766e-04,5.820444611836229909e-02,6.295960545539855957e-01
4.853664322805692488e-01,-2.829070716970935595e-02,-4.754004780535939223e-02,2.503908948780072738e-03,4.495851350989200738e-03,5.930229678261754456e-03,5.237239003181457520e-01
5.058372365058896314e-01,-2.620020706400985611e-02,-5.605557726832335885e-02,1.427703405648570291e-03,3.496656844899834887e-03,1.460384815806330377e-03,5.476208329200744629e-01
5.019177732986959128e-01,-2.672017408624621781e-02,-5.844087175838671988e-02,3.763477216985502798e-04,-1.342036568410097212e-03,1.722440594676062512e-03,5.452043414115905762e-01
5.087017787049961104e-01,-2.999511354560835397e-02,-5.347458843848568177e-02,-2.630026131636017478e-05,1.580989706502383381e-03,2.455643450613008687e-03,5.508353114128112793e-01
5.149686347713847701e-01,-4.259293708197386952e-02,-4.044532166483530422e-02,3.141424714190598020e-03,1.305347671536783317e-03,8.860237728439912747e-04,5.565241575241088867e-01
5.048371206581736548e-01,-2.953781341994243803e-02,-5.243235151286049223e-02,1.247386256217741535e-03,-4.919354085823140176e-04,1.005009238933477888e-03,5.461899042129516602e-01
4.872867704466813943e-01,-2.825822637023142625e-02,-4.746386163126892210e-02,3.684239452713531770e-03,-5.765345594506790863e-03,6.496272537690204844e-03,5.256652235984802246e-01
5.116914687486937563e-01,-3.777110019829491017e-02,-4.258320693090902886e-02,6.494138073999608518e-03,-3.041624775160206139e-03,2.628564029120416048e-03,5.520429015159606934e-01
5.082373016621075656e-01,-3.516783627400127399e-02,-4.003853435032128649e-02,3.645527639174687973e-03,3.677038827169887801e-03,-5.620147439904630781e-06,5.459304451942443848e-01
5.104786114711274969e-01,-3.417818006903175498e-02,-3.791332156015131405e-02,1.525919028659628203e-03,1.080450773979643774e-03,1.793511372202817198e-03,5.465523600578308105e-01
5.123768928987850746e-01,-3.084320181540217698e-02,-5.027992814708140412e-02,-1.536443476713184302e-03,-3.059828864856662311e-04,-1.232098027903590944e-03,5.532053709030151367e-01
5.000813606629703756e-01,-2.932796121691191860e-02,-4.426322054848380594e-02,-1.268934308288819810e-03,-6.360043386097701239e-04,-5.954102574206225282e-03,5.371373891830444336e-01
4.974743880937059770e-01,-5.143480384369208958e-02,-3.249887422350766775e-02,8.108648118230839599e-03,6.551492521122184156e-05,5.428355287488232164e-03,5.399550199508666992e-01
5.258250186529656034e-01,-3.452342634709068547e-02,-3.904261532706579385e-02,-1.822209376263587977e-03,1.085626694809818963e-03,-1.114083823967228952e-03,5.626369714736938477e-01
4.921539925768956825e-01,-2.530434546267762430e-02,-4.508099843722307432e-02,3.686257000927874172e-03,-5.981682019141720645e-03,-4.895037843306699298e-04,5.277657508850097656e-01
4.316290696927279624e-01,-1.941762255319778863e-02,-4.094819574692312725e-02,7.971865589376925590e-03,-3.184625961840912428e-02,5.063960105426486280e-03,4.657554328441619873e-01
5.293077442659066545e-01,-3.953031522922587082e-02,-3.990067242289793703e-02,-4.680993785393586910e-04,-1.370312517605666493e-03,-5.746804315770741474e-04,5.690297484397888184e-01
4.931299147147341633e-01,-3.012557630657514141e-02,-4.464078857169545556e-02,1.898163006250198079e-03,-6.516855004509458128e-03,9.191375057598095673e-04,5.307946205139160156e-01
4.886166179329946568e-01,-3.809236955067263342e-02,-3.575814625632350863e-02,4.340971933404785127e-02,-4.889636733195251717e-02,-4.463457252570656223e-04,5.376101732254028320e-01
3.407793033361634083e-01,-2.484351102746404361e-02,1.349042659831421742e-02,3.602628173478990975e-02,-1.109553543804723125e-01,-2.803673258784038572e-02,4.053626656532287598e-01
4.278330353661611851e-01,-2.890651539466285169e-02,-3.494840632976473072e-02,5.982247045905651067e-02,-5.891977603813453035e-02,4.324416030148672818e-03,4.823007285594940186e-01
4.608621215146213590e-01,-2.381943852417256480e-02,-4.039323743396600053e-02,2.334137533233962211e-02,-3.874538325312569531e-02,4.300558075038160046e-03,4.994171261787414551e-01
5.167844333973654614e-01,-2.940754892441624357e-02,-5.490043914818584780e-02,2.677724013839513553e-04,6.631003307866179496e-03,-2.922205100497202342e-03,5.595152378082275391e-01
6.514740800122233999e-01,1.447531103329616209e-02,-3.873157542877611603e-02,2.186215040750571353e-02,5.129228902607283619e-02,4.786351978728600742e-02,6.772668957710266113e-01
5.437719769420992222e-01,-4.149669845134185131e-02,-3.308838905214070425e-02,3.330982615339726088e-02,-3.936938785096723986e-02,-1.292259015958152277e-02,5.883608460426330566e-01
4.609388267292750530e-01,-1.807412573067890271e-02,-4.468690949702425197e-02,2.567580469693789280e-02,-3.893892543672497486e-02,9.945545922425290744e-03,4.997326433658599854e-01
5.175335162531602418e-01,-2.189458595011725683e-02,-1.850372132020347560e-02,-1.552084384500286660e-03,1.956258189595780697e-03,-7.100988148591737791e-04,5.377594828605651855e-01
5.152011427154647993e-01,-1.351731500429101396e-02,-1.572015778381555262e-02,5.152169532999408127e-04,1.177922548345640462e-03,-4.601592676116750963e-03,5.298879146575927734e-01
5.154387877593713529e-01,-1.594103418278502993e-02,-1.713535787384759534e-02,-1.224801466351614306e-04,2.962394191003356607e-04,-6.536405510464769319e-04,5.319795012474060059e-01
5.304249476691687004e-01,-3.954678753233750732e-02,-3.737524907743766667e-02,-5.185302893309787827e-04,7.735059040031056236e-04,-6.577536327149848591e-04,5.688924789428710938e-01
5.183447675299168722e-01,-2.289283081991139168e-02,-9.515435541671085629e-03,1.143075446684593301e-03,8.792757532111337634e-04,-1.411285041924326827e-03,5.346858501434326172e-01
4.997528427051512456e-01,-5.826338805476216631e-02,-2.611324146044327610e-02,-1.203095595096823111e-03,-7.822041666098127457e-04,2.673027130141259443e-03,5.426813364028930664e-01
5.082176172976187178e-01,-5.238729919042148242e-02,-3.089913859849613420e-02,1.858680939357321886e-03,-4.637716034193164420e-04,2.853320146378438352e-03,5.502078533172607422e-01
5.073463260924049312e-01,-5.313372848684080885e-02,-2.944724909297188886e-02,8.098327269764483537e-04,6.747665099972802302e-04,1.453075608057177595e-03,5.490289926528930664e-01
5.239095695582691725e-01,-3.589206540765835229e-02,-4.537652394407226675e-02,1.406505532848326828e-03,-2.112865683110554463e-03,-4.472765703999312045e-03,5.646739006042480469e-01
4.626417520633090419e-01,-2.482982173629474931e-02,-3.504840594590052927e-02,-2.027116250324199117e-03,-8.019638688081079684e-04,-9.068972676641726821e-03,4.929251670837402344e-01
5.155429390410140034e-01,-3.399051260583338396e-02,-4.515565376664734676e-02,-1.135694520625757592e-03,-7.791373049731664625e-04,-4.512027138432196313e-03,5.552603602409362793e-01
4.742153733936937954e-01,-4.963172452157105230e-02,-1.823905521795529672e-02,2.254780967517739168e-02,6.893571340750004849e-03,2.734787306547214070e-03,5.105355381965637207e-01
5.241493831721150132e-01,-3.703596828000546570e-02,-3.983012161505219972e-02,-3.001094016057674011e-03,-1.810492082111230710e-03,-1.043105098623357645e-03,5.626232624053955078e-01
5.238497891745831359e-01,-3.589842012742336386e-02,-4.129936818956300715e-02,-1.515753285229477082e-03,-2.852149222579359461e-03,-3.922488588823580459e-05,5.624959468841552734e-01
5.122061916015392402e-01,-1.122928278225160392e-03,-1.443389419151525077e-02,-2.158126470666691613e-03,-3.467500200806317850e-03,8.106106168931736730e-03,5.203499197959899902e-01
5.161461083029210695e-01,-2.776892860945887054e-02,-5.105336593433967840e-02,2.370070097525319580e-03,4.528032502156338623e-03,-5.596273976228181325e-03,5.560780763626098633e-01
5.235464555267473896e-01,-2.862525973588661565e-02,-3.134229386937609219e-02,-3.900368049187556349e-03,-3.679829542878968254e-03,2.313345441312055113e-04,5.536133050918579102e-01
5.058228031267262281e-01,-2.959693812255001499e-02,-4.927869263933010169e-02,-4.833373556029608390e-04,3.571622690027326935e-03,-4.515024254524930072e-03,5.456187129020690918e-01
5.124242064246329331e-01,-2.901408077318529122e-02,-5.250362832001309599e-02,2.872766884186565232e-03,2.831721712035520540e-03,-2.131453232899666733e-03,5.536133646965026855e-01
5.266996175824588677e-01,-2.413460119779081703e-02,-3.897715811506161088e-02,9.042476457501320494e-03,6.294868898995843384e-03,2.476066817870324274e-03,5.587459206581115723e-01
5.245478896322819384e-01,-1.710407401564084662e-02,-3.435863980838277376e-02,3.859918917302211996e-03,-5.855148579162208766e-03,1.221340853036963388e-02,5.510222911834716797e-01
4.957728187501059813e-01,-3.631470476535744729e-02,-3.492938263665837373e-02,-4.061538415989633427e-04,-1.198064934736575455e-03,-8.824182905107499225e-03,5.316205024719238281e-01
5.409620199594421530e-01,9.193983089442470114e-03,-1.657171032442900094e-02,-1.379108009168535272e-02,-7.087841427951507671e-03,2.269229131184553883e-02,5.471824407577514648e-01
5.172343778844816775e-01,-1.952012824192855822e-03,-1.771637166289274923e-02,-4.154176530078603283e-03,3.914843250694932360e-04,9.475348639825693919e-03,5.275502204895019531e-01
5.225101171492598784e-01,-1.942155142742096885e-03,-3.221845236128270673e-02,-3.779469490148560339e-03,-3.199935365329545801e-03,6.942890751393988868e-03,5.404289960861206055e-01
4.894520119415424197e-01,-4.667275443641882848e-02,-3.212238568523009818e-02,1.299685141456557265e-03,1.728659419151560043e-03,8.491876401690712575e-03,5.292173624038696289e-01
5.191642305233814536e-01,1.114403599639432474e-02,-3.245464897477434718e-02,1.674341209248502837e-03,-4.962311666066875765e-03,1.298227760195362276e-02,5.317163467407226562e-01
5.246105727311018985e-01,-2.132970494240393755e-02,-2.594008642002623710e-02,-1.009147905939070458e-03,5.929823846156504537e-04,1.403659498837348495e-02,5.488025546073913574e-01
5.203463102124952222e-01,3.662528245365170854e-03,-2.786273467160507722e-02,-2.208418590041619917e-03,-3.134130055252295523e-03,3.691621060273702227e-03,5.332255959510803223e-01
5.010661481584556265e-01,-1.165438551765107800e-02,-3.711564576617407130e-02,3.098288687583523361e-03,6.703852962478345015e-03,-1.081776370656956435e-02,5.264027118682861328e-01
5.115686814497770740e-01,-2.067414596873951016e-02,-4.358356452316941576e-02,-2.685521020315787682e-02,3.172601968572109910e-02,-1.475116379687959819e-02,5.493966341018676758e-01
5.273412628700452354e-01,-3.821749811393307383e-02,-3.667335832440621335e-02,-8.540925598069881806e-04,-2.380807081353337074e-04,1.097898023886107702e-04,5.647903680801391602e-01
5.473341130513650343e-01,-2.790662444003738640e-02,-2.924143917703855844e-02,-2.558714163273555393e-03,1.634501218562533359e-02,-3.083157864305525325e-02,5.790892839431762695e-01
5.577757588596325977e-01,-4.024880478928941074e-02,-3.067171079542230228e-02,-1.023441567079286761e-02,5.874828907903729275e-02,-2.538854837423299565e-02,6.038209795951843262e-01
5.303857501869472246e-01,-3.796032116849454296e-02,-3.862092054028318233e-02,7.094549175765242979e-04,-3.939343403967434797e-04,-7.514503209680970137e-04,5.686798691749572754e-01
6.070756016673257704e-01,3.615576189347463609e-02,-7.352947214249710983e-02,-6.593326381214272003e-02,5.994414517088566402e-03,3.529562811870907979e-02,6.461335420608520508e-01
5.256763192775505411e-01,-1.747349926601229897e-02,-4.034136153545811454e-02,-1.156157009309147395e-02,9.732159166620157550e-03,6.217306684575697046e-04,5.555552840232849121e-01
5.188177985142592430e-01,-2.103454484530761781e-02,-3.056463380703369759e-02,5.551696234126959201e-04,2.450213451795714252e-03,-4.432338205194552398e-03,5.447514057159423828e-01
5.205537409875609089e-01,-2.140882598376156465e-02,-3.722976210344766668e-02,-2.494107062975044198e-03,8.678499090635104565e-03,-3.161860902926802181e-03,5.502932667732238770e-01
5.000183106052262794e-01,-4.679497866657980620e-02,-3.263123656967287234e-02,1.005027574481639043e-03,-3.484814469443225210e-04,4.366286900137187482e-03,5.399268865585327148e-01
5.293538452188328858e-01,-3.901924402228412747e-02,-3.979836724993346397e-02,3.150049284035005294e-04,4.439861140674653808e-04,-1.639751985217342443e-03,5.687709450721740723e-01
4.946379439071262318e-01,-2.685112543288345477e-02,-5.425454243277882949e-02,4.266765038993540113e-04,8.916186264706534026e-03,2.199900728150698016e-03,5.359532833099365234e-01
5.048151977134522905e-01,-2.732453311235957805e-02,-5.296117568234096074e-02,6.813934192221920896e-04,-6.683830205501607898e-04,7.861160112670714838e-04,5.454143285751342773e-01
5.012236943215295781e-01,-2.713134310926187953e-02,-5.506658657406043877e-02,1.008161041197058391e-03,1.426854531286763793e-04,2.064610029721481062e-03,5.428766608238220215e-01
5.059225774257817276e-01,-2.745575884007037115e-02,-5.552191449272006474e-02,3.255205443297291726e-04,2.564166533172485864e-03,1.248326005625626824e-03,5.479733347892761230e-01
5.676634800332494013e-01,1.716739319648818984e-02,-6.464342639035000615e-02,-1.471868186943633694e-01,-9.175625148731075820e-02,4.941592347539469632e-02,6.725702881813049316e-01
5.060079240139866430e-01,-2.537051614255983467e-02,-5.542883768380393872e-02,6.331124555329981692e-04,3.252298979445945610e-03,-6.658590650000409221e-04,5.470586419105529785e-01
4.981034102322988710e-01,-2.932799785513040547e-02,-4.821896036545120223e-02,-1.365498653515173980e-03,6.652125306488895946e-03,6.179288405589453310e-03,5.373614430427551270e-01
5.063991228963432567e-01,-3.685276317696856152e-02,-4.818775065544514402e-02,-1.611064609103864944e-03,6.084825310176289470e-03,6.221593304580541432e-03,5.492210984230041504e-01
2.929515509461354528e-01,-7.562730428843450481e-02,3.007843972077706152e-03,2.077527187828469984e-02,1.197502683860278971e-01,-4.885220037479021810e-02,4.056173563003540039e-01
4.972734205466640689e-01,-3.190147340095642048e-02,-4.977816844655602591e-02,-7.307872309264465795e-04,4.393313553374950282e-03,4.917655239078042896e-03,5.384585261344909668e-01
5.129108451048095541e-01,-1.736347604631735542e-02,-1.467654030022588763e-02,2.700617996169529886e-04,-4.862139720289070056e-04,-4.388016550335072010e-04,5.289373993873596191e-01
5.079372211091286449e-01,-3.514772229337942422e-02,-4.770016358313552973e-02,1.167999473983181774e-03,5.362885905990307260e-04,1.902266888025291218e-03,5.494831204414367676e-01
5.078862596891071668e-01,-3.307296873049436758e-02,-5.011267328229060403e-02,1.751596516436126081e-03,-5.133401308949135482e-04,1.171849048796452970e-03,5.496900677680969238e-01
4.276188076382088643e-01,-2.857959345276689378e-02,-2.174255819169435000e-02,2.586293577639862604e-02,5.790431086507798197e-02,-5.589799837103583179e-04,4.659517407417297363e-01
5.815589769330847814e-01,-6.061748661396174076e-02,-3.846735511161269994e-04,2.963043434137977144e-03,-9.818784983634516392e-03,8.779170785359696749e-03,6.147237420082092285e-01
5.166190418724401212e-01,-4.609181846339513444e-02,-3.384027916869339347e-02,5.864265052148394559e-03,2.047616571582879050e-03,2.173354448760446509e-03,5.568028688430786133e-01
5.423477304106510966e-01,-3.295878459416209938e-02,-8.199842682246188952e-03,-1.031068295155171573e-02,-1.278780575910080063e-02,2.859414407563617977e-02,5.662234425544738770e-01
5.624230308874078599e-01,-3.554214227604995946e-02,1.028170189027269310e-02,3.254593110091747420e-03,-1.571058251441824136e-02,2.037370760164679620e-02,5.781683325767517090e-01
5.134067028626269069e-01,-9.867328784443407663e-03,-3.138205523577353162e-02,-3.598989836043925850e-03,8.790371463628774318e-05,4.219000710420796503e-03,5.344426631927490234e-01
5.294119505932692871e-01,-4.932155247733358006e-02,2.611992957713457630e-02,4.405988121920023995e-03,-1.510416925133361600e-02,1.130442411619750711e-04,5.456244349479675293e-01
4.824417296237505925e-01,-2.237521664999420068e-02,-4.781221850744299395e-02,-6.223604923102040755e-04,9.358877536502226797e-04,-3.439643835814649303e-03,5.180419683456420898e-01
5.353207248820098796e-01,-4.405350515592676430e-02,-2.107734552910822678e-02,4.636409752334837847e-02,5.196783580170594163e-02,1.741134197090792729e-02,5.816794037818908691e-01
5.020346566246004505e-01,-4.388542039629736435e-02,-3.631484006204072079e-02,1.161344526387112202e-03,1.465269320172895304e-03,8.308348757241687879e-03,5.423750281333923340e-01
5.188728923070717869e-01,8.274882745658324046e-03,-2.844566139413282069e-02,2.253856677257451337e-03,-2.549175903108014899e-03,1.950183567345327787e-02,5.310215353965759277e-01
5.611440563547662741e-01,-3.662177674928546178e-02,7.945349040597765589e-03,-1.559813957287594158e-02,-5.861780947791208826e-03,2.290346355413124327e-02,5.788576602935791016e-01
5.477654495664954215e-01,2.255264060587919284e-02,-5.185812038408907365e-02,-5.191700941184759950e-03,7.458563910490453516e-03,1.982369848810648649e-02,5.673567056655883789e-01
4.296850097232467469e-01,-4.040809826384564318e-02,-1.330111418436674686e-02,-7.653655380069377756e-04,-1.959278243491400728e-05,-7.983934223672731201e-03,4.573538005352020264e-01
4.517608695851610956e-01,-2.040139405537055861e-02,-3.209404460224124511e-02,-9.003061206679327543e-05,-1.894502657408187515e-04,1.366725648743949938e-02,4.787016510963439941e-01
5.284198274594490430e-01,3.582453877905381057e-02,-5.438494481714406525e-02,6.183325844500817299e-03,1.656428694167081609e-03,2.851558364060311108e-03,5.434813499450683594e-01
5.188319210441052487e-01,-3.635694787560458940e-02,-4.292727014577976674e-02,-7.268151128693461525e-04,6.434045124976451062e-04,-4.573056677009462202e-03,5.585616827011108398e-01
5.327607925043922332e-01,2.267216287778892059e-02,-5.166666668205380231e-02,-1.455657176377315922e-03,-1.692230042926345717e-03,1.000422144013567508e-02,5.513177514076232910e-01
3.228945052440523877e-01,-1.440511201539693142e-03,-9.487251610683644643e-04,-2.278133091426151266e-03,6.739313745751661410e-04,3.131944391015435529e-03,3.241609036922454834e-01
5.234190808560188479e-01,-3.719602720283621267e-02,-1.701025227735242229e-02,-1.657776379500715052e-03,6.459773354677631266e-03,1.887082611973163763e-03,5.509305000305175781e-01
5.005751881905573519e-01,-4.544798276352604582e-02,-2.816184137485669425e-02,5.151880434610012216e-03,2.163350070988198474e-03,-2.629692437862729895e-03,5.376949906349182129e-01
5.151180927897647255e-01,-3.432229036519579557e-02,-4.875641589442414325e-02,-6.756999057402836469e-04,7.195584396099239874e-03,2.758792773874877736e-03,5.569589734077453613e-01
5.231048884222102568e-01,-3.493102117816043739e-02,-4.133621001794987593e-02,-1.793295118718322371e-03,3.123559929828043265e-03,-2.228567351280158482e-03,5.613138675689697266e-01
5.031369868447694849e-01,-5.147206612461435737e-02,-3.052114721172516365e-02,1.128742129721925763e-03,1.175269993893463243e-03,1.801236326640834069e-03,5.444522500038146973e-01
5.150251060951551718e-01,-3.784484859010092683e-02,-3.847762406087792963e-02,-3.956192938471474554e-04,-4.825977282053317292e-04,-3.338676090891362636e-03,5.532178878784179688e-01
5.337430762118346994e-01,2.568785806180959308e-02,-4.645749905559631854e-02,4.335958387607811515e-04,3.072013962893617445e-03,1.584026256717820103e-02,5.484163761138916016e-01
5.344238511369276967e-01,-1.496634706115107516e-03,-4.223144370113593449e-02,-1.103452186137117083e-02,-5.237016576469887170e-03,5.810201502998014848e-03,5.578974485397338867e-01
5.232024860602738636e-01,-3.123097729345486462e-02,-2.869393389740459988e-02,-3.654223759226077686e-03,-3.135301326393619657e-03,1.069203233463689477e-03,5.532352924346923828e-01
5.363972715631495358e-01,2.148323368537791156e-03,-5.310368231296663799e-02,-1.025140054886609399e-02,-1.684448773189206302e-03,1.568072019994288342e-03,5.642022490501403809e-01
5.231502003598432760e-01,-2.944114694351906980e-02,-2.958374802999094721e-02,-1.643205993794611720e-03,-1.683069043110164455e-03,3.824130529840703775e-04,5.526780486106872559e-01
5.397281820713417666e-01,-5.239521045165229651e-02,-2.280386751377291854e-02,9.392839045016812549e-02,9.906524269474971389e-02,3.181552915212296218e-02,6.268254518508911133e-01
3.629886256615987850e-01,-2.765426467197068527e-02,-9.775233395454108187e-03,4.806421184512525702e-02,7.905172005034010125e-04,7.674477835245733549e-03,3.912113010883331299e-01
4.974759880399546308e-01,-5.064810888931309263e-02,-2.406794908882281536e-02,1.558105876023693098e-04,-2.763328714411911365e-03,-6.367907521167975003e-03,5.354642271995544434e-01
2.225148523760118180e-01,2.935800107971174577e-02,-3.581263311476651223e-04,7.797137743538440358e-02,-1.108573445934449009e-01,-1.056821611370125161e-02,3.152367472648620605e-01
2.419029674303408151e-01,-3.701443418765548721e-03,-5.776423889423540348e-02,8.826843860591175595e-02,4.648923895779350640e-02,-3.620713308318574547e-02,3.321339190006256104e-01
5.303172160072084917e-01,-4.074716552113735735e-02,-3.995249836416661648e-02,-6.367505682786155172e-04,-7.427615873494840303e-04,1.150462454662230529e-07,5.706699490547180176e-01
2.767335154138505504e-01,1.821238123346162474e-02,-1.626611870634746271e-02,4.898373140235393747e-02,-3.488011242906585859e-04,8.393153355046628801e-04,2.900621592998504639e-01
4.351526513068177948e-01,-3.234372954143446832e-02,-2.120648425016338767e-02,2.284439462116392549e-03,-6.369134567404097268e-04,-9.600764461866879290e-03,4.623458385467529297e-01
4.440006339225171517e-01,-1.479246286410043631e-02,-9.142094384172094745e-02,1.416833454357898647e-01,-3.029392008160345512e-02,-3.725695199849232003e-02,5.644993782043457031e-01
4.336472244991638747e-01,-2.498300235917541579e-02,-2.365724291300572157e-02,7.347863267725919523e-02,8.393080859381250869e-03,-1.182179432594993680e-03,4.755504727363586426e-01
2.953648837013956308e-01,-1.637422206708871730e-03,-1.530097640094277289e-03,6.052148165530023272e-02,-4.822637780078591063e-02,1.603527395204911582e-02,3.269798159599304199e-01
3.067749246159127141e-01,-1.448653577616934585e-03,-5.287703464754156535e-03,5.079443925582048658e-02,-3.171055546558531474e-02,1.642661712748854502e-02,3.282776176929473877e-01
4.960811138835088396e-01,-4.527847169409637829e-02,-3.391793116603275537e-02,-2.763022491217128132e-03,-2.734614999827672814e-04,8.564939428318932985e-03,5.359965562820434570e-01
4.418034578729263528e-01,-1.229758671263281311e-02,-4.251784538510078315e-02,-2.132275084214852855e-03,1.972137057723701015e-02,5.390560768036088257e-04,4.711956977844238281e-01
4.460308651615200737e-01,-4.143663592488366909e-02,-2.924971824861113956e-02,-1.869456319920706142e-02,-2.222734813953730279e-02,-1.007439151153420760e-02,4.844248890876770020e-01
3.744216533439205796e-01,-1.340969012126577709e-02,-2.046783780119329488e-02,-4.600761980045517917e-03,2.827374009779172817e-02,9.163097352747014146e-03,3.948594033718109131e-01
4.592016763226879350e-01,-1.831750861553754772e-02,-4.602229933659579553e-02,7.275826065717722925e-03,1.006467122994820183e-02,4.488189857960721632e-03,4.924884140491485596e-01
4.283817156578805796e-01,-1.782240779729118985e-02,-4.198344146516480579e-02,-1.590796408718001941e-03,4.432130787801990407e-02,6.833633053177297183e-03,4.652993083000183105e-01
4.919012735083093113e-01,-4.595773827415680635e-02,-3.040437916273069918e-02,-1.086335300048608087e-02,6.557386021250928218e-03,3.952296043506178802e-03,5.307528972625732422e-01
4.898630491863257830e-01,-2.987116589351992979e-02,-4.646321672446906970e-02,1.355051489419160232e-02,2.101734452157354160e-02,6.566508452642743146e-04,5.299997329711914062e-01
5.154216124120897247e-01,-3.912564977255203469e-02,-3.356729828443680286e-02,-9.601853922741014494e-04,3.481404421683857980e-03,6.430676396068095609e-04,5.518256425857543945e-01
4.554397416554466504e-01,-1.752835283375883679e-02,-4.579097454547256807e-02,-5.645894489309329425e-03,9.905334961515202541e-03,5.757177889625273229e-03,4.882154464721679688e-01
3.732801505308759316e-01,-1.336001491693183940e-02,-2.045185751826009146e-02,-5.310709652688413128e-03,3.206871060643165516e-02,9.146759800072882043e-03,3.945930898189544678e-01
5.184916715511940222e-01,-2.296027856415105983e-02,-2.467808738803350943e-02,-2.534784242618480423e-03,2.810115503122686924e-03,-3.626652431258745903e-03,5.423888564109802246e-01
5.168077853569990054e-01,-2.087028103571966775e-02,-3.021399599610838371e-02,2.246791662577978476e-04,1.811550916646054729e-03,-4.564642801872236845e-03,5.424771308898925781e-01
5.204575465199926532e-01,-2.725789391603261613e-02,-3.340188681166655904e-02,-1.549259822613629871e-03,1.980198145517877116e-03,-3.954831667916085546e-05,5.508303642272949219e-01
5.186216699258756613e-01,-1.562990127159855080e-02,-3.017920091806780558e-02,4.390010974590763740e-03,2.890796014166966375e-03,-3.530230347791815833e-03,5.417838096618652344e-01
4.511884816280985477e-01,-3.702667075306748101e-02,-1.286220625411618745e-02,-1.289131111853342344e-03,-1.173126772245460100e-03,1.381196678904461801e-02,4.772021770477294922e-01
5.363280349569345962e-01,-3.960544261953802270e-02,-3.645691331587930240e-02,1.285829800435420861e-02,-6.971756695160567091e-03,2.557790680443272364e-03,5.749412178993225098e-01
5.154206287753095861e-01,-6.454510641798832937e-03,-3.540609372109843056e-02,-1.837322382459420265e-04,-7.895195409061460737e-04,-3.405697623988432603e-03,5.369709134101867676e-01
5.346531349747513095e-01,-1.198276508113679806e-02,-5.416425077210448857e-02,9.401412735516711389e-03,1.659765857733104186e-02,-2.665533839149438269e-02,5.717264413833618164e-01
5.170894043933427220e-01,-2.298017579806299615e-02,-3.734450112810649980e-02,1.997829353425784309e-03,3.274998215483011527e-03,-1.098972715848972907e-03,5.474367737770080566e-01
5.263982715626986941e-01,-4.496440420909134095e-02,1.081267447355821476e-02,4.176428948421110135e-03,7.615625461293001192e-03,-2.773950532092978906e-03,5.458450913429260254e-01
4.728447933518140633e-01,-3.312079264149342395e-02,-3.604038564464084882e-02,-8.472443986374013358e-03,3.838570905248397946e-02,8.872163287186901615e-03,5.122097134590148926e-01
5.121188483779368639e-01,-3.843294118643186819e-02,-4.237367514427553550e-02,4.725870266086629364e-03,-5.291498932532423191e-03,2.613854107314047496e-03,5.526878833770751953e-01
5.201708498904153988e-01,9.457185060244011066e-04,-3.879358435572535790e-02,3.646115171009764629e-03,4.404030850056400020e-03,2.229032690429838450e-03,5.402967333793640137e-01
5.232760713854703871e-01,-3.583345680362323704e-02,-2.360610200319632201e-02,1.320291392129786020e-03,4.500998390527634514e-03,2.921025545208813371e-04,5.531571507453918457e-01
5.201322572109420284e-01,-3.925381572656591600e-02,-3.235651487567994811e-02,2.650063539429471930e-04,2.957745968287542825e-04,4.279100188431613394e-04,5.559704303741455078e-01
5.033981807277089215e-01,-5.759636348202037959e-02,-2.996129320686805042e-02,9.298615374151364063e-03,-4.473714686117367077e-03,1.824995029811017199e-03,5.480008125305175781e-01
4.890100892801662047e-01,-5.779230446463057280e-02,-2.561699611659370990e-02,1.170742141511986120e-02,-9.654838653436372941e-04,3.061254101109136920e-03,5.318615436553955078e-01
4.864971905524239637e-01,-5.704791304741932412e-02,-2.145981282366402065e-02,1.238606108277334923e-02,-4.691640942691792100e-04,1.051621668539881637e-03,5.270941853523254395e-01
4.120487792420171602e-01,-5.577939003390791628e-03,-3.246859037009250382e-02,-3.328610372715711235e-03,1.485930575856836281e-03,6.146583870203245134e-03,4.318780303001403809e-01
3.727995031098942369e-01,-1.695135096013469789e-02,-1.674347985993848709e-03,-2.283186510617978872e-03,7.855494291831104613e-04,1.170259440655867407e-02,3.829010725021362305e-01
5.003422776954664641e-01,-5.767108926297237481e-02,-2.484289229634256690e-02,-6.793957783020104692e-04,9.839558272999274647e-04,-5.528611923478488890e-04,5.423497557640075684e-01
4.253329978488024632e-01,-1.945033149020602981e-02,-4.127077971743817186e-02,2.830178748381613832e-02,4.678745174148415259e-02,-4.813529036701534591e-03,4.658899009227752686e-01
5.158748881102603878e-01,-4.777050875263777474e-02,-3.668538053027040058e-02,4.568497382453078244e-03,4.252385685605383141e-04,5.227132896607504173e-03,5.583153963088989258e-01
5.181520705213819022e-01,-4.356438142869234476e-02,-3.989048137854608878e-02,-1.072149899343526839e-03,6.542815276212396599e-05,-3.252336566189794389e-05,5.598916411399841309e-01
5.196491583328168851e-01,-4.549154537630409334e-02,-3.996593445844870418e-02,-4.292975355118822133e-04,-1.108702737883531875e-03,8.625427089091374433e-04,5.624040365219116211e-01
4.329754031302909811e-01,-1.396287805849688590e-02,-3.453298130987339509e-02,-1.859883669972043664e-03,-1.293256725299203082e-03,-6.249959158014648485e-03,4.577150940895080566e-01
5.078808106788711418e-01,-2.947993213246322131e-02,-3.792610722119860167e-02,1.261331238576110340e-03,-1.131559700530763470e-02,-1.914490731251217593e-03,5.420022606849670410e-01
2.669587868624408444e-01,7.543738004255534646e-03,1.857906058593122856e-02,-5.125126405829003896e-03,1.930724575728603662e-03,1.119849723397406665e-03,2.542616128921508789e-01
5.166792080547304433e-01,-4.599721979173304609e-02,-4.039352473766158469e-02,2.372454841731472293e-05,1.632916601507114994e-04,1.207212147376625052e-03,5.598995685577392578e-01
4.895956242946645220e-01,-5.217756609191478989e-02,-2.790806993055469643e-02,7.587572688135077893e-05,5.432952731755710937e-04,6.636858717686764005e-03,5.301808118820190430e-01
5.186051161996769743e-01,-4.510665652381828927e-02,-4.169732662651207122e-02,1.855792836526994527e-04,2.020091866759663482e-05,9.109769949045121779e-10,5.620149374008178711e-01
5.088098753906562521e-01,-3.397632577847195523e-02,-3.518801882935360115e-02,2.067323216550897690e-03,-1.301820065078715827e-03,9.943661472507088050e-04,5.434122681617736816e-01
5.173130275960544644e-01,-4.356372216304940648e-02,-4.308844576926079695e-02,7.558229718237551107e-04,-7.234522528357414635e-04,1.330318598482162305e-03,5.606469511985778809e-01
5.728472414456232675e-01,-6.970732284129008138e-02,-2.312712433121977273e-03,3.055817583090816251e-03,-2.528175689890676398e-02,-4.021718672297692858e-03,6.132762432098388672e-01
5.386504233699025423e-01,-5.742868661213754167e-02,2.367581583741590334e-02,1.943786355115840678e-03,-1.670787030717763369e-02,-9.521247201705416302e-03,5.609494447708129883e-01
7.854756701246601303e-01,-1.098425635674880607e-01,2.701349626106108737e-02,5.410240589382999538e-02,-6.771644877811039409e-02,-1.384271703397719003e-02,8.490625619888305664e-01
4.633306621858258589e-01,-6.063971186483471665e-02,3.853331322525406499e-02,4.442038454485081750e-02,-1.441286489222506351e-01,-4.173141187794364264e-03,5.483680367469787598e-01
6.385779262513140431e-01,-6.197631049226604016e-02,2.645171683388475303e-02,7.918366983171441775e-02,-1.166470047950674549e-01,-5.647404783148623174e-03,7.045370936393737793e-01
5.704184437516129913e-01,-6.480764939662461699e-02,2.416464991214825608e-02,1.673922296473984855e-02,-3.229296567319071831e-02,1.595291114383373329e-02,5.997027158737182617e-01
5.459069173540131992e-01,-5.789654023924059589e-02,3.673781856364147225e-02,-4.441490876628872118e-03,-1.536185985651379246e-02,7.089401214016985940e-03,5.633042454719543457e-01
5.510472646109281225e-01,2.127851340804021163e-02,-4.577072660235106949e-02,-1.321771815142503137e-01,-5.823167380729466630e-02,2.403254126487890455e-02,6.204748153686523438e-01
5.415965073672677210e-01,-7.601589734157246370e-02,1.399758093517625146e-02,2.280312794870469062e-02,-2.701277393409996438e-02,4.342887443566590712e-03,5.811709165573120117e-01
5.228164713143707010e-01,-2.883775504446295379e-02,-2.269751440587186586e-02,-8.371032252565866263e-03,-5.952195425811781203e-03,6.361192581867487240e-03,5.490088462829589844e-01
5.592899278050673662e-01,-6.625984711915910985e-02,1.202262995842673377e-02,-2.449628724113752862e-02,-1.143645597795613089e-01,5.352999522267429255e-02,6.309559345245361328e-01
5.270322984663267096e-01,-1.197183252918870844e-02,-3.975489061902148791e-02,-2.403246012411641708e-02,6.610428363319831475e-03,5.614157971510260088e-03,5.551854372024536133e-01
5.340584000879243787e-01,-4.314573364642404485e-02,-5.858736470040371014e-03,-4.208103019813086432e-02,-7.014179833163211586e-02,2.729203304585582288e-02,5.790849328041076660e-01
5.897056259378816723e-01,-1.793970906926070641e-02,-4.422977430783653352e-02,-1.618366338306641977e-02,-7.441474652717400967e-03,2.758962016933231773e-02,6.238064169883728027e-01
5.432599311286224752e-01,1.484432568139570918e-03,-3.092241639463153002e-02,-9.268878624822497053e-03,-7.152626080680548649e-03,2.514688368533242804e-02,5.607463121414184570e-01
5.612622694616279384e-01,-2.718192696361490523e-02,1.496298456043770875e-02,-1.079593256189181373e-02,-2.015188088442419409e-02,2.769435053491789769e-02,5.719367861747741699e-01
5.140817495901593981e-01,-4.719730085876228109e-03,-1.381703729733640973e-02,-5.180185564320680114e-02,-7.150962458198441285e-02,4.991759457627679974e-02,5.521085858345031738e-01
5.077922409184615349e-01,-2.959549749932666174e-02,-4.852558029236961334e-02,1.385219485635919750e-03,-1.302011668988937651e-03,-2.155476257926476104e-03,5.471211075782775879e-01
5.008727426458429166e-01,-2.559562807973222998e-02,-5.760740291126886792e-02,8.467803037997642017e-04,-9.374065772875710481e-04,-7.051222451732202428e-04,5.431879758834838867e-01
5.087461420830787784e-01,-2.982585966295245306e-02,-5.685163620587974087e-02,-4.315289329284185786e-04,6.757082340312517074e-03,-1.333518624288938369e-03,5.527100563049316406e-01
5.209275086087734596e-01,-2.482846290361692687e-02,-2.944977385286345894e-02,-1.575416760771511328e-04,-4.063464192269563256e-03,-1.836501440826124451e-03,5.481356978416442871e-01
5.109101846854311457e-01,-1.999491559891050652e-02,-1.703682719020238601e-02,2.121947801935732125e-03,1.515913042476226555e-03,5.886110338117353730e-04,5.294525027275085449e-01
4.907216501170324485e-01,-5.291728404272852404e-02,-2.456559327075688581e-02,5.072719592189555695e-04,-1.558587038415270643e-04,3.554045752325284135e-03,5.300686359405517578e-01
5.190430478145184878e-01,-3.933042693794269740e-02,-4.209407271031276321e-02,-7.519350036729829413e-04,1.769281219120327287e-03,1.743928085290395843e-04,5.597704052925109863e-01
4.923818874719707583e-01,-2.373917287731536208e-02,-5.553552782205614657e-02,-7.392868462836535296e-04,1.231493254585215753e-02,-3.133813119302418689e-03,5.331873893737792969e-01
5.126639948299782645e-01,-4.905209349746450509e-02,-3.529688856907825523e-02,1.357667134139794876e-03,-7.709287674148577237e-04,2.433875016866383564e-03,5.549889206886291504e-01
5.126723767372907137e-01,-4.564409148011647210e-02,-4.080537552541535495e-02,4.774815669360825410e-03,-2.263372721033606125e-03,3.853061319790323201e-03,5.560283064842224121e-01
5.325919844610982334e-01,1.213656141688926327e-02,-4.905089059076256364e-02,-5.306455825003246994e-03,1.297026865536305990e-03,-1.807125484000482625e-03,5.536807775497436523e-01
5.174747122071458039e-01,-4.597233613426365828e-02,-3.850937831574258174e-02,4.299444276607130785e-03,1.768872311258938221e-03,3.743163199555945859e-03,5.598483681678771973e-01
5.083569895109945058e-01,-4.536822216632116489e-02,-3.952395677172673705e-02,4.831198328241965816e-03,-1.378413132097261234e-04,4.262254491655400462e-03,5.509393811225891113e-01
4.671982663028722560e-01,-5.468922318837482477e-02,-1.827625591465284471e-02,-4.547482632811260033e-04,7.297005754363022423e-04,-9.229514851451199120e-04,5.046719312667846680e-01
5.098602635074449552e-01,-5.654796773673262389e-02,-2.935054155549166044e-02,7.070148454634682389e-03,2.262884149148287633e-03,-2.344746448501848057e-03,5.534753203392028809e-01
4.526414777117525046e-01,-4.120120352701792110e-02,-2.160490909386442171e-02,4.137984204705799553e-04,2.424602914109890740e-03,7.370363066487543337e-03,4.845288693904876709e-01
4.732687856807216709e-01,-5.302808763884248044e-02,-2.251870860111501726e-02,-1.453954681911141453e-02,1.282346690739323558e-03,9.276716444305765582e-05,5.123488903045654297e-01
4.898452212337972012e-01,-5.557548216657659523e-02,-2.434338298122087907e-02,1.117514691679150421e-02,1.689232262658938149e-03,-2.135004418296578173e-03,5.308685898780822754e-01
4.918129068411395410e-01,-5.448702975722802266e-02,-2.408423999656722492e-02,1.287465152037535476e-02,-4.814919431834550727e-04,-3.534039177508717898e-03,5.322540402412414551e-01
5.081685961722197664e-01,-5.351295774118386417e-02,-2.989903737547644491e-02,-4.707600723182508605e-04,1.302756076829903083e-03,-2.700128495649145848e-03,5.502798557281494141e-01
4.980951362252298287e-01,-3.571813024782025114e-02,-4.870121995094026102e-02,4.940505187978221947e-04,-8.781773070316715221e-04,-8.883302044295765879e-03,5.406435728073120117e-01
5.200937783950394522e-01,-1.825011347907087855e-02,-2.134316208592421105e-02,4.064106358605389254e-04,1.118805579275532983e-03,-6.405715735988779663e-03,5.400149822235107422e-01
5.201137324074982526e-01,-1.838964155142477908e-02,-1.924435683832897981e-02,3.779664582140792890e-03,-1.063611014252690504e-03,-8.015868132239483898e-03,5.391529202461242676e-01
5.889046252228686829e-01,-3.662900417157918809e-02,-6.185429862008656743e-02,1.602394650870353210e-01,-5.172722324075362810e-02,-6.942722373185304663e-02,7.121976613998413086e-01
5.014391685451524694e-01,-5.247796603610122013e-02,-3.305188191490313065e-02,5.582418241626215383e-07,6.925684873999504373e-04,-2.830017361615566693e-03,5.444874763488769531e-01
5.170953433119638287e-01,-2.197576895293762433e-02,-2.085245498064197678e-02,-4.416451189258886723e-04,1.785657241550754832e-03,-4.787974137026842526e-03,5.385836362838745117e-01
4.330610444349773380e-01,-1.766679433720896863e-02,-4.083425993858522118e-02,4.428530043732737884e-03,-3.745913207681012685e-02,6.749650050543545311e-03,4.674822092056274414e-01
5.255515937247381419e-01,1.730422600626224661e-04,-4.375271819404474849e-02,-3.286388524309021984e-04,7.031988502937086376e-03,-1.260375354903360166e-03,5.488016009330749512e-01
4.942617782764358036e-01,-5.376543853481205448e-02,-2.885003519061829502e-02,-1.252940887955667892e-03,-1.299904148967357710e-03,-1.418932605425138110e-03,5.360187292098999023e-01
5.149905090729529622e-01,-1.809841932001696185e-02,-1.263105000185288374e-02,2.049404365495322271e-03,5.468299494254749574e-04,-5.039407801942191560e-03,5.304608941078186035e-01
5.169686268868480816e-01,-1.698343072068850268e-02,-1.614474485813285898e-02,2.827461102869728658e-03,2.057337271979091820e-03,-9.985508828140506402e-03,5.338478088378906250e-01
5.293012979546789509e-01,-3.532846624997737495e-02,6.227650204031681680e-03,4.799709640258842565e-03,-5.005174498480145437e-03,-4.182799127372352314e-03,5.452216267585754395e-01
3.256465573383702239e-01,1.361832571914745049e-02,-1.528369346768226888e-03,-4.365341096442587436e-03,-3.421071141639497794e-03,4.170670081961737330e-03,3.200964033603668213e-01
5.277360637735044602e-01,-3.673108118209242323e-02,1.295407436573456361e-02,1.264083093387492881e-03,4.605421784403383560e-03,-1.109959679473678656e-02,5.417417883872985840e-01
3.171702537686490464e-01,-3.124200133893213771e-02,-6.936577827776041483e-03,8.628059526781954591e-02,2.889301777455751882e-02,-2.500264028201525188e-03,3.719808459281921387e-01
5.550818848023979513e-01,-5.306233263923737509e-03,-6.094426346228687397e-02,-1.371595469302564207e-01,-5.338312371961410896e-02,5.395731768171278808e-02,6.496391296386718750e-01
5.200791030097781098e-01,-2.214153309193314656e-02,-3.800543779317822057e-03,2.248308864947614965e-04,3.205262383301517217e-03,-8.076187208030790807e-03,5.334991812705993652e-01
5.188697834621145422e-01,-2.193045667565257650e-02,-1.695184377920100349e-03,-1.118010568465693799e-03,2.250494618031370023e-03,-6.984366057847963931e-03,5.311275124549865723e-01
5.306939050910820521e-01,-2.980470551195835149e-02,-3.078793051666647851e-02,1.646892533535024988e-02,9.609345022743777387e-03,-2.631126503214507167e-02,5.638069510459899902e-01
5.200763467338579416e-01,-2.326162039036333562e-02,-9.117114568008510833e-03,2.101838494512345105e-03,-2.669726595978437153e-04,-2.139229736396678315e-03,5.364309549331665039e-01
3.852024450108823550e-01,-1.860717385302484983e-02,-3.411153992844778715e-03,4.432070180748241828e-02,-1.476733373235487043e-03,-4.024461391180175936e-03,4.038625061511993408e-01
5.470016976343001769e-01,-5.470277803439588249e-02,2.087745834828041991e-02,1.053669836025945003e-03,2.163997153082806817e-03,-6.151876974881585747e-03,5.678156614303588867e-01
6.332473705029868505e-01,9.345644349051107636e-03,-2.647730791354444002e-02,-7.610669423854050410e-03,-1.938960551638768681e-02,5.567298968531591424e-02,6.507585644721984863e-01
5.197728838049667788e-01,-4.095938076576263742e-02,-3.308724632821347100e-02,2.427616998164504238e-03,-9.795497702346912632e-04,-8.203104101160139418e-04,5.568581819534301758e-01
5.223868057627596428e-01,-2.656665776002989365e-02,-2.892475310730580063e-02,-2.574026484626343488e-03,-2.186608490112228187e-03,2.372578808221041929e-03,5.501827597618103027e-01
5.408082426530465003e-01,2.738249334373832333e-03,-2.084841910018256361e-02,-8.237993238002237761e-02,-2.144690284439649403e-02,5.228539132570327735e-02,5.768080353736877441e-01
5.474787623924052271e-01,-3.438576292016096159e-02,-8.386238145956792511e-03,-5.492826704675910637e-03,-2.851256657010231305e-03,1.563081510762931448e-02,5.700543522834777832e-01
5.272100935588601711e-01,-1.365592030304543791e-02,-5.692705011259177605e-02,-3.559069982608352965e-03,-4.806114492506985934e-03,-2.150764801426586440e-03,5.638558864593505859e-01
4.939393179001945189e-01,-4.967879101535613295e-02,-3.236874001256870304e-02,-6.867546698775458917e-03,1.431230489273640778e-04,5.300004574546384947e-03,5.353839993476867676e-01
5.123234929552183958e-01,-4.968530121817282819e-02,-3.111140938509626697e-02,-8.186989761484093377e-05,-1.310956745619193398e-03,-9.017927622324758150e-04,5.529627203941345215e-01
6.317764514785173535e-01,-3.577162458407273649e-02,2.247484668963947718e-02,-3.696768622796856637e-03,6.662272965562906872e-03,3.113514462957711615e-02,6.428165435791015625e-01
4.788097494021841816e-01,-5.053664608820052084e-02,-2.240625070844895483e-02,6.833620003770243334e-04,-4.984065836825612257e-04,8.930866983229952078e-04,5.158611536026000977e-01
5.775802018742417498e-01,-3.956347425079892455e-02,-2.825660419543987723e-02,-2.174232371472330227e-02,2.957577177915056074e-02,-8.187820534847078252e-03,6.150282025337219238e-01
6.317657817914530405e-01,-6.385317466014112098e-02,2.163311136230045006e-02,6.314833968939263624e-03,7.870585382374150826e-03,2.868664539161853641e-02,6.591676473617553711e-01
5.246290986959136760e-01,-3.985536870558897826e-02,1.752585229153821866e-02,-9.596554460382759888e-03,-9.760637505606899189e-03,2.245283012584323168e-02,5.400176048278808594e-01
5.595200737576929706e-01,-3.593895110381675750e-02,2.082105923402871595e-02,-1.467045023220129966e-02,-1.707054057139573144e-02,2.910498841674995230e-02,5.727617740631103516e-01
4.227523928396329511e-01,-1.956827969567034864e-02,-3.002744292254580505e-02,-1.256669185956170139e-03,2.180118500867926634e-02,-9.289352491551166810e-03,4.495250284671783447e-01
4.463525000575977453e-01,-3.366775375204411613e-02,-1.406039502338565783e-02,1.606123326819964420e-02,-9.152299700549439664e-04,-4.983838210905364337e-03,4.714264273643493652e-01
4.253952630219668407e-01,-2.503834301477880775e-02,-2.598876985510747972e-02,2.766501435065838593e-02,8.114731416607200154e-03,-1.342265030121794420e-02,4.542615413665771484e-01
4.923476724100504520e-01,-5.247084224959755461e-02,-2.966038760603309510e-02,1.698746122613230616e-02,8.134171522912500563e-03,-9.073336219196044550e-03,5.350057482719421387e-01
5.268219875428249432e-01,-4.138633504630431781e-02,-3.285349373206877810e-02,8.016863603280191802e-04,-8.092665757215159253e-03,-9.285762232939010234e-04,5.641684532165527344e-01
5.324460559100540058e-01,3.919222570374664150e-03,-3.534185211496521095e-02,-6.632984157322367562e-03,2.789344046979997174e-04,1.656999064935388288e-02,5.500804185867309570e-01
3.840220686036219244e-01,-1.743925284904998541e-02,-2.103232456282672080e-02,2.462051837319309197e-03,3.704270568524919288e-02,-6.311753751435056348e-03,4.085104167461395264e-01
6.332648766805555329e-01,-5.179679478142901194e-02,3.452727962435506170e-02,-3.634295134056643450e-02,-6.400415364264114282e-02,4.276511021803650059e-02,6.628443598747253418e-01
4.193971035922682278e-01,-3.986662733169307749e-02,-1.885980959943966973e-03,-2.048858579440181790e-03,2.027347210333497671e-03,2.174298305095490394e-03,4.415446519851684570e-01
5.258987409870107266e-01,-1.689335766011829110e-02,-4.459513886301266772e-02,-7.347799313757680771e-03,4.164869557410409359e-03,-9.267835713378219558e-06,5.573517680168151855e-01
5.011363040789278411e-01,-4.512943161603941156e-02,-3.891127870813265721e-02,7.384432296519105945e-03,1.407932674715472662e-02,-1.131094108368992969e-02,5.442336201667785645e-01
5.068960294009901002e-01,-2.585502820749510655e-02,-5.315976289571189284e-02,2.323055362646891334e-03,1.764330309382137248e-04,-8.435958636832048595e-04,5.469316840171813965e-01
5.079251002437057405e-01,-2.879036512582094920e-02,-5.559994312786542547e-02,5.286850952523901607e-04,1.341873914194910422e-02,4.420866416055380978e-03,5.511542558670043945e-01
5.053567920398682745e-01,-2.693253183748550716e-02,-5.540748480546334176e-02,1.144643353177392372e-03,1.359751297418826214e-02,3.968201961269452252e-03,5.476362705230712891e-01
5.073022658054922029e-01,-2.797456628785349730e-02,-5.396623676835668459e-02,1.346993662143283017e-03,6.652598574342763254e-04,4.446619745033027638e-04,5.487412214279174805e-01
5.184724460173685268e-01,-3.776584480699651802e-02,-4.301498173262063851e-02,4.753084779561950993e-04,2.076650395568732047e-03,2.848286226673280193e-03,5.589153170585632324e-01
4.852623945010590134e-01,-5.962853407191448518e-02,-2.021909034218588586e-02,-1.734279513330232137e-04,3.218455102962354086e-04,-1.876196226316049131e-03,5.263044238090515137e-01
5.073693970522797914e-01,-3.978736448551317695e-02,-2.816432809803157133e-02,-1.552373761248858168e-02,2.814373964164073889e-03,1.502221867786898528e-03,5.421341657638549805e-01
9.520296754664200889e-02,2.512562908069199477e-02,1.043817253013785973e-02,-3.161851203553295298e-02,1.323571493511768553e-02,-4.087124309089603010e-03,9.864415973424911499e-02
5.037347963142059237e-01,-2.933503709387361158e-02,-2.613535559984098144e-02,-5.672243308609869854e-03,-2.099850702580329312e-03,3.387149225574857727e-03,5.316128134727478027e-01
4.933070754346942643e-01,-5.467341813112289173e-02,-2.126912001680617004e-02,-5.684340729760315944e-03,3.776359044517292162e-03,3.986739091324170876e-03,5.322414636611938477e-01
4.203507222291424927e-01,-4.037524885405918695e-02,-9.992396212695792146e-03,-2.184324309829230922e-03,4.684710989010059366e-05,-2.181858798816386797e-03,4.463428854942321777e-01
4.879845443179354203e-01,-5.871257101610666274e-02,-2.241284503648360849e-02,6.403596975298622793e-04,1.989083216549301925e-03,1.875263166577881757e-03,5.295036435127258301e-01
5.002883217086431245e-01,-5.268241968600109737e-02,-2.917240838712714668e-02,-2.012043408973008055e-03,2.648119672581207736e-03,2.580418843363287747e-03,5.416476726531982422e-01
4.936336518543067986e-01,-5.480277292629176511e-02,-2.659180798950835922e-02,-2.218158084944782567e-03,1.978571013596468284e-03,8.857552341186587103e-04,5.349161624908447266e-01
5.167798261318414799e-01,-1.900310101734878354e-02,-1.772718885180235571e-02,-4.198266078103485462e-03,-2.586858842084319848e-03,1.195272964788236542e-03,5.352182984352111816e-01
5.140927232761418608e-01,-1.584986390300544001e-02,-1.670420884215131907e-02,-1.305509245278246985e-03,-2.522128348008247437e-03,3.672344179200499621e-03,5.304312109947204590e-01
5.342156011968725027e-01,1.802024309713637362e-02,-5.749412895165659232e-02,-9.700976822133075203e-03,5.257771134684514035e-03,2.629235985613782162e-03,5.581453442573547363e-01
5.136695754385278700e-01,-1.680230928587250760e-02,-1.252277648664368304e-02,-2.445449319521575578e-03,-4.523495786534308105e-05,4.377157894680798640e-03,5.284165143966674805e-01
4.989779214699128218e-01,-4.477709402097207469e-02,-3.486680171721859289e-02,6.396173210276539182e-06,3.441879354954138683e-03,7.664250051493116250e-03,5.390646457672119141e-01
2.619229783988139548e-01,3.768417335857920936e-03,5.063620657793990731e-03,3.268136282347171989e-02,6.980073828466071186e-04,1.530510319077289230e-03,2.636736631393432617e-01
4.090370264224942876e-01,-3.467452752054003828e-02,1.164396304289387618e-02,-8.478331771861752353e-02,-1.610966688752668574e-01,6.978459681953720628e-02,5.408363938331604004e-01
5.167529190578107334e-01,-2.112467862863171009e-02,-1.795588366359529564e-02,-2.529448298133179281e-03,-2.548792584001965955e-03,1.199019439111040017e-03,5.363402962684631348e-01
1.500504113797226924e-01,-2.041512934154582348e-04,1.910777919409413494e-02,-3.980962412329142053e-02,-4.894558458013227586e-02,1.490382341604961670e-02,1.807082742452621460e-01
5.389113247579522259e-01,-3.395966389367130467e-02,-5.941235345191239747e-02,1.621870500395984072e-01,-3.748165298689083019e-02,-7.188396238482921974e-02,6.648613214492797852e-01
5.433369972844369622e-01,-5.198113412587213045e-02,2.344172853938097933e-02,1.350292649902184484e-03,-4.472045216661543754e-03,8.158139743615828651e-03,5.616554021835327148e-01
5.394555493086354847e-01,-5.558277648879580979e-02,-3.223217079033030563e-03,2.565067416480654519e-03,-6.099412097109067551e-03,-2.101306851442070762e-03,5.707896351814270020e-01
5.300862951682221436e-01,-5.470726266531095172e-02,2.078898961994002370e-02,2.598123606278232838e-03,8.096575621812001147e-03,7.280156419416550402e-04,5.511369705200195312e-01
5.583440015878964324e-01,-5.499337989408736860e-02,2.191013118146259431e-02,3.994042033874011834e-03,1.495006464750349776e-02,3.368874530206396583e-03,5.793802738189697266e-01
5.275898885996828103e-01,-4.706640894430680344e-02,2.784438105549483233e-02,2.546451130275519028e-03,1.088514963795208894e-02,1.710426694692980878e-02,5.422601699829101562e-01
5.435676233652582123e-01,-5.490234996780352095e-02,3.441538332201182770e-02,3.694317910951374576e-04,-9.679118374654299348e-03,1.641692754815392199e-03,5.594457387924194336e-01
1.530871847732340474e-01,2.054555668086960329e-03,4.507607647716103949e-02,-1.907727485008804333e-02,1.083789682729112552e-01,5.288415915333877573e-03,2.336188852787017822e-01
5.107737565077683506e-01,-3.042971712418990338e-02,-4.125169943874576473e-02,-1.667860778087490014e-03,-1.345894571707270844e-02,9.598326072719223995e-04,5.472017526626586914e-01
5.231724111376276909e-01,-4.100322572324457959e-02,-3.480576718578817785e-02,-7.084251944721077152e-03,-2.826644112503959652e-02,-3.908740681192791368e-03,5.634087920188903809e-01
3.404540655508013769e-01,-7.369274423119867579e-03,1.624003475987914613e-03,2.036098797099090627e-02,1.743492621158726497e-02,5.579775715188983048e-03,3.466740846633911133e-01
3.489298208817049884e-01,-8.550951446631580022e-03,-1.794053838006265389e-03,6.197407002136878784e-02,-7.334068503694698982e-02,-1.790326151711570113e-02,3.924833834171295166e-01
4.986249801712894780e-01,-2.990189710559568170e-02,-4.614736108184860908e-02,-1.581643196590405177e-03,-4.446056808861723574e-03,8.645492822094098589e-04,5.368983149528503418e-01
4.973096895130926232e-01,-2.654850606204367525e-02,-4.564886714366250819e-02,-1.229213402670944165e-03,-1.991760837612504068e-03,-1.435824018868896287e-03,5.336859822273254395e-01
5.142208265920671373e-01,-5.149003988160635870e-02,-2.954490981398724680e-02,6.357172293122873540e-03,3.438577870897307348e-03,1.980874581306941475e-03,5.552154779434204102e-01
4.915161426405068590e-01,-2.410577149585574341e-02,-5.181226219123266641e-02,2.998406208001587209e-03,-3.750751316622088355e-02,-5.880128574643771894e-03,5.341075062751770020e-01
5.112393011075176963e-01,-3.443624619035828838e-02,-2.547362050024917779e-02,-3.269999860101159670e-04,3.210247915492034886e-03,2.318451057421139043e-03,5.412936210632324219e-01
5.279510667658664502e-01,-3.789997231391598054e-02,-3.726235046476314428e-02,-1.547054918616613079e-03,-1.142933019923005793e-03,2.324837485683711518e-04,5.655424594879150391e-01
5.272255790879256665e-01,-3.599874186056506442e-02,-3.778519444951491946e-02,-5.546970534780925515e-04,-9.095114107678459528e-04,-2.318585311442901593e-04,5.641228556632995605e-01
5.277996205839294852e-01,-3.784223362171035276e-02,-3.683029241856866642e-02,-9.453155285158547361e-04,-1.670277975727363232e-03,-2.062064174243541262e-05,5.651463270187377930e-01
4.333565457493946949e-01,-3.167769800050551643e-02,-5.507349943247891177e-03,9.196165189559461946e-04,-4.788427366135697763e-03,1.700247611603919202e-03,4.526053667068481445e-01
5.231686773079103903e-01,-3.030979575052411557e-02,-2.889770483147080515e-02,-1.699193808545149554e-03,-1.712251173097422384e-03,3.932098235658958141e-04,5.527899861335754395e-01
4.912994263384554139e-01,-5.989795975448680698e-02,-2.130559023373571059e-02,-2.682832758853795352e-03,-7.638370560830827971e-04,1.518087505281019820e-04,5.329721570014953613e-01
4.772999538205700554e-01,-5.164593635093259194e-02,-2.432325818529484929e-02,4.968054925312272510e-03,3.892319753545525444e-03,5.691210280183811414e-03,5.160375237464904785e-01
4.991356412171319423e-01,-5.389163571293789645e-02,-2.140737057098537899e-02,-1.319285995510511601e-02,1.813909973924325786e-03,-1.914939234544628345e-03,5.380266904830932617e-01
3.658136795843597300e-01,-4.421125406349935005e-02,-1.489421698078509382e-02,-5.091298384946099653e-02,4.213070784135073549e-02,-2.692801175971670097e-02,4.150131940841674805e-01
5.004724232052907285e-01,-5.294986350886377036e-02,-2.519217758073041824e-02,1.632031823213893037e-03,2.826466914965918703e-03,-1.160009337588471107e-03,5.401120185852050781e-01
4.849930959850170531e-01,-4.861228623385654979e-02,-2.694730295713967938e-02,-7.040022634670182722e-06,4.012971726727457885e-04,-6.714066003396078862e-03,5.232391953468322754e-01
2.233674920948467424e-01,2.052389220890446508e-03,1.884596052031876912e-02,-2.448311258314516195e-02,9.637148688912449551e-03,6.114515174700986154e-04,2.182286381721496582e-01
4.953630568271180090e-01,-2.716622668511098349e-02,-5.590746163690160642e-02,-1.850930236634068657e-03,-1.529709536391302442e-03,-2.272167976967637282e-03,5.375070571899414062e-01
5.205895362940857751e-01,-2.714514259047437483e-02,-3.890307416222191228e-02,4.099428421456999087e-03,1.639231962853340569e-03,1.267586823160928760e-03,5.537644624710083008e-01
5.850494156606556029e-01,-6.004587345459666547e-02,1.591131373520376924e-03,1.771103686514320706e-04,-1.213650519252258003e-02,-2.239062613207797037e-02,6.181676983833312988e-01
4.291582369913362616e-01,-4.078529445765027850e-02,-8.187357456889282625e-03,-8.169105126698604589e-04,7.127314008795554391e-04,-5.592461316859450964e-03,4.546292126178741455e-01
5.132290479892132051e-01,-3.597213056444986679e-02,-3.255045095927355803e-02,-4.040814781254216045e-03,1.759948929437509869e-04,-9.724058118418301691e-04,5.475457906723022461e-01
5.494931526234529962e-01,-4.891738547162605144e-02,-1.662139067684326177e-02,-1.620434014442990664e-02,1.807830513899368399e-02,-6.102844117639477650e-03,5.845441818237304688e-01
4.974795800907489407e-01,-3.809546484818920886e-02,-3.180131102832003953e-02,9.357629378929022829e-03,1.163208941804426237e-02,-8.956935543512437601e-04,5.330856442451477051e-01
4.851497723352895530e-01,-5.717395919940498894e-02,-2.164350114775154266e-02,-5.778733993666696324e-04,5.583096181960896937e-04,-1.363611427931054991e-03,5.254673361778259277e-01
4.920882812854407984e-01,-4.841923844911288910e-02,-1.161476834484764797e-02,1.888083385495541991e-03,-1.446543406605562809e-03,-1.481477535835659665e-02,5.237225294113159180e-01
5.320121487886306788e-01,-3.194456055824945739e-02,-2.568147059256359332e-02,-1.253895964166797626e-02,2.384532064146192148e-02,-5.109745636984656600e-03,5.628588795661926270e-01
5.133682972644398879e-01,-4.883623340812690006e-02,-2.002660355645849433e-02,9.902896393776030454e-03,6.394495816757990447e-02,-1.173769925789831109e-02,5.600727200508117676e-01
5.337896199200498071e-01,-4.876902058725660072e-02,7.362593009888701578e-03,-4.844120677879383205e-03,3.117302683343334962e-02,-1.883717810430193471e-02,5.602459907531738281e-01
3.103317931716782496e-01,-4.829758496857614047e-03,2.886311963935059288e-03,-2.852204309215434011e-02,-9.469558360735768829e-03,-5.130393279532498296e-03,3.158212006092071533e-01
5.223452301940589848e-01,-1.520608970383724445e-02,-4.736595442740765272e-02,-1.480890884378873590e-02,5.019052058458730453e-03,5.010113342036915350e-03,5.550603866577148438e-01
4.930089997780185418e-01,-5.240150070093285706e-02,-2.766034905034217561e-02,-9.644351784467775687e-04,7.378603499000607616e-04,-1.534071341916706886e-03,5.334811806678771973e-01
3.939010425279950156e-01,-2.214249581044805404e-02,-1.964041643049035946e-02,-1.918678944429381972e-02,-1.870416977541571046e-02,-1.514904270785180813e-02,4.182103872299194336e-01
5.119285068591384880e-01,-2.533308334045186738e-02,-4.040924541756171773e-02,2.118974545269207421e-03,-7.642060302809361785e-03,1.711219840071597723e-03,5.451372265815734863e-01
3.963129627928643761e-01,-2.128400543329939110e-02,-1.949288369164975387e-02,-1.721572766656847067e-02,-1.980479217895736097e-02,-1.608386390116602060e-02,4.201004207134246826e-01
5.567004666179740102e-01,-4.782755116722980926e-02,1.822294434809551555e-03,-6.961957893497180971e-02,-1.285367411966203133e-01,6.045134463987143769e-02,6.426300406455993652e-01
3.554709702091796153e-01,-1.499735449624689521e-02,8.617569253650675387e-04,-1.755632053838920327e-03,-6.115030593832700492e-03,-3.862508148689162719e-03,3.630277812480926514e-01
2.786661436995548913e-01,-3.147146557677157896e-03,4.740500442560358074e-03,-3.156090299456657672e-02,-1.057211010711157917e-02,-5.192069547465706994e-03,2.840115427970886230e-01
4.113035030700742389e-01,-3.433005312266096398e-02,-2.026378418161300932e-02,-2.377335184394497800e-02,-1.286191412732703987e-02,-1.276009383518364459e-02,4.418132901191711426e-01
3.691769038538261216e-01,-1.419758622057987196e-02,-1.504213039104543292e-02,-2.711511760930820740e-03,-1.024287022687517907e-03,-1.006900556659439706e-02,3.842262923717498779e-01
4.114908449330309526e-01,-3.545558978669535732e-02,-2.055079581615940065e-02,-2.474808306203033631e-02,-1.289147442353828256e-02,-1.478571498935091731e-02,4.430727362632751465e-01
4.056573690753311756e-01,-3.527509438437800848e-02,-1.995345523729005754e-02,-2.637750804938938584e-02,-1.719383081973064123e-02,-1.487178686257165268e-02,4.376506507396697998e-01
5.165604642096477406e-01,-3.801315525940029971e-02,-3.707416254798553967e-02,3.027441556644823624e-03,-1.661963100932650284e-03,3.923918433686842604e-04,5.541374087333679199e-01
3.107948698140191035e-01,7.318164872531743304e-03,6.438771272502863408e-03,1.255134803472781778e-03,1.370911652313954853e-03,5.581428600207294062e-04,3.039359450340270996e-01
5.103809488732291566e-01,-1.474478904181811267e-02,-1.427558960890798478e-02,2.025837150017520492e-03,-4.561142000035602398e-04,1.507049979483669625e-03,5.249100923538208008e-01
5.180696114833045485e-01,-3.375518355456305630e-02,-4.026768228124438798e-02,1.391536168883522368e-04,3.093217815998275996e-04,3.098318380162167450e-03,5.551359653472900391e-01
5.206642907555469879e-01,-2.909421332942671579e-02,-3.278007280311956428e-02,-4.559402783883725234e-04,-2.608039671274059814e-04,3.189444731863123536e-03,5.516390800476074219e-01
5.187849310526118085e-01,-2.621770100824791228e-02,-2.606266593627834527e-02,2.100410073040685950e-03,-1.811877600411675822e-03,4.331513845001699306e-04,5.449468493461608887e-01
5.301676129642309832e-01,-2.852523317480509801e-03,-4.190759110185129921e-02,-4.774342916734439224e-02,8.643075177925174657e-03,2.980275409905046215e-03,5.599482059478759766e-01
5.142025986632670076e-01,-3.313156273953793418e-02,-5.660130498381937825e-02,-7.043291401094281534e-02,-1.007640573634182440e-03,2.082786823305421333e-03,5.725991129875183105e-01
5.180369227692585010e-01,-3.016240085056992593e-02,-3.433709418730476748e-02,-2.410366757210756928e-03,2.241132756658219976e-04,-4.023690693795466729e-04,5.503149628639221191e-01
4.969671861876722718e-01,-4.289004911359298178e-02,-4.453410094763324278e-02,5.230510361977650652e-02,-4.460744639881054907e-02,-2.032799553753978066e-03,5.536473989486694336e-01
3.704225634325083449e-01,-9.115003455789222331e-03,-1.982737141418430826e-03,3.388073468569329297e-04,-1.864090783757232830e-03,4.314223074085039161e-03,3.761107325553894043e-01
5.019720298600380826e-01,-3.011587059571951830e-02,-5.337773828012540300e-02,3.196583499696608981e-03,-2.547161202110866714e-03,2.933439631040604244e-03,5.441616773605346680e-01
5.082758398107395381e-01,-3.696881293190798501e-02,-4.819401530601294392e-02,6.800441156416968305e-04,5.489972593106726140e-04,3.021851030672079771e-03,5.509699583053588867e-01
5.017747305766435684e-01,-3.298837169758936372e-02,-4.896537825179658743e-02,2.714557323117174764e-03,-9.512279522647497116e-04,1.362627196555239902e-03,5.429559350013732910e-01
5.169372514742630598e-01,-3.328232437889641626e-02,-2.338096821415663884e-02,2.956038164017520727e-03,4.906022253096592629e-03,-4.506401580820593167e-03,5.454823970794677734e-01
5.283734976033336306e-01,-3.164629121624382146e-02,-4.255558640449202956e-02,3.616333966227699634e-03,2.744143488269730306e-03,-5.492179928968808807e-04,5.656087994575500488e-01
7.618934278900793000e-01,-3.765601598302836805e-02,-7.715062381538712044e-03,1.052798185793154123e-01,3.006610413490947223e-02,6.037950402583467518e-02,8.143322467803955078e-01
4.514600339283359465e-01,-2.380255778402462497e-02,-5.051904174777982481e-02,-1.098843643206799496e-02,-2.131904389756482388e-02,-9.859228917109512727e-03,4.912260174751281738e-01
5.164783237232140056e-01,-3.714269332879771568e-02,-1.670108109515033856e-02,1.703236539507097967e-03,4.716403383382335515e-03,3.333195804414278846e-03,5.437884926795959473e-01
5.095298216848413997e-01,-3.426485488653974176e-02,-1.546688683154270882e-02,-3.843006435083320331e-04,-2.378366307219039952e-03,-6.330988734257591427e-03,5.347723364830017090e-01
5.059581944236831719e-01,-3.962285369343412911e-02,-3.357868643231076700e-02,2.586670134835694266e-04,-5.625251468401333945e-04,-2.739487594054178764e-04,5.425854921340942383e-01
4.962327123563252673e-01,-4.955638701560072246e-02,-3.357655589778993366e-02,-1.269085536184716293e-03,-1.418541339848750213e-03,-3.316050409790310266e-03,5.380179882049560547e-01
5.050080799583323010e-01,-4.772080511991821927e-02,-3.790185662290559976e-02,-2.493448133407694719e-03,-2.385637679427084819e-03,-4.625500061275926444e-03,5.479765534400939941e-01
4.280193799402308708e-01,-1.650439854143273544e-02,-3.975800072124513473e-02,-4.876240653960986168e-04,-2.398601818725318649e-03,5.501977884258352214e-03,4.567140042781829834e-01
4.892659986143009787e-01,-3.296010315178116157e-02,-4.194831108239335804e-02,-4.245432094179442937e-04,5.252550248918134079e-04,9.505367944275167416e-03,5.270362496376037598e-01
4.310650954661874312e-01,-4.098911967717969174e-02,-1.717135634220182117e-02,-1.691663194460473613e-02,-7.363589914144263136e-03,-1.138928843208773280e-02,4.621358215808868408e-01
5.058060165353690518e-01,-4.422129037034300270e-02,-3.723260284363263950e-02,2.314885947969814333e-04,6.123565985854509440e-04,-3.068661206305626967e-03,5.465934872627258301e-01
4.964660868123591531e-01,-4.310042755856813290e-02,-3.757465140993393460e-02,-5.104101040054325085e-03,1.019391705617180271e-03,-9.002109126112309290e-03,5.371270179748535156e-01
5.179775843080571818e-01,-3.309614457187551317e-02,-4.062942659087326325e-02,3.904069451009686657e-03,1.355897714909745817e-02,-4.281538135755317241e-03,5.554661750793457031e-01
5.153337180515493721e-01,-4.483152445203503200e-02,-4.066566785375863580e-02,5.352789945373506199e-04,9.935572749613940952e-04,2.330660285129842449e-04,5.580975413322448730e-01
5.147577435960100090e-01,-4.409922759867671016e-02,-4.073517136840787423e-02,-1.032482999620689540e-03,4.139909679839028707e-04,9.004662803740400056e-04,5.571880936622619629e-01
5.150353728150304233e-01,-2.383299946832079241e-02,-2.119267879425218437e-02,3.884295809506740568e-03,-9.583770747163050316e-04,2.167542029804838018e-03,5.376108288764953613e-01
5.180611070390941375e-01,-4.768079109128878224e-02,-3.452545556725342135e-02,8.045325444735821827e-03,-1.151425868172634885e-03,-5.291297133608625393e-03,5.595324635505676270e-01
5.180117584607855097e-01,-4.493210011855858221e-02,-3.924149959830486312e-02,3.378999668767839436e-04,-1.373391380031860213e-03,4.180430512841124230e-04,5.601260662078857422e-01
5.146923740053520602e-01,-3.790604182588983018e-02,-4.754503184530892157e-02,4.492668332060955998e-03,1.083291687811649764e-03,4.817584056405252620e-03,5.576003193855285645e-01
4.853865037067620625e-01,-5.287930318448735845e-02,-2.616757836472530241e-02,-1.142677951333665202e-03,6.152043249231100653e-04,-8.444288281894002379e-03,5.256277918815612793e-01
5.145805687738880252e-01,-3.789660191969621006e-02,-4.584210383368647612e-02,4.559480493170659995e-03,-1.126659200193353989e-03,1.720730907624518470e-03,5.565599203109741211e-01
4.559163368681465323e-01,-3.687728110122256986e-02,-2.483003109636597316e-02,-6.487956725566260303e-04,2.351088919941729007e-04,-1.090544634669552218e-02,4.872495234012603760e-01
5.170311278387720311e-01,-4.022543266745817747e-02,-4.398891762368731251e-02,2.895391537769102450e-03,4.089329982475401110e-04,1.329627431154940852e-03,5.591754913330078125e-01
5.138282033507242108e-01,-4.068976774229007831e-02,-4.311481293355517996e-02,-1.631841055157093171e-04,-4.254882846313533880e-04,4.853208539933993480e-04,5.557356476783752441e-01
5.100548278880452369e-01,-3.701860987980018503e-02,-4.729620904642523049e-02,2.006960719338428574e-03,-9.758555954574463448e-04,1.855786529450602178e-03,5.523068308830261230e-01
5.114642625977019463e-01,-4.445478709988770483e-02,-3.795093558879603091e-02,-4.677805778618256615e-04,-1.596471086790050104e-03,-3.129226635390257045e-03,5.527299046516418457e-01
5.100810874666084072e-01,-4.416117782504236366e-02,-4.023383641108482789e-02,-1.471023360682999811e-04,4.079703639968717730e-04,-5.599742455937966852e-04,5.522904396057128906e-01
5.147433018643684521e-01,-3.667519670933541698e-02,-3.752744267931529265e-02,5.847833157698097833e-04,1.473019571346711586e-03,-1.344763044010804847e-05,5.518519282341003418e-01
5.147591355636016441e-01,-3.278871760194079776e-02,-3.385829667349871119e-02,4.477103091329488207e-04,-2.429245475328628903e-03,4.327823794654917346e-04,5.481006503105163574e-01
5.122805899523643625e-01,-4.423737698921820227e-02,-4.197978286731740560e-02,-8.929604148704533282e-05,-1.678927845295499375e-04,-1.210351495965789840e-03,5.553966760635375977e-01
5.130594175241831589e-01,-4.391862350645597823e-02,-4.177471612801458845e-02,-9.768744154195409691e-04,-1.442306369187897237e-03,-2.121197300349429802e-03,5.559295415878295898e-01
3.720566963065873867e-01,1.546322487965309800e-03,-1.838116246517543240e-02,-1.561306560617018021e-03,-3.701427708052419836e-03,-5.060059097392492072e-03,3.810296654701232910e-01
5.106912118059405703e-01,-4.083849023720709237e-02,-3.921655484738048592e-02,-2.489471132082348467e-04,1.666526154178721211e-03,-1.774430726843617212e-03,5.507368445396423340e-01
5.139811879272595529e-01,-4.153849313500812546e-02,-4.184439479680399088e-02,1.933765278680511497e-05,1.176231272991382993e-03,-1.241575133081839735e-04,5.556764602661132812e-01
5.124701155600532854e-01,-4.197644915288548106e-02,-4.423985303051830575e-02,-3.517681022136777587e-04,-1.285072001357454681e-04,-1.133180231689358795e-03,5.555855631828308105e-01
5.203695220448321113e-01,-8.829114506504781579e-03,-3.791816645131104724e-02,-6.267159973951062606e-03,4.440785843131443179e-03,4.681265263413576100e-03,5.445493459701538086e-01
5.146544676167144061e-01,-4.434068691239836935e-02,-4.289410948674213242e-02,5.191388271752231083e-04,4.037588431402031552e-04,-7.204657003037008740e-04,5.582758188247680664e-01
5.222091559408343908e-01,5.090286637029289851e-03,-3.306334570677574303e-02,3.573296571007244203e-03,-2.415673202244506424e-03,7.519300370819314086e-03,5.374225974082946777e-01
5.286185399526063255e-01,1.584752218363089105e-02,-5.391431422530906792e-02,-1.245104064263825687e-02,4.670050301878492932e-03,3.785926606269849216e-03,5.514944791793823242e-01
5.152141690654175044e-01,-4.285508024900427926e-02,-4.389227563870215509e-02,3.681077531530119430e-08,-3.045940545383728866e-04,-4.297080524224964108e-04,5.585893392562866211e-01
5.079618691626770488e-01,-4.008163353511290383e-02,-3.418975766269308214e-02,2.087900679300226051e-03,-5.342189132329605331e-06,-3.142640507628297834e-04,5.451337099075317383e-01
5.032431251147848617e-01,-3.410284317002740262e-02,-4.189925371922087471e-02,8.084144095591581231e-03,1.594235057322237938e-04,2.369407634642049874e-03,5.414829850196838379e-01
3.661515458736444018e-01,-8.960296590022745478e-03,-3.781359244193238656e-02,-1.879931731633663339e-02,-5.965011907158752208e-02,-4.097397163308054598e-03,4.051538407802581787e-01
3.737845268150867817e-01,4.560199284164193068e-03,-2.189395799950569210e-02,1.141634924941698631e-03,-3.427420120980177298e-03,2.710487083020550643e-03,3.832168281078338623e-01
4.926414247134247582e-01,-2.238302191558275145e-02,-5.504458873586906553e-02,4.776522460121395905e-03,-1.662675730918437844e-02,2.060088123002867290e-03,5.329624414443969727e-01
4.308925189755222207e-01,-1.001313253331015396e-02,-4.318680037699249019e-02,8.911352197764586813e-03,-1.989132318502278077e-02,-3.170943416394430940e-03,4.599784016609191895e-01
4.881023173037227769e-01,-2.462419182791059091e-02,-5.902772207909157132e-02,2.569407057730428191e-03,-1.130234441663036500e-04,2.143608545676031676e-03,5.307968854904174805e-01
5.317392316113654926e-01,-5.527316450632679956e-02,1.710091882810341191e-02,-4.011166666921367994e-03,8.168969140643835003e-03,4.116002821581363387e-03,5.546497702598571777e-01
4.750353764343331897e-01,-1.949588486904391127e-02,-5.529112143211989405e-02,3.798593305054377874e-03,-6.873674736628626776e-03,2.525753694951913229e-03,5.135645270347595215e-01
5.183259079075115405e-01,-2.773533630950389406e-02,-6.282066052074153362e-03,3.653430145216489920e-03,-3.787249585674324921e-03,3.319813886567100133e-03,5.357652902603149414e-01
4.543528357047088573e-01,-2.471226963669931331e-02,-3.706450027368751732e-02,4.879039396112817053e-05,-5.827383819105396139e-04,-1.121148107064520380e-02,4.857484996318817139e-01
4.733132596870434639e-01,-3.461013915085447978e-02,-3.493854250248251692e-02,2.248920286970263372e-04,3.258725798324228523e-04,-9.694726377453473723e-03,5.083655714988708496e-01
4.810090999540546641e-01,-2.797920537944997843e-02,-4.726550143063440457e-02,5.267993824807040704e-03,-1.296015026118998471e-02,7.141169038778978455e-03,5.196130275726318359e-01
4.710381403304793047e-01,-2.748580087308016839e-02,-4.236690762162464985e-02,4.211917917178721778e-03,-4.156573270337212897e-03,9.235234985991529894e-03,5.064850449562072754e-01
5.007107212354418024e-01,-2.803069625970769363e-02,-5.598528234843494489e-02,1.693810959350654276e-03,-4.242735131950777644e-03,-1.987532139517416037e-03,5.433269143104553223e-01
4.444691036547759322e-01,-1.729824776836458300e-02,-4.826962533198386751e-02,-4.559011474337892281e-04,-2.234377168955428011e-02,5.391629520003870905e-03,4.796617925167083740e-01
5.113041255155992282e-01,-4.313414845409452303e-02,-4.416740715425510055e-02,-2.207398935000052381e-03,-2.471868429852313361e-03,-3.366569920156044053e-03,5.550159215927124023e-01
4.928832619495307488e-01,-5.633494718844217486e-02,-2.265009128930034477e-02,-1.160507148869459803e-03,1.076123731198760621e-03,1.039772658032624055e-03,5.331845283508300781e-01
4.859583787388364051e-01,-5.793302618740847620e-02,-1.793219125125181113e-02,-8.006753239787785248e-03,-1.485664464580555271e-03,-5.102186962594846371e-04,5.252252221107482910e-01
4.788340616124977522e-01,-5.744078053833767683e-02,-2.029119750548472045e-02,-6.381671582883608786e-03,-8.137211796731887593e-05,-2.255741927307057873e-03,5.188312530517578125e-01
4.925824116066115366e-01,-2.765133856739368512e-02,-5.738830022726573721e-02,6.015964959300463015e-04,9.852281194431869969e-04,-1.040088543324085586e-03,5.357283353805541992e-01
4.884262689845358385e-01,-5.756732686280646716e-02,-2.308174708577342971e-02,-3.114934317811472644e-03,8.189319166905850494e-04,1.661055609483644421e-04,5.296230316162109375e-01
6.256931599544188760e-01,-4.145678824081266978e-02,3.455269259008963978e-05,3.342078299855655993e-03,-1.001202532638041827e-02,4.241211078525201905e-02,6.518130302429199219e-01
4.604961954766236820e-01,-1.821822657130270362e-02,-5.004127745965358809e-02,7.368251512180071065e-03,-1.001456353733567138e-03,3.965839728417860401e-03,4.956081211566925049e-01
5.075718514565106254e-01,-5.495187446280899723e-02,-2.885405557720255310e-02,2.581101271054877470e-03,1.368082646062335423e-03,1.623070241301169045e-03,5.499699115753173828e-01
5.262128020832650410e-01,-2.889112955225553447e-02,-1.432327348740328188e-02,3.236998712123182517e-03,1.718662072625367840e-02,-2.727079833627917005e-02,5.508308410644531250e-01
4.988522279393469705e-01,-3.087808385247708953e-02,-5.266917269910409427e-02,-6.687951485332912669e-04,-7.788256008826362079e-05,-3.170295939469716055e-03,5.409842729568481445e-01
5.457957725156825646e-01,-3.609515961234485704e-02,-1.669568908831095544e-02,-2.065860397927604588e-03,4.968207066292995924e-04,-6.456320972709993049e-03,5.725588202476501465e-01
6.010603731040324860e-01,-3.866036365762171023e-02,-2.906212301572272394e-02,1.886800694368194128e-02,3.038266727984402851e-02,-9.257743332293665375e-03,6.381919980049133301e-01
5.692019398529015728e-01,-3.291731575457079728e-02,1.173857330178607050e-02,4.248046249863283823e-03,-2.192454107497215920e-02,-1.757895797237860047e-02,5.831610560417175293e-01
5.071226946282214598e-01,-4.670922613958525260e-02,-3.496374056333231839e-02,6.323466173386000462e-04,1.241410156598378499e-04,1.857850918894486192e-03,5.480641722679138184e-01
6.803956278318138429e-01,-4.096446817375720695e-02,-3.736012419633422121e-03,-6.505858152473086020e-02,6.157966446803490174e-02,-6.230689076750748484e-02,7.284309864044189453e-01
5.066075715450768513e-01,-5.354120730557321295e-02,-3.313294393272037119e-02,-7.291745783336792000e-04,9.633054187976771137e-04,1.437966484355399695e-03,5.502381920814514160e-01
3.017018165966918741e-01,1.036778702830415400e-02,6.856878013579828512e-03,-1.113417725735506354e-05,-1.318672800881466893e-04,-2.775260468364332440e-03,2.931447625160217285e-01
5.909764549863607552e-01,1.288732446751097993e-02,-7.085873216395022212e-02,3.335989618888765031e-03,2.017434960871053798e-02,-1.920262939542537878e-02,6.260780692100524902e-01
5.624969099881633738e-01,-4.197547419757338694e-02,3.102750276587934453e-03,1.730476293796261861e-02,-8.555123047504846825e-03,-2.637802953062845165e-02,5.859826803207397461e-01
7.012579649860124498e-01,-7.106207426882799050e-02,2.257555193972804464e-02,3.295449924058731217e-03,4.840940414808937026e-02,2.532997182502427086e-02,7.361493110656738281e-01
4.744507005890150619e-01,-3.459628435409242697e-02,-4.200332570850284775e-03,-5.327759260490593646e-02,4.072427518660869800e-02,-3.151739462491404131e-02,5.109312534332275391e-01
5.143749314855896593e-01,-4.115560497705111898e-02,-4.268352902810007565e-02,1.000920735060675012e-04,-2.327380674050382771e-03,2.664219932235107474e-03,5.563298463821411133e-01
5.161581197942319843e-01,-4.609819221244410015e-02,-4.050271614674733067e-02,-3.284663575963778790e-04,-9.090381458978361636e-04,2.140383378030967249e-03,5.594943761825561523e-01
4.944019820217473438e-01,-3.863271556637984383e-02,-4.218417219646830585e-02,2.943170716024500269e-03,-6.127811608456164077e-04,7.391587259171065495e-03,5.349978208541870117e-01
5.186251056465356335e-01,-4.394582348293349372e-02,-3.941062574726506007e-02,1.107840023389685714e-02,-1.718531382158041245e-03,6.851305586442665504e-03,5.607790350914001465e-01
4.422925974916868674e-01,-4.400074372865056538e-02,-1.642955640864512956e-02,2.312092297413591985e-02,-1.001086806750268662e-02,5.928668196969908918e-03,4.752299785614013672e-01
5.009891172410748661e-01,-4.791068932660819124e-02,-3.424877314738788980e-02,-1.015251186746412605e-03,9.852093554381308790e-04,-1.113408425053175792e-03,5.422069430351257324e-01
4.582493434396714971e-01,-2.797200191507712153e-02,-2.940324381603737214e-02,2.053391142734413422e-02,-8.369318804075915816e-03,1.429279533228837093e-02,4.890777766704559326e-01
4.973961583112355700e-01,-4.276744516968611354e-02,-3.387060101489861030e-02,9.585487163506767327e-03,-6.042795616715640689e-04,6.492686487163672367e-03,5.361467599868774414e-01
5.107897297472832054e-01,-4.134719047038717954e-02,-4.241819136175201121e-02,4.625045170841816542e-04,-3.006196230670092444e-04,-1.755052078266430447e-03,5.526823997497558594e-01
5.056971303390682682e-01,-5.055815172028482740e-02,-3.420069519807081293e-02,4.596995976958553540e-03,-2.170096339287415268e-03,5.877066888626431354e-03,5.484247803688049316e-01
4.724571692603840023e-01,-3.920216525975553368e-02,-3.293815454778620255e-02,8.395361413669045689e-03,-2.218937261544300359e-03,1.022983430170670317e-02,5.090870857238769531e-01
4.003175110865787589e-01,-6.195615023251055398e-03,-3.907633349587064098e-02,7.826221494906583989e-03,-2.395702765587889860e-02,-5.646068147897735688e-04,4.261537492275238037e-01
4.838168699655900351e-01,-2.455985433255797323e-02,-5.333721531841767449e-02,-1.746001087499089960e-04,-7.076538216656350251e-03,4.277273398857441705e-03,5.235551595687866211e-01
4.995620352598764691e-01,-2.944666834936443545e-02,-5.417721615135248636e-02,2.376900398311879940e-03,-6.812611600875981450e-03,3.725957645475291499e-03,5.419799685478210449e-01
4.842349610847933028e-01,-2.012806379117032529e-02,-5.693329029734695013e-02,-3.062938013858469406e-05,-2.538776227113160059e-04,-1.788217801076065656e-03,5.237458348274230957e-01
5.106503153761741132e-01,-3.257375096793926894e-02,-3.116854688987119593e-02,2.688666248979220200e-04,-4.263092702387110723e-03,2.179450908070513192e-03,5.425863862037658691e-01
4.546778365270683908e-01,-2.263468740628760134e-02,-4.210185782701419965e-02,5.490134590717216058e-04,-1.793249868378415631e-03,-1.269906220972420903e-02,4.878447353839874268e-01
4.951298119640175077e-01,-2.607956076192038952e-02,-5.663892529914965612e-02,-6.276906095606185360e-04,-6.489372962600735862e-04,9.479464966759720184e-04,5.371462106704711914e-01
4.837390417337201209e-01,-1.920955756894118793e-02,-5.712531154593430971e-02,4.565335570296241881e-03,-4.798814150048404462e-03,-2.125444520520312821e-03,5.230771899223327637e-01
4.950158943220030472e-01,-3.098445680632741506e-02,-4.145264504758716662e-02,3.839159646439755432e-03,-1.396474754901294059e-02,4.785549015425865824e-04,5.319042801856994629e-01
5.045065947081958102e-01,-3.534591894438557369e-02,-5.308341022053136848e-02,4.526296797272975794e-04,-7.484781750901676372e-04,-3.686164221485846611e-03,5.489754676818847656e-01
5.215666661201256993e-01,-2.146329725675730216e-02,-3.402657378519263753e-02,-1.062069883085919354e-02,3.256810721052116951e-04,1.039167147214510676e-03,5.497304797172546387e-01
5.166312515662103699e-01,-2.483041213584569196e-02,-2.537684634689668650e-02,1.145122790656889723e-03,-1.118290500695364375e-03,-2.371867013060495119e-03,5.417577624320983887e-01
4.880743480565079562e-01,-2.340252577785323362e-02,-5.562045435007256788e-02,1.954346512805195857e-04,-2.494397655981853666e-03,-1.410906381591948760e-03,5.283465385437011719e-01
4.855283622407540745e-01,-2.255135537750257990e-02,-4.554546258920294521e-02,6.153317249069831761e-04,-5.249459884766589923e-02,3.046435873493139480e-03,5.278755426406860352e-01
5.129023989507131009e-01,3.022348984218437007e-03,-1.685642161281178386e-02,-9.472213003888973939e-04,-2.287806204653571734e-03,8.992346063105316131e-03,5.203552842140197754e-01
4.851013088360625614e-01,-2.548034393963177768e-02,-4.747986975011198041e-02,1.367263696697438441e-02,-1.086019311376829923e-02,4.136066960877967345e-03,5.228538513183593750e-01
4.956055303386692756e-01,-2.313758502602122902e-02,-5.885136486270023393e-02,1.754125734050754467e-03,-1.481639614616329492e-03,5.365067859295054656e-04,5.375061631202697754e-01
5.649690670371236845e-01,-5.226782741474403360e-02,2.465608451228229470e-03,6.551471716716371352e-02,8.796541561779121221e-02,6.324834971552877050e-02,6.310982108116149902e-01
5.049551969315126954e-01,-2.738816215087569450e-02,-5.484923802898053480e-02,5.297339620119096999e-04,5.643101546052371915e-03,1.896048130174181985e-03,5.466895103454589844e-01
5.119604879313061074e-01,-3.307275616809260410e-02,-4.885524364832044553e-02,-1.051815572101811886e-03,1.803815519932656930e-02,5.729214557511999942e-03,5.540669560432434082e-01
4.571201826101665144e-01,-2.185595902386169853e-02,-4.748026693703730206e-02,1.371261460506993787e-03,1.071815071515308526e-02,6.375051611003715139e-03,4.927680790424346924e-01
4.955993927584134151e-01,-2.390519652808342776e-02,-5.350706669410232319e-02,-4.890047639340677418e-03,-1.282160449769974820e-05,5.034107544932279327e-03,5.350582599639892578e-01
5.095768090460550681e-01,-3.053572682512770142e-02,-5.402245290842125347e-02,-9.814157584346822668e-05,2.301135760497310251e-03,2.166323645303960821e-03,5.522577762603759766e-01
5.058865500967821838e-01,-3.032490552539521267e-02,-5.274486626525398680e-02,-2.823445242712157069e-04,5.068163726143688243e-04,2.396227740110272453e-03,5.477823019027709961e-01
5.692883823458341208e-01,-6.981004615558039639e-02,4.774889358578243703e-02,-2.268654549940153468e-03,9.503901001957429373e-03,3.531960160886326618e-03,5.894565582275390625e-01
6.295068422547112075e-01,-8.369197468568834175e-02,3.973012923808780239e-02,7.321111237129503471e-03,-1.771063658778798894e-03,2.005047788455463064e-03,6.603357791900634766e-01
4.267768604673007893e-01,-1.206031960379611023e-02,-3.297656550203209580e-02,6.910152004186406781e-04,-6.186427974362071047e-04,1.115709790738260258e-02,4.500782191753387451e-01
6.494003192736312879e-01,-6.198198777327562636e-02,3.391305299925553851e-02,-1.113420933238831734e-02,-3.958524587329340788e-02,5.105082716692722032e-03,6.724534630775451660e-01
6.109530544667318708e-01,-9.113584881212144495e-02,2.955295885265987743e-02,-4.960205612133044423e-03,-3.448901310312700585e-02,2.192847479883884218e-02,6.540987491607666016e-01
4.470804820140441560e-01,-4.959901042317860220e-03,-4.065526491314047641e-02,3.715025804139153974e-03,-7.977323287952363699e-04,4.304263869962278444e-03,4.710088074207305908e-01
5.019143362066385006e-01,-4.348602831411188530e-02,-3.100477514318858430e-02,6.879705074424796252e-04,-6.748117661643325939e-04,-1.637278743780793940e-04,5.392707586288452148e-01
7.872513591541803191e-01,-9.289703752731570674e-02,2.752251662739624294e-02,-3.000132982654901692e-02,4.397788076137634783e-02,-6.331296719592901471e-04,8.316721916198730469e-01
5.267400559292296780e-01,-3.575510424856365166e-02,-3.601104641684096941e-02,-4.551502679243121081e-04,-1.233096476028133022e-04,-1.440314834528150408e-03,5.626292824745178223e-01
5.255010169885008242e-01,-4.077199301970169110e-02,-3.891678856253608099e-02,2.031518251513353933e-03,-2.413729329981994295e-03,-4.685447904384363975e-03,5.654323697090148926e-01
5.285445182834965783e-01,-3.921112048652655724e-02,-4.188022241225469733e-02,-1.543863772402377221e-03,2.080765853233582357e-03,-3.484485367984214120e-03,5.691446065902709961e-01
5.294098408215747176e-01,-4.069789163080966832e-02,-3.861166388084816270e-02,-1.480151269445159406e-03,-3.850167810921488205e-04,-7.341804120173494588e-04,5.690750479698181152e-01
5.287606361539761712e-01,-3.904874075229899932e-02,-4.190287034778103492e-02,-1.827069742185100649e-05,-1.178898644537170002e-03,-1.976058697226622512e-03,5.692557692527770996e-01
4.967830306536866747e-01,-2.888261161969288282e-02,-5.283092063379457581e-02,-4.468448450496444700e-04,9.040662545371300077e-04,-8.678446175814914744e-04,5.380446314811706543e-01
5.024433165379073030e-01,-4.115649767650808588e-02,-4.253441797234619459e-02,-8.768479860306282840e-04,1.315675107754969101e-03,5.327839444050380679e-03,5.443751811981201172e-01
4.932177905861186984e-01,-4.851232237871921926e-02,-3.284784114533334520e-02,-3.189102711230681637e-03,-3.577306555814541676e-03,-6.312576808375278473e-03,5.342465639114379883e-01
4.068366310579635270e-01,-6.600158044530207713e-03,-2.243820448471744999e-02,-9.463719873880814765e-05,-1.284648974710565945e-03,1.174960292256632850e-02,4.220758080482482910e-01
4.995385216386477589e-01,-4.770633254324865846e-02,-3.502651754129693096e-02,-2.098403989669809090e-04,3.330375693962818093e-04,-5.483740182017294434e-03,5.411002039909362793e-01
5.009112699724567186e-01,-5.184531222596455713e-02,-3.152542319276935290e-02,-1.650491570702552297e-03,-1.772828131670543990e-03,-2.593151573542965861e-03,5.429167151451110840e-01
3.979227437702574921e-01,-4.319260675679414963e-02,2.246765674170815574e-02,4.732389465034950865e-02,1.592419121380747871e-01,9.743040578142342714e-03,5.029986500740051270e-01
5.140599691517611092e-01,-4.598979475060629984e-02,-3.356499100986196082e-02,5.930965598643815791e-03,7.483936774848678770e-04,2.170788848274682586e-03,5.540513992309570312e-01
5.291506225930072693e-01,-5.420565832473692169e-02,2.433706968174489949e-02,3.201446219438603726e-03,1.235396875040469661e-02,2.993953311772972175e-03,5.487901568412780762e-01
5.059923432120168041e-01,-4.849072386220401598e-02,-3.286496309467876187e-02,-9.663879012316583953e-04,9.514135155600338123e-04,4.045933428794247326e-03,5.468875765800476074e-01
5.932117149270103029e-01,-6.433547663994004795e-02,3.518413080005991511e-02,4.514186209964730391e-03,-2.095608335486680296e-02,2.789435503058524529e-02,6.168845295906066895e-01
5.171400640725414277e-01,-4.727163816815049824e-02,-3.887202705216508125e-02,2.102078692909137465e-03,8.992191205977360458e-04,1.547964446726267504e-03,5.602795481681823730e-01
7.485272027109365345e-01,-8.567758789316426427e-02,1.935439586210779828e-02,4.577596858129151514e-02,-6.507287064364900009e-02,2.141221736508397422e-02,7.997977137565612793e-01
5.330596708491635027e-01,-6.017700138535378440e-02,3.967691436705780839e-02,1.728172954742067348e-03,1.800038792923185993e-03,-3.077973405197898362e-04,5.501658916473388672e-01
5.498354608645636965e-01,-6.036048009419114901e-02,3.609275728953606488e-02,3.899102833910758365e-03,-3.921989288705869832e-03,-6.556267212481948223e-04,5.682252645492553711e-01
5.410017682700052344e-01,-5.536552462757082793e-02,2.379644336865877063e-02,2.288296341470181551e-03,2.860843189305452890e-03,-6.218136573722776294e-04,5.610279440879821777e-01
5.385181263595000267e-01,-5.556238569114727022e-02,4.040840344870902379e-02,5.304877708328378967e-03,-9.383368124697323434e-04,3.355095180543091540e-03,5.524929761886596680e-01
5.106206832365220993e-01,-4.021833611476413606e-02,-4.450503855440721135e-02,3.310368941070848041e-04,-8.251296672625055241e-04,-8.293767381311940206e-04,5.529988408088684082e-01
5.645417357763907740e-01,-6.304638073471302562e-02,1.768029721351058181e-02,-2.200106650987550445e-04,1.159132433371300522e-02,-2.042371805488654365e-03,5.917231440544128418e-01
5.025862305513144612e-01,-4.075611375381982260e-02,-4.101309181116269409e-02,5.465368584855415796e-04,3.051340700550827568e-04,-4.108570121922179574e-03,5.435185432434082031e-01
5.354961298541893733e-01,-8.358261374099007490e-04,-7.114009037024932036e-02,9.919246250731065737e-03,1.470067003584382970e-01,-5.786927296348321620e-02,6.367697715759277344e-01
5.208895481834461272e-01,-1.358686413704585094e-02,-4.823973823928220939e-02,-1.967836234239750751e-02,2.214603264467478530e-02,1.343359748102351901e-03,5.550004243850708008e-01
5.255276899854359751e-01,8.033014134410820795e-03,-3.827443080455233959e-02,-2.255666347737744423e-02,9.400482056398862946e-03,-1.221340399502411286e-02,5.441948175430297852e-01
5.135678654496126372e-01,-4.433165736516345157e-02,-4.465168708462244340e-02,3.032499803149456578e-04,4.923441210397010766e-04,-1.389676177130990710e-03,5.580657124519348145e-01
5.097407378600946615e-01,-4.283081016834017207e-02,-2.874688517771523122e-02,-1.122328399064426857e-02,-5.492383655826438716e-04,-9.204972806195604591e-05,5.460129380226135254e-01
5.882898096308890601e-01,3.507989703442071505e-03,-5.047282051484111576e-02,1.069578850788748155e-02,7.745429658965998811e-03,-2.313611993059157962e-02,6.152883172035217285e-01
5.258526637315199537e-01,2.098942783193030737e-03,-5.278372409840156876e-02,-3.301683972571847758e-02,5.872983790944294458e-03,-3.753461321172250724e-03,5.563192963600158691e-01
5.298411892523685607e-01,-3.177364853622752228e-02,-3.633301346044442992e-02,4.485848429178826554e-04,-2.858399580989227614e-05,-1.553408118659970567e-03,5.639153122901916504e-01
5.171196997169571485e-01,-4.525214159385596013e-02,-4.070909759667054595e-02,8.230555561985884337e-04,-7.296111821269647864e-04,2.108715399522417041e-03,5.601292848587036133e-01
5.624345528309361297e-01,1.343201553501566226e-03,-5.797984403885450555e-02,-2.466398089636992474e-02,2.597243761496220715e-02,5.222141332948408883e-03,5.962875485420227051e-01
5.243801283304319050e-01,8.770171281207994607e-03,-3.748209779016500875e-02,-2.025898837899235694e-02,1.066558019440509014e-02,-1.140345795671860937e-02,5.420365929603576660e-01
5.196347192162464879e-01,-4.431640775018103051e-02,-3.898290050632105541e-02,1.394147614183862500e-03,9.316056318405222404e-04,1.163017189368237368e-03,5.613145232200622559e-01
5.153865523016165628e-01,-4.026790321799236794e-02,-3.825405233716686060e-02,1.790198303146288243e-03,1.006822821504563476e-03,2.583150344794791012e-03,5.546797513961791992e-01
4.974688985088130955e-01,-3.501009949925318332e-02,-4.395135373159531067e-02,7.052467370115905135e-04,6.198016521146237044e-04,-6.191614814663606338e-03,5.371149778366088867e-01
5.168453103869521392e-01,-4.333661504835076284e-02,-4.240494408141590177e-02,1.028176126727727924e-03,-7.230537462962562155e-04,2.034563039417971574e-03,5.597320199012756348e-01
5.176557890896750225e-01,-4.525989133257879438e-02,-4.337031100202523581e-02,-7.341952505248097597e-04,8.856179594293170278e-04,4.563028504847005786e-04,5.619773864746093750e-01
5.184942780946438790e-01,-4.364593013276635292e-02,-4.130738292970087544e-02,1.271230765392721571e-03,-1.852371264366169632e-07,-5.174843361377342047e-04,5.609796047210693359e-01
5.129129380312447140e-01,-4.362085574551877176e-02,-4.255190527799029843e-02,2.795130804563542796e-03,-3.469217743381348799e-03,3.302141120373396337e-03,5.560830235481262207e-01
5.108976405546659105e-01,-1.898722238418992792e-02,-4.078620709550903611e-02,8.588086912968246125e-03,3.507733446578766012e-02,1.873445510868188002e-02,5.456826686859130859e-01
5.176893128155488633e-01,-2.854602046353069134e-02,-2.502680733676432290e-03,-5.445724004185033273e-03,2.843496395682691084e-03,3.898224408301378865e-03,5.338392257690429688e-01
5.167654990896151102e-01,-2.732349071803610863e-02,-2.517344893922696114e-02,-4.873531106240629532e-03,-5.931528569614612570e-03,6.637011671153206747e-03,5.433015823364257812e-01
5.017589833028990309e-01,-5.463177274326694310e-02,-2.930062103368319404e-02,-5.750595740274945349e-03,1.763789339281469437e-03,4.381991003927865856e-03,5.443201661109924316e-01
4.706692068616789015e-01,-2.004158266743358285e-02,-5.195748877088388062e-02,1.073066348060031441e-03,-5.872190694121172654e-04,-5.065217260337758626e-03,5.075023770332336426e-01
5.041535881651237894e-01,-4.750225059694612728e-02,-3.657883901405639682e-02,-3.236416221298768579e-03,4.549272346445924937e-03,4.782236940245677796e-03,5.464243888854980469e-01
5.098118542898768535e-01,-4.695784884934631198e-02,-3.760836730972685893e-02,-1.582079946884156711e-03,2.438258291220482630e-03,2.512205559812477618e-03,5.521944165229797363e-01
4.992560988483488171e-01,-4.776703299032403205e-02,-3.301000329501793673e-02,-1.743289379764580756e-03,3.594248363258160071e-04,5.671766502194726736e-03,5.398941040039062500e-01
4.661210628529693367e-01,-2.509807266458530250e-02,-3.242000013416398985e-02,3.351675576009299079e-02,9.324355526768862354e-03,2.407629605189087751e-03,4.985928833484649658e-01
2.536335847745877503e-01,1.376751394138599205e-02,-2.680654091418724350e-03,6.036009024910015189e-03,-8.283545227109263831e-02,1.217076559387641988e-03,2.871419787406921387e-01
4.981927540942087673e-01,-2.914092291097911125e-02,-5.210887144301254437e-02,1.938690138861144446e-03,-8.014743310504775491e-04,2.370616638779823176e-03,5.392125248908996582e-01
1.788222155686161330e-01,6.126364445965454264e-03,2.166081074333803258e-02,-1.055801660486720530e-03,-4.807326542137665970e-02,-1.745331269919084619e-03,1.852782815694808960e-01
4.495221976205044379e-01,-1.666001494016458584e-02,-5.085076497813925678e-02,1.034716274865852929e-03,-2.441332804689202909e-03,-5.805221048207716197e-04,4.842066466808319092e-01
5.199737075413768395e-01,-2.848733394768754312e-02,7.141349705570676498e-03,3.739757545826540345e-04,-1.708019848493177323e-04,5.196811584691009983e-03,5.316196680068969727e-01
1.721051268042816940e-01,2.151526907023151858e-03,-2.742077447613505692e-02,1.000377749059837805e-02,-7.597339128144371678e-02,1.906745236045124733e-02,2.312822192907333374e-01
5.030582406797736716e-01,-5.409037992194803968e-02,-2.710882071233128299e-02,1.300087454924409892e-03,9.725852536715577038e-04,6.069777245346018833e-04,5.441680550575256348e-01
4.263800778811845382e-01,-2.648829131123586755e-02,-2.625503811447660318e-02,2.808320359733541827e-02,-3.116477750561227195e-02,1.392570194368740640e-02,4.591793715953826904e-01
4.969145456506758318e-01,-3.121537472935390078e-02,-5.042310701648897164e-02,-8.277663642643286234e-04,-9.922657176973259882e-06,-1.703707871237657157e-03,5.380010008811950684e-01
1.695337780844127229e-01,1.284716412535286817e-02,2.126056750193194150e-02,2.923216773421376605e-02,-5.245955556237155704e-02,2.093835214388237306e-04,1.847238987684249878e-01
5.019511950823896118e-01,-3.307968595820448554e-02,-4.773614876199175350e-02,-3.226234993553771615e-04,9.252784735504078440e-04,4.180255328464036260e-03,5.425586104393005371e-01
4.806724633709391070e-01,-3.046528772482848257e-02,-4.518927705679534612e-02,9.104378801497147941e-03,-4.385628585025785203e-02,-2.740139008581174776e-03,5.244481563568115234e-01
5.293569184146070805e-01,5.943393223648008039e-04,-3.374789749925630189e-02,1.964556468385511047e-03,3.636177931271892920e-03,-5.889900744499945197e-03,5.468852519989013672e-01
3.563276438707538851e-01,-8.551960684131040824e-03,-1.921667065834550825e-02,2.370175993150527502e-02,-7.087566239436876581e-02,3.510626853675437829e-03,3.923449516296386719e-01
4.898894522709907884e-01,-4.246383916903154199e-02,-3.030992793932515972e-02,9.193814279087612201e-03,-3.490227414864202279e-03,6.422245110285194208e-03,5.267745256423950195e-01
4.848336523653372643e-01,-2.014233977135240772e-02,-6.013610986391021429e-02,9.987479194666411958e-04,-2.028901367991351205e-04,-1.976425212067633118e-04,5.261172652244567871e-01
4.846198570846307341e-01,-4.632198567934900368e-02,-3.051218187389459491e-02,-7.544850282688979511e-03,-2.258192561579584496e-03,-4.177167696039631173e-03,5.234438776969909668e-01
5.170198033439341589e-01,-4.504061579514967439e-02,-3.886746571424995467e-02,-3.143839009457757220e-04,1.274308477798167822e-03,1.416418053993307672e-03,5.590094327926635742e-01
5.176571073442925996e-01,-4.147497766279029108e-02,-3.979134183703073036e-02,1.961118111945471965e-03,-2.423785670272323237e-03,-3.011065523709119092e-04,5.583185553550720215e-01
5.035626230920071666e-01,-5.365339868327531625e-02,-2.976060517203205080e-02,5.487490925069272302e-03,1.784033918576484164e-03,5.324621372756580678e-03,5.458315014839172363e-01
5.284021585440218383e-01,-4.142026903158943507e-02,2.255634566896286275e-02,1.582541902324030624e-03,3.010245266951970446e-03,5.630978397851822692e-03,5.408004522323608398e-01
5.128144261991172126e-01,-5.226093322087960180e-02,-3.340257016947956181e-02,3.887028036468922337e-03,1.536192494321902665e-03,2.029308744083681455e-03,5.559443831443786621e-01
5.102295670141105965e-01,-4.867548434761384546e-02,-3.527378568383682245e-02,1.436106358366393237e-04,-8.214978251877148971e-05,2.991459623373523939e-03,5.523505210876464844e-01
4.433225508450274188e-01,-4.803024790344548323e-02,-9.859517024944974839e-03,-1.989244754139459642e-02,-6.304738614337661361e-05,5.334039250375743196e-03,4.747649729251861572e-01
5.175165669026596804e-01,-4.615861651945482591e-02,-4.128422206024406904e-02,-7.483142213408596269e-04,9.178882609991396773e-04,1.035566404991485794e-03,5.612604618072509766e-01
4.534232612478222291e-01,-4.717777981763685013e-02,-1.742283041973374802e-02,-1.489492530568942152e-02,8.703908586373643869e-03,7.750689263792223151e-03,4.875084459781646729e-01
5.132001454280280539e-01,-4.597317655991153829e-02,-3.973045561583810059e-02,-5.952603757802008098e-04,7.778035578898904057e-04,2.452378814855275119e-03,5.560970306396484375e-01
4.801415026090480320e-01,-5.692825135637122336e-02,-2.157369267652689548e-02,-6.176852676971760804e-03,2.196817815491792798e-03,1.239117661199104449e-03,5.204224586486816406e-01
4.902257569990746133e-01,-5.453230788147339636e-02,-2.513547461116133475e-02,-5.946432030315570993e-03,3.220385389714165974e-03,5.553762241985543864e-03,5.308870673179626465e-01
4.723332262321931485e-01,-5.492568449096366101e-02,-1.881300916119021949e-02,4.311604038790996371e-04,1.986384559933407259e-03,2.996590834952184146e-03,5.102006196975708008e-01
5.048393306186702567e-01,-5.599325891651799059e-02,-2.716580859061498709e-02,2.741760955795412638e-03,-5.243785115248005306e-04,1.305609485671367599e-03,5.470149517059326172e-01
4.576447531083808751e-01,-4.407002184575059545e-02,-2.261828749028249597e-02,-8.231260766373807089e-03,3.583913540431430279e-03,8.967176075212281161e-03,4.918315410614013672e-01
5.142511697076498356e-01,-2.640362646265850821e-02,-2.938381938201947707e-02,4.682033179359496380e-04,-1.604701287489365040e-03,2.024084580001285060e-03,5.421701073646545410e-01
4.859842278570143947e-01,-3.157038776381662637e-02,-2.255268813775718195e-02,-1.784834895703550986e-02,-1.965071889883451828e-02,2.966436794944874930e-03,5.151868462562561035e-01
5.116390490540774216e-01,-1.719594306470240141e-02,-2.268546062981396938e-02,2.942209116751759294e-04,-1.717329148963863945e-04,2.831694910847464778e-03,5.316239595413208008e-01
5.131418531777069969e-01,-2.448676224826956682e-02,-1.479441254215274615e-02,3.719026786872154408e-04,-2.880609719045320802e-03,9.317373618514266168e-03,5.331166386604309082e-01
5.177861572545083835e-01,-2.222273655315232244e-02,-2.690591977877049290e-02,2.594190895719761941e-03,4.097413775050711381e-03,6.018504992939445117e-03,5.425308346748352051e-01
5.123047510664544557e-01,-2.211514149319901423e-02,-2.349665112015278390e-02,-1.563620632907727036e-03,1.227811862969410868e-03,2.736369981674582116e-03,5.351440310478210449e-01
5.193710697888218597e-01,-2.367472300487766246e-02,-3.294243175059438644e-02,2.187230301676340236e-03,4.478042715839757049e-03,7.662458157818008257e-03,5.479671955108642578e-01
2.114704955118727470e-01,-3.055595517236688041e-02,-1.713370825960665311e-02,6.070020375763920256e-02,3.532232299535938841e-02,-3.092397055610830031e-02,2.705066502094268799e-01
5.103213775342809733e-01,-2.309447396093869398e-02,-3.489818540163514005e-02,-9.890250108803240459e-03,3.679767301116802954e-03,2.508453199566736298e-03,5.397416353225708008e-01
4.415736948656754923e-01,-3.285707987400091068e-02,-3.648377407145797502e-04,-8.417350549515453806e-02,-9.071509457168118462e-02,3.443188236454334389e-02,5.101224184036254883e-01
4.870023803668754869e-01,-5.694707531122097932e-02,-1.895786201139665339e-02,-6.326050668847737340e-03,-1.240616081571051721e-03,-2.224698086013694211e-03,5.261173844337463379e-01
3.989917166325564479e-01,-5.983743333658073094e-03,-4.100085480006326888e-02,-1.004166120726079220e-01,-9.006712965277141603e-02,6.708672041614476000e-02,4.974947571754455566e-01
3.825380677681057273e-01,-2.877192763862226887e-02,-2.593219140371658127e-02,-6.366140641531642386e-02,-4.109745962929815810e-02,-8.092281862471009321e-03,4.306248426437377930e-01
5.439374241238785768e-01,3.983597790952814188e-02,-6.717949249226731756e-02,-2.678617385182569324e-02,-7.000986238765004137e-03,1.248973784800836394e-02,5.677012801170349121e-01
5.539559595555996196e-01,2.276153034209979498e-02,-6.135439891291527559e-02,3.687185291296908845e-03,3.877506164725886759e-03,-4.494930641026177731e-03,5.779891014099121094e-01
5.370713564353664093e-01,3.742741599991622481e-02,-5.930573237458153235e-02,-4.551354341054358009e-03,-8.106067947721075015e-03,8.696614345404603979e-05,5.546104907989501953e-01
4.844810806677672388e-01,-1.836334131126821090e-02,-5.886112701751439191e-02,5.526419354217874296e-04,-5.164698495686634435e-04,1.311783566723378255e-03,5.242742896080017090e-01
5.484252044132201798e-01,3.185194148164111061e-02,-6.364469448651699501e-02,7.979612156418949484e-03,5.432872170144190452e-03,-4.736508177114177875e-03,5.706534981727600098e-01
5.076420800300350811e-01,-3.218835499653441290e-02,-4.963667271529945135e-02,-1.011530278512419358e-03,-3.156709098528041359e-03,-2.101748563428699167e-03,5.488047599792480469e-01
5.839033524580427015e-01,1.324459843575612195e-02,-7.678647667881344230e-02,-6.190294106944938847e-03,1.464076209318928602e-02,-5.875873506287797483e-03,6.212854385375976562e-01
5.255155085300080575e-01,4.218369815992087379e-02,-5.559769271518269496e-02,-6.450531997503111160e-03,-9.091469783510282288e-04,-9.841036681626658816e-03,5.393046736717224121e-01
4.883371475800321049e-01,-2.256401193898119328e-02,-5.738469788959985052e-02,9.540902805468241561e-04,-4.198329440065809957e-04,-1.039122317280779303e-03,5.291775465011596680e-01
5.382821176564657195e-01,1.169761689575815611e-02,-5.447273160031276817e-02,-9.979607762488158697e-04,5.294373361435790806e-03,8.238077962670774972e-05,5.626732110977172852e-01
4.935676756145531141e-01,-2.501360540391950327e-02,-5.394570669049461586e-02,-4.992480729422009867e-04,6.103230724547329322e-04,3.820120572728946066e-03,5.336786508560180664e-01
4.893832968675024264e-01,-5.292065037799095761e-02,-2.490229059980206272e-02,6.884284720032670703e-03,-1.699339429398008918e-03,4.825522852674072466e-03,5.290603041648864746e-01
5.433526253554424867e-01,2.484821931534697548e-02,-5.613970312074784141e-02,3.547925336472655244e-03,2.987511587774178707e-03,8.489039955113509422e-03,5.636303424835205078e-01
5.234170102333189911e-01,-1.215969874943775841e-02,-2.951161332318888442e-02,-3.864675609354626686e-04,-5.663238191521303283e-04,-1.146644805186512782e-03,5.444650053977966309e-01
5.139958639225481463e-01,-3.477127258144596667e-02,-3.361809916878819027e-02,2.311501514268168075e-03,1.765624101891142802e-03,-6.460837642723110067e-04,5.482157468795776367e-01
5.170649894917906941e-01,-2.498482072565286205e-02,-2.739709112587082607e-02,5.162077101850480302e-05,5.634092620937975783e-03,-6.002194268142389995e-03,5.434470772743225098e-01
5.195781224479830707e-01,-2.234425098615269722e-02,-2.765380228111935512e-02,2.287700994176472633e-03,-1.062700647879705586e-03,-2.190978960335258907e-03,5.446273088455200195e-01
5.166529670283559472e-01,-3.883486975181654755e-02,-3.410877938632284057e-02,3.179083708333122382e-04,1.167520319549865100e-03,-9.912658548088192182e-07,5.531439185142517090e-01
5.155687560349012655e-01,-3.150023742206456423e-02,-3.551860541396037463e-02,-4.293837649944768145e-03,2.859847494533673991e-03,3.364304213432897910e-03,5.491928458213806152e-01
5.195384325585201690e-01,-2.372343492971792922e-02,-3.170501776439119124e-02,4.584061491247706961e-03,1.712734524746807683e-03,-4.708169994114756556e-03,5.474227070808410645e-01
4.532577288268027083e-01,-5.039485044233885103e-02,-2.141397752418000566e-02,-1.581179840636666792e-02,-8.303935845186048020e-03,-6.255830124945294980e-03,4.909010529518127441e-01
5.167892659703767766e-01,-4.356405602886967432e-02,-3.955611937856187699e-02,3.043107112379154241e-04,7.579441686160300258e-05,4.644854967315967687e-04,5.583609938621520996e-01
5.028504580063126728e-01,-5.661795617836071215e-02,-2.864330696450187452e-02,-1.027777748598634805e-03,1.093001323059634945e-03,1.379325198148738342e-03,5.460302233695983887e-01
5.061434294615176910e-01,-4.993752975186571685e-02,-3.636153512263087806e-02,-6.181531858671073789e-04,-2.145627996160253889e-03,-3.309827506184936409e-03,5.494623184204101562e-01
5.117721684382035008e-01,-4.369904755091091886e-02,-3.787688900534172398e-02,3.563252118889950119e-04,1.883429782811074042e-03,-1.210089951950236000e-03,5.525971055030822754e-01
5.099076951874366159e-01,-4.434289948145703208e-02,-3.330481814377694860e-02,-5.937444763596035416e-03,-2.114727781300106482e-03,-5.501052901190795798e-03,5.490060448646545410e-01
5.026554620957307540e-01,-3.257586941778453649e-02,-5.434544323382695108e-02,-4.485134913888405811e-04,2.421240545219404197e-03,1.181036643519905440e-03,5.464619398117065430e-01
5.247420978196082331e-01,-3.736711544511503447e-02,-1.607121694466986939e-02,2.188015034192598157e-03,-4.349207237473424505e-03,-1.408385230704216860e-03,5.518394112586975098e-01
4.755330784077480555e-01,-5.275526040842271058e-02,-2.256120910114289835e-02,9.140373428002127260e-04,-1.086038319370851026e-04,-7.318736735492085803e-03,5.140158534049987793e-01
4.859332008366357702e-01,-5.245794252269900260e-02,-2.692697778032596134e-02,-7.365147970609956830e-03,2.195549875238853705e-04,-5.268436812703303565e-03,5.263243913650512695e-01
4.639218423285327297e-01,-4.396859196152777538e-02,-2.779370350969054271e-02,-1.680145559137062594e-02,1.316403085521820155e-03,-1.105710664608403060e-02,5.012165904045104980e-01
5.124378562810687487e-01,-4.070354588571606369e-02,-4.820704700639016904e-02,-5.078253169237606154e-04,1.762834893006270508e-03,9.057666667345930060e-04,5.569423437118530273e-01
5.114219191168878353e-01,-3.451911990248970885e-02,-4.745546336987127578e-02,6.046013929462745523e-04,-2.221567605418350681e-03,-1.709628662289574457e-03,5.525451302528381348e-01
3.846242715143701751e-01,-5.195768507199466368e-03,-3.833143437073444071e-03,2.683812540755022708e-02,1.189789160299094262e-02,-4.187419465866904465e-03,3.925155699253082275e-01
3.227274411371322538e-01,1.881939991829492675e-03,1.913584864474279779e-03,-1.777655491244041703e-03,-1.329048266350850221e-03,2.886734569946118253e-03,3.208916783332824707e-01
2.292908447766277280e-01,1.588422066581729464e-02,8.640067677550364311e-03,1.668952521120937310e-02,3.458338414482455686e-02,-1.504677596358847558e-03,2.270930707454681396e-01
5.167984341425757577e-01,-4.520146239980649128e-02,-4.014754952231325280e-02,-9.345168064886864162e-04,5.028048294569573617e-04,8.158836920605736648e-04,5.594948530197143555e-01
2.448064877045078858e-01,2.121819400766021546e-02,1.803621332254423670e-02,-3.781922103824897959e-03,1.339136847353898131e-02,7.703386771274053739e-03,2.268749177455902100e-01
2.823670686355559400e-01,1.196513729840051332e-02,9.135413841812725644e-03,4.558994011166823024e-04,1.299080358092355447e-02,-6.411925047142737210e-05,2.727586627006530762e-01
2.855086544871067167e-01,1.643455600352246304e-02,1.475253398098202995e-02,-1.337077360603567376e-02,-2.227316985839917097e-03,5.517966254404722132e-03,2.711067199707031250e-01
5.260654862093716577e-01,-3.046384838324844857e-02,-3.322551294933215327e-02,7.582799835933407223e-04,-7.531243901894909686e-05,-1.493357734563563249e-03,5.579228401184082031e-01
3.340487199104152372e-01,-1.681429957360133787e-03,-3.737511224662926068e-04,-3.476793098354284944e-03,4.156271990555978485e-02,-5.252079257510491872e-03,3.428976833820343018e-01
5.211469145402566339e-01,-3.272621597759428624e-03,-3.243068926937503482e-02,-1.858788859464308857e-03,-6.348501940013637559e-03,1.432768882549715315e-02,5.402815937995910645e-01
6.210886980143702774e-01,-2.677103872603942003e-02,-4.767457455057799720e-03,7.935046364119286225e-03,1.578507941227752509e-02,5.767200965748221081e-02,6.456514000892639160e-01
5.207548141459940050e-01,-4.454307023064724147e-02,-4.056389689341569071e-02,1.677435251909279476e-04,-1.634653905074879210e-03,-8.084029493176547732e-03,5.634999871253967285e-01
5.087402936175855483e-01,-1.075597047762391623e-02,-1.381724288222721531e-02,-3.243778814287017566e-05,-8.949429093446610107e-04,1.724283758823427987e-03,5.210444927215576172e-01
5.400000837956093758e-01,4.711408561402785633e-03,-1.985595049986185745e-02,-9.908314885840718150e-03,-7.851681251632417272e-03,1.902704510272075142e-02,5.494121313095092773e-01
4.898508821842266769e-01,-2.808215709182684816e-02,-4.827302332617591785e-02,2.183419377692362440e-03,-8.344844382675195267e-04,-9.108261130432402167e-03,5.285689234733581543e-01
5.331122688484781769e-01,1.608213865246518881e-02,-2.922803859383629743e-02,-9.621114338123886583e-03,-3.613023523764843925e-03,2.499884250000680361e-02,5.431312918663024902e-01
5.229824126127198269e-01,-3.070833118981708409e-02,3.882823078707103859e-03,2.711985504518935400e-03,2.472610147793304156e-03,1.928172547472415885e-02,5.383056402206420898e-01
5.302806192698191756e-01,2.897591667143345484e-02,-4.725558047555780683e-02,5.412020267578850595e-03,6.967206024475033205e-03,9.673541460394582611e-03,5.439182519912719727e-01
4.941679038888683873e-01,-2.370369797387686384e-02,-5.691161844681166815e-02,-1.846145232860818834e-04,-1.755118835115281571e-03,-1.646476266986129618e-03,5.352650284767150879e-01
5.174792947905026974e-01,-2.429489137541504529e-02,-1.700590926918979506e-02,-1.789226454563591726e-03,-2.030859715789389008e-03,2.736266994059917933e-03,5.382080078125000000e-01
5.264810821351179060e-01,-3.607643108541189192e-02,-3.487376982550588478e-02,5.377052823593026897e-04,-2.069013472583071389e-03,-1.873906112553190562e-03,5.619786977767944336e-01
5.806279647268007826e-01,-4.722353853708285976e-02,5.108542277048239155e-03,2.035460636320658712e-03,-5.348034734941594336e-03,2.764545831640019199e-02,6.053680181503295898e-01
3.167705852071786010e-01,-1.468869090308140557e-02,3.989340249172149133e-03,-2.857607815119854108e-02,5.864029335878801971e-03,7.823512136274012388e-03,3.267409801483154297e-01
5.122970440446283913e-01,-2.466761795219316045e-02,-2.002126154546055026e-02,-7.347140950303716195e-04,2.801042146844795119e-03,2.481674966358744013e-03,5.346974134445190430e-01
5.074586579818152199e-01,-2.935564891307307356e-02,-5.094574807082213885e-02,1.552690033400865640e-03,-4.536223457504364072e-03,-1.631047630601416840e-03,5.479986667633056641e-01
5.270788964781467634e-01,-2.220634373200253142e-02,-3.464949288818816586e-02,3.030166308213259538e-03,-4.440385782126582068e-03,1.403290536707220296e-03,5.556946396827697754e-01
5.171921144027613604e-01,-1.040713923620664727e-02,-2.499921102563090747e-02,4.749407282091971830e-04,-3.504709058231049272e-03,2.501097592119813119e-03,5.350971221923828125e-01
2.540683186808521121e-01,2.230812978863710994e-02,-6.223698726616627708e-02,-1.110478040528880134e-01,1.159599599360168487e-01,-4.370023965191384419e-02,4.043747782707214355e-01
5.152004425773586416e-01,-3.918087373991671618e-02,-4.322412825105401146e-02,3.608250019992185012e-04,-7.952661847856519342e-04,5.992572502025711846e-04,5.564169883728027344e-01
4.840719794137443577e-01,-4.860392818304612450e-02,-2.307269304664658072e-02,-9.144279149694195573e-04,-1.122349054632232031e-03,8.116543887036900898e-03,5.205761194229125977e-01
5.026231734125098383e-01,-5.679708006454420310e-02,-2.430249097185568918e-02,-5.627500646381909492e-04,9.095441220021570252e-05,-1.060986055238206027e-03,5.439054369926452637e-01
4.842928865512745040e-01,-4.414860293795822010e-02,-2.939325888644161999e-02,1.501125612018059568e-03,1.081122617157020916e-03,8.742033921207308100e-03,5.214502215385437012e-01
5.228508584356823530e-01,-2.873027673710268348e-02,-2.776768668758394787e-02,-1.121106796447924074e-03,-1.139168824114064832e-03,1.705227393327419811e-03,5.511153340339660645e-01
5.156906055288849045e-01,-3.719520188085109758e-02,-4.493411473391492605e-02,-1.063107395250548421e-03,-9.592036260511236463e-04,-7.215538249443131588e-03,5.569413900375366211e-01
4.154453454016369673e-01,-3.950050147467998318e-02,-2.071236629601597157e-02,-4.806210288400294961e-02,4.041133516232668643e-02,5.946013797802253073e-03,4.590384662151336670e-01
2.956175031673560216e-01,-1.687677352853793333e-02,-3.206746304731598884e-02,7.487745180138152823e-02,1.453426435578392996e-02,-1.595817314554846822e-02,3.476320803165435791e-01
4.244969972412397374e-01,-3.207114267523511475e-02,-2.708803149610730654e-02,-4.391051149264515313e-02,-4.607578199044271017e-02,-6.188045493057882374e-03,4.674102962017059326e-01
2.515680970191419563e-01,3.360111439550998724e-02,-2.779080405783561358e-02,-1.166268720197704140e-01,1.380630739771947398e-02,5.110166771694259896e-03,3.257539570331573486e-01
4.877003223160078504e-01,-4.796446189088809930e-02,-3.004469454328126399e-02,-7.464019954114160631e-03,4.391717893767146073e-03,5.664318281172035958e-03,5.272382497787475586e-01
3.749986758881435067e-01,1.159515918126054201e-02,-7.124664041529074621e-02,-1.389493325256702660e-01,-2.700340582574142084e-02,4.796940827831263493e-02,4.858408868312835693e-01
4.210822933816550928e-01,-4.366034283978711961e-02,-1.085619912178686919e-02,-5.126610314653703288e-02,-1.043206339595650900e-02,-5.423854476817731004e-04,4.582884907722473145e-01
5.141655175294994606e-01,-1.582266699139414645e-02,-1.961157380359679347e-02,-2.767435128235823288e-05,-2.711523673838688812e-03,7.553719735184515234e-04,5.319151282310485840e-01
5.299011184659844220e-01,-3.894780898442840034e-02,-4.008759926438712484e-02,-3.135365995547658075e-04,4.824087191504288570e-04,-1.266317864438063759e-03,5.694247484207153320e-01
3.897967312606985257e-01,-1.578921233031224669e-02,-1.297483549726133334e-02,2.886373143931845325e-02,1.966168373746866524e-02,-2.696315615545940517e-03,4.087142050266265869e-01
5.263382075701277252e-01,-3.406634929138452339e-02,-3.557482514004545182e-02,-3.424969043638461264e-03,-9.521572337703367722e-04,-1.627602405399772799e-04,5.611941814422607422e-01
5.265161542789340565e-01,-3.144522301869442926e-02,-3.700380428030081159e-02,-9.667957841273655799e-04,-7.280827668012372926e-05,-1.440385683781871375e-03,5.607693791389465332e-01
5.268153489359406194e-01,-3.776527038373558853e-02,-3.332984910859565497e-02,-3.168889962307261474e-03,-8.290930188870327376e-05,-2.036364538910029592e-03,5.624138712882995605e-01
5.203286875652205490e-01,-5.480110188824383055e-04,-3.131033689414611243e-02,2.221158909011999773e-03,-4.149361516595100746e-03,4.774982992777135338e-03,5.370447635650634766e-01
4.760649878281480452e-01,-5.041808197139099890e-02,-1.880083612372113189e-02,-2.690847392456287420e-04,-5.565744887279797451e-04,-1.054054912669355904e-03,5.114123821258544922e-01
5.308181401665119648e-01,-3.940064393390210751e-02,-3.943949363361828886e-02,4.369144376144982393e-04,2.158693294918220803e-09,1.748593684194337349e-05,5.702387094497680664e-01
5.256888327134803252e-01,-3.348926145028988111e-02,-3.427234029635040091e-02,-2.581407200621697179e-03,-4.163537240035882804e-03,-1.290757864829870059e-03,5.596388578414916992e-01
5.238561956657179497e-01,-2.869761948334056956e-02,-2.908711045103737347e-02,-2.316571088078592071e-03,-2.493889899889726106e-03,-1.787614319754044062e-05,5.527800917625427246e-01
5.273835768427486137e-01,-3.501220876190219711e-02,-3.515030843889543899e-02,5.677813922257550798e-04,-2.145051763306127755e-03,-1.638486865066517313e-03,5.624851584434509277e-01
4.910754612445493161e-01,-2.208528649947780198e-02,-4.662672629464295615e-02,-1.771520278610605112e-02,-2.422741338203745348e-02,5.553505934798901728e-03,5.285119414329528809e-01
4.900564033343070558e-01,-4.883674163853912731e-02,-3.255713022359441045e-02,5.835688116434913694e-04,-2.994090064638140359e-03,-7.807574801825555022e-03,5.311390161514282227e-01
4.696018193059933177e-01,-4.940790318071242027e-02,-2.285470306114389949e-02,-1.620750628958425241e-02,-3.780418242487642612e-03,-6.360733642135154436e-03,5.071953535079956055e-01
3.721812706770888379e-01,-2.632996592414965642e-02,-1.699589299336876080e-03,2.158876549984380198e-03,-2.558441086012532006e-03,7.615264730828749142e-03,3.870529234409332275e-01
5.148239776139713619e-01,-1.702811672931253684e-02,-1.545839280110675173e-02,4.069823333133405926e-04,3.633206188297754928e-04,-7.801461070918911354e-04,5.310715436935424805e-01
5.111828161202509602e-01,-1.324258714024348360e-02,-1.392592714944157484e-02,-9.626118301542829249e-04,2.262376254671369033e-03,1.973633146900385330e-03,5.247958302497863770e-01
5.160352556824929771e-01,-1.791204640201757292e-02,-1.772328281309135112e-02,2.300979761742278935e-03,5.407522749754119359e-04,-6.913359933425075078e-03,5.340029001235961914e-01
5.123332928424986221e-01,-1.569919598759073054e-02,-1.374846227777648533e-02,2.444487049945807543e-04,-2.797723819791627818e-04,-4.501193874550872922e-04,5.270608067512512207e-01
4.623395652890555096e-01,-2.139016583130284865e-02,-3.578758920761271334e-02,-2.621336253409640646e-03,-6.716908176958803680e-04,-7.722782729106908613e-03,4.912912547588348389e-01
5.165577678893138458e-01,-2.264762929658156732e-02,-1.778392621459651268e-02,-1.067464650711612371e-03,2.276988936346878260e-03,-9.341382510799907217e-04,5.368101596832275391e-01
5.229632755158486468e-01,-3.175104937036271613e-02,-2.599066297142149651e-02,-2.843059056684128522e-03,3.304537901869319754e-04,3.323080564916661584e-03,5.519089698791503906e-01
5.597427839335519240e-01,4.259003278878847887e-03,-6.339853985076465692e-02,-5.868837768321305548e-02,-8.741101458375657995e-02,6.393471944574363741e-02,6.294763088226318359e-01
5.145657862707505581e-01,-1.863651739458141443e-02,-1.153324387572107756e-02,9.172062460376666671e-05,1.071084826391550330e-04,-5.244262025928404791e-03,5.297642946243286133e-01
5.228188720839127557e-01,-4.077370352914630458e-02,-3.814945284377335710e-02,2.773813261847742680e-03,7.402038965374488138e-04,-4.940208302692344032e-03,5.623721480369567871e-01
5.091141888775025937e-01,-1.072722122155433944e-02,-1.396789607318585369e-02,-1.059978890034330573e-03,2.391493797473519351e-05,1.774663445975762071e-03,5.214815735816955566e-01
5.247155798510506619e-01,-3.456534565975408202e-02,-3.420787387944002056e-02,-3.000211276054087599e-03,-4.391483829709997601e-03,-3.506445503684308009e-05,5.591781735420227051e-01
5.186708473892597260e-01,-3.631779758145667336e-02,-3.484434089203752860e-02,1.950235995095312173e-03,-1.591832572125472054e-03,-1.666592426229824599e-03,5.542780756950378418e-01
5.249671450737491973e-01,-3.816479331297395472e-02,-3.517929418200380076e-02,1.662205682271795633e-03,-2.876217107751174226e-03,-1.401626725684524191e-03,5.616798400878906250e-01
5.273222803532662262e-01,-3.832182652456128658e-02,-3.673228681218168590e-02,-4.691006587131552746e-04,-2.933639499972218829e-04,4.044000566145833733e-04,5.648522377014160156e-01
5.175542170461766567e-01,-2.363644613856868970e-02,-1.033945153701440467e-02,-3.957351773396190417e-03,1.452946513063414118e-03,1.609353366044196688e-03,5.347232818603515625e-01
5.152889112744667433e-01,-3.620806868485104690e-02,-4.242954472565921287e-02,-1.432434778412798636e-03,-1.920497993718337827e-03,-5.506943194611688998e-03,5.547314286231994629e-01
5.035546708127515148e-01,-3.306391183985588067e-02,-4.498337500720003823e-02,2.209143885626429701e-02,3.791466891878868956e-02,3.616271605238973418e-04,5.479733943939208984e-01
4.873007801663910565e-01,-6.708806377121773190e-02,-3.110875562504852865e-02,3.728926412170856936e-02,-6.024003630510071927e-02,-7.323452923300233404e-03,5.512838959693908691e-01
5.109475078084285693e-01,-3.696395627328596944e-02,-3.527209684033730253e-02,1.199435836138780000e-02,-1.922758976259907049e-02,1.649932977914990960e-03,5.484812855720520020e-01
5.000309207834408021e-01,-4.146703848548105587e-02,-2.020830620919933374e-02,1.971144602346290575e-02,-2.894515284431753085e-02,5.610385126619693748e-03,5.347279310226440430e-01
5.082246510450201260e-01,-3.071934917190086156e-02,-3.883687618483538939e-02,2.404754412173254127e-03,-2.537810970619135825e-02,-8.557525589957483327e-04,5.448423027992248535e-01
5.157346844263857033e-01,-4.381532045452049551e-02,-7.209645011288845495e-03,4.715520213021850114e-03,-9.762934839968252093e-03,-1.178185276445107036e-03,5.425037145614624023e-01
4.838971732231576173e-01,-2.566517155379885451e-02,-5.542284166150882041e-02,1.114698979520315630e-02,-1.692435848201748194e-02,-9.202774923854166716e-04,5.262483358383178711e-01
4.998685480489579169e-01,-3.622329472385868443e-02,-3.342057399446449195e-02,2.239204944793919683e-02,-7.409394434249697015e-02,2.042631288411019073e-03,5.512588024139404297e-01
4.811665395635321696e-01,-2.936833472666969258e-02,-3.782712356104842022e-02,2.833589213906312007e-03,-2.327776450209831025e-02,-7.910126420816489257e-04,5.164179205894470215e-01
6.141082087637885767e-01,-8.226260715456368278e-02,4.800477976621461695e-02,1.569137973178407613e-02,7.694047058779658610e-02,1.013160312759391925e-02,6.557390093803405762e-01
6.277745786141097906e-01,-8.399519992382681322e-02,1.548113930804975724e-02,1.704475333243010357e-02,9.567030962026551108e-03,-1.150619589007452481e-02,6.687681674957275391e-01
6.300156093449613692e-01,-7.242522328941991550e-02,1.649552529810088819e-02,1.156461690071176537e-03,7.671702710593885678e-03,-2.990514064844253337e-03,6.626279950141906738e-01
5.243514360359229354e-01,1.160087755468586224e-02,-4.028471082254808655e-02,-8.306672647171041771e-03,2.859581477738752132e-03,4.133820978394683703e-03,5.408256649971008301e-01
5.674043505646299002e-01,-6.716206166624427709e-02,3.934218965112062927e-03,-7.785357371214732258e-03,-2.808012172491632878e-03,1.308146592295540006e-02,6.027709245681762695e-01
5.549696646719521897e-01,-7.786418262687799796e-02,2.258139040117709828e-02,3.825465618698451961e-03,1.358732747803425012e-01,7.379884507429002212e-03,6.345034241676330566e-01
5.133633494187992419e-01,-1.824208292292769928e-02,-2.456084886605519602e-02,1.834374935878487715e-03,3.358942658114129668e-04,1.192178050086076897e-03,5.348065495491027832e-01
7.530625618784916320e-01,-9.674513956394326097e-02,9.999247207473221932e-03,4.099840030761682519e-02,5.802256840492894807e-02,8.653776659725970211e-03,8.113090991973876953e-01
5.102858521338669018e-01,-1.359210019564646710e-02,-1.379675321553891498e-02,2.429982113826778967e-03,-1.173564103832628030e-03,1.766606831531023500e-03,5.240100622177124023e-01
5.138727841935814000e-01,-2.094619243168843736e-02,-2.457468647169905318e-02,-1.527767280795371951e-03,3.768345216858217349e-03,2.161986135030675299e-03,5.367016792297363281e-01
5.383285469032885739e-01,-6.739420402976922797e-02,3.096925717887680229e-02,7.244648694266372056e-03,6.028579253019325165e-03,2.168742852464510332e-02,5.645103454589843750e-01
6.134112096711890061e-01,-7.109389027882762058e-02,2.678660529605467189e-02,-6.591037706835722008e-03,-4.881507887330356101e-03,1.984307231856411585e-02,6.422703266143798828e-01
6.274487954543378487e-01,3.703076876778571558e-02,-7.296028696984174777e-02,-5.942624889902815150e-02,-7.144474819271290182e-03,3.128155346951251581e-02,6.628087162971496582e-01
5.023260002928471302e-01,-4.969515045346334370e-02,-3.081882695890678092e-02,-7.759802480158821229e-03,4.541586374039771612e-03,6.001492570951718827e-03,5.431520342826843262e-01
5.483742653233347752e-01,4.397707081275878394e-02,-4.477339051956646943e-02,-7.924773388175930175e-03,-8.031186466137754318e-03,2.950562732443417352e-02,5.568234324455261230e-01
6.171928660296446267e-01,4.131332187305683523e-02,-7.437923886232078452e-02,2.366319823131026595e-02,-8.687911064807520012e-03,3.901073232633368859e-02,6.466210484504699707e-01
6.320664167302039171e-01,5.215657665992912140e-02,-7.795901223654472245e-02,1.032915396235443845e-01,4.128767203696265264e-02,1.923593180623490648e-02,6.833097934722900391e-01
2.204309524314164714e-01,4.682995889774048404e-03,-3.977178491231131430e-02,-8.544919313721793808e-02,-3.321192116937373567e-02,2.449613304364929925e-02,2.917677164077758789e-01
4.992176912022558422e-01,-5.183260485094193237e-02,-2.606581332365878745e-02,-1.125529051887559293e-02,-1.409347291550521386e-03,-2.012755742231122670e-03,5.389987826347351074e-01
4.585247103827998494e-01,-4.343094286835635920e-02,-2.131374742854003079e-02,-1.895766425302862837e-02,3.601125105105783611e-03,5.316529072416343281e-03,4.924923181533813477e-01
4.917145296447762992e-01,-5.886347000628389114e-02,-2.406222911629696259e-02,-4.361559629401901353e-03,-5.033451498145087664e-04,-1.608258471100793355e-03,5.340899229049682617e-01
3.813613839221040025e-01,-3.243146295762272535e-02,-7.310002419566793974e-03,-2.537260058843527136e-02,-6.701559469423596510e-03,-3.610449221526204015e-03,4.044325351715087891e-01
5.150649712482278098e-01,-3.414028637085847473e-02,-2.911649313264069727e-02,-6.401048287274023040e-04,2.075448479533998150e-03,1.286284820203152093e-03,5.467281341552734375e-01
3.756926328131787729e-01,-2.846856471748657191e-02,-5.796271693662979896e-04,-2.236585323840318065e-02,4.428613862874682811e-03,4.680869730834552427e-03,3.930365145206451416e-01
4.961067028480175556e-01,-5.330477838713434946e-02,-2.821477602508223881e-02,6.683666355308167002e-03,-1.348998294404818573e-04,5.375251387831403438e-03,5.375114083290100098e-01
3.834621103260555941e-01,-3.170623626738558465e-02,-1.306807882979516000e-02,-2.719392544222312344e-02,8.658433320858131832e-03,1.169529666276687696e-02,4.096680879592895508e-01
4.577883070155483458e-01,-4.374241864350020270e-02,-2.959178977783782916e-02,-3.969028735824809556e-02,2.985700064109577181e-02,-3.396467756120744377e-03,5.020669698715209961e-01
3.742635162392818904e-01,-3.222090083790146720e-02,3.920313640069367223e-04,-2.679875321291898954e-02,-4.509187594952069819e-04,-4.680664628856484317e-04,3.939445614814758301e-01
5.239233737197003249e-01,-4.865353569734229278e-02,2.179836270817978039e-02,-6.286138307460362867e-04,-4.402492742783700036e-03,-3.541920805817587621e-03,5.408933758735656738e-01
5.109865779305811095e-01,-3.543137537591536934e-02,-4.274056113478105767e-02,-2.223761686231577953e-04,-1.702629366688434816e-03,-3.281805773172349980e-04,5.501173138618469238e-01
5.429311196116530791e-01,-5.684115850813642457e-02,2.989349649259787078e-02,9.259891982516288075e-03,-4.105313388077249347e-03,-1.128422640367881917e-02,5.620661973953247070e-01
5.159768120414673920e-01,-3.670551852827103056e-02,-3.499887296444081919e-02,-1.400009553954179422e-03,-8.128914884010572748e-04,1.636789682892196389e-03,5.518453717231750488e-01
5.766154656585933402e-01,-4.671406824996973683e-02,-1.214283212718614280e-02,-8.121655529795512862e-02,-1.348900782615804761e-01,6.156299848134455521e-02,6.737432479858398438e-01
5.563813205094456649e-01,-6.183270044676536514e-02,4.976140514465518527e-02,1.629747986423239411e-02,-8.993035349155670266e-02,-2.496883494530615505e-02,5.937864184379577637e-01
5.075322092927030404e-01,-3.355681195132320660e-02,-4.729518007311475647e-02,-1.049217287075861638e-03,-3.196634589467851981e-03,-1.525226742268195879e-03,5.481247305870056152e-01
6.124905342973878675e-01,-5.576638557246291206e-02,1.007996293668381171e-02,-6.062281492715096247e-03,-5.856740523064860558e-03,-9.943596544336248677e-03,6.382871866226196289e-01
5.112406121330805853e-01,-4.332748860082052955e-02,-3.918408228983230601e-02,1.825016833699859417e-03,2.372832982996259652e-04,-7.054461219371950228e-04,5.525186061859130859e-01
5.153917667420713222e-01,-4.013843567931427159e-02,-4.121632897151880637e-02,-8.540232258587392416e-04,-7.085660470017352865e-04,4.871578186121873662e-04,5.560739040374755859e-01
5.141299067520535004e-01,-3.666670776873126592e-02,-3.634977183965434899e-02,2.079908323441731835e-03,-1.836701676644493628e-04,-4.879001964224462750e-04,5.506507158279418945e-01
6.150788825432493834e-01,-8.150083350635073387e-02,2.598989126407147410e-02,1.596839750827875118e-02,-3.567825651661919728e-02,-7.121275776471930796e-05,6.530585885047912598e-01
5.591566894973152291e-01,-8.170724331135337248e-02,4.259647287685353056e-02,2.225718824646852681e-02,-1.835131774465600420e-03,1.066070532252496109e-03,5.899117588996887207e-01
5.311872419428311787e-01,-5.479503121579082370e-02,6.628452281911167976e-03,-2.732526039987362692e-03,6.637969449609597457e-03,3.959941669242899621e-03,5.579934120178222656e-01
5.198101131117993656e-01,-2.890260472936651004e-02,-2.940194193211978502e-02,-1.926233675317310387e-03,3.817921327666054607e-03,-9.787526698222237791e-04,5.490151643753051758e-01
5.180844763641829775e-01,-3.674753770167873967e-02,-3.291593171102075166e-02,4.477225425079393167e-03,-5.466477930790617293e-03,1.528700791669224991e-03,5.530679225921630859e-01
5.085788741620846931e-01,-4.546419687344827043e-02,-4.113520933990744144e-02,1.189740490511255640e-03,9.804756908480388982e-04,-5.372444971902495640e-03,5.519762039184570312e-01
5.156532537939360061e-01,-3.909839229108058589e-02,-3.425586316087594896e-02,2.184681256195584662e-04,3.933537514172624587e-03,4.518896476706878835e-04,5.523890256881713867e-01
5.185804271863414527e-01,-3.110276032554698533e-02,-2.573604740736876173e-02,-1.038341059741232277e-03,3.156121824715793934e-03,-5.677010855174751455e-04,5.470507144927978516e-01
5.177815892671729925e-01,-3.333085985946446228e-02,-2.902945374000631684e-02,1.196057335056406384e-03,-2.074247636982255120e-03,-5.186892754349772556e-04,5.489907860755920410e-01
5.006473374347102379e-01,-2.337661776699595517e-02,-5.650063621546155823e-02,4.185232554573098916e-03,-5.682910632467250665e-03,-5.633333296181252834e-04,5.414854288101196289e-01
6.184628845909396766e-01,-8.317824462736556068e-02,4.722091421125651500e-02,1.362308502811245339e-02,-1.115824390153053944e-02,-7.163788311008120226e-03,6.472210288047790527e-01
5.151869555644992271e-01,-4.360246694103828147e-02,-4.291141271271711743e-02,-2.657900856960975855e-04,3.189924488448727344e-08,-4.267498923728173265e-04,5.584449172019958496e-01
5.062485941890104701e-01,-6.376057583529393114e-02,5.271424585648672168e-02,-2.134249444799710474e-02,-1.406917576626457445e-01,1.845731551285046887e-02,5.778028964996337891e-01
5.045766469622480210e-01,-5.344395076012908863e-02,-3.043697313728757625e-02,-1.315332773190948620e-05,-1.307289402051111532e-04,2.727676571347236074e-03,5.469006299972534180e-01
5.779155532004441875e-01,-6.504613338451545324e-02,1.081473835281313023e-02,1.786691728813140454e-03,-3.695194258797839665e-03,1.331397541290444721e-02,6.090658903121948242e-01
5.332585918608701014e-01,-4.979691408678146858e-02,-1.707677932819645639e-03,-4.384862459039780801e-03,8.500094423004684804e-03,1.209960630069596699e-02,5.611962676048278809e-01
7.611637149983510042e-01,-3.945351027894561380e-03,-6.091429420684696394e-02,-5.616147750371196928e-02,-1.989561482640821513e-02,4.467013407206208569e-02,8.055190443992614746e-01
5.532645386655757891e-01,-5.550739236083415684e-02,2.994226442742989325e-02,9.332841576741699244e-03,-1.719052022377168254e-02,2.768908882379866182e-02,5.738758444786071777e-01
5.089814776020682441e-01,-4.573940841512408317e-02,-3.487574028333492726e-02,-4.928738345738546515e-03,3.638896719754179405e-03,1.811738703066244132e-03,5.494810342788696289e-01
5.157135339777896288e-01,-3.196522691625247603e-02,-3.550604751423994121e-02,-3.663808256838935163e-04,-4.158164002659560723e-04,-6.512564239298095645e-04,5.494596958160400391e-01
5.711589577856885924e-01,-6.176994989766473876e-02,3.408492974252935737e-02,2.724288194866974176e-03,2.771133843860086252e-03,3.184969436793613079e-02,5.934697389602661133e-01
5.273964767995299452e-01,-4.148841016428383988e-02,-3.899871852511763159e-02,-2.733755941695094338e-03,-2.909672626208637761e-03,-2.427435042039976457e-03,5.677018165588378906e-01
4.250940525868565079e-01,-2.128611025968177306e-02,-3.202671380701513359e-02,-8.093807353191946185e-05,-1.576859004941379150e-02,-1.348399059785858160e-02,4.532729983329772949e-01
5.024152210062595714e-01,-4.190830879396986730e-02,-3.703552491690900728e-02,-1.734884374293120535e-02,-7.770878020063373866e-03,-9.541647107611159889e-03,5.431544184684753418e-01
4.467573034986493385e-01,-2.101990985683091506e-02,-4.530355224394486124e-02,-9.445063616716592794e-03,-9.851866949942606269e-03,-1.046453183429914627e-02,4.813022613525390625e-01
4.621342032925249699e-01,-3.712933574297327954e-02,-3.259371578395189872e-02,-2.619199622219329140e-05,-4.899500688151430146e-03,-1.224976277416662748e-02,4.975363016128540039e-01
6.226825095296009138e-01,-2.863592048720076111e-02,1.090956512062318806e-02,-6.975839868181527015e-02,7.840698716705117588e-02,-4.839904091346880488e-02,6.633942127227783203e-01
5.136710343713675186e-01,-1.023521007446329123e-02,-2.064874695659252302e-02,4.748165050167065426e-04,-2.914119375302213089e-03,2.500456251704642665e-03,5.292323231697082520e-01
4.779583683796639892e-01,-5.166859544205440469e-02,-1.390757280260895845e-02,6.671224634859077756e-04,-3.891818642017003268e-04,4.527683610961703332e-03,5.118541121482849121e-01
5.222414734305844686e-01,-4.107883077145094153e-02,-3.574725878657519784e-02,2.427812298216200110e-03,-1.171279010007998667e-03,-8.203765147938353207e-04,5.606947541236877441e-01
5.018643214847222644e-01,-5.418932251708977188e-02,-2.765778385988257315e-02,2.409210554878720833e-03,1.644959764039560009e-03,5.102146091995978221e-04,5.432981848716735840e-01
5.378196558296426399e-01,-2.536314344716483760e-02,-1.580016716817478351e-02,3.931462758703494279e-03,3.636781187423545388e-03,-1.360202356882744129e-02,5.590364336967468262e-01
5.791765622427493820e-01,-2.042612470999960461e-02,-2.557281349332024556e-02,-4.038331261524357764e-03,-5.457169061109805146e-03,-1.113517420940937988e-02,6.026160120964050293e-01
5.183110116045221982e-01,-1.977354381080073664e-02,-1.143893097345952126e-02,1.942500457639423318e-03,1.019982876502922766e-03,-2.785779836444368142e-03,5.340013504028320312e-01
4.851103081765553715e-01,-4.867127384247837973e-02,-3.196069223756178856e-02,-5.841891662448848559e-05,1.961262774788031442e-04,5.243043218496040887e-03,5.257040858268737793e-01
5.195115167188528726e-01,-1.345694530739258155e-02,-2.106332175846137300e-02,-3.159443620957951026e-04,1.162851640734561664e-03,-3.343278499890512973e-03,5.368473529815673828e-01
5.130923273979729471e-01,-4.198241846821298973e-03,-2.056193922661439522e-02,3.328870956558047556e-04,-5.888801840643075915e-04,3.811605914279587396e-03,5.257062315940856934e-01
5.533463791842838653e-01,-7.675246738579055705e-04,-4.462134409028140070e-02,6.243503697897861103e-03,4.496655414613449052e-03,-1.930851509821467776e-02,5.784128904342651367e-01
5.327219756922809690e-01,-1.129914290067218774e-02,-1.670380174906252457e-02,-6.423612332745388953e-03,8.124697500427704652e-03,-2.234804939570691346e-02,5.484054684638977051e-01
5.191860357053219577e-01,-2.305740042778653409e-02,-6.087324479697148183e-03,5.471722575052837857e-03,-3.617862623618158750e-03,-7.797635208862001288e-03,5.342522859573364258e-01
5.096774301712552191e-01,-4.055216681398160494e-03,-1.878168652729822474e-02,3.803398505587256024e-04,-1.458675287615239556e-03,3.790856645517348342e-03,5.212998390197753906e-01
5.038795284077641767e-01,-4.866240226939391733e-02,-3.392752179550939662e-02,2.166747308490741750e-03,2.188387387294376228e-03,9.056870943857149190e-04,5.453521609306335449e-01
4.790744979360092026e-01,-3.775245677753877316e-02,-3.531404354490466635e-02,1.267107653119841151e-02,-1.299375957956254814e-04,1.006906508003953607e-02,5.163735747337341309e-01
5.227121665988950783e-01,-2.413131884239036462e-02,-3.125744748842398946e-02,7.710746209881638421e-04,-5.474670658162262595e-03,-6.131312879700493313e-04,5.505254864692687988e-01
5.206677469740546016e-01,-2.497894515812054683e-02,-1.769711037555157795e-02,3.613691849544263535e-03,-1.750566678909884098e-03,-1.240447743444249946e-03,5.420913100242614746e-01
5.147837932077490297e-01,-3.280053138932501056e-02,-2.666520194329422000e-02,-2.329924913891458802e-04,9.844517602516620908e-04,1.022964612031618649e-03,5.445482730865478516e-01
5.250365169280337696e-01,-2.385293120136286471e-02,-3.568510783654860186e-02,7.187093590220615738e-03,-1.549575410378015725e-03,5.222875215472329953e-04,5.550469756126403809e-01
5.123366780655029817e-01,-1.337834655096933889e-02,-2.445790241787648700e-02,-1.472294362900852674e-03,-8.307379853942601245e-04,1.128618689384441745e-03,5.313531160354614258e-01
5.458935572550379645e-01,-3.647065061175172596e-02,-2.701779766268097571e-02,1.146277157102840692e-02,9.622130641117301181e-03,-1.824908453887787857e-02,5.791402459144592285e-01
5.145392807079717246e-01,-3.824088661997548932e-02,-3.046092277268949711e-02,-2.001018451598800697e-03,1.924896794355674279e-03,9.976206606889454539e-04,5.489553213119506836e-01
5.216768288450301938e-01,1.803311642436988826e-02,-4.010410138474476693e-02,3.188979537694661571e-03,-2.767961078179942760e-03,4.519128227853276905e-03,5.351935625076293945e-01
4.816877922336251783e-01,-3.491302293682274627e-02,-4.216200822259244529e-02,1.519839581934552021e-04,-3.463469145117133424e-03,-9.051025838769089643e-03,5.205339789390563965e-01
5.161568813445909232e-01,-1.347490835517686780e-02,-1.909937373839401542e-02,4.787769275245712386e-04,4.479591513443049143e-03,3.326658730092683491e-03,5.325546264648437500e-01
4.712145337999241734e-01,-1.204741967754652254e-02,-5.257239271185998319e-02,-4.315957728209278074e-03,-1.950414074429154820e-02,-6.359911353652734911e-03,5.060504078865051270e-01
4.967517344372268107e-01,-3.192859062969632955e-02,-4.633066374934569076e-02,-2.173563904362056480e-03,-5.836810304555730029e-03,-4.279785578651788304e-03,5.361862778663635254e-01
5.059677134024005429e-01,-3.240759390936323592e-02,-4.989428106803392438e-02,-2.146392625688665814e-03,-3.808644096510101478e-03,-4.747150957209522043e-03,5.474423170089721680e-01
4.837465742142996183e-01,-2.621835058973595589e-02,-5.385750357229518448e-02,-1.660571506156553975e-05,-8.683479513684056253e-03,-5.249421250362250671e-03,5.246255993843078613e-01
4.652227271087420735e-01,-2.695972190360709786e-02,-4.441329033091273581e-02,8.398315024420944163e-04,-1.529432207029818823e-02,-1.067550977811853458e-02,5.021795630455017090e-01
5.145012383179967674e-01,-4.264558271237514631e-02,-4.294808482386483495e-02,6.317713662053797067e-05,1.141504660102891401e-03,2.093823580246142665e-03,5.573134422302246094e-01
6.692541885211309438e-01,-8.712555013765227452e-02,2.012482402115242652e-02,-2.329511582265038350e-02,-1.376155567249201517e-01,4.089548648299069084e-02,7.522967457771301270e-01
3.346079533173019205e-01,-1.713058450776465402e-02,-4.328191963564695377e-03,-1.911531912453303186e-03,-2.774323036857220814e-02,-7.605835737532832576e-03,3.491050899028778076e-01
5.111470957711516938e-01,-4.624749532190719492e-02,-3.445032004091802547e-02,-2.355306879205970334e-03,6.087998931724547622e-04,-1.708663034649600702e-03,5.516146421432495117e-01
5.603196929742987331e-01,-2.641712728493333939e-02,-5.382389979563309557e-02,3.735371933657561771e-03,-1.506681339150833451e-03,-8.291946932644593191e-03,6.011212468147277832e-01
5.562584983525291626e-01,2.652807915889587864e-02,-6.747055986709468711e-02,1.398027257982299709e-01,2.429014033686233837e-02,-1.427193207361653234e-02,6.326606273651123047e-01
5.310835718880290157e-01,3.442706122480709841e-03,-3.934597732552136407e-02,-2.695557808694979806e-03,-6.439449368922210357e-03,1.818979996110418537e-02,5.513180494308471680e-01
6.165942759754341473e-01,4.182091765139112072e-02,-7.178823944337014984e-02,-2.323850663955039086e-02,-6.235624651944161358e-03,1.779085540152466893e-02,6.412934064865112305e-01
5.791662422761451046e-01,3.812595342287658506e-02,-6.465561565701960500e-02,6.586317819193042509e-05,-7.369218808541573833e-04,1.208474802774939585e-03,5.990856885910034180e-01
5.406912905788594514e-01,2.328494616857421096e-02,-5.183808410292983782e-02,2.883088769874275412e-02,3.989392349663973582e-03,8.400580413281422479e-03,5.612263679504394531e-01
5.287095552764152773e-01,-3.483923044008316316e-02,-5.908736834954936290e-03,2.534972876425344978e-03,1.192376543013954314e-02,-1.790163052765997298e-02,5.509334802627563477e-01
5.161123184299780675e-01,-1.960058750975687825e-02,-2.127974173501370747e-02,1.262099363327666814e-03,-1.319121879196197755e-03,-1.973760213597923821e-04,5.365638732910156250e-01
6.631935518464813217e-01,1.537546264419245579e-02,-9.701655379783508115e-02,9.364011804348741641e-02,1.241779479858338107e-02,8.882220016063547760e-03,7.294617891311645508e-01
5.146468075675205700e-01,-4.283438147452633959e-02,-4.433470213685788974e-02,3.873189537432823694e-04,2.775668945280332215e-04,-7.526050638052021648e-04,5.582349896430969238e-01
2.529648023739733964e-01,-2.285331424406844558e-03,8.924642973584737127e-03,3.210319600443115040e-03,2.077930127719053097e-02,3.502273454632476388e-03,2.525470256805419922e-01
1.565686611780890414e-01,1.915174505059109161e-02,2.578930193362349160e-02,-1.192241616743469103e-02,4.016658779436775746e-03,2.845195771944989717e-03,1.360678970813751221e-01
5.521150339290347153e-01,-3.733325191131592335e-02,2.075493821583046516e-02,3.030332735449334843e-03,2.192528571212019536e-03,2.711175932465556201e-02,5.646508932113647461e-01
2.345009698563390033e-01,1.361093443311323092e-02,1.131397449055816795e-02,-1.625411148029728275e-02,3.764798921705680285e-02,6.044326365816144776e-03,2.333652973175048828e-01
2.506133240008514562e-01,1.345670233280153727e-02,3.646293722477905730e-03,-9.752740196347380389e-03,1.194643641192972769e-02,5.871904072906505324e-03,2.438914626836776733e-01
5.504785445663930021e-01,-4.658236890801478736e-02,-3.725277908636676072e-02,-1.545952416004747754e-03,4.813544429866489088e-02,-1.826326762554034144e-02,5.991304516792297363e-01
5.600336539858673524e-01,-4.518008594465761085e-02,-7.191666247541528278e-03,-4.811591096742134747e-03,1.601927033633514935e-02,-2.147634481011253746e-02,5.890319943428039551e-01
5.767148455492694392e-01,-4.910245938307905567e-02,2.844658192956198151e-02,-1.384849352139646238e-02,7.928166521930693489e-02,-3.611035988089374149e-02,6.103061437606811523e-01
5.792758159175173116e-01,-6.510105035462471212e-02,-3.716741399599737816e-03,4.524588092023175932e-03,4.030195254451156284e-02,-8.057805353920524313e-03,6.201321482658386230e-01
5.359407885669893457e-01,-5.101635661003026123e-02,-1.175431781833435885e-02,1.764045610326763630e-03,6.299605156101428793e-02,-5.875121141939288957e-03,5.788207650184631348e-01
5.218709861581033449e-01,-3.863617240665986885e-02,-3.501612566203823884e-02,9.242930406697938894e-04,-3.320154755882316448e-03,-9.215637132256851351e-04,5.587400794029235840e-01
5.249896925508725776e-01,-3.875266579294631142e-02,-3.475941793332176788e-02,9.235152235852233304e-04,-1.396631067697482777e-03,-9.207879502892679082e-04,5.617661476135253906e-01
5.225199195577991951e-01,-2.200291618657890247e-02,-3.165287509091660456e-02,3.163883269741689201e-03,-5.225658542230587032e-03,1.322900893419516220e-03,5.495180487632751465e-01
4.971734428714003617e-01,-5.317256092365513220e-02,-2.965019425973630662e-02,7.158000668336801132e-03,-9.839203467218754929e-04,5.237801906148272131e-03,5.391915440559387207e-01
3.823072954642218191e-01,1.782326319217096555e-02,-3.747801992599408827e-02,-1.159184662153413536e-01,-4.745937928219925994e-02,1.153425662225725928e-02,4.511439204216003418e-01
8.008861306188371776e-01,-2.544160466982153812e-02,-3.344198268947284891e-02,-3.961362456086912898e-02,-2.641360580952056836e-02,5.273117543542966967e-02,8.394253849983215332e-01
4.153197127679012501e-01,-3.171007977462644845e-02,5.939387428729347995e-03,1.111875400224838217e-01,-9.354916886728574521e-02,-3.432333882969382938e-02,5.012976527214050293e-01
5.163970308641965268e-01,-3.648835751900725288e-04,-2.779084014861302188e-02,2.483976604114849444e-03,-4.274566179841606493e-03,4.547322794877689187e-03,5.311337709426879883e-01
5.125050381860707382e-01,8.645091331075965835e-03,-2.810227046330507350e-02,-8.111269479348747055e-04,-4.581187028399796857e-03,6.696602272520620069e-03,5.233929753303527832e-01
7.055721273485473510e-01,6.449680392535128703e-03,-9.755337929589091850e-02,8.901213275561400962e-02,5.486790735759618232e-02,2.171668242018527303e-02,7.787910699844360352e-01
4.016132469814818751e-01,-2.940824892163232396e-02,-3.820652961386242219e-02,-7.928050344924315873e-02,-9.352597983679756394e-03,-1.142351309341189773e-02,4.573393464088439941e-01
3.844925164343160895e-01,7.056749003969256528e-03,-2.597381537129347939e-02,-1.164842262310036430e-01,-4.117845731967904876e-02,3.611575132110524111e-02,4.535652697086334229e-01
5.024576177837913882e-01,-5.334877802577028816e-02,-2.850191312948205380e-02,-2.130517142974099748e-04,1.121804315555981419e-03,3.055492408356439305e-03,5.438382029533386230e-01
3.994997506601278281e-01,-4.683475441086035196e-03,-5.421848470810705645e-02,-1.033835146925932841e-01,-5.421281276553985978e-02,5.561447596505406099e-02,4.857977628707885742e-01
6.315963531979829071e-01,3.229400488628919597e-02,-6.885673393705199485e-02,-3.485222466882772520e-03,1.243953012310172919e-02,-1.977820968342495350e-02,6.570303440093994141e-01
5.168317589304691761e-01,-9.979827896676063403e-03,-2.874650670708336908e-02,-4.342685972761789297e-03,-2.442294726325953827e-04,2.759514980246120623e-03,5.365153551101684570e-01
5.232966405197818638e-01,-1.415714620951596947e-02,-3.793890632170265897e-02,-1.087374694950762541e-02,5.007677859908317604e-03,-8.193890679154223209e-04,5.501233339309692383e-01
5.195231520297323158e-01,1.809706942020919418e-02,-4.306041891647066633e-02,2.486245466136182379e-03,-6.963939855894113115e-03,6.481247728218880039e-03,5.349059700965881348e-01
5.448226253849850487e-01,4.463104175077400870e-02,-5.771977760728994045e-02,6.283231298529955329e-03,4.509145552298573188e-03,-1.053595914500031136e-02,5.589050054550170898e-01
5.357908257422148157e-01,3.372057325436969566e-02,-4.881247838596172728e-02,-7.972423639953174837e-03,4.272943445364094962e-03,-2.889578628286224547e-03,5.482646822929382324e-01
5.397055395355765395e-01,9.706279311233384499e-03,-4.679818051470066576e-02,-1.869032254611770541e-04,2.177982038152468779e-03,-1.263570755435639188e-02,5.608320832252502441e-01
5.260275519851079773e-01,-2.022631663881083175e-02,-3.638665052389691845e-02,7.012930839363276485e-03,3.299039440155968235e-03,2.308045880592423955e-03,5.546875596046447754e-01
5.174945363229708217e-01,-2.233161107656708722e-02,-3.071182894840540634e-02,6.050104785999278192e-04,2.777931060856171207e-03,-2.270814580361846594e-03,5.441011786460876465e-01
5.155808297694214337e-01,-9.932117066886375634e-03,-2.869156591455904182e-02,-4.474065843708918862e-03,2.895974170979449726e-03,3.322427303449743824e-03,5.352498888969421387e-01
5.370618275654897023e-01,1.713797244098602679e-02,-5.284578363096548159e-02,-5.205928502784437639e-03,5.383243050869486804e-03,8.621992228013151960e-03,5.585660338401794434e-01
3.663246806188704685e-01,-1.860453542304676966e-02,-7.954480836275201749e-03,3.815302774762406590e-02,1.071942849921817854e-02,-1.370008973390673870e-03,3.858778476715087891e-01
5.174050681113652184e-01,-2.644387397501213322e-02,-2.579098196455326120e-02,-1.084065743900598398e-03,9.533482274537363136e-04,-2.231444989260472980e-03,5.435422658920288086e-01
5.350992274339265720e-01,3.561389059284675307e-02,-5.168606967040764721e-02,-9.987362302179760010e-02,-1.048285655375902348e-02,3.557112531367646185e-02,5.785859823226928711e-01
5.744914904782878473e-01,5.298704887526783924e-02,-7.250609182252504281e-02,9.031690652210035142e-02,1.273664218494322681e-02,9.245605905495614743e-03,6.151220798492431641e-01
5.147759610802404850e-01,-3.676023764206423627e-02,-3.392158498205752326e-02,-5.699167895011601065e-03,1.075717550053221003e-04,-5.770075321538754767e-04,5.502118468284606934e-01
6.196519854512004821e-01,4.511979920251141252e-02,-8.252151045233652171e-02,-2.646201980565833500e-02,2.943546212684292496e-03,9.360566832460719133e-03,6.496946811676025391e-01
5.343322757974164894e-01,-2.080972407761019771e-02,-4.786609216789275423e-02,1.024919232875101584e-03,1.146994193225993721e-03,5.330359364265257940e-04,5.691596865653991699e-01
5.214603609319155009e-01,-1.832349778937797380e-02,-3.688731744531958956e-02,-9.587598533043542592e-03,4.159214014801058436e-03,-7.779934690587605995e-05,5.495992898941040039e-01
5.669351061421679105e-01,4.918351227018349925e-02,-8.214430592265131725e-02,-1.989300330394151543e-03,8.986120465193139437e-03,5.566655359334302111e-03,5.946898460388183594e-01
5.020538426953712330e-01,-5.321195403622414055e-02,-3.134037942181752689e-02,-5.333071341747595492e-03,-2.709039995459628682e-03,-2.337263659388008619e-03,5.447730422019958496e-01
4.230220245514373367e-01,7.466614950130123773e-03,-6.556526238530116513e-02,-1.377298335546837393e-01,-6.964326175837290411e-02,5.187137761088629617e-02,5.365629196166992188e-01
5.217349095156437189e-01,-1.898200645005140852e-02,-3.869528027547927684e-02,-8.034545305717287131e-03,2.304564290965855407e-03,4.097496337380843591e-04,5.510288476943969727e-01
5.493553443775553990e-01,5.572755318920744050e-02,-5.957155688612109090e-02,1.280296936782689479e-02,2.956663985903796102e-03,-9.928023048546128285e-03,5.609731078147888184e-01
5.441556467408801279e-01,3.643332220528949783e-02,-5.388055825324858383e-02,-3.755861369127901951e-03,2.214941640043010293e-04,2.228714348272152132e-03,5.584355592727661133e-01
5.261463124051279916e-01,3.344213462552825256e-02,-5.605837356615825384e-02,-3.576864817995983360e-03,5.669399283248661818e-03,9.556106221314699181e-03,5.433909893035888672e-01
5.445795747114214880e-01,2.614265466081969191e-02,-5.301000419256565732e-02,-9.158441306132502832e-03,-2.778306860274425399e-03,5.446262250390400579e-03,5.625312328338623047e-01
4.932345976604218807e-01,-5.952480237126273055e-02,-2.330995353129594605e-02,-3.980635266827815648e-03,4.755327592063796484e-04,1.811636155236490112e-05,5.356160998344421387e-01
5.495432043388104315e-01,2.401741655428826783e-02,-5.564019742320444606e-02,-7.964950192052575387e-04,-1.081712177356784071e-03,1.112454896338861167e-02,5.698785185813903809e-01
4.501289541854984755e-01,-3.270928200531994512e-02,-3.160641055876270422e-02,-1.282176897329158870e-02,-8.300631153600687012e-03,-1.322423246579213646e-02,4.835555851459503174e-01
4.956275612568666333e-01,-5.019515615784500562e-02,-2.938081373766712745e-02,-1.735376791876472010e-03,-1.054640544078274539e-03,-3.745357079712042896e-03,5.357697010040283203e-01
4.475433393492376788e-01,-2.279516462120101394e-02,-3.421437988048792178e-02,-7.878061722383632517e-03,-1.206845632001144440e-02,-1.324932943385801615e-02,4.773566424846649170e-01
3.979118230805033796e-01,-1.699817082231172560e-02,-3.298614684142303632e-02,-2.400443324619975019e-02,-2.834914012924727097e-02,-1.242434983249332027e-02,4.285349845886230469e-01
4.389069863130249938e-01,-3.259162252121242109e-02,-3.148932530469286672e-02,-1.672677884883193300e-02,-1.337635695904538374e-02,-1.367973268606422280e-02,4.730010032653808594e-01
5.369097909792106549e-01,-4.385615928481884085e-02,2.958302173456303641e-02,4.510409211129852262e-03,-1.162170411682202607e-02,-1.904233494872640750e-02,5.491679906845092773e-01
5.371887166036899419e-01,-5.673759728402530400e-02,7.451902780390651237e-03,7.705552422151463153e-03,5.397654705876691293e-03,-3.451728948478811811e-03,5.648417472839355469e-01
4.768648606232915310e-01,-4.829696380541229073e-02,-2.545491056596363433e-02,1.084105749208019330e-03,1.125693217465864419e-03,-9.562596915323504088e-03,5.143953561782836914e-01
4.764882210748883629e-01,-4.980789637409585580e-02,-2.308266227429800477e-02,-1.913416935166023373e-04,-1.083427761336772143e-03,-2.871305352497963755e-03,5.134830474853515625e-01
4.975160549637455132e-01,-4.508387407811076386e-02,-2.989441659598840451e-02,-9.859534561200025780e-04,-1.568022535310774302e-03,-6.489625663961581629e-03,5.352945327758789062e-01
6.171392343198389696e-01,-1.179603540519904570e-01,4.215433733388612714e-02,5.822794456836088983e-02,-1.372017589670518067e-01,-7.738800030134776291e-03,7.177269458770751953e-01
5.769579708400203177e-01,-6.024081421968210948e-02,1.241581493781457324e-02,2.566636612056362367e-03,6.028670074126532899e-03,-2.969516112170398486e-02,6.064476370811462402e-01
5.256320426023817216e-01,-2.261736662679758592e-02,-3.802705701977604491e-02,9.828587629235625150e-03,6.648939039736273711e-03,1.808474033465549361e-03,5.565028786659240723e-01
5.211487807694903385e-01,-4.947100252911035279e-02,-3.647015454232491183e-02,5.319621588138634220e-03,-1.187394901176144811e-03,-1.284532457157464675e-04,5.643107295036315918e-01
5.009143815986423220e-01,-5.673825241295130106e-02,-2.518139346865252981e-02,-8.640874307722672858e-04,2.444687482747988361e-03,-4.675031639933615061e-04,5.425820946693420410e-01
5.894015043203814086e-01,-5.920043655155826645e-02,9.955898770340088078e-03,1.073381704389608782e-02,1.841687606097365277e-03,-1.629507970217446838e-02,6.178709864616394043e-01
5.324841185982498448e-01,2.249165612668027614e-02,-5.195373632639088690e-02,4.441106915960691195e-03,1.249919140209600438e-04,1.293526014960284885e-03,5.510582923889160156e-01
4.977715881596507796e-01,-5.666198668750646594e-02,2.666472789368606877e-02,5.334060250614031107e-02,-4.195999283608549402e-02,-3.891898191767087511e-02,5.352592468261718750e-01
5.240713033870810778e-01,-4.404042004743952132e-02,6.012319745205885191e-03,6.909419343341477622e-03,-2.897122447893737268e-02,-1.804770445661393885e-03,5.472583174705505371e-01
5.193074287610417450e-01,-3.025201284587225592e-02,-2.242360110542115925e-02,3.736192093649906999e-03,-2.748675730038291874e-03,1.704552472713481009e-03,5.457544922828674316e-01
5.275170423890060967e-01,-2.276932014575203111e-02,-4.702081526639698139e-02,1.002067833031456204e-02,2.373997849399215113e-03,1.753503787004585584e-04,5.630868077278137207e-01
3.274545190816642859e-01,-4.245223856987431765e-03,-1.038525585788706296e-02,-1.619215324776617643e-02,5.001389079987573344e-02,1.890353821606693052e-03,3.469877839088439941e-01
4.530777665509639895e-01,-3.070018150584413741e-02,-2.917775023371796395e-02,2.812669677780896141e-04,-9.455525832241962192e-03,1.135479254124656737e-02,4.836963415145874023e-01
2.288498710805228764e-01,8.200787505925358212e-03,-5.224685169519280303e-03,7.009574702850099315e-02,5.361824507405212742e-02,1.366324602592512054e-03,2.742246687412261963e-01
5.199889514593420969e-01,1.179598548469001917e-02,-3.822021734852962260e-02,-8.233946056570635996e-03,1.631654155977146307e-03,4.103483792260981429e-03,5.352022647857666016e-01
4.424149405778692312e-01,-3.941981048879183991e-02,-1.412974459977298092e-02,-2.243520785340840686e-03,-2.368414967842052705e-03,8.784019027147425482e-03,4.699809551239013672e-01
3.911541643531221135e-01,-2.154128054939177805e-02,-3.405545167391665906e-03,2.946090677376143191e-02,1.377799971440420330e-02,-2.007359335172324150e-03,4.078570008277893066e-01
3.895327664947506041e-01,-2.975067642534290346e-02,-4.989852136989256226e-03,5.571975905647057886e-02,-3.367222948539878163e-02,5.054465395071077588e-03,4.228735864162445068e-01
5.145841507513764235e-01,-3.082334256581073517e-02,-3.368562270139108250e-02,-6.011285540167165447e-04,-1.887478266022195100e-03,-2.339737049861909026e-03,5.468700528144836426e-01
5.286422781504982460e-01,2.268856440203162461e-02,-4.750887803374670426e-02,6.157410444864391298e-03,5.940579829102647300e-04,-7.043828803997325338e-04,5.445638298988342285e-01
5.360444030622260048e-01,3.962986916735905529e-02,-5.166225295793383521e-02,5.791223699241900783e-04,4.341177438540859759e-03,4.132971859128546990e-03,5.478951930999755859e-01
5.265309885416536995e-01,1.780787357660329473e-02,-4.326228938490933595e-02,1.654509180712870420e-03,-1.917602857051885429e-03,5.444767285227768150e-03,5.419453382492065430e-01
4.460785391355001073e-01,-3.884820829795720964e-02,-2.164156286770524407e-02,-1.977596063671446889e-03,1.516353999543991818e-02,-8.052691395917516495e-03,4.774956703186035156e-01
5.349456657986721986e-01,6.139031693766505704e-05,-4.026524735036166036e-02,6.806601439869377698e-03,8.352862540572734973e-03,-1.708243959682660077e-03,5.564661622047424316e-01
3.930583839827273551e-01,-2.309467160595965463e-02,-1.915399548748933367e-02,2.941663643087753105e-02,1.417384830633481273e-02,-9.260089578541019772e-03,4.183478653430938721e-01
5.350648428714366300e-01,3.643677472300149711e-02,-5.702751078005691143e-02,-8.334614813594065988e-03,2.401539908762342565e-03,1.553097493937507676e-03,5.515454411506652832e-01
5.233382774706156759e-01,-1.846544311955883311e-02,-4.523705161027483101e-02,-9.389600958925891500e-03,2.876771114538789124e-04,-1.791399582674039386e-03,5.559202432632446289e-01
4.394205752460904613e-01,-3.203781356101947919e-02,-2.071653499851083824e-02,6.003007884849352604e-02,4.642037610774961409e-02,4.762787969104457370e-03,4.841560721397399902e-01
4.906988183123664471e-01,-5.522806169346239358e-02,-2.529253255390059851e-02,6.585811143634405810e-05,-2.567063230591885934e-03,-1.176590158636118058e-03,5.316141843795776367e-01
5.171634435176977185e-01,-1.876462276239376781e-02,-3.409056076297242721e-02,-9.080401317219335966e-03,2.432414320641802536e-03,1.443368761889858055e-03,5.440025329589843750e-01
5.117363482036101363e-01,-3.276351663119883573e-02,-4.370567108458395245e-02,-1.215917234840252015e-03,-1.154601174827943680e-03,-1.841641174921401997e-03,5.500695109367370605e-01
5.272540341597370395e-01,1.914373106969943783e-02,-4.763221075039048014e-02,-1.186553265602850391e-02,4.889145872389045674e-03,-1.427522519337890263e-03,5.450365543365478516e-01
4.757184215604237654e-01,-4.763691217654097976e-02,-2.224713979930345586e-02,-5.766904288164536284e-03,-9.310173656914718515e-03,-9.956764430202560967e-03,5.117760896682739258e-01
4.944871665470329525e-01,-5.312157612595716505e-02,-2.286047399311991191e-02,-9.153216848777732603e-03,1.721989470856765845e-03,-6.588736531271878472e-03,5.334888100624084473e-01
4.678864298753327988e-01,-5.298160701609802570e-02,-1.812548539665073677e-02,-1.428797121500266845e-02,5.401218139450643038e-04,-2.640055016841024327e-03,5.049725174903869629e-01
5.226460405739123960e-01,-1.891457056326148467e-02,-3.827273744373868580e-02,-1.706718046643376438e-02,6.365253971440254163e-03,-2.526135196046029987e-04,5.523964762687683105e-01
4.224933730214686656e-01,-3.331778090039685947e-02,-2.114266409293852345e-02,-5.062004194058833395e-02,-9.811340475053218976e-03,-2.335022243188536548e-03,4.586445093154907227e-01
5.010948827040437870e-01,-5.469181175083537294e-02,-2.627106059648318115e-02,-1.833477846787694848e-02,-4.957829102255517824e-04,-4.337189605731192610e-03,5.431172847747802734e-01
5.116560296594567792e-01,-4.079374719107359271e-02,-2.935806089008172193e-02,-1.175930434111581435e-02,3.857005476181393517e-03,-5.273804241081257163e-04,5.472423434257507324e-01
4.765113745912110677e-01,-5.807099388328787470e-02,-2.017218114001409490e-02,-7.132387917282365965e-03,-1.169048507280776418e-03,-5.285320451055498976e-04,5.168289542198181152e-01
4.912359985100468451e-01,-5.826542209037718911e-02,-2.235394110060651141e-02,-1.435166917484752757e-03,1.272745573898257081e-03,1.152019093356853501e-03,5.324688553810119629e-01
4.739684230230753470e-01,-5.676509919936695292e-02,-1.860742736322101853e-02,-6.975442235034558756e-03,-2.526547600386837332e-04,8.794216324985085599e-04,5.128654837608337402e-01
3.784848633473960611e-01,-9.493949686986830061e-03,-1.771030906293091789e-02,1.899990993106793341e-02,2.014080290659133604e-02,-7.942261431032644411e-03,3.953125774860382080e-01
5.019701476664062412e-01,-4.561359739164408400e-02,-3.118472549901074586e-02,-4.221993849383069361e-03,3.373138104762691061e-03,1.014356580630847171e-04,5.405948162078857422e-01
2.858615954296255257e-01,1.264043938561383584e-02,1.567020178614020320e-02,2.054894604459952048e-02,-1.109591070557128592e-02,7.671600295642052279e-03,2.750343382358551025e-01
3.797971193122207101e-01,-7.712207907965645814e-03,-1.715306570311656009e-02,-1.317611062890717763e-02,3.070254430415387398e-02,8.059224424819018753e-03,3.968055546283721924e-01
3.162403934641047076e-01,-5.295096190549422599e-03,1.757099649891374904e-03,1.807070236110893194e-02,2.257648623552034953e-02,-3.502661272359345376e-03,3.220447599887847900e-01
5.143331408895470691e-01,-4.577169584491447285e-02,-3.028715446170532344e-02,2.298766150150672455e-02,3.006754151577246351e-04,-1.563961869403444199e-03,5.539649128913879395e-01
4.540756947674046140e-01,2.197846514978289700e-02,-1.056524813226219495e-01,-1.388989061711770889e-01,5.177251713200792943e-02,-2.117313506080481869e-02,5.704484581947326660e-01
2.664131126902226088e-01,2.225181986892893482e-03,4.832913635196570135e-03,9.098854761146460413e-02,2.454805654207001947e-02,-3.819508105314066166e-03,3.095181286334991455e-01
3.844289965119112029e-01,-9.353074847365930311e-03,-3.993703217667118888e-02,-7.760079369742725608e-03,-2.578755913037767203e-02,-3.554380775730212483e-03,4.126217067241668701e-01
5.140794090046356679e-01,-5.222253488498260210e-02,-2.819938330641086344e-02,8.391653543671726348e-03,3.662535567483094986e-03,1.437200414927569973e-03,5.549129247665405273e-01
5.164782305216348846e-01,-4.468378575708092937e-02,-3.404800763483617487e-02,1.718489368537387584e-03,1.007399416966460026e-03,3.351785915898016638e-04,5.559314489364624023e-01
2.979114665262251882e-01,-2.601600464002096214e-03,-1.790668224475698567e-02,4.594396715441435158e-02,-2.501603396509174265e-03,-2.256069932825165072e-03,3.186036944389343262e-01
2.820799606528285874e-01,-1.479680187846937889e-02,3.033731976729528435e-03,3.655869635428930092e-02,9.935128518790846755e-03,-2.607518288618104751e-03,2.957810163497924805e-01
3.848521820494589796e-01,-9.719357081908103213e-03,-1.669582562464949627e-02,1.210728890044940852e-02,-2.857104270445302158e-02,1.093647393529039759e-02,4.021636247634887695e-01
2.530365751772866156e-01,-7.460900021627192569e-04,1.455399613065906650e-02,2.120956932532372732e-02,-1.435253413121910168e-02,5.381589473147093761e-04,2.504500448703765869e-01
5.224394753020700222e-01,-3.792795618493938203e-02,-4.510662625532330106e-02,1.124243972719771081e-03,2.731786007393132917e-03,-3.588931739065469046e-03,5.640484690666198730e-01
5.251385013632242638e-01,4.009262674089245082e-02,-5.340223068024063657e-02,3.414097834483668416e-03,-2.650534177814762877e-03,4.601154636551391987e-03,5.380331277847290039e-01
5.191899577287835132e-01,-3.874877319219779959e-02,-4.089444143909071183e-02,4.474633267677424574e-05,7.819512745935572676e-03,-7.160628403676500692e-03,5.593162178993225098e-01
5.117965062216381922e-01,-3.093949671639945054e-02,-4.269412923192797416e-02,3.751539280185540483e-03,-1.420207634324854341e-02,2.948512790487634256e-04,5.492975115776062012e-01
5.244370179797762654e-01,-3.594212469833257817e-02,-2.852138828964978501e-02,-2.287105540067903373e-03,-3.949548584638085114e-03,-1.499901306447571411e-03,5.567680597305297852e-01
5.460989747387758886e-01,-5.162169928465712432e-02,-1.750581611171841967e-02,8.269001049292265364e-04,-9.316368747916228821e-02,1.237455488784555517e-02,6.037731170654296875e-01
4.822142722732375986e-01,-4.432012558430367677e-02,-2.518757248145181427e-02,1.486696849763997907e-02,-4.194091242917496500e-03,1.105151952393482428e-04,5.179251432418823242e-01
5.237423263279472607e-01,-3.621235311377485333e-02,-2.700770165088905994e-02,-1.784317843639839953e-03,-6.032387567289764808e-03,9.130075253363204198e-04,5.555186867713928223e-01
5.141541930157207396e-01,-5.184151160355890409e-02,-2.924618272866846835e-02,6.392292947126743292e-03,1.572167669035331441e-03,1.137657486603087503e-03,5.551636815071105957e-01
5.250782642523293964e-01,-3.600754253893848067e-02,-4.207391692248046988e-02,-4.829135615924444393e-04,3.949713916863118075e-03,-2.970436513192750358e-03,5.642089843750000000e-01
5.241649603172782168e-01,-2.589978076780213856e-02,-3.285223728892652795e-02,-4.657924147198571826e-03,-5.035208935791899917e-03,1.690908706791909152e-03,5.537089109420776367e-01
5.230718683841493188e-01,-3.319472966738409858e-02,-2.556242591180241108e-02,-5.484445295837774535e-03,-4.614943142196591130e-03,1.465818641692887654e-03,5.526353120803833008e-01
4.923715605973637555e-01,-2.616742288177087428e-02,-5.107288954978092543e-02,4.088567628903900728e-03,-8.194358405284407707e-04,-5.530514574571691704e-03,5.315650105476379395e-01
4.074256651302386456e-01,-1.120915660175020312e-02,-2.326948744764920085e-02,-9.974125884866881021e-05,-1.287213568609944011e-03,8.991253747980643835e-03,4.250846505165100098e-01
5.296685679842835226e-01,2.257449965596747266e-02,-5.719627657579903768e-02,5.973799816653762099e-03,1.149948774546326845e-03,9.633923866802725266e-04,5.514280200004577637e-01
5.181075270896908780e-01,-4.035475173799979443e-02,-3.662573327358145669e-02,1.316086318255053726e-02,1.337778135940455478e-02,-5.006004548657678847e-03,5.576227903366088867e-01
5.242391872957417043e-01,1.706433702606249825e-02,-4.474310436357553655e-02,-1.339160977385183207e-02,2.967229552577861987e-03,1.507685363635130399e-03,5.412623286247253418e-01
6.009352840430277620e-01,-1.119094196490910686e-02,-6.581337721337121582e-02,1.783778116198257366e-02,2.491364846735095919e-03,-2.500564846045399969e-02,6.434026360511779785e-01
2.273913969423251857e-01,2.975426565410389107e-02,-1.454404162495433195e-02,-1.014213924616557128e-01,-3.737727151514601276e-02,6.126477540058049460e-03,2.914454340934753418e-01
4.465098270183038287e-01,-2.404466512786640475e-02,-4.536444559266344934e-02,2.723927663528825319e-03,2.272786825545609554e-02,-5.469696863300210418e-03,4.832906723022460938e-01
5.248236779417282394e-01,-1.363345720314665388e-02,-3.703341302388107881e-02,-5.473563940654488195e-03,2.926821324721814131e-03,-2.880790977103918869e-03,5.506578087806701660e-01
5.126656349694780346e-01,-4.088743214712547980e-02,-3.676551550192258544e-02,-1.174177502624780545e-02,2.001109637578138431e-05,-2.209928922381810580e-03,5.518918037414550781e-01
5.251951493951119154e-01,-2.966494273161884854e-02,-5.078044287619778996e-02,4.220382702571020411e-03,2.583882458193528450e-02,4.236449116240266315e-03,5.675755143165588379e-01
4.908690636609922553e-01,-2.514285025166934640e-02,-5.693085810336981356e-02,1.255122990896577473e-03,1.053674488765332651e-02,-1.385885964899567042e-03,5.329402685165405273e-01
4.468139801758644891e-01,-1.793234543962785033e-02,-4.527967498907933819e-02,1.690429966649304025e-03,1.552812787419191771e-02,4.507160333861093791e-03,4.798327684402465820e-01
4.903630757016705921e-01,-5.402824838557429565e-02,-2.576268612448753825e-02,-7.281054931362624522e-03,-4.795190998147456571e-03,4.336591612288409094e-04,5.310385227203369141e-01
5.253129316113722691e-01,3.232398875681719019e-03,-4.427611931224861852e-02,5.173637162660930759e-03,1.106221213168391690e-03,-2.635258785489966171e-03,5.474789738655090332e-01
5.446954755003676762e-01,1.670582044938406785e-02,-3.339561096329507484e-02,-1.374273868456862557e-01,-9.708284721102054815e-02,4.391715869563660168e-02,6.312341094017028809e-01
3.818720413739813968e-01,2.085323279527247220e-02,-2.786181427257594656e-02,-1.153008251898823139e-01,-1.098141525871704771e-01,4.692434131297167771e-02,4.826600849628448486e-01
4.050622691529881525e-01,2.489603165642997884e-02,-4.947156557329351889e-02,-8.225909762264876912e-02,-3.721357346170105912e-02,1.673110893000309685e-02,4.512460231781005859e-01
5.260595390881095401e-01,3.687538394084444171e-02,-6.453572147328298647e-02,-1.339418437792913585e-01,-2.696754462776933953e-02,8.077688753713003003e-03,5.961483120918273926e-01
5.306014695105402135e-01,-2.310404669869611793e-02,-4.588520636918685947e-02,-6.840977097049436018e-02,-3.204153232614181251e-02,1.670473234208447524e-02,5.811020731925964355e-01
5.167772443839797614e-01,-2.913220705986152570e-02,-1.921718247549775160e-02,3.597781526139078034e-03,1.872588193323031366e-04,5.005632490584473529e-03,5.411255359649658203e-01
5.216289577765784724e-01,-1.530621031152645806e-02,-1.360857298057405185e-03,-1.178814935335879312e-02,-1.689230488025030702e-02,3.072852249472299291e-02,5.339585542678833008e-01
5.176561237726202691e-01,-3.444942713077775442e-02,-3.993734056415268463e-02,1.213577720733329543e-03,-3.659815751273760073e-03,-1.218236961204291436e-03,5.549140572547912598e-01
5.172746652224828878e-01,-3.291704013496224435e-02,-1.128165140556908197e-02,-8.704688900171596907e-04,-5.917736729495642108e-04,-9.011307186265112576e-04,5.397046804428100586e-01
5.148813515808914332e-01,-2.859194814379042993e-02,-9.468353012340141595e-03,3.383134696338055240e-03,3.860719700097097352e-03,2.658199496247401223e-03,5.342621207237243652e-01
4.939153574173140715e-01,-5.680345054020449758e-02,-2.542541319073826633e-02,-2.168725010861142968e-03,-2.033127882270540938e-03,-2.368834256127396853e-03,5.357598662376403809e-01
5.114461400819930725e-01,-3.336291164225269057e-02,-3.507534641087428628e-02,-1.355697147607431161e-03,-6.224423182717686229e-03,-4.602766782242019745e-03,5.458370447158813477e-01
5.439620065015617900e-01,-5.257750303670696845e-02,3.226654177192755935e-03,6.170382927570990800e-03,2.874182587754682203e-02,-1.616210260640484411e-02,5.736377239227294922e-01
5.428469920634584334e-01,-4.884917902423974168e-02,9.185394604461633028e-03,8.045920823623244067e-03,-3.555400823264536197e-03,-2.791147217754093735e-03,5.651451349258422852e-01
5.248664364991635356e-01,-3.672723690931919971e-02,-5.998317754222853848e-03,9.475195276863595042e-03,1.220018021790162700e-02,-2.143439306414218065e-02,5.487884283065795898e-01
5.604499721483342523e-01,-6.423780242610485636e-02,4.045615215177073010e-02,9.374736568697453545e-03,2.659550986416744835e-04,2.016139780952213342e-04,5.797055959701538086e-01
5.428237553682468963e-01,-5.936298585105079240e-02,2.591229798878602608e-02,5.200466034303852236e-03,-8.436921367878371866e-03,-1.379335452781057028e-02,5.651677250862121582e-01
5.569886640121504140e-01,-6.618830956035540170e-02,3.690138719384927768e-02,1.385343692876280300e-02,9.787679538183846964e-04,-1.447544341281550330e-02,5.796043276786804199e-01
5.196294070292722944e-01,-5.251967330512494203e-02,-3.805760530369134420e-02,8.361657839782155044e-03,9.195239525236324502e-04,1.518675268070680600e-03,5.652508139610290527e-01
3.898368153834287364e-01,-7.876453159063601106e-03,-3.424126611350442051e-02,8.215938765486882536e-04,-3.523158254371753367e-02,-3.556709667073587632e-05,4.160317480564117432e-01
3.976214722190516415e-01,-1.257407790716766338e-02,-4.347848168729245844e-02,1.769376950016965377e-02,-6.966421074159989679e-02,-3.780224498476423764e-03,4.443351328372955322e-01
5.049400382635840234e-01,-5.485183582362929133e-02,-2.914803538060270482e-02,2.552065553503777597e-03,-3.193921601144212273e-04,1.619905739215620399e-03,5.474181175231933594e-01
3.775190850620820382e-01,-1.019289895256556000e-03,-1.550533093002293139e-02,1.487152869791021764e-02,-2.787473050469405078e-02,8.977194996439678137e-03,3.901550173759460449e-01
7.449356025623556921e-01,-1.182751684171761131e-01,2.088529445095016479e-02,2.504849295410996671e-02,-7.702689511363951247e-02,1.324606434150400747e-02,8.152188062667846680e-01
3.309890726543924799e-01,-2.334443266660518601e-03,-2.497650540058565793e-02,4.287639345826758236e-02,-6.452137155684468939e-02,1.052631187442035210e-02,3.708111941814422607e-01
5.271920374915142204e-01,-3.389938042304940780e-02,-4.045647539766311640e-02,9.196545966603601394e-03,4.339247248140629641e-03,2.455877461563441954e-03,5.646893382072448730e-01
5.161293681863305949e-01,-1.729109639283096800e-02,-1.738987189050161808e-02,2.006716453049807274e-03,-1.435746671964034009e-03,-4.490857939051814615e-03,5.335437059402465820e-01
8.575543741546789445e-01,-2.463973647322814653e-02,-5.351059453307221991e-02,2.941981662661801236e-02,6.230296158341835228e-02,4.786450675984670056e-02,9.086716771125793457e-01
3.182270223725933156e-01,-6.100885933692540286e-03,-2.065003340528512310e-02,-1.285747821318932761e-02,-7.565677045119703625e-02,-4.655208789376536448e-03,3.575636446475982666e-01
2.706971563204356723e-01,1.204809345046067848e-02,1.053033850469325960e-02,-3.537867039276324909e-03,-1.947346007153181666e-02,-6.933264492405269951e-03,2.619419991970062256e-01
4.942992316861594682e-01,-2.603977830555734285e-02,-5.927876340946441891e-02,-3.577936982217386945e-04,1.363882857530692577e-03,6.855935402641562953e-04,5.377364158630371094e-01
5.261282464176602058e-01,-3.590630019594504008e-03,-4.003326491224884487e-02,1.034844854795426497e-02,6.965651208568379368e-03,-2.702045386629839830e-03,5.492933988571166992e-01
3.777041265427395489e-01,-8.860616411758279187e-02,3.157290362583087262e-02,9.731811792879345446e-02,-1.388463350794290341e-01,-3.307691044329279934e-02,5.151476860046386719e-01
2.623771561558767007e-01,8.340201000789096430e-03,1.045357537316043972e-02,-1.396035473341371638e-02,-1.419644995025427792e-02,-5.050957819373436304e-03,2.554764151573181152e-01
4.900129498114220161e-01,-3.254666233067252112e-02,-4.885092117728845329e-02,-4.781619984850810252e-04,1.340482330439605844e-03,6.310217273039308086e-03,5.310177803039550781e-01
3.156006634706495229e-01,4.983863957261441824e-03,1.085494669931942602e-02,-4.792367749716220488e-04,2.047425373153054229e-02,4.819710605698438941e-03,3.098734915256500244e-01
1.545482317456949306e-01,6.911260717807052312e-03,1.845736732108948369e-02,8.370253701335678143e-03,-9.565539484239178603e-02,6.535202946091514301e-06,2.188273370265960693e-01
5.221470809352162235e-01,-1.600677087669372112e-02,-3.345119415098385396e-02,5.578368291500421239e-03,2.924948295000527176e-03,-2.260300186354010157e-03,5.472074747085571289e-01
5.122965035267259548e-01,-3.654586009159291327e-02,-3.948016345576804698e-02,1.182339031029092623e-03,-1.189050550713368487e-02,-1.380916277705764462e-03,5.507096052169799805e-01
4.184913478927099195e-01,-2.535582905605646142e-02,-2.861266647827326315e-02,2.048890419464912890e-02,-1.591214360888639975e-02,1.406523057707803094e-02,4.484071135520935059e-01
8.727933420953599697e-01,-7.500059217585991478e-02,1.635498328901724419e-02,1.491610504374956195e-02,-6.618182890269187768e-02,3.438778138048007721e-02,9.151109457015991211e-01
3.077695500659025085e-01,2.547049028749370780e-02,-2.351770178232434616e-02,1.065190784756127190e-01,-8.079614541945425972e-04,-4.204473062238684063e-03,3.605771064758300781e-01
3.116829765367895577e-01,-3.588331628747207236e-03,7.255460410141537086e-03,-2.568542421272429835e-02,-6.067877440075329643e-03,-1.949953200977954260e-03,3.133623003959655762e-01
3.137093076273974601e-01,1.263767859575146146e-03,9.715368244530023234e-03,-3.065609519199430366e-02,-1.258667766645275247e-03,2.461174098457662163e-03,3.128822445869445801e-01
1.179780731981127651e-01,-4.832589867021020585e-02,-2.879885156538246338e-02,8.784350416271052148e-03,-4.171574484170287138e-03,1.288307366598377690e-02,1.599140763282775879e-01
5.120985198912064718e-01,-4.411902226108435632e-02,-2.847788270525425380e-02,-1.599741429145958016e-02,5.263245362805062631e-03,-3.725343537619526689e-04,5.493395924568176270e-01
1.430354403789135531e-01,-9.109743617968547869e-03,-3.114362132521275583e-02,-1.142872307800365216e-02,2.907714593833565439e-02,-4.399484136149188485e-02,1.889998018741607666e-01
2.685487582567060993e-01,-6.010278181737355174e-03,4.396084810885755867e-03,3.757606214473824258e-02,2.639903950243238651e-02,6.724646388952420541e-03,2.812402248382568359e-01
5.293673585965024131e-01,1.899483451040107074e-02,-5.596502064291658529e-02,-1.197714909159485787e-02,1.188733798789789716e-03,-8.668180142080552991e-04,5.520809888839721680e-01
5.198434605565441791e-01,-2.440620700151846512e-02,-2.966879275258546556e-02,8.447669977364886658e-05,-9.689381927707234549e-04,-3.126617357896294136e-03,5.469293594360351562e-01
5.249332849980210547e-01,1.465557374500298105e-02,-4.891803760558227632e-02,-7.815025632940082040e-03,4.316986597690331885e-04,-3.812908386191651844e-03,5.450619459152221680e-01
5.011235813785288595e-01,-2.715581260471008895e-02,-5.079997795367505176e-02,1.590648380896212419e-03,-3.352433547239073216e-03,5.065045376464721166e-04,5.405284166336059570e-01
2.072610451683027377e-01,9.567348070592618381e-03,1.981949222715315845e-02,-2.376791570058732830e-02,2.321062036497515899e-02,6.212236884236017193e-03,2.014642357826232910e-01
2.691881696845292438e-01,1.301527296360383001e-02,-2.567154456717443689e-03,4.411209382486696445e-02,2.201489876760191408e-02,-2.313766477959134597e-03,2.777891755104064941e-01
5.155383385946483710e-01,-3.432274275981392342e-02,-4.491092227434598239e-02,-1.216751331342946427e-03,-1.780881692349837672e-04,-1.743401556615392775e-03,5.552431941032409668e-01
2.384340254917564628e-01,1.543893682014975399e-02,-2.040038859565260210e-03,2.087727122853445891e-03,-4.098439472299947317e-02,-8.565548192933654490e-05,2.428627312183380127e-01
2.294876269123920787e-01,1.905836622849191309e-02,1.777818642965089957e-02,3.720384689114218657e-02,-9.131836072745366101e-03,7.947423566611872339e-03,2.216834127902984619e-01
4.518898768369452035e-01,-5.321925570739874378e-02,-1.948061336782427877e-02,4.016687928906398364e-02,-2.163107301149582232e-02,-1.691305424802523822e-03,4.954636693000793457e-01
5.771880640994100364e-01,-4.070501765204428968e-02,8.592169881581512847e-03,-7.481191176050437999e-03,-1.432395910633675780e-02,1.166925377758592890e-02,5.957798361778259277e-01
5.157852261747213340e-01,-4.433600140806809309e-02,-3.823379678011815108e-02,-1.545173122465891800e-02,1.535340233412443075e-03,-2.331199475643456857e-03,5.577586293220520020e-01
5.191076558331373381e-01,-4.359744797005232764e-02,3.967984184198053432e-03,7.518647759316285893e-03,3.396079808558807780e-03,5.686081506934718977e-03,5.407729148864746094e-01
5.380995541129665050e-01,-3.877395829414356787e-02,3.019169840832669482e-03,-5.770291345054943261e-03,1.100857844201562873e-02,-1.400129066153860341e-03,5.575748682022094727e-01
5.386896603039224019e-01,-4.397039685123380059e-02,2.338457859222742297e-02,2.071536907997544464e-03,4.818496759448981370e-03,7.037421765498934507e-03,5.522820949554443359e-01
5.197432989627650546e-01,-3.694046159123023920e-02,2.527583723268525540e-02,-4.408400108866188452e-03,-1.365186262502180933e-02,1.727504824892547863e-02,5.297599434852600098e-01
4.985828974931570401e-01,-5.622026625594322979e-02,-2.356594811975834536e-02,-7.719500244260531739e-03,2.022397982621319812e-03,-3.491691977435502437e-04,5.393955111503601074e-01
5.100048370526876207e-01,-4.352886805616057453e-02,-3.374186658362415825e-02,-9.661337708094906371e-03,9.497657285812909425e-03,2.998986045596322651e-03,5.492317676544189453e-01
4.903759672904576816e-01,-4.144156113577190936e-02,-3.123586523851032415e-02,4.362729320171854393e-03,-2.865877552539480063e-03,1.051252842905765067e-02,5.271809697151184082e-01
4.688630158524079716e-01,-3.810365597625986478e-02,-3.330677327210826433e-02,2.210299882646088801e-02,-6.661068925115230972e-03,9.301481157960344789e-03,5.064234137535095215e-01
5.135692922556213125e-01,-3.822765245476819618e-02,-3.375859230237635011e-02,-3.749374204058729203e-04,2.276852123605192704e-03,2.265858124832297699e-04,5.495907068252563477e-01
4.769380930438199551e-01,-3.469800106372863957e-02,-3.957441764564556541e-02,1.198516503168246599e-03,1.351794975898873777e-03,-1.123772132657671965e-02,5.144695043563842773e-01
5.067118384434399214e-01,-3.612501100099280160e-02,-3.174741803858735500e-02,-2.388336177850676790e-05,3.488644389967147496e-03,2.768262084577885560e-03,5.407163500785827637e-01
5.145476091886191927e-01,-5.153026115504713567e-02,-3.292445766924345651e-02,6.375817269595459441e-03,1.601823001087943803e-03,2.545389024844395536e-03,5.571419000625610352e-01
5.224070476226059245e-01,-2.298951996418499566e-02,-3.670661796703120205e-02,5.244245707311052419e-03,6.806539368561623400e-03,2.002652254860406815e-03,5.525941848754882812e-01
6.039429216951992530e-01,3.248935887106693676e-02,-5.735543283459193509e-02,-1.322994822742436238e-01,-2.257070426615516087e-02,4.035600543279007496e-02,6.670059561729431152e-01
5.783032167981472238e-01,2.620202752251366007e-02,-4.920667871133044269e-02,5.414192986049825088e-03,1.343202632133133276e-02,2.001014686264632886e-02,5.949503183364868164e-01
5.048965285913127321e-01,-4.517469018103451028e-02,-3.895414389065143812e-02,1.880712243639302839e-02,-1.027186784115378991e-03,5.143815498646875026e-03,5.480319261550903320e-01
5.301633031142165553e-01,-3.811963262449119538e-03,-4.701351458796165783e-02,9.606061227857516649e-03,5.127924361319930423e-03,-1.282797184434692579e-03,5.571581125259399414e-01
6.262222078237178469e-01,3.161477899352133081e-02,-6.391633067379676181e-02,-7.554064275181371704e-03,6.663082935208226691e-03,1.428354496314162767e-02,6.483857631683349609e-01
5.528995232327512666e-01,3.980217565528032519e-02,-6.205382966019379332e-02,-1.985942537543991179e-02,-2.970219435981190891e-03,1.653900438301427606e-02,5.726568102836608887e-01
5.884951660336343870e-01,5.811516293645346831e-02,-8.844668031076569070e-02,-7.676973277902174320e-02,-1.448960340791114734e-03,7.548545837215046676e-03,6.311693787574768066e-01
5.226658367976662056e-01,-3.469807938475216735e-02,-3.366708071188520557e-02,6.273673136281038114e-03,4.392621646410347323e-03,5.698236721388878507e-04,5.570079684257507324e-01
5.448113662308525784e-01,3.513770843127458909e-02,-6.011075491589498720e-02,5.587842738623836555e-03,2.000159441849213952e-03,3.665788581990182295e-03,5.634990334510803223e-01
4.729922189942584732e-01,-2.404495663105846170e-02,-5.055848011376792850e-02,8.601074537943417678e-04,-2.252713129132430110e-04,2.981862529061188143e-03,5.108386874198913574e-01
5.357022635958742507e-01,2.310488956691197915e-02,-4.903585219027825626e-02,-8.910236925156427143e-04,4.573404492611648185e-03,-3.132398991288427859e-03,5.522989034652709961e-01
5.749749760628618533e-01,3.970012941485495661e-02,-6.321718348093655071e-02,-1.256867099568610875e-02,-2.253224113546322196e-02,1.522775538429048045e-02,5.957288742065429688e-01
5.082604574152544963e-01,-5.249227113263241207e-02,-3.200471961183390390e-02,2.641585748993300654e-03,6.215334145850094573e-05,5.606845034708506093e-03,5.508994460105895996e-01
3.452359497650648867e-01,-1.139185332013918639e-02,-9.887792043980991874e-03,3.511671943434257342e-02,-4.238500490830858503e-02,1.148885996430087063e-02,3.689637780189514160e-01
5.451523705117676810e-01,7.317576529455666057e-03,-4.840458844836026397e-02,-8.372027034408806301e-05,9.281900704404023872e-03,1.122077553274769372e-02,5.683104395866394043e-01
5.348893922070956375e-01,4.071965992436324400e-02,-5.958355422619315833e-02,-4.610664591389354583e-03,-3.138092500794090103e-03,5.057401881955363339e-03,5.513631701469421387e-01
5.162390434972423670e-01,-4.009269241754287449e-02,-3.665234336810843652e-02,2.292805386238007479e-03,-9.866706550994974734e-04,1.887403785294347732e-03,5.546460747718811035e-01
5.432958403575323114e-01,3.527051796873595380e-02,-5.470760283502579258e-02,4.840490365522545635e-03,1.346557955816151016e-03,2.871320979727237394e-03,5.585672855377197266e-01
5.168121104999462423e-01,-1.793645709917912612e-02,-2.245383522526595010e-02,2.429656068693478513e-03,-1.124950076623407918e-03,-1.029250996669901557e-03,5.370444655418395996e-01
5.287464649631974378e-01,1.451880316452933140e-02,-4.540346676220186062e-02,-8.252684752819140074e-03,4.602674938578292518e-03,-4.159595754151606053e-03,5.469499230384826660e-01
5.469625388441803349e-01,-3.358092924154368331e-02,-2.099485692543257009e-04,1.358454631975984650e-01,-1.070592327040377489e-01,-3.483690092581881448e-02,6.419960260391235352e-01
5.415679863640183722e-01,2.948578959041880942e-02,-4.691409936701426697e-02,9.868396078131282459e-03,-8.542453919225178813e-04,5.552135760204049593e-03,5.545943975448608398e-01
5.445735926955761474e-01,2.943813110480766881e-02,-5.418555362311031076e-02,3.282181119584915655e-03,4.796254257535039747e-04,6.073546191281442054e-03,5.617638826370239258e-01
5.336731478596101752e-01,-2.809965567033581579e-02,-1.295142483732222849e-02,-5.388798483633993079e-04,5.005218460895423035e-03,-1.526010824597332470e-02,5.550521612167358398e-01
4.237723890543814154e-01,-3.149056134148914277e-02,-1.765665713139316639e-02,2.746656126379974638e-02,-2.909630102021181722e-03,9.840062054647649367e-03,4.513721168041229248e-01
5.119405599334888590e-01,-3.279285060075037839e-02,-4.209356420564491774e-02,3.604832738032717060e-03,-1.414492060105956503e-02,-1.233295369425474174e-07,5.500242114067077637e-01
5.393341586070995453e-01,-5.167483259957106334e-02,1.314421893395484320e-02,3.972935320207580424e-03,-1.494056645946562685e-04,-9.825271653912304518e-03,5.617130398750305176e-01
5.405075079608187005e-01,-4.170593383030229973e-02,1.746339826842810417e-02,8.013238470307598206e-04,2.832439046469775908e-03,-1.751773832739468226e-02,5.558515191078186035e-01
5.543616155091162234e-01,-4.038054863113513249e-02,4.364021627396408309e-03,-1.257822841181932376e-02,-7.648356661795354013e-03,-2.223740736629417625e-02,5.755366683006286621e-01
5.281896274257766866e-01,2.344279996274736821e-02,-4.647067159450810059e-02,9.453576605517572491e-04,1.918174907692372358e-03,-3.679358094011075594e-03,5.431392192840576172e-01
4.891431749109881322e-01,-2.090835637654184231e-02,-5.977554058105091772e-02,-1.629263584786807455e-04,-1.679366104250972500e-03,-9.277013018760255471e-05,5.305620431900024414e-01
4.894207323623334105e-01,-2.700469339437783223e-02,-4.891960089398406097e-02,-1.868513664713546390e-03,9.507366047471937573e-03,1.064122731511510898e-02,5.283126235008239746e-01
4.655453986973622227e-01,-1.460384627375943545e-02,-5.236853427485957391e-02,6.574188171564190279e-04,-1.507449127816422318e-02,-5.904465647275774880e-03,5.008889436721801758e-01
4.787881518922835755e-01,-1.819747212075756293e-02,-5.679947777909080675e-02,-1.200600881863728977e-03,-1.078036950084813525e-02,-1.666525943381072994e-03,5.177168846130371094e-01
5.146060352192454168e-01,-7.659784206398567719e-03,-2.472632022090018311e-02,9.612855387875253194e-04,-9.125423884629738568e-05,-3.696093820119943432e-03,5.310460329055786133e-01
5.527123228120144338e-01,-4.415541497580410812e-02,-7.565372237022832680e-03,2.471188854675828578e-02,-8.135340874084372176e-03,-1.923683144695595773e-02,5.821436643600463867e-01
4.680035927487817271e-01,-4.978647262701496601e-02,-2.009579863847638093e-02,-1.725581716776227945e-02,4.521328829662983086e-03,4.688590815286502664e-03,5.046138167381286621e-01
4.414454088217285022e-01,-1.380249976629516206e-02,-4.939654135782647892e-02,-7.829152771258142884e-04,-1.680581850605526381e-02,-5.650912701176987255e-03,4.750438332557678223e-01
4.939599331309177388e-01,-5.214934510733104656e-02,-2.729623866085470474e-02,1.102331302103059163e-03,9.166703835565620170e-04,-4.030059156305239483e-03,5.341679453849792480e-01
4.464091312170750392e-01,-2.233044081187660068e-02,-4.973008490848765395e-02,-3.903110314247113140e-03,-1.617425282339860979e-02,-7.704714413725286329e-03,4.840655326843261719e-01
5.198902085663490436e-01,-2.447095431714318980e-02,-4.013525824149524746e-02,5.146742732929188852e-03,-6.924778188086068778e-03,-1.062746867248655532e-03,5.525650978088378906e-01
3.498547089549475242e-01,-1.225741763849259869e-02,-3.044254115466885069e-02,6.837083721808803749e-02,-6.236514774959643626e-02,-3.043940248403061155e-02,4.080595076084136963e-01
4.914891480613899910e-01,-5.885596863539166446e-02,-2.395767139956489489e-02,-3.337921676266511852e-04,-2.253029401264290221e-04,3.223600564550156700e-03,5.337819457054138184e-01
6.674890866916987076e-01,2.954567357788875914e-02,-8.020388354618368520e-02,1.062222643368401220e-01,-1.528118100549177676e-03,-5.695950623710646470e-03,7.231767773628234863e-01
5.182281818860735578e-01,-4.025379854441424321e-02,-3.800738373798870362e-02,-1.126550654931538983e-02,1.958631024975281999e-03,7.169114377410727606e-06,5.577139258384704590e-01
4.977635145262143124e-01,-1.846586818919107587e-02,-4.857500558631111520e-02,2.361044420879941652e-02,-2.157450723176136589e-03,-2.549172919895079537e-03,5.335245132446289062e-01
5.500451776999405462e-01,-4.777631646852020797e-03,-4.975905932708055146e-02,-3.914116742588704539e-03,9.700887683207362264e-03,4.259230470599152663e-03,5.789569020271301270e-01
5.020669508259174574e-01,-4.699718927524920709e-02,-2.832810753030806650e-02,1.462665977447688212e-02,-3.817125897257097819e-03,2.150536900183403280e-03,5.406189560890197754e-01
4.811388664028062867e-01,1.289516813758037617e-02,-4.642800723121950912e-02,1.163559696369628887e-01,7.154870878849736715e-02,1.257890299907610254e-02,5.540736317634582520e-01
2.867246779385506095e-01,-6.004267064093224415e-03,-3.642261443383282282e-03,2.194733038899337324e-02,-7.737026422019731287e-02,-5.849961277161869407e-07,3.231221437454223633e-01
4.132810587551610793e-01,-2.627071497557773028e-02,-1.644882485286194851e-02,1.645331664894328361e-02,-1.058140884069220557e-02,1.196026096884531160e-02,4.365342855453491211e-01
2.786176782588966616e-01,-1.681866568860294897e-02,-5.099842877978236211e-02,-6.308672027982864527e-02,8.576559463572300257e-02,-5.905888130907716027e-02,3.781794607639312744e-01
2.778142564588366170e-01,-3.558913606215628744e-02,7.415377528598249279e-03,1.034798140092147017e-01,-6.154852335779026351e-02,2.130453689456493147e-02,3.625518381595611572e-01
2.818448912233784687e-01,-3.750545203428448660e-03,-3.920017508387746430e-03,-2.717538160375584586e-03,-7.946975886539880962e-02,-3.058860040165538047e-03,3.171903789043426514e-01
4.901533944517075247e-01,-3.529153324260811408e-02,-4.361972348364645535e-02,9.935521721848082719e-04,1.431590326283957481e-03,-8.098046489450963503e-03,5.298523902893066406e-01
3.433937737133008761e-01,-2.264504312209991710e-02,-6.434082244265809658e-03,8.253197046692409278e-02,1.305345744900198064e-02,-4.332318772429143150e-03,3.864135444164276123e-01
3.105157115956679870e-01,5.274581476887127418e-03,-5.003072313894088574e-03,1.713304513107589272e-02,2.207666988169343716e-02,-5.475185025553121719e-03,3.144004344940185547e-01
5.149575078106043424e-01,-1.621020185666000035e-02,-1.738392573543820485e-02,9.097738717402638559e-04,1.428025154465156678e-03,-1.641085242085259200e-03,5.317712426185607910e-01
5.010817609972927356e-01,-5.244738412787372517e-02,-2.999636055371782128e-02,1.778841901437598475e-06,-2.170182966086492589e-03,-2.863858111723356203e-03,5.426877737045288086e-01
4.981133381867820509e-01,-5.327552932869347724e-02,-3.184913843697056990e-02,-9.855009794906856996e-03,-6.994378880852473307e-03,-6.415865412900565931e-03,5.415127873420715332e-01
5.077837693984137424e-01,-5.206307021991793405e-02,-3.349276683145910316e-02,2.402321982177525305e-03,-1.402633712439358945e-03,1.948065463898862809e-03,5.508279204368591309e-01
6.384693282673310488e-01,-4.773748447253697846e-02,-9.969610181254584536e-03,9.284725434435706776e-03,-2.852376641228049695e-02,-4.368160213054014807e-02,6.743984818458557129e-01
1.672245706253267794e-01,1.875906904247947454e-02,1.568389417557482929e-02,-6.626265211714889650e-03,-3.454874491960684135e-02,-7.340535956141722683e-04,1.619327217340469360e-01
3.563342939879148297e-01,-2.581969518977081379e-02,-7.361820508309316335e-03,4.194390598625073047e-02,4.333733957294228466e-03,4.009156223814029640e-03,3.804090619087219238e-01
5.461686970312351619e-01,-4.102167494947664417e-02,-2.071519293548951257e-02,9.064395774105635240e-02,-9.723404440496327683e-02,-1.592834161150389130e-02,6.221371293067932129e-01
5.138368468286178548e-01,-4.130352540129061945e-02,-3.871486037306087757e-02,2.410519287641722797e-03,-3.893394098970161168e-03,5.492201910172209676e-03,5.539890527725219727e-01
5.260226859672358923e-01,-2.032976381448953207e-02,-4.810345226400289387e-02,7.210410826190734312e-03,-3.660194317934815054e-03,3.715523701174128831e-03,5.609672069549560547e-01
5.150508405812228574e-01,-4.589619554422624814e-02,-3.568850077657775843e-02,3.466171916162450687e-03,-2.749074546720545360e-03,3.839642568087589872e-03,5.560060739517211914e-01
5.141473518332420056e-01,-4.896287671644386497e-02,-3.140646680752695596e-02,5.358400264716221308e-03,1.623652438816657658e-03,3.748613543996927398e-03,5.546633005142211914e-01
3.547789177582703068e-01,-2.288568572950383517e-02,5.926308224846049688e-04,4.723472331218989823e-02,-2.595022877102654175e-03,-1.197951691136466467e-03,3.755432367324829102e-01
5.597812226650281664e-01,-7.261807452172189259e-02,2.002014775431915083e-02,1.861885092146043502e-02,5.889586440782652171e-02,-2.881032096574088000e-02,6.032102704048156738e-01
4.472393516738735753e-01,-4.398537124774642981e-02,-1.358499078042632591e-02,2.042039198386989829e-02,1.826082582082947303e-03,2.240330293808572102e-03,4.780884087085723877e-01
6.323747593058508532e-01,2.832347066360813015e-02,-7.741478240635046859e-02,-1.835191068489493713e-03,8.084474266717468771e-03,-9.537820597422693586e-03,6.636331677436828613e-01
4.940871203469078821e-01,-5.480600644876956751e-02,-2.884350889725706413e-02,-2.371603422148973669e-03,-2.338297418750513029e-03,-1.943092356481300204e-03,5.364249348640441895e-01
5.297039442195468073e-01,1.933241567422619434e-02,-3.747386115138651164e-02,-5.833733560356949878e-03,3.403098472627764416e-03,-2.564135562707636762e-02,5.429618954658508301e-01
5.188158279172687681e-01,-2.438632567693002628e-02,-2.863415244508515922e-02,2.265181030448785212e-03,1.035159329388065774e-03,-1.661847028275453310e-03,5.453631281852722168e-01
5.193027226176313293e-01,-3.769449838613123105e-02,-1.352845793378532058e-02,1.165803596208092640e-03,-1.193140207343418129e-02,6.756932175821231054e-04,5.457124114036560059e-01
5.401605797770068218e-01,3.461460640227090324e-02,-5.181033684736677247e-02,-4.032549535260574435e-03,5.457761717730596519e-03,-1.563573012209154220e-02,5.546253919601440430e-01
5.412309914353718998e-01,2.809421055921090815e-02,-4.946876588663337571e-02,-6.361870414785713093e-03,4.110017161050763534e-03,-9.141853079797972181e-03,5.563709139823913574e-01
3.351870342721613438e-01,-4.465623003905375143e-02,-1.156774415269759548e-02,7.983118653014839583e-02,1.148199082328813098e-01,3.445885065063996472e-02,4.416326880455017090e-01
5.119438114809294893e-01,-4.155872035717605995e-02,-4.310998029931517594e-02,-4.188327553509334981e-04,1.263848087383665116e-03,2.980447529547816839e-03,5.543086528778076172e-01
6.130481974991344174e-01,4.798855361482168291e-03,-5.616135615856976404e-02,-3.231148740929504215e-02,1.754272883720067039e-02,-3.854532113990997988e-02,6.475144624710083008e-01
5.191504661649779528e-01,-3.632908407146576146e-02,-3.409479954836117099e-02,2.969687533599955388e-03,8.125259470392169354e-04,3.737666194332027957e-04,5.543918013572692871e-01
6.009230039400559331e-01,-3.056701020353325138e-02,-1.556252492108961549e-02,-2.135429901129911462e-02,2.567975522524808957e-02,-4.594549442511486337e-02,6.318297982215881348e-01
5.387609444517869051e-01,1.749547299600012762e-02,-6.059085828409679908e-02,5.600900019740622134e-03,2.094899693291417050e-02,-3.685417750657210556e-02,5.692137479782104492e-01
5.317649036975854449e-01,1.551028058225334405e-02,-4.239179676896290272e-02,-2.276680902327547087e-05,3.642203823520947722e-03,-1.258721713324314692e-02,5.479770302772521973e-01
5.290105289301326730e-01,-4.303577584248946541e-02,1.779974163578371127e-02,-4.016733719526246506e-03,-3.685884183898829880e-02,1.672352969117893093e-02,5.487261414527893066e-01
4.658259773724257591e-01,-4.117805793137782611e-02,-2.970619797982246291e-02,1.561760821023999365e-02,-1.015639383623938817e-02,1.058369408794933991e-02,5.027381777763366699e-01
5.204470727212473502e-01,-1.346302649392094875e-02,-3.761053748894080395e-02,-4.592505366844795191e-03,1.321322427764959838e-04,-2.751948260468585657e-03,5.464629530906677246e-01
6.258608661889026870e-01,-8.037354106014438226e-02,4.307374914294942458e-02,1.213063944749570924e-02,-3.344908488751748010e-02,1.237190180951077464e-03,6.562210917472839355e-01
5.360532325610425364e-01,-4.660241232721870630e-02,3.327481002147916755e-02,-2.848954274543462947e-03,-1.566019497851566314e-02,2.264153788208922088e-02,5.492039918899536133e-01
5.206223025721294917e-01,9.455145243462970139e-04,-3.256038398637742248e-02,4.004276590852121759e-03,-5.491777288694110921e-04,-6.096691330932618551e-03,5.373633503913879395e-01
5.371507266408970249e-01,-4.531574953849096254e-02,2.727013101501055137e-02,-5.202984978850255234e-05,5.304715411615463713e-03,7.789900553784564856e-03,5.500214099884033203e-01
5.263805024516917674e-01,-8.339775838255808482e-02,3.424960051179380682e-02,6.429811970161176948e-02,-7.072298910049622245e-02,2.073275580717957867e-02,5.853453278541564941e-01
2.936016311646278965e-01,5.164593485584831334e-03,-9.860840486800831473e-03,-1.075885759899989844e-02,-4.455604568384890357e-02,-2.203222959110540027e-03,3.067134320735931396e-01
8.337024606490339718e-01,-1.179629823138217404e-01,1.376665062893925318e-02,5.324469983463581829e-02,-1.783665896173388873e-02,1.470165588553547058e-02,8.987575173377990723e-01
5.121560215381409931e-01,-1.273658644834096965e-02,-1.070735012075266224e-02,-2.895463220893928612e-03,-1.823584212415066495e-03,7.540199855687722101e-03,5.240772366523742676e-01
5.678345291567944431e-01,-6.166827961136084335e-02,1.770444051051073275e-02,1.847785863051466110e-02,-1.412128265194134572e-03,6.131938070220701621e-03,5.947701334953308105e-01
5.394547428848868176e-01,-4.535056755308616849e-02,-3.910419595470615572e-04,1.020776649830658914e-04,7.693377516221966590e-03,-4.228349117114128461e-03,5.638769865036010742e-01
5.378196788007678641e-01,-4.607542881008080959e-02,2.037936358849010143e-02,3.608999816333839823e-03,-7.618886429978800022e-03,-9.371605341552149276e-03,5.540972948074340820e-01
5.233324014860052387e-01,-4.134237221335232415e-02,1.259637985570130625e-02,-2.796642606510402890e-03,-1.865869069503345388e-03,-1.405306225251885810e-02,5.403105616569519043e-01
5.125117940324623866e-01,-4.784059794704853541e-02,-3.763326055467480780e-02,-2.283495648118198836e-03,8.570170657312249987e-04,4.843986660993706596e-03,5.553985238075256348e-01
5.375448340891562093e-01,-6.177751431902997470e-02,3.664062673646814594e-02,4.886475792941650208e-03,-3.779125748834889428e-03,-2.736217545278500727e-03,5.567999482154846191e-01
4.884364244650945541e-01,-3.226935587107643277e-02,-4.271183365970579460e-02,-3.439193115208272937e-05,6.034486783707290834e-04,7.114639118448131370e-03,5.261501073837280273e-01
3.207250437954921596e-01,7.143462335736885938e-03,-7.993943094350572376e-03,9.183191379186529668e-04,-2.604853819327741793e-02,2.533858316969982323e-03,3.246024250984191895e-01
4.280982214680805753e-01,2.125373599600981211e-02,-5.377732070278737342e-02,1.200291990155546162e-01,3.751515968916598054e-02,4.531780324671400885e-03,4.991821944713592529e-01
4.057474928187218555e-01,-2.199624908777278454e-02,-1.225291203315814759e-02,5.977891576960040615e-02,5.832675003591560048e-02,-4.806224370995078841e-03,4.470882117748260498e-01
5.001291904497697782e-01,-3.720984156355458539e-02,-3.472842556900307409e-02,-2.145242484964854628e-03,1.032910581156347950e-02,-3.900084948100355879e-03,5.364564657211303711e-01
4.695612231186686580e-01,-5.475828060571841238e-02,-1.722168448489075354e-02,7.774340998259445456e-05,-1.785918371543303990e-03,-1.693435560528231982e-03,5.066131949424743652e-01
2.897897637171651386e-01,3.333893371454510479e-03,-1.982578554169137086e-02,4.669111371052658138e-02,1.106750446087308680e-02,6.933083724661021768e-03,3.102892339229583740e-01
5.193885027650613218e-01,-3.744452929018182719e-02,-4.559283523475421429e-02,7.383441069080953767e-04,1.129479522819234810e-03,1.342893650516119872e-03,5.609612464904785156e-01
5.173847173108315767e-01,-3.587729662922187202e-02,-3.514144756046114204e-02,-4.991473409146603493e-03,3.135158703216260265e-03,7.914303107839821844e-04,5.529904365539550781e-01
3.573531266322397260e-01,3.483326071733863771e-03,-3.065845631524843906e-02,6.440933851474915650e-02,-1.803162157669363150e-02,-6.387696510983456068e-03,3.898907005786895752e-01
4.860936253546138675e-01,-3.602232903259114383e-02,-2.832490986820870860e-02,2.433779224023498167e-02,-2.800910354472718397e-02,-6.792048778778269486e-03,5.224120020866394043e-01
5.052766108092886510e-01,-2.532839559966160170e-02,-5.564857778110648967e-02,-4.433085658026158539e-03,-1.401952520670961787e-02,-2.607134633921654853e-03,5.470082163810729980e-01
5.096609238420038990e-01,-4.962426150595788954e-02,-3.365399254255840855e-02,-6.728146550272049884e-04,3.792155778386427541e-03,1.852607084089855777e-03,5.515232086181640625e-01
2.939265398217542069e-01,-1.112576923951562324e-02,-3.236604985734636841e-05,8.143323676550835721e-02,-3.441993282838017726e-02,5.026714920736919702e-03,3.366304039955139160e-01
4.692920522306328057e-01,-2.987022385776397226e-02,-3.969605325941150120e-02,1.141467165985655778e-02,6.884069820466716394e-02,3.996520164293144994e-03,5.184786915779113770e-01
4.424677160567595524e-01,-1.148603174331958021e-02,-4.718315485173874002e-02,4.104658570626276010e-03,2.022526857163619435e-02,2.787728912749752033e-04,4.741635620594024658e-01
3.740094076576111481e-01,-1.002401908206237979e-02,-1.886923066860440867e-02,-5.335783686308719249e-03,3.796059158169919762e-02,5.717788683506272104e-03,3.942883312702178955e-01
5.210601228299094334e-01,-1.049154943710120524e-02,-2.498120134814013626e-02,-1.505071837914623940e-03,2.587270216022925697e-03,-3.158926157533837806e-03,5.389953255653381348e-01
4.790339412530745244e-01,-2.486942120917379206e-02,-4.866880881718527174e-02,-9.155672226197094157e-03,3.409016058966263252e-02,8.286193097289945922e-03,5.200206637382507324e-01
3.616839112160100678e-01,-6.228127188289217520e-03,-1.923354041423175342e-02,2.578394162762497749e-02,5.702980669534907926e-02,3.486254952834034158e-03,3.900017440319061279e-01
5.290709642809652280e-01,-5.606602436258534272e-02,3.118095618625285614e-02,1.262655911821117857e-03,-8.464897359625156784e-03,-1.392005133667410669e-04,5.469604134559631348e-01
5.181288191064410409e-01,-3.112079738688797170e-02,-2.919298526898730928e-02,2.463968988793347088e-03,-5.485133670426295101e-04,1.177859250218835953e-03,5.483095049858093262e-01
4.794076448617075603e-01,-1.309596986259467521e-02,-4.851080398226478851e-02,-3.888813710464093451e-03,1.503731247041483442e-02,1.949445965886992304e-03,5.118506550788879395e-01
3.862596476028428705e-01,-1.646809092243081696e-02,-2.322358122311685147e-02,-7.756720267980943793e-03,2.680841744861919493e-02,1.534898657501320568e-02,4.098770916461944580e-01
3.597100004471379675e-01,-3.161291227934487358e-03,-1.785027301912706088e-02,-1.739467172431721862e-03,3.689963689496101457e-02,4.108434308896098154e-03,3.759867250919342041e-01
3.874565096671303555e-01,-7.995864246994111024e-03,-3.296594743943076500e-02,-5.503519754143941425e-04,-2.509759591601247800e-02,-6.197714072282179375e-03,4.109578728675842285e-01
5.184275615580655749e-01,5.547018525503294439e-03,-3.333836795738856495e-02,-3.347143936031337849e-03,3.194320968802869692e-04,-6.282757993426795612e-03,5.335301756858825684e-01
2.035018366757904706e-01,1.216989448820321451e-02,1.745795192642381199e-02,1.260435502147175431e-02,-2.754979621722793842e-02,4.058862889625785252e-03,1.960283368825912476e-01
2.858899232757596831e-01,5.686646085428112563e-03,1.462891616036779419e-02,1.722414134833061272e-02,-1.229829068438551519e-02,4.310627675580758038e-03,2.783661186695098877e-01
5.205088878438717259e-01,-1.924978033394156296e-02,-3.235170675167939325e-02,-1.682584621536725505e-03,-7.629423399375701324e-04,-2.777157299593342905e-04,5.464370250701904297e-01
3.104588619928040361e-01,1.142934690096186756e-02,3.663612512984221192e-03,2.148778513827685060e-02,-2.274488923043049404e-03,6.108874485281598141e-03,3.054730594158172607e-01
5.488823649334086952e-01,-6.467692081304196594e-02,3.987156538799221939e-02,5.986218269342064024e-03,1.186820781890289556e-02,-1.517933136428927356e-03,5.690128803253173828e-01
5.183888823237305932e-01,-3.593322401512735742e-02,-7.032599579077092322e-03,3.895748978214639158e-03,-1.422152410354047061e-02,-1.840224599489542973e-04,5.410548448562622070e-01
2.843472219396375733e-01,-8.670451837632930925e-04,-3.740032156398523377e-03,4.001312329442546778e-02,-4.147980906093908654e-02,4.126630138144861924e-03,3.036293983459472656e-01
3.300584988070423553e-01,-1.137791463259854585e-02,-1.464998414903176394e-02,3.358314212230141538e-02,-5.736365042864396968e-02,8.264999140641819675e-03,3.621697425842285156e-01
4.348567163922986145e-01,-2.641190954877473129e-02,-1.793754463483054895e-02,5.239073191032132121e-02,-9.495581578368970238e-03,1.134211469999696874e-02,4.667144715785980225e-01
3.157471808376504097e-01,-1.299562383743957383e-03,4.028208959022602786e-03,-1.391892918686995660e-03,1.873364139894825734e-03,1.171209565910257162e-02,3.150963783264160156e-01
3.572868363913544454e-01,-8.014301339291401982e-03,-1.121823633637220041e-02,1.477942706021556640e-02,-2.331371864226821147e-02,8.110791800499578957e-03,3.702820837497711182e-01
5.194048116451248642e-01,-2.232735022199161534e-02,-1.598818592572184838e-02,1.480468640084616145e-03,5.512467772326726722e-04,5.946035460613105506e-03,5.386959910392761230e-01
5.130773721601722404e-01,-1.462325909934222845e-02,-1.730102143612141652e-02,2.035524500366647728e-04,1.000600163571533415e-03,-4.443339513874831068e-04,5.290480852127075195e-01
5.143352735253607921e-01,-1.933941859931828655e-02,-8.402598719244647185e-03,-1.777684023298035237e-03,-1.587078186229407776e-03,1.795187117080457263e-03,5.283164978027343750e-01
5.195500573899330954e-01,-2.611303262067080078e-02,-3.411417532258334551e-02,1.507753787793938722e-03,9.740948215822266233e-04,8.834432249346568702e-04,5.497182607650756836e-01
5.165742032656678306e-01,-2.786842654889667981e-02,-1.258593212953265650e-02,2.179460134386169545e-03,3.585755217605575418e-03,1.755179155929083822e-03,5.370222926139831543e-01
5.098613606216210181e-01,-4.452394289932495863e-02,-4.048071198123706638e-02,6.942196001150718280e-04,-1.277290814475906793e-03,1.405877323770571155e-03,5.523858666419982910e-01
5.127164434814883709e-01,-1.459000152449488330e-02,2.018914462061122128e-03,-3.757972197353574937e-03,-3.573205938703720962e-03,9.155942030703851167e-03,5.195210576057434082e-01
5.247187932582049186e-01,-3.334193425549886181e-02,-3.943599546739753881e-02,4.754436208635635583e-03,2.252668861881767983e-03,1.996589723354235454e-03,5.612171888351440430e-01
5.139273441215562732e-01,-1.205390293772820587e-02,-1.301733943150981676e-02,-3.517561262367592707e-03,-2.802250960519009869e-03,6.865400696338276772e-03,5.266554951667785645e-01
5.185546851676730018e-01,-3.003497046613917698e-02,-3.757559901623236387e-02,-1.457483126316438515e-03,-2.372741727855108530e-04,1.412565683297174225e-03,5.524098873138427734e-01
5.141343593127238876e-01,-1.541491764415720001e-02,-1.043633793988957281e-02,-2.160804678013664853e-03,-1.394790218134298520e-03,2.878317705377234515e-03,5.271199941635131836e-01
5.142811937620966889e-01,-1.528493864472224573e-02,-1.195565957981897798e-02,-2.182314712140484905e-03,-2.156654297970807353e-03,5.631093658183853115e-03,5.280262231826782227e-01
4.769789889267185279e-01,-3.822974354968558530e-02,-3.420729170513320261e-02,-2.301877132577708493e-04,1.320978112020362166e-03,1.175389696136033661e-02,5.136182308197021484e-01
5.108521459865059677e-01,-1.231225507799815766e-02,-1.202103908985471814e-02,4.218369566671865408e-05,1.130047604349138568e-03,7.016434329485692414e-03,5.231636762619018555e-01
8.354699042203080905e-01,2.843643504845452807e-02,-7.743512039331501562e-02,3.159166228536166264e-03,-4.896771019308425801e-03,2.512596573618896406e-02,8.659962415695190430e-01
5.944308811585083951e-01,3.717629674955058583e-02,-1.099230151626880980e-01,-1.276348602886530478e-03,-6.491672464895681394e-02,2.802216906719071088e-02,6.550921797752380371e-01
5.796999391658375078e-01,2.450753269737046547e-02,-6.808728395505669884e-02,1.514151421933512126e-02,1.411889590793079415e-02,-2.088671382115222033e-02,6.089457869529724121e-01
5.482021291355583248e-01,4.650696084093985938e-02,-6.232676118855928760e-02,-7.100595211511589837e-03,2.757322127714548991e-03,-6.404141656933195689e-03,5.643060207366943359e-01
6.059434279357783781e-01,4.417346516405301626e-02,-7.693841869428397207e-02,-2.625456965558529802e-03,1.078678960005966837e-02,-6.999422820190845732e-03,6.315119266510009766e-01
5.536496943063057286e-01,2.957059888279148230e-02,-5.321512197017691514e-02,-3.898440052146281976e-02,-2.647095218175155376e-04,9.070003496205571517e-03,5.741994380950927734e-01
5.512652933825976653e-01,2.889569166046795923e-02,-6.191286201006906964e-02,-4.071120672405676572e-02,5.507468271885392411e-03,1.145693299952503692e-02,5.779349803924560547e-01
6.008528058939283101e-01,1.321084299753724767e-02,-7.947362410719094328e-02,3.091129347146651801e-02,9.079978166821267571e-03,-9.331930133468046076e-03,6.416805386543273926e-01
5.351543970551631002e-01,4.116144972491997400e-02,-6.250950166387536644e-02,-5.204035155049057879e-03,6.751533789325326121e-03,1.125961037434712424e-03,5.533635616302490234e-01
5.190018024106937133e-01,-4.360819868417367684e-02,-3.423835328230073749e-02,8.106906799336212116e-04,1.832681404396893643e-03,-8.398627556718932545e-04,5.579967498779296875e-01
5.493419844633506965e-01,2.044932938445209736e-02,-5.620205927608565299e-02,-6.473263892517304788e-03,1.333361345013700907e-03,-2.489081542345597878e-03,5.712205171585083008e-01
5.442291476552646445e-01,3.836654675512735091e-02,-5.259479696366162194e-02,-2.779289782306460649e-02,2.704459238730021631e-03,-5.267690661055168290e-03,5.591130256652832031e-01
5.116532674288304383e-01,-3.318684708500754810e-02,-3.396969273682254320e-02,-1.289387516089330818e-02,1.668428146339254474e-04,-2.725919732018941381e-03,5.457096695899963379e-01
5.457001035106330278e-01,1.996890031114648134e-02,-4.827635118167647454e-02,4.737171518943614733e-03,1.448325283345852947e-03,-3.781671167618122411e-03,5.630682706832885742e-01
5.243038496723870789e-01,-3.688498124765371422e-02,-4.491069478480252952e-02,-1.745192217390384405e-04,-6.740588846900355882e-04,-2.201066432369660261e-03,5.652585625648498535e-01
5.219208246575095522e-01,-3.503959341163326302e-02,-4.183417916571799400e-02,-1.720772365327528398e-03,-2.389354805006187361e-03,-1.308549419148036588e-04,5.604118704795837402e-01
5.198438163956724534e-01,-3.347809122247336067e-02,-4.794504935140572743e-02,3.246848344970113659e-04,1.238980913559365295e-03,-2.236161477077792167e-03,5.607131719589233398e-01
5.849408052539459835e-01,-1.042659268139412010e-02,-8.710428214618931575e-02,6.497589623426214267e-02,8.289661142551588147e-02,-6.704175907186964156e-02,6.728730201721191406e-01
5.228888713282169309e-01,-3.499243029204357480e-02,-4.976175358540935179e-02,1.186680544211058964e-04,1.783548723538269263e-03,-3.744091409443735599e-03,5.654563307762145996e-01
5.253817554065252082e-01,-4.884747173200140735e-02,-6.175698969057008547e-03,-7.606410719879955857e-04,-1.474691511428709648e-02,3.513443201747774945e-04,5.547172427177429199e-01
5.127241469853518474e-01,-1.694354127311953340e-02,-1.449373250460975204e-02,9.643504310218351883e-04,3.068206815324752237e-04,-4.243084486095373528e-04,5.284504890441894531e-01
4.926210309988348635e-01,-3.481885788789904068e-02,-4.017622475462043208e-02,4.270169444292818556e-03,4.012439657656406353e-03,-8.355664745398472606e-03,5.304334759712219238e-01
7.841939217493494318e-01,3.861131618973259738e-02,-9.165801955504876419e-02,-8.691595259118416184e-02,-3.018294306756747619e-02,2.931468276062475405e-03,8.339136838912963867e-01
7.463311891135940845e-01,1.289523699761541131e-02,-1.046345411647100487e-01,2.446994554394463228e-02,3.798058241283198966e-02,-1.224787629768449466e-02,8.028175830841064453e-01
5.151225472827620777e-01,-1.474595556325711265e-02,-2.236023613442394975e-02,4.547459673438543760e-04,-8.367268070655373233e-04,-1.208254177619110577e-03,5.337230563163757324e-01
5.835163162413388172e-01,2.600968297990904898e-02,-6.684689982990196788e-02,-2.512240106416741697e-02,1.543609897583328103e-02,-1.893633002381306385e-02,6.122810840606689453e-01
5.428339218090101337e-01,5.956526198390377225e-03,-4.407141292377517172e-02,-6.845136119519166194e-03,6.609252955699253598e-03,-9.625133958655275948e-03,5.640465617179870605e-01
5.821607378916471287e-01,3.068395541534660320e-02,-5.835935305001743734e-02,1.018396226582673203e-01,-5.693477990293631559e-03,-4.146320780228184705e-02,6.304993629455566406e-01
6.406568962156122815e-01,1.113049200763183144e-02,-6.032721380395072996e-02,1.216658154327266220e-02,-9.641776153013684528e-03,-2.089437815682559929e-02,6.696468591690063477e-01
5.930691691780498598e-01,1.735383082620806094e-03,-4.083916722501856889e-02,9.013029536777922984e-03,-1.142337440115430858e-03,-2.080239009273603112e-02,6.149876713752746582e-01
5.597964334149709842e-01,-4.552657405612797747e-02,-1.617431134011379501e-02,2.953665897090230726e-04,1.883485542997271819e-02,3.073454393362222772e-03,5.921171903610229492e-01
5.177344290993399767e-01,-2.029037576174846924e-02,-3.088781116984909425e-02,-3.999210742843766321e-04,-1.940407714604101483e-03,2.284697949571005651e-05,5.434118509292602539e-01
5.542277869366440957e-01,-6.202407468893533782e-02,-3.319300823658014044e-02,3.241829951107917142e-03,9.793417423393896773e-03,-8.536947827220130527e-03,6.028003692626953125e-01
5.627494293827756122e-01,-6.261776682743941391e-02,4.136310802070863879e-02,7.523604320407671457e-03,1.243581288565070130e-02,2.367085373319653685e-02,5.823955535888671875e-01
5.983118174986505888e-01,-8.035904863946402577e-02,3.949243382582204309e-02,1.341848559668496442e-02,-1.492066008882970106e-02,7.707667611274940031e-03,6.284943222999572754e-01
5.200740308579723248e-01,-3.389649553326198883e-02,-3.514675999631311498e-02,6.970381949167858129e-04,2.627731802010758056e-03,-1.793753630744409375e-05,5.546166896820068359e-01
5.861583171499378242e-01,-1.193156642660811451e-02,-2.930776369834012240e-02,1.410380282981921196e-02,-6.776269206467633484e-03,-4.735174370186887027e-02,6.130799651145935059e-01
5.416037973939236139e-01,-5.707620437305518935e-02,2.845519995590051199e-02,-2.770069584400593459e-03,8.799893663504284105e-03,1.760411070921965096e-02,5.618829727172851562e-01
5.390447104569511261e-01,-6.798246331997279124e-02,2.280666042151541228e-02,9.613024821673624501e-03,9.240629585389405123e-04,8.834824599678948662e-03,5.675624608993530273e-01
5.155044771182928365e-01,-2.012991019016258099e-02,-2.243044625935830538e-02,-4.452917413487712740e-04,1.814234570754767522e-03,2.949588056423380566e-04,5.367983579635620117e-01
5.202822615115065830e-01,-2.842770473579439572e-02,-3.510508606259724051e-02,4.065666361738712667e-03,2.351950831533145946e-03,-1.622894325115753055e-03,5.521460175514221191e-01
5.049686839783519288e-01,-4.524208547258948276e-02,-3.529721995801085588e-02,4.307982176079502672e-03,-1.419027139538347679e-03,4.513456952835796267e-03,5.454189777374267578e-01
5.172568920057052377e-01,-3.945005877563850794e-02,-4.376633124136203312e-02,2.730875574870215896e-04,-6.956597575035033390e-04,3.202353134997613471e-04,5.588793754577636719e-01
5.126930652396466392e-01,-4.708387928766652464e-02,-3.749524345716626073e-02,1.392003197251500670e-03,-8.185328323397445070e-04,1.727926316035196348e-03,5.550598502159118652e-01
5.169052832332818870e-01,-2.072321090615075745e-02,-3.660729998683909248e-02,-4.531074310482527227e-03,4.452305837972889146e-03,-8.017191710149378873e-05,5.458548665046691895e-01
5.134143242241835381e-01,-4.882643703496708509e-02,-3.872340314862057764e-02,-9.272138158315874814e-04,8.983007409186499889e-04,1.548820660436560056e-03,5.572688579559326172e-01
5.058598983466460197e-01,-4.814105420144781933e-02,-3.348085256721705649e-02,-3.372276873501684185e-03,1.804468073760543941e-03,1.446426498994192542e-03,5.468641519546508789e-01
5.181332056637995009e-01,-3.651258708215612825e-02,-3.322225880855650404e-02,5.312734038824808332e-03,-5.177915272157814462e-03,1.151702405840075846e-03,5.531608462333679199e-01
5.177968846644593892e-01,-2.996248527601236278e-02,-3.236865139420216919e-02,-1.415044356826754843e-03,2.440029851582457138e-03,2.253012930363774069e-04,5.489882826805114746e-01
5.069652842246014091e-01,-2.639194684114254397e-02,-5.459652351988292240e-02,-1.704662744131127340e-04,2.196866159312242661e-03,1.316509269194279872e-04,5.480175018310546875e-01
5.197309157922040956e-01,-3.256128003001995674e-02,-4.378972961475763315e-02,-6.956413273363712142e-04,3.780203485059442474e-03,-5.918339342838280876e-04,5.580317974090576172e-01
5.028447250103548205e-01,-3.022271850757116129e-02,-4.132350925371655603e-02,5.641131659567004061e-04,-7.703825592873579740e-04,-1.658607156188463298e-03,5.387138128280639648e-01
5.131577150867934201e-01,-3.152422933636123137e-02,-2.679683402255150781e-02,4.404244682000620233e-04,1.196859615243883821e-03,-5.088838112174509740e-04,5.423389077186584473e-01
5.013979496049834061e-01,-2.901465005300496447e-02,-5.107821296872164241e-02,2.189611801012879071e-04,-1.225186852531068987e-02,-2.250528816668815376e-03,5.422109961509704590e-01
5.003317422234050404e-01,-4.924613603771701986e-02,-3.296028246109661275e-02,8.927461578147787491e-04,-1.126787635768078345e-03,1.813175846509612827e-03,5.416334271430969238e-01
4.895152469743888624e-01,-2.743726293530324156e-02,-5.309326507975511977e-02,-3.826032226218199002e-05,-2.967646178396332428e-03,-5.310138855219330954e-03,5.303509235382080078e-01
4.815852773545883370e-01,-2.415041560237091156e-02,-5.259801023380530904e-02,-2.457901411333681275e-03,-1.711581268471322470e-02,-8.124935008894806562e-03,5.215935707092285156e-01
5.065767284098128265e-01,-3.078021887250334543e-02,-4.867912645773306290e-02,-9.504990251949635687e-05,-4.549219356742082235e-03,-3.293488012427784727e-03,5.466128587722778320e-01
4.945327737948071456e-01,-2.472219312841478223e-02,-5.379935716688186154e-02,-2.528298642194527594e-03,-4.547619285977877804e-03,-5.353037854049863542e-03,5.345435738563537598e-01
5.168974554769421026e-01,-4.134260347450768869e-02,-4.519661351094556023e-02,3.764337215013557501e-04,-8.630354670957351981e-04,5.178455699818573527e-04,5.601801276206970215e-01
4.687705317408578654e-01,-3.609415537400884055e-02,-3.687426809221214241e-02,2.085199550114514092e-02,7.461971579991365233e-02,2.856850854108838097e-03,5.227963328361511230e-01
4.813936380053460695e-01,-4.370771160892486518e-02,4.323633878836163902e-03,7.593319758231870109e-02,1.037315980328024079e-01,1.653545269956355548e-02,5.506502389907836914e-01
3.689530382870874203e-01,-1.747761586223395280e-02,-1.138536335091828999e-02,4.095595449027066709e-02,-2.622807218355210218e-02,6.337843972159000125e-03,3.927186429500579834e-01
5.129902723847274970e-01,-4.222949481108528857e-02,-3.982024084906971018e-02,-1.313132189204195338e-03,-1.603291806176823393e-04,1.112282776793756299e-03,5.540271401405334473e-01
5.124027722888069292e-01,-1.741657318644546093e-02,-1.579351659750644066e-02,-3.107133644266778585e-04,-2.332715687125150577e-03,8.322663842383212773e-03,5.292217731475830078e-01
5.170603317270107135e-01,-1.968704845418464688e-02,-2.534519392492040613e-02,-1.195930746240867490e-03,-2.994325488156255631e-05,-1.741933069770848150e-03,5.396111011505126953e-01
5.269018315388120932e-01,-3.015500908535478919e-02,-3.952541371311793506e-02,1.330532896037227861e-03,3.504040052794605425e-03,1.407964231245651798e-03,5.618434548377990723e-01
5.212601211421364900e-01,-2.839631906477299572e-02,-2.671884588256867588e-02,-1.106874447230626543e-03,2.415707528552695979e-03,-1.101437607719995236e-03,5.488422513008117676e-01
5.193246612511588367e-01,-1.772479971668264320e-02,-2.020111411717431804e-02,2.652373310348370671e-03,-2.729542634672576379e-03,-2.552548075942143602e-03,5.383504033088684082e-01
5.192457294284885672e-01,-1.732275527129645276e-02,-1.991301280501278637e-02,3.800305422327479761e-03,-2.771862320762783459e-03,-6.264502890356894033e-03,5.380393862724304199e-01
5.201789035931080329e-01,-2.385300899614550829e-02,-2.071937610828961107e-02,-3.066254341366827629e-03,3.154606831194356844e-04,9.402987955773790428e-04,5.425006151199340820e-01
5.299684708283152190e-01,-4.024379789322513057e-02,-3.937769779505562173e-02,-1.410852399449723281e-03,-2.943889980506225897e-05,-7.971396246018427802e-04,5.697866082191467285e-01
5.183983396953086853e-01,-2.432183816021474265e-02,-2.518157579311949834e-02,2.312176780147496560e-04,-1.636404816265046381e-03,-2.851592186258442279e-03,5.431805849075317383e-01
5.387113489965967839e-01,-4.247479490953462444e-02,3.080376668398177031e-02,7.483619639627978569e-03,-1.139971579005064767e-02,-1.941836320671959729e-02,5.497705936431884766e-01
5.375237892228027503e-01,-2.436831602289396548e-02,-2.514151486499557886e-02,4.753216462306997583e-03,2.072617212271766259e-03,-1.852543142249333738e-02,5.632655024528503418e-01
5.358640523407494083e-01,-1.314426942063179338e-02,-2.892130394594347176e-02,7.943398856240987136e-04,1.615021933766601272e-03,-1.710911389064583704e-02,5.578607916831970215e-01
4.609571313468044385e-01,-3.260095172719504331e-02,-3.434640499888194642e-02,2.121930571416585226e-02,-1.649494489132119403e-03,-1.322971880223213804e-02,4.963347017765045166e-01
5.179431148853578248e-01,1.475144153827462334e-03,-2.455277747636613883e-02,-2.129106982372324080e-03,3.020674186379859131e-03,-8.885433961558721408e-03,5.302235484123229980e-01
5.273590892896294902e-01,-3.989175430819302814e-02,-4.054920425575761489e-02,-1.672965780000089907e-03,-1.246846183956499795e-03,-2.045804244033004766e-03,5.676023960113525391e-01
5.145362994578773774e-01,-9.769830875204638110e-03,-1.202760648111186881e-02,2.255785052621358394e-03,5.848301349178255514e-04,-1.390282620029716955e-02,5.260056257247924805e-01
5.274021613060486668e-01,-3.897820649025146578e-02,-1.776691610870984039e-02,6.241845956470277318e-03,-1.099355898564891021e-02,-1.139991306520813210e-03,5.565126538276672363e-01
5.199023680933905212e-01,-2.110299695365386308e-03,-2.268876416130330420e-02,3.343943525543097151e-03,-2.253912344699646707e-03,-8.326779779805060233e-03,5.328411459922790527e-01
5.239710215916210112e-01,-3.438473530232902253e-02,-1.930023055831275869e-02,-4.832722277534593630e-03,2.200319519579207409e-03,9.199768868999876710e-04,5.510474443435668945e-01
5.197482932546717560e-01,-1.683981125608624563e-02,-2.497989263422425998e-02,-1.224525021104198213e-03,7.243873508322670480e-04,-1.331953288489283460e-02,5.412016510963439941e-01
4.902030835697961386e-01,-4.303080514976023729e-02,-2.581096580780922745e-02,9.964444036667434099e-03,9.454069441632637202e-04,-3.079910337977137102e-03,5.251492261886596680e-01
4.565596682907996362e-01,-4.303551894898158259e-02,-1.790537994500188135e-02,1.162803116827245027e-02,1.186313430513887164e-03,-3.359435666992229268e-03,4.879710078239440918e-01
5.263063948357504795e-01,-3.084246629527714889e-02,-3.326748552647448842e-02,-1.217827399792275776e-03,3.962819238809017503e-04,-3.594424930726863778e-04,5.583700537681579590e-01
5.033659361949837097e-01,-5.243428749482609286e-02,-2.583804259987665386e-02,1.024287827921774481e-02,4.032979746823484035e-03,-3.899293299456229635e-03,5.433674454689025879e-01
5.270742094569510483e-01,-3.031971830300003723e-02,-3.436242333091590884e-02,9.030963446383483920e-04,-7.911441333544387314e-06,-1.867898975387529640e-03,5.594377517700195312e-01
4.422971533677751976e-01,-4.598593004139372997e-02,-1.922709517697668291e-02,2.196803473517325300e-02,2.087171875069162609e-03,9.195742092193918537e-04,4.770051538944244385e-01
5.048925869907798791e-01,-5.395231723381477273e-02,-2.878920519479616358e-02,9.765642461116759085e-03,4.710079926920591326e-03,-1.873737445973102950e-03,5.470299124717712402e-01
5.065723350639488309e-01,-4.952306218409061045e-02,-2.891431343504100027e-02,1.873477608698096016e-04,4.723627455076447003e-04,-1.704602851108135081e-03,5.460914373397827148e-01
5.067321616208251278e-01,-5.397918044350813460e-02,-2.993661037270717307e-02,9.118588709363686234e-03,3.292569782030858871e-03,-8.494771470903551532e-04,5.493436455726623535e-01
5.139440043793884749e-01,-1.601038469442039869e-03,-3.628086190267021394e-02,6.074368140364467573e-03,6.814547107972393838e-03,1.998535739825353392e-03,5.339760184288024902e-01
5.162931704392574872e-01,-4.923145469671810770e-02,-3.313209429874608425e-02,2.822779280026334672e-03,1.834000385456686878e-03,-4.226585342868226583e-03,5.577278137207031250e-01
5.186029059094754423e-01,-5.136999079015702740e-02,-3.043511800623488472e-02,7.232382730826395802e-03,3.096489102597668654e-03,-1.414921254237147584e-03,5.599703192710876465e-01
5.186104676066121133e-01,-4.371764591423538127e-02,-3.141597988117841855e-02,1.617866491577853519e-02,8.783642895776303319e-03,-2.695128146189897621e-03,5.572119355201721191e-01
5.187965854544183131e-01,-3.407935630328645660e-02,-4.210972452857769666e-02,-4.166627556127764503e-03,7.386176184772684505e-03,3.112938781504597137e-04,5.571284890174865723e-01
5.497396965432246319e-01,-6.198608142118627873e-02,2.720749043009340618e-02,7.419382393729092272e-03,5.503212860796097543e-04,-3.429331154218822481e-03,5.725410580635070801e-01
5.290501148531199238e-01,-3.077122637772133906e-02,-1.696990453090493900e-02,6.616022526792244424e-03,4.763157764735046623e-03,-1.082811467918472735e-02,5.535478591918945312e-01
5.291200594308784755e-01,-4.427705554017277723e-02,8.645183337600587103e-03,-8.289080462650729895e-04,4.293156347491501081e-03,-3.870311631665361487e-03,5.489461421966552734e-01
5.184348998412905418e-01,-3.404749194473433160e-02,-4.190497995985861812e-02,-3.047531150093913538e-02,7.899529179162242953e-03,2.045550733206785796e-03,5.591293573379516602e-01
3.681782053074958427e-01,-1.434764779364861020e-02,-5.418710821519082121e-03,-3.006893992397412577e-03,-1.719408259269675134e-03,-7.940410412214821481e-03,3.784380257129669189e-01
5.221461834189542461e-01,-3.188358777814248590e-02,-1.920589842715833551e-02,-4.372588047019614933e-03,2.151643440792026102e-03,9.889240449778473677e-04,5.478686690330505371e-01
4.936860106664485159e-01,-2.763014033625701971e-02,-5.761766637003717939e-02,8.979158654936548242e-04,-6.009287481557626875e-05,-3.536468574912555573e-03,5.369755029678344727e-01
5.220652456897889593e-01,-2.978816818479501638e-02,-1.324919788569800527e-02,-8.533472835716704452e-03,-4.282414061852259438e-03,7.705737836682387265e-03,5.441877245903015137e-01
5.039391762916844986e-01,-3.521084903937304889e-02,-4.831077178389409088e-02,4.486743472992642517e-04,-9.200161406121826592e-04,-1.273969288005332703e-03,5.458252429962158203e-01
4.981536439756472090e-01,-4.275553755563124558e-02,-3.073314904727489361e-02,-2.526966318442258955e-03,3.332287043695153581e-03,-8.817737506457895612e-05,5.350483655929565430e-01
5.107028388288326060e-01,-4.834661884517205133e-02,-4.139209385474876268e-02,1.032038853686096112e-04,4.754933740177386646e-04,-3.178408308081790735e-03,5.556327700614929199e-01
4.241485250745807845e-01,-4.281182657119916857e-02,-1.468179735042007827e-02,-4.007974994158070708e-02,2.179126954327708851e-02,2.640157336880765652e-03,4.604045152664184570e-01
4.976863817136744084e-01,-4.475153326130851261e-02,-3.109589304394932974e-02,-4.155171826099529966e-03,5.143149239014347882e-03,1.414800143458943638e-03,5.358686447143554688e-01
4.775062847254127885e-01,-5.415843257297434099e-02,-2.051904214318059361e-02,-7.576914636011652764e-03,4.160872612101910312e-03,4.015212582951293782e-03,5.159327983856201172e-01
5.297258935289743675e-01,-3.771440309414245129e-02,-2.479173757927943811e-02,8.000747366975695385e-03,-1.082088669181663701e-02,-1.907413860076670117e-02,5.625454783439636230e-01
4.884702583086186212e-01,-2.088293456734879872e-02,-6.028092652164801502e-02,1.114838860181868599e-03,-6.941871952181228895e-04,-1.643483049885056642e-03,5.301637649536132812e-01
5.275958585629402231e-01,-2.641931789088983185e-02,-2.776832501190237834e-02,-1.737076685542679423e-03,4.134014437862742683e-03,-6.234218849154253561e-03,5.548503398895263672e-01
5.074998994671233721e-01,-3.819241817243865245e-02,-4.847234538156197647e-02,2.295310947402375956e-04,3.895725529131248747e-04,-2.482279548754950330e-03,5.509215593338012695e-01
5.127836706203763306e-01,-1.190751857550689796e-02,-1.991630161456822701e-02,-4.147996474619235229e-04,4.236795972474474551e-04,4.108221833770277220e-03,5.287899374961853027e-01
5.178511655880808640e-01,-2.950297107087357373e-02,-5.887144714967457171e-03,-2.271265065763117784e-03,4.264835443502861846e-03,-4.935494148212593579e-03,5.360701084136962891e-01
5.158053702067741941e-01,-1.708619849591619388e-02,-1.644552911429800202e-02,-1.884777548571788279e-03,3.190622313630861028e-03,-4.583286826547366792e-03,5.326693654060363770e-01
5.205903910852129890e-01,-1.694318334270733528e-02,-2.237397717661016028e-02,-3.961422247232387374e-03,2.933701240053919815e-03,-2.767730465641811063e-03,5.403581857681274414e-01
5.191885486290346297e-01,-3.219711345586590001e-02,-2.166290933868578183e-02,2.199720515059072710e-03,5.546894881479899132e-05,-5.578494630709905124e-03,5.462934970855712891e-01
5.181459410770778984e-01,-2.325803005421847591e-02,-9.545379730647451932e-03,3.299604164628559735e-03,-1.414756834824949057e-03,-8.092619998773120313e-03,5.348994135856628418e-01
5.111274442278447294e-01,-3.153089851895457540e-02,-2.954912359231157137e-02,-1.335455116078641466e-02,-1.807278861544949627e-02,2.523018718659819290e-03,5.430843234062194824e-01
5.016547947142586672e-01,-5.278510106333286767e-02,-3.513271701059661467e-02,6.963666102716519726e-05,1.175944545603024947e-03,-3.946145670784603939e-03,5.458744168281555176e-01
5.217386274016455605e-01,-1.822376043227499909e-02,-2.748653289123759169e-02,5.071426406840043831e-03,1.546825192986896582e-03,-4.272308498071917746e-03,5.447805523872375488e-01
5.145883965536970361e-01,-4.595848162874061060e-03,-2.738821095682666962e-02,-5.570218007620288125e-03,3.197166793506667909e-03,3.064717726279353720e-03,5.310904979705810547e-01
5.186156904219458852e-01,-2.609404896611766667e-02,-2.270310695656244104e-02,-1.578014261094628752e-03,1.763794692440907516e-03,-2.961184290238483806e-03,5.430619120597839355e-01
4.850140027718973790e-01,-2.723024902578330408e-02,-4.813546178210542648e-02,7.278651729087343798e-04,-2.650890206035600187e-04,-6.664575074181416058e-03,5.231394171714782715e-01
5.156440605433815216e-01,-1.025685264117315310e-02,-1.105694402968879220e-02,-9.047583827321388147e-04,-1.269500058932460486e-03,9.696561003116733676e-03,5.265762209892272949e-01
5.224473253370396364e-01,-4.106243057030936616e-02,7.082612070758498302e-03,1.095394573293676768e-04,-2.047912318765730214e-03,8.940938399802663902e-03,5.412794351577758789e-01
4.877378978259482301e-01,-2.615524129654531182e-02,-5.437843793036095663e-02,-3.877400071777346250e-03,-2.252925917721484929e-04,-8.310338460575624527e-04,5.286149382591247559e-01
4.700875030557233880e-01,-1.521128795390119803e-02,-5.171028802025476323e-02,2.241984273615518081e-03,-5.336810810555917516e-04,-2.542540051173953347e-03,5.045744180679321289e-01
5.203366531959896513e-01,-3.344146971234177035e-02,-2.949277318360135625e-02,1.100702155383334298e-03,3.720487851860393609e-03,-4.743754543285872002e-04,5.518559217453002930e-01
5.187224917867399032e-01,-2.121361149923980949e-02,-2.727729310111029482e-02,1.540581751641474228e-04,2.005986022062068719e-03,-4.460675291244152810e-03,5.430594682693481445e-01
4.781832292025515185e-01,-5.106357048609577731e-02,-1.987621462400482319e-02,1.114957495880176491e-04,2.522316110365610889e-03,1.899458926197828692e-04,5.143814086914062500e-01
4.894648747335939576e-01,-5.667274736350291775e-02,-2.039609838808706388e-02,1.092000868098650865e-02,2.053724619814258773e-03,-1.557591111675322624e-04,5.292832255363464355e-01
4.929600108922324586e-01,-4.427246863749567662e-02,-2.954266239814457018e-02,8.928835334384118902e-03,-3.222426881732839109e-03,8.960040792870282728e-04,5.302783250808715820e-01
4.456597922151575020e-01,-4.247608880948125498e-02,-2.157157849891350176e-02,1.586732868519988987e-02,-7.322576252468984866e-03,7.487242692397607854e-03,4.791594147682189941e-01
4.460779332406637487e-01,-4.243992038729058058e-02,-1.770265692265288182e-02,1.593598723036551354e-02,1.976456206448112644e-03,3.571473536034212165e-03,4.774818122386932373e-01
5.156197259157699886e-01,-2.829683972055982433e-02,-2.191981393403658052e-02,7.616115039975919617e-04,-3.604365721502716079e-03,-7.750167418367367956e-05,5.407938957214355469e-01
5.181740214283920842e-01,-2.822528804666754598e-02,-1.984440399810227795e-02,2.386343896526393459e-03,-2.200739466487283431e-03,3.881510784352767973e-03,5.423282384872436523e-01
5.139050718090594216e-01,-3.061121623333373787e-02,-2.413019307365280031e-02,-8.212893555766595912e-04,-1.237776357662429515e-03,8.628492004953834844e-04,5.413130521774291992e-01
5.112032296326645131e-01,-2.348684869363373839e-02,-1.313247478467258200e-02,-1.130915403975473648e-03,-1.201800557426710089e-03,2.389317416042165739e-03,5.296127200126647949e-01
5.094971197529928331e-01,-1.984131093272398227e-02,-1.428787817498811119e-02,-1.478886682771809796e-03,-2.331340999176131044e-04,2.234143651483997458e-03,5.266042947769165039e-01
5.221718672384398907e-01,-2.337404531805650776e-02,-2.469091421959651589e-02,-1.665447938722170562e-06,-6.776150796815877050e-03,2.984535213356767115e-03,5.463560819625854492e-01
4.739928438520928378e-01,-3.764895454446506862e-02,-3.790604863126381674e-02,-4.811008670814938834e-04,-3.631310698522467522e-04,-1.268575588206237101e-02,5.122429132461547852e-01
5.254175304158072990e-01,-4.830117072860795613e-02,-7.417413351603591165e-03,5.520714547391301474e-04,-1.539947081531569881e-02,2.057298367197023595e-03,5.550620555877685547e-01
5.153503307677638201e-01,-3.021168637854690364e-02,-2.864418532091608793e-02,1.710666232379492177e-03,3.902188304216651880e-03,3.415215499847623886e-04,5.448302626609802246e-01
5.147356205523765382e-01,-4.297058822209973150e-02,-4.186486403701145109e-02,-4.031563700312854525e-05,-8.663871111852470283e-04,-6.958674706718107408e-04,5.571575164794921875e-01
5.276777291807273063e-01,-4.166210264916611616e-02,8.176384733213221123e-03,3.678260937166247854e-03,-7.213486762630411803e-03,3.874317707242324119e-03,5.463500618934631348e-01
5.129476638359531382e-01,-3.326485446047766636e-02,-3.555327970338775789e-02,2.004320266462239399e-03,-1.177603516922584321e-03,-5.335030022930725832e-05,5.473751425743103027e-01
5.091282090904079016e-01,-3.736437064731096269e-02,-4.238626585563906590e-02,-6.217516218604902598e-03,-8.584469792920631018e-03,-6.554933441204615144e-03,5.494449138641357422e-01
5.083951843046576879e-01,-3.626754017389238749e-02,-3.968527242331473803e-02,1.499839304532631307e-03,-3.007388386825331911e-03,-4.360234417584371754e-03,5.464627742767333984e-01
5.125261064085691043e-01,-3.704384777054961497e-02,-3.147127436625410390e-02,1.272651078388120074e-03,-3.426674045148207326e-04,-1.034583645349314079e-03,5.468126535415649414e-01
4.753423225370482230e-01,-5.016615145856287428e-02,-2.347539031358872319e-02,-2.958957651807339259e-02,-1.030812736852630522e-02,-2.859658614466196840e-03,5.155727267265319824e-01
5.158884632269393755e-01,-3.371654744125995862e-02,-2.683856583215876723e-02,-3.103067243814408376e-04,3.508951680308861065e-03,-1.354457915157083027e-03,5.462375879287719727e-01
5.011900361772874124e-01,-5.508591062343784484e-02,-2.834351472457866117e-02,-3.657908980409528381e-03,2.047537706454475529e-03,-2.075314646831867126e-03,5.434588789939880371e-01
5.156917354870219627e-01,-3.344115943077766162e-02,-4.918286732888432766e-02,-1.145177029503697489e-03,3.701192873089283013e-03,-4.479951452359458297e-03,5.572649836540222168e-01
4.738847703749739515e-01,-2.534253652142587354e-02,-4.206969082923428527e-02,-1.388059793041827817e-03,1.327174781703486031e-02,-7.408184797540038301e-03,5.084851980209350586e-01
5.137440888570371511e-01,-3.537451874242211747e-02,-3.855363374708425939e-02,-1.834086437697949028e-03,-5.436815325154699396e-04,-1.197086271334251275e-03,5.507289171218872070e-01
5.118065003386447209e-01,-2.383796967272894252e-02,-2.059955768601026693e-02,-9.427232936360368382e-04,-1.730698953144970634e-03,-1.492329004553131448e-03,5.340498089790344238e-01
4.886109487281544150e-01,-2.665697124187146883e-02,-4.807502986156611535e-02,4.525880006333480102e-03,-3.706082820823990241e-04,-5.869022044912995846e-03,5.264608263969421387e-01
4.946680787124200229e-01,-5.755292581384771622e-02,-2.804261824350010035e-02,1.481098333916258496e-03,8.675252402811703531e-04,-9.992015619765268544e-04,5.380840897560119629e-01
5.211572701365541072e-01,-3.482862464690786308e-02,-3.977067234086231751e-02,-4.876547273296382226e-03,-3.312044833941481942e-03,-3.444448289002313961e-03,5.585985183715820312e-01
4.748272221865605935e-01,-3.004511724770977943e-02,-4.009178838190050054e-02,4.812670994604651906e-03,2.311586298781736007e-02,-1.310568423350520241e-02,5.121104121208190918e-01
5.219227335830891601e-01,-3.491127645796576751e-02,-4.414447493688325452e-02,3.155689495292076058e-04,-3.351231179035292214e-04,-1.247946797387010365e-03,5.615122914314270020e-01
4.823982144243404990e-01,-2.599012864549213320e-02,-4.522706994359310118e-02,-2.207900259996049049e-03,3.910871446666656145e-04,-6.805859102873094632e-03,5.184232592582702637e-01
5.137483895371239839e-01,-2.885406283883104606e-02,-2.941126400532478868e-02,2.389670606968004925e-03,1.348791254026443769e-03,4.949972563847205870e-04,5.429027676582336426e-01
4.891057208245331855e-01,-2.626589784631644386e-02,-3.665664792761430535e-02,3.649950996845223667e-04,1.026566325272769940e-02,-2.755829999222084853e-03,5.209705233573913574e-01
4.043579945464180758e-01,-2.138063016948119066e-02,-3.408663054246291457e-02,3.973428291030794979e-02,-2.674563484133305261e-02,1.051237459194971809e-02,4.404976963996887207e-01
4.920611095443400695e-01,-3.368494788941189810e-02,-4.017181698376309784e-02,-8.387701910988434872e-03,-1.142177504674425983e-02,-3.699026141926206254e-03,5.296271443367004395e-01
5.107561430980581685e-01,-3.569970717409995387e-02,-3.721019070593875600e-02,7.230513224432077134e-04,1.517282824363757384e-03,-6.664214474659424948e-04,5.472216010093688965e-01
4.953365118097740605e-01,-2.495736204211376763e-02,-5.954606440434648262e-02,2.966591593504512656e-03,-4.198092947978300515e-03,1.843314452516774246e-03,5.385051965713500977e-01
5.143073047324508984e-01,-3.428517485927445874e-02,-2.344512580530172530e-02,6.981277681337733770e-03,1.376732522232762546e-03,6.829353091523886589e-04,5.433946251869201660e-01
5.128432259270152560e-01,-4.116768482246738192e-02,-4.311957755940670767e-02,-2.302321837422712089e-04,-4.089784932061468216e-04,-4.883091363753571095e-04,5.549906492233276367e-01
5.209825780594767863e-01,-3.792288660502191044e-02,-2.413269035121523576e-02,3.224351079396259832e-03,9.352370904990327510e-04,-5.815557990813245313e-04,5.521710515022277832e-01
4.945212859050765464e-01,-2.539318401248777390e-02,-5.498691692448995361e-02,3.439391126473232037e-03,-1.607345150616280513e-02,1.307743682787950844e-03,5.360864996910095215e-01
4.802505055591057559e-01,-2.394003096436128630e-02,-5.339533789018741095e-02,1.880257951316140642e-03,-6.087366552130705176e-03,3.561157714262736754e-03,5.196985602378845215e-01
5.151035523990419307e-01,-3.156683807733054459e-02,-5.004238385344134121e-02,8.469964573945427608e-03,-4.914641130819339711e-03,-3.810695680984497319e-04,5.563973784446716309e-01
5.175374343568641677e-01,-3.268592950613413706e-02,-2.183550372345230417e-02,5.303815215675422752e-03,2.859976238975928640e-03,4.488091216988790259e-03,5.450345873832702637e-01
3.797625785165528178e-01,-9.220220030596582017e-03,-4.466194788028399199e-04,1.559048232709177480e-02,1.178824749827590834e-02,-3.640959607939994389e-03,3.862093389034271240e-01
3.210919165235265882e-01,2.761210072975042729e-03,-1.141640205959530696e-02,-1.338627851236796028e-02,-1.358989864047584683e-03,8.155336234569342257e-03,3.267893195152282715e-01
5.136697709675717149e-01,-3.291038365430487556e-02,-3.211503625568862264e-02,-2.257593292152000521e-03,-8.468342285935347841e-05,1.183545267366951969e-03,5.462007522583007812e-01
5.136398989871502341e-01,-4.272950593592447777e-02,-4.264790054220934934e-02,4.736575766765297119e-04,-1.973640667724082165e-04,-1.159358191796839568e-03,5.563329458236694336e-01
3.011061363873545615e-01,1.316303459689724398e-02,-3.854687327350447834e-03,1.817852290407269043e-05,-3.198062579901003732e-02,2.531646489884184677e-03,3.019742965698242188e-01
2.603676963082426354e-01,5.412605255517607961e-03,-2.649820273256942027e-03,-2.119918581736053229e-02,-3.788243119683494531e-02,-5.014038958839320617e-03,2.699102163314819336e-01
3.270313528319372942e-01,-9.598467399552154666e-03,-1.809236619245961630e-02,-3.069268258312249018e-02,-7.065461216130962396e-02,-1.188649467681015051e-02,3.667114675045013428e-01
2.411283554588824485e-01,1.411648869443189735e-02,1.016760741585966132e-02,-1.530307697256563966e-02,-3.326649350040793152e-02,-2.698146082797493912e-03,2.376779168844223022e-01
5.087453948277828042e-01,-3.877775974169836437e-02,-4.573038256209499552e-02,-7.651277471588174492e-04,-1.173025896030669432e-03,-1.148924679155189938e-03,5.510413050651550293e-01
2.709145254970660721e-01,1.325704694853217791e-02,-1.142917183974412332e-03,1.141449731495768581e-02,-2.818496581831820419e-02,4.830471517719410826e-05,2.703313827514648438e-01
5.035958448058595049e-01,-3.158028648961944129e-02,-4.128664384101898843e-02,6.922712636702991898e-04,-3.389590412408310677e-04,-2.084513817072086717e-03,5.401084423065185547e-01
4.481198582982094947e-01,-4.599124690245284808e-02,-2.084013187730907046e-02,-8.307494735068123026e-03,-8.593687352934427370e-03,-9.716557831917126131e-03,4.827657341957092285e-01
4.948674949375564958e-01,-5.327974493693124480e-02,-2.402120673527388672e-02,-4.056644588925368416e-03,-3.127718025426412529e-03,-5.731115972785719333e-03,5.342852473258972168e-01
4.956710751972780993e-01,-5.074304741633831051e-02,-3.093575675880042009e-02,4.389479005728199549e-04,-2.616493916602282473e-03,-1.838781739233221130e-03,5.368137359619140625e-01
4.658323534652853981e-01,-4.675577604294708922e-02,-2.525940140426424785e-02,-8.656435443765967200e-03,-4.515574311433693242e-04,-9.485751309022386404e-03,5.026780962944030762e-01
4.750903665023856748e-01,-5.245364136510499709e-02,-2.308478886942449959e-02,3.696365967386216881e-04,-3.466671554378334633e-03,-7.047398922371128117e-03,5.136704444885253906e-01
4.486584736961758413e-01,-4.903065202434095382e-02,-2.180710539638111567e-02,-1.270770826936003066e-02,-4.137256193159064878e-03,-7.707821012659607854e-03,4.853872358798980713e-01
4.727723454218786814e-01,-5.206653151049367434e-02,-1.991122579499587930e-02,-1.471378330420469380e-02,1.573871785072671059e-03,-1.469729625578033300e-03,5.101733803749084473e-01
5.042209518562756898e-01,-4.702805898620615599e-02,-3.183499655651916838e-02,-1.268068453552681323e-02,-2.886912245381057212e-03,-4.708893961268208715e-03,5.443391203880310059e-01
4.957362839547872491e-01,-5.232709315451652965e-02,-3.109471583048789567e-02,-4.556007356308748937e-03,-2.784530193030914941e-03,-5.085518676285653156e-03,5.379133224487304688e-01
5.200802521336780337e-01,-5.052017114380080720e-02,-3.247712820907169839e-02,3.863176620955853426e-03,-2.596968242058559674e-03,-1.496310044016148193e-03,5.618600845336914062e-01
5.256162067846088526e-01,2.116886993233646486e-03,-5.115717974008537894e-02,-3.647474696328182470e-02,-2.974930377551635984e-03,1.078852678541414485e-02,5.560085773468017578e-01
5.330667012330332355e-01,1.505271862050544529e-02,-4.044185684405657288e-02,-1.933657958874891248e-03,6.037435683951127355e-03,6.108822074649775807e-03,5.480853915214538574e-01
5.357459212611460631e-01,2.600347713268749694e-02,-4.753968752367729311e-02,4.247801602527854700e-03,-1.938311785468583637e-04,6.001052053697802056e-03,5.503601431846618652e-01
5.213814382633261690e-01,-2.915472084757286808e-03,-3.548799480701922415e-02,5.922373850414530336e-03,2.046007886777600213e-04,5.191981163741333886e-03,5.414906144142150879e-01
5.131523693006796449e-01,-3.659030860931464235e-02,-4.219201251473309044e-02,2.991303366664781541e-02,2.875587167864642954e-02,-4.689855218547517475e-03,5.572781562805175781e-01
5.091511362660263718e-01,-3.117667515788372090e-02,-4.825059873304110569e-02,2.454356914183813704e-03,-1.077161437612167731e-03,-7.727268523231525625e-03,5.492466092109680176e-01
5.154898326574122169e-01,-3.144773843028822458e-02,-4.843342268573655462e-02,1.210724610511104823e-03,1.748537623214969743e-03,-4.769838639378960569e-03,5.556988120079040527e-01
5.246014242279655182e-01,-3.589306218206581023e-02,-3.813063914946943078e-02,-3.566722488464132458e-03,8.678680934630154768e-04,-9.965735634064208561e-04,5.616552829742431641e-01
4.893892659083912133e-01,-4.355914751836170717e-02,-3.173948243697458094e-02,-4.095836090908083413e-03,1.925161575577880729e-02,-1.120018808177138982e-02,5.285952687263488770e-01
5.179549383209436364e-01,-2.364916053626850423e-02,-9.750709241837463015e-03,-4.209193925782441989e-03,8.847224952535977932e-04,1.601739916201959163e-03,5.348494052886962891e-01
4.403633620934948589e-01,-1.431879636873895079e-02,-4.309350788145077660e-02,3.682119237413474812e-05,2.101930027736914619e-02,-1.014506123514970692e-03,4.711430072784423828e-01
5.649066781900395906e-01,-5.967616726611696398e-02,2.182232719967960866e-02,-5.185565121591345986e-03,-7.844748366668445952e-03,2.083313727081264818e-02,5.894154310226440430e-01
5.156664713807737055e-01,-3.316079711871830482e-02,-4.821651159331150072e-02,1.665647623114261495e-03,1.263800186337896321e-03,-1.485306315012641662e-03,5.565256476402282715e-01
5.199940001217476793e-01,-1.267590912368371514e-02,-2.569367200027239395e-02,2.152750637989340327e-03,1.206868131953692160e-03,9.375870311222994982e-03,5.395579934120178223e-01
5.238278414247667936e-01,-4.628668218467188455e-02,-3.486264915975043066e-02,4.718957860704124912e-04,6.616374125320657667e-04,-3.690376105699884161e-03,5.645271539688110352e-01
3.439074345420008449e-01,-1.228685557325706612e-03,-3.910367810752435336e-04,7.563637154245878664e-04,-2.194115509409915897e-04,7.034615037944597690e-04,3.447228968143463135e-01
5.128608954015997368e-01,-1.570176187670882517e-02,-3.767750125668434258e-03,-6.293853319266365593e-04,-7.910351198019645097e-04,5.708775288630302952e-03,5.227943062782287598e-01
5.196154759613434981e-01,-3.005945840505525046e-02,-2.888017990039731808e-02,4.248727013101005409e-03,-2.620753731664560507e-03,8.863196938362398686e-04,5.491564869880676270e-01
5.145129769636647143e-01,-3.583780772133948744e-02,-3.530500262070895845e-02,4.580155941457154673e-04,-2.422099671565640377e-03,-5.836838824337880300e-04,5.501020550727844238e-01
5.151656901633536734e-01,-5.143946884803549113e-02,-3.347645331701393223e-02,1.593853648172996939e-03,1.414867183123504199e-03,-2.924980565431931946e-03,5.578758120536804199e-01
5.149408454187184292e-01,-4.865628944602087835e-02,-3.353379660954791674e-02,-2.757694131014024595e-04,1.432777387373763587e-03,-1.642147340788273954e-03,5.562031269073486328e-01
5.163637145889696800e-01,-4.402107851416670048e-02,-3.383927342221176859e-02,-1.995325435349693845e-03,-1.793311993523989331e-03,-1.604203115470965698e-03,5.553902983665466309e-01
5.194602904078240435e-01,-2.623022573954095216e-02,-3.450566962408477267e-02,-3.180573329782326788e-03,-2.114221688934003925e-03,-8.703107268187897311e-04,5.499168038368225098e-01
4.146984612586099850e-01,-2.269404949117145853e-02,-2.060008059578929962e-02,2.304459161753835694e-02,1.082072530589972548e-02,-8.684528043404965772e-03,4.388295710086822510e-01
5.157554019713819216e-01,-2.374449138464501674e-02,-2.414371309611657024e-02,4.289254502899359466e-03,-6.596126287565564359e-04,2.238382000315631334e-03,5.397658944129943848e-01
5.191902746002239333e-01,-3.596422455296433007e-02,-3.706895586836203571e-02,-5.092545102353183625e-03,3.003842774609310345e-03,8.990466722011404782e-04,5.558041930198669434e-01
5.136514089115216120e-01,-5.009467144952584050e-02,-3.211600541506537398e-02,4.974387285441474529e-03,2.426576735772623984e-03,-4.953218307137549452e-03,5.551242828369140625e-01
4.499672449023308651e-01,-4.508449426021562956e-02,-2.565886038064135732e-02,2.466313700180997742e-02,2.532252540235881665e-03,-4.356871471276760679e-03,4.875837266445159912e-01
5.040387249261083502e-01,-5.420022221602305290e-02,-2.798136852471760916e-02,9.323111466689605609e-03,6.068446037305747810e-03,-4.325043047830495410e-03,5.459936857223510742e-01
5.281500282379752997e-01,-4.687557046759696644e-02,2.089446047628656933e-02,3.201665723646258174e-03,9.455622613485667113e-03,2.219428119345893263e-03,5.446020960807800293e-01
5.359178651357527912e-01,2.461512456017786454e-02,-4.745425455732513176e-02,-1.544249711628739412e-02,5.368925525922311863e-03,2.029470824395566628e-02,5.527307391166687012e-01
5.143268260203356368e-01,-3.335604016410323447e-02,-3.195390496133748703e-02,2.127063360567081184e-03,-3.436556799725920151e-04,-1.048789287477758887e-03,5.469989180564880371e-01
5.172562597610923518e-01,-3.243837136783084274e-02,-2.880977271928122918e-02,1.499926740039865709e-03,-3.908398077525385844e-03,-2.008993313739461210e-04,5.479374527931213379e-01
5.575038216330463481e-01,4.529261629543054890e-02,-6.460895334444977101e-02,-2.642122443268362340e-03,5.191606460838650745e-03,-2.725052863198966242e-03,5.752004384994506836e-01
6.004474947469808921e-01,9.484795972123399865e-03,-6.018241180313033123e-02,-1.082834602465190636e-02,7.532766394936322996e-04,2.884092464763248626e-02,6.309595704078674316e-01
5.122778460965233815e-01,-4.151101449514132957e-02,-3.409810160825577086e-02,-7.270352994467456191e-03,-1.565787051210621697e-04,-1.352265780017512450e-03,5.502690076828002930e-01
5.340081145661768058e-01,1.659762907489523154e-02,-5.408261794968086122e-02,-8.343248277572852881e-03,3.807105878320442716e-03,1.863272218724974999e-03,5.563656687736511230e-01
5.126734383333930722e-01,-3.632843676283567524e-02,-3.442198021262909968e-02,-6.174164643283907260e-03,-1.820321188840906632e-03,-1.827652828877774065e-03,5.481736660003662109e-01
5.347034769839182911e-01,-1.760394867508174865e-03,-4.709058159190396275e-02,6.752912342934487902e-03,8.186453927271531046e-04,5.294988996796395897e-03,5.607042312622070312e-01
5.105267872330740975e-01,-3.408681391712356512e-02,-2.855670150654934791e-02,-1.166390430424487149e-06,-4.110541365525077762e-03,2.266612542465857433e-04,5.419166088104248047e-01
5.148618770863628846e-01,-4.270726039868841251e-02,-4.321232140241504371e-02,3.364044214498100880e-08,-9.051257106940617655e-04,-1.321599405690090912e-04,5.578240752220153809e-01
5.106662671048962654e-01,-4.123106716920563186e-02,-4.270212523814875816e-02,3.434767372375273765e-04,1.879639876469809930e-04,-9.442095330404625710e-04,5.526371598243713379e-01
5.117555545345101597e-01,-1.808677408293035693e-02,-1.788037595736749474e-02,2.736485466510910937e-03,2.901347950950379073e-03,2.255584509712534914e-03,5.297986268997192383e-01
5.007986089230757054e-01,-3.470171042813086082e-02,-4.964620318478996097e-02,-2.666326624726604328e-03,-2.600890160219740919e-03,-2.096670553660269672e-03,5.431772470474243164e-01
4.998205967524803617e-01,-5.330762045607823074e-02,-2.610136444113247967e-02,-4.953064714916700570e-03,-1.517389517502867879e-03,-1.797220296006041490e-03,5.401228070259094238e-01
5.109534178336678778e-01,-3.573951315917164862e-02,-4.239722499449533055e-02,5.980436606756010668e-04,-1.867472581104150488e-03,-7.713726667603607772e-04,5.500640869140625000e-01
5.114067077604439460e-01,-3.515118521170784716e-02,-4.686897015413235557e-02,-9.743069455097423648e-05,-6.005513670629446590e-03,-1.691542789150573970e-03,5.526157021522521973e-01
5.114806683049843983e-01,-4.656527034106833218e-02,-3.780704104629850626e-02,-1.216657362002224749e-03,-2.284405804132993469e-03,-1.565096460068548124e-03,5.537435412406921387e-01
5.132364124346120438e-01,-4.264194636555235229e-02,-4.350052086704778165e-02,-1.429166342541365821e-04,1.909303200932848483e-04,-6.632798408578511456e-09,5.563082695007324219e-01
5.241247619185287476e-01,-3.285712001886131883e-02,-2.736598688726243900e-02,-1.989412080278068345e-03,-2.019428972461329973e-03,5.408408297888273909e-04,5.542792677879333496e-01
5.059031822399403522e-01,-4.812618336198523639e-02,-3.719750199038579508e-02,5.628017023913137662e-04,-3.492626019311994147e-04,-2.692771951745949032e-03,5.486676692962646484e-01
5.076570888735002507e-01,-4.433951338658184693e-02,-4.013202972316737283e-02,1.353965005160977057e-03,1.452535968519413348e-03,-1.542257681775331072e-03,5.499221682548522949e-01
5.033364371351346511e-01,-4.926625492892902636e-02,-2.795431453017355183e-02,5.771211834209463709e-03,-2.500125770731245062e-04,-3.487901631310708420e-03,5.423868298530578613e-01
5.254732090565147340e-01,-3.743425335873692972e-02,-4.405622584821911047e-02,-3.553210065887109359e-04,3.891528897553540173e-03,-6.829589059444962900e-04,5.662891864776611328e-01
5.048955338151628336e-01,-4.900348672130791505e-02,-3.023518039999631424e-02,6.518435268327090956e-03,-7.031190844944700024e-04,-3.914380778162947563e-03,5.449179410934448242e-01
3.437302015765417718e-01,9.007641529535287406e-03,-8.945309914500515491e-03,1.001106477797222664e-03,-1.619667931935327745e-05,-1.720708085707247769e-04,3.440550267696380615e-01
5.050539188143283731e-01,-3.727017815304459192e-02,-4.367338673207332711e-02,7.037122062345709255e-05,-2.894465764286859315e-04,-3.231555348419401508e-03,5.455828309059143066e-01
5.156323274516727562e-01,-4.982732634225114920e-02,-3.296654033706547526e-02,-1.463983634413300837e-03,3.670673027170838769e-04,-2.676230881794611216e-03,5.572460293769836426e-01
5.164916332207936112e-01,-5.031610492468777118e-02,-3.315229708129702191e-02,-9.985675752353334426e-04,1.837324212149336064e-03,-3.254797907627902335e-03,5.584639310836791992e-01
5.168137593453043799e-01,-4.543633602532559657e-02,-3.300064310535094636e-02,-3.424473182366857653e-03,-7.937017370433481836e-05,-3.982510982321911725e-04,5.561686158180236816e-01
4.947837909289099501e-01,-4.468094691218718606e-02,-1.473166483427260087e-02,-3.265007383035718747e-02,1.308381277577823076e-01,-4.843439340466711845e-02,5.808219909667968750e-01
5.238860932894513489e-01,-3.427235602815259519e-02,-2.260256902243554245e-02,6.954588072075625245e-03,-2.839401858770703498e-04,-9.936047138706528403e-04,5.525501966476440430e-01
2.720826150438854785e-01,3.650700870198701764e-02,-3.411727392535301995e-02,-1.289002664736512982e-01,2.497043868452820514e-03,9.554234108889336123e-04,3.563541769981384277e-01
4.573948315727163205e-01,-3.632927230706997634e-02,-3.340567306817029958e-02,-1.430947988337075844e-02,1.296781917519126276e-02,7.644443399314761710e-03,4.935814738273620605e-01
3.873870578227648354e-01,-1.102293712844523710e-02,-1.252545176907468583e-02,2.533623006916740222e-03,-4.670343943312457312e-04,1.096824303880409267e-02,3.996401131153106689e-01
5.187959008903973990e-01,-3.117100594850791273e-02,-3.403791257015090221e-02,-1.865447066303693984e-03,1.250595469383321181e-04,3.576246029000927683e-04,5.514158010482788086e-01
4.937087072206493565e-01,-3.148295246885851606e-02,-3.974275591273987440e-02,-4.776789796984601613e-03,1.451463971566996705e-02,1.244501812503164516e-02,5.304692387580871582e-01
5.258054752359320183e-01,-3.709844321038796577e-02,-1.243849776095484749e-02,-4.937352757908278125e-04,5.246564066326784778e-03,1.916180148810210431e-03,5.510735511779785156e-01
5.160961854355342604e-01,-3.072252577126216577e-02,-3.929252666757818147e-02,5.386383263563153737e-03,-1.941054171956164802e-03,2.489748186775930078e-04,5.512430667877197266e-01
4.849522236400030106e-01,-2.202363572173926531e-02,-5.359551037043674970e-02,-9.212206168078832446e-04,1.443483930369709317e-02,2.032578244776498278e-03,5.240873098373413086e-01
4.259989291487892848e-01,-3.687381253002763870e-02,-1.122711657352309933e-02,-2.028745091692569103e-03,1.269419705680158985e-03,1.417492154917665082e-03,4.506228864192962646e-01
1.751415207948977537e-01,-4.978280884324817746e-02,-4.829584319219570876e-02,2.524160806735407936e-02,7.944735571144630193e-02,4.055868002917734864e-04,2.666575908660888672e-01
5.042639705761765567e-01,-3.087023594740720411e-02,-4.929709559447323364e-02,1.935867524890644807e-03,1.530860677219896687e-03,3.251311193634138456e-03,5.446273684501647949e-01
5.112437100959509317e-01,-3.376668307565280913e-02,-4.726396981410885267e-02,-1.815372652053253181e-03,5.637636720202664556e-03,6.462124680318463103e-04,5.519793033599853516e-01
5.131286222202762204e-01,-2.875671523539000130e-02,-4.748141754350646004e-02,7.856969718236406219e-03,6.461204893010444143e-03,6.132434200173331879e-03,5.518697500228881836e-01
4.861655828215261099e-01,-2.588727660008607878e-02,-5.020895550551135456e-02,-5.143386545140851522e-03,9.847257790460826887e-03,5.961274868706660339e-03,5.250909924507141113e-01
5.137735458771817143e-01,-3.177063982134895048e-02,-2.813347885388203795e-02,-1.737980568337401527e-03,4.774994464935351682e-04,-4.883731250755410239e-04,5.437443256378173828e-01
5.262696864551179576e-01,-4.749360840462160671e-02,-2.139562408448256181e-02,-1.313692440231766390e-03,1.597017091830437927e-02,-4.545043344041319326e-04,5.618560910224914551e-01
5.164466657579243059e-01,-3.549173784955392263e-02,-3.310561787540108880e-02,3.864953131718455986e-04,-1.594373591036277052e-04,-3.184202852402870203e-03,5.507773160934448242e-01
5.150271706271136729e-01,-1.025536844549360116e-02,-2.402665498764122720e-02,1.088324992456541262e-04,-2.408234699890601023e-04,-3.347237087019373347e-03,5.323335528373718262e-01
5.116173259002922968e-01,-3.147698931944684086e-02,-3.852027840281024851e-02,1.115649299006945530e-03,-7.309252465702192544e-03,-1.084342175705365480e-03,5.468032360076904297e-01
5.278021677844064730e-01,-4.270837946247679762e-02,2.148823592811868743e-02,2.360640769912157252e-03,-1.985204546031401967e-04,5.533186778246889509e-03,5.413753986358642578e-01
5.142403866785174582e-01,-3.448423902780817230e-02,-3.426092315366205399e-02,-1.226612432052872725e-04,-2.135510117296616182e-03,-1.943430040579609665e-03,5.486358404159545898e-01
5.138679957705105661e-01,-3.897332039298853634e-02,-4.253639109546522579e-02,3.308253305520350487e-04,-1.418667460418424715e-03,-1.270419553724016137e-03,5.546415448188781738e-01
5.139954280673206810e-01,-3.064547425491839783e-02,-2.811737563953564667e-02,8.277960983034995642e-04,2.759388856534581314e-03,2.969661569869353149e-05,5.434041619300842285e-01
5.012494087323962066e-01,-3.471506142494010239e-02,-4.778110982948979846e-02,-1.341680887275984065e-03,-1.195193538804948134e-03,-9.249369863192488314e-04,5.426267981529235840e-01
5.121680854749772749e-01,-3.499665940150800680e-02,-3.270190245538512341e-02,-1.016783890899873024e-03,1.427593424361370484e-03,1.972243822247294275e-04,5.460295081138610840e-01
3.805618836977007757e-01,-3.177256273192999303e-02,-6.178944660571727976e-04,-2.543876466975749165e-02,-6.553977372119559885e-03,-7.423657870839993171e-03,4.004743993282318115e-01
5.069227276493719625e-01,-2.936764971577887628e-02,-5.312600245710066837e-02,1.017452688666510389e-03,-5.645722595953783438e-03,-1.764612324112424220e-03,5.486540794372558594e-01
4.965717613652985141e-01,-5.518786565574432257e-02,-2.350647428014882023e-02,-1.674659733017291180e-02,-6.465615090628290540e-03,4.145630231852236603e-04,5.375213027000427246e-01
5.054731799677394388e-01,-4.803121489509076802e-02,-3.438799723849481071e-02,-2.569597635890113856e-03,1.176803321111242117e-03,-1.984616052896794828e-03,5.468431711196899414e-01
4.595015034072613136e-01,-5.010007267141325382e-02,-1.058830774549668341e-02,-1.380707105973200295e-02,-3.572464707882254138e-03,-3.253642267023672870e-03,4.916926324367523193e-01
5.014902541115029422e-01,-5.567864876226688575e-02,-2.421439632787383833e-02,-2.471675267753391508e-03,3.067657393191769184e-03,-3.125065080258870084e-03,5.421919822692871094e-01
4.799750973614226313e-01,-1.965073683614168565e-02,-5.548823790552750990e-02,5.041911230561209496e-03,-9.285559550372808613e-03,2.424580444723862301e-03,5.188142061233520508e-01
4.421199493133885494e-01,-5.049273929791936455e-02,-1.559445938825695932e-02,-1.427149540264310498e-02,-9.294990838452177415e-04,4.141846056003338277e-04,4.767682254314422607e-01
4.428168701567397614e-01,-4.947482665352853637e-02,-1.399889233134690714e-02,-1.636175777800897430e-02,-5.190623753598034998e-04,-5.536134728917902446e-03,4.764882326126098633e-01
4.672464818290846256e-01,-2.988753084830006457e-02,-3.103716066943204566e-02,-3.011666153668338466e-02,2.612218648546863050e-04,9.572270037168760385e-04,5.004388689994812012e-01
5.025064129775194122e-01,-5.256587519827091159e-02,-2.994216296249155307e-02,-1.638429437307990441e-02,-8.774492970497592284e-04,-3.549240561368565295e-03,5.448896288871765137e-01
5.027858543424299498e-01,-4.940303918900462721e-02,-2.775654510809108522e-02,-8.017285400252299049e-03,1.231635029264174265e-02,3.424782330398550446e-03,5.423202514648437500e-01
8.077414808832164006e-01,-1.184468928782766994e-01,1.401814517784708003e-02,1.112379949806039173e-02,6.663986766037210963e-02,-1.662810194737589231e-02,8.759039044380187988e-01
4.692886191766478254e-01,-5.269291354498403801e-02,-1.822887640115841701e-02,-1.654904334933439414e-02,2.115927016089866504e-04,-1.698000578935807787e-03,5.064516663551330566e-01
4.807442614234674338e-01,-5.281284330278609995e-02,-2.336026072604113768e-02,-5.724110274039673034e-03,-4.127623449350379357e-03,-5.785753565086425819e-03,5.196978449821472168e-01
4.943094429707173276e-01,-3.057299261486476349e-02,-4.974154608559452906e-02,-2.407541131420891985e-03,9.747685183441388672e-04,-2.309324151065566925e-03,5.347583293914794922e-01
5.111067073894937085e-01,-3.122394609302867052e-02,-3.217431466844880572e-02,4.367087684694124605e-04,-2.121091705068150427e-03,1.570651958463597717e-03,5.428262352943420410e-01
5.067331144395599285e-01,-3.404474469931959013e-02,-4.667538080320643434e-02,-2.114693929240610629e-03,-5.467123024663691176e-03,-1.791142490909548163e-03,5.473054647445678711e-01
5.284151207340572753e-01,-3.313972763723765924e-02,-1.466116669300515651e-02,7.051344107268240485e-03,4.753502941915586921e-03,-3.094587692295137655e-03,5.527696013450622559e-01
5.009761042753784199e-01,-5.560090285871274740e-02,-2.405800337187216642e-02,-9.059863520956456390e-03,2.798499202829718164e-03,1.488912915177053285e-04,5.417441129684448242e-01
4.475418828103231439e-01,-5.193783993160175361e-02,-1.676351753216878682e-02,-1.664979428386859778e-02,2.275342463672220487e-03,-4.675372282024235846e-05,4.837308526039123535e-01
5.176735768970084361e-01,-3.008741446083448845e-02,-1.247231292450509677e-02,3.368126133751501126e-03,3.154061825796980814e-03,1.429698958605553306e-03,5.392342209815979004e-01
4.429966152959022296e-01,-4.877990220847019942e-02,-1.391047779468723711e-02,-1.294953744418794218e-02,-5.748145618023133181e-04,-6.841814173480716653e-03,4.759795665740966797e-01
6.051475796964751463e-01,3.509524689227874750e-02,-6.563884502825712008e-02,3.258969795317502409e-03,2.796830661368116021e-04,-5.200485984897594387e-03,6.266130805015563965e-01
5.015307912568439663e-01,-3.321321667514240406e-02,-4.895126784391348740e-02,-9.694391213720931480e-04,-1.563635558455390290e-03,-6.126730588396706728e-03,5.428972840309143066e-01
5.018449893219442126e-01,-3.160977362145442338e-02,-5.300990853292983362e-02,3.810117058089144081e-04,-3.000506041369547985e-03,-5.175627303478262838e-03,5.445693135261535645e-01
5.089363283638665969e-01,-3.825182772790197694e-02,-4.791290211001317245e-02,-2.358210145497346174e-04,-6.978873121183140583e-04,-2.113909311957517297e-03,5.520957112312316895e-01
5.111158695084777603e-01,-3.080739875905316727e-02,-4.927343515418852737e-02,-1.698268763400241632e-03,-6.560612397097006490e-04,-1.005061840144747410e-03,5.514000058174133301e-01
4.998350224477745019e-01,-3.512576962718533258e-02,-4.825722704722804068e-02,-1.618109872173928735e-04,-8.147666405767136060e-04,-4.295625346741873025e-03,5.416989326477050781e-01
5.007652925487864337e-01,-3.154507474573436943e-02,-4.722809602596328427e-02,-2.742141491456109555e-04,-2.161416222378641748e-03,-2.597793191442140937e-03,5.403544902801513672e-01
5.209105662993777086e-01,-5.649741403501865045e-02,8.323915881813137574e-03,-1.476206640598658193e-02,-2.572839290074500213e-02,3.010077761073455451e-03,5.503091812133789062e-01
4.770543637533407599e-01,-1.934661077571192545e-02,-5.054106634473243265e-02,3.781285197427976426e-03,-4.499325021335498698e-05,2.451732063260153062e-03,5.127698183059692383e-01
5.176204008264035927e-01,-2.886135855801263972e-02,1.129616621203763382e-02,-2.684809065652932116e-03,-8.603260052176747242e-04,8.401359500818272874e-03,5.277737975120544434e-01
4.878298379984017941e-01,-2.254179999956593128e-02,-6.025617092517321360e-02,6.814245679764396706e-04,5.478510537293087863e-05,-6.745161083678598291e-04,5.302383303642272949e-01
4.908683578133519743e-01,-2.359805235651027400e-02,-5.730290764655354696e-02,5.288115874674191282e-04,2.901013357575280829e-04,-2.225455971442046911e-03,5.321350097656250000e-01
5.285368873951052926e-01,-4.210532667766728188e-02,1.669188819133610169e-03,5.656247015946484248e-03,8.886935907678653046e-03,8.794605787625437571e-03,5.505761504173278809e-01
5.225339980144355634e-01,-3.442855744829584341e-02,-4.649714291982418035e-02,-8.774583892549012209e-04,-9.616493553735901145e-03,-2.651632666539350310e-03,5.633609294891357422e-01
4.920760227552101185e-01,-3.481203016593401034e-02,-4.121840536761955942e-02,1.339206885763472542e-02,-8.769223903062964287e-03,1.036378551477919359e-02,5.311482548713684082e-01
4.690459526761339148e-01,-4.546695511231074738e-02,1.943041043324614248e-02,2.491157663103251915e-02,-8.549077125219778361e-02,-3.521196978239863468e-02,5.128860473632812500e-01
5.195757784666132917e-01,-3.786607598401561803e-02,-2.141468160468840143e-03,5.863661237593512619e-03,3.847313820245169737e-03,3.471093597530203016e-03,5.406357049942016602e-01
5.292138952506797445e-01,-4.658298378042191601e-02,2.094763475315705725e-02,2.084373507068781103e-03,7.601243329915015161e-03,4.381919546781456662e-03,5.454012155532836914e-01
3.985094317007167875e-01,-1.368216656843199153e-02,-1.610004423198210799e-02,3.002387585381403184e-02,-1.504648846103521370e-02,1.066374622120904066e-02,4.178863763809204102e-01
4.362347656352851266e-01,-7.851702032509921825e-02,4.673258244524455818e-03,6.569101770253772676e-02,-1.197594768789567998e-01,-4.976735340677148484e-02,5.408058762550354004e-01
5.151534742897034835e-01,-3.604579062007190471e-02,-3.678778843977079105e-02,2.035803844891125036e-02,-3.196793790037488758e-02,-6.701520781466043658e-03,5.555844902992248535e-01
5.493454442063256948e-01,-1.003970219252734442e-01,1.038616836533390320e-03,5.400656409543266867e-02,-1.368274966178443519e-01,-4.475084921946897304e-02,6.614156961441040039e-01
4.980086076882233037e-01,-3.447877065589738388e-02,-3.223038721284993136e-02,1.696270141769427170e-02,-8.810474592502491945e-03,-5.511184702213200700e-04,5.323979854583740234e-01
4.887298876504002632e-01,-4.662400777302305732e-02,-2.593572054028386864e-02,7.196104414827123432e-04,7.696814083320575439e-04,1.034494000638384176e-02,5.256240367889404297e-01
5.101901387289184964e-01,-3.458797197651786171e-02,-3.807085074927449297e-02,1.080146082908866982e-02,-2.461641278915676495e-02,2.795247179358402966e-03,5.485290288925170898e-01
5.122733677451891676e-01,-3.366118181881169735e-02,-3.856210255969841350e-02,1.910930166436208431e-04,-7.210087524807457481e-03,-1.578668438900463150e-03,5.485505461692810059e-01
5.123278608629129316e-01,-2.989605245134480116e-02,-4.279076495449204987e-02,4.041098988241455595e-03,-1.164906847954835269e-02,-1.146694154371602058e-03,5.492038726806640625e-01
5.119658810439970953e-01,4.567369324273790054e-03,-1.879669698778713149e-02,-1.678445083051865062e-03,-2.692573479925640650e-03,9.099512450980845255e-03,5.197428464889526367e-01
3.677782156847083650e-01,-1.994968552380174676e-02,-1.676788192572928327e-02,-4.920482643400356237e-02,-5.557183110066549192e-02,-1.517556980116999653e-02,4.078336656093597412e-01
2.901117508785013843e-01,2.944840546471524934e-03,7.829056989472768513e-03,-1.398894196454215748e-02,-1.467014647802050709e-02,-2.853026352016611866e-03,2.869551181793212891e-01
5.194958039016474016e-01,-1.479892304825886074e-02,-2.824232025657621992e-02,-1.397217807573208686e-03,-3.057040815180604460e-03,1.174328202518178804e-04,5.411730408668518066e-01
5.219901630011201110e-01,-2.953908639676480763e-02,-2.146510529028911041e-02,-4.290220585793725130e-03,2.429545465023531803e-03,-4.982080350304603960e-04,5.476042032241821289e-01
4.490277268874581229e-01,-1.358569340939991266e-02,-4.956414032582803775e-02,2.569434580285057308e-04,-2.760114593485295340e-03,1.603720006813297858e-03,4.816435575485229492e-01
5.178319414722407643e-01,-3.332701598475376614e-02,-2.549485855512378940e-02,1.957884744608440458e-03,3.465853016705760115e-03,-4.226296567412800059e-04,5.473288297653198242e-01
4.578472237181326898e-01,-4.150027761316502084e-02,-2.886542396324442983e-02,1.167530206851887485e-02,-8.593477602249531902e-03,1.042874361358204528e-02,4.941205680370330811e-01
2.881214086466840629e-01,7.386732198477685696e-03,7.741725959412165681e-03,-9.824798141600457960e-03,5.320571702646966069e-04,-2.121973438936630620e-03,2.810984849929809570e-01
2.962182904186358989e-01,3.629581356210706544e-03,-3.552869476633288559e-03,-2.505905275281616884e-02,-3.264000053157142811e-02,-5.472270557318809590e-03,3.048459589481353760e-01
4.939217965248058895e-01,-2.878077426023287200e-02,-5.484872486838451855e-02,-2.342560558707065897e-03,-2.407555369052423629e-03,-1.869718124136196579e-03,5.362533330917358398e-01
2.885402370146777917e-01,6.076592237426528542e-03,-2.821722666104864441e-03,-2.601207728028458871e-02,-3.133771015230335522e-02,-6.465807311916899058e-03,2.957698404788970947e-01
5.480931348102677791e-01,-4.241344067967575682e-02,-3.539123720777515025e-02,3.928584343751898023e-02,-2.736054706826010138e-02,-1.191776195892273876e-02,5.932138562202453613e-01
5.080226063147479376e-01,-4.139374793643837980e-02,-4.278306789961999756e-02,3.680985558798571442e-04,-1.898653462113176647e-03,4.092527151182351677e-03,5.501682162284851074e-01
5.012134188984407324e-01,-2.675811548683570962e-02,-5.398418681594310820e-02,-1.553342505919391324e-03,-4.862928084090140969e-03,-1.871027685369621883e-03,5.421794056892395020e-01
5.016067377380910575e-01,-3.111721950279219828e-02,-5.292883945480325592e-02,-3.089045171900102558e-03,-5.597507550990348663e-03,-1.748720164512508049e-03,5.440789461135864258e-01
5.012406894323238049e-01,-2.448399099408779533e-02,-5.653224732796194307e-02,1.257750762703689889e-03,-7.954179350967998177e-03,-1.976874437449807273e-03,5.426493883132934570e-01
4.764384320434284503e-01,-3.239307434441540678e-02,-3.973336866433405112e-02,8.456156172448148309e-05,-8.527338914882805557e-03,1.021174513251682167e-02,5.130588412284851074e-01
5.191637987214092753e-01,-1.495946711474002710e-02,-2.511656731105238460e-02,-3.892375835370154996e-03,-5.545012201906219379e-03,1.560624146773737734e-03,5.394079685211181641e-01
4.677823843414892213e-01,-2.166008977322353424e-02,-4.818366110757929532e-02,1.358891624295524396e-02,-1.687352714700188216e-02,8.100851200299274621e-03,5.048209428787231445e-01
5.117696409866137053e-01,-3.755048143376557568e-02,-3.964826227501835887e-02,8.174675016045056947e-03,-5.404436246398914602e-03,8.407129276017465125e-03,5.508261919021606445e-01
5.088303312459941941e-01,-2.881107564225193762e-02,-5.579165553604181760e-02,1.628894928738915506e-03,3.135353973024759301e-03,1.795297052325860393e-03,5.516694784164428711e-01
4.195355437776203122e-01,-4.096764451531895168e-02,3.174693904041403503e-04,-3.196412157209936079e-03,-3.165519159770043434e-03,-2.341463607127280695e-04,4.413803219795227051e-01
4.975716455738237731e-01,-2.922733564263826911e-02,-5.412534874353608361e-02,7.980915218288261483e-04,2.700824520519690391e-04,3.356025539211666096e-03,5.397121906280517578e-01
5.002442711564785149e-01,-3.245734427661484123e-02,-4.998883547510207803e-02,-1.059285456882263013e-03,9.800253124615623031e-04,1.716021710301073901e-03,5.416941046714782715e-01
5.105906310594949815e-01,-3.364501270247893805e-02,-5.040970853894305437e-02,4.145313373123207974e-03,-9.129172464058875162e-04,1.835038529867169229e-03,5.528666973114013672e-01
5.293876236394305934e-01,-5.399182662810891875e-02,-1.987250264421508428e-03,3.836378134741698365e-02,-2.328039084608047454e-02,-7.606909363835089033e-03,5.647234320640563965e-01
5.221083698591520994e-01,-3.841568724362123821e-02,1.636779142418942623e-03,4.357380921248825596e-03,-3.233508090132735865e-03,-7.034611857052818981e-03,5.418282151222229004e-01
5.494027180023109969e-01,-5.530160706998707432e-02,3.903297010137304901e-02,1.880872788630450626e-02,-4.143053973320920402e-02,-2.568715031155985665e-02,5.707119107246398926e-01
5.882994771963552250e-01,-2.732749465620767926e-02,-1.972047986106181816e-02,-4.299115803429657059e-03,-2.633134861322900238e-03,-3.774874919565695403e-02,6.154043674468994141e-01
5.892140949206121636e-01,-4.210061795539032925e-02,-1.958622196397813431e-02,1.255142632288486909e-02,1.885776711602476369e-02,-3.547679829679138003e-02,6.246333122253417969e-01
5.198392751990977834e-01,-3.954938452904041557e-02,-4.286063598318204382e-02,-1.030371263365055870e-03,1.086866763008846127e-03,-3.904522486434814092e-04,5.610580444335937500e-01
5.289097765724959377e-01,-5.406714046174737609e-02,2.090535784733452140e-02,-2.459576608612545120e-03,7.442540456752930710e-03,3.318324320355173912e-03,5.495389699935913086e-01
5.294966743345234095e-01,-3.648647365837356937e-02,6.256111780248152510e-04,-4.226943844822995781e-03,-7.390389004117206822e-04,1.490425059365645122e-02,5.490273833274841309e-01
5.346708737115852816e-01,-2.628671367234025613e-02,-2.087269129919025468e-02,-9.846602683691505625e-03,-5.138704300606285538e-03,1.630475762506378851e-02,5.593150258064270020e-01
5.663855811253639683e-01,-4.602469512736348523e-02,-1.535818519219053768e-02,4.700107034106302227e-03,2.378516081284652410e-03,3.975846187109321854e-03,5.977767109870910645e-01
4.985849681863506189e-01,-2.193625435418780634e-02,-4.687119693211813654e-02,1.465013876061614824e-02,1.189596410419470514e-02,-1.157093716913694392e-02,5.348021388053894043e-01
5.192202892799078207e-01,-7.855719357233448275e-03,-2.703921706042636264e-02,-2.263305559733302095e-04,1.132494026574430322e-03,-3.160985679707949483e-03,5.369564890861511230e-01
5.246354294838727617e-01,-3.777790656068200081e-02,-1.672068772076565346e-02,1.000720282109775943e-03,1.178438872987054055e-02,2.906729183635600039e-03,5.525887012481689453e-01
4.794719323406024247e-01,-4.299412158587362365e-02,-2.829026711685822537e-02,1.651509976560764162e-02,5.864822391731545209e-03,1.002302659440281254e-02,5.164567232131958008e-01
5.076203871970459414e-01,-5.354028523308945742e-02,-3.065694931215634522e-02,1.714680473292960923e-03,-2.160493303673814594e-04,2.420618481926619520e-03,5.501002073287963867e-01
4.847072937527204806e-01,-4.825271472600020650e-02,-2.468383511605556913e-02,1.390829395818189533e-02,-1.110874344718201442e-03,5.457514369837862707e-03,5.222202539443969727e-01
5.031359559885482113e-01,-5.294742172011482340e-02,-2.906067125236702631e-02,1.160135191014997512e-03,1.224111879328248836e-03,8.611396707056032758e-04,5.445429682731628418e-01
5.112554609264277072e-01,-3.929503434379361115e-02,-3.270981464554481577e-02,3.767435998546247880e-05,4.489710047913859567e-03,1.388631011449011586e-04,5.473428964614868164e-01
5.323429411879554429e-01,-5.374480728628097670e-02,4.025579797066525245e-02,2.958488001101384178e-03,1.902082623529626187e-03,2.996514428421062550e-03,5.452581048011779785e-01
5.433925737239169163e-01,-4.889450139492670933e-02,7.563985513346860312e-03,-6.953499538657317890e-04,-7.260337867759446284e-03,-4.647673996077790297e-03,5.663711428642272949e-01
8.264886212082142025e-01,-6.940357002647801199e-02,-4.762447993282159509e-02,1.154375892935811422e-02,5.495726011789425075e-02,-6.225747893799469385e-02,8.970362544059753418e-01
5.197072022060993390e-01,-4.120894122743826160e-02,2.183593494487495734e-02,-1.252994487697399722e-03,-1.983963881391234349e-03,5.802873137119157233e-03,5.323121547698974609e-01
5.037344620631812875e-01,-4.344062287644243070e-02,-3.625578598545609044e-02,-2.091897732799613639e-03,1.954022642430613618e-03,4.576624686367020134e-03,5.436986684799194336e-01
5.083578656777527627e-01,-4.718852060786404845e-02,-3.635003984179535630e-02,-8.805143390310493211e-04,2.169446983200796174e-03,2.599149924921816037e-03,5.502405762672424316e-01
5.015429331946693603e-01,-5.258350149761303882e-02,-3.058423702188656224e-02,-1.356348391600090521e-03,4.720311008640737903e-03,2.611166478781012934e-03,5.435462594032287598e-01
4.998707936013569997e-01,-5.348978153386393930e-02,-2.836251138161152707e-02,-1.586300240166568613e-03,2.644661312962054683e-03,2.267026742826719950e-03,5.412752032279968262e-01
5.085751800188742511e-01,-5.179145134035981202e-02,-3.364871558847132293e-02,-4.322460567726859638e-03,-1.278934401870672390e-03,1.667053681749991034e-03,5.515819191932678223e-01
5.186620635331202767e-01,-2.366429338485798173e-03,-3.227616481457337705e-02,-1.095750525495894565e-02,1.994499592772158453e-03,1.135336763356012586e-02,5.373154878616333008e-01
5.239773002997383244e-01,-3.577632032805297402e-02,9.052545578597248621e-03,2.733405482082540937e-03,-1.616103172920383118e-03,-5.117896281856387439e-03,5.388408303260803223e-01
5.298134075968687906e-01,-4.865564210552361657e-02,2.951293727231762976e-02,3.986174529817412479e-03,9.998968743546016429e-04,-2.062846103974800682e-03,5.436746478080749512e-01
5.115842483956297704e-01,-3.600962313258862513e-02,-4.280662310794489112e-02,-2.939643176134338441e-05,-1.198898265971755535e-02,-2.366856412189191714e-03,5.514301657676696777e-01
5.205958785834692293e-01,-1.510492323670373227e-02,-2.427323497768496541e-02,-3.459886977437731572e-03,3.936976384748409365e-03,-1.403538085277762247e-03,5.404250025749206543e-01
4.877020746468000989e-01,-2.384615988959026822e-02,-5.690623136043790331e-02,-1.035449094128514363e-03,-3.366376433056073991e-03,-9.476537647550328618e-04,5.288915634155273438e-01
5.283626821702431808e-01,1.133145872315152736e-02,-4.679463959654975302e-02,-8.944122718683061510e-03,-1.272766387199175979e-03,5.614195319668445136e-03,5.487188100814819336e-01
5.163009602014703159e-01,-3.864899740578325860e-03,-3.326362561420795338e-02,3.568550408161879923e-03,3.851154538795372329e-03,4.661184359063167727e-03,5.356088876724243164e-01
5.228846204455761537e-01,-2.132820402815752137e-02,-3.362199183065017749e-02,-5.600528354589009647e-03,3.471467273146065010e-03,7.782624148921747035e-04,5.505826473236083984e-01
5.130515500090975234e-01,-5.155922058175582690e-03,-3.555345871159140692e-02,-2.314474339375217210e-02,5.742696386954220444e-04,4.093204076361853065e-03,5.356057286262512207e-01
5.131337108206984743e-01,-4.152663399838443792e-02,-3.176045429813464938e-02,-6.975266046774322194e-03,1.725408685570196639e-03,-8.014689392838832615e-04,5.499848723411560059e-01
4.623357375240961242e-01,-4.447401222434027579e-02,-2.045633777039485013e-02,3.021676819370070627e-02,-1.396995373402926469e-02,7.261005730903445470e-03,4.987418055534362793e-01
4.897887597885591249e-01,-3.340888578998171821e-02,-3.019233549794314575e-02,7.347065133740130795e-03,1.569036114983236863e-02,-1.592043855962463686e-03,5.224665999412536621e-01
5.292621406117345995e-01,-3.823013208546024999e-02,-3.685335951113535846e-02,-2.984047455311421033e-03,-4.678153772132419633e-03,-2.950081519549913739e-03,5.669096708297729492e-01
4.893651204849533976e-01,-2.392358142771258689e-02,-5.860263279355540367e-02,-1.739761354983288899e-03,-3.666078028176111316e-03,-1.518185236505342458e-03,5.315304398536682129e-01
4.858807892839209774e-01,-2.963775016304567855e-02,-4.255303144791997005e-02,9.935129967409639384e-03,1.164894502845209914e-02,-7.279614700448295075e-03,5.229210257530212402e-01
5.855799817569209420e-01,-6.234575453017293656e-02,2.717895377865350848e-02,1.323804453630281382e-02,-2.055227272918697806e-02,2.644909051042939468e-02,6.113171577453613281e-01
4.749236216788282339e-01,-2.934717497879935078e-02,-3.558099172866902027e-02,8.370787280638078073e-03,-7.779817355833360676e-04,-8.984476269666140033e-03,5.078637599945068359e-01
4.271818700561681448e-01,-2.719447472572131264e-02,-2.981336761313757577e-02,9.646212245025183665e-03,2.697693778829179240e-02,-1.049584147971665757e-02,4.587456583976745605e-01
4.952842155233608268e-01,-2.312332619409002143e-02,-6.097148639633206968e-02,2.542956550097418434e-03,-4.405293340109120784e-03,8.346779623010570134e-04,5.384044647216796875e-01
5.152609747765387604e-01,-3.850182560390999487e-02,-3.484083191971149018e-02,-3.299631807716345983e-03,-3.413545196854384824e-03,-2.471251876876070716e-03,5.520192384719848633e-01
5.146971692906137097e-01,-4.002011936851496143e-02,-3.217189017917071459e-02,-2.130933887825524255e-03,1.405988993405641544e-03,-8.459619426527305861e-05,5.508528947830200195e-01
4.943726272932620347e-01,-4.414404526017362551e-02,-3.348024716613423601e-02,8.426144272980539210e-03,1.485218998258697881e-02,-1.089431480474338000e-02,5.344175696372985840e-01
5.013740942077091756e-01,-2.946856564458621985e-02,-5.656831451666904931e-02,-1.661705749376033965e-03,-7.939076285416270251e-03,-1.729699303267261254e-03,5.450875163078308105e-01
4.936494375714045590e-01,-2.392934915772004789e-02,-5.465434632015861438e-02,6.215653413911017243e-04,-1.579533543023884366e-04,-6.685846248384297568e-04,5.336075425148010254e-01
5.015015983860831028e-01,-3.598274506571907949e-02,-4.310085449333517227e-02,-2.271754526717671176e-03,-1.204182247188072133e-03,-4.356772212491010973e-03,5.411494374275207520e-01
5.370970164294548432e-01,-3.284759207840790007e-02,-3.273647358649262040e-02,-8.963928343535587694e-04,1.096138770585304914e-02,-8.823968373894494968e-03,5.704120993614196777e-01
5.168823565903865047e-01,-3.525378945636511996e-02,-3.124974397784782698e-02,3.855098515275328513e-02,6.060099205680369305e-02,5.723601304425763280e-03,5.641222000122070312e-01
5.192548955321805160e-01,-3.870167448968236945e-02,-3.864888063664836948e-02,4.917176437007182249e-05,2.157905318730583485e-03,2.085708772140378031e-03,5.579543709754943848e-01
5.183383587438580298e-01,-3.629515810072897475e-02,-3.495589167412785359e-02,1.853862701466228811e-03,-3.540343365438513050e-04,-1.720782603486705614e-03,5.539827346801757812e-01
5.175332950420081790e-01,-4.834284420015602657e-02,-3.394121848665118679e-02,-3.783219995938588427e-04,5.570139540997281254e-04,-2.796715803863857389e-03,5.588367581367492676e-01
4.764453874588644999e-01,-3.544063549197820628e-02,-3.226513352397639145e-02,3.883464594129550237e-04,8.904479586128087555e-04,9.401476153859777973e-03,5.105682015419006348e-01
5.245647307035022910e-01,-4.189667566683794031e-02,-3.587831135259292314e-02,-3.448753701311078803e-03,-1.933872638544240378e-03,-3.413803805374891211e-04,5.635182857513427734e-01
4.990695040254582993e-01,-2.774546426325918969e-02,-5.506082238418610886e-02,3.485321827670898823e-03,-1.643160613282871165e-03,2.300101273478342111e-03,5.410459041595458984e-01
5.062751223921693189e-01,-5.409485794691759608e-02,-3.112365913092104974e-02,-4.651940945011283877e-03,2.904225315280163384e-03,-4.826281636359384323e-04,5.493275523185729980e-01
4.018457648879542043e-01,2.228293444529307055e-02,-9.891312137202534771e-02,-1.267387981302650346e-01,2.700392972985471082e-02,-2.129597000984988914e-02,5.064526796340942383e-01
4.863873120398568006e-01,-2.831175908753300052e-02,-4.856969525575574598e-02,3.571468398828778982e-03,-4.202457319171763392e-03,5.528811256504111149e-03,5.252953767776489258e-01
5.131685658858153865e-01,-4.844263723626493490e-02,-3.505566104772506186e-02,-1.420464676741176524e-03,5.026877326875546503e-03,1.131620858119467910e-03,5.551159977912902832e-01
4.792746962550255563e-01,-5.698930403070670558e-02,-2.108685135970816971e-02,-7.136872822595198389e-03,3.620730235247808703e-07,-3.150744510851885127e-03,5.194203257560729980e-01
5.017179392763545520e-01,-5.389114322557791992e-02,-2.696678851023551204e-02,-5.764604008908970345e-03,2.793689981853510196e-03,5.024603934946662506e-04,5.427622199058532715e-01
4.742391437144640731e-01,-1.607736547229285384e-02,-5.004468052160429559e-02,6.358052454138449390e-03,-1.381506489252730396e-02,4.450357433381558342e-03,5.088929533958435059e-01
5.274876713025054009e-01,-4.796635827447964795e-02,1.600557486758441561e-02,4.310835810403872322e-03,-1.040449775880826488e-02,3.782032304397660999e-03,5.466719865798950195e-01
4.547459231069090890e-01,-1.921695958369365465e-02,-4.824833173667403274e-02,-1.753379855588611846e-04,-1.131831342382003808e-02,6.211115149556469331e-03,4.896361529827117920e-01
5.270707966821805979e-01,-3.781306799064379498e-02,-3.747077733402129351e-02,-2.831261778756641485e-03,1.616483540054398579e-02,3.699804801030628226e-03,5.654640197753906250e-01
4.686181914124421533e-01,-2.634593565766077394e-02,-4.841851641164493514e-02,1.423170142497138906e-02,-1.931434985805484394e-02,7.315757948334144709e-03,5.082215666770935059e-01
5.285220410271437297e-01,-4.827271968414520442e-02,3.125619588156555717e-02,5.492776263178784750e-03,-8.535670480014447004e-03,-2.437511800648893816e-03,5.417306423187255859e-01
7.814358389230129376e-01,-7.900158096381809658e-02,4.184913084612634782e-03,3.172454852835964595e-02,-5.098038727894920602e-03,-2.827909046540154347e-02,8.253436684608459473e-01
5.113215074884371880e-01,-4.383399104763324727e-02,-3.871973414436172267e-02,-1.537052208820571201e-03,3.900375173976218177e-03,4.094056400658135572e-03,5.527093410491943359e-01
5.272723517181256980e-01,-3.300641964190917377e-02,-7.820119797310315368e-03,6.695155751318839117e-03,-2.365997821637177458e-03,-2.942650226256860683e-03,5.482814311981201172e-01
5.250042152669271989e-01,-3.594901193385222071e-02,-2.124598819181300335e-02,4.826916621260632020e-03,1.593616450442275970e-02,1.491080783776246692e-03,5.545046925544738770e-01
5.048879509984922631e-01,-4.350736102464536348e-02,-3.630480774229891128e-02,-1.303667456766956396e-03,1.571821284118332315e-03,4.579993568738199849e-03,5.448989868164062500e-01
5.121348794852529362e-01,-4.392563402053584198e-02,-4.287850178522262246e-02,-3.363059264138329538e-03,1.802259558088530316e-03,3.431619596789477981e-03,5.556088089942932129e-01
5.172601765873721114e-01,-4.418235735620412719e-02,-4.309063068985785616e-02,-1.567487267026231859e-03,7.312941050323887738e-04,3.440457710775458519e-03,5.609371066093444824e-01
5.301396381037717376e-01,-5.517496994896045615e-02,2.074844322755453607e-02,-5.420745003252018697e-04,9.672181371401553790e-03,8.742774219014961797e-04,5.515453815460205078e-01
5.080152285988499550e-01,-4.362059584475896923e-02,-4.154520331213501505e-02,-2.464479886348613751e-03,1.140805499686921240e-05,4.524549623487754586e-03,5.506733655929565430e-01
4.999899601311524888e-01,-4.409893555317168090e-02,-3.935207006688259956e-02,1.003582461560259672e-03,2.062543805899309107e-03,7.190891740609326940e-03,5.418887734413146973e-01
4.971039465600901042e-01,-3.063559987430533593e-02,-4.447823527897290519e-02,-1.056374159073524650e-03,8.363912839641194502e-03,-8.182209634403437085e-03,5.351822376251220703e-01
5.364155561437058406e-01,-3.797583062621195937e-02,-1.871731583268052002e-02,-6.722106914595843766e-03,-6.638765073168456134e-03,4.124321993103573572e-03,5.652903914451599121e-01
4.613837246336979225e-01,-1.855949930116548852e-02,-5.582217415744394895e-02,2.595855761940871545e-02,6.355857740823875335e-02,-8.451836938077985847e-03,5.137829184532165527e-01
5.176718929381008971e-01,-3.252230578987044818e-02,-2.884093850806004888e-02,2.321390001765515684e-03,-1.510693526645116207e-03,-1.436442694972118008e-04,5.483838319778442383e-01
4.247409170673797640e-01,-4.024255082900191072e-02,8.105312644711648584e-03,7.272621395709916170e-02,1.021946958713628589e-01,1.782876556047668232e-02,4.941845238208770752e-01
5.104497330904964603e-01,-2.798403306463304041e-02,-4.082934222193038143e-02,6.952461444380856823e-03,-1.557118485251578720e-02,-1.453882511957602488e-04,5.457698702812194824e-01
6.360172419354118700e-01,-2.987458845887408510e-02,-4.233698958471915352e-02,1.539632824163108746e-02,-4.725568750015524816e-02,-5.980191236901352680e-02,6.855691671371459961e-01
3.808809126747801921e-01,-1.512268759141496832e-03,-3.778629649521408895e-02,-1.508804812001902874e-03,-2.432013451011628621e-02,1.145984448044951465e-03,4.039758145809173584e-01
5.226955175699560252e-01,-3.006742198160738955e-02,1.103376721071402944e-02,3.377742364217240639e-02,6.053965378048611207e-02,4.119963629614347561e-02,5.513865351676940918e-01
6.624441445226123548e-01,-7.168534275695087610e-02,2.370796955000153972e-02,1.953957231894392840e-02,1.295760562541720673e-01,5.944622097507646502e-02,7.349365353584289551e-01
5.566052482430499104e-01,-5.559325718203417255e-02,3.245598884983946775e-02,2.034663795311233633e-02,2.337469480774392958e-03,2.963342718505669604e-02,5.766531229019165039e-01
5.743689143787867879e-01,-3.075607015125850219e-02,-1.571545059392104315e-02,8.046502647739052494e-02,1.218114912783128806e-01,3.712038103360262853e-02,6.522060632705688477e-01
4.891861795616827546e-01,-2.035408829669760333e-02,-6.071991927782649512e-02,7.014063136166516499e-04,-2.537235315864957551e-03,1.021261660929715477e-04,5.308949947357177734e-01
3.735373380703240764e-01,1.051224258953237234e-03,-1.844858683160113810e-02,-8.372250146160714092e-04,-1.304395398664117203e-03,-2.375141314803356010e-03,3.826404213905334473e-01
3.945417367378022955e-01,-5.915729373966599480e-02,-2.959750204485814273e-03,4.556021433947481797e-02,1.399225352831045543e-01,4.071062590076891807e-02,5.034266710281372070e-01
5.175163825507125281e-01,-2.353657303036288395e-02,-1.775038461325273431e-02,-2.124594202394620643e-03,-1.926252766048709535e-03,6.130200552364614914e-04,5.382071733474731445e-01
5.158027304257094547e-01,-2.059381786778585743e-02,-7.139702919057133723e-03,-2.892545633452644777e-03,-1.455255335919704946e-03,7.756845306271203770e-03,5.299976468086242676e-01
5.140644038056934040e-01,-2.500213439915671687e-02,-2.329116112281012785e-02,2.474061497044878401e-03,4.592037511320680443e-04,9.878639307700953949e-04,5.382334589958190918e-01
5.136855224884442350e-01,-2.592136602427114189e-02,-2.447238929135422958e-02,3.297006263747001998e-04,2.777653262363150889e-03,2.027764802258083792e-03,5.389170646667480469e-01
5.133447806281346004e-01,-2.587934488287371715e-02,-2.383646219131635435e-02,5.497355269472935062e-04,-1.981977723006598385e-03,-6.182150693319287370e-04,5.382184386253356934e-01
5.018440358888154318e-01,-2.764178204729300647e-02,-5.657368807441889857e-02,2.310571145299315093e-03,-5.160252028790770704e-03,-3.486089493985593691e-03,5.446500778198242188e-01
5.118471284305081692e-01,-1.990665217158826827e-02,-2.056509022437785772e-02,2.281585320596022856e-03,1.576535494648532206e-03,6.245889925614040838e-04,5.321061015129089355e-01
5.260711410429084189e-01,-3.478056442939914117e-02,8.152070935833755083e-03,6.908927819156689132e-03,-6.325143462995313180e-03,-1.156681912614010606e-02,5.412796139717102051e-01
4.436286521737197175e-01,-1.641580505762496589e-02,-4.829698081260977438e-02,5.639215762379787712e-04,-2.164364624291462147e-02,5.582499556789156762e-03,4.783553779125213623e-01
5.183499772453354915e-01,-4.351408786455748801e-02,-4.019961596619570088e-02,9.585804779348693072e-04,-3.299808865963767810e-04,6.155044429268505864e-05,5.602169632911682129e-01
5.383378940541649893e-01,3.531451902396465226e-02,-5.368572584896574851e-02,6.627389063896975407e-03,4.756199942426229954e-03,3.155301283064276124e-03,5.531294941902160645e-01
5.170285481935839034e-01,-3.428879589196093258e-02,-3.460374123695311721e-02,6.859148081329597812e-04,1.464846360220680875e-03,-1.694811104576533474e-03,5.514898300170898438e-01
5.360890630722476846e-01,2.517750836481016941e-02,-5.311459565992321386e-02,-1.858007565580879414e-02,8.577512117882083245e-03,7.640948017601695980e-03,5.555106997489929199e-01
5.278317009658439751e-01,-3.780728108922271069e-03,-3.879012517764895973e-02,-2.635281507315453964e-02,-1.851655955542483994e-02,9.638886445678925344e-03,5.530276298522949219e-01
5.744157519927026723e-01,2.717043933606660966e-02,-7.363334276775423959e-02,-2.958101410506039364e-02,1.138908529358237560e-02,2.379298253332737343e-03,6.064935922622680664e-01
5.325396005754916562e-01,1.620618479807267587e-02,-5.267737981917330892e-02,-8.602348523703480868e-03,4.806343558832438904e-03,-2.310164760602694510e-03,5.542737245559692383e-01
5.303140384939468710e-01,6.906522032621098539e-03,-5.437662439355292476e-02,5.369718709055227614e-03,6.791054091297816890e-03,2.929032983495565511e-04,5.567874312400817871e-01
4.685854983454187384e-01,-3.108669057204810349e-02,-4.198582918166027245e-02,-1.148847632111605656e-02,-5.844939887598008497e-03,-1.098255226606045104e-02,5.060606598854064941e-01
5.767144990680836969e-01,-1.540436391096217106e-02,-5.565543569266603874e-02,-3.108177848165958115e-02,1.431073672126909752e-02,-4.888310605699824158e-04,6.160938739776611328e-01
5.362524474844901912e-01,3.252147112874553825e-03,-5.296629358388266207e-02,6.253935061686748988e-03,6.141110949346983809e-03,-2.548111404605796822e-03,5.634396672248840332e-01
2.171818003602533631e-01,4.013661897638167581e-02,-9.358316457447796166e-02,-1.164129072311697460e-01,-1.647908680020812588e-02,3.904004172052513710e-02,3.448816835880279541e-01
3.938730850271959238e-01,-4.548230541973533048e-02,-2.558651029678324362e-02,-6.412256688955128570e-02,-2.740259396386620500e-02,-1.632542000193712298e-03,4.464117884635925293e-01
2.939820285938326005e-01,-2.244837001379468289e-02,-1.045386653592100812e-02,-5.707020955816194396e-02,-1.100319130509725199e-02,-1.173557132375403073e-02,3.271453082561492920e-01
2.939777637224299522e-01,-2.683811008667846831e-02,-1.822542213577388326e-03,-5.804205531672854829e-02,-8.794770749113270045e-03,-1.653918923899469137e-02,3.266229331493377686e-01
5.267851101661773505e-01,-4.030183446837506955e-02,-3.282426189300688413e-02,5.255800813460781082e-03,9.618181798252783271e-03,1.885387705976541419e-03,5.637146234512329102e-01
5.048516521150410163e-01,-2.960210214722036604e-02,-4.757287070009977303e-02,1.489612305301384184e-03,1.584521438009465003e-02,3.893958706191043458e-03,5.444021224975585938e-01
4.900545618037727702e-01,-4.807368976553738626e-02,-3.275488445915858415e-02,-2.263563758207774376e-02,2.191501362502547984e-02,3.691564701206495255e-03,5.334716439247131348e-01
5.158339837450167664e-01,-3.330642907284162013e-02,-4.972274646447652491e-02,2.683325798824416197e-03,5.570109843857228189e-03,2.231113338219921968e-03,5.576460957527160645e-01
3.514085155256788107e-01,-2.276561986961336825e-02,-1.970803908193578813e-02,-6.633621725576611949e-02,2.183778126866956978e-02,-2.999804841210040873e-03,3.918299376964569092e-01
5.214985901985338401e-01,-3.340804387843859802e-02,-3.255663501524724834e-02,6.350922331498949983e-03,1.052377348960722298e-02,6.588563335598621130e-04,5.548911690711975098e-01
4.109550640384431186e-01,-2.327072113271844156e-02,-3.486825718834365984e-02,-5.022448254231906897e-03,6.175362326581806949e-02,3.354981991162505738e-03,4.530700445175170898e-01
3.904869601810694868e-01,-1.112962879469059363e-02,-1.764564783252614566e-02,-3.009786911209105104e-03,2.802863543234633201e-02,3.212913614754870674e-03,4.078850746154785156e-01
5.060768142321864227e-01,-2.973547587623195931e-02,-5.238604717751166318e-02,5.422597903698408777e-04,2.364802602783442188e-04,3.457067883824501298e-04,5.474903583526611328e-01
5.078691591483649459e-01,-3.630723942545904803e-02,-2.440550260888610379e-02,3.578795343557176264e-03,5.502046105738229390e-04,5.167723587627600377e-04,5.383614897727966309e-01
5.247521452656619401e-01,5.259638423680684793e-03,-3.748486894750427401e-02,-3.385602258703542672e-03,1.403955019532108052e-03,-6.255251797548221776e-03,5.422754883766174316e-01
5.084250631985806068e-01,-3.216010614368167153e-02,-5.151912685904588840e-02,-2.005111462787200014e-03,1.821811859814842158e-03,-5.317357117506573035e-04,5.505408048629760742e-01
4.896583013360187309e-01,-2.290145915310498603e-02,-4.902596590489050055e-02,5.780545975201729046e-03,9.822465363647748041e-03,6.279492462405090146e-03,5.265912413597106934e-01
5.417818348901974890e-01,-8.111371195752503649e-03,-1.396355398134049852e-02,-1.245584337694668337e-03,-3.324330095670078645e-04,-2.893770923913162318e-02,5.551144480705261230e-01
4.917351684065044970e-01,-2.112669528921748419e-02,-5.355260622236818202e-02,-3.033408347406499534e-04,9.027670961085325699e-03,-1.058474307572006713e-03,5.300536751747131348e-01
5.202247145492367997e-01,-1.339488673173719335e-02,-2.554221963298849984e-02,6.463802943106615635e-03,2.544802839440362795e-03,-1.773674957207344374e-02,5.408031344413757324e-01
5.191920317964671128e-01,-6.505541525537728020e-03,-3.716707671836233517e-02,-2.442392939527595740e-03,2.035245881183238119e-03,-2.957541702597613932e-03,5.417317748069763184e-01
5.152119834534003573e-01,-1.802344387783794133e-02,-1.166766183014245062e-02,5.634198847553868001e-04,-5.503108077850458113e-04,-4.305217749891183075e-03,5.301403403282165527e-01
5.179045441907768055e-01,1.313839760885615604e-03,-2.093813367842417561e-02,-1.984066708564902973e-04,6.235932202514866225e-04,-8.490704492634126160e-03,5.282744169235229492e-01
2.995467799999591563e-01,-6.322221741118697058e-03,-1.390119094749353579e-02,4.274037115180884250e-02,-5.087515942689762455e-02,6.279649645570030587e-03,3.305976688861846924e-01
5.148655789123566251e-01,-1.549888234860072322e-02,-1.737346410847623313e-02,3.579827028321356597e-04,3.125360788940804275e-04,-9.393710439188267345e-04,5.313073396682739258e-01
5.214413896694644057e-01,-3.339938559032579191e-02,-1.439167372400323996e-02,2.972229311936347689e-03,5.068578898716702419e-03,-3.080263910701230758e-03,5.457062721252441406e-01
5.192113829144880954e-01,1.371578326880784626e-03,-2.466309841694080962e-02,1.976535262819465160e-04,-2.209848295655306594e-03,-9.663223429796011579e-03,5.316131711006164551e-01
5.203457330564353889e-01,-1.852300794482358848e-02,-2.120763327995880965e-02,3.792518347442336984e-03,-1.662011257047713323e-03,-3.191742756863133381e-03,5.402919650077819824e-01
5.219369193764673565e-01,-3.949469592567944609e-02,-1.508407642477505028e-03,1.057143530336402803e-03,8.141541174358566182e-03,1.369490138403269171e-02,5.441383719444274902e-01
5.876561876137508245e-01,-6.100479120310292602e-02,2.269966924918123685e-02,-9.722701352458363536e-04,-1.091590537656322683e-02,2.912142781500795877e-02,6.134950518608093262e-01
5.100909878284146659e-01,-3.781920254866016906e-02,-4.869791878393478490e-02,-7.788350883427866650e-05,-1.757852362010732441e-03,4.674349087204496614e-03,5.534973740577697754e-01
5.203151937872600996e-01,-3.600348504279063389e-02,-1.588355813186312360e-02,5.150562675705409833e-04,-3.664155073183165360e-03,-1.586287868346595176e-03,5.465810298919677734e-01
5.154607428161757099e-01,-1.746608724675502433e-02,-1.581838023041456931e-02,-8.426916549725938605e-05,2.770455810997183264e-04,-7.685999456107470585e-04,5.321068167686462402e-01
5.625831639791756267e-01,-2.442377910164469923e-02,1.142764852923186525e-02,8.074320886999816760e-03,1.022833317424276696e-02,4.410430359237254433e-02,5.754671692848205566e-01
5.045090487378305344e-01,-4.007485093300858225e-02,-3.718239821085789210e-02,4.515992165740395289e-03,-7.524905240035070948e-03,4.492513336655870777e-03,5.434118509292602539e-01
5.119369296048519313e-01,-4.093594360023436463e-02,-3.148036365536069359e-02,-1.042934612410960707e-02,-4.275413030346939848e-03,-1.264861163874613818e-06,5.485537648200988770e-01
5.145206422968922055e-01,-3.937596033225587711e-02,-4.169636009780688934e-02,3.569722169795815563e-05,-1.579118526798064821e-03,-1.514376014387240101e-03,5.550733804702758789e-01
5.861881327590235946e-01,-5.775251215650559211e-02,1.251436988133897144e-02,-7.428197757474957856e-03,-1.850611521860989067e-02,2.550469299600266471e-02,6.144051551818847656e-01
5.267483327525281922e-01,-1.618067608186549156e-02,-3.299011043494870510e-02,4.135430286547654363e-03,5.791128562888408181e-03,-2.430674839584318590e-03,5.516796708106994629e-01
5.004129227802533997e-01,-2.713260633928399335e-02,-5.685213510466413656e-02,1.773572204171252773e-03,-1.561704614628747117e-03,1.077191486255561987e-03,5.430342555046081543e-01
5.864591972405089892e-01,-5.010098907574325744e-02,2.526268144793827886e-02,-1.946316542554353893e-02,-6.086377148916028400e-03,1.568871367911582257e-02,6.040703654289245605e-01
5.452551061224344409e-01,-3.559953682513986029e-02,-2.558322793585873778e-02,1.158065996095970773e-02,2.250357765947684323e-03,-1.018807138348530421e-02,5.765442848205566406e-01
5.123975631194553904e-01,-4.682651975852969439e-02,-4.103814589465640261e-02,6.947954868284267511e-03,-2.651558894678955614e-02,2.792988273201557452e-03,5.583955049514770508e-01
5.068158515130236630e-01,-3.074669921302863873e-02,-5.104734274947370087e-02,2.686507220723700039e-03,-5.061395559484157571e-03,1.493409767285282632e-03,5.480909347534179688e-01
5.127991425329034847e-01,-3.542092648473416094e-02,-5.131492200173146112e-02,4.645985025912430233e-03,-2.596131459296991285e-03,7.183477791878680211e-04,5.564151406288146973e-01
5.015474434940651038e-01,-4.192050699284577409e-02,-3.224556219341911945e-02,-6.708560813216487987e-04,-3.217137972800427140e-04,-2.029583907657818431e-03,5.387086272239685059e-01
5.211231953606842993e-01,-3.495828744703324831e-02,-4.125649849819107429e-02,9.771772602200525307e-03,-2.096800821569373002e-02,2.617357089531663177e-03,5.607089996337890625e-01
5.126942899398523323e-01,-3.717823123558991472e-02,-4.759080857965916622e-02,-8.406201758910868908e-04,1.062419092310000783e-03,1.611543934289847747e-03,5.551640391349792480e-01
4.804385392160153700e-01,-6.792218925642748428e-02,2.652825749829432200e-02,-1.022140167761654769e-02,1.200208975645218890e-01,-2.147179254158689682e-02,5.502172708511352539e-01
4.244407781573014682e-01,2.760318849044203493e-02,-9.901113280700279962e-02,-1.523103539724489086e-01,8.963538418343493241e-02,-3.239474208406060290e-02,5.662187337875366211e-01
5.058574183319084483e-01,-3.075119870306955439e-02,-4.619464566403808092e-02,-3.527912811349482192e-03,1.330818973605878835e-02,-1.977942969212666236e-04,5.450166463851928711e-01
4.919724978412882699e-01,-4.249435562675060729e-02,-1.782711167397510454e-02,7.532721092030101673e-04,-7.472126789926898140e-03,-2.612211914587362141e-03,5.227515101432800293e-01
5.128112145956333912e-01,-3.347323908300595119e-02,-5.234595812560655093e-02,1.536492218899503321e-03,3.114084543908526327e-03,2.013220815350351064e-03,5.560045838356018066e-01
3.314083204630066670e-01,-3.046432774064206095e-02,1.508009756897515929e-02,4.045794947124305152e-02,7.351837545938962049e-02,1.149441724355898704e-02,3.715731203556060791e-01
4.846889197762493384e-01,-4.971027084558982123e-02,-2.418987755468832157e-02,-4.133507044395875671e-03,3.148504262534142315e-03,3.675129740420614646e-03,5.222233533859252930e-01
4.850633304662095302e-01,-3.238322893364925514e-02,-3.616400930000715497e-02,6.319759937998681645e-03,4.274998582716244000e-02,9.791718254700791310e-03,5.249873399734497070e-01
4.028053959023122910e-01,2.880425020459759233e-02,-3.988067792811134105e-02,-1.452392537496237646e-01,-1.065078547932340851e-02,3.773800993538745964e-03,4.836828410625457764e-01
3.581682876583154318e-01,1.203704464454644074e-02,-2.198591936215160692e-02,-7.974718007801337438e-02,-3.383815775278278815e-02,2.240641635576715723e-02,3.959303796291351318e-01
4.380844638371564348e-01,-4.208993972484623147e-02,-2.401472677090080166e-02,-4.748290952068880827e-02,-2.122816292965892804e-02,-1.261413369492746760e-02,4.804248511791229248e-01
6.002981179612976170e-01,-7.634561936388495340e-02,-3.514106246857343074e-02,-6.155903058569312664e-02,1.636783515490710383e-01,-7.139542506170688807e-02,7.339591383934020996e-01
5.173893964065865436e-01,-3.347076796637168949e-02,-4.813418358409368714e-02,2.867955618979308938e-03,4.656147451610402090e-03,1.685949662084645310e-03,5.584242939949035645e-01
5.153028681513595055e-01,-3.364027495996071981e-02,-3.730078867354624794e-02,1.116821319754402689e-03,9.439972895794610181e-04,-2.296009761885498327e-04,5.507884621620178223e-01
4.993312867460200088e-01,-4.771497990575276904e-02,-3.531370148542509191e-02,-3.957329135396390161e-03,3.605767363484548515e-04,-4.584181740707850630e-03,5.410543084144592285e-01
5.145304816242967094e-01,-3.329974605140650912e-02,-4.802221913078791315e-02,1.334150343077237719e-03,5.413467998972123704e-03,1.675180712913699067e-03,5.554293990135192871e-01
4.293583664310809400e-01,-4.454253173803091048e-02,-4.001566006892326444e-02,-8.590494097486914282e-02,5.547676877467348430e-03,-3.086936532835703705e-03,4.946889579296112061e-01
3.678614224524595078e-01,-2.412007992733830597e-02,-1.467308986261621484e-02,-7.991409259388450315e-02,-4.370748954299095990e-02,-9.543455648872262512e-03,4.185675084590911865e-01
3.820593796544096699e-01,-3.055798300289949698e-02,-5.072449818349991646e-03,-2.253757294043677584e-02,-1.648991918259250580e-02,-9.238690416494190621e-03,4.037108719348907471e-01
4.832642507181701963e-01,-4.068761786750976772e-02,-3.165563647288460736e-02,-1.460426168657793546e-02,-1.051798497459599524e-02,-3.047393219158079942e-03,5.204559564590454102e-01
3.153487949042907967e-01,-1.016851417794178980e-02,-6.175192976815957469e-03,-5.062764642088111305e-02,-2.549477055502401279e-02,-8.602302812877576921e-03,3.384360969066619873e-01
5.049746804745538498e-01,-2.813420067341226849e-02,-3.060656930277924626e-02,-2.765412904703678024e-02,5.158002386711669704e-03,-4.648637594208825108e-03,5.366266369819641113e-01
5.367826184931614453e-01,-2.531069379906181194e-02,-3.339305033709608073e-02,-8.718082646723525689e-03,-9.002789840569744642e-03,9.394998326284185325e-03,5.668272972106933594e-01
5.210038760960991056e-01,-3.272620245819668483e-02,-1.887133127343815220e-03,1.780930671357708805e-03,3.569782550487741839e-03,-4.861376251524469373e-03,5.390827059745788574e-01
4.179262535699399539e-01,-3.843914679270468704e-02,-1.124029800414580449e-02,-6.078250270680236184e-02,-3.388087037992434415e-03,-4.935608926808878957e-03,4.558372497558593750e-01
5.887178942153925565e-01,-2.239098508036982405e-02,-2.237960346274470158e-02,1.399159525471649346e-02,5.024096437769605752e-03,-3.982931660940569607e-02,6.155235767364501953e-01
5.146654866707542908e-01,-2.306288250441501653e-02,-8.060106270097094905e-03,-5.227952655057988224e-04,-2.128624884332930203e-04,-3.092002283570987383e-03,5.304141044616699219e-01
5.214980185775772714e-01,-3.544134737520879264e-02,-3.528710428130391041e-02,-2.402813715471334693e-03,-3.293256009991451724e-03,-1.285012140437026681e-03,5.569114685058593750e-01
5.155041656694729912e-01,-3.920042254683769878e-02,-3.397078554907623227e-02,-1.334149855857740333e-03,9.063861398695553014e-04,4.148215279048465235e-04,5.521158576011657715e-01
5.271988936357967503e-01,-4.174844069937816426e-02,-3.561014230311373985e-02,-1.341591580266704312e-03,-9.113995158785258982e-04,-3.361837007168961503e-03,5.659400820732116699e-01
5.284915055239599591e-01,-3.739605746738033920e-02,-3.601842621897755059e-02,-1.338282966537417042e-03,-3.036227512403611795e-04,-1.575113670275434929e-04,5.652050971984863281e-01
5.275175875453806951e-01,-3.735791648112282703e-02,-3.894077026866837876e-02,-1.980857156791518067e-03,-2.586404258119217019e-03,-7.431709870831796532e-04,5.656982064247131348e-01
5.269918538831017685e-01,-4.013599334822792741e-02,-3.548611414423333277e-02,-1.556734373476950694e-03,-8.592518173355210990e-04,-7.196953237058400328e-04,5.648270249366760254e-01
5.277141861090836050e-01,-3.891457415586535573e-02,-3.904120796845964025e-02,-1.813473623662282099e-03,-2.602332769673071540e-03,-1.881792617689459881e-03,5.667281150817871094e-01
5.241575525756609899e-01,-3.820366961821836105e-02,-6.042241520771873819e-03,4.841893147071000235e-03,-1.470070671291718277e-02,-1.802205063838440259e-03,5.476555228233337402e-01
5.184727330042557814e-01,-3.000025286346028053e-02,-2.549248043329221947e-02,-1.840437173755816915e-03,2.334285842026145169e-03,1.062818059936251886e-04,5.462573170661926270e-01
5.189816493671832731e-01,-2.624050493984073085e-02,-2.585540943249259316e-02,-1.593214342115885666e-03,2.372321432020244817e-03,-4.810075098413009432e-04,5.450528264045715332e-01
5.186664911348983775e-01,-3.734596418431063158e-02,-3.422566796970175074e-02,3.771284394829864297e-03,-5.834438829678443086e-03,2.991643833418120534e-04,5.545896887779235840e-01
5.279193141226832253e-01,-4.099143164501095615e-02,-4.060018691416891756e-02,-8.515895350844059639e-04,-1.469424083511042256e-03,-3.788680806952047283e-03,5.687606930732727051e-01
5.064565347480587398e-01,-3.766721537991798985e-02,-4.462220628520419119e-02,1.405456700087734769e-03,-4.806282938083103972e-04,2.597018657626575574e-03,5.476588606834411621e-01
5.271605400215813031e-01,-3.833119119460112745e-02,-3.694103094548201183e-02,-2.630702461928044380e-03,-1.817984820833510240e-03,-3.983787443769558670e-04,5.648255348205566406e-01
5.493487417168205766e-01,-6.853400207231796770e-03,-5.582317808425915628e-02,1.936238406838619239e-02,1.514484477792129614e-02,-1.412038390879520600e-02,5.843003392219543457e-01
4.241928780101431040e-01,-3.940745142123680544e-02,-2.266786496787615013e-02,3.979208711113376568e-02,1.070756864482392233e-02,5.563065053817240445e-03,4.611203968524932861e-01
4.386013153124323494e-01,-3.091468242266220967e-02,-3.438362301844036240e-02,-1.387363701692788907e-02,-1.668856654005175869e-02,-1.323976609361748186e-02,4.733126461505889893e-01
5.207939449345816429e-01,-3.931336650528771681e-02,-2.376735687741049485e-02,7.314951380743119416e-03,6.791947469174702183e-05,-5.139137194004211352e-04,5.526443719863891602e-01
4.786882043943571086e-01,-3.899942757862234766e-02,-3.534779472325549898e-02,1.950506654487164579e-02,-2.323295161649256702e-02,1.112426377181268897e-02,5.188981890678405762e-01
4.907684584350072154e-01,-4.022037905250464007e-02,-2.893089367896703457e-02,2.330830391250960157e-02,2.816887711342474306e-04,1.105157208508133560e-03,5.269874334335327148e-01
4.976707963465085149e-01,-3.151786028576966658e-02,-2.841776050445526947e-02,3.406530137470094310e-02,-1.640657535793320354e-02,-6.719228399934909675e-03,5.318214297294616699e-01
4.499610459981563948e-01,-2.345969245683568460e-02,-4.140324581686732897e-02,3.426125172082003512e-02,-1.836874739907317158e-02,1.122917876893805324e-02,4.877048730850219727e-01
5.118850011884593654e-01,-3.966190095476668231e-02,-3.927208658478656411e-02,-5.833778753266114815e-04,2.551115629948159458e-04,1.798646044923399301e-03,5.513619780540466309e-01
4.993095880485176608e-01,-3.845493016828582800e-02,-4.249286256200854317e-02,4.546309489966865805e-03,-3.905449685523858672e-03,6.133229845806290048e-03,5.399991273880004883e-01
5.189087209936111833e-01,-4.141453539527018002e-02,-4.366256785796579498e-02,3.857604986769880154e-04,1.201112180770752807e-03,5.238292131044772768e-04,5.614556074142456055e-01
5.500505947129712414e-01,-1.258026785851809604e-02,-6.146689520168474585e-02,5.904046690093157218e-02,6.857798887722555206e-04,-1.548286297597295698e-02,5.980187654495239258e-01
6.250246059153338196e-01,6.306070433202165537e-03,-5.211093008153266926e-02,1.144020207525429794e-01,-8.014598069682889181e-02,-3.751508035305837346e-02,6.965088844299316406e-01
4.058907581783480767e-01,7.558031893439148829e-04,-4.780335337789479166e-02,5.346691425710125428e-02,-3.696392079799450808e-02,-2.724176906903868697e-02,4.484047293663024902e-01
5.191425410657424244e-01,-3.364066673735383040e-02,-3.468540371637371389e-02,-1.315631630257520484e-03,1.681298359009456185e-03,-1.309984568208688149e-03,5.533233284950256348e-01
4.906529496612932473e-01,-5.424504404764243781e-02,-2.877725041989331878e-02,-6.875195923589022713e-03,2.338013164548150176e-03,4.405599551121955858e-03,5.328240990638732910e-01
5.179392104845619293e-01,-4.337052418129180853e-02,-4.643750423529388605e-02,4.711608490991664477e-04,-6.348236643481557692e-04,1.660139266269864810e-03,5.628585219383239746e-01
5.170987036224802269e-01,-3.992918046343921223e-02,-4.567935087206911882e-02,-7.197484070813016995e-04,6.483328135584912446e-04,1.666109698639207937e-03,5.599350929260253906e-01
5.201457624766322452e-01,-3.505503956932640164e-02,-3.897424573971561279e-02,7.006799567296414892e-03,-1.164919692562814066e-02,2.349346317289242609e-03,5.576828718185424805e-01
5.062268464270731627e-01,-3.450734623201415219e-02,-3.800736047196071055e-02,3.586803089622470422e-03,1.516689812956723091e-03,2.369344389246904085e-04,5.425347685813903809e-01
4.986700017847078281e-01,-3.687252818807729149e-02,-4.295834263693318333e-02,5.894286728730832071e-03,-7.558884398869907678e-03,3.613107178877647454e-03,5.389033555984497070e-01
4.908306916127736508e-01,-2.828024437710652261e-02,-4.138664108655146223e-02,9.583477017488737856e-03,-1.136002702917738964e-02,3.029519061112879996e-03,5.264425873756408691e-01
4.955527206567935106e-01,-3.269574579539552550e-02,-4.323412472493021186e-02,3.712202410473280749e-03,-3.439187856570328789e-03,1.021713724555072499e-02,5.339609980583190918e-01
5.186256187079820723e-01,-3.368200280739627739e-02,-4.276358443787597885e-02,1.785532788158664466e-03,1.054606617648088523e-03,-8.008783327690184616e-05,5.569155216217041016e-01
5.185587215455799148e-01,-3.059877034980096333e-02,-3.854811673757146950e-02,-3.640878681179318959e-04,-1.860330059111439151e-03,1.831044025055436012e-03,5.531938672065734863e-01
5.022976261588644187e-01,-2.786317258516626816e-02,-4.967893642136936294e-02,-2.295416675559241136e-03,-1.159153752121139247e-02,6.336683849587500250e-03,5.418963432312011719e-01
5.080344638882543506e-01,-3.261681197129906451e-02,-4.092785379429178527e-02,7.544881489685153347e-03,-6.549382155366443962e-03,2.577828516321095144e-03,5.451473593711853027e-01
5.183750111747920108e-01,-3.052890223254037250e-02,-3.101485511435275733e-02,-3.395853730631175028e-04,2.522550330650326269e-03,2.066795299724955969e-03,5.491763949394226074e-01
4.983910579600676627e-01,-2.816867039343190493e-02,-5.124195022786445786e-02,3.538644709048394295e-03,8.234995550495222919e-04,1.709775151835156394e-03,5.385121703147888184e-01
5.022197179138083722e-01,-4.518421090386492978e-02,-3.779433635879361764e-02,-1.373192788162878517e-04,-1.295713371491900813e-03,-6.784970816955416054e-03,5.438783168792724609e-01
4.860143002500995624e-01,-3.444054370903604223e-02,-5.213970974580373063e-02,-2.794080280968903873e-02,4.689131282614950741e-02,4.377180647089680930e-03,5.379535555839538574e-01
4.964486733137498664e-01,-3.001984430372781065e-02,-3.029449485402938014e-02,-1.765483264755087411e-03,1.029281238704467596e-02,2.323967688246430466e-03,5.269318222999572754e-01
5.213393573754356858e-01,-2.353142966570107020e-02,-2.333520638396974212e-02,5.522069653964623882e-03,6.228385086011815853e-04,-1.714586972645391894e-03,5.448658466339111328e-01
5.171862094461274761e-01,-1.907513888686687697e-02,-2.709636089715347640e-02,-9.364996361924738440e-04,4.865390097397690209e-04,-1.549642946579270425e-03,5.403263568878173828e-01
4.116095155685879359e-01,2.582827758015794617e-02,-2.019364370325071878e-02,-6.604798316427362703e-02,9.931341707017821152e-02,-4.072029593814135290e-02,4.651348888874053955e-01
5.157844137048082089e-01,-8.566318848837295441e-03,-2.477983767218586153e-02,3.379084790460124303e-04,2.075029515983951248e-03,-2.684282160350319035e-03,5.326753258705139160e-01
3.943938935879608421e-01,-2.341323880439852290e-02,-2.637292813477290498e-02,-7.859235805551849363e-02,8.809246594218902993e-02,8.187711122144282830e-03,4.667122960090637207e-01
5.272163235090014943e-01,-3.904675634957785468e-02,5.352773417741846229e-03,-1.180018578207135335e-02,3.798473361447884944e-02,-4.571697337991355303e-02,5.554275512695312500e-01
5.145019044208204440e-01,-1.727922448953844725e-02,-1.222511520571370469e-02,2.471473789167012193e-03,-5.781394095626242414e-04,-4.224435366070210078e-03,5.293409824371337891e-01
2.943167078502574863e-01,-1.572186495788763239e-02,2.478095258259686851e-02,-4.278878809979980852e-02,1.343020941160766590e-01,-2.227967521041615898e-02,3.824917078018188477e-01
5.209884658679424518e-01,-2.331493422045363695e-02,-1.100414370779473350e-02,3.505895176280214142e-03,5.813508443545744404e-04,-3.238568193922707582e-03,5.383180379867553711e-01
5.150881193054648310e-01,-1.774546874259930185e-02,-1.720498973120909714e-02,2.571102548174923012e-03,9.193125819683075663e-04,-7.363616581748818300e-03,5.327372550964355469e-01
5.153286941934509535e-01,-2.257092863264834048e-02,-1.464228775065001820e-02,-8.938435762037970920e-04,5.576242735340057209e-04,-1.059017741850048827e-03,5.339857339859008789e-01
5.021459502520370100e-01,-3.405988337636073338e-02,1.034774670074573022e-02,-8.376916642091350451e-03,-1.272532703351067149e-02,1.977481374227901129e-02,5.172490477561950684e-01
5.013452486568095168e-01,-3.356588540362534512e-02,-3.485250805397177576e-02,-2.295526710033502470e-03,-1.649408234478973775e-03,-3.084419142449132054e-03,5.356046557426452637e-01
5.046351842507741381e-01,-3.633062696458114194e-02,-4.630650360515792263e-02,-1.396374738539414226e-03,-2.556210025022084804e-05,-2.796987499314303790e-03,5.460489392280578613e-01
5.196452346950435341e-01,-2.673733280237333698e-02,-8.281619686021951532e-03,1.018954547572765670e-04,-1.374262477185817346e-03,-2.283080192194737821e-03,5.374122858047485352e-01
5.200895599065082919e-01,-3.248409305544652792e-02,-1.739819006599599427e-02,-9.931171749956752438e-04,-1.605663252376877221e-03,-1.354082316066993700e-04,5.451971292495727539e-01
5.010625045255665544e-01,-4.422720163713422803e-02,-3.951054703966766501e-02,1.300743787314062073e-03,-1.348992144741893197e-03,-7.368371949481844138e-03,5.431064367294311523e-01
5.675022774505884549e-01,-5.809256572229748450e-02,2.507468594033862574e-03,1.536794115220050869e-02,-1.580131010613939138e-02,-1.798342574417370263e-02,5.996315479278564453e-01
5.180031281195712767e-01,-3.703781810195164170e-02,-2.889059633424015394e-02,-1.832974917780647668e-04,-1.461953582295201200e-03,9.742166052298240194e-04,5.510209798812866211e-01
4.722297561158245172e-01,-3.304390379854482696e-02,-4.659446426823146692e-02,-6.315114457627173279e-03,-9.623910713882778689e-03,-1.140159463113364809e-02,5.129515528678894043e-01
5.166920213140753226e-01,-2.673920683863365011e-02,-1.721663807731624307e-02,5.037227392654374534e-04,-8.534572459924506501e-04,-1.528123668575947147e-03,5.387423038482666016e-01
5.207584262111446538e-01,-3.509846736615379603e-02,-3.241489302491004643e-02,5.794228116470226918e-03,1.362490185076924761e-03,2.078694840776346511e-04,5.546159148216247559e-01
5.181956463444896688e-01,-4.206426069059371331e-02,-3.892934008176970884e-02,1.745273920980564908e-03,2.090514525746037765e-03,3.815592927918669448e-03,5.587580204010009766e-01
4.897130184125874641e-01,-3.238232981723060400e-02,-4.834327134001256687e-02,-2.198360631812691039e-03,3.565199886309734930e-04,-7.769103313566031940e-03,5.304407477378845215e-01
4.052663511283450259e-01,-3.271271300110348279e-02,-1.257911103080935900e-02,4.631220326933475212e-02,1.010665213718145786e-02,-5.044109997295845478e-03,4.361537992954254150e-01
5.184263239726116801e-01,-3.885726187074622917e-02,-2.926841856393272434e-02,-1.973311895395741655e-03,-5.684903135534004207e-04,9.542753479955960782e-04,5.525655150413513184e-01
5.205153635641450727e-01,-4.885227413494591664e-02,-4.562215444399442266e-02,5.162039216694010169e-02,8.562817367008066644e-03,3.627626354238818514e-03,5.749819874763488770e-01
5.182361819429370797e-01,-3.711466645822342203e-02,-3.615281421624969016e-02,1.101097436561370704e-03,2.742224220694887849e-03,-2.237500122143139421e-04,5.548942685127258301e-01
4.643979764910268204e-01,-3.185264671323614905e-02,-3.902860627275095418e-02,-9.323569443884262981e-03,2.428032541939424921e-04,-1.304097839474142526e-02,5.006480216979980469e-01
5.195839694779273987e-01,-3.900006269310363205e-02,-4.021559674529817663e-02,2.151714854033052928e-03,6.960815640714415522e-04,2.450406889892121388e-03,5.592226386070251465e-01
3.431785668372107079e-01,-1.136774228721050550e-02,-1.124435449431485101e-03,-1.087413696393406013e-03,-1.799336093047596875e-03,-4.766801748806642758e-03,3.496536910533905029e-01
5.813726471482075775e-01,9.382505969371929266e-03,-6.652751026214126506e-02,4.290553927352694537e-03,9.740661172627236575e-03,2.188813144069149189e-02,6.149243712425231934e-01
5.160356723101955367e-01,-4.309544434909776123e-02,-4.328880833648846016e-02,1.208253995804429645e-03,3.314408522760523695e-04,2.044533376593410390e-03,5.592432618141174316e-01
5.194785380653834661e-01,-3.412858879121991040e-02,-3.791094508542899866e-02,-2.720916293994633632e-03,2.968255549446330386e-03,-3.557881612665131127e-04,5.555520653724670410e-01
5.137207042473486140e-01,-3.586218566277657449e-02,-3.249216541005794934e-02,2.523483733278096639e-03,3.422197332693203368e-03,6.418660857501658082e-04,5.479562878608703613e-01
5.196026907124686733e-01,-4.336540070819103199e-02,-4.168693503066644990e-02,1.363837955045832688e-03,6.852134848266042653e-04,1.060432469454131643e-03,5.621399283409118652e-01
5.029514229882647847e-01,-3.930599672016382717e-02,-2.926857162458523787e-02,7.186414432820276144e-02,3.400051937013181310e-03,7.921411139250170153e-03,5.517402291297912598e-01
5.209095951159424809e-01,-3.255546193806743704e-02,-3.632389310392677984e-02,-4.614131264674347158e-03,-7.664019677232510302e-04,-5.058689655374458156e-04,5.554186105728149414e-01
5.651640401265032310e-01,2.380891670784535119e-02,-5.867127180473447057e-02,-6.466375231613782741e-03,3.891054876786992529e-03,-6.580636058270505559e-03,5.872139334678649902e-01
5.840612414058403701e-01,-1.740642689498389517e-02,-2.319414303018507706e-02,2.247552382156457751e-02,-3.460881243061120563e-03,-4.312856966437803030e-02,6.102536916732788086e-01
5.154328644511055879e-01,-1.706008232902556099e-02,-1.649845825622955897e-02,2.023149559443933581e-03,8.389975586505859324e-04,-1.963641058402373994e-03,5.322367548942565918e-01
5.166803195982073715e-01,-1.913830617362921593e-02,-2.025598787642685084e-02,2.194798653646214386e-03,-1.252004054034845095e-03,-6.480935846010782431e-04,5.363973975181579590e-01
5.134560373890729723e-01,-1.898388173986528815e-02,-1.644488409077735080e-02,-2.269464239462694528e-04,5.640331472848364794e-04,-2.194333505213413773e-03,5.311896204948425293e-01
5.152194808706329621e-01,-1.776076081952385199e-02,-1.383605435613718959e-02,5.095628442140095419e-04,1.526829581498242300e-03,-4.696893009799185496e-03,5.310983657836914062e-01
5.143109857080724323e-01,-1.126727275617742108e-02,-1.835949219390980991e-02,5.161842155810556550e-04,-9.718657736711747933e-04,-5.752711659164373888e-03,5.292572379112243652e-01
5.250651592358053232e-01,-3.637476567437167296e-02,-3.298860675150733224e-02,3.444643387785870526e-04,5.059235578853989515e-03,6.965303849586963227e-04,5.598247051239013672e-01
4.216502215943520038e-01,-3.673423517844556785e-02,-4.578782304181738816e-03,2.183905704978653453e-03,2.108308095520602856e-03,5.899424788904104704e-03,4.433314502239227295e-01
4.943028035794446717e-01,-5.058706711734406447e-02,-3.014743325235919036e-02,1.015817345585362519e-02,-6.706471423560594674e-04,5.798392934599229040e-03,5.353477001190185547e-01
5.196615920921071607e-01,-3.531214442163235767e-02,-3.400539267396948673e-02,1.468559252804202625e-03,2.641774374604551317e-03,4.973989280981394893e-04,5.543469190597534180e-01
5.067337559681815984e-01,-4.196993010062466389e-02,-3.896695054642662637e-02,6.578996042742521477e-03,-4.548819618260473261e-04,8.385530230050728881e-03,5.475202798843383789e-01
5.145124537418412913e-01,-4.314119875748964605e-02,-3.987262441427963378e-02,-9.500614186527011392e-04,1.180200727850998395e-03,3.490297743140102684e-03,5.560656189918518066e-01
5.179106573324893104e-01,-3.759163231804671379e-02,-3.317480214534596072e-02,1.677326890606141169e-03,-1.505001239020784453e-03,-9.564696366894893725e-04,5.533233284950256348e-01
5.134485870084803949e-01,-5.057374550283244563e-02,-3.348753868937837108e-02,1.033866213764110184e-03,-1.114895032106469255e-03,2.162282478446991840e-03,5.556951165199279785e-01
5.181501880775403190e-01,-3.930477661443912418e-02,-3.366502331095536094e-02,-1.544924605162078038e-03,1.717877488469873089e-03,1.178758878047806520e-04,5.546710491180419922e-01
5.133174506883393384e-01,-4.436567375452568629e-02,-3.975222199244915489e-02,1.972580154801049403e-03,-4.654755297997697269e-04,2.767114980888478720e-03,5.554225444793701172e-01
5.181949480096569305e-01,-3.758413292608103751e-02,-3.540916511913635989e-02,1.034624174959155067e-03,3.214823690734144694e-03,-1.124490161409214515e-04,5.547256469726562500e-01
4.330345656888419104e-01,-2.813492179552992689e-02,-2.685187590042362182e-02,3.331175284648307811e-02,-1.219370007122010970e-02,1.120068706426141474e-02,4.650147259235382080e-01
5.024263399974688848e-01,-3.694692707288282918e-02,-4.743739918175052250e-02,2.157114300601153251e-03,-5.469043307666465042e-03,5.050939002990082957e-03,5.448597073554992676e-01
5.006601042998155560e-01,-3.937456219661417123e-02,-4.188173674411715952e-02,5.369466977050210525e-03,-1.746724838404944274e-03,4.995898877195687968e-03,5.414500832557678223e-01
5.134600292306173985e-01,-4.302276421145134755e-02,-4.231707769729683988e-02,6.781393035901374248e-04,-1.761560605719139031e-03,2.170652411809740299e-03,5.561525821685791016e-01
5.180945526181113259e-01,-4.327123058337581374e-02,-3.762487534075290019e-02,-1.170826615662529232e-03,-1.818291467280118038e-05,1.362281202100005476e-03,5.585726499557495117e-01
5.740235058197988849e-01,-5.569501235518875548e-02,2.874807606792087467e-02,9.439675212398964538e-03,1.279245160340091725e-01,-2.719717243141296648e-02,6.340986490249633789e-01
5.144151047642711028e-01,-3.984128748178808466e-02,-4.261374492843708617e-02,3.632770682867202030e-03,-3.412364694158153788e-04,4.974079673818403158e-03,5.557505488395690918e-01
5.179740661570961802e-01,-4.132799040365187082e-02,-3.849028430610051954e-02,1.084471708867441571e-03,-2.273512751744703048e-03,8.352409579465828494e-04,5.579075217247009277e-01
5.086624709388881671e-01,-3.133195715042308427e-02,-2.011954965367712678e-02,1.396335666392821417e-02,-3.129662454245570481e-03,-6.604662852245713964e-03,5.351731181144714355e-01
5.168912874337328045e-01,-3.525895955618735256e-02,-3.327261059083291839e-02,3.996720931701901007e-03,-4.235730856437627465e-03,1.457456064200435318e-03,5.512578487396240234e-01
5.130007376773426664e-01,-3.715732170335894757e-02,-4.326369265639040673e-02,3.255904547503149591e-03,-2.666864499661602151e-03,3.080767846197896790e-03,5.533102750778198242e-01
5.185022669803165396e-01,-4.458524777732988942e-02,-3.372103395595582587e-02,1.402439602241866952e-03,-2.409707096704799794e-04,1.943611453732980478e-03,5.577504038810729980e-01
5.190291246492994004e-01,-4.127737465949460338e-02,-3.403186410108102744e-02,6.613448557749130804e-04,-1.586732667599585625e-03,1.792867552149139850e-03,5.567357540130615234e-01
5.258659819489168719e-01,-3.470575782091581130e-02,-3.544348054233448231e-02,2.791733812694679475e-04,-3.072076424773523620e-03,-1.220661978991706984e-03,5.609703660011291504e-01
5.174113679164853430e-01,-4.235509721282604279e-02,-3.732655019293404375e-02,2.966440520953835935e-03,-3.959233004417373088e-03,-8.008771808113100341e-03,5.575076937675476074e-01
5.286895913032342298e-01,-3.644596650857684361e-02,-3.756255614470160875e-02,-1.016206837383151936e-03,1.711786501980003218e-03,-2.869421717498915787e-03,5.657269954681396484e-01
5.252767618870045618e-01,-3.612780711743165951e-02,-3.379269416761293554e-02,-1.269765459137074887e-03,1.900258465242356297e-03,-1.122802461525085728e-03,5.602580308914184570e-01
5.198332726800660719e-01,-2.746062472727081594e-02,-3.580538582485603971e-02,-2.486985388320346081e-03,-3.666723444222147986e-03,6.989811433331009167e-04,5.515683293342590332e-01
5.163740639953995348e-01,-4.564031966405257545e-02,-3.379371888628415754e-02,8.220595496468458170e-04,-1.725843797537030249e-03,-4.314482413428354611e-03,5.562457442283630371e-01
5.219231116470828269e-01,-1.480137846618992392e-02,-3.426690920201996837e-02,-1.027017083118838712e-03,1.567740204816734729e-03,-5.954390041792847338e-03,5.468240976333618164e-01
5.240286628233515875e-01,-2.647366461595632159e-02,-3.614406771296690968e-02,-2.106331061090593437e-03,-5.893765896361295980e-04,1.710821775993560652e-04,5.554136633872985840e-01
5.245962403956736519e-01,-4.388255795240489365e-02,-3.721101766639919872e-02,-3.241461647623717517e-04,-3.445786074525930754e-05,-2.403096137307624003e-03,5.651881694793701172e-01
5.255225699350090096e-01,-3.608312094401708303e-02,-2.514410352406973304e-02,1.835996643832937380e-03,3.582257716309828009e-03,6.966773378565398753e-04,5.562618970870971680e-01
5.183739525090493849e-01,-3.084270574533926057e-02,-3.065473239715699183e-02,2.399037201639870730e-03,-4.584458562171086398e-04,2.338288934381917757e-03,5.491539239883422852e-01
5.223471817387380645e-01,-2.600452322665891547e-02,-3.407337621417005913e-02,-4.661733765106658087e-03,-3.716313112336050353e-03,1.188593261436607547e-03,5.525306463241577148e-01
5.051072324065051244e-01,-4.747634639817605029e-02,-3.203048424468454836e-02,6.598573606830167651e-03,-2.564511240112742844e-03,-8.336284290392615565e-03,5.453538894653320312e-01
5.082434772012279778e-01,-5.176399489027036505e-02,-2.938322760620512564e-02,-5.548934243727192449e-04,1.274718726127738438e-03,-6.594035202738701305e-05,5.491645336151123047e-01
4.802749998677109389e-01,-4.446646565742151669e-02,-2.773614671357910177e-02,9.052189264960874837e-03,-1.755779773344533657e-03,-7.787665439174690576e-03,5.170023441314697266e-01
4.973740437881809529e-01,-3.921696506511654357e-02,-3.525368394092789903e-02,3.841765230607889579e-03,-2.199631938540588198e-03,-7.439881744654716113e-03,5.348306298255920410e-01
5.218613195472181499e-01,-4.376678789087037891e-02,-3.617909185338782918e-02,-1.074967355505204725e-03,-1.824734152566577809e-03,-3.439904054045143499e-03,5.619162321090698242e-01
5.182377735713220579e-01,-2.472947603849809384e-02,-2.593579903962220379e-02,1.795175071541469779e-03,2.362465533890099022e-03,-1.332546119986441997e-03,5.436006188392639160e-01
5.160216256801688495e-01,-2.187038934652521527e-02,-2.138732445445762353e-02,1.418645965150669517e-03,-1.315332972766849930e-03,8.975248093409134284e-04,5.376633405685424805e-01
5.166613301261460123e-01,-3.454195763550751974e-02,-4.120854963025902262e-02,-2.094697383252931960e-03,4.950859463027522736e-03,-5.510880470755964711e-03,5.547268986701965332e-01
5.283664863233732412e-01,-3.590025197666285584e-02,-3.684278588826794820e-02,3.840080184229516681e-03,2.358042077368259178e-04,-1.893998645420322258e-03,5.647874474525451660e-01
5.224395742288946431e-01,-4.855403706425776011e-02,-3.638731587871615880e-02,-1.861658701303542341e-03,-1.802199874145419016e-03,-1.006814926495945908e-03,5.650290250778198242e-01
5.157366669930709691e-01,-1.806316788552350672e-02,-1.632431832298919527e-02,7.550997261349435847e-04,-4.170648345592981097e-04,-6.124076592775691379e-03,5.330401659011840820e-01
5.236223601384191184e-01,-4.413885567288355904e-02,-3.483732143382053947e-02,-7.812571290937828008e-04,6.085052761351046526e-04,-1.170981103875514935e-03,5.631743073463439941e-01
3.224295572956986655e-01,-1.157999454119608418e-02,2.971003006822930947e-04,-6.427520360750765827e-02,2.818150437201507458e-02,7.554088406420729138e-03,3.502628505229949951e-01
2.704113777739757252e-01,2.561398204320164407e-04,8.518340105458044320e-03,-3.166036154215244591e-02,3.183769038025520415e-02,2.409549214486295023e-03,2.772823572158813477e-01
1.610237958312495388e-01,6.480390450671898173e-03,8.849129515676082414e-03,-1.052551746112018877e-02,8.605122311505049304e-02,-6.998756253694947069e-03,2.149812728166580200e-01
5.276372705615329783e-01,5.362948491597491207e-03,-3.331457073148669235e-02,3.794754694729536929e-03,6.282893418843525082e-04,-4.797950685421348629e-03,5.427523851394653320e-01
5.048880642313934297e-01,-4.544374903958700584e-02,-3.618150766354105707e-02,1.055513962044814237e-05,1.765099976565646499e-03,2.381042535845224409e-03,5.457837581634521484e-01
5.008556301482154360e-01,-5.336439071025120273e-02,-3.330754946378977621e-02,1.006707163160055476e-03,-3.490613907165870250e-04,8.059190938116786874e-04,5.444736480712890625e-01
2.886968120941457716e-01,-2.590885847892729354e-03,-5.905033642734702770e-03,-1.816151670893489251e-02,1.180698889987029376e-01,-1.238670388497329668e-02,3.592995703220367432e-01
3.028759665203724083e-01,4.783450818161713580e-03,-8.647274393724521668e-03,2.661528283263320813e-04,9.518877871119334200e-02,5.530046252612527517e-03,3.468685746192932129e-01
2.494890236252705062e-01,8.778521908685818498e-03,1.610244247856801314e-03,2.433615198382057827e-03,2.608169713842297191e-02,1.913780761614182219e-03,2.485717833042144775e-01
3.523567150806610204e-01,-9.441999535169248725e-03,-1.005130489294958629e-02,3.740653941600160376e-02,-2.473510866728049085e-03,-6.647362280009078833e-03,3.680594861507415771e-01
1.419074305610242281e-01,5.638931769908768488e-03,1.629130839554484428e-02,1.581533680378092305e-02,5.673643491241826126e-02,1.103166484217756906e-02,1.673425585031509399e-01
5.234765556273933695e-01,-3.560716282159256951e-02,-3.144231983801032415e-02,2.254275306064941215e-04,-7.229611081087011825e-04,5.090838255981286307e-05,5.570145249366760254e-01
5.223642836128328248e-01,-3.826057289265177852e-02,1.103144087681739993e-02,5.850619239544102915e-03,7.070266576706178870e-03,-1.803420900198664982e-03,5.379200577735900879e-01
4.914829352288065945e-01,-5.846843602346005198e-02,-2.564575105575589431e-02,1.085411518969012614e-03,-4.550138801747799456e-05,2.821292706756791313e-04,5.343002080917358398e-01
5.241909181371199322e-01,-3.778967861046633736e-02,-2.755741773519382321e-02,6.005587866050329056e-04,1.151698621516556581e-02,-1.139498534160988301e-03,5.572965741157531738e-01
4.692647214287031798e-01,-3.093027574696985416e-02,-3.623901227376832845e-02,1.161464418865021386e-02,-1.669010239360802644e-02,9.932421400103615475e-03,5.043956637382507324e-01
5.137364677137463698e-01,-4.037969341392330658e-02,-4.607525205046353323e-02,1.423245705734818957e-03,-9.299248443808448084e-04,2.891830888606562646e-03,5.570160746574401855e-01
5.222263172805647891e-01,-3.771867285543062387e-02,-3.267078127408259980e-02,3.614059609770789178e-03,5.358598471625719388e-03,3.305814080636256262e-04,5.575509071350097656e-01
5.177754830325100865e-01,-3.339557076876889519e-02,-3.626328574863119103e-02,1.239658606691529407e-04,2.246951833440734465e-03,4.822095498047687602e-04,5.526248812675476074e-01
1.159656668565994669e-01,3.225693294953604906e-03,1.867342523610890717e-02,5.736983799385349941e-02,5.068747709100324648e-03,1.225293032158395086e-02,1.469990909099578857e-01
5.210468746901333326e-01,-3.936673265769502494e-02,-3.608681039996664008e-02,-1.048851729066368940e-04,1.144952084830743854e-03,1.061073501268267180e-03,5.587874650955200195e-01
5.162898288876840436e-01,-1.458115708909188402e-02,-2.070019573965142801e-02,-8.356465046531184491e-04,1.750705846896277252e-03,-4.195841933140020616e-03,5.340168476104736328e-01
5.137608263576836087e-01,-1.946673930050302204e-02,-1.632728651792020313e-02,-7.031772542238710465e-04,4.380365773562174599e-04,-1.951443639416935386e-03,5.316774845123291016e-01
5.189144338996494188e-01,-3.330384170039416003e-02,-2.570941563172765565e-02,1.811980710265854088e-03,1.814512644239440987e-03,-1.233813063199600555e-04,5.484785437583923340e-01
3.437753953167060339e-01,3.552600909092147596e-02,-2.080266030953473178e-02,-1.378477776657365539e-01,-3.282248717890046130e-02,2.809583273941255316e-02,4.220900237560272217e-01
5.186182820133198312e-01,-2.229140518114045011e-02,-2.192283243774209578e-02,4.597911498568702155e-04,-3.060490026907716852e-03,-1.719408597847553108e-03,5.407602787017822266e-01
5.192591477948347300e-01,-2.563338681195787006e-02,-2.765059559880533868e-02,2.649605761234624136e-03,2.295855955367754817e-03,-6.028018712593099550e-03,5.460375547409057617e-01
5.100628810753997655e-01,-3.336006786904005539e-02,-5.104771214402317736e-02,3.125845040610736921e-03,7.320183273769046892e-05,1.589384025343405869e-03,5.525125861167907715e-01
5.197637025898227403e-01,-3.074711232765042768e-02,-1.610965599676850157e-02,9.586351641535462240e-04,-3.558956545174620564e-03,-1.606570186387613983e-03,5.433846116065979004e-01
4.527162233145720083e-01,-3.137648385379457339e-02,-3.208510309121714865e-02,1.246714358715099403e-03,-2.688435835872252035e-04,1.187952547383958231e-02,4.848892092704772949e-01
5.167227631401065668e-01,-2.529631049321828806e-02,-1.894150839096719885e-02,1.229235396300801112e-04,-1.046589613712618598e-03,-2.886895425627142905e-03,5.388960838317871094e-01
4.680248686627967447e-01,-5.472359476181851146e-02,-1.807595809985351742e-02,3.443508550321638809e-04,-3.176717183145040709e-04,-2.503793945300290119e-03,5.054413676261901855e-01
5.366559923754945505e-01,-3.914680077819038262e-02,-2.314660008015584358e-02,-5.290252766107338134e-02,-5.591490204075404841e-02,1.180732374007172937e-02,5.837684273719787598e-01
5.628690528076587540e-01,-5.649787804172798356e-02,-1.977879758435382995e-02,-2.484725833046862176e-02,-8.208665946292569016e-02,1.516161047058869893e-02,6.204655766487121582e-01
4.866934113073289603e-01,-5.889091930914980288e-02,-2.062315089747940311e-02,-7.657604757132405529e-03,-2.024819850268418602e-05,-4.123766024343918112e-04,5.276597738265991211e-01
5.869362854048265632e-01,-6.403755060632243534e-02,8.759170609564076448e-03,-1.818771924782242597e-03,-1.124174118035966598e-02,1.598480236245770902e-02,6.187351346015930176e-01
3.507528584361493396e-01,-1.475834194592900994e-02,1.353834158622890804e-03,-3.096526815148073226e-03,-2.667514202071340841e-04,-9.042819323436944879e-04,3.577712774276733398e-01
5.153810108508123378e-01,-3.916842977505824441e-02,8.952293337639805060e-03,-5.973713372221491763e-03,-2.729653092311360232e-02,1.213942085393472821e-02,5.347334146499633789e-01
5.753608549250043280e-01,-5.411387208839382734e-02,-1.334207091395728240e-03,3.583438233592821723e-03,-2.543621068459746976e-02,2.297729403306176046e-02,6.077532768249511719e-01
4.142586274067368013e-01,-1.474866947047714927e-02,-1.300934306559262121e-02,-3.004498361663623940e-03,-2.870852306877724747e-03,-6.029898522467469144e-03,4.283281266689300537e-01
4.893738276870312487e-01,-5.844376576219315056e-02,-2.184514924480962517e-02,-2.265815907983897721e-03,2.304303641066158170e-04,-1.051466863989344944e-03,5.304838418960571289e-01
4.985920056638278308e-01,-3.855077156774638913e-02,-4.374982878215083471e-02,-3.660793097746589978e-04,-3.272144525770716186e-04,7.667376535334033232e-03,5.399250984191894531e-01
5.318374463199742053e-01,-5.357907936583694575e-04,-4.396284382823772985e-02,4.536410594788426245e-03,-7.132723462931855711e-04,-3.681102123227438135e-03,5.554552078247070312e-01
5.165750348956494875e-01,-2.714057201149200349e-02,-3.769117015067971477e-02,-2.745566719167656048e-03,2.016028845111283042e-03,-1.243887651996795690e-03,5.491028428077697754e-01
5.426590101587243087e-01,8.898272486218550270e-04,-4.567624884174925626e-02,-2.184313056055665198e-02,7.870906999395100093e-03,-1.273110115793795079e-02,5.683429837226867676e-01
5.169338879264131492e-01,-3.091294763378144017e-02,-3.157876556578798066e-02,-2.118100400906793371e-03,7.151089496589688871e-03,-7.959520869998442522e-03,5.485055446624755859e-01
5.001019947261917675e-01,-4.605133131422795012e-02,-3.374181734128370302e-02,-3.726235701136504375e-02,-3.528604914465924280e-02,2.884514264172730914e-03,5.473918318748474121e-01
5.196202530404201436e-01,-2.627522383736136113e-02,-3.239614749156027873e-02,3.003097143339154493e-03,-6.498859801565231777e-06,-9.878530533716071722e-04,5.490088462829589844e-01
5.929740365301803262e-01,-2.423140259238784622e-02,-4.534687060134434677e-02,-2.458158238627681721e-02,2.149502024422045299e-02,-1.492366107310118088e-02,6.311006546020507812e-01
5.124485791606823160e-01,-2.939169131034649607e-02,-4.026605107622149848e-02,1.609199414398369582e-04,1.260900198896547537e-02,2.998110658660277806e-04,5.477942824363708496e-01
5.180920693511797959e-01,-3.394949520845852442e-02,-3.497971749243683481e-02,-1.024017612926671336e-03,1.969648143832841095e-03,-1.711434058976495738e-03,5.525787472724914551e-01
5.192163176170756511e-01,-3.988174970872812586e-02,-4.303842862045265116e-02,-1.081093903677906361e-03,1.554770556961726545e-03,-7.075592119223847714e-04,5.606939792633056641e-01
5.153022320888627217e-01,-4.131469527369849293e-02,-4.289107632929103908e-02,-1.362350192014024979e-04,6.473520049425190688e-04,5.016364548114023722e-04,5.574086308479309082e-01
5.159474400556658402e-01,-3.529581086534608336e-02,-3.508917227860627874e-02,-5.576668907773313019e-03,7.727126959850750708e-04,4.311648342299359386e-04,5.512267351150512695e-01
5.468729621567073318e-01,-7.853555821718455343e-03,-2.509524302011895136e-02,-1.030328779230966010e-02,1.234573333905190570e-02,-2.182147803348988627e-02,5.654975175857543945e-01
5.223145742813453118e-01,5.062658627684152313e-03,-4.043083321734264324e-02,-1.926752091444717402e-02,4.464815436182280849e-03,-1.033096313008229766e-02,5.428116321563720703e-01
4.705232062885807975e-01,-4.261806011869812005e-02,-2.634598321583977998e-02,-5.543207026790581554e-03,1.515198764616764414e-02,-1.261774847394533765e-02,5.064458847045898438e-01
5.077019570116041436e-01,-2.690251006111676890e-02,-5.423909955942049499e-02,4.228969242334673986e-03,4.418463966344466330e-03,-4.510179946334298695e-03,5.489414930343627930e-01
5.084987173597073085e-01,-4.453808905269915352e-02,-4.018757066873923645e-02,-1.082717296756116609e-03,2.510743311229635122e-03,1.422431829487606466e-03,5.509002804756164551e-01
5.053975088022233386e-01,-4.507341157649222274e-02,-4.143983649720814344e-02,1.169152302139932556e-03,-5.437168078112707527e-04,5.628677690440004981e-03,5.487543344497680664e-01
5.029252794644200053e-01,-5.172551070368430759e-02,-2.517767892845879096e-02,-1.300616120146396229e-02,6.166834162003098814e-03,3.069879895497226469e-03,5.424641370773315430e-01
5.085842433257912187e-01,-3.383404716747709373e-02,-3.830966276881089816e-02,9.264332737044352756e-03,6.244356324716197025e-03,-3.050890241587652339e-03,5.450391769409179688e-01
3.275325631913413860e-01,2.282575262433639285e-03,-8.883961344999177778e-03,-2.348100906216137821e-03,-2.093152418862255677e-03,-5.620859549505606567e-03,3.311625421047210693e-01
5.153946400275717377e-01,-2.910146092892981762e-02,-5.016199705197452174e-02,2.754935323598055492e-03,5.525142517716639771e-03,1.603824713564047698e-03,5.554358363151550293e-01
4.941370668841021940e-01,-5.863930787155760549e-02,-2.377303023537272186e-02,-2.838324604294144380e-03,-1.349169654402160388e-03,-1.247322037542392733e-03,5.362260937690734863e-01
5.170788177055558599e-01,-3.715750187663494075e-02,-3.319349224498685524e-02,5.489921163521671067e-03,-3.793296770868820420e-03,1.346049675510341661e-03,5.523908138275146484e-01
5.066312011641022073e-01,-2.070263741958699999e-02,-5.532539329335880995e-02,5.159712026852960286e-03,1.107916889436321752e-02,2.308319810018161569e-03,5.458952188491821289e-01
5.273295167482305867e-01,-3.598883612787126540e-02,-3.709289582933072982e-02,-6.727664762771414994e-03,3.626783963153024093e-02,-2.426319248492886990e-03,5.674946904182434082e-01
5.158687642565351616e-01,-4.930657349347641882e-02,-4.039319639939001338e-02,3.702536081302574352e-04,8.548887961944674979e-04,3.363582944958083947e-03,5.608043670654296875e-01
5.020651560988473872e-01,-3.792867149925330250e-02,-3.650989969092202636e-02,7.011793581547380236e-03,2.351405365724542219e-03,-6.095762524991921692e-03,5.395412445068359375e-01
5.191094408735102972e-01,-4.288758609953871592e-02,-3.725657686669620050e-02,-5.772662100544970155e-04,1.822359147404701901e-03,-6.362711976097244759e-03,5.593211650848388672e-01
5.285380155339045594e-01,-3.751917499597307026e-02,-3.703808161283986267e-02,-1.598049184248801369e-03,-1.607360905529556456e-03,1.924928443737179175e-04,5.658305287361145020e-01
5.149695900252508896e-01,-4.768678681194168933e-02,-3.783439984912018161e-02,2.638173490023104726e-03,3.443183698459406031e-03,-7.252749573016544112e-03,5.579874515533447266e-01
5.295467095200239172e-01,-4.016558532167097129e-02,-3.890116830668138848e-02,3.331019325481625326e-04,-2.528099321687673042e-04,-1.765798306074973806e-03,5.690898299217224121e-01
5.281514460189750126e-01,-4.403599896515694723e-02,-3.887945532616091104e-02,-1.559223633478104597e-03,-1.450252601308572127e-03,-1.079549779419856741e-03,5.696417093276977539e-01
5.167782940248150103e-01,-4.454736635387182564e-02,-3.717674993444705644e-02,1.404307754069369267e-03,2.813906908618808798e-03,1.946200485933327140e-03,5.577136874198913574e-01
4.299491843289192095e-01,1.123307058533988545e-02,-6.693017417468727359e-02,1.191263683027741632e-01,3.738677149952086831e-02,1.584428149504355648e-02,5.115472674369812012e-01
5.190816627689838203e-01,-3.665720084923093647e-02,-2.755326375692904173e-02,2.330686185890957791e-03,1.943073247283862029e-03,1.239317927463599823e-03,5.512725114822387695e-01
5.261680434062794287e-01,-4.333382082765699361e-02,-3.727352206962974979e-02,8.998815189393608287e-04,-1.708578562382798030e-04,-2.537027996205154252e-03,5.665152668952941895e-01
5.202789509703675819e-01,-2.448731460236261426e-02,-2.569622913481273141e-02,-3.334204431783099193e-03,-5.611982720019597498e-03,1.309280660848224790e-03,5.454936027526855469e-01
5.289772609336548248e-01,-4.503740000565087387e-02,1.070629251127713788e-02,3.494745400492838168e-03,7.119704386417389542e-03,-2.549705332627626164e-03,5.484621524810791016e-01
5.194256401489277808e-01,-3.021105580651076150e-02,-2.614900394286850949e-02,5.853692053928084837e-03,3.464497012800331951e-03,-6.479288602305198486e-03,5.478586554527282715e-01
5.278216409274105736e-01,-3.695940288118829131e-02,-1.860435823127398747e-02,2.361382726502748129e-03,-4.144278185373146892e-03,-1.044109972665474301e-03,5.558952093124389648e-01
5.146401225201251428e-01,-5.218454397666955069e-02,-3.344134139587437438e-02,4.776940534006974409e-03,3.699010767702936783e-03,7.186434602297930071e-04,5.577889084815979004e-01
5.297301609385072219e-01,-1.562817695130039319e-02,-3.301191341758202835e-02,7.072001188794740760e-03,1.727739703997674663e-03,-2.641385847266415014e-03,5.544170141220092773e-01
5.166970801832457827e-01,-1.915073807478609447e-02,-1.682869341601794799e-02,-4.192372387860653082e-03,-2.729906365698058900e-03,3.620979686777682765e-03,5.347975492477416992e-01
5.227277488714132669e-01,-2.739670967630752907e-02,-2.799784858897452766e-02,-1.077572476587291281e-03,-1.104572269955575751e-03,2.148126843825592935e-03,5.504443645477294922e-01
5.220940496473195358e-01,-1.534196381680047461e-02,-3.343276553129503892e-02,6.697720390150684218e-03,6.272422276196332018e-03,-2.615426642278752441e-03,5.469557046890258789e-01
5.239437220544447271e-01,-3.450092387223144264e-02,-2.904660747102721929e-02,-2.933465536958048889e-03,-2.053667043530232276e-03,-8.738421363295338163e-04,5.557742118835449219e-01
5.157934132159797125e-01,-1.134740797722680328e-02,-2.338455961046351228e-02,1.927475724017396492e-03,3.994774447987952705e-03,-4.258665353841981777e-03,5.333676338195800781e-01
5.205264469817387774e-01,-2.426052467027881021e-02,-2.639569395624627446e-02,7.374154787333749364e-04,-3.165391524096975058e-03,-7.568459560404498180e-05,5.458867549896240234e-01
5.193176444374469902e-01,-1.523678720223153871e-02,-2.625017379822455754e-02,-3.926765423480913127e-03,-5.480671196701742028e-03,2.097348276527793466e-03,5.402837991714477539e-01
5.223252834686293866e-01,-1.376930845037563356e-02,-2.410818056564989487e-02,-6.529568488396056587e-03,-8.315035179036386545e-03,1.068741990434402857e-02,5.419639348983764648e-01
5.192540444709790037e-01,-1.019221949826845663e-02,-3.073603437474417555e-02,-2.193634974145969915e-03,-2.914130872431118253e-03,7.066567404222515864e-03,5.401869416236877441e-01
5.144932021178576509e-01,-3.218321833440038193e-02,-4.885948608156151507e-02,2.449681051413802463e-03,4.317875215094826163e-03,1.557831375613487768e-03,5.552755594253540039e-01
5.198362179435289665e-01,-1.589819436999653779e-02,-2.943556763165783297e-02,-4.680811679529094452e-03,-6.419744230953697370e-04,-1.205802874663830255e-03,5.426954627037048340e-01
5.186792737780051565e-01,-3.712157769774671046e-02,-4.544900964272682864e-02,7.187376666792262558e-04,2.240840878078487110e-03,1.272367649206522901e-03,5.600301623344421387e-01
4.848936348913466254e-01,-3.807015028327762063e-02,-2.956987965008070485e-02,1.136118568577377218e-02,2.008020240992617125e-02,8.318050465096203314e-03,5.205021500587463379e-01
4.845580338672328957e-01,-5.816960233434037564e-02,-1.911864517660816221e-02,-3.960561626669003936e-04,-1.499659959835854598e-04,9.941965147247044075e-04,5.242973566055297852e-01
5.097481962074490447e-01,-3.119488062918540638e-02,-4.605917434248235631e-02,-5.505652194342238685e-04,1.443824722548447612e-02,4.444684570874236299e-04,5.490974187850952148e-01
5.217812037031078765e-01,-2.385215326762726851e-02,-3.902334218615502448e-02,-5.132790659161323710e-02,9.965394396813452571e-03,-6.955285220977025160e-03,5.608658790588378906e-01
4.870008423696532973e-01,-2.602185841453835691e-02,-5.453801658749213299e-02,-6.410984788017069346e-04,1.444752997787617649e-02,3.861259544134972022e-03,5.284950733184814453e-01
5.117389912711239885e-01,-3.203122539844804884e-02,-4.863560087197291160e-02,3.456923687769962710e-03,1.392200205622867205e-02,4.248822621211146081e-03,5.528672337532043457e-01
5.103449764194365468e-01,-3.300003549061911179e-02,-3.751778790458723534e-02,5.021730448905296906e-03,1.156129872021980547e-03,1.029564299015298156e-04,5.456909537315368652e-01
5.034331750495809610e-01,-3.291027440140209537e-02,-4.649235503379439693e-02,-2.213251368244129481e-03,2.813567555055030561e-02,3.220780364330753844e-03,5.454851984977722168e-01
5.035337979578844436e-01,-2.526580662573349456e-02,-5.492501560762819146e-02,-9.886986385756104528e-04,5.811649906524710661e-03,1.522670354035679952e-03,5.443378090858459473e-01
5.049306627307847961e-01,-2.874862499937166915e-02,-4.927985011750285471e-02,2.749139409941508527e-03,1.534683588995421760e-02,5.935402173739178638e-03,5.450019836425781250e-01
4.882241460214966633e-01,-2.691482807974884817e-02,-4.864131651496159114e-02,-2.780581770493572007e-03,1.256459954287576959e-02,1.054017048307402844e-02,5.271266102790832520e-01
4.696878754647548226e-01,-5.222779394387483398e-02,-1.948241494770333593e-02,-7.257358372268209960e-04,1.108956493390142028e-03,-5.005967765903928009e-03,5.064171552658081055e-01
5.096103070809456792e-01,-2.951764425044048346e-02,-5.534305310417958479e-02,1.858420660173120114e-03,3.983875321198696549e-03,1.843958328634306325e-03,5.525552034378051758e-01
5.177278439176076219e-01,-3.980266479354083176e-02,-4.053657320566975142e-02,-3.908982371092739301e-04,1.304770178315877056e-03,8.850851576367143106e-04,5.579048991203308105e-01
4.971015764080746191e-01,-4.232872374746651789e-02,-4.662575955809142303e-02,4.887124163415740991e-02,-4.546543940510777704e-02,-7.538225125885822560e-03,5.539480447769165039e-01
4.970695749918749295e-01,-4.695685599834045765e-02,-2.820312997393134569e-02,-2.143313094483496970e-03,-5.988591173595540209e-04,-7.278597173870472259e-05,5.349100828170776367e-01
4.665000266468746215e-01,-5.468520123556475099e-02,-1.222525987489059274e-02,-4.596959439748986103e-04,2.044856654660740826e-03,2.085020960766430752e-03,5.013318657875061035e-01
4.887533116362849372e-01,-2.190785411858015008e-02,-4.851710931160901907e-02,4.525078483818332706e-03,-3.123815392552333273e-02,-6.797248695843973246e-03,5.274454355239868164e-01
1.208651769594986519e-01,2.955980500791487858e-02,1.029378036133117569e-02,4.507130423086323778e-02,-7.161652202771678910e-02,-1.176919142187214835e-02,1.798986643552780151e-01
5.081732433850389974e-01,-3.686364248454576664e-02,-3.806893306167818958e-02,-1.412295000877476780e-02,7.010678172035160645e-03,8.387285631387239766e-04,5.463254451751708984e-01
3.665212316615338861e-01,-3.996124172360876470e-02,-1.708432830510250855e-02,5.489372402535816486e-02,-5.373281920609795231e-02,5.855559760525544215e-03,4.174407422542572021e-01
6.827301723949609213e-01,-9.619984705785761259e-03,-4.139421563937473181e-02,4.456956340140736522e-02,7.453695876646473928e-02,5.884912302492024960e-02,7.316921949386596680e-01
4.069378301349874105e-01,-8.071258523824287323e-03,-3.928631402348192747e-02,-3.008932248033068771e-04,-1.096663455930772845e-03,2.416181191547012077e-03,4.314891099929809570e-01
5.156379614463558747e-01,-5.135966373511263727e-02,-3.110592197161068939e-02,5.558804296290035564e-03,-1.666919460037642742e-03,9.004623831934264111e-04,5.572397708892822266e-01
2.673319772291735119e-01,-4.801954796189791819e-03,-2.262236804849868110e-03,7.378313604340115683e-02,-8.926675865829407364e-02,-1.568906244585726445e-02,3.381540179252624512e-01
3.271267515565065565e-01,-5.680072486911502683e-02,3.635146807935395186e-02,8.128253342225423561e-02,-1.550746192318372962e-01,-2.213048488420989515e-02,4.623290896415710449e-01
5.287911124883802882e-01,-4.841266046231473830e-03,-4.612443133656549121e-02,-9.794910669784868615e-03,2.657209679009271772e-03,-6.218046108244311594e-03,5.558083057403564453e-01
5.216672835589009072e-01,-3.629881084418029591e-02,-4.051405282356965176e-02,5.116355235191475184e-03,-1.066495499994667487e-02,3.846597569388199127e-03,5.604997873306274414e-01
5.082813616831829417e-01,-5.436709813934698099e-02,-2.949393840439118453e-02,1.984610044452340613e-03,-2.774386206057551769e-04,1.863886705432555614e-03,5.506537556648254395e-01
5.082390616904969294e-01,-5.036650743201687153e-02,-3.308821714583853879e-02,4.189374143605660182e-04,1.625297750753443727e-03,2.146200650630310063e-03,5.501902103424072266e-01
2.757972913407209514e-01,5.217932094092922468e-03,-8.904189948503601904e-03,3.014716509141539963e-02,-4.678145551801099478e-02,8.113010522280819647e-03,2.944882214069366455e-01
2.172962576444198157e-01,-7.461175802977212945e-03,3.306856960292962194e-02,-5.822468119147054984e-03,-1.130353385091517615e-01,-1.434392420178087942e-02,2.865294218063354492e-01
4.565505616369268105e-01,-3.270021741197728926e-02,-3.350121893378624205e-02,-1.372508985192054040e-02,-1.357612003505028440e-02,-1.274078748609104236e-02,4.912880063056945801e-01
3.232631878681418991e-01,-1.602498378032585213e-03,9.196073205694488273e-06,-6.044694780751547160e-04,-1.074335691771793758e-03,1.080097348547749865e-02,3.246093988418579102e-01
4.611189309873811037e-01,-3.206646488606090806e-02,-4.304320369728689699e-02,-3.881931269906235826e-02,-1.665872232660694022e-02,-6.664372768322070900e-03,5.042345523834228516e-01
4.974959067526124046e-01,-4.357524205669119355e-02,-3.330119993865893191e-02,-5.427866092835876297e-04,8.688566435235043316e-04,7.314428167236971222e-03,5.361605882644653320e-01
5.160203387565505118e-01,-4.974419163616741746e-02,-3.584003311835720629e-02,1.237113335657819002e-02,6.231081642589013543e-03,-1.533602814362497750e-04,5.594568848609924316e-01
4.790313034208810716e-01,-4.974194556324898486e-02,-1.594491877144571523e-02,7.899658354671251184e-05,2.943218513588033696e-03,-5.061958064003158758e-03,5.128111839294433594e-01
4.952390281629794888e-01,-3.092031557434513078e-02,-5.307162011383920186e-02,-2.531478528086712580e-03,-4.801982601715493182e-03,-5.492715788585307742e-03,5.377437472343444824e-01
4.921539603573485966e-01,-3.039555081638084522e-02,-5.249188573764956844e-02,-7.816841171215104531e-04,-4.384906035018143813e-03,-4.819673642102861345e-03,5.340616703033447266e-01
4.916038108834587805e-01,-3.276264149188923280e-02,-4.774586054313967320e-02,-3.203135643284928114e-03,-1.949188303231104208e-03,-5.620152887292736467e-03,5.321450233459472656e-01
5.127234632148511828e-01,-2.866705539774683231e-02,-2.699799696699753393e-02,-1.016165244129873298e-03,-3.550072197780443101e-03,3.633345258777068848e-03,5.406323671340942383e-01
5.227724453318713937e-01,-3.499486981904428862e-02,-3.409502106261105836e-02,6.604922788373482866e-03,3.858051114075116902e-03,8.016933996631797447e-04,5.574771165847778320e-01
5.001850625695287711e-01,-3.401920424004128973e-02,-3.897058404524622599e-02,-3.720443685794372606e-03,3.390469543931817189e-05,-1.401576170362029685e-03,5.367412567138671875e-01
5.158735385961141784e-01,-1.666568554953817838e-02,-1.877945936630867618e-02,1.136308754319538192e-03,2.695332759661487731e-04,-1.344528281073984616e-03,5.336081385612487793e-01
5.037476159431290013e-01,-3.388148640439342385e-02,-3.974566084715322467e-02,-5.595254210048799994e-04,-9.489004545761071420e-04,-7.975975397940411040e-04,5.405901670455932617e-01
5.226593796693093097e-01,-1.606436922794621247e-02,-3.577432166058863716e-02,-3.294110519403403801e-03,6.774204026505035179e-04,-2.238885149264463123e-03,5.488888025283813477e-01
4.982624343898058861e-01,-3.489062454093758148e-02,-4.582731186878102880e-02,-7.452620517539487038e-03,-7.953936862509057223e-03,-5.004374935135747285e-03,5.391050577163696289e-01
5.403121124146896825e-01,3.670360519262866328e-03,-4.005899441362120728e-02,9.564059670325395640e-03,4.848314942964751691e-03,-2.113222005732567910e-02,5.612916350364685059e-01
5.010157449888128500e-01,-3.587998497367841932e-02,-3.323468749177496684e-02,-1.372487018073178383e-02,-4.134159680840457894e-03,-4.694957594100127203e-03,5.362147688865661621e-01
4.935588831525360431e-01,-5.753017869212553870e-02,-2.734268220718694131e-02,-1.227393821468539205e-04,6.816037108266111404e-04,-3.910353854331913466e-03,5.366765856742858887e-01
5.134072699699661069e-01,-4.183849154643570767e-02,-4.180257835285924872e-02,8.229735900780849826e-04,5.809900734608688770e-04,-4.059050266416968348e-05,5.552305579185485840e-01
5.206005008073295581e-01,-1.598764029094720818e-02,-3.622179130617461662e-02,-3.956600202843192117e-03,2.106478303939103656e-03,-2.093889947692150703e-03,5.470530986785888672e-01
5.291637284871788527e-01,-4.961116758840292129e-02,9.389211587255141822e-03,5.312894607975345712e-03,3.564496025096645579e-03,-2.963312813428941239e-04,5.517576932907104492e-01
5.025059009156501721e-01,-3.814935392148954829e-02,-4.752587638004940329e-02,-1.099087570393507494e-03,-2.375673850109415175e-03,-3.637458449065061709e-03,5.454592108726501465e-01
4.746462360640686384e-01,-5.502425563684706922e-02,-2.379153481547893745e-02,4.599209224893555076e-05,-2.355735325293333634e-04,4.145764747325138104e-03,5.148155093193054199e-01
5.036792156987954794e-01,-5.555103172698133696e-02,-2.721074231936296273e-02,7.997666571389731166e-03,9.780580447644022200e-04,3.034061652288286975e-03,5.458161234855651855e-01
5.128672485982310736e-01,-3.518239385100416228e-02,-3.612116277726359903e-02,-6.031516731567023760e-03,3.144954092707649002e-03,5.779061725865990845e-04,5.486470460891723633e-01
5.023804435983435512e-01,-2.954637878018540054e-02,-5.260259109191256499e-02,1.718423558125660010e-03,1.418078984654757711e-04,2.811781645519240234e-03,5.438516139984130859e-01
5.031441901993216614e-01,-5.402690613199331859e-02,-2.885904407664369176e-02,5.136725842141523805e-04,-4.496437977960816975e-04,1.745647581260745230e-04,5.450245141983032227e-01
4.771077537280135061e-01,-5.104327307644052070e-02,-2.086241799497623450e-02,2.022321541700236591e-02,3.513910297538369674e-03,9.278021427281951802e-04,5.149571895599365234e-01
5.025178785629513811e-01,-2.955304055444046840e-02,-5.380836240360467593e-02,5.416871762300351284e-04,3.791458930827305471e-04,5.759637905868759088e-03,5.446963906288146973e-01
4.977319157513711012e-01,-5.360628425912394857e-02,-2.235836956539638543e-02,8.615698678096830182e-03,2.893057755637828011e-03,-9.981654598711210778e-04,5.366310477256774902e-01
4.414906123295777585e-01,-4.160712060218071939e-02,-1.674078445211840682e-02,2.236084803885026936e-02,2.224933724719187125e-03,4.594188607842150662e-03,4.728288054466247559e-01
5.002716766242574220e-01,-5.145912461451537800e-02,-3.377602100906318405e-02,-2.049242302670624405e-03,3.563704139179525547e-03,1.546485027677811435e-03,5.431584715843200684e-01
4.371063775547690544e-01,-4.229408566128031732e-02,-1.198128435362008637e-02,2.000604422537746729e-02,1.338009773435144736e-03,2.866678921096737619e-03,4.663072526454925537e-01
4.924118707734532197e-01,-5.460591054667418565e-02,-2.469952622582938240e-02,7.827206039178663532e-03,1.783056019044309409e-03,1.271372871783193158e-03,5.328805446624755859e-01
6.079457977517619405e-01,-3.599786886551575860e-03,-6.363935013423677178e-02,-2.234411005861232369e-02,8.015250608477759997e-02,-5.431607885212331316e-02,6.662818193435668945e-01
5.026314489994113677e-01,-2.920064059090779485e-02,-5.513435960833978911e-02,1.744546116637318107e-03,-3.347384890141227534e-05,1.736854836462853324e-03,5.452783703804016113e-01
4.780834862112148254e-01,-3.798341577774461131e-02,-2.803774845704634644e-02,4.865074742815070352e-02,-3.463070523078448648e-02,4.685204845690367666e-03,5.215896368026733398e-01
5.040797669883687604e-01,-3.821105833387217210e-02,-4.288234118599185130e-02,1.965813608276525612e-02,3.032883030276297201e-03,-1.273131169147107521e-02,5.461753606796264648e-01
5.031271417010085845e-01,-4.899370561897850584e-02,-3.626271509294073936e-02,-8.519308462568424278e-03,5.787776235515846093e-03,6.345682758425036374e-03,5.462687015533447266e-01
4.881823838135328497e-01,-5.832309218363332382e-02,-2.205864769010751347e-02,1.111013644474972788e-04,9.462863142706310704e-04,1.591628786632360041e-03,5.293155312538146973e-01
5.125689678020217688e-01,-1.708857035242714040e-02,-1.715293485386559791e-02,1.145933850491562831e-03,3.506134936352636212e-03,3.781011372639667308e-03,5.297687053680419922e-01
5.123651758876118789e-01,-2.299208323252840969e-02,-1.100066413768696627e-02,1.460181536194230737e-04,1.058679668935818364e-04,4.009235264862161599e-03,5.295090079307556152e-01
5.261449646367591937e-01,-7.292319743355368811e-03,-6.359461993575177274e-03,-1.875364620278303571e-02,-1.674700594596068362e-02,3.207058195269862216e-02,5.376250147819519043e-01
2.754918571502670277e-01,-8.131022336752605217e-02,3.318399179490716389e-02,-8.247283950589106780e-03,-1.076170163215339204e-01,-1.604987922234054828e-02,3.678124547004699707e-01
4.844847108720974904e-01,-2.883105781626041364e-02,-3.188541356212840072e-02,1.094172879604103643e-02,-2.651093996972351402e-02,-3.955680319841838391e-03,5.172860622406005859e-01
3.732973411843475975e-01,-8.649727969743281619e-03,-3.060343132719442472e-02,1.721742094135512297e-02,-6.422923284764518737e-02,2.407714471186950169e-03,4.099189937114715576e-01
5.049567179233054315e-01,-5.802752487767434686e-02,-2.695280598980939746e-02,4.640864334173297294e-03,1.715725798641471508e-03,8.997606989498075280e-04,5.481771826744079590e-01
5.080667784918012631e-01,-2.927914587361768461e-02,-5.034739603895166393e-02,1.692403374479008388e-04,-8.133356188128620544e-04,-3.717726107019452084e-04,5.481860637664794922e-01
4.572228689370878563e-01,-1.940346244954949118e-02,-4.373490775953117748e-02,1.869415925011453858e-02,8.449387151534099027e-02,1.012691571431712954e-03,5.116940736770629883e-01
5.074840980295469706e-01,-5.062057859020138717e-02,-3.180481267459073225e-02,8.031352417003451366e-05,7.891055873086544152e-04,2.035973267103614783e-03,5.489517450332641602e-01
4.088791102071661077e-01,-1.857213485883010828e-02,-3.104387095576993660e-02,-1.206721597252627225e-02,5.950347503701364227e-02,5.520681211264010131e-03,4.464879035949707031e-01
5.258774809314721299e-01,-3.662142264963566540e-02,-3.331255447225833777e-02,-4.910917829363236828e-03,9.802489151576746819e-05,-1.796797127286197142e-03,5.609249472618103027e-01
4.969591385638708059e-01,-5.752365121522001745e-02,-2.194415380309738817e-02,-1.657090386856167441e-04,1.110305116748388201e-05,5.701671827544863128e-05,5.375769138336181641e-01
5.174756484226498143e-01,-3.015348434564937841e-02,-4.950105842302027215e-02,1.054193598662379362e-03,6.218286716332024899e-03,-1.629400797298359961e-03,5.576688647270202637e-01
5.262186140773051912e-01,-3.468104222349779886e-02,-3.817969137686630376e-02,-1.923755724127132472e-03,8.672444588546883827e-04,-9.958584973328505393e-04,5.626716613769531250e-01
5.274380284439739164e-01,-4.714329006379616716e-02,-1.691558195135803300e-02,-2.988382547574668265e-03,1.226259160774588117e-02,7.101245306710842441e-04,5.605074167251586914e-01
4.988348366242825183e-01,-4.364454293723660228e-02,-1.473086479498783574e-02,3.186403659960558837e-03,3.623389821741808403e-02,2.114047142627630167e-03,5.323695540428161621e-01
4.982161080626942296e-01,-4.768468578296786164e-02,-3.547798446461702948e-02,5.437397536199838066e-04,2.987831643960713024e-04,1.041430800784567783e-02,5.402032732963562012e-01
4.366963659625582861e-01,-9.546566645082993352e-03,-4.886309143102257613e-02,8.975457300985142245e-04,-1.652917872004565358e-02,1.310625014679421628e-04,4.680228233337402344e-01
5.683082326294069953e-01,4.406792278057847234e-02,-1.028898192359921082e-01,-1.850200098107089297e-01,5.824906809073244346e-02,-1.014443508068849434e-02,6.976033449172973633e-01
5.602114184221471671e-01,-1.435827765593497563e-02,-6.419188423636518204e-02,-4.548071039120899633e-02,9.627940179024399234e-03,-1.636016872588326801e-03,6.064141988754272461e-01
5.201920279651940371e-01,-3.886955145142237389e-02,-3.693485124866072167e-02,7.810677267443993411e-03,-1.014149899193749101e-02,3.412301603399411779e-04,5.585373044013977051e-01
3.165722608882149958e-01,3.821475314107203314e-04,-2.764256602828234211e-02,-1.034965980121711239e-02,-5.290239502750171408e-02,-2.966249776803923065e-03,3.440442383289337158e-01
5.039149022416671286e-01,-3.044463418183307457e-02,-5.712209359599013103e-02,1.723353552340513555e-03,-1.761273351583151486e-02,3.896234617405366137e-04,5.490420460700988770e-01
4.268617866524166971e-01,-9.955620577321105946e-03,-4.186634190111890308e-02,1.330999197185297632e-03,2.558336800211543651e-04,-3.465040719387181296e-03,4.536611437797546387e-01
3.869491396948716577e-01,-4.685266828246353876e-03,-1.468235127240652416e-02,4.560784931830266504e-04,-1.153515026865568286e-03,8.826501806768655839e-03,3.970277011394500732e-01
4.828599583748314217e-01,-2.531922413327067356e-02,-4.578979139644986929e-02,-1.727701279407519146e-03,-1.110200619257264813e-02,-6.789917681318591303e-03,5.192156434059143066e-01
4.374115862853537040e-01,-1.576513432470247333e-02,-4.558399820917835576e-02,2.851226922800059564e-03,-3.760362190159379642e-02,-4.719440115399734133e-03,4.733971059322357178e-01
3.524956635003120842e-01,-3.649286944823290635e-02,3.232329542589527926e-02,5.946966444869791757e-02,-8.909621154849244051e-02,-1.538798054581188603e-02,4.054796397686004639e-01
5.153978423589368196e-01,-1.189861825463614520e-02,-1.784077831413505288e-02,-3.811913263259597063e-04,6.435270209976672214e-04,-4.339917526314457721e-03,5.303473472595214844e-01
5.318551593207212491e-01,-6.248133784030732163e-02,4.014664232497189289e-03,2.776635129925159734e-02,-2.450169178909583287e-02,-9.118036281523883568e-03,5.678907632827758789e-01
3.006729071248563923e-01,-1.495022643391419326e-02,3.102801810783969994e-03,-8.229941428924404667e-02,-2.046919234671553886e-02,-6.333446385635091956e-03,3.405037522315979004e-01
3.509354709158040708e-01,-3.332990538382513135e-02,-1.897537930436678233e-02,-7.562761616818086674e-02,1.533964345850261611e-02,-9.001978422102908939e-03,4.005716145038604736e-01
3.838366655791851101e-01,-3.235283022134835540e-02,-1.079959882783337877e-03,-3.062324521330034993e-02,-1.792960240729280169e-03,-8.953516755490246656e-03,4.052650332450866699e-01
3.765661462222553713e-01,-3.592632204567877685e-02,-5.840739702453051629e-03,-3.090998116902063039e-02,-3.281847576332504787e-03,-2.562451140745776890e-03,4.019494950771331787e-01
5.230403731307616821e-01,-1.672572373589656380e-02,-3.841852020832248193e-02,-7.885359543389751369e-03,2.136494942868927965e-03,-1.384738777413672007e-03,5.511198043823242188e-01
5.367762665553272861e-01,2.176556176693261735e-02,-4.802109964220402372e-02,1.736576259226537897e-03,-8.570935351485449048e-04,-5.569382885348709601e-03,5.533095002174377441e-01
5.256613202128772588e-01,-3.802033948826413767e-02,-4.392504396053839577e-02,-2.973385824667080374e-02,8.921769777369227550e-03,1.778792575375455791e-03,5.692107081413269043e-01
3.336775332803776362e-01,-1.729762877958548883e-02,5.485971289690888542e-03,-1.929398952363176089e-03,1.337840357697234195e-02,-1.355607629086821473e-03,3.409689068794250488e-01
3.035814243162857640e-01,-5.043722475073966760e-03,9.510508207919474155e-03,-3.716945380723474940e-02,8.867087219278450274e-04,4.497103201770115931e-03,3.085080981254577637e-01
2.411557516176923432e-01,3.511283662987266241e-03,1.687783784147653399e-02,-3.797982759825756921e-02,-1.316055428058479811e-02,-2.029585432177816520e-03,2.415293604135513306e-01
5.177099885527393086e-01,-3.922726366586121172e-02,-3.430667019339325718e-02,-9.610221096205741678e-03,8.891769906816065702e-03,2.492692430235897167e-03,5.549736618995666504e-01
5.760782035457611139e-01,-1.473258097931628985e-02,-6.457498508183662222e-02,-3.010271211572269900e-02,2.442226582974979174e-02,-8.251746572250638276e-03,6.210484504699707031e-01
3.025730218837648366e-01,3.066739693043107895e-05,1.116985061522535183e-02,-3.644357444685476788e-02,-2.013269765047071697e-02,-2.955497550534307884e-03,3.057980835437774658e-01
4.944990550447339595e-01,-3.769060012293695694e-02,-2.957650767026129279e-02,2.382141132727364202e-03,8.556407828111022018e-02,7.504202807265692408e-03,5.487467646598815918e-01
5.066737567154768751e-01,-5.657065073599268357e-02,-3.143219450759107692e-02,-8.142456467453739952e-03,5.364934339868828415e-03,1.938108672558763040e-03,5.513743162155151367e-01
5.061830158498415999e-01,-3.132921771400781763e-02,-4.756498681827686648e-02,-1.517768921646673111e-03,3.626954636890942704e-03,8.847442475777062996e-05,5.458537340164184570e-01
5.083320164172935307e-01,-3.475963157258818437e-02,-4.328811108726079993e-02,3.423615394398105399e-03,3.777758261525252393e-03,-5.418146279081386026e-03,5.475573539733886719e-01
4.955734065212874517e-01,-2.697361287549102093e-02,-4.963393944803509705e-02,4.756276979865315876e-03,6.637874546009310019e-03,-5.520035423737970452e-03,5.345104336738586426e-01
4.576923238145821360e-01,-2.004431287265046047e-02,-4.270421445058547594e-02,1.334765879946536553e-02,1.820609733408250913e-02,-4.508609870985689182e-03,4.910815358161926270e-01
4.962377903248217370e-01,-2.816558617201503356e-02,-5.417495009763112490e-02,1.355405163192357479e-03,1.004114587433037505e-02,-2.703221795305436968e-03,5.381864905357360840e-01
5.245343428087767546e-01,-3.549071286686800164e-03,-3.760052990137618956e-02,7.098831153421009295e-03,-3.085303294162628895e-03,-4.347187039472882181e-03,5.461227297782897949e-01
4.797318823142259214e-01,-5.553242443157582753e-02,-1.928415446171258263e-02,-5.991093582206181989e-03,2.402913834996583172e-03,3.487873284202552826e-03,5.182479023933410645e-01
5.093086777367633600e-01,-5.663657635773974852e-02,-2.693517697215835893e-02,-8.025904737761857186e-03,1.144886474944645152e-03,1.800256665058145352e-03,5.518819689750671387e-01
6.277431865036677827e-01,3.225021510592976370e-02,-8.983978476514753453e-02,-2.227810213932917074e-02,2.070037281891009932e-03,-4.016082678519839952e-03,6.661619544029235840e-01
5.727616854326260665e-01,3.382049595747893544e-02,-6.690946726733543182e-02,-8.876202181821332693e-02,2.438909159511038968e-02,-3.539234068391991506e-02,6.197338700294494629e-01
5.136355345134635542e-01,-3.408381706201998873e-02,-4.642039735144162793e-02,-5.756894035004993943e-04,7.485405457327260793e-03,1.865013127223374414e-03,5.541526675224304199e-01
4.896786405648155815e-01,-5.984306628612115486e-02,-2.307748316274735312e-02,-2.926672580584180946e-03,1.237491582432872182e-03,3.747801729480531902e-04,5.321212410926818848e-01
4.510986001499782683e-01,-2.997920282876034848e-02,-3.067131633706784988e-02,-9.806112275668276909e-03,1.482375784384065524e-02,1.163227760203098225e-02,4.828280508518218994e-01
5.104448277396367306e-01,-3.997648074217158287e-02,-3.753732704435103207e-02,-1.602737405168247128e-02,6.670311080329761021e-03,-5.085843192236387013e-04,5.500289797782897949e-01
5.381340893664100511e-01,1.906265836105305866e-02,-4.200683733000362685e-02,-2.754222044054645095e-03,7.688064237415886959e-03,-2.180108421375705902e-02,5.536153912544250488e-01
5.842310068420426550e-01,-7.320073136615035114e-03,-3.047286470945614889e-02,1.894354678289884505e-02,-5.162290766239492623e-02,-5.526698605815206361e-02,6.183845400810241699e-01
5.064611944172709990e-01,-5.806579031135228330e-02,-2.439909659363623251e-02,4.941734215416567974e-03,-6.860989212927503167e-04,4.949945755318091792e-04,5.485379099845886230e-01
6.535070538926345263e-01,1.469470384987631162e-02,-1.048870755463836568e-01,-1.872378651453205159e-02,9.602580760208923039e-02,-3.465806755693134900e-02,7.287588715553283691e-01
6.136217086612043570e-01,3.364743135682296549e-02,-8.261799285414861416e-02,-4.586299201088873262e-03,1.908172746801348532e-02,-7.639869689453392468e-03,6.470311284065246582e-01
5.063822529681083484e-01,-5.663062975714341918e-02,-2.513830980025175132e-02,3.362988502447289418e-03,1.366592351186172180e-03,-1.414431042539432003e-04,5.479820370674133301e-01
5.271878353985499643e-01,-3.743869536150970512e-02,-3.444171326869144290e-02,-3.277408004856238559e-03,1.072868855900298865e-04,-8.233792189493839651e-04,5.631644725799560547e-01
5.686025072612355125e-01,3.987246917532313861e-02,-9.229843573125218192e-02,-7.846858691122184093e-02,4.960623062795729843e-02,-2.048271216034519560e-02,6.277103424072265625e-01
5.800984623623268721e-01,1.914752876410832916e-02,-5.033554618467014907e-02,5.643390910379324221e-02,-1.479160758670250431e-02,-4.374073230339620838e-02,6.118994355201721191e-01
5.032945691850705394e-01,-4.266937595141170880e-02,-3.892944500249156947e-02,-2.493501492584504400e-03,3.609548352671639471e-03,6.047457081660980067e-03,5.442574620246887207e-01
4.599684347368643844e-01,-4.167121164138118394e-02,-2.462412372778413627e-02,-5.062576757770482702e-03,1.114725661950286863e-02,1.141614123601670909e-02,4.941883385181427002e-01
4.770914065084756461e-01,-4.847712033835155365e-02,-2.822815497925706962e-02,-9.974635040556865950e-03,3.684832695821560825e-03,7.087261423021837259e-03,5.162169933319091797e-01
5.301265620607591433e-01,1.294642445677657294e-02,-4.632792641815994261e-02,1.308720783265412274e-02,7.287294851264361018e-04,-2.267600520858506323e-03,5.497045516967773438e-01
5.024062921275675997e-01,-4.841711531565551230e-02,-2.937644686683690831e-02,-2.038418536467149957e-03,3.838653581707706340e-03,6.618271065930204228e-03,5.417277812957763672e-01
5.195818633150446342e-01,-2.060453863092054361e-02,-2.254824346461228868e-02,6.596122379096817142e-04,-1.025631854966940960e-04,-1.019109883540772043e-03,5.411649942398071289e-01
4.853074284443967823e-01,-4.897214737550611985e-02,-2.860360523353192019e-02,3.520292976550483551e-04,4.030104049876021347e-03,7.555080310933076637e-03,5.246021151542663574e-01
4.888930389144346966e-01,-4.310870287059698214e-02,-3.947796900482189453e-02,-6.181644890940018837e-03,5.484420891003105765e-03,7.955849751383144153e-03,5.305678248405456543e-01
5.166520184093452706e-01,-3.537258693008771271e-02,-4.356022760819364126e-02,-1.209337142897337137e-04,1.074085121540508704e-02,4.512040683839707231e-03,5.565295815467834473e-01
5.163505265005057243e-01,-3.527443664108817489e-02,-3.990839976870688699e-02,7.045923915898532754e-06,-6.223513962222666307e-04,2.045877415389868101e-03,5.539688467979431152e-01
5.256907490558373475e-01,-4.014193598331225465e-02,-1.648557537541478490e-03,2.467713487437679480e-03,-1.322520245183259405e-02,-9.282792125780994774e-03,5.483329892158508301e-01
4.995852370031135248e-01,-3.277708755504632476e-02,-4.794877829580510009e-02,-3.360691175358329380e-04,7.330224277733416761e-03,6.673995626153999584e-03,5.403811931610107422e-01
5.177008595928466184e-01,-3.189807016310605703e-02,-4.494595853712221589e-02,-2.151106691529661023e-04,9.383813523802181714e-03,6.005898084022437411e-03,5.565724372863769531e-01
5.095980739985801478e-01,-3.196406970094933797e-02,-4.665967976958509955e-02,1.950241217935635377e-03,1.829489359854213210e-02,3.977181921394358152e-03,5.500246286392211914e-01
5.150586467771112176e-01,-3.325454689088663818e-02,-3.841183167993372782e-02,2.920318715206251733e-03,-7.414633441108214743e-04,2.277987644356976339e-04,5.509347915649414062e-01
5.074000830081957236e-01,-3.189749369609870544e-02,-5.070041973487354747e-02,1.571598681684710421e-03,5.295294110633229931e-05,1.156881839681754695e-03,5.489510297775268555e-01
5.042053102009109722e-01,-5.175676949083657385e-02,-2.950992274860239628e-02,1.998132354696929847e-02,4.514819904429407879e-03,-2.787792006400870159e-03,5.463538765907287598e-01
4.586721278058792373e-01,-2.496611375435137115e-02,-3.398165239011946559e-02,1.792603945082745648e-02,1.715842083481945377e-02,-1.378112044084994303e-04,4.900967478752136230e-01
5.319142445839422084e-01,1.819001977023038119e-02,-4.888101422100518678e-02,-1.003479729199988416e-02,1.513311521247167864e-03,6.801036511012154137e-04,5.506155490875244141e-01
4.822583531302989113e-01,-7.697313007145906161e-03,-3.529850508356902061e-02,2.116852377537144919e-02,1.576795035105665183e-02,-6.694045999224668315e-03,5.065237879753112793e-01
4.896222957113972596e-01,-1.104718028056561607e-02,-4.314039106995914974e-02,2.867274182859409423e-02,4.873330217448264626e-03,-1.936038353995768848e-03,5.199200510978698730e-01
4.866529919238805069e-01,-4.268381520382383276e-02,-3.034598862654858120e-02,3.620779847618900709e-04,3.174650169422121160e-05,-7.254860065623406143e-03,5.234282016754150391e-01
4.622893766764846202e-01,-4.841237891117994296e-02,-1.904180174489808475e-02,-1.717165991917042611e-02,-3.354884904363632844e-03,5.834902304034732604e-03,4.976944923400878906e-01
5.137743580334837024e-01,-2.535674718444688724e-02,-3.467923179336199202e-02,-1.501850137129847511e-03,-2.887788936803708465e-03,-5.447935252953814249e-04,5.438823103904724121e-01
4.974014793947385549e-01,-2.345387334887383268e-02,-3.161705262684480489e-02,2.129933819438802924e-03,2.316567000101569639e-03,-2.072540917288591324e-03,5.250251293182373047e-01
5.272977465983577083e-01,2.510674335377580113e-02,-5.512409278991325934e-02,-1.028133479230574632e-01,-6.448322588095959339e-03,3.523481916975830519e-02,5.783467292785644531e-01
5.220755048318900249e-01,-4.025951498319774169e-02,-3.513354047466679675e-02,2.641774598873269930e-03,-1.602244727133164941e-03,-1.769223765911178987e-03,5.598235726356506348e-01
5.222593477449489763e-01,-4.336378325047907101e-02,-3.516900373719747397e-02,-7.125223917290807521e-04,-5.545729924417754910e-04,-1.278685144694641793e-03,5.615771412849426270e-01
4.727203940408443716e-01,-4.784434825297273486e-02,-1.871588962534259659e-02,-5.866529164627685283e-02,1.462533860099333657e-02,3.878671747037193158e-03,5.173823833465576172e-01
4.858911425809149809e-01,-5.694907236625390556e-02,-2.060880120701799600e-02,-1.545778712439701890e-03,3.139205007619341194e-04,-6.035258669793372183e-04,5.256212353706359863e-01
5.045986603818066740e-01,-3.423103125639265221e-02,-4.838341867844975219e-02,-9.337540162216486630e-04,9.345896445793491986e-04,-1.028120736978128686e-03,5.460511445999145508e-01
5.108220150186186803e-01,-4.024811373006886850e-02,-4.444375940025518945e-02,4.578650700886847014e-04,1.983807418940628040e-03,4.870788762401100612e-03,5.532554388046264648e-01
5.049951405603962939e-01,-4.962221216628900922e-02,-3.549251029359137832e-02,-4.275724746746433630e-03,3.711512960683721954e-03,5.845868875804436510e-03,5.478705763816833496e-01
7.286068494152296848e-01,2.478385617800660246e-02,-9.694356229247574896e-02,-2.246191659215990982e-02,7.295134581846669797e-02,-1.714687708731085780e-02,7.837220430374145508e-01
4.762865326143641553e-01,-5.658383006378517321e-02,-1.848625925040667251e-02,-7.920317145924692104e-03,-4.495110109954125743e-04,-2.148752311976793224e-03,5.150765180587768555e-01
5.115027429875976805e-01,-4.562461298443654112e-02,-3.885582545842861113e-02,-8.764393743884474515e-04,4.003524479700176775e-03,2.037200286682836620e-03,5.538307428359985352e-01
4.914272681004258070e-01,-5.727516103568111583e-02,-2.316389725600540017e-02,-3.283200327672711563e-04,5.372746670632247727e-04,-1.831418541853324384e-04,5.324681401252746582e-01
5.139983630106783608e-01,-4.441179009866813576e-02,-3.885453773164601610e-02,-2.942839856537857613e-03,2.974100627653491601e-03,2.589698063469549581e-03,5.557177066802978516e-01
4.987697357784152685e-01,-5.520077944338289133e-02,-2.782356666373470011e-02,-8.291307742243977583e-03,6.314283866071811017e-03,-1.010434612768813280e-03,5.411058664321899414e-01
5.159864143095929112e-01,-4.065763379150261203e-02,-4.291384903483391744e-02,8.351516170319132079e-04,-1.669467088921502119e-05,2.093578746970246852e-04,5.577775835990905762e-01
5.113473349713837379e-01,-3.780559023112323169e-02,-3.579546513051962142e-02,2.300065510877928945e-03,4.482588422733944228e-03,1.345844158861099742e-03,5.482250452041625977e-01
4.457687305080015872e-01,-3.164088962554323370e-02,-3.105407084606953694e-02,-1.461640502692440786e-02,-2.870837308304451801e-02,-1.739645521288736910e-02,4.813122451305389404e-01
5.003110250048775631e-01,-5.525998609272902984e-02,-2.836601798523094575e-02,-7.552782732769811914e-03,2.684592424447893684e-04,4.824682637484184532e-04,5.427826046943664551e-01
5.387701911885673933e-01,2.383132131476453641e-02,-7.818970559355242766e-02,-1.679044861076207651e-01,-2.783507104192405740e-02,4.449057675681654389e-02,6.488014459609985352e-01
4.739037613586875031e-01,-3.233405646116491172e-02,-3.825134242487865377e-02,-8.533534546636028281e-04,7.065229541179170181e-03,9.997650647841143864e-03,5.096656680107116699e-01
4.948329210807022038e-01,-5.343370161983090894e-02,-2.837637222550959404e-02,-1.769486586881067417e-03,-8.464372176105210881e-04,-1.421349157043939838e-03,5.361936688423156738e-01
5.051468383928898742e-01,-3.937707965955697387e-02,-3.844414569990611819e-02,-3.720392750953531013e-03,4.315400197004109692e-03,4.560129862123649819e-03,5.442048907279968262e-01
5.122600204295029158e-01,-3.627450592497627468e-02,-4.459245037310743953e-02,-1.902353150113686312e-03,7.577058776707365322e-03,4.317816434858145515e-03,5.529566407203674316e-01
5.035729398833996839e-01,-5.780872813631418583e-02,-2.689878478315019250e-02,-1.433506344091815127e-03,-3.544290922895913516e-04,3.591332379290793032e-04,5.465888977050781250e-01
5.117305838086114722e-01,-3.350879374863990900e-02,-4.474050246027869160e-02,8.293492025864806355e-04,6.887189782335731078e-03,4.384815664210000609e-03,5.511244535446166992e-01
5.162903829236520359e-01,-2.995050073257582435e-02,-3.856087585221795733e-02,3.798850046581303259e-04,-5.603163746419627909e-04,-1.096985218932475421e-03,5.506010651588439941e-01
5.133681597851347256e-01,-2.982224174087047541e-02,-3.378181209901068294e-02,7.911041318282494277e-04,1.477746802258907794e-03,-9.190910173581434868e-04,5.451910495758056641e-01
5.176328844676776342e-01,-3.309072572053228800e-02,-3.755839982208900030e-02,-3.798213783768124123e-03,7.025779365903782325e-03,2.380770669679098134e-03,5.531593561172485352e-01
4.308648476674949435e-01,-3.815629445657167662e-02,-1.495181799707151482e-02,-1.799554125277732022e-02,5.291783182600341522e-03,1.067802414610715886e-02,4.593838155269622803e-01
3.093938564137206360e-01,-2.107712083211421561e-03,-1.765197548504243708e-02,-9.774746948673027069e-02,4.538231375677403284e-02,-2.448861875744990160e-02,3.725028336048126221e-01
3.144211479627826433e-01,3.839431657465752767e-03,-3.522754415299622632e-02,-1.052325431974328873e-01,4.538468024195189965e-02,-1.417504678970232801e-02,3.874590098857879639e-01
1.735587356634431533e-01,7.731591747889822452e-03,-4.747716814142932673e-03,-1.075433733109059653e-01,1.580707145813113612e-02,-1.854678090476131677e-02,2.572976052761077881e-01
5.185532017168359431e-01,2.952168365586302357e-02,-4.113005656330612214e-02,-2.907587139987391576e-03,2.035751748889515211e-03,7.723839517699844504e-03,5.281204581260681152e-01
4.162103961965994414e-01,-4.158202562381591028e-02,-4.115995211913969776e-03,-3.652622175906213714e-02,2.106627995973523251e-02,7.668186237173850450e-03,4.464708268642425537e-01
5.015169656805824605e-01,-5.301598383926089952e-02,-2.491082948505099481e-02,5.105954186396710788e-04,1.590013547299852937e-03,-2.082593301105208679e-04,5.410360097885131836e-01
5.220851648255535604e-01,-2.707252990124253689e-02,-2.988698833802658217e-02,-4.393105748390959027e-03,-4.639243385204921272e-03,1.541094585820478946e-03,5.506879687309265137e-01
5.192051884739709022e-01,-3.565608988808455226e-02,-4.503464915265309454e-02,-2.460271210749067922e-03,-1.621939695952648785e-03,-1.745192555857286209e-03,5.596409440040588379e-01
2.731730832260383379e-01,3.144520526584028419e-02,-9.352767739498418775e-02,-1.096736491486928755e-01,4.077656209589215763e-02,-2.464928388022507091e-02,3.836090266704559326e-01
5.248135582722617265e-01,-1.341601183602172953e-02,-3.784185598428332908e-02,1.363236017122717962e-02,-1.458963886649818423e-03,-1.233132019881470883e-03,5.513645410537719727e-01
8.731761876546482171e-01,-1.597960070269144328e-02,-5.564979824915350370e-02,3.684928464604991100e-02,6.222453819497873739e-02,5.052396248551233732e-02,9.223839044570922852e-01
3.018952778177978469e-01,-1.074538921571965844e-02,1.641205081150125256e-02,2.176763640119002211e-02,8.983096517089582400e-02,1.288157263221562012e-03,3.400389254093170166e-01
3.543797951424166870e-01,-2.899870473095969570e-02,-1.813914042988570841e-03,-7.784200528414456088e-02,1.487926846563691376e-02,6.270641161931427877e-03,3.952926695346832275e-01
5.189320556404664053e-01,-3.320070855628201589e-02,-5.071610616153468531e-02,2.737358240589456843e-03,1.924641410146037080e-03,1.339888505411621425e-03,5.611302852630615234e-01
5.135865691799414989e-01,-3.137344615058951236e-02,-4.846212273238778567e-02,3.994965227065316697e-03,3.729238502495800349e-03,-4.844450022380137819e-03,5.538466572761535645e-01
4.985047453730418465e-01,-3.758567619476718691e-02,-4.026043105410356815e-02,-2.797521341258552095e-03,4.649296979453136462e-03,-8.589532587108057032e-03,5.377207994461059570e-01
5.193712741912065445e-01,-4.821292529824111606e-02,-2.940441729329498766e-02,8.813887667551962776e-03,4.071125851754101369e-03,-6.527911394688732906e-06,5.586706995964050293e-01
5.034682842556932325e-01,-3.759292408725165013e-02,-3.800915752618821974e-02,2.624217835926370961e-03,8.645828076408616780e-03,-5.900086970508749452e-03,5.415920615196228027e-01
5.249688678460441293e-01,-3.774519837581960524e-02,-4.396871662519410973e-02,1.839227914645867048e-04,-4.703511996302266662e-04,-2.536129438060669584e-03,5.658692121505737305e-01
5.347498748722356865e-01,3.644391651334222271e-02,-5.362272773995879760e-02,-3.008899833528273088e-03,-1.291204290281545335e-03,5.075915255515765084e-03,5.490091443061828613e-01
5.317173603058695797e-01,-3.190568709272803560e-02,1.589114608070452128e-02,3.341688673339761762e-03,1.028975277903731609e-03,1.106608844421894285e-02,5.416826605796813965e-01
5.226920831975001569e-01,8.023947001309345017e-03,-4.064542616814656451e-02,3.842447846774946305e-03,-3.249431015537812030e-03,4.154858331093529318e-03,5.407664179801940918e-01
5.217239302215227470e-01,-4.581301752296926266e-02,-3.289513769565885482e-02,2.334831609692919301e-03,1.853282151934308600e-03,-6.199715833773262845e-03,5.613160133361816406e-01
5.213015854808127347e-01,6.829600126326135223e-03,-4.088891298942945451e-02,-9.443907980717466955e-03,5.788172588104916610e-03,5.448091308662782357e-03,5.403382778167724609e-01
5.865536387371989013e-01,-4.699342865023883875e-02,-2.498670614764514353e-02,1.601662238814951979e-03,2.065207029546622941e-02,5.054166320549715805e-03,6.239292621612548828e-01
5.148233390164282941e-01,-3.631311666734696186e-02,-3.335018578221091157e-02,-1.745451078326299950e-03,-1.189598831348603718e-03,1.305651061603054375e-03,5.496777892112731934e-01
5.315220155840771898e-01,-3.732809009939982992e-02,-1.875308692280652778e-02,-5.679904423054063511e-03,-5.380972870101908417e-03,4.078348659603835830e-03,5.600023269653320312e-01
5.098067531546912612e-01,-3.392008997659587410e-02,-4.423283113542672562e-02,6.481548326406976271e-03,3.624624473585063428e-03,-8.354806800620321119e-03,5.492972135543823242e-01
5.228427785809919293e-01,-1.513492265900645561e-02,-3.650767844839269971e-02,-1.428784791411586742e-02,-1.690246480245902573e-03,2.253569108431967803e-03,5.495553612709045410e-01
4.694806519033743464e-01,-5.478070759189823669e-02,-1.519519290730100836e-02,-1.409355725500588798e-03,2.254353505863831465e-03,-4.148321258358482998e-03,5.057041049003601074e-01
5.107542170985981400e-01,-3.547484532472652830e-02,-3.466377953190930006e-02,6.234433508989637926e-03,-2.430961164863420371e-03,-1.051853616725656601e-03,5.459500551223754883e-01
5.137956123676115094e-01,4.438328500703747626e-03,-3.766432813368292276e-02,-1.675114394134699820e-03,-4.283927379303895458e-03,4.676449554025402869e-03,5.317817926406860352e-01
5.138801514663257075e-01,-2.607832082694760967e-02,-3.529000482124172722e-02,-1.741837148390771228e-03,-2.439665549905161053e-03,3.859682031779529117e-04,5.446479320526123047e-01
4.943980829345603345e-01,-5.766639978114546095e-02,-2.471501375404919210e-02,-7.589457984478411960e-03,-5.265015199290460713e-04,-3.518646682805178557e-03,5.365449190139770508e-01
5.144049881226275822e-01,-3.035924347986801441e-02,-3.290510870320298431e-02,-1.945599444801687783e-03,-1.426683952830040550e-03,-1.493569903696197881e-03,5.460637211799621582e-01
5.148063187551037423e-01,-2.967036966276054288e-02,-8.547330941850755925e-03,5.184157404264450042e-03,2.833847092391078310e-03,2.191886808505975805e-03,5.343399643898010254e-01
4.582914222202292831e-01,-3.995564396127188056e-02,-2.656619554914860237e-02,-1.943717951728542170e-02,-1.670275213134422496e-02,-8.831705950680121889e-03,4.939256310462951660e-01
5.065868876958925515e-01,-5.321652496162404544e-02,-2.991294031097038730e-02,1.444937301558112119e-03,3.358910969844567610e-03,-1.303268380957964614e-03,5.485641956329345703e-01
5.078733095113967533e-01,-3.237027139698914202e-02,-4.967846640053449891e-02,9.337995794088332175e-04,-1.017536433568527743e-03,3.547022129492665224e-03,5.491418838500976562e-01
4.829865403804752266e-01,-1.407789648530685667e-02,-3.293394784015271637e-02,-5.570156856006888008e-02,-1.358648079655273150e-02,4.287594931633719429e-03,5.164476633071899414e-01
5.219113115910124501e-01,-2.661693468318968026e-02,-3.451526229125545520e-02,-4.550797569896901894e-03,-4.044154430253143334e-03,1.563719098971226486e-03,5.526270270347595215e-01
5.308730548857135689e-01,-4.039084581502760951e-02,-3.879408539665987754e-02,1.243205718678268117e-02,5.053956394721421420e-03,-1.010874849989465380e-04,5.709405541419982910e-01
5.000368166680746462e-01,-5.267201382652611508e-02,-2.861353355845164259e-02,-4.248639795313107273e-03,-9.506798371377511378e-05,-1.767597322508766529e-03,5.411396026611328125e-01
5.061858741297378117e-01,-4.426730441876541855e-02,-3.227196094360659795e-02,7.840662184280321884e-03,-1.478824255450533016e-03,-5.927046037904767917e-03,5.448266863822937012e-01
2.593938414403209047e-01,1.308146063020058925e-02,1.645866673951214276e-02,2.819060275431366919e-03,9.067181369896088264e-04,2.719486835093452848e-03,2.447403520345687866e-01
5.074050646209271598e-01,-3.462925174497141767e-02,-3.818699660348109926e-02,7.572823932642023083e-04,3.024478524974086053e-03,2.575658033936909039e-03,5.438670516014099121e-01
5.159583490653740778e-01,-3.363939246395167282e-02,-3.884277429561655559e-02,3.754664243610778256e-03,-1.079034045936272564e-03,2.607285200381465799e-05,5.522592663764953613e-01
5.189143310103113693e-01,-3.026214372975499778e-02,-2.305270904685846611e-02,-1.107908797381865510e-03,-1.817421319619240633e-03,4.809766344762799947e-03,5.456835031509399414e-01
4.869384458991608544e-01,-4.312912275554114938e-02,-3.381800064281584306e-02,-3.329789092935913405e-03,-1.982813354714490356e-03,-1.043707634305668375e-02,5.258275866508483887e-01
3.350058710681160790e-01,8.991364698141685041e-04,-4.649229879596941672e-03,-5.204355370078952644e-04,2.341740916884772566e-05,1.014425531059052164e-02,3.373742401599884033e-01
5.173961157961195489e-01,-2.996968323412396717e-02,-3.381821975749679798e-02,8.302149087095983624e-04,3.241109203368733142e-03,-7.729842407735788064e-04,5.493323802947998047e-01
5.209719408332219581e-01,-2.848373704320167343e-02,-3.525760150780063440e-02,3.182365081361748869e-03,1.101559279724033651e-03,-1.028235536403885458e-03,5.529073476791381836e-01
5.147048013762688390e-01,-3.239179164749694806e-02,-3.162080178120252327e-02,-3.314904508502851399e-03,-8.250077220090827265e-04,-9.062299949113562488e-04,5.467457771301269531e-01
5.164536450468183437e-01,-2.880666562802591812e-02,-2.479240429846177318e-02,3.214602060130632242e-03,5.258339826558343366e-03,-6.709608724590061281e-03,5.434934496879577637e-01
5.183781845140991162e-01,-2.990914942375991203e-02,-3.323034833166257918e-02,-3.307361609726905123e-04,3.652642191130169198e-03,-1.249977118930668254e-03,5.499963760375976562e-01
5.103556108501332567e-01,-3.240577879406311701e-02,-3.577995068866066108e-02,-5.982877963227012201e-03,4.770266434944867018e-03,2.141608863078275655e-03,5.446302294731140137e-01
2.438712691147875422e-01,1.353858874168011039e-02,2.066304023729337302e-02,-8.307659574079494236e-03,1.304976517392329553e-02,3.260204824224881542e-03,2.285010665655136108e-01
4.466637022453732730e-01,-3.170217685196136115e-02,-3.291805746510717556e-02,1.927742987454007448e-02,1.225457002581473685e-02,-1.406192832400207822e-02,4.812230467796325684e-01
5.285997548122733924e-01,-2.842127130433913518e-02,-7.703666474746850845e-03,2.503685789285165072e-04,1.070025967895306060e-02,-1.693284941654100983e-02,5.480559468269348145e-01
5.102561883997820402e-01,-1.768366257062894964e-02,-3.583651540363497201e-03,-3.291368949144102100e-03,-2.394989137767824638e-03,4.737828916595988697e-03,5.211452841758728027e-01
5.185515696700730981e-01,1.526707252003289828e-02,-2.799884104422764586e-02,-2.130779877713801559e-03,-2.940977785849598937e-03,2.714654400691942499e-02,5.283868312835693359e-01
5.278106671107412051e-01,-3.435979116765849883e-02,-3.679510432110483231e-02,1.427588991460497069e-04,7.130418128465249852e-04,1.234109504356927043e-03,5.633975267410278320e-01
5.293067693853622524e-01,-3.763454416564920857e-02,-3.731019377206876153e-02,1.391452326942751571e-03,3.602675357772214151e-04,-4.235473557388409749e-03,5.668321251869201660e-01
5.255709156007857263e-01,-2.154538257702606763e-02,-3.594681036145755404e-02,6.757791634685963479e-03,-5.234495322988812378e-03,6.404716890135341218e-05,5.546549558639526367e-01
5.285155733220952001e-01,-3.713508992414574217e-02,-3.685055339753418036e-02,-1.848928977666664756e-03,-1.363761871158646099e-03,-8.806509513380326494e-05,5.655224919319152832e-01
5.173500858053083906e-01,-1.993531768308687280e-03,-3.133614882692686843e-02,1.287751969890339005e-03,-2.552425696160825694e-03,4.048198522700205415e-03,5.346881151199340820e-01
4.272984088210599052e-01,2.409947128892456214e-02,-5.508303485982538050e-02,1.201671735198954344e-01,3.595562047373260933e-02,2.495090637036245958e-03,4.979790151119232178e-01
5.272867792750344229e-01,2.066594689337031276e-02,-4.780875396473668881e-02,6.069621202203188091e-03,4.879247702122867410e-03,-3.920506377287719113e-03,5.443089604377746582e-01
5.250403271875849764e-01,-3.763609424567992967e-02,-4.574598194893358949e-02,-2.968820760782538148e-03,-4.156912397246451791e-04,-3.752899793276538720e-03,5.668359398841857910e-01
5.280759234567666827e-01,-3.603364731302161061e-02,5.152059321428148486e-03,3.552768307914950466e-03,-3.317859168360524132e-03,-9.303540403297436145e-03,5.449891686439514160e-01
5.270295204952433199e-01,-3.672569416459303682e-02,-3.873786821608479758e-02,-2.851559360553433502e-03,-2.488158055665848963e-03,1.236913293144276886e-04,5.648020505905151367e-01
5.235191536180840988e-01,-2.767173576177667238e-02,-2.724931905204050486e-02,-2.078495000613245214e-03,-1.991010992437901913e-03,1.422073863516408378e-03,5.510078668594360352e-01
5.126657854350200605e-01,-2.003711848072523005e-02,-2.356087946301513303e-02,2.986712485849499828e-03,-8.489967144801526411e-04,9.300568816568890573e-04,5.345029830932617188e-01
5.226196536034677376e-01,-2.380506684157251973e-02,-2.632421029820952718e-02,-4.815855867748892669e-03,-2.827089701516901071e-03,3.352473960939207458e-03,5.478048324584960938e-01
5.174124455017310442e-01,-3.391901956854181943e-02,-3.382722539230692549e-03,5.159952786595746639e-03,-1.279515709616610604e-02,1.089382898840936427e-02,5.375781655311584473e-01
4.099846974017282708e-01,-2.064670530731899101e-02,-2.120715537114098437e-02,2.680052579415432667e-04,8.672600955801415729e-07,-1.436024647462231726e-02,4.316293895244598389e-01
5.570985950367863815e-01,2.158074456213882053e-02,-1.103191748658020055e-01,-5.721966966653258685e-02,8.392128918551126221e-03,-2.703454268694869753e-02,6.221236586570739746e-01
4.960901584959950261e-01,-3.409924678096071249e-02,-3.362232159504205398e-02,1.206941421153977408e-02,1.350288622616600993e-02,-2.187497359598947026e-03,5.308921933174133301e-01
5.147381196337730280e-01,-2.860876910076162738e-02,-2.964968516636992679e-02,2.924306023155888012e-03,1.148492663866711476e-03,7.308601069878937562e-04,5.438967943191528320e-01
4.336986346388330138e-01,-4.434965918345545877e-02,-2.934027634104399707e-02,4.721651647565960896e-02,3.723635932920906638e-02,-8.291003761439300415e-03,4.823217689990997314e-01
5.033748151785554237e-01,-4.434382029515257506e-02,-4.423598049406451960e-02,1.269293981866874378e-03,9.527053014330178491e-04,-7.458303094484840419e-03,5.478239655494689941e-01
5.116106279595546980e-01,-2.152703091727217743e-02,-3.325330441513504875e-02,3.851477153179645035e-03,-1.090693526789906186e-02,9.922524458127834554e-03,5.397422909736633301e-01
4.981235303171214213e-01,-5.262384054409838252e-02,-3.134308293395368650e-02,4.540597733995958688e-04,-1.161115169876205007e-03,-3.245745752749897538e-03,5.404548645019531250e-01
5.105112771300026608e-01,-4.164466182452924992e-02,-4.236285895838345916e-02,-3.725348813201213687e-04,-6.430984172327829790e-04,-1.772100760255628828e-03,5.525254011154174805e-01
5.514339827390624116e-01,-1.709722400968374800e-02,-2.964331881342066599e-02,1.041091373089511468e-01,7.013635341695712011e-02,3.496453198186957878e-02,6.176236867904663086e-01
5.113107424231475573e-01,-3.902043287340636879e-02,-4.406707014413960288e-02,-4.201117339163571883e-04,1.015670528028117092e-03,-6.877194290582884029e-04,5.528763532638549805e-01
5.056710223400089355e-01,-5.290883191062101254e-02,-3.120309863005243933e-02,-2.788264954301882242e-03,-1.762571017004686390e-03,-1.183858544253030536e-03,5.480830669403076172e-01
5.076386672882867712e-01,-4.710224222030112706e-02,-3.721118004327383932e-02,-1.060146277180670218e-03,-1.275892152217317135e-03,-1.809699135177497784e-03,5.498785376548767090e-01
4.856253456775985189e-01,-4.484217417081387547e-02,-3.562600940749383049e-02,4.001974376641754400e-02,3.055509453083186944e-02,-9.747791305265389797e-03,5.333690047264099121e-01
4.893789627708839962e-01,-5.268710373847609874e-02,-2.714959876864395105e-02,-3.249684926510855096e-03,-1.727034286236431055e-04,-5.634815564935193727e-03,5.298790335655212402e-01
5.025285123834370982e-01,-5.376374584775084342e-02,-2.646063580640817259e-02,2.670677139526856638e-04,-5.037442985212634613e-04,-6.271906492249453057e-04,5.431575775146484375e-01
4.598284921237085765e-01,-2.554661345058401034e-02,-3.178239065424495746e-02,2.415214636842688209e-02,1.425132829589270851e-02,-8.559232314665009278e-03,4.911554157733917236e-01
4.033090543616326129e-01,-1.137295604115054481e-02,-1.899311169339534811e-02,1.248700334144299956e-01,1.022641815145003547e-01,2.872577610485819999e-02,5.057728290557861328e-01
5.112723620092476384e-01,1.049197985337613215e-02,-2.953822792785762430e-02,5.935400006726108263e-02,3.383626937324601264e-02,4.019885872373083618e-02,5.397045016288757324e-01
5.166378029709026709e-01,-2.465858392786254849e-02,-1.649828918864121308e-02,1.399340643118959131e-03,3.071397286193159465e-03,-5.124851661316644387e-03,5.373678207397460938e-01
5.249832546168380354e-01,-2.048322901050025902e-02,-3.181455217825235327e-02,1.887509541783459780e-03,-5.976962025306633251e-03,1.512288010810488659e-03,5.513326525688171387e-01
4.922325748965652448e-01,-3.730278606167286570e-02,-3.568881407446730658e-02,-3.615708620365426593e-03,-3.260859803251598982e-03,-1.074779891105922223e-02,5.291250348091125488e-01
5.178119156337710471e-01,-1.967917322402107372e-02,-1.692150508014608756e-02,-1.822248462648643841e-03,2.055070619072440000e-03,-2.816298405188676513e-03,5.361608862876892090e-01
5.287848627415914216e-01,-3.899162976134648573e-02,-3.797517853014456546e-02,-1.036014627193347203e-03,-1.316032295672900409e-03,-1.088459538379052665e-03,5.672795176506042480e-01
5.228867137583639302e-01,-2.042208756571978201e-02,-3.403057621406682665e-02,2.165920893450864505e-03,-3.484465761498599379e-03,1.270458537932892158e-03,5.502895712852478027e-01
5.164107364808486755e-01,-2.079504197961837275e-02,-1.828785430035809179e-02,-1.334885800387473160e-03,2.003237455422085186e-03,-2.584216787204461087e-04,5.359730124473571777e-01
5.374791294988001678e-01,-2.346173071994001047e-02,-6.640870091062067715e-03,1.486805178208767432e-02,-8.613693242153877203e-03,-2.087442435371415078e-02,5.547026991844177246e-01
5.158497013035185930e-01,-2.265101466071717251e-02,-2.046362109805180407e-02,2.048842993123102790e-03,-1.957713062179446302e-04,1.058601178312646059e-03,5.374252796173095703e-01
5.286433063302664603e-01,-3.895328108325979422e-02,-3.594846632758930127e-02,-1.110224127410585921e-03,-2.437854485469683917e-04,-1.240970752990213461e-03,5.661076903343200684e-01
5.285750112749300067e-01,-3.620431061041695653e-02,-3.748040814558903366e-02,-2.836751597746654027e-03,1.781361001612578095e-03,-3.650026196533383109e-03,5.654835700988769531e-01
5.176879035321675371e-01,-3.959936398420399462e-02,-2.924932509469563291e-02,5.558181558492521906e-03,-2.071425052669968736e-02,-2.754269340388469309e-03,5.534536838531494141e-01
5.175328991982958149e-01,-3.101069375659107341e-02,-2.060230921258715542e-02,-1.956770890813953889e-03,-1.013675832281602998e-04,1.084540967532834742e-04,5.434247851371765137e-01
5.152164231708766806e-01,-2.974788046974355393e-02,-3.513914135991569321e-02,1.038562972776735501e-03,-3.704469107976293978e-04,-2.784264436483035749e-03,5.477043986320495605e-01
5.225270956210270601e-01,-2.174796588837846212e-03,-2.869180703663387622e-02,-4.858401404247601144e-05,-7.005182342027547332e-03,4.660988473570461949e-03,5.386475324630737305e-01
8.171864909616791683e-01,2.586415455374596606e-02,-8.443951331584309550e-02,2.989669895039620898e-02,4.893590385886172588e-03,7.639803283644931026e-03,8.535643219947814941e-01
5.221787178151475750e-01,-3.054565924282931499e-02,-2.086275326159856003e-02,-5.914334678522667130e-03,6.576758224085164310e-04,-6.992243976114170161e-04,5.480453372001647949e-01
5.383418301266323924e-01,3.920895275388763812e-02,-5.572920781709952975e-02,6.855128771144511357e-03,5.607235271003072757e-03,2.411300451725335858e-03,5.529795289039611816e-01
5.401967582644240373e-01,-5.528288206308637487e-02,5.071623115452622566e-02,-3.953012751737508719e-03,-1.120088572987281393e-02,1.642340306942551009e-02,5.513111352920532227e-01
5.426004229619865171e-01,-6.175851296806256219e-02,3.171451195938779222e-02,-2.953610168259819882e-03,-4.387261129411619380e-03,3.923598060288357135e-03,5.635829567909240723e-01
5.367669411247077971e-01,-5.180073110630675770e-02,3.018226486311567647e-02,-2.276244471861833753e-04,4.981980392799682973e-03,1.573487795684279898e-03,5.522342324256896973e-01
5.392977326553687334e-01,-4.928026721226508311e-02,3.057931346875777945e-02,-9.957318500707888504e-04,1.082212235774015520e-02,1.434685161342675631e-02,5.538680553436279297e-01
5.362944634884578843e-01,-5.090582066711971110e-02,3.244251314229412708e-02,-6.119762787335099839e-03,-1.163369091058868467e-02,1.060175749071739365e-02,5.510576367378234863e-01
5.125456847456760778e-01,-1.567334250014781882e-02,-1.061541060589710206e-02,-1.469894078464090929e-03,-1.961755409092064400e-03,4.273274715700452545e-03,5.257775783538818359e-01
5.112649941913058882e-01,-9.102831261143917718e-03,-1.290578520259233475e-02,-3.082134920733842621e-04,2.062416329575702308e-03,9.715062484919077118e-03,5.225631594657897949e-01
5.232912613173781313e-01,-4.113455278416458527e-02,3.137784641460250601e-02,-6.425082230269891191e-03,-1.555659131664843126e-02,5.361541719689267432e-03,5.327689647674560547e-01
5.285238098809752483e-01,-3.589275111372114413e-02,1.783945099089423447e-02,1.679029957291975576e-03,4.762568352279218827e-03,1.273570460479170330e-02,5.400823354721069336e-01
5.512453945144526468e-01,-4.783888986400075538e-02,2.567437220607179937e-02,6.581252825384691259e-03,-2.171524492338068255e-02,1.366525230011939387e-02,5.677766799926757812e-01
5.186554457470272661e-01,-2.314480611883246164e-02,1.517899991036741891e-03,1.464703515118951109e-03,4.449561129876896011e-03,4.953168819678346879e-03,5.300310850143432617e-01
5.110748022702313875e-01,-7.540866223455455764e-03,-1.798869792229523812e-02,-1.468807570537879453e-03,-5.895206590136218379e-04,2.283043457907725417e-03,5.239397883415222168e-01
5.143755286679279060e-01,-2.329044049899414714e-02,-8.824018633051489147e-03,-1.694858454594374664e-04,-4.206498578663345027e-03,3.341342431517985156e-03,5.306623578071594238e-01
5.136324774277132299e-01,7.406677530057137471e-03,-2.829322618181637217e-02,-2.255157978686185734e-03,9.314030438827568302e-04,5.772231423479302036e-03,5.250990986824035645e-01
5.118257526087371945e-01,-1.997064589099231680e-02,-1.925625419752741152e-02,1.568420776344038158e-03,2.380970503999296339e-03,4.202226865662132810e-05,5.314624905586242676e-01
5.105594197847367344e-01,-1.137957223834681897e-02,-7.340720716739107532e-03,-1.039401415145328831e-03,-1.355840532230420626e-03,5.564318687639349496e-03,5.200290679931640625e-01
5.130265137145253451e-01,-3.597791031343589019e-02,-3.436673666188957976e-02,-4.046692465078932134e-03,1.377740345692125010e-03,-9.577441717492759989e-04,5.482531189918518066e-01
5.207865195020078275e-01,-3.252077934141964222e-02,-4.112347151062820116e-02,2.005692221333104947e-03,-1.389733154807066239e-02,-4.754018655941439665e-03,5.582492351531982422e-01
5.146025616497954536e-01,-2.028404891495699802e-02,-2.956210358831556917e-02,-1.749847580938759676e-03,3.190289280374010699e-03,-1.282649971789159632e-03,5.396268367767333984e-01
5.147164001776607378e-01,-2.058665357459710243e-02,-3.021643717188640665e-02,-5.719478427660333424e-03,2.269599914841376447e-03,3.501958276058038519e-04,5.402877926826477051e-01
4.943425807722526821e-01,-5.517019488619470668e-02,-2.470823847149586361e-02,-1.021030962399574991e-03,-4.935170901587727661e-04,-1.813202683528286792e-03,5.349455475807189941e-01
5.103481971006917917e-01,-4.376350092923747548e-02,-4.174691657296755731e-02,-1.040709788124741589e-03,-9.089540382639502885e-04,-2.099065349402083440e-03,5.531232953071594238e-01
5.110322235050714923e-01,-4.032400146486411763e-02,-3.863873246327656497e-02,-1.391242508707141732e-03,3.654775186168638204e-04,-1.456549136230825357e-03,5.505269169807434082e-01
5.131539876517852150e-01,-2.396256394949172752e-02,-2.934461278004749096e-02,-8.979828934984295094e-04,2.698373704190670623e-03,-4.964997162409408695e-04,5.398508310317993164e-01
5.127052432905712109e-01,-2.047482290234550750e-02,7.955127718536625370e-04,2.558305976437869229e-03,-1.374628762529905238e-03,9.192074102141059230e-03,5.231360197067260742e-01
5.113070748828387746e-01,-1.706134144142179565e-02,-1.779056581851023999e-02,8.834654295193441358e-05,1.690513763725598646e-03,2.200574144372441799e-03,5.287552475929260254e-01
5.098388520723247108e-01,-4.219348145258577931e-02,-4.393640940924417593e-02,3.382485794122631006e-04,-4.573571475708257633e-04,-3.696555478328018493e-03,5.529438257217407227e-01
5.109920896999360362e-01,-4.825084077934208016e-02,-3.436409725248498748e-02,-1.492741448208669301e-03,-1.988193094530406151e-03,-2.028462573479917173e-03,5.524584054946899414e-01
5.113858795086623221e-01,-4.339487456397828069e-02,-3.926349767259776358e-02,1.012777689039281439e-03,1.404147566334843563e-04,-4.612461840088233236e-04,5.527300834655761719e-01
5.171600177097510631e-01,-1.307480999126583998e-02,4.710103204721954873e-03,1.036831664019066289e-03,-8.691514201859839618e-04,2.476502630065216190e-02,5.233359336853027344e-01
5.089541781659443487e-01,-1.575501478398000366e-02,-1.333116594630226470e-02,-7.875272392101257714e-04,-9.995138738766993526e-04,-4.021951637637640993e-04,5.235065817832946777e-01
4.726138158502875553e-01,-3.450381506514435537e-02,-3.719284609936196473e-02,-1.723686299454051498e-03,-1.325704001857881675e-02,-9.275892013605327793e-03,5.092479586601257324e-01
5.100003643001592701e-01,-1.471037746440342908e-02,-1.197805307493793325e-02,1.307979019013025658e-03,9.533974447352347838e-04,9.553319197301539259e-04,5.233600735664367676e-01
4.694085239744860694e-01,-5.337581913033018211e-02,-2.350405039793365680e-02,-1.795029619259266157e-02,3.393000747916263826e-03,1.115848631640061449e-03,5.094940662384033203e-01
5.056076113723657617e-01,-3.743303055615088137e-02,-4.654486017641135120e-02,1.805940639302036865e-05,-3.953223806052328575e-04,-2.578471537308568880e-03,5.476720333099365234e-01
5.623776562133252499e-01,-2.195454685030812092e-02,-4.430316581555662769e-02,-2.524936955619999299e-02,1.342422800851931358e-02,-1.395511173623020578e-03,5.978809595108032227e-01
4.923807287469298966e-01,-1.315433818390357446e-02,-5.180175157098954042e-02,-3.463119499803223728e-02,2.688617674387818943e-02,-9.113381518140815235e-03,5.316132903099060059e-01
4.148760898790185281e-01,2.459619497540588284e-02,-3.130135082789167744e-02,1.417411981100884788e-01,5.467454633113943974e-02,1.235787769163065007e-02,4.969470798969268799e-01
5.296666185633911450e-01,-4.119351564271545030e-02,-3.891180225810131343e-02,1.004512347751831394e-03,-1.321473952847885321e-03,-9.615940317547101582e-04,5.697323679924011230e-01
5.276712510882438645e-01,-3.574367452130280953e-02,-3.693359415233007925e-02,5.187565568774545142e-04,-2.045184051553635730e-03,-5.011872997094515359e-04,5.640233159065246582e-01
5.271996151814815068e-01,4.353285384452565410e-03,-4.273916585410098001e-02,-2.382910867118285831e-03,-1.613002022779826518e-03,4.671867883069056801e-03,5.479949116706848145e-01
4.309622348727813468e-01,-1.562637133785660382e-02,-3.991865404029643072e-02,-1.426957349049959994e-02,-2.039129691297348560e-03,2.655325201200002018e-03,4.599180817604064941e-01
4.436066544619476359e-01,-1.673657672192849222e-02,-4.799253141008802404e-02,2.444809513979666381e-04,-7.863651279848882236e-02,7.761359543578775100e-04,4.958168864250183105e-01
5.292176656923393008e-01,-3.931262066863949745e-02,-3.690005949995481260e-02,1.549745739983394706e-04,-6.063821252061154772e-04,-4.665319807882660963e-04,5.673294663429260254e-01
4.747039874722623898e-01,-1.790454186264403558e-02,-5.596902498040062790e-02,2.851990735854116268e-05,-1.139151997865918246e-02,2.278464060640335808e-04,5.130813121795654297e-01
4.933761674169117040e-01,-2.924864116367173472e-02,-4.490996543136119290e-02,-2.816497430837139240e-03,-2.263796010009391790e-02,-9.854434450537173998e-03,5.323715806007385254e-01
5.266237511220495104e-01,-3.423577534389093957e-02,-2.924717398585308104e-02,1.065409733626528007e-04,-3.105779910938502066e-03,4.583768877146098051e-04,5.584084391593933105e-01
5.228267812624900479e-01,-8.548504951258584228e-03,-3.158909714440544247e-02,-7.893756991136549606e-03,-7.593828927826747240e-03,2.492466952370606895e-03,5.436104536056518555e-01
3.558456784429429032e-01,-1.104657814251332193e-02,-2.291310681311589659e-02,5.675783657811342940e-03,-8.298349588501763296e-02,-1.025918699760062017e-02,4.002195000648498535e-01
5.262338119829808036e-01,-3.564425862095843556e-02,-3.249929877430643432e-02,7.689257854360813556e-04,-3.865609872857658433e-03,5.727639058438065449e-04,5.603546500205993652e-01
5.218019749020739173e-01,-2.343053255208790708e-02,-3.221069612390733972e-02,3.315769440856258495e-04,-2.122696578336648841e-03,1.127934872173129649e-03,5.496912598609924316e-01
5.198315540153634062e-01,-1.508598609362751808e-02,-3.031581609220776463e-02,-4.001636923642638323e-03,1.551626472891928918e-03,-3.289505756540197102e-03,5.427735447883605957e-01
5.181299204697407124e-01,-3.246465815060800564e-03,-2.366367260605578560e-02,1.940241883041471426e-03,1.702328919294420883e-03,-9.467989315897361660e-03,5.321505069732666016e-01
5.203820440848230255e-01,-2.252647361048229491e-02,-2.029776913358544155e-02,-6.423193887168294233e-05,-4.138834035542233308e-03,1.110187791530799781e-03,5.418484210968017578e-01
5.128879408767397230e-01,-1.185615075310267330e-02,-1.411092733555213696e-02,-9.968884388624853069e-05,-3.055301752586081845e-03,1.840138788694896561e-03,5.259113907814025879e-01
5.146941768438749731e-01,-2.034629113843322568e-02,-1.480349168559152995e-02,-2.750858217021606971e-03,1.143265169126725806e-04,1.253922309908771801e-03,5.323165059089660645e-01
3.829909397614404409e-01,-1.588828611644915734e-03,-3.576435957801035737e-02,-6.654993933169178755e-03,-2.676055995816684074e-02,-9.519163229304558604e-03,4.059136211872100830e-01
5.099894887318077163e-01,-7.508334111587300352e-03,-1.884149509854310400e-02,-7.458390026313182174e-04,1.850497434418901452e-03,2.951819261940311946e-03,5.232928395271301270e-01
5.121960935478717669e-01,-1.380686632443722806e-02,-1.145199689181303215e-02,-1.531587248183121025e-03,-3.142388736501514589e-03,1.258416212135699463e-03,5.248689651489257812e-01
2.992388771854364582e-01,-8.742673542138507115e-04,1.486415498722470918e-03,-8.689581029491449948e-02,9.951604193543740762e-02,-3.479159036309546066e-02,3.812601864337921143e-01
5.806799866987939485e-01,-7.614949260407144482e-02,1.330895355374009381e-02,2.018236410098879843e-02,-1.051381341370233834e-02,3.806298676502463483e-03,6.182765364646911621e-01
6.990534471767995139e-01,-8.486024872265690577e-02,1.711711669200069452e-02,-2.285686402570499820e-02,1.003270457452484915e-01,4.449309888578050799e-03,7.594747543334960938e-01
5.192457370533682948e-01,-1.207616754416440674e-04,-2.045634696506731798e-02,-1.622556634720351081e-04,-1.163697719760120640e-03,1.160432431585423432e-02,5.302120447158813477e-01
5.426628121717331776e-01,-6.122176862318834401e-02,3.274252528267540541e-02,2.077009872240603849e-03,1.810900192354444882e-02,7.904563828461805969e-03,5.638674497604370117e-01
5.372796379644698694e-01,-5.512849881306772226e-02,1.310645442200505939e-02,2.319588692748345699e-03,3.641891441250921096e-02,-5.382181943817627989e-03,5.650331974029541016e-01
5.100405840320175743e-01,-1.283683418697884049e-02,-1.334353316997907712e-02,1.890880020518150495e-03,5.476126470870497972e-04,6.714676545200123263e-04,5.231433510780334473e-01
5.110752047832420875e-01,-1.589673067734476142e-02,-2.049917160815814543e-02,-6.390833349182361905e-04,2.041792587062584482e-03,3.191325365122444821e-04,5.293014049530029297e-01
5.142745636436247825e-01,-7.668435625387742816e-03,-1.899413988793302588e-02,-4.692736891770993182e-04,-1.793640425727692674e-03,2.544665059350752385e-03,5.277252197265625000e-01
5.218402900370306963e-01,-2.548044464187279590e-02,-3.705702071008049048e-02,4.552310111001369071e-03,1.978640572397410383e-04,-9.110519359494265385e-04,5.532584190368652344e-01
5.099333215981859402e-01,-1.137214836937650020e-02,-1.445038101111156825e-02,-7.440652978804529688e-04,1.841972238921748802e-03,5.982489034118087384e-03,5.229653716087341309e-01
5.335108288800440857e-01,-4.333743473826007220e-02,2.338914370365863249e-02,1.758328005127778038e-02,1.382819785576753502e-01,7.107954270784833453e-03,5.976287126541137695e-01
5.869667704411581921e-01,-5.123606123165477810e-02,1.690756190599709829e-02,-1.044472825280929641e-02,3.373835059859567331e-03,-1.704264454038946844e-02,6.080211400985717773e-01
5.119869219757283707e-01,-2.012484238043901752e-02,-2.257773395197668065e-02,-1.200540804529364076e-03,5.159030243292641454e-04,5.859514846225933856e-04,5.333482027053833008e-01
4.850171872128153927e-01,-3.375893069752522457e-02,-4.731014674271319387e-02,-3.707345688675412181e-03,-8.932938975514259292e-03,-1.158665424497146851e-02,5.263323187828063965e-01
5.258914054807397598e-01,3.686807026965321921e-02,-5.349260329043739604e-02,-6.604830316716354434e-03,-2.150453314456930742e-04,2.193510817765658653e-03,5.400395989418029785e-01
5.652359758580076665e-01,4.443814330722084538e-02,-6.265715520900552726e-02,7.310963174598446128e-03,1.527644434904231255e-02,1.721002960668495049e-02,5.832870602607727051e-01
5.143052158052374701e-01,-3.373246774826887950e-02,-3.692591850919635377e-02,-1.115531401108670268e-03,2.386182565880093365e-03,-7.300908293558372323e-04,5.496617555618286133e-01
5.108663006966390752e-01,-3.057352793456355466e-02,-3.512285747353563470e-02,1.510766767302310640e-03,-3.227716319552072135e-03,6.454084801666718158e-04,5.437649488449096680e-01
5.506555163476363202e-01,2.497081120750455074e-02,-6.494301061501905892e-02,2.629887470335377439e-03,8.413422084425413103e-03,-1.425415042315727066e-03,5.761374831199645996e-01
5.373996467239781083e-01,7.662028826905281642e-03,-6.512562493380522066e-02,-2.940027168619261180e-02,1.493145664792404695e-02,-6.816035030271589724e-03,5.726078152656555176e-01
5.141958302028517558e-01,-2.882177093833621084e-02,-2.814276790605677037e-02,1.321191305728380101e-03,2.375619068376670032e-03,1.887929570292838557e-04,5.426989197731018066e-01
5.101380969946189836e-01,-3.209325027696488530e-02,-2.924114613279357733e-02,3.877170493671120571e-04,-1.765492411075382517e-03,-1.125010641989902934e-03,5.408235192298889160e-01
5.130998807911812953e-01,-3.211155274537486060e-02,-3.535225166594024859e-02,-1.530295265839957345e-03,2.376220010396652791e-03,-1.496755723361534087e-03,5.468670129776000977e-01
5.132965230755701658e-01,-3.207535840997513543e-02,-2.962705140709592788e-02,-1.734569137894704377e-03,-1.153203577099270061e-03,-2.282547143141994519e-04,5.441639423370361328e-01
5.130550405380289725e-01,-4.455527044668192160e-02,-3.934208071317396582e-02,-1.140720276501118837e-04,-2.101414330696391511e-03,-1.293176075821947943e-03,5.550385713577270508e-01
5.132984036345287215e-01,-4.091783620694960932e-02,-3.543280211402485835e-02,-1.014077301317246925e-03,-2.083362877286694306e-03,-8.832708661350690670e-04,5.515109300613403320e-01
5.148506150300540263e-01,-3.727532406421515954e-02,-3.402419611169579805e-02,-4.995442653427775541e-03,-1.470695996226959595e-03,1.242570217619018743e-05,5.505814552307128906e-01
5.101569972058110913e-01,-3.902803994705220103e-02,-3.872641795607931203e-02,1.714620763946486561e-04,1.892743729730911881e-03,-1.968778725186972126e-03,5.490547418594360352e-01
5.151684375836258489e-01,-4.124165293870499238e-02,-3.986010568451880953e-02,-1.006650643128024570e-03,-1.102661536841633002e-03,5.283169463992934889e-04,5.557273626327514648e-01
5.025164449338376249e-01,-4.141651351749797705e-02,-3.876445497042413368e-02,-1.340961407345706534e-03,-2.682917183004064968e-03,-5.686808804010121295e-03,5.427260398864746094e-01
5.118507291800223902e-01,-5.465418258526227868e-02,-2.955449891523445616e-02,1.693394686041363234e-03,1.701649520576525854e-03,-2.553389229277829996e-04,5.543971657752990723e-01
5.138249063243796044e-01,-3.050003555687999524e-02,-2.556205876986902825e-02,4.203211359863316004e-04,2.774058171322783470e-03,3.050873695683976958e-03,5.419203639030456543e-01
5.139225845811281612e-01,-2.792088736969913776e-02,-3.035839515892721496e-02,2.570703873656487136e-03,1.670603439847932487e-03,6.968351913430523292e-04,5.430936217308044434e-01
4.772249630868053427e-01,-2.742903675360297555e-02,-4.687519728760433657e-02,1.666170121128416129e-03,2.495488420720975292e-02,3.575628374004281070e-03,5.165097713470458984e-01
3.746015791954970253e-01,-8.585332360386777051e-03,-2.183069240757173901e-02,-2.213095627997749282e-02,1.647573222364884585e-02,1.075179878883932710e-02,3.933364748954772949e-01
5.279422748592899062e-01,-2.401188091408756886e-02,-4.042465205162790176e-02,6.869208984967954332e-03,-2.735164947454859791e-03,1.093934191218678444e-03,5.604903697967529297e-01
5.187337798052533699e-01,-2.125432068630078719e-02,-2.353752836002295790e-02,5.771532536578102054e-04,-3.651804337250115235e-04,-1.698368272953463881e-03,5.411425828933715820e-01
5.132595251730927011e-01,-2.994220288372734240e-02,-5.425848026026960924e-02,-1.433833780057669960e-03,-2.386634957195532037e-04,-3.212570948613271797e-03,5.557925105094909668e-01
3.604617575352626058e-01,-4.074201852725525819e-02,-6.381030524234276857e-05,-2.547205045951807245e-02,5.710432229221972661e-02,2.581406594546141117e-03,3.975526690483093262e-01
2.562503419627742418e-01,-2.461136888223719454e-03,3.457336873599253790e-03,-4.492775908931064682e-02,9.680564282716264471e-03,6.976413140742919808e-03,2.681755721569061279e-01
5.255425072212760451e-01,-3.690437278341562877e-02,-4.369031285518068519e-02,-6.192899313058110875e-04,7.603432379127257829e-04,-2.612316051510741796e-03,5.658910274505615234e-01
8.824568423220110480e-01,-7.807692601816873523e-02,-3.738799256719349540e-02,2.305996838972755678e-04,1.792304188175299420e-02,4.433961135586325653e-02,9.444890022277832031e-01
5.182851998664788074e-01,-4.930043640098139002e-02,-2.980805677201087134e-02,5.306757945238891987e-03,1.180279752121358690e-03,-1.071444639600714280e-04,5.581742525100708008e-01
4.183851148300956613e-01,-4.015660506200527391e-02,-2.411905042009235278e-02,-7.506371807525412387e-02,2.388769769583349092e-02,7.414005599600015676e-04,4.709363281726837158e-01
5.466302939726558341e-01,3.196823149782240803e-02,-5.325914421651475883e-02,7.723825319355337449e-03,3.720335624468305152e-03,-5.065234761032331827e-03,5.624068975448608398e-01
6.132415724849780148e-01,-5.972639688237696420e-02,4.047604084692341120e-02,8.684067595134976197e-03,-2.208230945177046614e-02,8.064671802568090797e-03,6.303789615631103516e-01
5.222710927332954167e-01,-3.166757910673373422e-02,-2.187609846781427003e-02,-4.667736195293707875e-03,2.574359874223585906e-03,3.930129666849658913e-04,5.491864681243896484e-01
4.564677343565369250e-01,-3.194436826886504210e-02,-2.846792657130781112e-02,-5.850054151527867008e-03,2.189142795934394259e-02,1.556709510072900628e-02,4.890070557594299316e-01
5.293096024269341449e-01,1.893626379039550778e-02,-3.504374198422566256e-02,-3.767021229179130272e-03,7.036926972957753199e-03,-1.359366852659800624e-02,5.400835275650024414e-01
5.179361674304255869e-01,-4.183174715527238074e-02,2.298822699556435367e-02,-4.463798548578983179e-03,3.859526293575079019e-04,5.490618323516773328e-03,5.304793119430541992e-01
5.239830515048002901e-01,-2.746656594791443973e-02,-3.478227437632983032e-02,-3.282958334384064591e-03,-4.351533794377708021e-03,1.030358347063813036e-04,5.552239418029785156e-01
5.228379301345338348e-01,-3.647751704970972342e-02,-4.189609582608797012e-02,-3.069579915829694864e-03,1.048870997023500793e-03,-3.757154437630053686e-03,5.621100664138793945e-01
5.009292453541128731e-01,-2.323159667994309507e-02,-5.636665195571349818e-02,-1.890031277230788914e-04,-4.357831566914036520e-05,-8.765562488494293590e-04,5.414915084838867188e-01
5.338332426908671824e-01,8.400950304349147357e-03,-3.716597977476174264e-02,4.630439656067347233e-03,4.349466582419779688e-03,-2.990677291559696444e-02,5.521793961524963379e-01
4.822147421011991897e-01,-1.625125780917527352e-02,-5.205460848863538437e-02,-2.259093356844368069e-03,2.073800432329327929e-03,-2.519655111911167818e-03,5.173434615135192871e-01
5.368924093569555911e-01,1.956925893596384025e-02,-4.900480860477918199e-02,1.686530207763262427e-03,-1.064800528760477755e-03,-3.851978313303625924e-03,5.548486709594726562e-01
5.067960718110141594e-01,-2.907037751891938804e-02,-5.305412875942241979e-02,1.364323257515838482e-03,-7.225956821218049895e-06,3.689803984547109926e-04,5.482573509216308594e-01
5.372253170883275475e-01,2.325670760878814636e-02,-5.273645408714439098e-02,-1.606635452680032052e-03,2.399580764436048865e-03,-4.309796790053673811e-03,5.559474229812622070e-01
5.917417896950394329e-01,-1.108930534336707852e-02,-5.080873652849202116e-02,1.421169929800949680e-02,5.718763156826540441e-03,-3.245014360884199839e-02,6.267297267913818359e-01
5.264241424603852693e-01,3.644960682428255438e-03,-4.309296623924518954e-02,-3.680661232720280202e-02,2.228369415659412010e-04,1.042790823040603589e-03,5.513471961021423340e-01
8.338755320039901164e-01,-8.735327456772462584e-02,-6.943816127980673159e-03,3.131627631240211512e-02,7.682582008430428530e-03,4.257920616736888403e-02,8.886004686355590820e-01
5.701857781444903406e-01,1.472993237542410960e-02,-5.367076619483229782e-02,-4.795766355115006763e-03,3.188903693616686099e-03,-4.806327057595311328e-03,5.927665829658508301e-01
5.670269616378942334e-01,1.354793234983656114e-02,-5.366018356307436510e-02,3.081689282879886919e-03,1.718374089295440083e-02,-5.961192055095840790e-03,5.908258557319641113e-01
5.098495893435395221e-01,-1.079420182650545068e-02,-1.361188553959807868e-02,-3.401804942286326683e-04,-1.497188497842937872e-04,1.663018082912133370e-03,5.220666527748107910e-01
6.563061095533877509e-01,3.459072683941455395e-02,-7.565429747518015446e-02,-1.437519824530793522e-01,3.589612079393887656e-02,-1.498662676146100695e-03,7.301309704780578613e-01
5.029575507050214611e-01,-4.418743108763537042e-02,-3.202023793307709476e-02,-4.821435575883921063e-03,4.442639461731913084e-04,-5.643322768423717113e-03,5.413172245025634766e-01
6.087996857571972287e-01,-8.424530618510778224e-02,5.043452820461535868e-03,-5.513799022121645271e-02,-1.419403648078654823e-01,3.928644671703002134e-02,7.075272202491760254e-01
5.050118092519269020e-01,-4.788698441282551732e-02,-2.974039126885560935e-02,-1.568990402334621836e-02,-1.152555055956727519e-03,-2.806670768125664028e-03,5.447561740875244141e-01
4.987004979049409759e-01,-2.325499579139286843e-02,-5.494523023869946066e-02,4.856153427230495978e-04,-1.788159018828665400e-04,2.401195437540358177e-03,5.385172367095947266e-01
5.075815551876230458e-01,-2.879586980416007358e-02,-5.403278386656090726e-02,2.713799615102220706e-03,-8.879648224434969709e-04,-2.330687409729408077e-03,5.494678616523742676e-01
5.206714991396959036e-01,-3.682343982599017851e-02,-4.893255937074705852e-02,1.776384050087471489e-03,7.166611243978950573e-03,1.964513696800423547e-03,5.638023614883422852e-01
5.062914853799667103e-01,-2.980900152014526183e-02,-5.502585916497002017e-02,3.898754710065465670e-04,5.507144498628140789e-03,1.371584120726952651e-03,5.492317080497741699e-01
4.907429754688961698e-01,-5.171689000672732850e-02,-2.506716802277772493e-02,-8.681371107420992467e-03,-2.568959943179428222e-03,-3.105362658086526211e-03,5.298974514007568359e-01
5.157280234312842104e-01,-3.409582285669829349e-02,-4.877750807676572986e-02,1.206686494202851602e-03,6.978501999370288582e-03,1.076768571573361423e-03,5.574478507041931152e-01
4.585468964997184704e-01,-2.526596190591517965e-02,-4.198072545115194565e-02,4.907870890157217843e-04,1.842185427446508053e-02,1.132121797864670855e-02,4.938060343265533447e-01
7.996644762984045363e-01,9.474501692726677859e-04,-5.751577278157909978e-02,1.509363111430896999e-02,-3.239628668209124790e-02,-3.735785069278855369e-02,8.343148231506347656e-01
4.991655870180635168e-01,-2.589406169513949751e-02,-5.631594469023556981e-02,2.662458093570009847e-04,-2.905920291017353432e-04,4.316042356783211884e-04,5.409135222434997559e-01
5.127516650111206831e-01,-3.399519527986002987e-02,-4.867270806882342815e-02,2.052671487435298123e-03,4.268854887515613830e-03,2.705427402437233109e-03,5.543119311332702637e-01
4.953243844896358383e-01,-4.354616056337570762e-02,-2.766715362553634483e-02,-4.837547220462954110e-05,-1.591556391083903590e-03,-4.849128074804509234e-03,5.311826467514038086e-01
4.950094333818391701e-01,-5.742561010699021029e-02,-2.555352111358569211e-02,-4.994775208326170460e-03,-1.089573170256543603e-03,-3.170466265780727544e-03,5.373095870018005371e-01
4.877563800035135677e-01,-4.176377364716851726e-02,-3.714865851100668248e-02,-7.019630318102601345e-03,-2.789671587360621156e-03,-8.336696189694433115e-03,5.275877118110656738e-01
3.652430991517977565e-01,-1.852772970108890194e-02,-2.019482378161641112e-02,-2.751600499698432858e-02,-5.776951865105064976e-02,-7.155604343421408803e-03,4.004491865634918213e-01
5.085427217146089029e-01,-3.366202300099579992e-02,-4.971393437542415139e-02,1.680428789462319822e-03,-3.569326145748605837e-04,3.108421187681208349e-03,5.504406690597534180e-01
5.142563772773778297e-01,-3.052346079394946399e-02,-5.552749732825326690e-02,2.091490183287055341e-03,1.490325216200952783e-03,8.182366131518793847e-04,5.577219128608703613e-01
5.161374025168899982e-01,-3.027037613103980562e-02,-3.073075141607403693e-02,-6.418285407619090960e-04,-1.193630347959590606e-03,-8.437334806770866152e-04,5.466451048851013184e-01
5.133028452804418995e-01,-3.960426496420221820e-02,-3.766210463297678390e-02,-1.850298501982035587e-03,2.115353351860752712e-03,1.587207586440392095e-05,5.519600510597229004e-01
5.843301679162259399e-01,-3.782196002153898062e-02,-3.889714860902140914e-02,2.717368376560059390e-02,-9.560215450055975506e-03,-2.540006912243167672e-02,6.262333989143371582e-01
4.925154682195407863e-01,-3.316304692574792434e-02,-4.347700197660409049e-02,7.104736516660790490e-04,-1.016792926094088004e-03,8.417515181719275458e-03,5.311151146888732910e-01
4.528893612286726822e-01,-3.704613383448285280e-02,-2.795518956035178415e-02,-5.065126141975552065e-04,1.008379858755424630e-03,1.111388587269040301e-02,4.858393073081970215e-01
5.081286340042079352e-01,-3.273343307368045685e-02,-4.978336777734912455e-02,3.422537953459124389e-04,1.609992170835100817e-03,1.764538736770152874e-03,5.496013164520263672e-01
5.140864331443840696e-01,-3.942289103952287266e-02,-4.406319829767946228e-02,1.342942364409244497e-03,2.602904091604461064e-03,4.006767523574292049e-03,5.559104681015014648e-01
5.167483923610818319e-01,-3.925554636603401093e-02,-4.484900805528624357e-02,8.197647251751647704e-05,5.053854034628873539e-04,7.288750738048970119e-04,5.588238239288330078e-01
5.174688566868389517e-01,-3.977539357992898594e-02,-3.833880482099996656e-02,-5.862957987215514869e-04,-2.579193271071262791e-04,1.020428125443799102e-03,5.565312504768371582e-01
4.836466746973447917e-01,-4.273587114321181213e-02,-3.640144327622812925e-02,-4.654331180893318820e-03,7.257467355141020843e-04,-9.952179049033726965e-03,5.235915184020996094e-01
5.179197643894033476e-01,-3.399587980407339782e-02,-4.200599937200985567e-02,1.796514727340798191e-03,1.727217180512799011e-03,5.593578178868617709e-04,5.559815764427185059e-01
5.169228881197461822e-01,-3.968635290893496315e-02,-4.592043107045870598e-02,-2.953989844774319688e-04,6.716611583458191419e-04,2.013307786396245636e-03,5.597646236419677734e-01
4.528358421142479884e-01,-3.064382266005527544e-02,-3.209483662851783659e-02,1.714563824002379028e-03,2.249533351963693716e-04,1.242100540410045854e-02,4.846937656402587891e-01
4.637173305023308267e-01,-4.400974421573133899e-02,-2.486665554064379502e-02,-1.649920184249871816e-02,3.720697820526851891e-04,-1.152621175035129474e-02,4.996492862701416016e-01
5.047865969618252624e-01,-3.223746125165552479e-02,-5.066093987699832324e-02,-3.091145536593931618e-03,-1.053154011778796844e-03,-1.231910479257715884e-03,5.465022325515747070e-01
4.927467402540917085e-01,-3.236494119417479554e-02,-4.424414303875770504e-02,-7.086237821979424201e-03,-4.638004029220924550e-03,-1.178882649164519902e-02,5.317456126213073730e-01
5.065577438959057988e-01,-4.047364460065311365e-02,-4.929622590579627039e-02,-3.894567912477611953e-03,-4.133606103515491056e-03,-5.404332618558493895e-03,5.516627430915832520e-01
4.714890869588089783e-01,-3.150364978525080351e-02,-4.184181317616694762e-02,-1.171734858186945262e-02,-2.746371585359987794e-02,-9.906680004442440513e-03,5.111532807350158691e-01
5.139627408901212835e-01,-3.787569353254255367e-02,-3.908393452704295168e-02,-1.579599189761469449e-03,-4.595315822279550863e-03,-4.004582060616604204e-03,5.525512099266052246e-01
6.690858117918074832e-01,-9.817969171821450125e-02,3.980148788817361449e-03,6.811365260187263182e-02,1.276122750369051151e-01,9.934321249858768521e-03,7.640801072120666504e-01
5.248265176984643343e-01,-2.759388348325994555e-02,-3.236399659852504107e-02,-3.286078574691524406e-03,-3.676909712874518437e-03,4.125016463279565005e-04,5.548870563507080078e-01
5.220494043503717263e-01,-3.109407277604711584e-02,-2.048910170684636878e-02,-5.624813535565108095e-03,1.095937818213653901e-03,-7.794607560715214115e-04,5.480095148086547852e-01
2.322719707869720096e-01,-7.484007337227108203e-03,8.827393051526188916e-03,-5.103799971018092851e-02,1.067752672900368766e-01,-1.044604789355899066e-02,3.101339936256408691e-01
5.249272747152953222e-01,-3.320013754289491414e-02,-3.275418517452416411e-02,-5.903140671284189990e-03,-3.182400722217596650e-03,9.096242985170869622e-04,5.580276846885681152e-01
5.267966974735109886e-01,-3.753310022222672293e-02,-3.553271349624981257e-02,1.291748177837977098e-03,-3.331787180641791139e-03,-1.801580510021126569e-03,5.633749365806579590e-01
5.002429855849148677e-01,-2.652265297715494796e-02,-4.853511589050965580e-02,-2.054684823435504442e-03,5.494543190960279226e-04,-6.679894203795077624e-03,5.382466316223144531e-01
5.225163014741469603e-01,-2.126134245468522255e-02,-2.986083568698455482e-02,2.497377378517740432e-03,-4.287183763789818684e-03,1.499929978033597575e-03,5.482015013694763184e-01
5.146780577615158725e-01,-2.386849835010437793e-02,-3.022797031546142765e-02,2.946275025972715667e-03,3.061123507756898388e-03,2.578014572226698209e-04,5.418044328689575195e-01
5.139151933630490277e-01,-3.105560168945634136e-02,-2.585841544111316948e-02,4.795106413646051807e-03,-3.184511027125661638e-03,-3.847113561464647006e-03,5.425234436988830566e-01
5.262462782081697155e-01,-3.735192412612681201e-02,-3.153580085354068530e-02,-3.404445825203968908e-05,-1.207730081465273504e-03,-1.994440357630637879e-03,5.607272982597351074e-01
5.143657351653631027e-01,-3.254443211863106145e-02,-4.636762383336942572e-02,4.425567522951187605e-04,-1.404839593443958212e-03,-5.006457964935499090e-04,5.539577007293701172e-01
5.188145785744373573e-01,-2.343890832755882170e-02,-1.895284052499435212e-02,-4.157979787528724540e-04,-2.037071090642125857e-03,5.036416754835779108e-03,5.401068925857543945e-01
4.116129222448930980e-01,-1.816698129639277015e-03,-3.218578076377440200e-02,-7.439474719230784261e-04,1.115171664157647369e-03,9.726409088146146403e-05,4.294266402721405029e-01
5.253990752426644928e-01,-2.679914478874961814e-02,-3.100137507686406835e-02,-3.993326131554546937e-03,-5.100345756792155905e-03,3.339045097114208722e-03,5.544549822807312012e-01
5.196403351813040361e-01,-3.151310894961190101e-02,-4.533076940739735883e-02,3.597603723191501908e-03,5.338057735678029131e-03,-2.374337859572969028e-03,5.583170652389526367e-01
5.042801175022957327e-01,-5.260291650641457650e-02,-3.504725397622562855e-02,1.673009769350876884e-03,9.883508121897230641e-04,-1.354177547269818033e-03,5.483313798904418945e-01
5.136862019761725406e-01,-1.933389627562726032e-02,-1.015551727250760261e-02,-3.590608442186663928e-03,5.274114754935117343e-04,2.640786273836076212e-03,5.285478830337524414e-01
5.230050210954955148e-01,-2.364606472005875704e-02,-2.994987147407107697e-02,-4.815029241082076361e-03,-3.011578426501078376e-03,2.139922944133151590e-04,5.499181747436523438e-01
5.256953592763424776e-01,-4.129108850357268712e-02,-3.969943175589629725e-02,1.743988610113895955e-03,-7.058368239804804680e-04,-3.279220318484061831e-03,5.662301778793334961e-01
5.234484009577502484e-01,-3.445527441961271364e-02,-2.425608367499809681e-02,4.428074654781303555e-03,1.413926328782369110e-02,2.314891667769615555e-03,5.534844398498535156e-01
5.236980930278458679e-01,-3.069578347095158755e-02,-2.907899621750259511e-02,-4.111477494451623409e-03,-3.372062584327927080e-03,9.940741109677791922e-04,5.536665320396423340e-01
5.144862230056479468e-01,-2.896245331492716679e-02,-4.862819965695913682e-02,2.962981875448271983e-03,8.466072646830326981e-03,2.527996391066584408e-04,5.537617802619934082e-01
5.218157812888990499e-01,-2.845903757537393552e-02,-1.963303376176284143e-02,-4.403760771522888598e-03,2.164864651487741209e-03,9.105365817958700368e-04,5.459837913513183594e-01
5.173551193851981811e-01,-2.189892814933516729e-02,-8.561373851786763245e-03,-3.194476759156977645e-03,-2.050976419868256410e-03,6.539113723183653630e-03,5.328714847564697266e-01
5.065185067759320203e-01,-2.906769197494166179e-02,-5.610202577875619823e-02,9.455931829114367271e-05,3.568344719032430588e-03,9.340151229116917374e-04,5.496394038200378418e-01
5.279060505024804062e-01,-4.100226086215780219e-02,-2.319695422032974630e-02,4.688649448462225283e-03,1.218360133492192750e-02,-1.499005631659647416e-03,5.606800317764282227e-01
5.261745406046673956e-01,3.774142473133068609e-03,-3.494780131880129148e-02,1.403095965975459380e-03,-1.609208955453978081e-03,-4.890120881354011011e-03,5.428768992424011230e-01
5.203319022987120679e-01,-1.005348958089632982e-02,-2.351577568935780960e-02,3.982437225387594026e-04,-2.422245192134059050e-03,-4.268090192105735391e-03,5.373107194900512695e-01
5.179292444179870447e-01,-1.906333087582828822e-02,-1.768564730063529322e-02,-4.921097701531584705e-03,-2.966736723326867785e-03,1.199534489885820858e-03,5.364014506340026855e-01
5.198630789944784780e-01,-4.146168238194522515e-02,-3.498988881862430400e-02,1.355587365351139427e-03,1.423531271843400453e-03,1.625907825317262885e-03,5.581344962120056152e-01
5.183895461806542482e-01,-3.378763563195452679e-02,-4.540973292998956579e-02,2.546422129442038260e-03,2.229242179252360987e-03,9.844106748001712689e-04,5.581123828887939453e-01
2.593001529956009965e-01,1.428510484570688632e-02,1.227115579493419373e-02,6.404475437431767643e-03,-1.646713321982492401e-02,1.346543869136647377e-03,2.479352056980133057e-01
2.731600744242465573e-01,1.581133354674368885e-02,1.198577877461437513e-02,-2.543975721058017517e-03,-1.987191391912011135e-02,2.758941929615444516e-03,2.616379857063293457e-01
5.252881565083762361e-01,-5.121899956480879812e-04,-4.033136335999656930e-02,5.429644916219254075e-03,1.410116077058904283e-03,-6.048210853596600566e-03,5.469850897789001465e-01
3.208976740272022621e-01,-3.834594159251511480e-03,-1.387756304337112168e-02,1.337290683622642876e-02,-3.549606317481068807e-02,1.175133581582858168e-02,3.369627296924591064e-01
5.187212291961962318e-01,-3.398174973560594281e-02,-4.810423584387601981e-02,2.845955915663598602e-03,2.004241627910006464e-03,2.803533741429191026e-03,5.599513053894042969e-01
5.179983722468337604e-01,-2.734167081348409800e-02,-2.388221500770060235e-02,1.409148962615889601e-03,6.943231070313200587e-04,-3.418326730727932767e-03,5.436576008796691895e-01
5.117054693174152291e-01,-5.413384904110293827e-02,-2.880751986176929846e-02,-3.451848557904631706e-07,3.385704898024550786e-03,-8.767029628764677228e-04,5.536439418792724609e-01
2.964693057260386344e-01,1.271075334904167575e-02,-8.915332331529343679e-03,9.979511525607207001e-03,-3.885225432511572180e-02,1.480888880792942570e-03,3.032441735267639160e-01
5.171203359847912351e-01,-2.650959426303417521e-02,-3.487666921013007904e-02,2.854036360510832458e-03,1.954020272503330553e-03,-1.000862810379105333e-03,5.478968620300292969e-01
5.056095014945294341e-01,-5.439277599069697322e-02,-2.660179520842115286e-02,1.671140688871140898e-03,-1.004190773433608303e-04,-2.458070216543761137e-04,5.466447472572326660e-01
5.147900309089656901e-01,-2.703476654077863195e-02,-3.318257136418262254e-02,-2.512051791937567127e-03,3.551903697353009349e-04,-5.126418321048361931e-04,5.449431538581848145e-01
5.223443188323717568e-01,-3.432821189046209032e-02,-3.226006540253290034e-02,4.911654799296554831e-03,7.568177973028548076e-03,4.914256557778617874e-04,5.558617115020751953e-01
2.831479982893266856e-01,-3.306654146179616172e-03,1.332520845679413535e-02,2.030880313552889740e-02,-9.718402197295515979e-03,4.989687006749581825e-04,2.812295258045196533e-01
3.916204419712587814e-01,-2.648041213500851310e-02,-1.360234444406335785e-02,7.365412773942134339e-02,4.567820258654511911e-02,-1.050489084963038278e-03,4.383234381675720215e-01
3.900485024089077601e-01,-1.424214217235741931e-02,-2.077374518596791786e-02,8.907882049036657326e-03,2.811692926969393616e-02,-4.545710654729573190e-03,4.108600616455078125e-01
8.236879348892846009e-01,-1.093563688363559105e-01,1.619049249239390420e-02,2.795783911517381662e-02,-3.530471006040392795e-02,1.850546684993006549e-02,8.810814023017883301e-01
5.254988679037846389e-01,-3.801008295214228228e-02,-4.220747278401787428e-02,-2.186750884102818190e-03,-3.639060308360753061e-05,-1.442949896110773270e-03,5.656375288963317871e-01
3.325544249224350879e-01,-1.049227730897535349e-02,-4.447130117611886035e-03,2.620526264764111435e-02,1.101742125390312854e-01,4.291746075168640338e-03,3.926503360271453857e-01
5.370440774679005047e-01,1.768860221150500567e-02,-1.694668376154923051e-02,-8.014606437855511037e-03,-5.761301437714625752e-03,3.787499272685300455e-02,5.417689085006713867e-01
6.703712405700368304e-01,-4.920083250618922932e-02,2.161453893542755744e-02,-3.982782451321364992e-02,-1.339767212025707865e-01,3.683580122707596355e-02,7.311092019081115723e-01
3.628266603948455682e-01,-7.909027048052505449e-03,-1.999497214791060018e-02,1.340349786185600573e-03,3.019829727843773709e-02,-2.985162272724053490e-04,3.805432617664337158e-01
3.687966826109926877e-01,1.672891850921093271e-03,-4.044775310514170386e-03,-7.500067264870440269e-04,3.736177574355812464e-02,1.414088036423471854e-03,3.756421804428100586e-01
5.272674882516443784e-01,-3.682942576979233995e-02,-2.171251564330078931e-02,4.036897043194238345e-03,1.184792514662283067e-02,9.284874519330717788e-04,5.571167469024658203e-01
2.793037892980416714e-01,1.250547369291322986e-02,-3.164089233671868451e-03,3.993517994720910055e-04,4.061097849191963594e-02,5.074689732975091712e-04,2.838247716426849365e-01
7.462387747113620184e-01,-2.814394413352977464e-02,-2.664889264958208992e-02,-8.671864152107537638e-02,-8.103608588336337626e-02,5.756412188217192860e-02,8.066689968109130859e-01
4.076621327610100431e-01,-3.046548091101639044e-02,-1.933381594436719975e-02,-1.379033515228612894e-02,-2.991055549147666852e-03,-1.205507317456442316e-02,4.338616728782653809e-01
8.532318170800793355e-01,-4.152318785044029070e-02,-3.115687183970161644e-02,3.821335785128109758e-02,5.614245917993078427e-02,4.744405559672579958e-02,9.011150002479553223e-01
5.157765435138311760e-01,-4.656756363730918391e-03,-2.040148091021512511e-02,-8.815236822770402755e-03,-7.470616606094424017e-03,1.426678486660667988e-02,5.294374227523803711e-01
5.140133802051186640e-01,-1.975181258956057451e-02,-5.596421577099913724e-03,3.560380856434494645e-03,-2.385246177116647891e-03,3.255137409326691860e-03,5.269125699996948242e-01
2.433790424155604648e-01,2.706856156580225020e-02,-2.134481058437007195e-02,-1.183255712004716020e-01,-6.134899343000483132e-03,-7.437754543256999695e-03,3.191991448402404785e-01
3.258442373803391856e-01,3.442260362699853249e-02,-4.838708779609035560e-02,-1.210330442788710714e-01,-4.507262889742017636e-03,2.674544531328089760e-04,3.999058604240417480e-01
4.319744512803175285e-01,-2.436813617922539699e-02,-4.118895614470027833e-02,1.717448724987649233e-03,7.108005850773246870e-02,-1.161084117871054658e-02,4.814332425594329834e-01
5.309424636527861896e-01,-4.120009357269263650e-02,1.087608841343506993e-02,-9.400764348962142858e-04,5.401493800840104567e-03,5.145407101313665202e-03,5.481182932853698730e-01
3.566290079750456532e-01,-1.848604868993067307e-02,-2.500022571160762097e-02,-7.127835467009650816e-02,-4.970227447048872899e-02,-1.711975186906190827e-02,4.083250164985656738e-01
5.288520739747404331e-01,-4.379857237928252989e-02,2.162288719836322204e-02,4.930135520780629978e-03,-5.595001116044504355e-03,-4.530684703120713662e-03,5.431146025657653809e-01
3.403968960878451799e-01,-2.163480470334552819e-02,-1.187344125151909568e-03,-6.507083183755756062e-02,-5.121967646031506775e-03,1.813908421626465439e-03,3.699643611907958984e-01
2.162206201977755760e-01,-8.692130771452075133e-03,-9.107309441138383699e-03,-4.850910651171541632e-02,-9.270453197333054784e-02,-9.844525066481206194e-04,2.890051901340484619e-01
1.774455284723916448e-01,-6.395105829955372023e-02,-4.758427420733044033e-02,-1.156721778076657756e-02,2.916183985454479446e-02,-1.145184747168156818e-02,2.406976819038391113e-01
5.282703596026792070e-01,-2.834883986462818917e-02,7.955764930501207921e-04,3.023848552272262197e-03,3.685680921507962157e-03,-6.287339414013993523e-03,5.428063869476318359e-01
2.430862319465137422e-01,3.960601435661834091e-03,5.758559033084642564e-03,4.811208833575508943e-03,-4.107018903859820796e-02,-2.682796286535420486e-04,2.487655580043792725e-01
3.724372409770030923e-01,-1.268990804404876438e-02,-5.201030665671138586e-03,-2.588263058460538515e-02,-1.382362183528462567e-02,-1.279111013320459629e-02,3.854460716247558594e-01
5.704274235072688271e-01,-6.381465060557603430e-02,-2.320667776387688730e-02,2.128649526267888462e-02,-5.236227741767271460e-02,-1.402231123043846776e-02,6.231623888015747070e-01
5.388073648234077417e-01,-6.116016551730377171e-02,2.624724997916308422e-02,1.538286665067759018e-02,-6.297736773603092308e-02,-2.612692966987040233e-02,5.742958188056945801e-01
1.607360665708311154e-01,2.445707723339218820e-02,2.268192447229226694e-02,-1.970756561892063330e-02,4.496513728601289270e-03,6.272032924631731725e-03,1.419889628887176514e-01
3.485949008042326658e-01,-1.332260280021020649e-02,-8.507710319473643645e-03,-2.336252021949760532e-02,-2.515829715324914215e-02,-8.949637084145136909e-03,3.647484183311462402e-01
2.653593571434524345e-01,1.262748094039371771e-02,4.388815574987145474e-03,-1.481653257759246896e-02,-3.159508433584035797e-02,-3.660501559626372185e-03,2.640397548675537109e-01
2.438825016275813773e-01,-1.430971792744123450e-03,1.331625845816741815e-02,-4.466401382063923953e-02,-8.387422210926870000e-03,2.404606186535876260e-03,2.509810924530029297e-01
2.811265465961279020e-01,3.147299744459597370e-03,2.926446133977425590e-03,4.348104248057935162e-02,-1.210883029031489073e-03,1.887868876615563787e-03,2.881332933902740479e-01
5.255199811664932330e-01,-5.489347863428248320e-02,-1.267708306680576102e-03,-2.313382077857349586e-03,-3.890407904369757447e-02,4.345726960016885708e-03,5.596817731857299805e-01
5.228683062301333617e-01,-1.879592311331101939e-02,-4.043176144982552067e-02,-1.378456463617065697e-02,-5.404644885060542331e-03,-1.964250942383281232e-04,5.533944368362426758e-01
2.841927315499969131e-01,1.267960215725910667e-02,1.497715644932638701e-02,-3.264100817760757795e-04,-1.897714229449585848e-03,1.088935731666179759e-03,2.703988254070281982e-01
5.056340093188615992e-01,-3.146833434672247076e-02,-2.886722602166452711e-02,8.176652869223262343e-03,-3.536327236044492506e-02,-2.562463909278058297e-03,5.395002961158752441e-01
3.046492712564706773e-01,-4.771872388893885764e-03,1.253264733411402210e-02,-3.625153862329687227e-02,-1.484996115169006856e-03,3.309935925874534553e-03,3.076824843883514404e-01
5.155853480150749402e-01,-9.925018862505297079e-03,-2.922868247915366702e-02,-1.122407782915346014e-03,3.614837111491305422e-03,-2.773640754838336327e-03,5.354849100112915039e-01
5.148788381249853607e-01,-1.553577527624261378e-02,-1.710959026914882219e-02,1.137781669978070833e-04,-1.621169712915574877e-03,-1.603450140324585473e-03,5.312179923057556152e-01
3.741953193609995898e-01,-3.130397793379130489e-02,-4.350844973590173304e-04,-3.428586633626162089e-02,-1.613887271273431933e-03,-8.390486556019071882e-03,3.957408666610717773e-01
5.136195330905999334e-01,-3.691828139439295997e-02,-4.675153489092562231e-02,5.831032306788314686e-04,-7.987141589872895440e-04,1.200719095655156370e-03,5.555262565612792969e-01
5.044059946645327308e-01,-3.877534742611027374e-02,-4.303710881587766157e-02,-3.443542136182142343e-03,6.948019041776020734e-03,4.454585675530491409e-03,5.455446839332580566e-01
5.091696202137780958e-01,-1.466747633984855081e-02,-1.054927769077318445e-02,-6.938702464156549935e-04,-3.289528769597358177e-04,1.900024471672220753e-03,5.218022465705871582e-01
3.125323747862249757e-01,-5.994193957472332412e-03,1.304017182213429438e-03,-3.824511786823946158e-02,2.044609132012606759e-02,8.650219388374241411e-03,3.241210281848907471e-01
3.023236675192755296e-01,-3.068021923000041618e-05,1.519412915225552829e-02,-3.623229889996500835e-02,-8.731879338951267994e-04,-1.815863595785707470e-03,3.016573786735534668e-01
5.082178251060307517e-01,-4.373204548677578352e-02,-3.652657908662440556e-02,-1.616497049039986858e-03,7.558044408246426989e-03,9.103692288861002860e-03,5.487725734710693359e-01
5.226812187979059665e-01,-2.429535265827098556e-02,-3.652033225766307400e-02,1.212876114362950765e-02,-3.072949238159477874e-04,-4.830174385761287076e-03,5.536525845527648926e-01
5.210125797953597537e-01,-1.372178602148557691e-02,-4.175331915178737141e-02,-3.135033192614181726e-03,8.774575748930774771e-03,-1.096557633372617548e-03,5.495271682739257812e-01
5.171897849093665123e-01,-2.783206357846737533e-02,-3.236180085282852614e-02,5.096406969500637263e-03,4.148716926025992208e-03,-6.792983310836420022e-04,5.474203824996948242e-01
5.230901397011757936e-01,-2.073849235511426858e-02,-5.396992257724406161e-02,-1.455499639700841849e-03,2.613018390977267513e-02,-1.125361559506137324e-02,5.633478164672851562e-01
5.140099625929559490e-01,-1.821603217935760521e-02,-4.380783724647308031e-02,1.938052834507775213e-02,-2.249796255632021281e-03,-9.016398208130689887e-03,5.467412471771240234e-01
5.470644450146974203e-01,1.166152943365139638e-03,-3.655173387327201318e-02,4.968751138274317414e-02,-5.088819154261788741e-02,-4.920723675351523774e-02,5.851984024047851562e-01
5.241230017462177315e-01,-1.592266518875121162e-02,-2.369486933587891531e-02,4.911668651253019505e-03,-1.556053608404348769e-03,-8.166402653946058451e-03,5.442304611206054688e-01
5.153033898354237863e-01,-3.630499447491755682e-02,-3.613500672608346842e-02,6.965735828506979845e-03,2.118080143740768469e-03,2.245972225416852444e-03,5.516812801361083984e-01
5.083358012829665151e-01,-3.440090146574190100e-02,-3.672971185852141884e-02,-2.228435636501189393e-03,4.196455468312396651e-03,-7.878719110670515460e-04,5.439687967300415039e-01
5.110679446492361055e-01,-4.208429184954723401e-02,-3.380545521759603655e-02,2.829467372158730315e-02,5.915276887012069391e-03,2.000821324865677611e-03,5.513485670089721680e-01
4.966739226043959121e-01,-4.570375664873557731e-02,-3.101048458380492590e-02,9.923680520953130288e-03,2.628753942781230420e-03,5.848024843445006823e-03,5.355734229087829590e-01
6.094572518480789736e-01,-3.822557482508781579e-02,-9.412330295589715901e-03,-4.187104972915902876e-03,-6.993629904163791051e-03,3.258340192639613830e-02,6.364320516586303711e-01
5.133750132388600340e-01,-2.874805303529234801e-02,-2.315965209197159980e-02,-1.749106749256816801e-03,-2.878605774221556883e-04,2.885879722801445047e-03,5.393824577331542969e-01
5.198904197611882161e-01,-4.757214799768275104e-02,-3.544239288809633570e-02,1.214901659906046649e-02,4.269265836573620226e-04,3.804747236224797786e-03,5.619292259216308594e-01
5.329752881708971213e-01,-4.652065427732429703e-02,1.712353008939965227e-02,1.793144441567093208e-03,7.546639477187386778e-03,1.909981818742506133e-03,5.506142377853393555e-01
5.470489411682585290e-01,-5.801931673155061309e-02,3.379089525467812716e-02,4.998426106919365113e-03,-2.078132081961277071e-03,1.432055968941573030e-03,5.648710727691650391e-01
5.224700538540294481e-01,-3.142888069632993053e-02,-2.333332541174903962e-03,-3.697763040921568396e-03,2.744330797536211671e-03,4.139918677825299605e-03,5.400459170341491699e-01
5.136706931123711239e-01,-3.018151004565539086e-02,-3.316472074731410813e-02,1.850193551526529501e-03,-1.902019660824484995e-03,3.932688889960192177e-04,5.453697443008422852e-01
5.131919019359276746e-01,-1.925920131378730527e-02,-4.812684369776332183e-03,-3.679227107111749892e-04,-1.105053366332494334e-04,3.109846870248089614e-03,5.254048705101013184e-01
5.108370644990566367e-01,-9.093027322240015975e-03,-1.419446089585010840e-02,-8.287586111005257284e-04,-1.934157971606089137e-03,3.050474556022400932e-03,5.225389003753662109e-01
5.225424256667590139e-01,-2.143910378388713678e-02,-9.035454301479700634e-03,-6.745503474958092520e-04,-4.915682347702611272e-04,1.454320821470956974e-02,5.384784340858459473e-01
5.144274083761660732e-01,-2.888171598203501111e-02,-3.487593343316017225e-02,2.379084792613713438e-03,-7.940149107262287021e-04,1.443933079977131797e-03,5.463538765907287598e-01
5.253248142470249293e-01,-3.318965309376192829e-02,-2.068764225881930541e-02,4.838189140771984899e-03,5.644516897792875229e-03,-1.886060043655300245e-03,5.525293350219726562e-01
5.158190098821398006e-01,-3.932261939310338628e-02,-1.750293276238926166e-02,-1.270506014127512550e-03,3.751933253922648537e-02,-3.366633276752528832e-03,5.484589934349060059e-01
5.074959351529815255e-01,-3.816044865628442917e-02,-3.829484334443300497e-04,-3.112218576927640572e-03,-4.015282874803424024e-02,2.983098143028423740e-03,5.323973894119262695e-01
5.109288872632781198e-01,-1.078712710273380115e-02,-1.335532791312912804e-02,-5.359774077910816996e-04,-1.357429933776857544e-03,1.601906825265735036e-03,5.230183005332946777e-01
5.172034841500614544e-01,-2.369758414287176373e-02,-1.692704264304717432e-02,-4.084752736826423314e-03,-2.648493937591935108e-03,1.503084697603611613e-03,5.376201868057250977e-01
5.279397934530364322e-01,-4.401674215252199263e-02,-1.750473638846239410e-02,7.410973216847119641e-03,-1.153613601019896559e-02,-3.908476123100609921e-04,5.596766471862792969e-01
6.419093414768177741e-01,-5.507822411473389801e-02,8.331017622017655722e-03,-3.652957955824715636e-02,-3.336028251361904812e-02,5.470481691604623525e-02,6.796593070030212402e-01
7.673137434342863772e-01,-7.329805391627641775e-02,-2.899666652155463709e-02,7.898676557032412171e-02,-7.776582105499468822e-02,-6.548583493814900958e-02,8.491613864898681641e-01
5.200815227022910214e-01,4.011697157579818818e-03,-3.542418128664279187e-02,1.191262980726215523e-03,2.082602765463276336e-03,-4.877243907758434249e-03,5.369576811790466309e-01
5.333163132530098771e-01,-3.319755920075109779e-02,1.116121312636025875e-02,1.729367912727672839e-03,2.409772882617141829e-03,8.528345176129872515e-03,5.459124445915222168e-01
5.300080054160740683e-01,-4.571589586861338206e-02,3.181860237483755127e-02,5.337478724923344110e-03,-4.258920313032719777e-03,2.252661738387178383e-02,5.426724553108215332e-01
5.229013203199734949e-01,-4.246241686505128343e-02,1.646745663766469026e-02,1.868694360126445762e-03,-8.955025476786514921e-03,4.429972360460109580e-03,5.386111736297607422e-01
5.336946189956108810e-01,-4.169557119321801175e-02,1.518881923271750423e-02,3.519178409277974335e-03,2.018137635696459157e-03,3.796914050765535630e-03,5.492463707923889160e-01
5.334777929463252466e-01,-5.613976274484303031e-02,2.177811170137375352e-02,3.133579228483831299e-03,9.414394448480915140e-03,-5.332116707300881301e-04,5.550445914268493652e-01
5.093101268945700033e-01,-5.363580667505116195e-02,-2.923899233089144456e-02,2.215222717141914410e-04,2.025543329427657770e-03,-1.311223653955880799e-03,5.511686205863952637e-01
5.152542984193798636e-01,-3.938863166315906272e-02,-3.905971363085053438e-02,-5.572528445426675131e-04,4.954508179833179426e-04,-2.018445169021775530e-03,5.544910430908203125e-01
5.337922468625532213e-01,-5.105554691517413812e-02,1.009516929148762676e-02,-1.609392024592062181e-02,-2.471787523060596514e-02,3.612888900871609812e-03,5.591704845428466797e-01
5.370871824725844679e-01,-4.838265880485140280e-02,7.022169186563814725e-03,4.312678284518958217e-03,4.319979525826210531e-03,3.796302954558805794e-03,5.599659085273742676e-01
5.205147439123920527e-01,-1.142144290354149549e-02,-2.559119856873376397e-02,9.345312926641972939e-04,1.428880190326192300e-03,-3.395430852174194554e-03,5.392009019851684570e-01
5.194803219734891453e-01,-1.075669304633350420e-02,-2.350440451739213565e-02,-5.033423281117262041e-04,7.694489686032134198e-04,-1.247948510288568588e-03,5.367311239242553711e-01
5.155260946440407555e-01,-3.804345918416549011e-02,-3.883804635375889824e-02,2.346513123086358971e-03,1.966280974792533522e-03,1.781529203611122115e-03,5.540012717247009277e-01
5.161506936631328202e-01,-1.922566923357688085e-02,-2.180567053279447443e-02,1.508693037445894228e-03,-1.087740566435602433e-03,-2.532853767086020954e-04,5.366808772087097168e-01
6.137884938076827446e-01,-3.237472740070612698e-02,-2.406653547065965015e-02,9.862129034125397681e-03,-3.230045065085205419e-03,-3.254568855907630925e-02,6.447699069976806641e-01
5.246346531319044937e-01,6.806360017057616618e-03,-1.737758429155861206e-02,2.384000975578246060e-04,1.364550240054046050e-03,-2.990467513033458896e-02,5.328627824783325195e-01
5.209809908077587259e-01,5.607571433747848832e-03,-3.477744081712744184e-02,5.393584035465372704e-03,5.202989860318128247e-03,-5.158297074808151049e-03,5.369379520416259766e-01
5.282308002023431426e-01,-3.399044274125642695e-02,6.790035186314075100e-03,6.430979389446552993e-03,-2.596181565439793109e-04,-5.440047582006815076e-03,5.431769490242004395e-01
5.155025723674226956e-01,-2.178381749437613424e-02,-1.481356574435033213e-02,-8.814943172615814001e-04,-1.035276292991127927e-04,-1.154001578898400122e-03,5.338413715362548828e-01
5.173400456471588527e-01,-1.968615133336951151e-02,-2.572298094104757959e-02,2.884966908755347975e-03,1.033821678139836909e-03,-1.501923610603741023e-03,5.401022434234619141e-01
5.222900331143448538e-01,-2.508231511082376075e-02,-2.204987683977516211e-02,5.779288898384913817e-03,2.493521550121143363e-03,-2.244121161786390671e-03,5.459851622581481934e-01
5.149788941887631921e-01,-1.272118927896667695e-02,-2.081850153325059960e-02,-1.795216178537831523e-03,2.267991216235366869e-03,-3.587045833283137447e-03,5.318548679351806641e-01
5.156311491506471167e-01,-1.034305016951170275e-02,-2.637509792514913798e-02,4.700338120646316807e-03,4.197098716784589817e-03,3.395422570323463306e-03,5.343145728111267090e-01
5.204810270069816225e-01,4.280073657369015683e-03,-2.745400641998452240e-02,3.093712835349402262e-03,4.005776701836506401e-03,3.783862763130273199e-03,5.328897237777709961e-01
5.165259780141832069e-01,-2.081133712406357805e-02,-2.022975883618330362e-02,-2.717277391289713885e-04,-1.886071423722625307e-04,-6.827861083691260692e-04,5.370483994483947754e-01
6.018535024830340419e-01,-8.848295016427421000e-03,-3.661629528853499460e-02,-1.373583913964846193e-01,-1.257596035523786404e-01,6.381716117103765351e-02,7.120056152343750000e-01
5.392828054820475447e-01,1.972885617439137929e-02,-3.182148337687354389e-02,-3.576769967818139474e-03,-1.757834377549618307e-03,2.820489352625961746e-02,5.493733882904052734e-01
5.180410077697653604e-01,2.623503368661822543e-03,-4.682582810370458648e-02,7.739369377479154988e-03,-7.332545026500161432e-04,7.930832087334983502e-03,5.421784520149230957e-01
5.258765453260596523e-01,-1.432501781187792145e-02,-4.576624212409072245e-02,-1.050388568168987222e-02,1.820946926804924842e-03,-2.408398747018012948e-03,5.569103956222534180e-01
5.308841494639839897e-01,-2.730079980422117636e-02,2.143439244225217588e-02,2.333299310206307740e-03,1.431849350644521244e-03,2.829571118442790120e-02,5.377422571182250977e-01
5.101284183184142673e-01,-1.961723677380100561e-02,-4.701800786599569237e-03,-2.299225880548804238e-03,-9.551859110912958289e-04,2.998138499992237735e-03,5.224912762641906738e-01
5.120548122241986855e-01,-1.256815692229509840e-02,-1.370783239081796445e-02,-1.567944622979247551e-03,-1.811687008786408426e-03,8.798504582067319434e-04,5.252123475074768066e-01
5.328376771802997292e-01,-3.349822689978679269e-02,-2.908206043051220213e-02,-2.492446843442320398e-02,-3.891049330217382501e-02,2.094058048244434520e-02,5.709431767463684082e-01
5.181288305822854268e-01,-2.060304408072316518e-02,-2.040980617971208111e-02,-7.800286144630482529e-04,-3.564426221957347780e-03,5.513935911283356257e-03,5.387570261955261230e-01
5.306979057002780831e-01,2.075234441595436019e-02,-4.090337744504149442e-02,4.422463210201403767e-03,4.599440387739775829e-03,4.452005414333729851e-03,5.435702204704284668e-01
5.315791142453384355e-01,-5.476822300775971430e-02,4.129289077597783630e-02,1.577645281973795357e-03,-1.922000124479105072e-03,1.784909218528657514e-03,5.447328686714172363e-01
5.573207371262154375e-01,-2.750997416456874012e-03,-6.069213188966235406e-02,-1.653812544789623820e-02,1.134040183910395598e-03,1.310721097231734231e-02,5.923077464103698730e-01
5.210735721995407577e-01,-8.570026104676525813e-03,-1.206185763856126858e-02,3.222448357758685242e-03,1.733197635465773875e-03,2.769311371302945329e-02,5.335961580276489258e-01
5.126566495372073540e-01,-2.720243325595064765e-02,7.941989743399963109e-03,-1.983515974389464011e-03,-2.129324560287886546e-03,7.099722834973999815e-03,5.233417153358459473e-01
5.138160508003056792e-01,-3.009158297815298089e-02,-2.119770698891890182e-02,-5.037297361155088950e-04,-1.058056403077851405e-03,1.880786192282200321e-03,5.395293235778808594e-01
5.307643668890322797e-01,1.112942049429332947e-02,-3.331205934484215980e-02,5.924450898865858857e-03,4.221322452252112938e-03,9.998081735979286871e-03,5.436428189277648926e-01
5.212033958897632768e-01,9.254407300464340125e-03,-3.246208342471890163e-02,-1.348568670953369491e-04,-2.154853799818468919e-04,6.125111597814316203e-03,5.341362357139587402e-01
5.879441365723927504e-01,1.083994972056465111e-02,-4.540684455694526944e-02,-9.555318505868503481e-03,-5.881281256533503997e-03,3.306128593306870145e-02,6.101885437965393066e-01
7.918372474145548567e-01,3.070115152049043838e-02,-1.102017587368967488e-01,-1.148373045406735071e-01,1.078412985593655074e-02,1.281581786453808887e-02,8.641947507858276367e-01
5.217017624830537770e-01,-1.257721728233007763e-02,-4.340094953254530763e-02,-1.557218875597233404e-02,2.302388635760833566e-03,-1.493505888306424084e-03,5.510196685791015625e-01
5.159152541455993557e-01,-3.176065414224080174e-02,-3.303051093205727762e-02,-3.298792458725249149e-02,-1.419056833632629426e-03,1.042708241945115681e-03,5.512893199920654297e-01
5.228610114266216691e-01,-4.207491870684612612e-02,1.647347694686687736e-02,2.278835582649157813e-04,-8.207244350392691248e-03,4.343946003870393160e-03,5.382966399192810059e-01
5.232094637598272424e-01,-2.578744286597489666e-02,-4.291491437344516213e-02,3.393729731286157232e-04,8.110179476516560931e-03,-6.875340728118190274e-04,5.579363703727722168e-01
5.192548154310026032e-01,-2.807964572335175379e-02,-3.776838315765590481e-02,2.871747453897282622e-03,4.315680316648932459e-03,-1.345828021306240277e-03,5.523204803466796875e-01
5.669537160951392263e-01,1.682386745803460260e-02,-7.525017160532382343e-02,-8.008586688651359725e-03,1.602632033930915037e-02,-2.822210242753320393e-03,6.022955775260925293e-01
5.259031829007811965e-01,1.774602328574903520e-03,-5.596778213832490079e-02,-3.224017504411448576e-02,2.733512867798256439e-03,-2.751304475701729299e-03,5.580974817276000977e-01
5.273573683795618194e-01,-5.134813259131476570e-02,4.150225013226849224e-02,1.241341659760616554e-03,-4.318394575225123315e-04,6.305459904439380614e-04,5.383257269859313965e-01
5.037675564494967784e-01,-4.751975752789477925e-02,-3.729327415232264187e-02,-3.210502799983928988e-03,2.778897807293038633e-03,4.901802117198898398e-03,5.463613271713256836e-01
7.717190462637742998e-01,-5.498198205262355698e-02,-1.069739250255508090e-02,-9.908358658505946742e-03,-6.513688186632154986e-02,5.426087680979872069e-02,8.189269304275512695e-01
6.028070555880975512e-01,-7.067391576697371058e-02,-1.410134421686834449e-02,6.542573097475198884e-02,-1.470189210148355012e-02,-6.561065846318717143e-02,6.671437621116638184e-01
5.168038633246404556e-01,-4.260183533293224190e-02,-4.311929169314582255e-02,-9.044608842052991992e-04,1.736151800000160965e-03,1.294166623146340107e-03,5.596793889999389648e-01
5.122053341215717648e-01,-4.304033179588920288e-02,-3.918400646459299641e-02,-1.394867484151868925e-03,1.465220002277291787e-03,6.005405463269809785e-03,5.534364581108093262e-01
5.121884432236500917e-01,-4.357873231225317667e-02,-3.979708773167808800e-02,2.159445156197954544e-04,9.241607268084984107e-04,4.957017932653703593e-04,5.538891553878784180e-01
5.139725827754201282e-01,-8.803620463466999002e-04,-1.708548081228564164e-02,-2.749620187411037572e-03,-2.376958519247562244e-03,1.032793861849169194e-02,5.234873890876770020e-01
5.331929218570201634e-01,-1.708838391266812029e-02,2.871735364044475380e-03,9.697207822950854332e-05,-1.859597418569448359e-03,1.736811013340171239e-02,5.414236783981323242e-01
5.319029887780524213e-01,-6.069475549035208140e-02,8.266410499033483017e-03,5.138194631985572823e-03,1.297288718017408811e-02,-1.094006754417067677e-02,5.621429085731506348e-01
5.185122521880974888e-01,1.796061991483807740e-02,-3.022348064514118748e-02,-1.919222252569054371e-03,-2.180786381719078317e-03,1.394029803014567442e-02,5.268781781196594238e-01
5.159433140785072425e-01,-2.871126188109754396e-02,-3.223449092486110890e-02,-3.238204648171804051e-04,-2.343724723575653108e-03,-1.225425953444983431e-04,5.464401245117187500e-01
7.793318918613543200e-01,-1.347520546420277743e-02,-3.131357279070134947e-02,3.434982690575952985e-02,-5.719509485076732652e-02,4.846451542676240287e-02,8.144959807395935059e-01
5.153281215383336278e-01,-1.746657321411262953e-02,-1.636516730973719413e-02,1.361465256882140630e-03,8.889113097461791594e-04,-1.477346576829689307e-03,5.322584509849548340e-01
5.824123800361055148e-01,-5.143915460215753299e-02,1.183652926406625339e-03,1.021012984796553988e-02,-8.338019260468905458e-03,-1.207758563486791524e-02,6.100334525108337402e-01
5.165386405028369321e-01,-4.033637676951146167e-02,-2.339513568144438449e-02,3.196882322777854207e-03,-1.711750973882195050e-04,-1.815364775857092523e-04,5.486287474632263184e-01
5.336548855739426944e-01,3.473967922610685100e-02,-3.897175451897669229e-02,-4.611386785378134359e-03,2.845671193213288389e-03,2.976926472598552531e-02,5.420998334884643555e-01
5.238639639945104065e-01,-3.481064831707139651e-02,1.692573051859186384e-03,1.364578944809017235e-03,-3.846306777711818847e-03,-4.282825664081790079e-03,5.414437651634216309e-01
5.207262553835563246e-01,-3.078014863870617845e-02,7.769484975691132167e-03,-2.132558117193962977e-03,5.113172131808483645e-04,2.062250148414710230e-02,5.344859957695007324e-01
4.127215214914480845e-01,-1.202490660335095440e-02,-3.212991466727865841e-02,-1.222871591121921101e-03,1.391038782812199217e-03,3.058888658978987322e-03,4.351914823055267334e-01
5.275125216835092612e-01,-2.697500868532082263e-02,-3.869348644574577278e-02,3.146511651062561341e-03,2.043193440649843876e-03,-1.365896991951534491e-03,5.604813098907470703e-01
6.118218366527212737e-01,8.091322521685540003e-03,-4.737920259593264571e-02,-2.428035034618967244e-03,-9.447954729596547835e-03,4.216966644562376160e-02,6.377123594284057617e-01
5.181561314603603252e-01,-2.288025710830274284e-02,-9.033374980485231465e-03,4.440936038322199943e-03,4.083172152052349808e-04,-2.949520718175712656e-03,5.343278050422668457e-01
5.151410005393726177e-01,-1.338106641254988016e-02,-1.582444775842078988e-02,4.736104222841418048e-04,-2.999595197024674544e-04,-3.253457666459086666e-03,5.297788381576538086e-01
6.112490177624760879e-01,-7.891691995184946240e-02,3.932499915348822150e-02,2.096661304666786949e-02,-2.481565125145302267e-02,-3.304997533811766548e-03,6.417964100837707520e-01
5.216648797630420997e-01,-1.156773676321398714e-02,-2.369900371786148874e-02,1.924837207553124199e-03,8.761779688460321659e-04,-4.252827183676659642e-03,5.394632816314697266e-01
5.188416642045783345e-01,-1.628095772898208171e-02,-2.365591419628262915e-02,-4.115798202595265590e-03,4.992173753090171744e-03,-2.347832923150223149e-03,5.389798283576965332e-01
5.558564310211766557e-01,-5.787853301813478124e-02,2.102696070944679030e-02,1.057385958289483105e-02,4.554471058766600133e-03,-3.512348924567663955e-03,5.787091255187988281e-01
4.710235997115433948e-01,-1.084297462197617024e-02,-4.104404628179578185e-02,-3.804551956410653218e-02,-1.334204666034923166e-02,1.077169496705412434e-02,5.028766393661499023e-01
5.338031877139866044e-01,-5.620868211208127074e-02,2.928426237678380395e-02,2.672207490900369194e-03,2.002763565503354716e-04,-7.400023513933692842e-04,5.522720217704772949e-01
5.276727910111772557e-01,-4.385116060870034027e-02,2.264520089893343191e-02,-6.161482560983104831e-04,1.075051452168661499e-02,1.708567755266113784e-03,5.416768193244934082e-01
5.093039693382256372e-01,-7.484626928000004398e-03,-1.181241603985755395e-02,-3.075112640443946428e-04,-7.933993720712267993e-05,5.555882339362061724e-03,5.190555453300476074e-01
8.178608939023475077e-01,-4.752725339310093222e-03,-1.200357396263579957e-01,5.665467431860081969e-03,4.215739642925881575e-02,-2.875883177308374491e-02,8.903515934944152832e-01
5.945231268564099558e-01,-5.690187513521205442e-02,-2.728994404293583198e-03,2.587177374335877106e-02,-7.636739903843847016e-03,-1.192020842529831377e-02,6.281790733337402344e-01
5.129320208584740026e-01,-3.824220484729753955e-02,-3.922290743196124585e-02,-1.918583494831960961e-03,-4.684999380881683310e-04,4.038121545732285952e-04,5.516762733459472656e-01
5.631052770776641125e-01,-7.965722949739806324e-02,2.923167017366251619e-02,1.468913902362093543e-02,-5.315645062842317206e-03,-4.482505334914156647e-03,5.964923501014709473e-01
5.104466371304314798e-01,-1.202177172983917575e-02,-1.402775202467840265e-02,-1.049977701319652857e-03,-5.825220570149851579e-05,1.696017856947532650e-03,5.234857201576232910e-01
5.115816620516534519e-01,-1.888737681984253847e-02,-1.994830342083114827e-02,3.053468264083724227e-03,1.357218633701723354e-03,1.409913357031969579e-03,5.310374498367309570e-01
5.414281732681220927e-01,-5.146450988047418518e-02,2.875292240350685313e-03,1.999598842566791945e-03,1.627833010657100607e-03,-3.856463260519219665e-04,5.676947236061096191e-01
5.320304276748100136e-01,-4.295987632261158429e-02,1.377533598744595800e-03,7.238414367587619504e-03,6.188223791489875017e-03,2.150783443824938034e-03,5.544114112854003906e-01
5.215406044950444686e-01,-2.766357743343691999e-02,-5.954431431629131355e-03,4.950856345905515175e-03,2.553945640298108951e-05,4.037692626560910637e-03,5.387914180755615234e-01
4.586512567203528401e-01,-3.724116390683587796e-02,-3.243703262859373715e-02,4.494375408815805858e-04,-1.334479796849225020e-02,-1.258759102031930220e-02,4.945303201675415039e-01
5.704942342392100851e-01,-4.940940485171629870e-02,-1.157704261913305999e-03,2.113093044950751370e-03,-2.483213754167069853e-02,-9.320495735124827152e-03,5.990169048309326172e-01
6.009399751332819006e-01,-6.079973461298687765e-02,1.860699731063891749e-02,1.239673471361708293e-03,-1.920768227699694991e-02,-1.157765617224730710e-02,6.270341277122497559e-01
5.435969879206591360e-01,-4.835862744650654133e-02,-2.204010313372506413e-02,5.168349236530060675e-02,-4.063179577972823170e-02,-1.152871924430495104e-02,5.906689763069152832e-01
5.053251060544823314e-01,-2.028723968921611331e-02,7.955024238676888793e-03,-3.944882711944804748e-02,-7.125039813789887932e-02,4.492633947121241200e-02,5.368193984031677246e-01
5.097009931472842315e-01,-1.301652615562204351e-02,-1.051172234404013084e-02,5.804464067248653542e-04,9.864539702718246733e-04,3.134710530219240662e-03,5.215016603469848633e-01
5.128034150079086029e-01,-3.896982298388024235e-02,-3.737699947671610512e-02,-1.872603646285390033e-03,-5.425823975167306905e-04,4.298224913924660029e-04,5.509893894195556641e-01
5.506729732194406424e-01,-3.079155164985872273e-02,-3.191432590889087262e-02,2.239728884010333890e-02,1.035431580454190988e-02,-2.187363076461072697e-02,5.848222374916076660e-01
5.223166736726373438e-01,-3.821562666898170590e-02,-2.118179890237140151e-02,2.007369395094595662e-03,-7.123997503700328811e-03,2.056744704884652815e-04,5.523613691329956055e-01
5.125632516308777920e-01,-3.665576661912339773e-02,-3.159290056446667494e-02,-5.835301810880937252e-03,2.292658735956934056e-04,-4.348984296446863334e-04,5.467992424964904785e-01
5.145091490589637218e-01,-4.154082061669550630e-02,-1.924031175186780018e-02,1.764639214729440617e-02,-1.078007397638226089e-02,-3.233374384251054383e-03,5.464456677436828613e-01
5.470380916864298060e-01,-4.148249748147622706e-02,-2.737085792970997411e-02,1.932596710189733030e-02,-2.653279089082060879e-02,-6.884628950197578881e-03,5.844871997833251953e-01
3.331751048637239254e-01,1.170743671191121216e-02,-1.511147430639475653e-02,-8.282506767923749572e-04,-3.718520714940398882e-03,1.057227813391102512e-03,3.357514142990112305e-01
4.792658518877145890e-01,-3.224515188465085225e-02,-2.566858998410098680e-02,2.881413979802203637e-02,-3.918757621092226751e-02,-2.912002630687200722e-03,5.152145028114318848e-01
5.217039451347991186e-01,-3.080856986631419492e-02,-2.620767658633410546e-02,7.557695976956671502e-03,2.867706830218811048e-03,-6.461673100738204480e-03,5.505183935165405273e-01
6.168581608550172124e-01,3.623387754991894139e-02,-6.807017994728831178e-02,-1.456174003673928706e-02,5.355387783124687494e-05,2.519706527550616762e-02,6.411756277084350586e-01
5.477294656114357618e-01,-3.314925023697173900e-02,-1.110517618941653240e-03,-8.168689382772046509e-03,-2.461950716253707983e-02,-3.208400065944032320e-02,5.700374245643615723e-01
4.109028573794815675e-01,-2.266449000557396731e-02,-2.024756960571896802e-02,-8.261275018070677548e-04,-8.200756283420879665e-04,-1.175755986832874647e-02,4.328479766845703125e-01
5.220378453199225888e-01,-3.530410324682992096e-02,-3.199751453864574380e-02,1.491202355287696811e-02,-5.364714393381620275e-03,-1.267587111262251289e-03,5.563778877258300781e-01
5.216560800110143781e-01,-3.674879757352703114e-02,-1.657347165672864997e-02,3.849043117376112644e-03,-1.440884850687504035e-02,3.972823163983884957e-04,5.492038130760192871e-01
4.637956749157500225e-01,-2.107077310148036675e-02,-4.314822150690761360e-02,1.115275077482459978e-02,-1.994219002199958124e-02,5.708174359540675764e-03,4.979472458362579346e-01
5.200962109981825954e-01,-2.790167910921992345e-02,-2.315599359420872361e-02,2.455492397049698766e-03,-3.537229759493909845e-03,-3.534270479047786628e-03,5.457258224487304688e-01
5.229878196802821844e-01,-3.621172340606029771e-02,-1.523294669652580646e-02,1.804625930210480064e-03,1.600337306075486424e-03,-5.383625673276124478e-03,5.491059422492980957e-01
4.922321971849486499e-01,-3.227190788937003840e-02,-4.321835307028629170e-02,-2.351123435198237196e-04,3.030542870534934179e-04,6.121739624189880512e-03,5.301685333251953125e-01
4.908953236339148596e-01,-2.936038737190077574e-02,-4.417134345897905101e-02,9.642778578586388288e-03,-2.396828854850438419e-03,-8.510173990471549396e-04,5.280995965003967285e-01
5.285047386509554856e-01,-4.293942215669091511e-02,1.193504212912468998e-02,1.085908467178647342e-02,8.523696068826368960e-03,3.992470854465974238e-03,5.466456413269042969e-01
6.455611762696983336e-01,-1.071238081696699318e-01,2.730336722327453280e-02,4.865454509606225580e-02,9.554725706232809757e-02,-1.573362417972679408e-02,7.201779484748840332e-01
5.386755020248934489e-01,-5.040876806147270850e-02,2.264622197650614788e-02,1.814698816974653298e-03,-1.646211096170841328e-03,-6.935252832747680965e-03,5.563129186630249023e-01
5.212746606269559324e-01,-2.778763169165457403e-02,-1.056005406699672688e-02,5.468763435656787955e-04,-1.069977905478638417e-03,-2.548115759283390170e-03,5.406764149665832520e-01
5.382730767526273663e-01,-2.896665474903689641e-02,-3.978921220695158523e-02,6.525893931580267759e-02,-1.645976192339851721e-02,-1.226154621525967804e-02,5.848563909530639648e-01
5.441017146458131393e-01,-5.632264619388835380e-02,2.456572471719906114e-02,5.575420006714110373e-03,2.653071191841204282e-03,-1.441717850982877610e-03,5.644515752792358398e-01
6.530336430283614213e-01,-7.398787984048038613e-02,3.661791800360264526e-02,-3.084668946671084711e-02,-1.191423479244569789e-01,2.668202959950361636e-02,7.127104401588439941e-01
5.185292588354615262e-01,-2.890144725179116802e-02,-2.090859947383796880e-02,1.196557006957875901e-03,-2.075796718959772337e-03,-1.674272147948155333e-03,5.435019731521606445e-01
5.468814021133289183e-01,-5.841994310729245465e-02,2.964276592219250439e-02,6.778396703086702474e-03,-5.668312354734091063e-03,-8.127237780841850860e-04,5.666361451148986816e-01
6.958571825884060091e-01,-9.038756886965976234e-02,2.998981672424386180e-02,6.965024997680062911e-03,-4.038529018941184462e-02,-1.535468641406380688e-02,7.374083995819091797e-01
5.057320515840240116e-01,-4.602744210422854421e-02,-3.360263000037957970e-02,-3.791029077057442472e-03,-1.987399856417616014e-03,-1.560133739788290745e-03,5.457102656364440918e-01
5.102740173664447321e-01,-4.126138449524474616e-02,-4.371458697023070106e-02,-5.385510463181474115e-04,-1.376044001061139770e-03,-2.051013795250313486e-03,5.527834296226501465e-01
5.142311227785474337e-01,-4.222336452832178844e-02,-4.320421506943972201e-02,-4.858461493158248512e-04,7.410873479182013843e-04,-1.176909655016312528e-03,5.569514036178588867e-01
5.133414311793315088e-01,-4.152448451337401036e-02,-4.380684282379249117e-02,-2.721118654287071155e-04,-2.992026757486832326e-04,-4.333477716172422656e-04,5.560115575790405273e-01
5.116544355232548469e-01,-4.639747883897621383e-02,-3.829868489128235298e-02,-3.998263889025021787e-05,-1.825191694742343829e-03,-1.868004925965165803e-03,5.540654063224792480e-01
5.242459931564095177e-01,-4.300812780939386459e-02,-1.672767080047757315e-02,1.620841442402449128e-03,-1.398105684073520753e-02,-9.057955378148610428e-04,5.551188588142395020e-01
5.185715269207216149e-01,8.839021516769435260e-03,-5.553785898458690751e-02,9.920693057655331423e-03,8.256536593663129156e-03,1.549241009071788272e-02,5.458996295928955078e-01
5.161301358859780031e-01,-3.249669429026122436e-02,-2.231879584752982648e-02,6.091518378137132043e-04,-3.540410626822249832e-03,1.216990795423144060e-03,5.436490178108215332e-01
5.140348661479120507e-01,-4.176981553607037045e-02,-4.117201166876749419e-02,9.010973393836375217e-04,2.003568560951971239e-04,-3.130498961067356670e-04,5.555086135864257812e-01
5.154462300499792482e-01,-4.158731790936717743e-02,-4.023804842673980864e-02,-9.402055612872161966e-04,-6.216255458604413734e-04,7.289439162646029445e-04,5.563650131225585938e-01
5.140273509749868630e-01,-3.666375664499263443e-02,-4.014603693188764644e-02,1.193256831329705123e-03,-5.782608991509028589e-04,5.047643029113223212e-04,5.524459481239318848e-01
4.308912820441078706e-01,-2.293288134881923956e-02,-3.655684032303774256e-02,-2.627754646667924618e-02,-2.680725215742283188e-02,-1.285802543040985742e-02,4.658843874931335449e-01
5.267994627304486421e-01,-3.972526702636675067e-02,-3.890521775820918182e-02,-5.356139566902981585e-04,-2.137962146610021194e-02,-1.987615464836221466e-03,5.673362016677856445e-01
5.285526502211241873e-01,-5.001782133069418435e-02,-1.694587410922146486e-02,2.164556802866994881e-03,-1.614443541564928794e-02,-2.596845901133771305e-03,5.634885430335998535e-01
5.146133753940115296e-01,-3.379335311701817113e-02,-3.781253151661215228e-02,1.008473105990821336e-03,-4.398599958825574925e-03,-1.110555925934991273e-03,5.504862070083618164e-01
4.260738297928171603e-01,-3.197166156135256010e-02,-2.101180080789102900e-02,-1.489773607165888018e-02,-4.168280648679682028e-04,-1.272615585853998851e-02,4.539360105991363525e-01
5.122775260625702654e-01,-4.317299509838470883e-02,-3.102195197637622193e-02,-1.355086028673479701e-02,-2.311730273425036206e-03,-1.437770983771644116e-03,5.499970316886901855e-01
5.072493736318299806e-01,-4.220184712321817244e-02,-3.284678460197898442e-02,-8.886399234349657422e-04,-2.881194766502062892e-03,-1.668672384569277198e-03,5.448666214942932129e-01
4.878849658403039413e-01,-3.856481254358867794e-02,-4.149301009198166912e-02,-3.940885131347999192e-03,-6.068745107161260290e-03,-8.001793263659840588e-03,5.282505750656127930e-01
5.056734304416259373e-01,-3.898374875445073662e-02,-3.943965145402572592e-02,-5.389997672622394084e-03,-1.556071280786923243e-03,-2.813352220106270316e-03,5.449936985969543457e-01
5.113922000515387367e-01,-3.742991939294026960e-02,-4.391173650917779003e-02,-2.284195001040602649e-03,-6.781595694412518660e-04,-3.097640629388972826e-03,5.521330833435058594e-01
5.290980692640334659e-01,-4.898796016370862705e-02,-1.792226360967980048e-02,1.258273863424994119e-03,-1.087702873341937597e-02,-3.401134590831363536e-03,5.635461807250976562e-01
3.308550626317685595e-01,-2.024253986553162243e-02,4.883494968139653891e-03,-5.537315160031081041e-02,-1.382685159264268882e-01,2.354984692386702383e-02,4.281308650970458984e-01
4.366303275623878433e-01,-3.012665815408763215e-02,-2.273242733861516318e-02,-2.317951732532714734e-02,-4.827000658356375706e-02,2.066353821532766234e-04,4.723001420497894287e-01
3.686227987995048805e-01,-2.450907982090522186e-02,-1.875771304131598760e-02,-4.547891859201387554e-02,-5.350703851960314505e-02,-7.977578960025231980e-03,4.090349972248077393e-01
4.156310928732802612e-01,-3.225682937443866138e-02,-3.001147478250262846e-02,-4.659914861068412822e-02,-4.106708334836781105e-02,-1.401560017491935116e-02,4.601806402206420898e-01
4.806261747653589600e-01,-2.147285593841868900e-02,-5.629035604288945560e-02,-4.671766949334193769e-04,-5.298551769825887367e-03,-4.138465729522819783e-03,5.205129981040954590e-01
4.321945431077077182e-01,-2.865953173435042967e-02,-2.974360569799891496e-02,-7.454892762001222306e-02,-1.687426701552265096e-02,-1.051793987361613128e-02,4.803602695465087891e-01
2.625708047699694681e-01,-7.361411701780348760e-02,-1.136974300858770159e-02,-4.603501830456723648e-02,-8.633174207015367752e-02,1.358700996251407771e-02,3.538926839828491211e-01
5.365110626969824548e-01,5.333148173609358889e-04,-4.097597874120476047e-02,6.365694742660991815e-04,3.556800324350963341e-03,-7.204237049649800384e-03,5.580663681030273438e-01
5.214902329028624495e-01,-3.493477049970575288e-02,-3.292796926022770188e-02,6.644436627892169774e-03,3.886901651120459097e-03,8.365660874705128881e-04,5.555862188339233398e-01
5.484596873814331364e-01,4.329581946190116937e-02,-5.930393590123683722e-02,-4.450105573097158478e-03,1.527672006394780639e-03,-9.662751757258282795e-03,5.638204216957092285e-01
5.177123286382749878e-01,-1.524858375798579524e-02,-1.876281619294448144e-02,-4.121941336260915439e-03,-1.810400839176927370e-03,4.253151578046015721e-03,5.348342657089233398e-01
5.813341409866512599e-01,-6.801985230546453431e-03,-1.848655482848715614e-02,1.330023305404375369e-02,5.017388849511542070e-03,-2.239661883415587293e-02,5.958387255668640137e-01
5.174969260252472170e-01,-2.765644325214020038e-02,-5.885038027138689287e-03,8.388324118600620815e-04,3.824330473421909231e-03,-6.743857870973550897e-03,5.347708463668823242e-01
5.210417061450256515e-01,-2.017390632768872871e-03,-2.760617902213599595e-02,1.898876200228827738e-03,9.021619585674364294e-04,-6.980854161982495004e-03,5.364601612091064453e-01
5.204763553888107630e-01,-3.241982636415968733e-02,-1.827504255697820490e-02,-6.959005296928324038e-04,-1.871013164748128914e-03,-1.715335489440949482e-03,5.459802746772766113e-01
5.368310389253713177e-01,-8.725123277177421199e-03,-2.643900515214014924e-02,1.363165361235648331e-03,-1.642207980851341032e-03,-6.433026595096912395e-03,5.547495484352111816e-01
5.378266907825390852e-01,-7.214960655236746234e-03,-3.613589696118815753e-02,1.869300615940337534e-03,-8.611661175386902485e-05,-3.361794054272455000e-03,5.601021051406860352e-01
5.250360806223748344e-01,-2.748819216160575118e-02,-3.439832292452946194e-02,-3.042620140684119089e-03,-4.181842325558314533e-03,7.770616101669867125e-04,5.560853481292724609e-01
4.436426698474362773e-01,-2.419353247875016821e-02,-3.194208397197048632e-02,6.751665118486240014e-02,-6.445661330420166153e-03,-6.109791429237925418e-03,4.862796664237976074e-01
5.188022107455694254e-01,-3.076646990674228310e-02,-2.157433673889833092e-02,-2.286867076361321065e-03,-1.041053341641859668e-03,-3.368290338984125296e-04,5.450484156608581543e-01
5.141259195287311012e-01,-4.913113718004760710e-02,-3.206124428175016750e-02,3.811229855424666611e-03,2.698023106904941411e-03,2.913153911747484726e-03,5.550009012222290039e-01
5.188381763825428150e-01,-4.131885893274594990e-02,-3.989934784436421911e-02,6.623903266694351061e-04,2.032664911789988562e-03,1.795695431753020202e-03,5.594695210456848145e-01
5.115193396407134996e-01,-9.516663665143199058e-03,-9.425056064317566262e-03,-1.869740467442651370e-03,-2.767999028582056580e-03,5.465857038099340703e-03,5.211083292961120605e-01
5.195805127723971406e-01,-4.103403306917247084e-02,-3.520176343365052918e-02,8.656231858441968893e-03,-8.999039009080379153e-03,-3.540352727508059953e-03,5.581741333007812500e-01
5.186182953459028688e-01,-3.719978147829794413e-02,-3.705375085313883377e-02,5.431309199447534493e-03,-1.708005050819901092e-03,2.320246168226562384e-04,5.558326840400695801e-01
5.006440303511225931e-01,-3.703938084788072072e-02,-4.773435785232876816e-02,1.949556027797967779e-03,-5.702602305777191953e-03,4.197568678034929897e-03,5.432588458061218262e-01
4.929518078348655852e-01,-3.232769792268430642e-02,-4.947766212435975031e-02,-2.320396874144547777e-04,-1.433197649057870804e-03,9.244689737495937962e-03,5.343069434165954590e-01
5.241857444332909122e-01,-3.646392982114834980e-02,-2.452637185948919329e-02,4.096507012926959082e-04,-1.608643969219462812e-03,-1.038944646411162504e-04,5.547847151756286621e-01
4.803728566806377831e-01,-2.181998099762127996e-02,-5.231197021191374974e-02,8.001134749606331892e-03,-1.883479057315935387e-02,6.262039713788508828e-03,5.194364190101623535e-01
5.978817741971315103e-01,-7.261273607442003675e-02,4.519480007232609675e-02,5.269045340341425160e-02,3.849560855128968118e-02,4.123723824466807297e-02,6.342935562133789062e-01
5.150039883910537686e-01,-3.553024573727459057e-02,-3.325838817212986576e-02,-5.700070957824826187e-04,-1.918584079444954392e-03,4.905497714185466174e-04,5.494134426116943359e-01
5.286773206414523418e-01,-3.867396065169542707e-02,-1.135171384172134479e-02,-6.936760087960891594e-05,9.485770185900157386e-03,-3.809385818406007661e-03,5.544782876968383789e-01
4.905324136929018475e-01,-3.388052692630852403e-02,-4.832002258368181535e-02,7.125296453710634964e-04,5.099541763832804485e-04,-6.477034764753618508e-03,5.319002270698547363e-01
5.227993916513626882e-01,-2.119176789135129857e-02,4.268683111162713262e-03,-5.964042928391966730e-03,-7.864830893873228645e-03,7.567901118765540946e-03,5.321545600891113281e-01
5.160038729774713007e-01,-5.466043960823285808e-02,3.142959117274563008e-02,1.809285757737553665e-02,3.470534103633120260e-02,1.124827789110294414e-02,5.375088453292846680e-01
5.762689951982220560e-01,-6.932064675992388736e-02,2.119816067111288116e-02,8.765895009105942673e-03,7.161035965402016631e-03,7.980592726004577531e-03,6.059018373489379883e-01
4.738586889069596464e-01,-2.114644002253981969e-02,-5.454168277316251423e-02,-6.298077770242437989e-04,5.681311121970967050e-04,-3.884571302207582167e-03,5.125656723976135254e-01
5.551285792301372535e-01,-6.288927330335244981e-02,1.776661492296735534e-02,-1.820212321930592299e-03,-4.331301362068043156e-03,-6.341895152762080066e-03,5.820580124855041504e-01
5.324298744322357724e-01,-4.828222161406661717e-02,3.111538275413724963e-02,2.589674882817939337e-04,-2.833178116226481996e-03,1.118055086628552859e-02,5.457313060760498047e-01
5.135525440271325737e-01,-1.843052886433607651e-02,-7.511612749516088927e-03,1.977321862782051515e-04,6.787086076982574729e-04,2.343815706574174998e-03,5.266255736351013184e-01
4.725657626403594325e-01,-3.141659917754408005e-02,-3.433780541940870124e-02,-5.088656622833714286e-04,3.142704005531100605e-04,1.109513002017009295e-02,5.058155655860900879e-01
5.432426192328015935e-01,-5.429646097713480835e-02,2.549537439069901601e-02,4.150078363422321829e-04,-4.380834809986831196e-03,5.753815008643000176e-03,5.620483756065368652e-01
5.116626563482093992e-01,-3.110453192112755394e-02,-3.690434642189735492e-02,2.933772964378381694e-03,-9.148516890092753609e-03,-1.236326917934111799e-03,5.459480881690979004e-01
5.041189464567894518e-01,-3.470579582799410145e-02,-5.290106835625690840e-02,1.333132699875749479e-03,1.245529783303993493e-03,-1.549729844853707300e-03,5.481646060943603516e-01
6.160477933429646669e-01,-8.151219014003613372e-02,4.937766809601212836e-02,6.550315803565486851e-03,8.517305659629624548e-02,1.209014863682441113e-02,6.593551039695739746e-01
5.823547227987899699e-01,-7.279064660492817751e-02,2.843055486954668143e-02,1.874150617014144760e-02,4.641984563484072811e-04,1.897068144594203989e-02,6.126015186309814453e-01
1.504343869244626486e-01,6.065693854615902825e-03,1.383071030730258222e-02,6.857261559201720258e-02,-8.386665408042603964e-02,-2.175636958729251433e-02,2.375059276819229126e-01
3.858133716930831070e-01,-2.031225700273087131e-03,-2.941568458341164982e-02,1.354048471321089506e-02,-3.020119691524597236e-02,6.739670806788488136e-03,4.064688086509704590e-01
5.326604703677750852e-01,-5.789945074160102179e-02,2.591844152456965200e-02,1.205678006693673351e-03,-1.459195010310848813e-02,-1.631026923896382189e-03,5.540199279785156250e-01
5.742111786553732999e-01,3.578489646734892005e-02,-5.985961847234019806e-02,-7.945052065009242104e-02,2.862591866018622533e-02,-2.414021286055815715e-02,6.113035082817077637e-01
5.052379836867508800e-01,-3.090422914341015015e-02,-5.087004557911842251e-02,-6.492270402480745635e-04,-5.269357468527567992e-03,-2.085465042157752004e-03,5.464881062507629395e-01
5.546219068675959374e-01,1.851788598838755018e-02,-6.078623579509745412e-02,2.547350902250586357e-02,-1.673940478983959547e-03,2.557390760870980034e-03,5.815382003784179688e-01
2.818815555636566828e-01,9.224354231445644481e-03,-1.535438773926241229e-02,1.232407048741168965e-01,-1.069255378857694727e-01,-3.266690661649579441e-02,4.058485329151153564e-01
5.074921087595068991e-01,-3.625275151788834305e-02,-2.601753723484281910e-02,5.467513624889295057e-03,-5.884737766200082675e-04,9.174361920223542783e-04,5.387867093086242676e-01
5.207627197632944682e-01,-3.496851908846476675e-02,-1.830853517815111964e-02,-4.184157370894100135e-04,-1.906080763978927313e-03,-1.564491903379262123e-03,5.476084947586059570e-01
4.421639437573619547e-01,-2.344067367510754840e-02,-4.363047144439552438e-02,-2.706586200737312597e-02,-3.670632294643649124e-02,-1.257152850530295421e-02,4.830213487148284912e-01
5.292362669403973818e-01,1.801256521894792351e-02,-5.355660760238989404e-02,-1.049544026228393240e-02,7.059596044712053084e-03,-2.556197686821662114e-03,5.509620904922485352e-01
5.100829437680951539e-01,-1.772017718233434569e-02,-7.377198993980232933e-03,-1.334987879204792022e-03,-3.499776681006143962e-04,2.508043852858154055e-03,5.227319002151489258e-01
5.234753052672491691e-01,-3.421631230972627113e-02,-3.367972745675512636e-02,9.897834716372410496e-03,2.469220175964481536e-03,1.221251019424706330e-04,5.577034950256347656e-01
5.096474086721880514e-01,-1.367447061452137236e-02,-7.325128418744719649e-03,3.305559526189927582e-04,-4.744910839655933294e-04,2.356313498136457501e-03,5.201932191848754883e-01
5.180336211221960863e-01,-3.726843123887613185e-02,-3.395993127525531730e-02,-1.161998071366613814e-03,7.642058243989927621e-04,-3.939869752150759350e-04,5.536608695983886719e-01
5.217951490430066119e-01,-3.682033709288159984e-02,-3.378270019808335412e-02,2.332903215791617534e-03,4.127490070401640399e-03,1.240499761420381548e-03,5.571675300598144531e-01
5.278977170569928434e-01,6.084861658054829814e-03,-5.352930617730269902e-02,5.449804951245712341e-03,6.482103938752588161e-03,-4.124055530576951033e-03,5.542708039283752441e-01
5.623904734912856807e-01,-1.411039139530714803e-02,-4.477435321489373066e-02,-4.261975079581819398e-02,-2.237247567907896424e-03,-4.357232787691851794e-03,5.970700383186340332e-01
5.788844147336055235e-01,6.031640409292826632e-03,-6.114177664280659452e-02,-2.164313832690138023e-02,1.483844918968815416e-02,4.529529786920023955e-03,6.109668016433715820e-01
5.099261972254297559e-01,-4.159908546459359369e-02,-4.009943879627914098e-02,-4.293349990566998559e-04,7.205027663912790328e-04,4.304923671872896290e-03,5.508293509483337402e-01
5.265983737108419493e-01,1.095462461306892510e-02,-5.426169409189987580e-02,-2.785822374015784961e-02,1.043461768240450073e-03,-1.213279714601344294e-03,5.532684326171875000e-01
5.864138010005633950e-01,3.247502490027087685e-03,-6.170259904965627595e-02,-1.999528489116855767e-02,-6.314730650562300597e-04,1.047267106714960989e-02,6.194415092468261719e-01
5.913168694089789845e-01,-5.859380163555538701e-02,1.286213788921025669e-02,8.990675228802756311e-03,1.813601821860581732e-03,-1.478192980230449809e-02,6.180272698402404785e-01
5.143487351070991087e-01,-4.010096294399034811e-02,-4.205301238326009106e-02,1.365425436825393971e-03,1.712392012563805545e-03,6.247678007201472273e-04,5.554422736167907715e-01
5.188698592952101230e-01,-3.754354726936329212e-02,-2.847889776930967454e-02,-1.739225975391409627e-04,-1.307741898048053308e-03,1.014251771167559366e-03,5.519444346427917480e-01
5.579291121110447893e-01,-6.136627514813738915e-02,3.346438273439958366e-02,8.434021168209080224e-03,-5.494653665960706236e-03,1.324385054815140029e-03,5.780144333839416504e-01
5.185251512288189257e-01,-3.824617070581487477e-02,-3.799751952233504371e-02,-1.037279193071530877e-03,2.739406331891039610e-03,1.449490082860987333e-04,5.566701889038085938e-01
5.281072818274205050e-01,-1.332245491995556752e-02,-1.275025624417622239e-02,-1.548045337199188557e-03,2.228368619925077086e-03,-1.551078742851039888e-02,5.418307185173034668e-01
5.241816559401817344e-01,-4.473890380893730256e-02,1.578791746060212442e-02,3.644463490313103616e-03,-2.176683572224363816e-03,-8.261131983897605432e-03,5.414406061172485352e-01
5.194263699605776718e-01,-2.357913196172656267e-02,-5.856238114643086412e-03,-7.893137891108008286e-04,3.382035814206286843e-03,-1.512106405885494179e-02,5.350397825241088867e-01
5.176320680345594116e-01,-4.150214912756094998e-02,-4.045536118608544784e-02,2.350416387440242352e-03,-8.330544807164364483e-04,-3.110652986467320365e-04,5.586284995079040527e-01
5.865875377811355929e-01,-3.953978028957830237e-02,-3.328332764525460119e-03,8.861919521413904460e-03,-6.794185641566338578e-03,-2.121633690765353797e-02,6.102443933486938477e-01
4.817623949393216587e-01,-2.491757541059885783e-02,-5.225699385926724228e-02,-6.471378702935023410e-03,-1.680188896362959372e-02,-9.700939331774198829e-03,5.220912098884582520e-01
5.095954060891418891e-01,-9.760269382162733987e-03,-1.182929284258021907e-02,1.311223289212648004e-03,-4.298418000006532132e-04,3.953743610508811922e-03,5.204437971115112305e-01
6.162944014487579114e-01,-4.158758854704749930e-02,-3.207671285472782352e-02,-3.317313581106896142e-02,1.792455722067835822e-02,-5.732448804442579621e-02,6.639018654823303223e-01
6.090420380322468796e-01,-4.250408337167560502e-02,-1.568254492333998051e-04,-2.809079782203320261e-02,3.947588371911200239e-02,-4.793073588971812765e-02,6.423774957656860352e-01
4.050191263823508803e-01,-2.776362162819739909e-02,-1.724334054340415090e-02,1.975774973504023399e-04,-2.593612181265127214e-02,1.059305385298600632e-02,4.303642511367797852e-01
5.128173855489566169e-01,-3.282020361511472917e-02,-3.867831421705530959e-02,1.301911725084924391e-03,1.638028133860437198e-03,-3.822097088079570433e-04,5.486024618148803711e-01
4.991288382453509809e-01,-3.911481756382198527e-02,-4.401243019140141377e-02,-2.738531251608760514e-03,-3.727818322371230281e-05,-6.515994560501075020e-03,5.408476591110229492e-01
4.683173462595300318e-01,-3.674521153156637410e-02,-3.280610712181231126e-02,-2.180012982461416310e-02,-8.798057565484266804e-03,-1.133051417188487772e-02,5.051310062408447266e-01
5.035220517778662419e-01,-3.446037004692492633e-02,-4.799612697403723982e-02,1.339524235576466677e-03,1.055950405927081823e-03,-4.078061928386449327e-03,5.449302196502685547e-01
5.760183025246683464e-01,-2.201691433836469591e-02,1.536776871225675745e-02,-5.681006381923501408e-02,-1.012305847836705991e-01,5.304089302436344744e-02,6.209278702735900879e-01
4.948380002502376640e-01,-4.413494880940602161e-02,-3.395467564752849277e-02,-7.463408198521931901e-03,-9.120949447673831756e-03,-1.122841963192553090e-02,5.346994400024414062e-01
5.060423128634778944e-01,-4.994095045848598313e-02,-3.242175075562239717e-02,-3.262692693282010122e-03,-1.465371245269194312e-03,-2.896086164906083553e-03,5.474919676780700684e-01
4.855307767045149991e-01,-1.144741927696479866e-02,-2.388242451701816371e-02,-4.340083531877012707e-02,-2.702499941426198329e-02,1.735160102500754586e-02,5.119248628616333008e-01
5.099446241466600860e-01,-2.932055027830224314e-02,-3.289230171799237268e-02,-1.542898428198829271e-03,-9.268843390900433684e-04,-2.311092255085389385e-04,5.410690307617187500e-01
5.102038539122082383e-01,-2.618474001809467655e-02,-3.117013224659737070e-02,2.751406074610194836e-03,1.375329750286336103e-03,8.345209608710226672e-04,5.389268398284912109e-01
5.015785514169149861e-01,-4.405297630807253340e-02,-3.128689016963931424e-02,2.559805102863358089e-04,-2.656786161143808540e-04,-2.382209452204772800e-04,5.393623709678649902e-01
4.969028332678838145e-01,-3.024911255311549252e-02,-4.939925124972255333e-02,-2.516037570819230147e-04,-3.257863842897347571e-03,-5.418779615993699061e-03,5.370950102806091309e-01
4.996608392891353501e-01,-4.366467321081626829e-02,-3.093275178378865342e-02,-2.892501980956279327e-03,-4.801680857483094957e-03,7.832646726333823293e-05,5.371605157852172852e-01
5.109631251668389496e-01,-3.502397938775861364e-02,-3.719306188614293629e-02,-8.920411850448828112e-05,4.153567822478092947e-03,-3.660763937129240999e-03,5.471589565277099609e-01
5.136885315905462823e-01,-4.352962139119900820e-02,-4.116891604448247310e-02,-3.525330456632165695e-04,1.882634356664779742e-04,-3.246013519829818146e-04,5.560422539710998535e-01
4.594859904844332543e-02,2.844418854204577157e-02,1.150393315914638795e-02,4.825503893677260403e-02,5.523614520491153951e-02,4.683278380940431029e-03,1.307457387447357178e-01
5.035837297790162204e-01,-3.083835424330486075e-02,-4.187255243212301137e-02,3.047477661790106915e-03,-8.144486743190404443e-03,9.495541076291122429e-04,5.402362346649169922e-01
2.496009250956497394e-01,-5.358083636831351138e-03,-6.735563211894973756e-04,4.865446174564354298e-02,7.578178462101606630e-03,8.459679982602613321e-03,2.670588493347167969e-01
4.346941345153547132e-01,-2.667105245902970379e-02,-7.027671632024778958e-03,4.521085435885310172e-02,6.024865538525317130e-03,9.078075877059716206e-03,4.589870572090148926e-01
5.032044369527359784e-01,-5.290362494887171363e-02,-2.063058729194691687e-02,2.489191179062195947e-02,1.909257292250376298e-02,-4.413533234615231622e-03,5.434715151786804199e-01
5.134792171219990653e-01,-4.197359155258589825e-02,-4.454003336683376446e-02,-5.839268405433801438e-04,-5.768449752846431609e-04,-1.031859801595276906e-03,5.567451715469360352e-01
2.879814878577056092e-01,1.359274801408558164e-03,1.153594782289299459e-02,1.663123639218145461e-02,-1.403111536482659800e-02,6.855452241093756935e-05,2.841820120811462402e-01
4.873888845695204530e-01,-2.179589267161782806e-02,-5.715821635576096016e-02,4.956332858820204114e-04,8.277852988929760604e-04,-2.574340407680684398e-03,5.277767181396484375e-01
4.415609882413918941e-01,-2.778485142231074123e-02,-2.061076301636788344e-02,2.446458520095024305e-02,2.055316733868011239e-02,-7.174140794961206095e-03,4.692409932613372803e-01
6.108107707658156915e-01,-2.126264675512759550e-02,-5.408993148072893664e-02,2.888434280770032711e-02,-3.300878969979176118e-03,1.524763968572679686e-02,6.515955328941345215e-01
4.960870663333651898e-01,-4.912028552692840333e-02,-3.516833509325800744e-02,4.962518900600736745e-04,1.688352765237915954e-03,-7.299919651055890822e-03,5.385240316390991211e-01
4.062864709167886001e-01,-4.786043071211554256e-04,-4.102957623019198863e-02,-1.116313588147682971e-03,-1.276718143652752491e-03,-5.503794455232372635e-04,4.284932613372802734e-01
5.211615359836605510e-01,-4.275540315380269019e-02,-3.618919846558474318e-02,2.581596534245104643e-02,-2.803103571006203970e-02,-9.685612228815377797e-03,5.647837519645690918e-01
4.415538380901417592e-01,-1.106119025321822269e-02,-5.120575708353658495e-02,2.028576020583389464e-04,-2.172230696070460293e-02,-6.285400858700680021e-03,4.755798578262329102e-01
3.843166006715846850e-01,-1.261796008390533852e-03,-2.933386319940498033e-02,1.614467413436415991e-02,-3.009534742661834975e-02,6.149420262423543025e-03,4.048398733139038086e-01
3.155021098632970755e-01,3.973441301098931677e-03,3.652845845017904658e-03,3.270262328583908255e-03,-2.697654524181986296e-03,9.117327495888548697e-03,3.121752440929412842e-01
4.394829057256844917e-01,-3.868296860831321737e-02,-1.215436524643775940e-02,2.743393085118669972e-02,2.656585066209667459e-03,8.515745625689765536e-03,4.681430160999298096e-01
4.872925646795168153e-01,-4.874663531249515125e-02,-3.107263106755972504e-02,1.877567919054064531e-04,-7.440845978392306159e-03,-7.960268062073529854e-03,5.277619957923889160e-01
5.132994914564437128e-01,-3.486177216603172924e-02,-4.811473150022041456e-02,5.161172065928162564e-03,-8.711602535783801371e-04,1.642957098347283236e-03,5.549877882003784180e-01
5.186129536876377122e-01,-4.475321497881323829e-02,-3.867719304849898121e-02,1.468361004757085843e-02,3.936369844149920430e-03,-5.404596303417840558e-03,5.610492825508117676e-01
4.530811124725304673e-01,-1.598941977437601247e-02,-3.121014200369512381e-02,-3.892083796569852094e-02,-4.193900528190491750e-03,-6.756482140052421769e-04,4.816607236862182617e-01
5.174501978423109438e-01,-3.543397258356947854e-02,-3.227777673136222880e-02,-8.601734523661239357e-04,8.538797025804392357e-04,1.056753081731282018e-03,5.513198971748352051e-01
5.382655966040100770e-01,-3.975027390828189677e-02,-2.624374445547622559e-02,5.885677287195059150e-03,-1.316137077981215965e-02,4.523068676381318889e-03,5.719814300537109375e-01
5.154342629789164798e-01,-4.447700264647386215e-02,-4.032446094803945891e-02,1.608107230339300047e-03,1.330936148808752224e-03,2.867817893112684004e-03,5.578804016113281250e-01
5.173128785895537707e-01,-4.505350715592354449e-02,-4.160517564918148059e-02,-9.512780490216342540e-04,7.211079833789312563e-04,1.084309140409814732e-03,5.606571435928344727e-01
5.303720751504368280e-01,-4.164710658867326609e-02,-1.508813811222531331e-02,1.158481055493915937e-03,-6.354891016360490752e-03,5.734315977400788154e-03,5.594130158424377441e-01
5.146367867102688010e-01,-3.703570687172688669e-02,-2.350982982855553960e-02,-2.815883653161361730e-03,-2.449622373060805595e-03,2.598086444062367491e-03,5.450923442840576172e-01
5.294768811463592684e-01,-3.302158535373500570e-02,-1.954717836218219928e-02,8.732916378562071954e-04,-4.795321559309830180e-03,6.205425904384234692e-03,5.560517311096191406e-01
5.127968541118259616e-01,-4.001236427377394267e-02,-3.871136069024566639e-02,-8.570797140988810044e-05,3.088191561672437948e-04,1.826616042369605310e-03,5.521692037582397461e-01
5.159693665018509900e-01,-4.350545123370685996e-02,-4.322125681692667865e-02,7.692648526683743557e-04,1.039999117738333190e-04,1.356150796077614396e-03,5.593393445014953613e-01
5.178898151728520416e-01,-3.249349571492562982e-02,-2.538378350763509372e-03,2.243253031261359994e-03,5.208954489683289592e-03,3.513050182707878975e-03,5.361583828926086426e-01
2.942809135197817505e-01,2.279224113027195076e-02,-1.900848399954778445e-02,-1.295983962816867063e-01,-5.124884480326623304e-02,2.961634096949076686e-02,3.843172788619995117e-01
4.971322347389933727e-01,-5.328685074890499029e-02,-3.236701929180405002e-02,-9.541401484287411958e-03,-5.643162261463963505e-03,-6.937320951772136222e-03,5.407376289367675781e-01
4.633582588806126612e-01,-3.568643060299644953e-02,-3.533000581758466430e-02,-5.528573689851472989e-02,-5.109986167945319152e-02,-4.508698525023395638e-03,5.156859159469604492e-01
4.242669211991087486e-01,-4.186295572662793174e-02,-2.519140256004684386e-02,-6.101903025996453789e-02,-6.539604871519934248e-02,4.557593899164775163e-03,4.835763573646545410e-01
5.166790010697308588e-01,-1.282530286304131573e-02,-7.258529977173300285e-03,2.823296629556010500e-03,-8.775571190194719588e-04,-1.371805596305419525e-02,5.273034572601318359e-01
4.989948424852220232e-01,-1.744867371219055441e-02,-3.618573391672505468e-02,2.159844067465878717e-02,-6.129066367988894419e-03,-6.855352681321341679e-03,5.276312828063964844e-01
5.006971238661884760e-01,-3.406442105173901336e-02,-4.972989935840743669e-02,-2.222408393732572523e-03,-1.737797497188253801e-03,-1.746894369100310783e-03,5.427942872047424316e-01
5.116357998393471496e-01,-4.048512796189826513e-02,-4.836110917805569454e-02,1.162514976949931668e-03,1.491267391101573549e-03,-1.650768453433736679e-03,5.561177730560302734e-01
3.900196468873973754e-01,-3.289931092648476496e-02,-2.014126626865728187e-02,-8.582398946084349167e-02,-3.524122769927526006e-03,-7.603188247391075814e-03,4.426460862159729004e-01
5.077776666795599247e-01,-3.887649715110258475e-02,-4.482578820323240842e-02,-1.532131138801940589e-03,-9.419954799069053895e-04,-1.210142004010799060e-03,5.496658086776733398e-01
7.445792615169549711e-01,1.722084361834100297e-02,-9.179056118594036695e-02,7.558543705083287101e-02,3.573752632103058269e-02,-1.875312771637091536e-02,8.014051318168640137e-01
5.051799222568741365e-01,-2.487335989520281232e-02,-5.649303595890514673e-02,2.774593778046059115e-03,-8.252230355986316102e-03,-1.255760642859522639e-03,5.467618703842163086e-01
5.448503800746751224e-01,5.451496558398383208e-03,-4.064018478973807635e-02,-2.185327248227297500e-02,7.012017195983770608e-03,-1.033232802667409175e-02,5.655421018600463867e-01
5.205277488940338593e-01,-2.816436246888909256e-02,-3.315052113079919316e-03,2.785303463783625477e-03,-2.993248999242778367e-03,-6.528615402293097038e-03,5.368648767471313477e-01
5.738157467874870354e-01,-2.164905378529585755e-02,-2.571318016228563152e-02,2.445008244108668252e-02,1.217225788813600627e-02,-3.210977651820941248e-02,6.019517779350280762e-01
5.284338342207963723e-01,2.509102125593021260e-03,-3.413217831163900540e-02,8.491071367587640223e-03,9.961290157796086342e-04,-1.869181653513310101e-02,5.463308691978454590e-01
5.294452810890504235e-01,-9.178433267147706465e-03,-2.755147819170644663e-02,-4.737191514729835115e-03,4.521969668582767089e-03,-6.166626868202620612e-03,5.482627153396606445e-01
4.944708201751704113e-01,-2.286290153997200258e-02,-6.041304601571947930e-02,1.136372389918200885e-03,-3.703096778380239942e-03,-1.105885788743750028e-03,5.371394753456115723e-01
5.019174155991388275e-01,-3.296083052568155036e-02,-4.791449582831511234e-02,-6.221283046557705585e-04,-1.566401572022957465e-03,1.027277314807502600e-03,5.425204634666442871e-01
5.289208521986854539e-01,-4.284481881157573002e-02,-2.237759364691810360e-02,3.037951236158456178e-03,-9.224594279586018422e-03,-2.998012925108918276e-03,5.620874762535095215e-01
5.387893159572277879e-01,-4.894449778782489213e-02,3.226134773808508882e-03,1.939107914575284673e-03,7.819839818623820077e-03,-2.805113416777210104e-03,5.636565685272216797e-01
5.292752252860131179e-01,-3.732739682039135087e-02,-2.849544919454272129e-03,2.930180540906390102e-03,3.546769440443901800e-03,-1.887270836879302322e-03,5.502419471740722656e-01
5.399086781949269387e-01,-5.685291909469578076e-02,5.611758075631217979e-03,8.562506487351099690e-03,-3.383453654843018160e-02,-5.775917458084612981e-03,5.714053511619567871e-01
5.080520150772669385e-01,-3.098685470342826820e-02,-4.378848600139700897e-02,3.065750951895416555e-03,-2.275502085379807384e-03,-1.316971570921544746e-03,5.455971956253051758e-01
4.075562484735542057e-01,-2.998616636893500220e-02,-2.754031596228778689e-02,8.283994716533933655e-02,-9.529123775102460100e-03,-4.856092080726653990e-04,4.596081674098968506e-01
5.052919372209995208e-01,-2.770595730284444724e-02,-5.456277897062578042e-02,-1.511506320062858295e-03,-6.089058173292731350e-03,-2.453242166716932370e-03,5.470455288887023926e-01
5.767423503559004905e-01,-5.122739987105590087e-02,1.062173451570008753e-02,9.981242526513466051e-03,-1.008887510706739897e-02,-1.130272644599246770e-02,6.002660989761352539e-01
3.491410021755050330e-01,-1.175252910092577929e-02,-2.413211217595406799e-02,3.850179927250436951e-02,-3.192985374444598512e-02,1.171968288245123571e-02,3.778662085533142090e-01
5.084233137969471628e-01,-3.092272181784497254e-02,-2.552845592666252994e-02,-1.485360653223298391e-03,1.394829366563043582e-03,-6.985578841771396394e-04,5.366821885108947754e-01
5.386254221732764691e-01,-4.374721501732548035e-02,3.063683124137073222e-03,5.107588563848334921e-03,-2.067686587553064712e-02,-8.818243949954821317e-03,5.618557929992675781e-01
5.064863379402508858e-01,-4.002308003513529999e-02,-2.859771078447306825e-02,-2.425122580233327572e-03,1.624152199828802489e-05,7.333136512893694177e-04,5.409050583839416504e-01
4.939329765340438883e-01,-2.441183312468953037e-02,-5.907229148909465266e-02,-6.576580759918954858e-04,-6.613369258864623116e-08,1.970672021296164186e-03,5.365274548530578613e-01
5.236050122043663935e-01,-1.574360989750048234e-02,-4.424944718986872916e-02,1.245390083580846449e-02,3.188767026047792299e-03,-1.135656434074613572e-03,5.546023845672607422e-01
4.920485546805846155e-01,-4.586121067517617833e-02,-2.849821753915118827e-02,1.022739302227410746e-02,2.632201577772581326e-03,-3.068163694032102241e-03,5.297843813896179199e-01
4.754865462356834271e-01,-1.931696280864370063e-04,-3.818432823478823401e-02,5.840871958509737116e-02,6.850164843115297796e-03,-2.114211049198677292e-02,5.074471831321716309e-01
5.308872738616539078e-01,-3.175428732894586270e-03,-5.112402539948793234e-02,1.757767618055929276e-03,1.661224461604648983e-02,-7.731591181130175426e-03,5.604873895645141602e-01
5.175075070039676373e-01,-2.325795303455283070e-02,-1.770030685051740549e-02,-2.450452174446165945e-03,-2.945183003041831199e-03,1.277674536575556683e-03,5.380536317825317383e-01
5.429773141934897129e-01,-3.993300573309313539e-02,-4.530791787753402078e-02,5.530189157731239986e-03,2.572206246427238049e-03,6.008139313736424441e-04,5.857124924659729004e-01
6.196844538008966508e-01,-2.727384411520378249e-02,3.240141142212882297e-03,7.452948922661645041e-03,9.931253887650597252e-04,5.490399653085015902e-02,6.394981145858764648e-01
4.887811774741833704e-01,-3.345677832572527266e-02,-3.724177271511777687e-02,1.527180792376791729e-03,1.160300678763266473e-02,-4.462731551851692111e-03,5.245894789695739746e-01
5.178285926104303494e-01,-4.543181829388873161e-02,-4.166731165400941461e-02,-4.582672142893658694e-04,9.498560299791075287e-04,8.860705180683331114e-04,5.613926649093627930e-01
5.023802527124637818e-01,-4.239748263835360631e-02,-1.540876923536083076e-02,2.050851752844844861e-02,2.373966021755745046e-02,3.708412287429254349e-03,5.346046090126037598e-01
3.539209629830075698e-01,-6.978484509882462716e-03,-9.109369232014954965e-03,9.400597003223695736e-03,-1.950896737981174141e-03,-4.782754447596723746e-03,3.624460697174072266e-01
5.164140110226194125e-01,-2.664024470510698017e-02,-2.978702473687316887e-02,3.557292946112029092e-03,9.565559968133421746e-05,-3.850743019710937097e-03,5.447101593017578125e-01
2.931880796263189870e-01,-9.364496342359723835e-03,-1.080383824035506535e-02,1.387015359926871590e-02,5.229285937105328241e-02,-3.220430864036274640e-03,3.174704611301422119e-01
5.063578829161753392e-01,-4.813618843614805853e-02,-3.798272822241985369e-02,-1.522783573999813168e-03,-6.082755131922965193e-04,-4.922053342257032629e-03,5.495611429214477539e-01
4.154793575398054162e-01,-1.381081413047050011e-02,-1.943820360823322879e-02,-1.968888373253793560e-03,2.040888279496064564e-02,-8.296483381283865921e-03,4.338262379169464111e-01
5.210644182260051327e-01,-2.372622272186308834e-02,-3.477637625058094262e-03,-1.088210558052988197e-03,7.737811390362178384e-04,1.708762499362540682e-02,5.357769131660461426e-01
5.139977608119206121e-01,-1.199051223174069092e-02,-2.429051128050843666e-02,-2.682712880656921701e-04,-1.302297905078001264e-03,2.324238862003284896e-03,5.322650671005249023e-01
5.517713818521737812e-01,3.738728792548492996e-02,-6.415348478228896645e-02,-6.603500140291698392e-03,-6.276808209775996310e-04,1.472755068026689040e-02,5.726388096809387207e-01
5.164403381609589117e-01,-6.631206315428961329e-03,-1.815260963667483796e-02,2.033109600408583920e-04,-6.564103714454937004e-03,4.054801831931530848e-03,5.290952920913696289e-01
4.967660313462424204e-01,-4.796014447990165630e-02,-3.028539716130751458e-02,-1.566164760286362393e-03,-6.158306315745446608e-04,-1.820316652655564783e-03,5.361245870590209961e-01
4.930379950923551857e-01,-4.225315197704324066e-02,-3.210800299194990770e-02,1.152470922050138902e-02,9.227729814555627429e-04,-3.382437750738966076e-03,5.307016968727111816e-01
4.925199920570655365e-01,-3.015508907050520881e-02,-4.905748146980498658e-02,-1.458029574242621779e-03,-4.247674824254922890e-03,-5.404202597676092956e-03,5.325171351432800293e-01
5.767153175126991105e-01,-3.424664383073575125e-02,-5.006743711713868006e-02,2.674761650802757323e-02,4.036909117239580007e-03,-3.506090404625178316e-03,6.208242774009704590e-01
5.238997880516174099e-01,2.275488910249054419e-02,-5.538123245705153797e-02,1.240660356746271925e-01,1.461593733122647405e-02,-1.404882389593100668e-02,5.863609313964843750e-01
8.804371926401354242e-01,-7.252922254211402464e-02,-2.579036829736203185e-02,1.353080427803676940e-02,1.199339106469842972e-02,3.167306366375313015e-02,9.326195716857910156e-01
4.885737623370553506e-01,-2.372952336196110235e-02,-5.591631316001210994e-02,1.648840764148966158e-04,-7.747803701283859264e-03,-5.128348508387041253e-03,5.293761491775512695e-01
5.144210088382117352e-01,-3.359017436572098170e-02,-3.630465427748583163e-02,-2.305315382065743518e-04,-3.836675503229655324e-03,-2.801171353861290399e-03,5.494351983070373535e-01
5.037062802330833922e-01,-4.718945071156674387e-02,-3.550268149310636945e-02,3.447950879586184243e-04,8.648244388235917617e-04,-3.788493772392249968e-03,5.451881885528564453e-01
5.104561811827941220e-01,-2.352074636692649823e-02,-5.493542097073533803e-03,-6.516542561926165922e-04,-1.158311869193765116e-03,4.358509993067710524e-03,5.252547264099121094e-01
5.244213362127528866e-01,-2.570097228943107881e-03,-4.453890837833532346e-02,-8.085987617345389428e-03,6.802697287766898762e-04,7.362757218562982972e-03,5.495077371597290039e-01
4.873898739176557582e-01,-1.881765182146261095e-02,-6.022323266075152448e-02,8.931507981296017955e-04,1.361343426790834275e-04,4.008324413406717183e-05,5.281313657760620117e-01
5.358650070968038470e-01,-2.124158101911549634e-03,-4.558930716990053367e-02,-2.827648753049670678e-03,1.676773263570478486e-03,6.793395578933102662e-03,5.611383318901062012e-01
5.060437782430778908e-01,-5.688019784197889672e-02,-2.785448456622890978e-02,3.961490272434831442e-03,4.646166966788498618e-04,1.070534236784304559e-03,5.490335226058959961e-01
5.016160708928213419e-01,-2.892349128491086829e-02,-5.579662129303619711e-02,5.407850892575491670e-04,-7.982923725121193401e-03,-7.907664892268614258e-04,5.446518063545227051e-01
5.252427968346735643e-01,-2.234927648833701097e-02,-3.909515168602492596e-02,6.320593992657708854e-03,-2.772556359128174486e-03,3.803755161394402860e-04,5.562829971313476562e-01
4.405296577240108147e-01,-3.860562795345570675e-02,-2.369685289567829978e-02,-3.046267966267708280e-02,1.084307210580657925e-02,8.792358571037568044e-03,4.754136502742767334e-01
6.691541535348004555e-01,-1.405193702436413616e-02,-3.608458438855854933e-02,-9.346627507909294197e-03,-2.795479268105395196e-02,-5.446477358821995296e-02,7.027193903923034668e-01
4.819020723337050782e-01,-4.772743391993436446e-02,-2.730699249473828027e-02,-7.125386088631406080e-03,-8.810100032058556727e-03,-9.329535281712290559e-03,5.203416347503662109e-01
5.128263070133138868e-01,-2.922034016736718698e-02,-3.443110128507537171e-02,-2.069925132410019574e-05,-1.216912803989861997e-03,-2.844295171674612616e-03,5.446971058845520020e-01
5.026377471438123745e-01,-3.275679706846246209e-02,-5.437652349228933035e-02,-5.666135654246534864e-04,-1.422651865389518817e-04,4.106218919253223042e-03,5.465724468231201172e-01
5.097754319579823612e-01,-4.044177596982376222e-02,-3.124235789245274897e-02,-1.412318345799054922e-02,-4.335703647767008215e-03,5.288180923452124411e-04,5.462760925292968750e-01
4.547933835162492056e-01,-3.728172857836581366e-02,-2.437136773535528156e-02,-3.718195327258335650e-04,1.107327073088797825e-02,1.198782984698793658e-02,4.865707755088806152e-01
5.075533658856549168e-01,-4.248127993978514927e-02,-3.389337459313962464e-02,-4.411317943595059504e-04,-3.497207889810204692e-03,-2.022088293958160775e-03,5.458367466926574707e-01
5.013244863982017074e-01,-2.468257174003152254e-02,-3.143797076562909742e-02,-7.004281647174200520e-04,-1.091880490995213388e-03,-4.931169019206055153e-04,5.294225215911865234e-01
4.923017603528438979e-01,-2.426996714911058839e-02,-6.033487441261053963e-02,-9.616563027598023323e-04,-2.536767143458537252e-03,-4.160972210948519373e-04,5.355368852615356445e-01
5.001592491588756628e-01,-3.665332066328261251e-02,-3.193903067950071284e-02,-2.013491630482135142e-02,-2.136671733811107768e-02,-4.596923225801424588e-03,5.369436740875244141e-01
5.111158319656323723e-01,-4.328736886428133368e-02,-3.792455214079129555e-02,-1.342092233932187881e-03,-2.234336065207605769e-03,-5.003018772414294553e-03,5.518278479576110840e-01
4.948589270437848131e-01,-4.668467372381737701e-02,-3.023633128200975406e-02,-2.876753355663948068e-03,-3.271706370767811945e-03,-3.820607253987557501e-04,5.335633754730224609e-01
5.110033696803809589e-01,-2.499438085097638318e-02,-3.499012546515312128e-02,-2.568384195638195693e-03,-2.740900750213680782e-03,6.559684222729255483e-04,5.411052107810974121e-01
5.190884539843312329e-01,-4.233890830900599589e-02,-3.863317493169157735e-02,4.676699476111122189e-03,-1.019465178663240450e-03,3.471374254351358712e-03,5.596774220466613770e-01
5.041292940499272346e-01,-4.359632104675650877e-02,-3.773312349823948475e-02,1.144932000596945000e-03,-1.188151649743546864e-04,-5.910943792195693693e-03,5.449175238609313965e-01
5.124806454857738780e-01,-3.792277113853895210e-02,-3.265768385983730537e-02,1.912265044989598867e-03,1.281490321464667315e-03,-4.781171627187587314e-04,5.478050112724304199e-01
5.047352488723386710e-01,-5.681316362452279445e-02,-2.547050509910697702e-02,3.866940915950279733e-03,1.146921770485359723e-03,1.262777596104367774e-03,5.466005206108093262e-01
5.055701906839786819e-01,-5.527543395760708966e-02,-2.538848500055548851e-02,2.671882673497339052e-03,1.994637234733092832e-03,-8.791278221608320913e-04,5.465480089187622070e-01
4.160732198400026727e-01,-3.023844990097154795e-02,-3.451616807988813762e-02,-7.267621462106450825e-02,-8.922452904883703545e-03,-7.785073127439384993e-04,4.660555124282836914e-01
4.998276322546349459e-01,-2.737763289603648009e-02,-4.170130794367241100e-02,2.984518450471897004e-03,-6.154249859657545327e-03,-8.364186444343034606e-04,5.346443057060241699e-01
4.780768823221195341e-01,-2.032576803427235679e-02,-5.357794832681911368e-02,-3.819249532227961719e-04,-5.998434443268446008e-04,5.978256727418227584e-03,5.159385800361633301e-01
4.073245076768400863e-01,-1.161438281466192768e-02,-3.925670899261832214e-02,-8.552800320371665771e-04,3.264853883727532303e-04,7.028650200696504556e-03,4.335955083370208740e-01
4.848783084013324474e-01,-2.099632884417923506e-02,-5.571240383586181788e-02,4.354709647332254108e-04,-2.960757628336735565e-03,1.293376959423386601e-03,5.241261720657348633e-01
5.139599519452733301e-01,-3.784595419619779522e-02,-3.856615241410027428e-02,9.856338543642142232e-04,-7.225553664671335993e-04,-1.225542428245852229e-03,5.521745085716247559e-01
5.136151958812099627e-01,-4.051578056549554052e-02,-3.859958132496585370e-02,-1.716627609606632618e-03,-5.710897535881871798e-04,-6.221186897146176219e-04,5.531852841377258301e-01
5.189166191832510489e-01,-4.610964782576390530e-02,-4.336041702369056172e-02,1.073510517712231686e-04,1.519645025402115222e-04,1.301349452281729685e-03,5.636612772941589355e-01
5.018949045948312149e-01,-3.863219556374317132e-02,-4.277865569424421643e-02,-2.809116540514465174e-03,-2.456803883089821020e-04,-5.110737006920350323e-03,5.427063703536987305e-01
5.173185194504732465e-01,-4.051402177136226301e-02,-3.883394720860672278e-02,2.362427326062266006e-03,-9.991040803329399606e-04,1.733223223188785477e-03,5.570201873779296875e-01
5.135437051796785113e-01,-4.636249382854218393e-02,-3.849195575251279644e-02,-1.067107658361986103e-03,1.716257653428961008e-03,1.629788662796264340e-03,5.560308694839477539e-01
5.174358907044696032e-01,-4.650746446336834206e-02,-3.722264529472385508e-02,9.158497679702557132e-05,-1.266692949486704139e-03,1.255444808553076580e-03,5.593672990798950195e-01
5.119548265101500073e-01,-3.988475301576296927e-02,-4.285115860542731969e-02,1.131751579720434268e-03,-2.581483233450939004e-04,-4.419882891620196923e-03,5.533853769302368164e-01
5.085748635432617570e-01,-4.214182496725610294e-02,-4.442117743210172165e-02,1.287873308169398129e-03,1.077550150132885109e-03,-5.390711380908036303e-03,5.519465208053588867e-01
5.509762208278593532e-01,2.398918583645828773e-02,-5.974617665380627107e-02,-1.421801442485907388e-03,1.071895536472375213e-03,-8.906919322277129583e-03,5.736740231513977051e-01
5.875206559387600169e-01,3.319210268775033001e-02,-4.369444117068793654e-02,-1.966378935314093759e-02,7.405453140972666909e-03,4.114392834492199696e-02,6.018430590629577637e-01
5.307306260399947684e-01,3.083014993270782877e-02,-4.391202844547723028e-02,-1.777937449601450955e-03,-4.033972748056178885e-03,1.728981181363319422e-02,5.420384407043457031e-01
6.412366793613392124e-01,3.407583477522957427e-03,-2.678416775901534819e-02,7.818692857057522871e-02,9.520521206735916685e-04,5.480958299883987445e-02,6.740543246269226074e-01
5.237751472915770368e-01,-2.550109664774424800e-03,-4.705852350566774867e-02,-1.703097833075154985e-02,3.280251515717381213e-03,6.846740111902721061e-03,5.508795380592346191e-01
5.079275855972150699e-01,-5.115820116408417717e-02,-3.144655779072749735e-02,1.120659338590838591e-02,1.413444857320977043e-03,6.164005074705918713e-03,5.499470233917236328e-01
5.094937928289446916e-01,-2.921510684906497568e-02,-3.931915306837618918e-02,3.961294340425742903e-03,-1.226632938362618233e-02,-6.980129869987283775e-05,5.442894101142883301e-01
5.084009526896000608e-01,-4.718970163809291241e-02,-3.490664557873926488e-02,4.565219012312199572e-03,-2.849777907653122861e-04,4.596052209915224736e-03,5.496668219566345215e-01
5.111805995350533482e-01,-4.909304458361468670e-02,-3.675902005551842655e-02,-2.025931028596715620e-04,2.618295245540192971e-04,2.820984980382310828e-03,5.542314052581787109e-01
4.741941449587507851e-01,-2.575346037957260137e-02,-5.281642194363456166e-02,1.241051794777985355e-03,1.853700541104449343e-04,-7.339357095437329392e-03,5.141754746437072754e-01
4.858330702318353622e-01,-4.091096849143113778e-02,-3.819561805117849262e-02,7.538086721383479259e-03,-4.010953955983749888e-03,8.278674718289977599e-03,5.257952809333801270e-01
5.157277185793797125e-01,-2.529565284936893810e-02,-2.291223852574117426e-02,5.343825460064347476e-04,3.101234635478141051e-03,5.635047096768977179e-03,5.399513244628906250e-01
5.070139458197215898e-01,-5.210009462283596293e-02,-2.355288410052255865e-02,1.037331233246534430e-02,1.243192117533478344e-04,7.290613217549586460e-03,5.458430647850036621e-01
5.027554511698659745e-01,-4.815298427449415941e-02,-3.354586528790926003e-02,3.462776735057973565e-03,4.119563297603386076e-04,6.449439131860927078e-03,5.439003109931945801e-01
5.119913949844514534e-01,-3.119822728400914458e-02,-4.220859643063562539e-02,4.377258722110815778e-03,-9.555775410146710724e-03,5.587828614750613892e-04,5.490803718566894531e-01
4.990067098673407475e-01,-5.446401100981801413e-02,-2.886016267493266008e-02,-9.288344366866711083e-03,-1.678676711006298148e-03,-1.562470366626933938e-03,5.413769483566284180e-01
5.188313165968271301e-01,-2.347112757307129316e-02,-2.042035182872786736e-02,2.782061377681709861e-03,4.289340569763297299e-03,-7.250527543651100366e-03,5.410017967224121094e-01
5.047891389841094867e-01,-3.937878365912536593e-02,-4.282625058664435436e-02,-2.180473338259316003e-03,-1.583099790162778011e-03,-5.835450459412397720e-03,5.460133552551269531e-01
5.322470827207252952e-01,-3.625972344714650797e-02,-5.858842057539198622e-03,1.726473884560959489e-03,3.350148289836265073e-03,-4.249067920360513097e-03,5.540197491645812988e-01
4.432715833698928076e-01,-3.658101733956492518e-02,-2.179814577440558621e-02,2.908580881133475773e-04,-2.533437126590231607e-04,-1.235790209698356401e-02,4.731194972991943359e-01
5.553427881662678089e-01,-6.249800910448383151e-02,4.219847384275007829e-02,4.466270931073630136e-03,-1.056164805890399266e-02,-7.417049487079640721e-03,5.732036232948303223e-01
5.184995871092996644e-01,-3.579693262140504206e-02,-5.213248410040477454e-03,-2.614533986651992794e-03,4.075865560916963615e-03,-3.671864537950577257e-03,5.397576689720153809e-01
5.126093951832789708e-01,-2.080890710729887960e-02,-2.259720412314050741e-02,4.450721602623274563e-03,4.149795294882414019e-03,4.411684463838391225e-03,5.344732403755187988e-01
4.730776252666479276e-01,-1.614451823012949538e-02,-5.276125010771037793e-02,5.047127104700246513e-04,1.722512255498319053e-04,-7.243078911052813068e-03,5.086757540702819824e-01
5.393021988466948358e-01,-4.681516316919234755e-02,3.115079074728460684e-02,7.562791281466173417e-03,-1.076593493225691880e-02,-2.167483317011077368e-02,5.530314445495605469e-01
5.223459318869072554e-01,-4.611803847380091526e-02,5.286853401526653284e-03,-5.224923354928399412e-04,3.404359960998039206e-04,-3.396099101177611507e-03,5.446169972419738770e-01
4.895910333010116688e-01,-5.593543973968287397e-02,-1.976882961121209648e-02,-6.546355316563224648e-03,2.987521903606422686e-03,3.409360559058230000e-03,5.285522937774658203e-01
2.855098194446961113e-01,-3.180618779729461887e-02,-4.178090672088849433e-02,-7.185359811871473712e-02,-5.985379264241497133e-02,4.185113375246005823e-02,3.680283725261688232e-01
4.909071806984162678e-01,-5.309387168832296888e-02,-2.533163116035064277e-02,-4.568361379826577258e-03,2.781226857324221088e-03,5.354668241287404915e-03,5.308267474174499512e-01
5.884570668601016852e-01,-1.782207923894663093e-04,-3.188911796107135599e-02,5.990501848795366097e-03,1.523154793242316972e-02,-4.592230575988850289e-02,6.109774708747863770e-01
5.719247115200055687e-01,1.337722656939158150e-02,-4.252376075947128520e-02,-1.224654133038184101e-01,9.134503691300129014e-02,-3.291130900665346914e-02,6.477639079093933105e-01
5.179294205968837383e-01,7.877818906168843061e-03,-4.994316895246095345e-02,-3.858351152754531388e-02,3.731583493608202177e-03,-2.348630411123181147e-02,5.469462871551513672e-01
5.274934345908728339e-01,-3.406626242749244415e-02,-4.403823012122431990e-02,-3.333814081876967234e-02,1.898139053860352886e-03,-3.505255833053133943e-03,5.695880651473999023e-01
4.906409396608500950e-01,-2.856775663536212373e-02,-4.865718815702699263e-02,2.533234933429041186e-03,-5.211535168270614235e-03,5.552559808487263562e-03,5.297217369079589844e-01
5.155755558563585028e-01,-5.218844104106562520e-02,-2.980622750830047574e-02,4.415299841424508327e-03,9.784106298620926911e-04,1.587913617938485579e-03,5.569722056388854980e-01
3.671247263762497659e-01,-1.428875530299941743e-02,-8.818783387732093138e-03,-2.226301436100672215e-02,-2.101469958358104587e-02,-8.653998802496985082e-03,3.826960921287536621e-01
4.217720843959011923e-01,2.091412090190411521e-02,-4.786352621368089588e-02,-1.072603737156962445e-01,1.501413803118981788e-02,-1.866136193381108879e-02,4.787723124027252197e-01
4.046381879923769409e-01,3.147007411655852738e-02,-3.718108626922156379e-02,-1.584102332031570859e-01,2.393983582853178790e-02,4.623309216916260921e-03,4.966394305229187012e-01
5.084079095623963429e-01,-3.960065928634479149e-02,-3.816038555991291270e-02,4.085580914293116157e-03,-3.360715411979003225e-03,5.209267381383463937e-03,5.474408864974975586e-01
4.990413009212583684e-01,-3.929620887643475724e-02,-4.352837856703534181e-02,4.419801835707324635e-03,6.394717334609823422e-04,6.725277109577824236e-03,5.406468510627746582e-01
5.045044038045922719e-01,-3.310269117491659863e-02,-4.775272836195465498e-02,1.201019850438447530e-03,-3.232026980781079872e-03,1.990101142607476371e-03,5.451233983039855957e-01
4.115255888638498782e-01,-9.989240751337608026e-02,2.317991815813461032e-02,1.876773783290263189e-02,-1.275949380757824270e-01,-1.175151904193761851e-02,5.138736963272094727e-01
4.733384122090355528e-01,-3.346650757690528000e-02,-4.260363376046588657e-02,-8.247405199924916219e-02,3.939207081216357376e-02,2.098331867517697156e-03,5.353875160217285156e-01
3.733034112525189796e-01,-1.673011975338134505e-02,-2.030312111935778097e-02,-7.207087386990369479e-03,2.646688780362901894e-02,5.340935633130430675e-03,3.948105871677398682e-01
5.141165252457466917e-01,-4.758049762484292677e-02,-3.349723705487678282e-02,4.153746372808943266e-03,2.015876231285294948e-03,1.722032526791633178e-03,5.548551082611083984e-01
5.514252245201967106e-01,-3.997991832464373174e-02,-2.949398361827754167e-02,2.808330752820892284e-02,-2.759632148557894862e-02,-1.567942113034347107e-02,5.908102989196777344e-01
2.904490174559766769e-01,2.980670428404613714e-02,-1.869861648709660040e-02,8.452512820620020073e-02,-6.493447234866757400e-03,1.797480253419176874e-03,3.232636749744415283e-01
4.850950200360942821e-01,-4.186484811717949839e-02,-2.740328441604986121e-02,-1.861928286021616308e-02,-5.822494972681706987e-03,-4.013270593825271279e-03,5.210232734680175781e-01
5.178898768050730350e-01,-2.608929131645104649e-02,-3.275718938042723738e-02,4.808726258054945289e-04,3.772468044712160799e-03,3.729842378470304607e-04,5.473836064338684082e-01
5.141452892179287915e-01,-3.959744843888848842e-02,-4.482221814909911894e-02,1.235783471665272441e-03,3.224832930246447865e-04,1.331811273808189248e-03,5.563827157020568848e-01
4.860795377857030086e-01,-3.879205982943803588e-02,-4.243107883185273654e-02,5.404066697378866364e-03,-6.149495464871164614e-03,7.233631477952318263e-03,5.270403027534484863e-01
5.129435619309752337e-01,-3.605086815673119727e-02,-3.568524819352433819e-02,-9.299814667710050442e-03,7.306077202724007083e-03,9.444747394057226818e-04,5.491963028907775879e-01
4.928369616690090327e-01,-2.685547347332745138e-02,-4.990914465546242296e-02,1.193840388080842684e-03,-8.472890263001166267e-03,4.676727962101289576e-03,5.318625569343566895e-01
5.181094534006629448e-01,-2.364268448544348811e-02,-3.621141669719760148e-02,4.314080086299749983e-03,7.297547013029511429e-04,-1.371125522903538342e-03,5.482020974159240723e-01
5.107764710976009370e-01,-3.428977760334292468e-02,-4.380616564020661796e-02,-7.723741357163079174e-04,6.379132012620331027e-03,2.357199765154461418e-03,5.500139594078063965e-01
3.141592785306357438e-01,-4.986076869862937633e-03,4.546819621951081469e-03,-9.382912260514346403e-02,1.025089837324128089e-01,-3.225383240194953927e-02,3.999489545822143555e-01
4.914896632375825858e-01,-4.788118922420087076e-02,-3.189135406596979583e-02,6.103561826531538927e-03,-6.364820009672241506e-03,6.566952629273952423e-03,5.318973660469055176e-01
5.219262338515460176e-01,-3.697939046727799495e-03,-3.376817634947335001e-02,2.748863474023073919e-02,-3.701406297244536070e-02,-3.055514485898834162e-02,5.496985316276550293e-01
5.106804871289263303e-01,-4.417340641228825748e-02,-4.403706721274625036e-02,1.411964088999119037e-04,-1.612582611582195685e-04,7.498604932582171936e-03,5.549378395080566406e-01
5.179313755176842005e-01,-4.349576993177617368e-02,-4.018251768417158143e-02,-1.478388387844024876e-03,-2.745266087126846215e-04,6.122326693305099512e-04,5.597849488258361816e-01
4.820516759435073406e-01,-3.839253607492568166e-02,-3.947935183236581103e-02,5.157986323335377390e-03,-1.027081586029924241e-02,8.251224127401080716e-03,5.215644836425781250e-01
4.800918683460104752e-01,-2.790662684037031882e-02,-4.842743889239528587e-02,2.948403404713923013e-03,1.672325769643146095e-04,7.502194716701196878e-03,5.187515020370483398e-01
5.171183978973961093e-01,-3.710215233484442932e-02,-3.946554919451120136e-02,3.921559374071261622e-03,-1.511697493692827502e-03,9.904071227997972467e-04,5.554563999176025391e-01
4.713581355767112457e-01,-5.257760488435922475e-02,-1.539387835504177349e-02,3.267461176874927181e-05,-1.387168709306990134e-03,-6.392392148612815843e-03,5.064955949783325195e-01
4.645588926318771072e-01,-5.455281300841655079e-02,-1.201988909672099815e-02,-1.569319054548642305e-03,-2.029197674713625627e-03,-1.447580956606108740e-04,4.992258846759796143e-01
5.990076303284861403e-01,-7.617729361513642106e-03,-4.699424902837334717e-02,-1.458587996881567095e-01,-8.570019777101292591e-02,6.307065128305502921e-02,7.008732557296752930e-01
4.275703522914692245e-01,-1.394009320061442847e-02,-4.186567583159558903e-02,-3.979516844296959819e-04,-1.310016416346036858e-03,-5.125525001502448906e-03,4.562073945999145508e-01
5.066181783078130829e-01,-3.759522303169041124e-02,-4.795150549734447654e-02,1.747242495361502664e-03,9.842681194380884438e-06,2.841182411591387964e-03,5.494951009750366211e-01
5.107916471165312444e-01,-4.061694006001351220e-02,-4.517468182438125202e-02,-1.449641985537465866e-03,6.354418814039059600e-04,1.693729444737126838e-03,5.537160634994506836e-01
5.167972282419246444e-01,-3.990776091545295001e-02,-4.541365742987718557e-02,2.402570311333990412e-03,4.225055675508678963e-04,1.660533155866401661e-03,5.595015883445739746e-01
4.266804569850323747e-01,-8.244207786149537753e-03,-3.958188512369026357e-02,1.687872397768287787e-05,-1.473742533226683402e-03,-9.144862816418037471e-03,4.516950845718383789e-01
4.929517997304130317e-01,-5.770953694764524577e-02,-2.266870165631265643e-02,-2.774282293279143469e-03,2.269294268425793570e-03,1.559901326619800906e-03,5.340467691421508789e-01
5.099274945307361584e-01,-1.325029555281068139e-02,-1.983593500892474881e-02,-3.301464011594130001e-04,-1.929612083950065903e-03,3.787548469974016258e-03,5.265532732009887695e-01
5.084150552529704825e-01,-3.376542836010767989e-02,-6.966671856560996412e-03,1.177415629220231923e-03,6.941100879191387622e-03,-1.557446806853429039e-02,5.301173925399780273e-01
5.180768064524833294e-01,-4.601906299622743335e-02,-6.963418953773697906e-03,-3.991448504038232897e-03,-1.664852718876533256e-03,-5.069469412972756744e-03,5.457394719123840332e-01
5.124772735992735306e-01,-2.366138973950196456e-02,-1.280453615867463424e-02,3.662230652079117091e-03,5.132471133217389805e-03,2.047700338543248944e-03,5.309177041053771973e-01
4.568187828924037408e-01,-2.471453122349687170e-02,-3.870682578589645928e-02,7.353409060997257579e-04,7.796328653969112959e-05,-1.263569547723958006e-02,4.891712367534637451e-01
5.129794310226528653e-01,-1.306557101778407781e-02,1.599037894110255653e-03,3.641812153275658138e-03,3.364720745775395729e-03,9.154177591615117460e-03,5.191813707351684570e-01
5.120422557989915413e-01,-2.378747874654227323e-02,-1.733886629489045372e-02,3.870958610439932733e-04,6.308751621720253000e-04,-4.934344107939539264e-04,5.326369404792785645e-01
2.583652396279555452e-01,-4.649329401786597704e-03,-8.004347982622764257e-02,-1.052896732916806105e-01,-4.798980383562907737e-02,2.664162168064763622e-02,3.701173365116119385e-01
5.108193808068948183e-01,-1.360281286424791514e-02,-1.264342337859147847e-02,-4.983637806810582228e-05,2.206229170595867871e-04,5.776551602214835936e-04,5.239442586898803711e-01
5.181630255952240915e-01,-3.427115151062753995e-03,-1.789118476780834910e-02,3.195008782952328888e-03,1.165704659978062101e-04,1.049860608228299873e-02,5.293119549751281738e-01
5.101567595349643103e-01,-1.090748083844195193e-02,-1.699685373739553973e-02,1.165726629735377301e-03,7.062547669378208860e-04,7.504935350982937063e-03,5.243019461631774902e-01
5.064370543211440534e-01,-2.550768384779539266e-02,-5.683893769862549683e-02,1.137206921528044609e-03,3.886473210802040851e-03,1.535286706948829844e-03,5.483334660530090332e-01
4.334985004537157960e-01,-1.612472950156487728e-02,-3.319338018238354726e-02,-8.288189332021573055e-03,1.916068741973193327e-03,9.188150432266948761e-03,4.589087069034576416e-01
5.131937009810221273e-01,-1.783474748605812232e-02,-2.453062128996183477e-02,1.407308642867967103e-03,2.142002192453287899e-04,3.751595181669345079e-04,5.344139337539672852e-01
5.074181105520978452e-01,-2.798947228815340527e-02,-5.689473026533470312e-02,2.075760974388225332e-04,4.073221746919548913e-03,9.375832800747872266e-04,5.504774451255798340e-01
4.648232300472544543e-01,-5.194278886925007832e-02,-1.991507435570333273e-02,-1.224908795163486171e-02,4.925935329766453069e-03,3.801963581638841041e-03,5.020840167999267578e-01
5.106406428919347817e-01,-1.024485955061019138e-02,-1.192042947801932873e-02,6.283089604831673409e-04,1.077486326393555524e-03,4.479336036166316030e-03,5.217874646186828613e-01
1.421975816719989738e-01,-8.011961417338953062e-02,1.053696767635218731e-02,1.646225091569881310e-02,-7.176316289700700179e-02,-5.040582533861853731e-02,2.477380633354187012e-01
3.796709276995761106e-01,-6.038625312768386433e-02,1.560715184826923230e-02,-6.738555097785733916e-02,-9.931607157278368736e-02,5.763861038810578347e-02,4.681495428085327148e-01
3.649424480711899732e-01,-2.887417558336857759e-02,-3.938070481643241028e-03,-2.617825502121124207e-02,-1.675643896407237599e-02,-8.719234951973060463e-03,3.860303163528442383e-01
5.127692573040194546e-01,-4.183563706291615336e-02,-4.279000779332953197e-02,-1.837907004729499080e-03,1.987634937227105228e-03,3.659720058906870254e-03,5.551387071609497070e-01
5.125873299650272052e-01,-4.248266856897145449e-02,-4.165328229162412743e-02,-1.743916741956915480e-03,2.359355100542165785e-03,4.985039761337634566e-03,5.547462701797485352e-01
5.118194428802468332e-01,-3.856143505278566974e-02,-3.999944367867711015e-02,-1.032250220439272486e-03,1.837215152703544152e-03,2.498006345817002736e-03,5.511303544044494629e-01
5.173992548228407706e-01,-3.886460810130740184e-02,-4.504546342096690803e-02,-7.840304809922598152e-04,-2.196485914578747778e-04,1.444654160821881063e-03,5.593872666358947754e-01
5.169140377273911957e-01,-3.944164522747639623e-02,-4.457975944554315451e-02,-1.153838660871230970e-04,3.383358625754652026e-04,4.940572940217399008e-04,5.589434504508972168e-01
5.190066866869627038e-01,-4.124323526753440050e-02,-4.467747474290303944e-02,2.034368490821967111e-08,8.313232169446338297e-04,8.689238920593750598e-05,5.619767904281616211e-01
5.152690235225869664e-01,-4.323767945377823829e-02,-4.304281460706058104e-02,3.646777983929123208e-04,1.143807871304404434e-03,1.869298351947852512e-03,5.584225654602050781e-01
5.175420855121912744e-01,-4.118673210985521194e-02,-4.522161771868982161e-02,-9.428969185612292019e-05,-3.248105370870039152e-04,7.443090089547978031e-09,5.607574582099914551e-01
4.729997604541333334e-01,-2.936300184280241088e-02,-4.027797833052590426e-02,-1.015626230432444335e-03,-1.134315566654421625e-03,1.303649743446626610e-02,5.084167122840881348e-01
2.992627083877530403e-01,3.279563457979001173e-03,1.645223603494866405e-04,4.208371277599613075e-02,8.181497035641046786e-03,1.291279321713628345e-02,3.074928820133209229e-01
5.232870246001150027e-01,-2.112571434069912546e-02,-3.587850117196333954e-02,1.441278497466220131e-02,1.209583075657165397e-03,-2.604828882853844289e-03,5.525236725807189941e-01
5.324086108200505318e-01,-4.614858948628944302e-02,1.569519375030953290e-02,2.702654461601082959e-03,6.512973696759788835e-05,-8.359173272433099641e-03,5.504584312438964844e-01
5.050374453335774172e-01,-5.429315586322033815e-02,-3.072799643117504753e-02,-1.083723932079743444e-03,2.009284189402386314e-04,3.494612939404249941e-03,5.479649901390075684e-01
5.339804469630389239e-01,-5.754293454026901400e-02,1.861908303385831354e-02,4.389562055596558238e-03,8.533962112952587359e-03,2.126027504999349581e-03,5.576188564300537109e-01
5.485751604233923828e-01,-6.193336325350470850e-02,3.145985318440902567e-02,6.649404304837609400e-03,-3.619488044445894580e-03,-2.147297536446233189e-03,5.697467923164367676e-01
4.556427012780551733e-01,-3.457310032420529700e-02,-2.080917600355472463e-02,1.678871366784330868e-02,-2.925845629971978823e-04,1.186984395844739061e-02,4.847908914089202881e-01
5.131034153841212975e-01,-3.717163584542121368e-02,-3.503248723787219521e-02,1.207148809250568802e-03,-5.814457143907747136e-04,-2.533998073872939755e-04,5.492137074470520020e-01
4.447451208664646161e-01,-3.417751397161170046e-02,-1.726241175366985403e-02,1.846800827155808955e-02,-5.418889886595456423e-03,1.351048833558604265e-02,4.724519848823547363e-01
2.685165221472735064e-01,2.732224753362280656e-03,-6.220083695443218152e-03,-3.043222106867783661e-03,-5.460441139367235713e-02,1.772608323844527536e-03,2.865012288093566895e-01
4.218642511961537278e-01,-2.951533909436107606e-02,-1.362000384618475279e-02,4.310948359643453033e-04,-9.589917016799220321e-05,6.817725990433658873e-03,4.438033401966094971e-01
4.756135486098998499e-01,-5.017711735742744206e-02,-2.166928674848475622e-02,-6.809831826670267093e-04,1.665205489826139832e-03,7.881179427634894818e-03,5.123235583305358887e-01
5.201892727694923391e-01,-5.621695309910620941e-02,-3.466542296245753163e-02,2.245960350700276081e-02,7.667171455099569544e-03,4.489936365052246171e-03,5.674824118614196777e-01
5.742020201980764238e-01,6.594082829999570183e-04,-5.441969663210324826e-02,8.971411289703320677e-03,1.241145024721364634e-02,-1.088453957596247947e-02,6.038493514060974121e-01
3.504861201756304667e-01,-2.024697294451860419e-02,-1.676904525478709052e-03,-6.877068574421028868e-02,1.507584702488993546e-02,4.473435452359723029e-03,3.818814456462860107e-01
4.353480511508158735e-01,-5.010393440980337454e-02,-1.057145620464616798e-02,-1.559093439507093330e-02,2.119835852129198239e-04,1.963170437897063421e-03,4.677352309226989746e-01
5.787956406734542369e-01,1.660356614626573579e-03,-5.698399984831578613e-02,2.396495957803781822e-03,-5.938536995483296825e-03,-9.554261901189265230e-03,6.089063286781311035e-01
5.103996086070903271e-01,-2.605770589435682516e-02,-3.389889277394519951e-02,2.078280728090893190e-03,3.002986582379891297e-03,1.239948037043655084e-03,5.404618382453918457e-01
4.917537688922107297e-01,-2.831054716800895932e-02,-4.905248488219207670e-02,-1.147556155604817539e-03,-1.129487864038203511e-02,-9.542333192397511182e-03,5.313606262207031250e-01
5.456961611967179326e-01,3.331509793767106764e-02,-6.481901337453038758e-02,6.353006638886296575e-02,1.110837354037907780e-02,1.715374309817492820e-03,5.787347555160522461e-01
4.237288090287320008e-01,-3.749196549273539625e-02,-7.746156298834960818e-03,-1.402491883668607105e-03,-5.214817652635862950e-04,-9.620163460718412357e-03,4.474085271358489990e-01
5.021327925371106282e-01,-5.638430512284023366e-02,-2.806437835174530049e-02,-6.861236717245395612e-03,1.357891454965907572e-03,-1.475221769790744037e-03,5.450499653816223145e-01
5.284072059237265861e-01,-3.674663802027491877e-02,-2.886602957717379625e-02,2.276067881738939348e-03,1.819867021198337889e-02,-7.492996082389391348e-03,5.623030662536621094e-01
3.672090300546859143e-01,4.968368759442204352e-04,-1.844448718230928819e-02,-4.730262248244678338e-04,-1.724786546920265441e-03,-8.261941481690250264e-03,3.768248856067657471e-01
4.437016063281645772e-01,-3.827636395052574914e-02,-2.391210032457988244e-02,3.653501981326296778e-04,-3.464286895601569917e-04,-1.045165907930936493e-02,4.753044247627258301e-01
5.115961244664957164e-01,-2.945337067086434280e-02,-5.479751869916218987e-02,6.427342917952556583e-04,3.363896297207316817e-03,-5.787000721886898392e-04,5.541890859603881836e-01
4.247251062047828762e-01,-4.108917153370969522e-02,-1.313302758309195517e-02,-1.221114444511170200e-03,-7.997648585758043195e-04,-5.088933974568670901e-03,4.525772929191589355e-01
4.875335910517650806e-01,-5.781031353656904126e-02,-2.070679762307070515e-02,-5.195243558406874990e-03,1.583208609475302161e-04,-2.223007280099506891e-03,5.278620719909667969e-01
5.166645126436502089e-01,-2.479924955174730994e-02,-1.657813996632395703e-02,1.440052457698108839e-03,1.134915168041056993e-03,-1.788581625263478605e-03,5.374186635017395020e-01
4.930327635119327589e-01,-5.589429042611387954e-02,-2.515430079682662301e-02,-9.735312639913797821e-04,-3.719245000167905983e-04,1.080678487359584610e-03,5.342271327972412109e-01
5.399574101985984420e-01,1.356479304837696076e-02,-4.903905228286131734e-02,1.958818293898637822e-03,7.192925857076598248e-03,-7.829000895099394799e-03,5.606364607810974121e-01
5.857744736042311828e-01,-3.727084093699706280e-02,-1.263443520424703537e-02,9.279248420073103396e-03,-1.515338924931397286e-03,-2.616997523423985131e-02,6.129947900772094727e-01
5.153514913289827248e-01,-4.391266291913725750e-02,-3.427741143689638781e-02,4.982701963212784677e-03,1.133656832307005898e-03,-1.099188219663280869e-02,5.549066662788391113e-01
6.022551773975879374e-01,-2.152371888546392165e-02,-2.867200326289343071e-02,-8.115805955241103473e-03,-4.118483160351040645e-03,-2.936711011313278621e-02,6.296395063400268555e-01
5.342716221104870655e-01,-4.039322838292042084e-02,1.130496891500853973e-03,7.361764424952017827e-03,-2.456248074477061522e-03,-7.155428106204671061e-03,5.553700923919677734e-01
5.256416332688386150e-01,2.905959962046789080e-03,-3.456083402998683107e-02,1.798724034300796170e-03,2.555020077688617119e-03,-7.205292673822311610e-03,5.426109433174133301e-01
5.287930544134383792e-01,1.291736590683970065e-02,-2.756635641963420258e-02,-2.721726199624012032e-03,9.335503034029236230e-03,-3.081396384340117159e-02,5.401697754859924316e-01
4.963022925548964404e-01,-2.436807212982031179e-02,-4.544688741806110488e-02,5.532484331689025477e-04,-1.452733544679437076e-03,-3.153617742863559699e-05,5.315301418304443359e-01
5.666607161572156937e-01,4.009169725749134328e-03,-4.506962069586462061e-02,1.422719484183961915e-02,7.837678520215453012e-03,2.109731810199053093e-02,5.905307531356811523e-01
2.853953625390974747e-01,1.029940308443076658e-02,1.325340509891731466e-02,-8.410063754213152826e-04,-1.362896454962107861e-03,2.899179672334494928e-03,2.736910581588745117e-01
5.494173727119096018e-01,8.412843730276786669e-03,-3.897111887064472202e-02,3.757088748447095106e-03,-4.171774680098809356e-03,1.809486930848285685e-02,5.671356916427612305e-01
3.138885466576724070e-01,3.423525794945897482e-03,-4.962829658782891284e-03,-1.182684361390059884e-02,-3.000279689803692432e-02,-3.678472305376026021e-03,3.197236955165863037e-01
5.198101650863139467e-01,-4.489838056177594683e-02,-3.571393544756576444e-02,1.556617028836870115e-03,9.108803496827433529e-04,-1.547412942558178605e-03,5.601879358291625977e-01
5.839873897107877854e-01,2.683374771261884395e-02,-6.088966055524366872e-02,-4.576865562892573971e-03,-6.249782647709921889e-03,1.448153030087379230e-02,6.064652800559997559e-01
1.726712294623054256e-01,-3.904795941060639625e-02,-8.168423098059628129e-02,-2.530246922514003613e-02,2.562592318357414037e-03,-1.098182436695781077e-02,2.407736033201217651e-01
7.450575527615456162e-01,1.383234481609418864e-02,-7.152214175459187251e-02,4.206048028218183771e-02,-4.399247521304316955e-02,3.959301489365446569e-02,7.875310182571411133e-01
4.736981507373647649e-01,-5.087672488159958317e-02,-1.600973508212355512e-02,1.734840529778885121e-03,2.264283222076361388e-03,1.712511869483337654e-03,5.080721974372863770e-01
4.791003242859006028e-01,-3.302874423328094888e-02,-5.024235407310556623e-02,-2.251967012559880424e-02,5.350644654153728641e-02,5.738472636516332367e-03,5.306572318077087402e-01
3.651750969951377823e-01,-4.658824642116143888e-04,-2.029201145692779984e-02,-6.273326625495559937e-04,3.173792642475731229e-02,9.724262573980697183e-03,3.803188204765319824e-01
5.229976952591355310e-01,-4.596049409727526180e-02,-3.035885698594120718e-02,7.798322389588306820e-03,-2.228579036108743229e-03,-1.319977103804905166e-03,5.615004301071166992e-01
3.838663886222897781e-01,-1.364186911686840475e-02,-2.035971524442084513e-02,1.308031678761964987e-02,2.625481212987518242e-02,-2.123792095123886413e-03,4.041325449943542480e-01
4.088601086025032139e-01,-2.575434886077054841e-02,-2.163217563627253814e-02,2.839533816444955380e-02,2.685020283771066742e-03,-4.615589231772910563e-03,4.354533255100250244e-01
5.293735438811155714e-01,-4.131475478743973362e-02,-1.764978059468311211e-02,-2.262756885975113468e-03,-5.708929049700879436e-03,4.550456251545775994e-03,5.593881607055664062e-01
6.359309450192327517e-01,1.781827453125431338e-02,-6.958428275294459286e-02,1.022943511634521324e-01,6.504763844475888734e-03,4.674770866089014015e-02,6.941199302673339844e-01
4.977015872484607528e-01,-5.661361728951821992e-02,-2.514457191516483725e-02,-3.943500081228894092e-05,2.831793468709917216e-04,4.542466320697421955e-04,5.392705798149108887e-01
4.748282903844445180e-01,-5.014539153451649800e-02,-2.231588643968998587e-02,-6.809976896949022354e-04,8.028502167014411059e-04,7.884523439178097587e-03,5.118123888969421387e-01
5.082466404601061472e-01,-5.851558921994554074e-02,-2.651472169234181386e-02,1.070548271058998843e-02,2.702257811756727276e-04,3.023206766803069028e-03,5.517953038215637207e-01
5.096846268899790644e-01,-5.082765533316946360e-02,-2.982330292027540741e-02,-1.588099362798810026e-03,4.383369764331200677e-04,2.800409155048969108e-05,5.503182411193847656e-01
3.894765938416817619e-01,-2.552928065646209443e-02,-1.757677863039536215e-02,8.646637452284493697e-04,1.925010640231577825e-03,1.333400349185574242e-02,4.117517769336700439e-01
5.027481470415358089e-01,-5.039690714085290346e-02,-2.966464651854786028e-02,4.865783014871488850e-03,1.850077982321633643e-03,-3.721749951601914345e-03,5.431888699531555176e-01
4.865022621620382348e-01,-3.832186693345093764e-02,-3.931745401384242888e-02,4.348837362279595053e-02,3.458388569048388705e-02,-1.030509008162837879e-02,5.343634486198425293e-01
4.974561325355290609e-01,-5.637629920309600307e-02,-2.327782362908970004e-02,-2.377636436920836559e-06,6.015431867602614004e-04,1.487645620347732064e-03,5.380544662475585938e-01
5.133372281167709605e-01,-5.716131599303514443e-02,-4.199408155374506624e-02,6.605873865480138031e-03,2.903590570281278788e-02,-1.057224515074206561e-02,5.657218694686889648e-01
5.795634963161997444e-01,-9.520988447206324423e-02,3.465318842966139123e-02,4.264252616533927009e-02,2.785805215739481366e-02,1.090213920954364278e-02,6.266540884971618652e-01
3.555758322613887246e-01,-6.432006529125644523e-02,-1.497113996090916610e-02,-2.252062420757642430e-02,1.048325089687679734e-01,-3.607585495243977730e-02,4.431951940059661865e-01
4.755960876693472450e-01,-4.671989229395664966e-02,-2.491092593735624861e-02,-9.067625920592939284e-04,1.452896476818922632e-03,7.771835287030481355e-03,5.119457244873046875e-01
5.079871108991953488e-01,-3.316374806429692179e-02,-5.370942799817218782e-02,1.227495277319749518e-03,3.216223183329620190e-04,3.748886522409792827e-03,5.517532825469970703e-01
4.692548378782046559e-02,4.326014329295963662e-02,1.367776474417016497e-02,5.158855750271638951e-02,-2.691313328907103675e-02,7.059109564863649822e-03,1.063182130455970764e-01
2.579994435554066046e-01,1.461544409169923675e-02,-5.973174805928335718e-03,6.111964057489442138e-03,-5.480415868578684957e-02,5.734749823917078366e-04,2.716507911682128906e-01
4.414652541051273804e-01,-4.337679914093384159e-02,-1.190437472478589331e-02,2.093590941933787253e-02,-1.467523736107401253e-03,1.372356465746978451e-03,4.713069200515747070e-01
4.874669998267391891e-01,-5.732322898802161282e-02,-2.074064115582724410e-02,-2.486822027205885192e-03,1.183503500272127030e-04,-7.037991876967884114e-04,5.274702906608581543e-01
5.067915040755148759e-01,-2.963593100796263480e-02,-5.571847761976392310e-02,-3.754689235663253904e-05,2.603050414849020135e-03,1.588005271982396646e-03,5.499581694602966309e-01
5.402967427940058576e-01,-6.165222757809701859e-03,-2.172851380011389666e-02,-1.277855046957993013e-02,-8.154253500894079881e-03,1.607329406768907842e-02,5.557265877723693848e-01
4.948078516292080398e-01,-4.812560838207532998e-02,-2.427835973784245316e-02,1.327956701592868105e-02,1.213381404404182372e-02,-8.302878819046625308e-03,5.325180888175964355e-01
5.092101930952896982e-01,-4.427537394829220152e-02,-4.115740785564703241e-02,-1.583188726259920524e-05,-1.157266917979598696e-04,-3.187872083705869941e-03,5.519608259201049805e-01
2.439875256240756907e-01,4.387157523745549570e-03,-6.098281318194828660e-03,-3.656245957253546897e-02,-5.566912594022132947e-03,-4.473277436781594729e-03,2.533654272556304932e-01
5.073006312960395281e-01,-6.201567178814387793e-02,3.445668907817472926e-02,-8.585975098455137303e-03,-7.869411583377720898e-02,1.641183891105321355e-02,5.459964871406555176e-01
5.351945304662824032e-01,-6.698369574038981478e-02,-6.826673287622264663e-03,2.870583914347698412e-02,-2.547082950810636293e-02,5.488298990052538177e-03,5.783779025077819824e-01
4.108524048995534361e-01,-2.209422656861573242e-02,-2.035784861292669334e-02,-8.608742800888332823e-04,-8.264177473990936499e-04,-1.199053102857898165e-02,4.325848221778869629e-01
4.998298097838330678e-01,-5.649011434371248308e-02,-2.697762958489094420e-02,-3.735471277265775851e-04,3.051025291698039707e-04,2.004673140119526877e-03,5.421782135963439941e-01
2.657418064056775719e-01,2.370627171763094870e-02,-3.671937887132126210e-02,-9.445292900114117540e-02,-7.601446071879157385e-02,1.746297677085480865e-02,3.491004705429077148e-01
5.634233853364738476e-01,-1.061979310252104680e-01,3.976140586195023308e-02,-1.279206258559885748e-02,-1.175381933426082187e-01,2.161161772133243439e-02,6.444355249404907227e-01
6.177281462105747023e-01,-9.463918204723903438e-02,4.908550806106085074e-02,5.454014290047873997e-02,6.053435847626303934e-02,1.534985199233023651e-02,6.681041717529296875e-01
2.928167609388943049e-01,1.225957337396320346e-02,6.010755775419845959e-03,-3.274246975415339399e-03,-4.902847946946458854e-03,-3.892051325417839915e-03,2.839969396591186523e-01
5.466288158262577745e-01,-6.592211715048684750e-02,3.219461218949168368e-02,3.980863671319411802e-03,9.290780652205874596e-04,-6.929908286839586186e-03,5.700335502624511719e-01
5.369060341559672711e-01,-4.741380270013950682e-02,6.456728489284357941e-03,1.942548259838643003e-04,4.634147005864741771e-03,8.269886850235513018e-04,5.593931078910827637e-01
4.729655566140131273e-01,-4.359700288092788201e-02,-2.375509204106310279e-02,5.762683057883354748e-02,7.420069156017154548e-03,-1.439752935058492486e-02,5.174269080162048340e-01
5.241606764045536604e-01,-4.222758650302008143e-02,-3.346935733151001902e-02,4.025399088443774691e-03,-3.265831253718148777e-03,-9.870855392884695257e-04,5.621346235275268555e-01
5.325364153373639553e-01,-6.153857040031793235e-02,7.623653915957873117e-03,1.055914071963495043e-02,1.007709836244462774e-02,-4.237924254196920142e-03,5.633062720298767090e-01
4.425930861982402265e-01,-3.676013532034144715e-02,-1.834624090043718292e-02,-1.592103509951766456e-03,-1.334267375806276381e-03,9.560726437548076190e-03,4.707217812538146973e-01
5.092039148453200159e-01,-3.189189516559318149e-02,-3.687503840740347094e-02,3.177811093154893959e-03,-6.274652993688198648e-05,8.904250863932621461e-04,5.436345934867858887e-01
5.207414222819564120e-01,-3.634602140288051286e-02,-3.368626542283886804e-02,-1.242717542115818682e-02,3.721000777949069662e-03,8.006529922459683368e-04,5.562180876731872559e-01
2.360289408867924654e-01,-6.052588527065275170e-02,-6.265419227129383206e-02,5.324734899907711955e-02,3.553282427591026443e-02,1.096856298277839800e-02,3.181744217872619629e-01
4.429030187818572273e-01,5.332033336507252530e-03,-2.441352468733601344e-02,-7.657150381881212831e-02,1.153786037954973726e-01,-3.657152963874389651e-02,5.166310667991638184e-01
5.236680423687034569e-01,-1.344575948584172953e-02,-4.711223679816928245e-02,1.309903389119256543e-02,4.666422571661383092e-03,9.568685003822575887e-04,5.552389025688171387e-01
4.269909613005080651e-01,-2.890334457696216997e-02,-3.127736701046146539e-02,6.140085324325556676e-02,1.747755693873462995e-02,-4.101901456300455565e-03,4.703239500522613525e-01
4.748859100548831758e-01,-3.859963285469497629e-02,-3.086285517034451087e-02,-2.574246296177467794e-02,8.345981103966036013e-03,3.120761262146391616e-04,5.118122696876525879e-01
2.742128524961900959e-01,1.664387180615282957e-02,1.143289288467949638e-02,-1.371150130945113276e-03,-2.786435819454516696e-03,1.368133946811584322e-03,2.602799832820892334e-01
1.191594564883039914e-01,2.403282192114741117e-02,-3.567693074496286476e-02,2.554577776618841001e-02,-4.448800015917770551e-02,1.471630164650307090e-02,1.638271510601043701e-01
5.247464716011680519e-01,-3.949645620151245873e-02,-2.632858878182511853e-02,5.429947208995435613e-03,1.264033671236790019e-03,-1.712858868651536665e-05,5.578591823577880859e-01
5.067593557878066202e-01,-5.521993785281623102e-02,-2.971268621364214768e-02,4.543175868832565779e-03,2.867806133666197990e-03,-1.001098283834563020e-03,5.497512221336364746e-01
4.382073153026888046e-01,-4.194356305405116947e-02,-1.433235132424812153e-02,1.670045936623291288e-02,-9.849513821975116722e-04,4.803544157513823902e-03,4.679300785064697266e-01
6.199618076907095210e-01,-9.304405648812630325e-02,3.450004742461593166e-02,3.672635512943406288e-02,6.104154251137697273e-02,2.223443413410986988e-02,6.711281538009643555e-01
4.662307393771158992e-01,-8.369835898588873224e-02,7.289001888761401093e-03,9.379429046964556094e-02,5.804782452949992094e-02,1.721489889692678910e-02,5.459431409835815430e-01
5.129382763486629582e-01,-5.543750307896572194e-02,-2.731732001457037873e-02,5.351476435526364948e-03,-2.119385770575439067e-03,-1.306315437899258037e-03,5.549445748329162598e-01
4.221573292683636902e-01,-4.708551120761211850e-03,-3.371834226894324105e-02,7.130643241706795732e-05,-1.680739057030878876e-04,-4.952908655111308740e-03,4.421685636043548584e-01
5.130145133773564847e-01,-5.025268728949328079e-02,-3.306969377378871089e-02,2.660907078141868092e-03,1.803876430014397835e-03,-1.361342253637190221e-03,5.549082159996032715e-01
5.771004002801098931e-01,-5.521263416616967179e-02,8.025955898145753498e-04,-5.165485448952653741e-02,1.235963867618176115e-01,-2.470825282691035268e-02,6.505402922630310059e-01
5.262904546364758351e-01,-4.515627799532248576e-02,-3.651761930343699891e-02,2.363358819159770696e-03,-2.307058023229259514e-03,-1.483713876026432604e-03,5.672113895416259766e-01
4.016188975324037624e-01,-1.002017178263253649e-02,-3.510766422108768658e-02,3.654911115900451833e-03,5.564164951835459672e-02,5.989850874380211370e-04,4.355826377868652344e-01
4.842387907800009272e-01,-5.944746323644120589e-02,-1.846453695308269971e-02,-2.151265045971936731e-04,9.796788122062875445e-05,-1.523179653694584838e-04,5.243974924087524414e-01
5.408133489734565647e-01,-5.404672051008677092e-02,3.484677802865973617e-02,-6.528075852516468814e-04,-9.561248089503197878e-03,2.268607943634323634e-03,5.560326576232910156e-01
4.650098255087811161e-01,-5.290501630560340285e-02,-1.754327499987415329e-02,-1.126363514988099274e-03,-5.548515423984674800e-04,1.777722544173725421e-03,5.011847019195556641e-01
2.438367189704437055e-01,-2.464747881543147279e-03,9.960640785604310543e-03,6.146374429721850573e-03,4.173889150988777108e-02,4.827909340483230389e-04,2.511948347091674805e-01
5.061303335388357416e-01,-3.212718171408207590e-02,-3.434430825111955965e-02,2.881465695236959043e-02,7.059773605860285295e-02,9.494074238273098217e-04,5.553063154220581055e-01
4.996342815909903257e-01,-2.519499526803486988e-02,-5.834323569128463394e-02,8.936129881652742253e-04,-9.239490989913443910e-04,1.307353672182956462e-03,5.421732664108276367e-01
3.962112635353450263e-01,-2.058309156236651227e-02,-7.428771703276659810e-03,-2.436943115359023991e-03,-9.075844562676501975e-04,8.373433015698667631e-03,4.106562435626983643e-01
4.203983799612666106e-01,-3.847265924330156572e-02,-9.914895575916155002e-03,-2.595889900593421982e-03,-6.383199334800369060e-04,3.667531723933921406e-03,4.453488886356353760e-01
5.154095925833921399e-01,-2.832076901781019340e-02,-5.107459826165525185e-02,3.614671786092800952e-03,6.360981023338496861e-03,1.519976590304697624e-03,5.556076765060424805e-01
5.030761600360387220e-01,-3.883290819035831176e-02,-3.230194784903284155e-02,-4.441195864531304049e-02,7.151909595050960633e-02,-4.194687574467223685e-03,5.581074357032775879e-01
2.649397762150377256e-01,-1.955701354672370607e-02,-6.608291086962522765e-03,9.222796338351621492e-02,1.126371718777801345e-01,-5.198609441628715237e-03,3.756097555160522461e-01
5.429274592052948378e-01,-3.946869762069254994e-02,-1.843194260515249039e-02,5.289379723115702168e-03,4.045003206011599239e-02,-2.987487438857136003e-03,5.765374302864074707e-01
5.036272200163344204e-01,-3.824509901864805994e-02,-4.733823457642755139e-02,-2.059592968946477587e-03,-3.042389442160313949e-03,-3.427542672451589639e-03,5.465449094772338867e-01
5.238086566842383718e-01,-3.835333623968417704e-02,-3.425447858876642937e-02,1.855286281276001450e-03,-2.050784694100818862e-03,-3.820579180824470252e-04,5.601446628570556641e-01
5.135064337007914093e-01,-4.065288327475446994e-02,-4.280894925338032952e-02,-1.504629944840399445e-03,4.298811688919401599e-04,-1.131664693698194047e-03,5.552505850791931152e-01
4.243389790342528833e-01,-1.313247978237047642e-02,-3.279442903271953536e-02,1.305355336379411752e-03,2.000043588443004353e-03,9.045981367785029675e-03,4.479196369647979736e-01
4.469384378391696999e-01,-1.889034558248894879e-02,-3.917588813371067347e-02,-9.198759970254482155e-04,3.135537977793859533e-04,8.676598611053243371e-03,4.765356481075286865e-01
5.101627409364473120e-01,-3.882670987929900952e-02,-4.363031673884998352e-02,-4.666403911381958249e-04,9.802951531756502832e-04,-9.208161878302874304e-04,5.514124631881713867e-01
3.525787175545713747e-01,-1.861376930005104180e-02,3.544013351373803689e-03,-3.093237485567551428e-03,-2.119584601290681186e-03,3.788090465768063908e-03,3.607426583766937256e-01
5.109018177154744933e-01,-4.028416150144181751e-02,-4.665101799935372773e-02,-1.940126969532370753e-03,-1.429993366774537562e-04,-3.285173161502091821e-03,5.544362664222717285e-01
5.066052791261146382e-01,-3.720383670279706068e-02,-4.544460636947339482e-02,-6.235581833968486740e-03,-3.820480701372477254e-03,-5.959613531306881193e-03,5.482195615768432617e-01
5.266079134063627043e-01,7.854773823780691888e-03,-4.171565178923553052e-02,2.692759561886608286e-03,-4.813095573721695893e-03,3.892771935477042783e-03,5.453563928604125977e-01
3.980787863024972117e-01,-1.855330434670013351e-02,-3.662305085355160861e-02,-8.590426271790308974e-03,-2.514997829610709015e-02,-1.245421968141095792e-02,4.289773106575012207e-01
5.367676303873334387e-01,-3.798601196592243934e-02,7.045816688512646087e-03,2.984434899561759502e-03,-7.830865369815274979e-03,-9.186743329260988952e-03,5.540318489074707031e-01
5.378136226651923923e-01,-3.810542009372125394e-02,4.128920961028043068e-03,2.785233209390897222e-03,2.787390618030438291e-02,-1.352859317957298343e-02,5.586109161376953125e-01
2.602588858668613003e-01,2.078981210387687018e-03,1.845815976482985399e-02,-8.428223269734291421e-04,7.424359089298335820e-04,-2.270463536236433637e-03,2.504308521747589111e-01
2.187879236028347774e-01,5.447693615576336412e-03,-2.509830552099405476e-02,1.508160465880045431e-01,3.318253902702808511e-02,-2.261923316602393666e-02,3.550188243389129639e-01
4.800627851572438209e-01,-5.114585646549493769e-02,-2.351888857269110455e-02,4.263696166444725278e-04,9.948973890086421513e-04,-6.230159653733445069e-04,5.179525613784790039e-01
5.191983319391744178e-01,-4.378535755119380979e-02,-3.495845623404100766e-02,9.279959858671392621e-04,1.077493536042711418e-03,-1.698048714064240424e-03,5.586357116699218750e-01
4.273978855514178332e-01,-3.812320214845060784e-02,-2.886622968063246031e-03,-6.639947672451766789e-04,8.415226057514713738e-04,-5.531632417248988701e-03,4.490471780300140381e-01
5.239312624959119313e-01,-4.098545155728450240e-02,-1.239866438805822813e-02,-3.850265658470450759e-03,4.748918620001801177e-03,1.133353420705762249e-03,5.512847900390625000e-01
5.209945538265130516e-01,-3.818214237815184542e-02,-1.569064587600127458e-02,1.161039458635391595e-03,4.093035759556141150e-03,2.310810377169333473e-03,5.483411550521850586e-01
5.371916844256369172e-01,-4.699297830734580628e-02,-4.057491036780436211e-03,1.764902137841970961e-02,1.251088986344651988e-02,-2.456414739953776175e-04,5.651876926422119141e-01
5.557404574755964166e-01,-1.483251826568832143e-02,-5.409074102413380380e-02,-2.513561868796720250e-02,2.559633126041808981e-02,-9.223094091167177364e-03,5.946515798568725586e-01
5.389062270276825384e-01,-5.094327816922286645e-02,2.340000556239643648e-02,3.828281142728233097e-03,-3.256797176785295681e-03,-9.303032467487443863e-03,5.567166805267333984e-01
2.499168479705449475e-01,1.330375608680713084e-02,6.167806146990140181e-03,2.756220517200997939e-03,1.770896147573457549e-02,-2.989413246220140857e-03,2.423129379749298096e-01
6.007825728140534505e-01,-7.400417518259763683e-02,-2.177789970479265813e-03,9.792474758726049666e-03,9.151582074849023149e-04,-2.921200332355901666e-02,6.441109180450439453e-01
5.162153064684444903e-01,-4.630179318401875244e-02,-3.317871513675704764e-02,-2.951318223831977776e-03,-1.242927626118128055e-03,-4.387883365619023855e-05,5.560993552207946777e-01
5.354108099850871660e-01,-5.273681769922863860e-02,3.685261165463096789e-02,-3.650888826300407140e-03,-1.450775125596919651e-03,5.639658315143380660e-03,5.489934682846069336e-01
5.063801985345037782e-01,2.572679110400774571e-02,-4.971228782605599528e-02,-4.662920357111954850e-02,2.532636946544998199e-02,-1.999754063130118262e-02,5.316254496574401855e-01
4.116479596933150242e-01,-1.089418290762064756e-02,-4.538785618616408835e-02,1.146206091677624689e-01,7.343028057890248206e-02,3.617068672754654435e-02,5.038068294525146484e-01
4.967314373293140184e-01,-5.374421824681202553e-02,-2.904292130860641752e-02,6.447341346329591837e-04,1.785261379496103171e-03,3.362366982720478223e-03,5.385915637016296387e-01
5.074439444388090248e-01,-4.160698486730055046e-02,-3.425570549142048504e-02,-3.380639608375587274e-03,1.104796164067117087e-02,1.389583330320637820e-03,5.457847714424133301e-01
5.291136829160838495e-01,-5.529503868020407831e-02,2.030555799660502259e-02,6.875387115717399369e-03,1.280570980916965855e-02,-1.734253270302441073e-03,5.510990619659423828e-01
5.569958048172883869e-01,-4.755923461191435830e-02,-8.384513250445202459e-03,-4.509009088272702970e-03,1.028562825196650387e-03,-5.044718409203450757e-03,5.860705375671386719e-01
5.449142680757326218e-01,-6.150376573584773188e-02,3.514538869404573718e-02,2.371769336300698361e-03,-5.383550449336359754e-03,-3.440637888168913278e-03,5.644585490226745605e-01
4.794340827495743862e-01,-5.349059450759263701e-02,-2.004118616504335648e-02,-1.939875721111028071e-03,-1.493343034549995084e-03,6.384357742653816274e-03,5.171477794647216797e-01
5.347991283977013843e-01,-4.908091599325697940e-02,-1.501614751017865679e-02,3.161378106548097533e-02,-1.549956537867474247e-02,-8.228639857673372693e-03,5.710592865943908691e-01
4.966441690983899870e-01,-4.945007330767312026e-02,-3.317135866066259209e-02,-1.109597483187741481e-03,2.551648579616026401e-04,8.897327219464918474e-03,5.383638143539428711e-01
4.608360971496474612e-01,-2.779092720949866147e-02,7.875439247934573617e-03,9.305900112268818136e-02,-5.112524013751412744e-02,-4.277202881816438707e-02,5.117719769477844238e-01
4.502084919361190596e-01,-2.170411322967957801e-02,-3.305704383874710772e-02,-2.447289080628928834e-04,3.178463573103558829e-03,1.042385618346571355e-02,4.780632257461547852e-01
5.522587075013418723e-01,-6.040795154209452344e-02,-8.263207287263957257e-03,2.469024768816710166e-03,-1.114334219884888753e-02,-1.085058535875762511e-04,5.886620283126831055e-01
3.338381249270554463e-01,7.970998396194597935e-03,-9.081539242415670454e-05,1.174037391100136605e-03,-1.084836473274859020e-03,4.059169740981119837e-03,3.300583958625793457e-01
4.234937509924860399e-01,-3.235235790711499249e-03,-3.500836315857427938e-02,3.526151458257404617e-03,2.485593162155268297e-03,5.161632212407544010e-03,4.436230659484863281e-01
5.327434790006155829e-01,-4.596123953869038492e-02,-2.075414168698053174e-03,5.358378677118584739e-03,-4.010916834025973765e-02,-5.580754582011768911e-03,5.625246763229370117e-01
4.752009217967508303e-01,-1.927501904709655323e-02,-4.659844454098882593e-02,5.671741732694475513e-03,2.312442639284923232e-02,1.734271633312655693e-03,5.103660821914672852e-01
5.317008997493714029e-01,-4.886913067780002118e-02,-8.768918050196861103e-03,4.850374617231104947e-03,1.358242327893416715e-02,1.745778529326666396e-04,5.621500611305236816e-01
2.524547897409766817e-01,2.369323091008769533e-03,-8.795359181951509231e-02,-7.677854571807772588e-02,3.797835069726931273e-02,-1.575887123643314458e-02,3.406557440757751465e-01
6.256902525031549089e-01,1.624887226606203106e-02,-7.352873567087542250e-02,6.167385860976166284e-02,-4.069531518367998195e-03,-3.676769571817629922e-02,6.706036329269409180e-01
3.965559662998511814e-01,-1.916909847324502203e-02,-1.207494294187239081e-02,-2.118649657141997728e-03,1.720760411143398079e-04,1.002154119067629259e-02,4.126054942607879639e-01
5.726277939204796885e-01,4.487442411715036883e-02,-5.645849885726392237e-02,-1.844608116515641105e-01,3.293135242747711328e-02,-5.477532188958507062e-03,6.690976023674011230e-01
8.246182843151037556e-01,3.574396908205851320e-03,-7.518169994124107580e-02,-5.200436837910017707e-02,-1.236143657005199861e-02,-3.604998635353448555e-02,8.703151345252990723e-01
5.797039531847683058e-01,-3.924159305473404191e-02,-2.018685488966240338e-02,-1.060534130395997298e-03,1.823906025873070318e-03,-3.086367285879667091e-02,6.119917035102844238e-01
3.737592630134961569e-01,-1.182619868450587863e-02,-1.004687761906117305e-02,-4.450269184769087912e-04,7.089387432033215958e-06,-6.808872606252214764e-03,3.848803937435150146e-01
4.985832586178544634e-01,-2.971877559417557269e-02,-5.133704072733649704e-02,-1.414693753381623649e-03,-1.426289442919885520e-03,-4.379160383424928089e-03,5.395007133483886719e-01
5.511863644857702971e-01,-4.875934769376330524e-02,-3.907358687091355698e-03,2.913701936834253367e-02,7.601339670307664768e-03,-1.746919076011856087e-02,5.819566845893859863e-01
5.056015737850003688e-01,-5.008739808930376403e-02,-2.929900382391487090e-02,-4.155560140422284027e-03,3.391257984075149879e-03,2.377022277762089707e-03,5.456864833831787109e-01
5.868854910871538211e-01,1.555369322124897091e-02,-6.962458214296296521e-02,9.793872289675646658e-03,1.729717938556878110e-02,-3.503609281148407223e-02,6.222606897354125977e-01
7.351813677852958584e-01,-4.514869478678568138e-02,-7.330549691857496386e-02,-3.958376318906489666e-02,9.634461297926706635e-02,-7.134174961571429496e-02,8.243153691291809082e-01
4.828734966007630636e-01,-4.297702722458260349e-02,-3.254968945578384787e-02,-5.107293792383530047e-03,8.497439864935019301e-04,9.477590666554121940e-03,5.210510492324829102e-01
5.736573151415704785e-01,2.628247733809374598e-03,-3.255526779180856201e-02,4.498386872864233027e-02,-2.243718238569089238e-02,-5.107378000656800227e-02,6.023366451263427734e-01
4.801088891847500872e-01,-4.626983681553351047e-02,-3.390112860887720125e-02,2.371851691663804176e-02,-1.553375511175596885e-02,8.038323156332715866e-03,5.228024125099182129e-01
4.243514414678664082e-01,2.549041098469975730e-02,-2.280393344036793501e-02,-1.022528688739544889e-01,8.796096648173100385e-02,-4.326684302261863541e-02,4.907948672771453857e-01
5.300998350497330147e-01,-4.085078271095007874e-02,-3.942659865725720025e-02,-8.773256370578587024e-04,-7.565234406746701966e-04,-6.130571976893105278e-04,5.702443718910217285e-01
5.269539190657750449e-01,-3.849045998211186870e-02,-3.593756562369262997e-02,1.046767390964151341e-03,-2.840709216719383180e-03,-7.672367436138073822e-04,5.641981959342956543e-01
4.390271024422424118e-01,-2.422486468313192476e-02,5.594287374161843740e-04,-7.933603222681714917e-02,1.280788089357261239e-01,-3.555394042842378866e-02,5.249977707862854004e-01
6.578881970018068959e-01,-4.469081060481244760e-02,-3.661921627523259670e-02,-5.770584884108650482e-03,1.549409664314558566e-01,-6.557239499648188918e-02,7.569879293441772461e-01
5.199416277322044255e-01,-4.773009265514088773e-02,-3.404380494629030696e-02,1.354806234227877177e-03,6.571689784775982830e-04,-2.680988883774293365e-03,5.609790682792663574e-01
5.268937869761598503e-01,-2.871429216327398004e-02,-4.096860153022699458e-02,1.512038729856965760e-02,-3.022711467698481914e-03,8.199985697713546573e-03,5.626491904258728027e-01
4.997998612569051202e-01,-4.632166555146199904e-02,-2.860899084317980456e-02,-2.002326132932870026e-03,-1.212758043766470027e-03,-8.293463416491300699e-03,5.376913547515869141e-01
5.026871899619134165e-01,-4.036943121047611993e-02,-3.191818209059205103e-02,3.888722922027098607e-03,-1.706554863381521325e-03,-5.129455093983964487e-03,5.390041470527648926e-01
5.403605953744778922e-01,-3.955950405531166725e-02,-1.994923317539176733e-02,-5.892402144442475051e-03,-1.997289294475071680e-03,-2.273289079931427661e-02,5.718268752098083496e-01
5.227375179529875071e-01,-4.133615925099343169e-02,-3.707539602063714135e-02,8.360603810406291858e-04,4.424537346538173137e-04,-3.426288288792581418e-03,5.619891285896301270e-01
5.118050599606037698e-01,-4.684544554260264282e-02,-3.578073984027244081e-02,-9.819193377150065016e-04,-1.745803518417083765e-03,-5.755503297054734464e-03,5.533018112182617188e-01
6.096787512229410178e-01,-3.461168995702837425e-02,-2.136744737355550372e-02,-1.768915739603939621e-02,2.062439840255411716e-02,-4.154220434322841715e-02,6.435406208038330078e-01
5.419128285054130023e-01,-5.445452629817076895e-02,3.262188849863026374e-02,-4.176720643794987024e-03,9.441963273373428977e-04,4.512962471643520816e-03,5.580527782440185547e-01
5.079898726614362481e-01,-3.521291100534038043e-02,-4.635072915982105246e-02,1.326815852930672340e-03,2.218536249294038656e-03,4.364120268490254313e-03,5.489267706871032715e-01
5.375286891195573125e-01,-4.398268748996106425e-02,3.052582472939693869e-02,-2.386695960591008142e-04,5.451807969740606746e-03,2.123827341598689966e-02,5.493832826614379883e-01
4.967427419116297038e-01,-2.754624670770566830e-02,-5.068017581409411942e-02,-1.127271826016989050e-04,4.324630060786961716e-03,6.550473408819861877e-03,5.364027023315429688e-01
4.892542184844683728e-01,-4.797325418946210562e-02,-2.878795308874781966e-02,-4.396821154752816006e-03,4.500783337996097644e-03,6.652551214740822817e-03,5.281345248222351074e-01
5.041255580635970457e-01,-4.551913488450720635e-02,-3.640377381917286881e-02,1.132656027467977876e-03,4.337013471272977913e-03,1.918618628002669371e-03,5.452095866203308105e-01
4.502829759127094933e-01,-2.153403425552524730e-02,-3.390836017234766242e-02,-1.996779262516988954e-04,3.404166102684798301e-03,1.076556366856013316e-02,4.785242080688476562e-01
4.891894798245762233e-01,-3.600347835155418008e-02,-4.555915593095405391e-02,8.724963470850162755e-04,-8.147309086283863991e-05,1.037146239120039642e-02,5.303419232368469238e-01
5.915510124075170628e-01,-5.249023666060290139e-02,1.459460355749814253e-02,-9.070501860179215961e-03,-1.190903224058239840e-01,5.755975155633036994e-02,6.548418402671813965e-01
5.064140537521830687e-01,-4.438622047959001060e-02,-4.351163899307541882e-02,3.210706191861832431e-04,3.867749221455298514e-04,7.877028219472144779e-03,5.505332946777343750e-01
5.175224627919530196e-01,-3.039857522486139052e-02,-3.323653091810777060e-02,1.980577209689938015e-03,3.322908226011640244e-03,4.730593829868604992e-04,5.493869781494140625e-01
8.450672173373917628e-01,-7.980468107746335749e-02,1.707916607723874991e-02,7.057929044780586469e-02,-3.087460767507617040e-02,3.004513991683467264e-02,8.920097947120666504e-01
5.038170063708850011e-01,-3.697480021591173505e-02,-3.265636164505192340e-02,-3.202871311826407247e-02,1.134159953957894484e-02,-8.903126240697503680e-05,5.418509840965270996e-01
6.054898846624190423e-01,-5.076272714201959801e-02,3.003472938423099037e-02,-3.189644810667562058e-02,-7.847510029762064243e-02,4.404607671931133617e-02,6.414978504180908203e-01
4.701094250209630343e-01,-1.526565496142129330e-02,-5.025435933769098473e-02,1.891126665721970307e-03,1.258214346715712251e-03,3.756415584698873013e-03,5.038388967514038086e-01
4.384098255839681824e-01,-2.128716428020402396e-02,-3.432195983938921002e-02,7.466001290239928116e-04,-5.600450115123980317e-04,-6.820951632597519951e-03,4.665034413337707520e-01
5.291951898385955921e-01,-3.245627926349448078e-02,-2.091734994450378249e-02,2.914397014093377068e-03,-3.139138105498612535e-03,1.504099338198535384e-02,5.566313266754150391e-01
5.085825119252276316e-01,-2.978559839724034819e-02,-5.375973935066169496e-02,-3.352295426689705631e-04,-1.207605650788164727e-03,-2.295347100649977167e-03,5.507652759552001953e-01
5.919663474630558753e-01,-3.664873457470410600e-02,-9.627960591896633780e-03,2.149445498169873583e-02,2.125243676975043308e-02,2.733352505199087082e-02,6.195835471153259277e-01
4.542695649686954162e-01,-1.191910661551781603e-02,-3.016730613035287223e-02,-4.256701281292023242e-02,8.475535816200955100e-03,-2.085027293766508229e-03,4.814938902854919434e-01
5.265622407974035468e-01,6.896205842179925494e-03,-4.177869352904878264e-02,7.824582663056170798e-03,9.387520468082791170e-03,1.000136329617074297e-03,5.460473895072937012e-01
5.263798136511965708e-01,5.648795819616442282e-03,-5.395225718761961775e-02,-1.766673796754479261e-02,5.446069020606867338e-03,-1.020721708302480164e-02,5.541543960571289062e-01
4.703196713668198470e-01,-2.132798304798003142e-02,-4.594107733233457336e-02,3.605478130443013338e-04,1.685650098231453045e-04,4.622576164931080714e-03,5.044687986373901367e-01
5.065161412301457666e-01,-2.690906766079617651e-02,-5.610357816494129790e-02,-1.504816190129024036e-04,2.660663078578423026e-03,1.256366095614892603e-03,5.486291050910949707e-01
5.103841370399679889e-01,-3.631310385014896447e-02,-6.167746933863377246e-03,7.707525330602151351e-03,2.451413855653333720e-03,-2.902710463140385604e-03,5.324732661247253418e-01
4.797162729676075488e-01,-1.617191098631945434e-02,-5.053655389049568902e-02,2.691103782989659465e-03,1.151888936265882098e-03,-3.675871144125920659e-03,5.139973759651184082e-01
5.206328503503976357e-01,-3.790734373413293112e-02,-4.619908692809049366e-02,-1.326346569604986824e-03,6.824990045952866909e-03,8.972702578204645014e-05,5.628607273101806641e-01
5.209315876019469105e-01,4.939477655183488469e-03,-4.373961935594455896e-02,-1.860551642476031622e-02,-1.565459148646899425e-03,-7.386209968955780546e-03,5.430884361267089844e-01
4.975078848072461146e-01,-2.400581587548977769e-02,-4.774908851579243163e-02,1.029044850051733006e-04,-2.359468864855882638e-03,-8.943138464947614913e-03,5.340219140052795410e-01
4.232555300497693462e-01,-1.350104106163568796e-02,-3.490911723335382577e-02,4.820630981546336949e-04,-2.253525055148293847e-04,8.904772931745445427e-05,4.478455185890197754e-01
5.240344853608616127e-01,-5.393640141417160860e-03,-3.021756738309971935e-02,7.591900905213123593e-03,-1.579398425132646404e-03,-4.958104501331079585e-03,5.425006747245788574e-01
5.193733285426380686e-01,-3.408980411823619994e-02,-4.804245763491832300e-02,1.210264022776980563e-03,1.919247028720416030e-03,-2.527870660631128565e-03,5.606005787849426270e-01
5.230036436054243953e-01,-3.442023305403515976e-02,-2.510342518261260425e-02,-4.244356280010270523e-03,-5.086805715600374762e-03,1.186976495222245983e-03,5.529472827911376953e-01
5.188816402793696714e-01,-4.661015053752171067e-02,-3.454761504618406032e-02,-1.347993164802427802e-03,-1.271843442594820751e-03,-3.168705948920185009e-03,5.595941543579101562e-01
5.192673433617365220e-01,-8.791078821161035783e-03,-1.810023758730350263e-03,-3.795571627698909531e-03,-6.100626175266040015e-03,2.257336281249661819e-02,5.262048840522766113e-01
4.657835255290768139e-01,-4.741647373850724212e-02,-2.365284665646524842e-02,1.594674547518595484e-02,1.531651956688483834e-02,-4.145355656162222520e-03,5.032511353492736816e-01
5.258610062485291614e-01,-4.102679013365662097e-02,-3.691700567854430681e-02,7.488242303556150474e-04,-3.465871744511112517e-04,-1.081469057656489442e-03,5.648490190505981445e-01
5.308446088881182412e-01,-3.708644553432394186e-02,6.380731014063917295e-03,7.537961176821797796e-03,6.488144401634296510e-03,7.394724649508156548e-03,5.479137897491455078e-01
5.114915723835177230e-01,-5.028928341120342260e-02,6.981068412803825840e-04,4.138417267370632390e-04,-1.861442156679254598e-02,2.334418879620637349e-02,5.405817031860351562e-01
4.593233824244908337e-01,-8.347137018928765806e-02,2.850702764549453705e-02,-4.306964657722506598e-03,-1.124423544106790962e-01,4.125739965880679400e-02,5.380297899246215820e-01
5.151310270219069398e-01,-3.624775801521068486e-02,-4.852274092689043417e-02,-2.178348816886234093e-03,-1.666840129880373328e-03,-6.616931288086846420e-03,5.577555894851684570e-01
5.113179772427178804e-01,-4.256642951540084985e-02,-3.585469341265856702e-02,-2.116421364930014433e-03,-1.774777759874619776e-03,-7.808608692719340959e-03,5.507460832595825195e-01
5.266398665946834257e-01,-3.322043963879633965e-02,-3.383856026485959623e-02,-1.963558706812933933e-03,7.688352384538246591e-04,7.520094118999806924e-04,5.601830482482910156e-01
5.518812857766601798e-01,-6.163911602194063755e-02,2.752389943270411310e-02,6.497940482762626542e-03,-3.702175347073379669e-02,3.197750687764730482e-02,5.804827213287353516e-01
6.151882752772357410e-01,-8.082903339776720264e-02,4.547825343972780598e-02,1.595493733463099195e-02,-1.389722881574001652e-02,-5.068544450680101225e-03,6.433519124984741211e-01
5.180199541569778798e-01,-2.377759309164681478e-02,-1.199308430314460772e-02,-3.789113026001658495e-03,9.556612832333442322e-04,1.098827986387302183e-02,5.363829731941223145e-01
5.515142551097969026e-01,-4.754490720340379117e-02,1.976127444792744048e-02,-3.806639914769104766e-03,-3.071970283102234966e-02,3.404885770764972536e-02,5.739635825157165527e-01
5.232080789064398330e-01,-4.306912180316135874e-02,-3.961433960064708604e-02,-1.339653911668884593e-03,-1.764190440495715974e-03,-4.942770739518215738e-03,5.646356940269470215e-01
5.055611464567894009e-01,-3.928424396686505671e-02,-4.123957429328467539e-02,2.406219308175213398e-04,4.210244928238706741e-04,4.253981948544608739e-03,5.458760857582092285e-01
5.045746916427711337e-01,-2.684662140343044290e-02,-5.286757428470226228e-02,1.135744708159203750e-03,-4.433215585183808427e-04,7.359976935329193065e-04,5.449035763740539551e-01
5.136585641047399786e-01,-3.967005663429187812e-02,-4.978063091897408365e-02,9.585573522089128233e-04,-8.998776815103896973e-05,3.471633099025783244e-03,5.584874153137207031e-01
5.097360757530107200e-01,-3.948596637497622797e-02,-4.642332534259260846e-02,3.874444831879112036e-04,2.801273293059461204e-03,4.511155272533243568e-03,5.528002977371215820e-01
5.070232759767083763e-01,-4.788407750815343311e-02,-3.746612963352149994e-02,5.579230391557441762e-04,1.895357538129652025e-03,3.044361749056020972e-03,5.498083233833312988e-01
5.025525611534933379e-01,-4.869769782651781065e-02,-3.333812558178156360e-02,-1.714308441686917183e-03,2.310513273104643217e-03,1.213544452492607614e-03,5.437601208686828613e-01
5.171788738695575205e-01,-3.852452231731051668e-02,-4.777963349421174288e-02,9.173548163061188369e-04,2.274584214385267852e-03,1.316733813913164132e-03,5.604090094566345215e-01
5.691428614525505525e-01,2.200538171005583798e-02,-9.838939379487277037e-02,-1.334837348069420893e-01,7.213018397290645034e-02,-4.443073700388323194e-02,6.743227243423461914e-01
5.535860059791288812e-01,-7.449979130262626703e-02,3.961410870498904835e-02,3.634533045575001793e-03,7.641063373313782686e-03,2.038918842503343373e-03,5.797134637832641602e-01
5.432037374607427971e-01,-5.526759292760635711e-02,3.025709046082336595e-02,2.677917827360153108e-05,-6.376493186295464737e-03,8.057833201111339093e-04,5.607336759567260742e-01
5.877886292017677761e-01,-6.454292958811647107e-02,1.437287308040405276e-02,-3.414415853302028500e-03,-1.909582597758902739e-02,1.527898585207305635e-02,6.181538105010986328e-01
5.046061023056279682e-01,-2.974531053424123161e-02,-5.036300025913895140e-02,6.855211818523545978e-04,-9.923647477104323347e-04,1.997582152717749387e-03,5.449678301811218262e-01
2.481958551075023889e-01,2.823810327250516478e-02,-9.919825141996047035e-03,-1.130384800597274697e-01,1.780685675126418566e-02,-2.355635668792506465e-02,3.149279654026031494e-01
5.060511457460153961e-01,-2.979316925918709669e-02,-5.361093991201842934e-02,2.380184219656282074e-04,-1.184967967832983827e-04,2.870904019731134772e-03,5.481641888618469238e-01
4.021115966150572985e-01,-2.009015908658334792e-02,-1.422288282506045665e-02,-5.976873695855218493e-02,1.599576410065344997e-02,6.549672026444954172e-03,4.329258203506469727e-01
3.038802563828203462e-01,-1.817955920960026561e-03,3.127184340916522309e-03,1.417626404950064062e-02,7.279161961257418767e-02,1.044437637209890378e-02,3.298335075378417969e-01
5.032561387831474553e-01,-2.785482151350443525e-02,-5.849984945219938171e-02,1.299375651518582106e-03,-1.439418753447913035e-04,3.801212519704242742e-03,5.471218824386596680e-01
5.186246753818741784e-01,-4.213749420442911009e-02,-4.308142969746239781e-02,6.112636711174470076e-04,3.346951139564842024e-04,3.712402099808919439e-03,5.612728595733642578e-01
4.515551489376241068e-01,-2.168580944461581672e-02,-4.513789464511391847e-02,-1.151438107426709092e-03,7.942491787812678032e-04,8.157297279323239003e-03,4.856037199497222900e-01
2.410070991477952784e-01,-6.921496574292668180e-03,-9.131945560103674198e-03,-8.468355631939349093e-02,1.119981715410415732e-02,-1.537739871143174904e-02,2.908971011638641357e-01
5.067128358452199777e-01,-5.506439245411465233e-02,-3.154527558318120928e-02,-1.637030282292500222e-02,5.682934106895689078e-03,-1.965381705982042451e-04,5.512125492095947266e-01
3.438987129628244821e-01,-2.499526877128344093e-02,-7.152238541249938963e-03,-9.736455271375556164e-02,-5.075626546757155792e-03,1.671306637143483596e-03,3.979248702526092529e-01
5.075084455309314402e-01,-3.322944668884944552e-02,-4.949129101937072006e-02,1.248714704988845891e-03,1.230878547555090165e-03,1.711175399061512026e-03,5.490658879280090332e-01
4.225195763543721506e-01,-4.103079850357488345e-02,-8.389022855582628502e-03,5.791788438395638881e-05,-4.978605538057845364e-05,-3.533649069659469417e-03,4.481638073921203613e-01
4.992463267762793366e-01,-2.267842646793016836e-02,-5.752656494760416406e-02,2.714741712917071738e-04,-7.292174337468818306e-04,-3.303525245122296131e-04,5.401945114135742188e-01
3.568940946748346832e-01,-7.213625112956284502e-03,-1.492968886217707625e-03,-2.158873399562264914e-02,2.455381257386713215e-02,7.503545373906669869e-03,3.659235239028930664e-01
4.805399780864711978e-01,-2.317237050196221948e-02,-5.068672986029698624e-02,8.716063851117440654e-04,1.180137600801717344e-03,-1.415406204770852422e-04,5.180241465568542480e-01
5.131589979984956251e-01,-3.281869147493801653e-02,-2.636475738873275687e-02,-5.924038776782487902e-04,-2.077997224463543069e-03,1.217939915128704961e-04,5.427924394607543945e-01
5.193656640256520962e-01,-4.494265977977607296e-02,-3.942245693399443196e-02,2.187926900766421281e-02,2.257349683420623726e-02,1.003396410912225575e-02,5.644697546958923340e-01
5.025949822282809176e-01,-2.419626688775827761e-02,-5.341046034745169924e-02,-7.732325995337426374e-04,-6.061673877516105631e-04,-3.047467689388769045e-03,5.420175790786743164e-01
4.133074225169905969e-01,-1.556392184376453880e-02,-3.288440254935887097e-02,-2.973082924418999403e-03,5.789454588444428729e-02,7.952412641807519306e-03,4.493667483329772949e-01
5.121014801135277406e-01,-3.030285993129050448e-02,-4.804270003675062406e-02,-1.763178236611134776e-03,-8.755504507189669277e-04,-4.067376569899688356e-03,5.515438318252563477e-01
5.128402238166201998e-01,-3.090364952627416839e-02,-5.385234735212932056e-02,-1.622673556560246281e-03,-2.393953956797665716e-03,-9.320412751439232594e-04,5.555987358093261719e-01
4.617041704025860727e-02,1.055528946142320415e-02,2.328698249482822474e-02,2.781275018256403053e-02,6.628470600016335423e-02,-6.480235823877956080e-04,1.283743977546691895e-01
5.205109967045411512e-01,-2.350821044114878577e-02,-1.671723541301128879e-02,2.751571308503792789e-03,-2.085566312861283390e-03,-1.331240706061627595e-03,5.406937003135681152e-01
5.171935030966230418e-01,-3.646096292965306240e-02,-3.758493860405878739e-02,3.393035191906700141e-03,1.689662189964291454e-03,-2.197331022269815237e-04,5.542563199996948242e-01
5.146559535328771862e-01,-3.827125109039991591e-02,-4.240749241294486382e-02,-2.730720256956545734e-03,-3.293805389747584376e-03,-8.611510220977395408e-03,5.552567243576049805e-01
5.241582326765228395e-01,-3.590846172238140732e-02,-4.533057508959084658e-02,1.556213428623864350e-03,2.299888743761642268e-04,-2.044992949947205350e-03,5.648543834686279297e-01
5.106696463237947459e-01,-3.603933293887348621e-02,-3.115934679415882647e-02,-5.369451774110930650e-03,1.616195614270523077e-03,9.652421602147226182e-04,5.443745851516723633e-01
5.189545186625509343e-01,-3.424844119866196634e-02,-3.671993285125854656e-02,-4.965334957672849943e-03,3.301288861798470139e-03,3.064144185983256989e-03,5.545644164085388184e-01
5.221470786675135312e-01,-3.650891187825286432e-02,-4.384770463709286581e-02,-1.721304886573262393e-03,-8.771695077673737377e-04,-3.129359532431537187e-03,5.623973608016967773e-01
5.163695440630935440e-01,-3.150281706479093891e-02,-3.409097917362358121e-02,-1.678316447442814417e-04,1.240764225474524137e-03,-5.346184431916126915e-04,5.491760969161987305e-01
5.278774111508282019e-01,-4.076813979764240536e-02,-3.978001959546986765e-02,-9.064588631176339652e-04,-1.261357416911120053e-03,-2.229910064574044774e-03,5.681716203689575195e-01
5.267633049722855176e-01,-3.414025168470641303e-02,-3.815861894020797229e-02,-3.394944606442515563e-03,-2.224456447533730216e-03,-1.169001505516395478e-03,5.629710555076599121e-01
5.150135909949261626e-01,-3.230725485250793283e-02,-3.743132249068034656e-02,-5.580100705903162477e-03,5.119102620659021947e-03,1.953244522836620600e-03,5.500676035881042480e-01
5.204836708764002395e-01,-5.002863082320690991e-02,-3.463760526152315222e-02,-6.780032830581150805e-04,-1.119816551607933416e-03,-3.342682588678281934e-03,5.630089640617370605e-01
5.190191113406473766e-01,-2.329935014027451068e-02,-3.064828691572230035e-02,-6.791179070650920063e-04,2.327245375382698805e-03,-4.812131243750606378e-03,5.461097955703735352e-01
5.278290788473600781e-01,-3.876138351964605877e-02,-3.876262428148982697e-02,1.150319417137591276e-04,2.474504781196842224e-04,-1.674906799208444527e-03,5.665987133979797363e-01
5.290395201037320083e-01,-3.892857443465419509e-02,-4.060512388997905564e-02,-7.790989756992070707e-05,-3.079585677391476271e-04,-1.061397945993728612e-03,5.688114762306213379e-01
5.286831334784627412e-01,-4.079402181353097845e-02,1.028906863924311521e-02,-6.427819546988856316e-04,3.022134807847077966e-03,3.639378482281582262e-03,5.457943081855773926e-01
5.241214810536902746e-01,-4.279516565254498639e-02,1.045662925816162603e-02,-4.351105879752664024e-03,3.904975673023454441e-03,4.000072835012614091e-03,5.423941612243652344e-01
2.639742473275986101e-01,9.439480299886143788e-03,1.352373579718542385e-02,3.430265302214184631e-02,1.239266795026003169e-02,5.002124170343201504e-03,2.604435682296752930e-01
5.839798485782365933e-01,-3.967889358130785582e-02,1.474624750036152010e-02,-1.063148363987849281e-02,-1.331916953247402197e-02,4.014735490528872908e-02,6.030558347702026367e-01
5.267366387735452626e-01,-5.330942222243406636e-02,4.122114238227767014e-02,1.605947064002411591e-04,-3.730823653504112235e-03,4.125883773427797829e-03,5.391198992729187012e-01
5.000723121199469601e-01,-1.834097225449657365e-02,-4.096242546552508745e-02,-4.124492881618319756e-02,-2.696337116245218699e-02,2.802393043270390120e-03,5.369352102279663086e-01
7.071624348885625633e-01,-7.020427349797875305e-02,-2.697696927695503177e-03,-2.678961115164229384e-02,-8.682360908543133859e-02,4.701748393510779556e-02,7.666673064231872559e-01
5.304737887553711007e-01,-5.500134433964923297e-02,2.943892149876423114e-02,1.538568814861837868e-03,1.682548597294778597e-03,-1.210392686858247384e-03,5.481729507446289062e-01
5.274114890599701511e-01,-2.903468611855919423e-02,-2.709334403457708262e-02,-9.610419066936285327e-04,1.719386411463236577e-02,-3.590520806591572002e-03,5.563130378723144531e-01
5.198272906593677245e-01,-4.617238630416320433e-02,-3.526735311175882570e-02,-9.042400358682185270e-05,-2.453524834421651462e-03,-1.830805477525444336e-03,5.606517791748046875e-01
4.284541175170590854e-01,-3.696397049944669111e-02,-1.354476536106344331e-02,-7.882589633163083554e-04,-3.219148707042468970e-04,-7.471353106824841963e-04,4.541658163070678711e-01
5.114151323561013651e-01,-2.977290724398398702e-02,-5.289585166666563310e-02,1.850411343341247950e-03,2.753717897560687810e-03,-2.359162463723861545e-03,5.531570911407470703e-01
4.126352464293072120e-01,-5.062052069264191823e-02,4.564072446962047502e-02,-2.587730488046504143e-03,-1.346965560106616056e-01,-4.226371226656021676e-03,4.835097789764404297e-01
6.538844748996373024e-01,-4.228153714860269363e-02,-3.599803783597940732e-02,9.575543071107092685e-02,6.586631908037476890e-02,5.144876976980081174e-02,7.271695733070373535e-01
3.114314596947790337e-01,-2.250136224032042720e-03,9.478930532853757640e-03,1.681979359628181080e-03,-2.456283355288998169e-04,1.076134074255125604e-02,3.085621595382690430e-01
8.321380545345314905e-01,-5.868758254396139185e-02,-8.048857166789014084e-02,2.247759412386837394e-02,4.280663103543729670e-02,-6.054699762260139922e-02,9.118537306785583496e-01
4.737918833548855346e-01,-4.002667384016111995e-02,-2.744005636423449412e-02,-1.899382323507960461e-03,-1.827874699747001610e-03,-8.066064836311691300e-03,5.078549981117248535e-01
5.286453406989095605e-01,-2.809956020439619007e-02,-8.800178052965457187e-03,4.238255002749315332e-03,-5.185312363912524328e-03,-4.122189268014531636e-03,5.475199222564697266e-01
2.646744600731741892e-01,1.688330594080743319e-02,1.990815545375275442e-02,-1.666638153138843583e-04,-5.256706477735666877e-03,2.817137660162187442e-03,2.465093582868576050e-01
5.232249053056274857e-01,-4.221675716264805533e-02,-3.607936916972340202e-02,4.369600086908557134e-03,-1.176424697940089102e-03,-1.643522992427678357e-03,5.624598860740661621e-01
5.323913868924006199e-01,-4.365894895130850717e-02,2.107423614203660089e-02,-1.089557267270568420e-03,1.136439073303040876e-03,2.689321231153890893e-02,5.485544204711914062e-01
4.923668647975348311e-01,-3.912391167594386765e-02,-3.503587525478490949e-02,-3.623981122391933905e-03,-3.264393135239587306e-03,-1.017355544480566358e-02,5.298190712928771973e-01
1.952858605558092930e-01,-6.518888135907800752e-02,-5.647377246822410379e-02,-9.761557898817032112e-06,5.128669123142086395e-02,-1.559604683760260242e-02,2.725319564342498779e-01
2.850302484749877019e-01,1.239605490607124938e-02,1.493839486465917132e-02,4.911977193570579502e-05,-2.085794770828762554e-03,8.871486325296849178e-04,2.714003622531890869e-01
5.177368223136015191e-01,-3.734348370218285029e-02,8.615494436220672014e-03,6.468816850874632967e-04,-8.329083332785834626e-03,4.302765503714720170e-03,5.338355302810668945e-01
4.847701550868490639e-01,-7.542132551129990259e-02,1.607520784923802126e-02,-6.422299386744670380e-02,-1.283402312347924346e-01,5.222846495193123051e-02,5.838676095008850098e-01
5.391454632461878393e-01,-1.788379936610018373e-02,-3.065195501499121122e-02,2.434614949497348243e-03,-1.944563333635401922e-03,-1.311030908510093032e-02,5.640050172805786133e-01
5.116992533055704229e-01,-1.498975897581589223e-02,4.962890629246236029e-03,-2.280881026737033388e-03,-2.029753121897954864e-03,9.923038484682736998e-03,5.173141956329345703e-01
3.057462743577725739e-01,-8.265234347852215557e-03,-9.702402177964969399e-02,1.389997250660452988e-01,1.090013485979976320e-02,-2.922590158177285416e-02,4.418532550334930420e-01
5.437824073400602254e-01,-3.333649550083861435e-03,-4.687922371206845740e-02,1.124505951292181132e-03,1.755588248123015477e-02,-2.281003426472977616e-02,5.723163485527038574e-01
5.228532221277516490e-01,-2.806949803707095570e-02,-2.875089764588120711e-02,-4.659139376120534533e-03,-2.628805886901949568e-03,3.897892384402490223e-04,5.513420104980468750e-01
2.931757606713869535e-01,3.830331670536868405e-03,1.078299984480385332e-02,-4.306963821781617172e-03,-5.468871548469445357e-03,-1.951018134633624238e-03,2.862065434455871582e-01
4.860409846871417971e-01,-1.931335150312865623e-02,-3.194129276247217875e-02,-2.571586820381442651e-02,1.370917805010110103e-02,-2.839029551425186620e-03,5.142917037010192871e-01
5.190426116484253560e-01,-4.556050621535964740e-02,-3.332167496955631969e-02,3.280419280663558605e-04,6.554935487432391556e-04,-3.145547901710747576e-03,5.586122870445251465e-01
5.151894886851842159e-01,-3.540845578462975540e-02,-3.407217697568820647e-02,2.963046780437814196e-03,-5.786342306868017850e-03,2.740088441926023344e-04,5.500465035438537598e-01
4.972317557860039816e-01,-4.106750923601051873e-02,-2.890579947251922799e-02,-3.554764969574276089e-03,3.264152850604532322e-03,2.252405836704269963e-03,5.324025154113769531e-01
5.144936274474500859e-01,-4.005503455789957701e-02,-3.141877458799566258e-02,-1.114221317052546331e-02,3.782717960061691281e-03,-2.185533858601105119e-04,5.506587624549865723e-01
5.018036601149564735e-01,-4.764805174155342660e-02,-3.302177211807338919e-02,-8.990035251865542915e-04,-3.135825966871931656e-04,1.067953532699621134e-03,5.422921776771545410e-01
5.302688420793604251e-01,1.415220784288573341e-03,-4.566075164558888733e-02,4.761912062813138460e-03,1.481566403091638543e-03,-2.619305353371310235e-03,5.539799332618713379e-01
5.851124206493860669e-01,2.943774198230203476e-02,-5.527843859808037608e-02,9.458027392069277839e-02,-2.471021918659252817e-02,-4.518703078791373728e-02,6.307293176651000977e-01
4.399074015926563996e-01,-4.885670015359919183e-02,-9.227698591044997123e-03,-1.567727982473360315e-02,-7.072325736745955875e-04,-3.695608563913866957e-03,4.710322320461273193e-01
5.121289112010547484e-01,-1.518552295085787152e-02,-1.188736122049693922e-02,-9.842217481130029373e-04,-1.760147992863519365e-03,5.266704311107198687e-03,5.257638692855834961e-01
5.292763339565194070e-01,-3.546277221728721951e-02,-2.236015297821525305e-03,4.800170157845155654e-03,1.160384785314028848e-03,-4.180290301880288696e-03,5.489948987960815430e-01
6.213261083393475381e-01,5.172192094252991978e-02,-7.697968302193691770e-02,-1.123023075946481403e-01,1.554920349733169248e-02,-5.248169514959853850e-03,6.730270385742187500e-01
5.499340018495240123e-01,4.019077609100371595e-02,-5.721956578329259746e-02,4.490933052882304342e-03,3.838684774158920756e-03,3.327319678597414395e-03,5.649062991142272949e-01
6.257275189982052233e-01,-6.074011414345956150e-02,-2.090805953368218839e-03,-3.771525148924298465e-02,3.989891447198709584e-02,-5.240474070235329185e-02,6.720852255821228027e-01
5.165557042216291084e-01,-2.069864109449290335e-02,-4.021780515790746025e-03,-3.076013344894007722e-03,2.326408508842066868e-03,6.098260699006716537e-03,5.292606353759765625e-01
5.182127254873485356e-01,-3.727309700693473560e-02,-4.513166837243565155e-03,1.067872604629261681e-03,-1.386326076183696382e-02,8.498101906855482293e-03,5.405892133712768555e-01
5.132963618649294402e-01,-8.982723956817484368e-03,-1.654364939230493214e-02,-2.109077369351753609e-03,-2.534550888126672029e-03,4.566822833773486780e-03,5.261907577514648438e-01
7.899568851867232455e-01,1.416618075158085355e-02,-1.045620789561326758e-01,-6.910793404235611448e-02,5.282117901639566543e-02,-3.173578291401522866e-02,8.566068410873413086e-01
4.525091637103121345e-01,-2.499758608018740058e-02,-3.415659879246274455e-02,3.011320479226346812e-04,-1.434389885222134037e-05,1.035005208207921863e-02,4.824849367141723633e-01
5.233256807671196054e-01,-2.342842978610962246e-02,-1.289683452710735367e-02,-3.382571895426280447e-03,-1.819071216202291542e-03,1.172406681916369521e-02,5.419865250587463379e-01
5.393342200808866060e-01,3.112120673324234033e-02,-4.894941770281693860e-02,1.147022324996310912e-02,2.017466335125512288e-03,-2.762330508956529606e-03,5.530049800872802734e-01
6.077688349788479272e-01,-6.200020692191210436e-02,2.846320492174655992e-02,-6.716970647702082998e-03,2.248857016801886211e-02,-2.206919703322675341e-02,6.319005489349365234e-01
5.124309473016812611e-01,-3.812826274459937825e-02,-4.097706421783833819e-02,2.025440957533792587e-03,-1.548552435570789247e-02,-1.508124393341455987e-03,5.526577234268188477e-01
5.201711114135041392e-01,-2.454425126640308319e-02,-3.793147069056593268e-02,1.684641288479348875e-03,2.459013542964154017e-03,3.435310382808684396e-04,5.515553355216979980e-01
6.324464863810566051e-01,1.624070914510855612e-02,-6.720968236681418295e-02,-7.581984093263030057e-03,1.063088565332263348e-02,-3.212161594225002720e-02,6.646074056625366211e-01
5.023828002651170577e-01,-4.391397681605824221e-02,-3.925952141587596422e-02,-3.294836782124532554e-04,6.675966443325548772e-04,5.580592265879160373e-03,5.440718531608581543e-01
4.906293147971185209e-01,-3.574663592075585927e-02,-1.314104850351160980e-02,1.550329876838343716e-02,-9.822275549598602842e-03,-3.422364212451324550e-03,5.164583921432495117e-01
5.250130559757777426e-01,-1.908746978326009147e-02,-4.816335280592662360e-02,-1.678476048753424488e-02,1.847408830317060586e-03,-2.505143948803518865e-03,5.599868297576904297e-01
5.263729170448001593e-01,-4.642288892636592390e-02,-3.527213475512913643e-02,-1.046570107240429566e-03,1.275444543588485783e-03,-1.862984557452714452e-03,5.673189759254455566e-01
5.155778473872959511e-01,-1.416702317190851601e-02,-1.142927742646820954e-02,-2.391166389690786275e-03,-9.322159288862179620e-04,8.655947818767351434e-03,5.286126732826232910e-01
8.376661397579010515e-01,-1.664267036170952174e-02,-7.062998268171577498e-02,-1.034421737937546090e-02,3.198605175096939229e-02,-4.383613388975717007e-02,8.877134323120117188e-01
3.573142802875939883e-01,-8.320686260343096441e-02,-1.432924113815957357e-02,-1.550222221241804449e-02,1.050529944300324647e-01,-2.834429795665064852e-02,4.524383842945098877e-01
3.766481158879988467e-01,-7.405000011661583281e-03,-2.277994173980155135e-03,-1.196765305907630632e-02,3.184125928341785539e-02,1.159747046362808939e-02,3.865602314472198486e-01
5.264226607742550357e-01,-2.650695536378641637e-02,-3.872482857413683810e-02,1.420751601798862784e-02,5.820538310839577269e-03,-2.727619546745789405e-03,5.597906708717346191e-01
5.714125287348528204e-01,1.390998203639479125e-02,-6.572605135619147276e-02,-7.114070269329191010e-03,1.481764057940452954e-02,-6.561132695107209541e-03,6.020697355270385742e-01
3.146668104993950443e-01,-9.860354448635533231e-03,1.232080767505472352e-03,-4.890475643845410697e-02,-1.237628427607699198e-03,8.957256682185660637e-03,3.305471837520599365e-01
3.868672977974418337e-01,-1.700445951484441665e-02,-3.232410560007767386e-02,1.676013356501297041e-02,-7.153286115967341652e-02,-5.037447175887461298e-03,4.310498237609863281e-01
3.066105798550770034e-01,-2.865891071096318687e-03,8.843455919347154026e-03,-2.392312829606801222e-02,3.956185197413918629e-03,-6.176317438727327216e-04,3.066823780536651611e-01
2.252937360603118055e-01,-6.618151765482516158e-02,-9.317781214133812051e-03,3.916156256405010916e-02,1.389693540303074681e-01,1.633442143518184370e-02,3.673631846904754639e-01
5.110279540107462992e-01,-3.650806875146178632e-02,-3.990505579670444725e-02,-2.114640394793382543e-03,-8.411820417028715137e-04,-2.608755578207869533e-03,5.492751002311706543e-01
5.516345149875676590e-01,2.406337523341578466e-02,-5.872955934238008324e-02,-1.303930543043517742e-01,4.890812875121009623e-02,-4.907693188490547254e-02,6.279122829437255859e-01
5.198089688505516115e-01,-4.785167621742572597e-02,-3.341996710160172190e-02,1.865034268158856671e-03,6.557047023344500470e-04,-2.583471481935327527e-03,5.606124401092529297e-01
2.921490275188100560e-01,-1.898578600548710138e-02,1.539171243749223872e-02,-6.307448588209292606e-02,4.105383261894326313e-02,5.955427461553011205e-03,3.230920433998107910e-01
8.079517225086071952e-02,1.085090015805243585e-02,2.160652605625238212e-02,-6.538757889933016765e-02,4.206398807571749832e-02,3.071982874993004712e-03,1.497285664081573486e-01
4.837194086665242421e-01,-4.903881523123637676e-02,-3.010774569735341633e-02,-5.555650187837567200e-03,-7.550940774848721553e-03,-6.445328972426049574e-03,5.239201188087463379e-01
4.633671399221052645e-01,-5.014310719770495584e-02,-1.608857253456086323e-02,-4.306412903320418206e-02,-1.070504479850590066e-02,-1.278084174550211602e-03,5.032666921615600586e-01
3.921249809443684842e-01,-1.624262052206451590e-02,-1.562716156613103147e-03,-4.220183816812215355e-02,1.892154687702135747e-03,8.214541066009235087e-03,4.080943167209625244e-01
7.709988173488629970e-01,-1.128768996689671900e-01,1.931325539336267716e-02,5.286852488868179316e-03,-8.270728051733856889e-02,1.309226539202313494e-02,8.384452462196350098e-01
5.402469970588508197e-01,1.233634536722066910e-02,-5.688838422517047966e-02,1.041432851469900264e-02,1.291199010370551025e-03,3.886624869943917124e-04,5.660008788108825684e-01
3.170339507566503623e-01,-1.015859324850564016e-02,4.487193410239870284e-03,-8.369233259180297027e-04,-2.310403976684364397e-02,6.020481607995232555e-03,3.227842748165130615e-01
5.203731751795149796e-01,-2.523476079442657505e-02,-1.467915706057235092e-02,7.211526812183658222e-03,6.498013769887565558e-03,-1.434425572848783623e-02,5.412395000457763672e-01
2.925476719780367718e-01,5.614815929320338128e-03,-1.956785096571807270e-02,3.545906062866985980e-02,-6.656837437770886379e-02,5.165575666788631629e-03,3.276225030422210693e-01
5.035406318722117636e-01,-3.138849259332598951e-02,-5.296596836133080077e-02,-2.605977849972115901e-03,-1.265484627618122457e-02,-3.516837106979662630e-03,5.465300679206848145e-01
3.107019203858700229e-01,1.109814558920954597e-02,1.552993848582415182e-03,1.504941330400270255e-02,2.212163790081190379e-02,-3.179195992287856595e-03,3.080441057682037354e-01
3.325261504340683016e-01,-1.245163672190389981e-02,-1.646668095909931129e-02,4.547510732303000625e-02,1.181729960340225510e-02,1.408441721242641165e-02,3.572518825531005859e-01
5.020508704915793707e-01,-2.323564986865067628e-02,-6.288968390407712050e-02,4.050977321655421792e-03,-1.908947492566690808e-03,-1.027728052598443718e-03,5.462521910667419434e-01
5.319645553336593835e-01,3.614504417987995932e-03,-3.642753935351977779e-02,-1.994248288887921512e-03,-4.357384486414168446e-05,-7.842573863145897023e-03,5.496451854705810547e-01
3.602399630034978095e-01,-1.161357436499532714e-03,-1.511568596254359020e-02,9.598076091766114329e-03,-2.452236177495715347e-02,9.785851680662354529e-03,3.717747330665588379e-01
4.606310950232014867e-01,2.836181381433378057e-03,-5.144552327610077413e-02,1.106706615379940417e-01,-5.977494450914022650e-02,-3.633359926117061406e-02,5.373975038528442383e-01
5.486964469256596644e-01,2.227264108496287975e-02,-5.473276722456035803e-02,9.950805860321890184e-02,-1.575721063375939285e-02,-2.921039468383909016e-02,5.971595048904418945e-01
5.078444175343846956e-01,-2.960187172475731154e-02,-4.957388282667940516e-02,1.408887469550089942e-03,1.232877968056582006e-03,-3.669312184348645384e-03,5.477519631385803223e-01
5.263859942765984901e-01,2.418287053247064611e-03,-4.450746905411037679e-02,-9.469326473489808257e-03,8.526351849284656212e-03,-2.746525815049204004e-03,5.494010448455810547e-01
5.216726144679868504e-01,-3.361663534423309230e-02,-3.395502215974036120e-02,3.765663119433742233e-03,5.953107890036712750e-03,4.422824679895256635e-04,5.555930137634277344e-01
3.496562946486039825e-01,-2.140743238511716440e-02,-1.073203831859062540e-03,4.012089661269902657e-02,-1.326118931713560732e-03,9.747790657372832485e-03,3.683420419692993164e-01
4.730107850532451197e-01,-3.829184928160986323e-02,-2.231034953304114610e-02,-1.912116499784219381e-03,-1.777789940453201748e-03,-1.146152739333999339e-02,5.039136409759521484e-01
3.736815488901015225e-01,-3.269007539143845009e-03,-1.791633085539554027e-02,-2.520768361923989963e-03,-1.896859400412558017e-03,-7.157116315538449361e-03,3.847221136093139648e-01
5.231871867990779412e-01,-3.974555843759353113e-02,-4.276113202352407883e-02,-2.044196541853421367e-03,-2.432239898557296380e-03,-5.027992663365072300e-03,5.645405650138854980e-01
3.144736765068479878e-01,-6.062761513698722293e-03,-7.501875233120805508e-03,2.727059970315776072e-03,9.049680775192037174e-02,2.598204367654863376e-03,3.575172126293182373e-01
5.235560575669480077e-01,-3.676984525108173418e-02,-1.663623297010180524e-02,7.181479251848549988e-03,-1.693425281024399723e-02,1.954149852370433806e-04,5.514564514160156250e-01
5.449821874012481526e-01,-1.593337191489696547e-02,-5.288405306593887967e-02,3.151917487838233611e-02,-5.431725115940275704e-03,-7.930925743412454987e-03,5.830740928649902344e-01
4.572729844520425080e-01,-2.657825877251207558e-02,-4.083715397389062196e-02,8.035710239631193522e-04,1.178696257415222024e-06,-1.064701277573242184e-02,4.914840161800384521e-01
1.421038568003964997e-01,-7.355496087219223766e-02,-5.339325953800679037e-02,-1.198207219520471510e-02,-2.650890302275415653e-02,-2.873282029585287264e-02,2.181347608566284180e-01
2.009781554077579024e-01,-7.610095974954467213e-02,-3.278321554367594204e-02,2.662316297502148599e-02,-4.821671988146052773e-02,-1.885613706753477489e-02,2.771541476249694824e-01
9.748739425615507437e-02,2.007599985292419370e-02,1.587331004016859226e-02,-8.515933728407360306e-03,-2.514488749885862920e-02,8.555487687444824881e-04,9.193518757820129395e-02
5.101843741685978539e-01,-3.651360848224644018e-02,-3.806475389787125629e-02,-1.615856828157720936e-03,-1.121085514107909679e-02,-2.418740836317770631e-03,5.478426218032836914e-01
3.896318882735237965e-01,-4.601143329290036110e-02,-3.330839245466735155e-02,-7.861412832883721280e-02,-6.773667454192897064e-02,4.503770931425506857e-02,4.720200896263122559e-01
4.829851894433483950e-01,-2.342395151533518960e-02,-5.553724017835837135e-02,-1.233305976387475723e-03,-7.368460876198563644e-03,-4.806986649757128381e-03,5.234316587448120117e-01
4.639570559936237459e-01,3.560943252752329924e-03,-7.293591589184780788e-02,8.595862025866814193e-02,-4.724598252819903893e-02,-1.541110572073428261e-02,5.316116213798522949e-01
5.123756275554010031e-01,-3.545459865008390721e-02,-3.633434723739101258e-02,-6.352582092546561190e-04,-7.713598171807838685e-04,-2.811874299234752659e-03,5.482950210571289062e-01
2.820121884701325965e-01,1.142379091104120392e-02,4.433830376863096001e-03,-6.177590224393153528e-03,2.352052043213505653e-02,6.369281947953978409e-03,2.775863409042358398e-01
1.465026623016542906e-01,9.939115869750814874e-03,-5.840429003050084944e-02,1.445404278731967501e-02,3.902784882814678419e-02,8.929601789506813559e-04,1.945566982030868530e-01
2.057645151459393251e-01,-1.147172712956840562e-02,-7.808660198686311060e-02,-7.228452451387032407e-02,3.131782319336823273e-02,8.045614830720394794e-03,2.913967370986938477e-01
5.313617854634413717e-01,2.585586265310912957e-02,-4.612151540583150910e-02,1.534072815572066172e-02,5.238144156040120195e-03,-1.651089055965436828e-02,5.465419888496398926e-01
5.501320839882511970e-01,5.695224942785959144e-03,-4.314149767355174303e-02,-1.533673878588226523e-04,6.114349115580836394e-03,-8.860514645311299078e-03,5.707300305366516113e-01
3.799214856607791568e-01,-1.942930620986521584e-02,-5.742954258169896686e-03,-7.794949258977739662e-04,-1.051145487078986810e-03,-6.362988448741819722e-03,3.928476870059967041e-01
3.792381743120226689e-01,-2.088662869250440535e-02,2.102199152447262187e-03,-7.191382100090952089e-04,-7.070755540384140395e-04,-9.632153318522915578e-03,3.895013928413391113e-01
5.205671670505125359e-01,-3.383390170995617674e-02,1.831161679954340649e-03,1.020790396006238018e-04,-4.643419667095338363e-03,-4.087577398924329558e-03,5.375636219978332520e-01
4.839756868655089028e-01,-5.537056822709252035e-02,-2.716931413747120105e-02,3.467600148457990888e-02,1.388346337659642112e-02,-1.718314608628670765e-03,5.297865867614746094e-01
5.318684305303394977e-01,-5.753495622559551270e-02,4.125951246191611466e-02,4.436421860364664349e-03,-1.972831434839487745e-03,1.809224399916053950e-03,5.468157529830932617e-01
5.489217993941205576e-01,3.454698715386017582e-02,-6.194322135754309899e-02,-2.723374978588503394e-03,2.703066418385156443e-03,-2.635635887603471946e-03,5.688487887382507324e-01
5.124259901476821977e-01,-3.190407730703281874e-02,-4.154919935858572555e-02,-2.067399407059794005e-03,-9.285726014587077429e-03,-2.367221078021987824e-03,5.494785308837890625e-01
5.321200142334054917e-01,-5.589703214384050822e-02,3.161347634276590046e-02,5.073633077207118439e-03,2.123223595813240796e-03,-1.827627504489507098e-03,5.496045947074890137e-01
5.026463503358331586e-01,-3.017630985595931570e-02,-5.433718473013016137e-02,3.234392314045134078e-03,-3.483112426455378836e-03,3.088241030711449692e-03,5.453930497169494629e-01
7.691702112243410383e-01,-1.174890738896595122e-01,2.372478242707570795e-02,2.371695723333276315e-02,-1.150621393970178985e-01,5.937679041689777025e-03,8.499462604522705078e-01
5.196773572224644422e-01,-3.485139755713947962e-02,-2.104987965202226308e-02,2.498008988704602477e-03,-7.682864012892335823e-03,9.365573789983841881e-04,5.479395389556884766e-01
5.016878630230994229e-01,-2.577818947090484980e-02,-4.557402090117038118e-02,9.556424983218705232e-03,-7.414358161390700516e-03,-1.830095246795646101e-03,5.380547046661376953e-01
4.646962072952452449e-01,-2.686590371500363617e-02,-4.193457120277602201e-02,3.195323631137474661e-03,-1.307566963427980733e-02,7.483160583901020402e-03,4.999791085720062256e-01
5.019953940218249144e-01,-3.297108032885137652e-02,-5.072370387003752312e-02,-1.257980716537083913e-03,1.297243377437216146e-04,1.592221022069214079e-03,5.440714359283447266e-01
5.174183924234871945e-01,-3.256242996425484648e-02,7.232025006013748092e-03,1.245101313640844609e-03,-1.524077260986215912e-03,-5.334539128089740324e-03,5.312939882278442383e-01
4.830377696011168287e-01,-2.035439330964539106e-02,-5.807773721409376089e-02,2.091156469059338944e-03,-1.037305712737792047e-02,5.057995961075419360e-04,5.235962867736816406e-01
2.795935425733327984e-01,-8.631542702406100331e-02,-1.213999237243308660e-02,-1.438961102397219582e-02,-8.869796326675277731e-02,3.104511474977643491e-03,3.694617748260498047e-01
5.253337484684349468e-01,-4.672675089457001274e-02,2.219721546457564809e-02,4.119291636344508088e-03,9.455819439926549039e-03,-5.858267491697133648e-04,5.411979556083679199e-01
4.677787242976297888e-01,-2.669561130801478832e-02,-4.565240794426939086e-02,1.247137058631354184e-02,-1.948171013277107816e-02,1.028508896142187913e-02,5.061229467391967773e-01
4.792660266375526890e-01,-3.170939685655790874e-02,-4.228000476360438409e-02,1.947573410132272785e-04,-4.661932132595977309e-03,9.655206519878277091e-03,5.166758298873901367e-01
4.666233547138036175e-01,-3.519270049049083582e-02,-3.231594240973229004e-02,1.660049601121451474e-02,-1.210271355072389983e-02,1.012366525763637969e-02,5.019538402557373047e-01
6.051192159910867563e-01,-3.605426219700011425e-02,-4.190194095379443096e-02,1.660872767752214207e-01,-1.068210123071961642e-02,-7.924545099334795450e-02,7.189045548439025879e-01
3.891682401266514657e-01,-2.795697326935361882e-02,-1.231073404202470689e-02,-9.497419098422243066e-05,-1.995213873422593711e-04,1.187201728514092509e-02,4.100424349308013916e-01
6.964235360967436783e-01,-1.152343668389610443e-01,1.178449340431550474e-02,2.835679280930730739e-02,1.159262209564509288e-01,-6.456538707051370091e-03,7.840156555175781250e-01
5.188255525015592617e-01,-4.801169151703651994e-02,-3.073596762047781095e-02,4.901335318612629922e-03,-7.416829325642028533e-04,3.231444198085396593e-03,5.584939122200012207e-01
5.008860453797778778e-01,-2.808126135176991500e-02,-5.030093761566867272e-02,3.474815556259713660e-03,-6.526947347289690886e-03,4.907358674773384423e-03,5.406383872032165527e-01
3.671697800779501475e-01,1.880091406089856587e-04,-1.661008626266827215e-02,3.923885531683389051e-04,2.965070552232241044e-02,-1.423717620842914530e-03,3.791654407978057861e-01
5.188162989514313317e-01,-1.479076415768193486e-02,-1.832259134203101381e-02,-7.092121112442801439e-04,2.898694095331723689e-03,-8.424458029574350901e-03,5.356054902076721191e-01
3.220925164851511369e-01,4.970096208282828720e-03,5.414150628138686416e-04,-3.793815885422686419e-03,2.838765077986913515e-04,7.268264076778747397e-03,3.196757435798645020e-01
5.452826704675896030e-01,4.870668323666804689e-02,-7.760785122718300011e-02,4.927536142484582882e-03,-4.634784154043090107e-04,-1.584603131751425448e-02,5.710469484329223633e-01
5.231519433852034329e-01,-3.423717212232166296e-02,-2.061337972842469668e-02,2.992229871302137106e-03,6.401089951937239536e-03,-1.554153814605005804e-03,5.508461594581604004e-01
5.198318297310482450e-01,-1.540424646281277066e-02,-2.714943910031641927e-02,3.906856704895598706e-03,-2.380116982941273777e-04,-1.889250963174383220e-03,5.412566065788269043e-01
5.252387235849914626e-01,-2.505434951062715521e-02,1.188284109242798703e-02,6.828743146115186756e-03,-3.747250480579975701e-03,-2.519376756583233817e-02,5.347398519515991211e-01
5.144746276242504468e-01,-1.193395876237127173e-02,-1.733059183261467795e-02,2.996583267436357114e-05,1.016244724040568951e-03,-4.728071918656497584e-03,5.291938185691833496e-01
5.252198979882096719e-01,1.096358590037391223e-02,-4.763366117379638776e-02,-5.912438033707191447e-03,6.058880380249225331e-03,-8.984540794685871856e-03,5.463372468948364258e-01
5.167253228857056069e-01,-3.490949635931306361e-02,-3.466309063531827772e-02,3.248889299554779449e-03,-6.136933101018501521e-03,3.519554622650090275e-04,5.516431331634521484e-01
5.137248919798638180e-01,-2.648848543972381897e-02,-3.167756446267455672e-02,-7.492806737231719324e-04,-8.024280968081595744e-04,1.058190459866812982e-04,5.428298711776733398e-01
5.274160856562525312e-01,2.215145208934518606e-02,-4.872616630474427279e-02,-1.345984352437623729e-03,4.746679064594994460e-03,-5.306084615779220991e-03,5.443210601806640625e-01
5.113725514878442180e-01,-3.887646875737590935e-02,-3.865040045089043752e-02,1.607126441984406927e-03,3.179878494181701768e-04,-2.064308307228019876e-03,5.501549839973449707e-01
5.192302656931818694e-01,-3.431883643066127587e-02,-2.217165338385351792e-02,-2.010794578421357896e-03,6.963167986014359712e-03,-1.418319205108005410e-02,5.482710599899291992e-01
4.192420727910199929e-01,9.872939551959392102e-03,-8.290448703809086273e-02,2.069411652942962365e-01,-2.641442519903762151e-02,-5.415836777670301333e-02,5.945901274681091309e-01
5.134487535078975373e-01,-2.855431192818377872e-02,-3.323576487619053776e-02,2.092015275614145676e-03,-1.126301433022711129e-03,4.201780369468982330e-04,5.443749427795410156e-01
5.136123701708323885e-01,-3.628803078269832172e-02,-3.655600826060634301e-02,7.448266802430599876e-04,1.937557264202809928e-03,-2.818393352910134150e-04,5.500463843345642090e-01
5.248524577801623181e-01,-3.891661580164956780e-02,-3.239987480588940594e-02,4.784223815538609509e-03,7.262498349778924618e-03,1.733223745089960098e-03,5.607495307922363281e-01
4.829471969034711543e-01,-2.681940695722598300e-02,-4.097558361991274212e-02,-4.668328615389856495e-02,5.605701060802860403e-02,2.899228456592996706e-03,5.322303175926208496e-01
5.140823163941798946e-01,-3.366622670626606695e-02,-2.946397529631419876e-02,-1.006317589105291304e-03,-1.937381196802054209e-03,-1.871286430016564674e-03,5.456822514533996582e-01
4.789001202485250186e-01,-1.972890846168567913e-02,-5.661165507130475061e-02,-1.776277605965133040e-03,-1.046903419861905035e-02,-1.366957347056621530e-03,5.183877944946289062e-01
4.585672702563842185e-01,-3.617933083455104892e-02,-3.122270873056934293e-02,-1.494595770124500927e-02,8.065183254810799271e-03,1.020635822919070679e-02,4.934818148612976074e-01
5.223318071468394663e-01,-3.422788175727148330e-02,-3.226018045981712823e-02,6.136580856861373508e-03,7.844848311595091495e-03,5.027588892170759081e-04,5.558468699455261230e-01
5.275637416987708495e-01,2.091135759289089457e-02,-4.866090356302221753e-02,8.792840267547064048e-03,5.916616021863558249e-03,-1.299413206207083830e-02,5.455542206764221191e-01
4.117078902440476362e-01,-2.335123133084060498e-02,-3.385717237743479657e-02,-7.322633558872637671e-02,1.146919776692833931e-01,-2.888251386116203953e-02,5.020051598548889160e-01
5.123506415053209473e-01,-9.673241510036512114e-03,-1.893373867782960351e-02,2.279958982946085535e-03,1.207864903596603907e-03,1.354351837952575983e-03,5.267393589019775391e-01
5.492058034700311175e-01,-1.864903635506237611e-02,-1.573702480117900038e-02,4.539275422479778326e-03,8.731031864968329809e-03,2.280440509252649670e-02,5.680357813835144043e-01
5.135392805378791170e-01,-3.470598327279236783e-02,-3.968050798785249800e-02,-2.334799800668936349e-03,-4.233216364506087355e-03,-3.446839184848391521e-03,5.508453845977783203e-01
5.216803330675869876e-01,-3.788008922878066675e-02,2.904790153051006740e-03,1.317717721794521655e-03,-7.742256533181686613e-03,4.475084173807601824e-03,5.405504703521728516e-01
5.151472496623543673e-01,-4.667676977981496944e-02,-3.290929531572031608e-02,-2.382233088331508868e-03,3.794488169896252606e-04,-3.021748690982537563e-03,5.551087260246276855e-01
5.369337419696126323e-01,1.144400742398266058e-02,-4.747278396805212908e-02,3.532445492371667252e-03,-2.033439536561827579e-04,8.043353112906003822e-04,5.573242306709289551e-01
6.025799988556614917e-01,-6.293860386074096036e-02,3.979206384501673965e-02,-1.309441862448689278e-02,2.587440780870006382e-02,-7.619750706151623941e-03,6.227330565452575684e-01
2.704925778446419793e-01,-1.203041043396407828e-02,-3.173949025349689923e-03,3.243442877267020685e-02,1.174739507971565983e-01,1.310023320547591512e-03,3.492234647274017334e-01
4.252268791485780408e-01,-3.128858476978335634e-02,-9.691643070558919604e-03,5.700795178174027002e-04,2.096856211242675502e-03,1.911030673774429239e-03,4.461373984813690186e-01
5.203698958148457177e-01,-2.398240108145416327e-02,-2.526172473099166926e-02,7.703190898601392899e-04,-3.230628663581430835e-03,-6.125291777371307889e-04,5.450244545936584473e-01
4.873012233143950156e-01,-2.472211725930958948e-02,-1.350890506025334559e-02,-2.232827465402131492e-02,-2.724345385048231732e-02,1.383232053754603584e-02,5.107333064079284668e-01
5.166068804817272042e-01,4.763956266809449280e-03,-3.966987402143859476e-02,-4.469116880866901530e-03,-3.365913392931625062e-03,1.725654335578332777e-03,5.355404019355773926e-01
7.400946578630398509e-01,-2.743303131396657157e-02,-1.887348758365609003e-02,-8.172043214845578496e-02,-8.941099598337319543e-02,6.117987963788955319e-02,7.986544370651245117e-01
5.164545973283539704e-01,-2.067311670455718176e-02,-3.253412357860435700e-02,-5.355894738154830595e-03,2.668586397013131706e-03,8.560819331219014349e-04,5.432562828063964844e-01
5.955682303606617545e-01,-4.263045427119466213e-02,1.686929611712370547e-02,-2.842452701554382469e-02,-3.485691640665444790e-02,3.887181048281091594e-02,6.192471385002136230e-01
4.780641786207375787e-01,-2.052212745058562549e-02,-4.464551202201538782e-02,-7.141717748478368160e-04,1.567048404804251976e-02,-1.478731208080495164e-03,5.118032693862915039e-01
4.957974537160870776e-01,-3.499100046107211925e-02,-3.647029709292615163e-02,-7.656313813333542320e-04,-7.809100690441381394e-04,-8.930963921964287996e-03,5.317580699920654297e-01
5.368279707594023620e-01,3.636984908796112026e-02,-5.576472232246840188e-02,-7.186051710579548918e-03,4.101241937000282313e-03,2.256061751650315084e-03,5.525190234184265137e-01
5.571030594797758972e-01,3.582186916011381728e-02,-6.352619829480316005e-02,-1.717186408832646893e-01,3.203318124231348263e-02,-2.151008587303732383e-03,6.518792510032653809e-01
7.259259648698671574e-01,-7.608592436763728095e-02,6.642308905420252207e-03,-2.478695849237731730e-02,-1.026770178606182388e-01,4.835720964885267120e-02,7.900659441947937012e-01
5.162424947264458996e-01,-3.584471567746660980e-03,-2.305680233144760671e-02,1.576215479261526249e-03,-2.400055384723172487e-03,6.752117437318025731e-03,5.299839377403259277e-01
8.486179147311666560e-01,-6.024601350263336652e-02,-3.241142703184873852e-02,2.549379492583105436e-02,5.704927431194936616e-02,4.802363829252609406e-02,9.056174755096435547e-01
5.228056106125540392e-01,6.215594823331449525e-03,-2.005299425145984360e-02,7.087961209515303285e-02,3.514570868939811271e-02,4.343150500712138901e-02,5.527763366699218750e-01
5.224808806489759094e-01,-2.711762248371363260e-02,-3.074733017847022798e-02,-5.120347940001383942e-04,-2.467084353479810990e-03,4.851708919514865874e-03,5.515035986900329590e-01
5.146447153865179036e-01,-3.035387909811704255e-02,-4.865877333014487216e-02,-4.095061097703414361e-04,6.796023224428396868e-03,-1.055627293037033422e-04,5.545032024383544922e-01
5.000231713026763725e-01,-2.938242703475471562e-02,-4.710250183033684590e-02,6.793660200898750086e-04,-3.091370213352391278e-03,4.665731971017778447e-04,5.385128855705261230e-01
5.191685486146109252e-01,-2.435486124527358465e-02,-2.140380173360303950e-02,-3.067135555817966219e-03,5.060929451644817067e-04,2.213063174117736644e-03,5.420941710472106934e-01
5.172365290136141658e-01,-4.330214473272681053e-02,-3.300976350646053770e-02,-2.040384346948928042e-03,-1.576376562249881628e-03,-2.108972096139678874e-03,5.554939508438110352e-01
7.153236821469316498e-01,-3.424325135568645484e-03,-8.347641216183454560e-02,7.992886994409939549e-02,4.226488329839215435e-02,3.077770827838063883e-02,7.796864509582519531e-01
4.825093324107525006e-01,-2.067220185978493885e-02,-5.208319093387003829e-02,2.257149832842373315e-04,-6.805408301718834799e-04,6.259222844866726379e-05,5.196011066436767578e-01
5.120067488815425172e-01,-1.509057010218373129e-02,-1.034222221855449209e-02,-1.109069419952376980e-03,-1.004226923467159503e-03,2.479791622529648343e-03,5.247632265090942383e-01
3.724661618882326164e-01,-5.316268184736711033e-03,-1.539553993673106747e-02,-3.358011594684040882e-03,-2.944292105932801856e-03,-7.055893853289122233e-03,3.831946253776550293e-01
4.995595119013303553e-01,-1.894816162803128479e-02,-4.128295768710613101e-02,2.749647332058897595e-02,1.670144761640751652e-02,3.393384980341159103e-04,5.329494476318359375e-01
4.981126340630573912e-01,-4.512915357790836524e-02,-3.505415800552863503e-02,-2.809264353221067531e-03,-3.180851013645657685e-03,-9.392416563346385819e-03,5.385709404945373535e-01
8.189928076657855271e-01,-9.242034016415989761e-03,-6.612379610282748121e-02,-6.967151010981589843e-02,-5.044446616550894930e-04,4.484672979742760496e-02,8.700096011161804199e-01
5.125818112456980158e-01,-3.699581041094082701e-02,-3.159755516411733023e-02,-1.526572366050580817e-02,6.292298694772689672e-04,2.217826915740032413e-03,5.475518107414245605e-01
5.031856488537637118e-01,-5.364651950207538489e-02,-2.550916152551271909e-02,6.002881861431475473e-03,-4.179758409426650675e-04,4.870939090184332569e-03,5.434756875038146973e-01
5.248082965039346792e-01,3.330951669668125170e-02,-4.299300892010440855e-02,-3.201033368016262259e-03,-7.373840755869495028e-03,1.409876535266334045e-02,5.344959497451782227e-01
5.098566963017570064e-01,-1.410803008062339048e-02,-7.633632112365285050e-03,-2.075003989881786526e-03,-1.067691871809481547e-03,4.590421874610583521e-03,5.208340883255004883e-01
8.368905110986618601e-01,-8.881387814997698804e-03,-7.402137996274693599e-02,-6.412079104710963207e-02,-1.925168356536018435e-02,4.284782991202670116e-02,8.908541202545166016e-01
4.913089275864146455e-01,-2.467787944757579566e-02,-5.751072666684117762e-02,-3.062304923983283833e-04,6.251033770259622167e-04,-2.368238070155092179e-03,5.331791043281555176e-01
4.724408205557650287e-01,-2.765232254805735645e-02,-3.811904771766969069e-02,-7.813598024692085253e-02,-2.421353981093240029e-02,-7.738589984838586261e-03,5.250630974769592285e-01
5.533436542943678260e-01,1.545991685174494257e-02,-5.460146913506103150e-02,4.485709650508823074e-03,4.727095471409259453e-03,-1.139219619742678352e-02,5.765666961669921875e-01
8.481447403273901786e-01,7.336691517488280745e-03,-9.804430323529428337e-02,7.005612501125768957e-03,2.845255430390824722e-02,2.122899690600468445e-02,9.003312587738037109e-01
5.177459827861021768e-01,-2.513799808131716995e-02,-3.783132037181968776e-02,-7.831864680174291035e-03,3.048169601118397298e-02,-9.646636510208092888e-03,5.522913336753845215e-01
5.167808582752952962e-01,-3.968290538894411745e-02,-1.054927187547208267e-02,9.210592003093242761e-03,9.295613499599827316e-04,-1.599868185030689722e-03,5.427279472351074219e-01
4.910534415876601222e-01,-2.290547006943607911e-02,-5.400065595111808170e-02,2.975389006873344175e-04,8.792500718943047425e-03,2.804004440936366544e-03,5.304319858551025391e-01
5.127536638533656266e-01,-3.722450597197934918e-02,-3.659542112776473233e-02,-3.634899039347947889e-04,-1.449833827526710766e-03,-1.271327709437822771e-03,5.496743917465209961e-01
4.405673901588157970e-01,-5.045967440624887779e-02,-1.869545051591087192e-02,-1.502846004022380388e-02,3.529753373348514488e-03,3.912909904257859568e-03,4.767392575740814209e-01
5.453940910420669308e-01,2.742060366863999232e-02,-5.729426125762160371e-02,-1.889674248545359161e-02,-1.852404018765549105e-04,1.299498414149488114e-02,5.665078759193420410e-01
5.253539387635879354e-01,3.174515380469795922e-02,-9.776083983414951550e-02,-5.463901195136395411e-02,3.192955770512093117e-02,-1.234163695186533093e-02,5.803605914115905762e-01
3.150489445379353048e-01,-8.044321674551010992e-02,-2.654886568437671290e-02,1.334261357462947391e-02,1.283111785395802673e-01,-3.648005071933380083e-02,4.380885660648345947e-01
5.409896841288028835e-01,3.719960769487480612e-02,-1.084951277449133777e-01,-9.078483890037679360e-02,7.812220517546803952e-03,2.206554271909071455e-02,6.122094392776489258e-01
5.193988063842704950e-01,-3.379826937172533685e-02,-2.307325879536747948e-02,2.993196216960143045e-03,-9.290570374885634419e-03,4.968583240940149500e-04,5.481747388839721680e-01
4.870480051961295631e-01,-5.769994084266891199e-02,-2.493715020432302198e-02,-2.455175500146795052e-03,-4.169383540022378841e-03,-1.980133059283715330e-03,5.292053222656250000e-01
5.260119860461678343e-01,-2.297187618321250291e-02,-1.617717999937823281e-02,7.519275230696798214e-03,-3.169754277725133685e-04,-1.278607820841285055e-02,5.462230443954467773e-01
5.361457894382015699e-01,3.322697532322657632e-02,-6.399385881194924464e-02,-2.085160228252948625e-03,8.625831966096526165e-03,-3.347457105004965957e-03,5.581606030464172363e-01
5.081780272108129548e-01,-2.973647208702906442e-02,-3.295751527396226233e-02,2.501956425386807218e-04,-2.488265228096632974e-04,-2.096666276387872726e-03,5.395448207855224609e-01
5.750546846404620549e-01,3.003674320387059171e-02,-9.525820415987917844e-02,-1.356317085657862964e-01,2.900269719705931594e-03,1.804347969507530056e-02,6.612270474433898926e-01
6.254784113295105419e-01,4.385146342492327043e-02,-8.356681117105246859e-02,1.624160110876081767e-02,1.350301519588165480e-02,6.757984879852850166e-03,6.558281779289245605e-01
3.593696459772650620e-01,-8.593778563409842919e-03,-5.784122099327174138e-03,-2.540916636475838361e-02,1.402444093697980776e-04,9.828188150451831404e-03,3.695914447307586670e-01
4.365303176521641015e-01,-2.393792931055307993e-02,-6.193093166329491361e-02,-8.755940556170725697e-02,1.020137843629257690e-01,-5.818148932750815544e-02,5.434562563896179199e-01
5.182911097193213523e-01,-3.363132123840506527e-02,-2.447577126377037393e-02,1.681458133313662451e-03,1.943666690478407450e-03,2.523863250392303459e-04,5.474203824996948242e-01
4.844100975827318467e-01,-5.856542865175340395e-02,-2.078974697188382126e-02,-3.258289074600406081e-04,-1.898251853821011285e-04,5.584356978318088605e-04,5.251090526580810547e-01
4.972575236974240975e-01,-4.597164099887424138e-02,-3.501824234980074890e-02,-1.818622866040334489e-03,-1.923943719897625677e-03,-1.060728886839458138e-02,5.381693840026855469e-01
5.493637313361006136e-01,-6.218868107294170389e-02,2.997060062082651521e-02,4.694092277627300892e-03,5.086353686800297244e-03,-4.987879961738213991e-03,5.712686181068420410e-01
4.959750151020806963e-01,-4.390729102985782561e-02,-3.285655604805529095e-02,3.635844393990487968e-04,1.823220445224340322e-04,6.005682290157163955e-03,5.345442891120910645e-01
2.749799178116252296e-01,1.448283076028787641e-02,5.637345845448435422e-03,-1.386323977311340648e-03,-2.760463168491655416e-03,5.622743091321377035e-03,2.652634084224700928e-01
5.194096534685476163e-01,-2.895124857790334905e-02,-3.210978317288448736e-02,-2.171511671329886747e-03,2.387842258793231032e-03,-3.225509808599479576e-04,5.499756932258605957e-01
5.236849534330014766e-01,-4.220814247425286325e-02,-3.512209744335700878e-02,-2.430294547804804500e-03,-2.300777383998644024e-03,-4.415763646475069615e-04,5.624139308929443359e-01
5.172532548601344038e-01,-4.011127159293839672e-02,-4.358596948859747022e-02,1.289009069151009603e-03,2.791868886298411049e-04,9.408227943204343368e-05,5.591146349906921387e-01
5.183138078198280541e-01,-3.415647799901663784e-02,-2.958630407677126373e-02,1.017586066756281287e-03,-1.904380100576927217e-03,-1.810216341812719747e-03,5.502210855484008789e-01
5.302882271213125165e-01,-5.442537017906443064e-02,2.281548515124426357e-02,-3.827880621892261297e-03,-1.147071615919989171e-02,4.848218336048931362e-03,5.506374239921569824e-01
4.993018624270083028e-01,-2.452144278639173391e-02,-5.596548911835147466e-02,7.079345041534630244e-04,-6.284431078391522485e-03,9.253765036832811979e-05,5.403431653976440430e-01
5.307664966446691279e-01,-5.194943571281704364e-02,1.606772612610915529e-02,7.090972068738607111e-04,-7.270591917224604288e-03,2.373747018863810090e-03,5.520203709602355957e-01
5.163038642502600917e-01,-4.439425837310359557e-02,-3.521534708832826932e-02,3.145650560411051167e-03,3.085131121114952340e-03,4.647228929905495264e-03,5.562760829925537109e-01
4.968035797784998708e-01,-8.399381956408641381e-02,3.524991731191555455e-02,-2.762806320735243515e-02,-1.661167886080534284e-01,4.511464978753918637e-02,6.111207008361816406e-01
5.146358307486791350e-01,-3.915150286974569682e-02,-4.291267541759269388e-02,-3.596069960823885538e-04,-1.306061019285517481e-03,-7.268501225029681866e-04,5.556838512420654297e-01
2.183717869567563807e-01,1.022629755714205002e-02,2.109092630873485308e-03,-7.621039750158396797e-03,-5.553137545074981335e-02,-3.541301072375622593e-03,2.335445582866668701e-01
5.301546125078422378e-01,-5.443699549896507950e-02,-2.452735827945790037e-02,1.456079569669244123e-02,5.235709051292060379e-02,3.685146297434493089e-03,5.779771804809570312e-01
5.169143030255632931e-01,-2.806262201204229312e-02,-2.526044551982892239e-02,3.893800087675580116e-03,-5.525092993835084001e-04,-4.565701170881364748e-03,5.436814427375793457e-01
5.373665951306303423e-01,-5.594822359555443048e-02,-4.059426511371921897e-04,8.326565986097584846e-03,-1.211073168128306426e-02,-1.935296493702840957e-03,5.681660175323486328e-01
4.257905544241445961e-01,2.002676696845946680e-02,-5.244764623217626487e-02,1.252491914791045435e-01,-6.481264690625030724e-03,2.063584387809094117e-03,4.964928627014160156e-01
3.011716772786136032e-01,-7.100399732004145092e-03,-5.586104275646611161e-02,1.295114009588165527e-01,2.629112018430340703e-02,-4.255764154840921409e-02,4.126348793506622314e-01
5.178922415831014314e-01,-3.548837720935590911e-02,-3.492247863385558593e-02,-7.809893949588318611e-04,2.306942814291558421e-03,8.564925728743159493e-04,5.531159639358520508e-01
5.161155584102403715e-01,-5.034754042291816889e-02,-3.249944253708283992e-02,2.847711520554822937e-03,-9.684510287112516394e-04,-5.160915920749084042e-03,5.578492283821105957e-01
3.324347656943874574e-01,-2.850568299065256439e-02,4.000849026969863220e-02,-8.291503609619934809e-03,-1.487437436549670922e-01,1.250352450707467068e-02,4.210605919361114502e-01
3.290256252647820734e-01,-1.672605459312789811e-03,-1.232250446787165610e-02,-7.443161869924782171e-04,-3.639197135349103718e-02,7.688963457109019954e-03,3.422700464725494385e-01
4.278013363866271512e-01,-3.019862702992262560e-02,-3.071810000757851933e-02,6.119424111723392734e-02,-5.343597382718016930e-02,2.549965333319467904e-03,4.793976247310638428e-01
5.150363257933483485e-01,-2.765709362841645147e-02,-2.437266731385362428e-03,7.807801000780482947e-04,1.122015784279377848e-03,7.076448041698093702e-03,5.306801199913024902e-01
2.644452904543136418e-01,-6.770786531932687646e-02,-1.258824618160658826e-02,1.197647643162508824e-01,-6.494881987932975276e-02,-4.769753110381932948e-02,3.969467878341674805e-01
4.710449357198658316e-01,-1.774330373257221316e-02,-5.329541908361909441e-02,5.839893437305473597e-03,8.360182859219831425e-04,3.497873726938632855e-03,5.076380968093872070e-01
6.086286619964176303e-01,3.717012148891002399e-03,-8.344941519822329790e-02,8.026105187530187257e-02,2.786648759364263039e-02,2.433110361005060354e-02,6.705783009529113770e-01
6.614353101125546308e-01,-3.413980844720818086e-02,-4.783040972591764972e-02,7.348939791203204508e-02,1.005281826218196867e-01,4.768054228253956056e-02,7.395100593566894531e-01
5.118115243427474592e-01,-1.740939263067300957e-02,-1.228362119366899208e-02,8.614015722792057149e-04,-3.562039463981627775e-03,8.860070673102004093e-03,5.269384980201721191e-01
5.144371122979902733e-01,-3.520596155874175515e-02,-1.809204127464927869e-02,-3.868957076569255185e-04,-5.419744801119227157e-03,4.886377040665838660e-03,5.414370298385620117e-01
5.134245383443495347e-01,-6.133863006979989319e-03,-2.059502008885935598e-02,-1.809198762480207587e-03,-3.124295745664166287e-03,2.699998015625785716e-03,5.269956588745117188e-01
5.198863751305574654e-01,-3.200732463638697456e-02,-6.342642740154974534e-03,1.577695664514764014e-03,5.920451412959858335e-03,5.229290151886101072e-03,5.396997332572937012e-01
2.746653297833262508e-01,3.823623546970189579e-04,-6.400486515743628035e-02,1.482990020569091572e-01,4.021177028712809298e-02,-1.182514873985898024e-02,4.102260768413543701e-01
5.236855699448821344e-01,-2.623490380357954010e-02,-3.726545670129535748e-02,-9.995977896449580007e-04,-1.794011625710562456e-05,7.724733283326934733e-04,5.555222034454345703e-01
5.053480545508615140e-01,-4.736221858323011458e-02,-3.619809097425269462e-02,5.130872899436610124e-03,-7.347370281546258299e-04,5.256260240663585860e-03,5.473629832267761230e-01
5.466188360215795683e-01,1.517545071515821742e-02,-6.671737952270975769e-02,2.402226228271481939e-02,1.904893175801007817e-03,7.399488496956309509e-03,5.784170031547546387e-01
5.013277449986024425e-01,-3.433010141605877252e-02,-4.373682603429690507e-02,8.303232231375334838e-02,3.423150627825438143e-03,-8.458573227147341347e-03,5.594546198844909668e-01
6.050049293149641905e-01,4.402218501932003702e-02,-7.766985849132518327e-02,2.715921458221144669e-03,1.201887838690317636e-02,-8.827613221412466266e-03,6.312424540519714355e-01
5.072289991291198952e-01,-3.634196779314202708e-02,-3.650748142016344011e-02,2.764180686655831783e-03,1.922361197844585368e-04,1.192679041627524002e-03,5.436788797378540039e-01
4.354402715973386129e-01,-3.537995828252990527e-02,-3.353126859462754461e-02,2.883540598942309786e-03,-3.590142800251527183e-02,4.084913244797522443e-03,4.740743041038513184e-01
5.229895541713563967e-01,-4.884492364948322951e-02,2.301990359308225820e-02,-9.569274455292267872e-04,-1.007643353019274527e-03,-4.456492473792908818e-03,5.395644903182983398e-01
5.207680409235556640e-01,-2.805714877824772024e-02,-8.710630590323314992e-03,-7.887403455865390003e-03,-7.479760860794925151e-03,3.552201118248655282e-03,5.397757291793823242e-01
5.151188889926877623e-01,-2.278977146922189778e-02,-1.028120992777031839e-02,4.448930765565132150e-05,-1.304286208718165785e-03,-2.367143028536155581e-03,5.317853689193725586e-01
5.182246239423153877e-01,-1.489041962568593558e-02,-1.654396162917787239e-02,-1.745397118488062988e-03,-4.014544410728843396e-03,1.039936795739483839e-02,5.343012809753417969e-01
5.215934552916647871e-01,-3.689083776102192180e-03,-2.956671059580992522e-02,3.073577810186588037e-03,4.545898387490168897e-03,1.096046952896647352e-02,5.391058921813964844e-01
7.689037589924762051e-01,-6.568463193796769684e-02,-3.991993467819027197e-02,1.273791317526950517e-01,-4.353674529461735304e-02,-6.968437390136367204e-02,8.629189133644104004e-01
5.148441137279847757e-01,-3.158077032929379468e-02,-3.384743019825070531e-02,-3.272285617322674960e-03,-1.188847194059722539e-03,-1.969997407173612342e-03,5.476055741310119629e-01
4.077522212264409474e-01,-7.658939039730083831e-03,-4.501179750762676623e-02,7.958136470932965570e-03,-9.034718664406247990e-02,-1.240849920660869708e-02,4.632690548896789551e-01
5.204173161355374333e-01,-4.233608886624959378e-02,-2.689928312353745410e-02,4.204766081826171245e-03,-5.772922698363820541e-03,4.434660382011380853e-03,5.553869009017944336e-01
5.262165550211858056e-01,1.244030783054458911e-02,-4.415500144480688505e-02,-6.910443424530702747e-03,1.999085429591334565e-03,-2.969386283386521788e-03,5.444521307945251465e-01
5.263935152973460152e-01,-2.485508079827333794e-02,-2.515519429578758070e-02,-6.408683359346674380e-02,-4.208480055541227727e-02,1.644184431752278297e-02,5.678787827491760254e-01
5.225092967124391752e-01,-2.490604504563198596e-02,-2.757099671275500818e-02,3.015765000348839993e-03,3.415813790498018355e-03,-3.289934344357500957e-04,5.488097071647644043e-01
5.752859647271086896e-01,-6.126755987059376296e-02,-3.890555829661565546e-02,-4.003205942831083303e-02,1.134421758694619531e-01,-6.464542414511605106e-02,6.688930988311767578e-01
5.169338565670228425e-01,-8.855142147291855670e-03,-3.084029327775664187e-02,-4.742765235081101635e-03,2.279057340862687491e-04,2.966742380671169577e-03,5.372066497802734375e-01
5.153466810431115430e-01,-2.881951158945972313e-02,-2.746725198922717048e-02,-5.394430622378433701e-04,1.881901859909469862e-03,1.598379092883963357e-03,5.435089468955993652e-01
4.027681487039341257e-01,-1.116981907613967540e-02,-2.920354497549790262e-02,4.137155008618282302e-03,7.180537467895076187e-02,9.466815873596119008e-03,4.415007829666137695e-01
7.880949749458191489e-01,-1.110480304000365237e-01,-1.307576830465584372e-02,5.978181136045037508e-02,1.229882441200797101e-03,-4.240892121107020518e-02,8.637634515762329102e-01
5.365068334711310394e-01,-1.578036058022039279e-02,-1.188104766170100524e-02,5.128632903519139002e-03,6.400031120231057351e-03,1.493211913719957873e-02,5.511383414268493652e-01
5.220418915937692361e-01,-4.144026274541787180e-02,1.123517539400756271e-02,-6.026562759425807894e-03,4.528225416938281948e-03,5.112794527659289892e-03,5.393089056015014648e-01
5.118797718798283602e-01,-4.297025241783219984e-02,-3.632912981859931500e-02,-1.122754399832661884e-02,2.777417810571445808e-03,-2.714934681772283943e-05,5.519231557846069336e-01
5.402610709573296699e-01,-5.838775606354210113e-02,2.326641923397554379e-02,-1.649414679985541812e-04,4.734096930950516466e-03,8.016802637115849617e-03,5.625173449516296387e-01
5.121815296519764971e-01,-4.346792177992905848e-02,-3.822719309917355091e-02,8.160199567458204482e-04,7.067111023117021371e-04,-1.547344939620854841e-03,5.530573725700378418e-01
5.160032752182979188e-01,-3.663544961695611168e-02,-3.485868542589240504e-02,-2.063911539579358061e-03,4.688722011062393608e-04,-2.559955829627767569e-03,5.517824888229370117e-01
4.970650705054673324e-01,-3.801301415158683805e-02,-2.375559307088889738e-02,-7.215315742862854487e-03,1.260281595818781887e-02,-8.507635000093270380e-03,5.288977622985839844e-01
5.399741219189603258e-01,-5.070520522433141775e-02,-9.453074615430656635e-03,7.302107423066721802e-03,2.137563022416745506e-02,-9.403287740834209707e-03,5.727416276931762695e-01
5.348755555483668545e-01,-2.548932196862011001e-02,3.974500830871419144e-04,-1.943338700256965618e-02,-2.355196032234475878e-02,2.080754194753254779e-02,5.516056418418884277e-01
5.348461106923401154e-01,-4.631993499422212834e-02,3.206307561413254681e-02,-3.035127828649688241e-03,-1.085013568971482899e-02,8.243974000145077793e-03,5.467440485954284668e-01
5.135490662721660104e-01,-2.872992881493588446e-02,-2.548954759917401725e-02,2.002533559074928197e-03,2.837081278405435402e-03,9.067778894823157328e-05,5.406995415687561035e-01
4.045342553627408466e-01,-2.408478096438010363e-02,-2.570450203165564051e-02,-7.428804757208541665e-02,1.113196398507228374e-01,-5.304697259104538404e-02,4.965736865997314453e-01
6.141383265818092241e-01,-7.011436894280825838e-02,3.429993644341267078e-02,1.387329062729075572e-02,5.491384837491154053e-02,2.247898296219733028e-02,6.471462249755859375e-01
5.583977534396507014e-01,-9.236749069122673905e-02,2.062299295131916899e-02,8.223513664175349791e-02,1.016186680230582451e-01,1.252060433636939876e-02,6.437928080558776855e-01
5.269496999450056229e-01,-1.794124805247018783e-02,-3.103150723612729811e-02,6.495297663093469592e-03,-1.258987903949770545e-03,-7.991216409835483897e-03,5.518452525138854980e-01
5.620726519978900271e-01,-4.855033320797152996e-02,-3.098172341390853513e-02,6.530629609145871539e-02,1.027209926657340483e-01,1.213254300897105217e-02,6.382259726524353027e-01
5.067298800209831811e-01,-3.086928356769541582e-02,-5.460038644556725052e-02,5.811077304547886471e-03,8.272940437349130330e-03,-3.365272404932831939e-03,5.501585602760314941e-01
5.288073096463309364e-01,-4.756424167926354141e-02,-2.458625415922238711e-02,-3.286124522514143683e-04,1.448308299624191317e-02,1.369079622540761822e-03,5.657945871353149414e-01
3.860339794597651419e-01,-6.046451507754735388e-03,-2.135845581128714699e-02,9.626447752408791303e-03,3.720406067450908461e-02,-6.019188909075290708e-03,4.055911600589752197e-01
5.037729213790222982e-01,-5.545167437380926767e-02,-2.895807855300386313e-02,7.214854234170933224e-03,-4.369466733523934428e-04,2.632198878955473598e-03,5.466220974922180176e-01
4.887636746531488080e-02,3.309049653291597226e-02,9.472357906614586182e-03,3.114082318157830945e-02,5.468269650922678166e-02,1.831395621194937054e-03,1.143230050802230835e-01
6.044169612008273296e-01,-7.293550958437303167e-02,-2.791995659145030118e-02,8.935290501650350325e-02,1.163389580191461076e-01,4.129802239630806643e-02,7.071167230606079102e-01
5.141852437391296604e-01,-2.487533607867339902e-02,-2.500482108607224307e-02,3.541662381135423244e-03,1.302564556878628259e-03,1.020851305655921717e-03,5.391678810119628906e-01
2.881409868339146474e-01,9.193326678053004297e-03,-1.237264713110296233e-02,1.122859714329166054e-03,2.888586371257764740e-02,5.371357701190009049e-04,2.946192324161529541e-01
5.487096459442738494e-01,-4.292516412846239526e-02,-4.854759534757224770e-03,8.070690843342905041e-02,1.795704498609040564e-02,4.792279447696039946e-02,5.969550013542175293e-01
5.161080998939401310e-01,-4.091264421732399015e-02,-3.300560356801068851e-02,2.675706575717226414e-03,-2.083581434350246890e-03,-3.634695504108755460e-03,5.531766414642333984e-01
5.333302572566724908e-01,-8.843361137322056087e-02,3.922854319496793529e-03,8.672420820209121584e-02,1.876465242145186618e-01,1.657785897352693355e-02,6.831672787666320801e-01
5.125810813931999110e-01,-2.246276966039520429e-02,-2.476825735913698590e-02,-2.109700429713808317e-03,9.997156586145621721e-04,2.160915014087155285e-03,5.362285971641540527e-01
5.153395530792492796e-01,-3.879134116524696196e-02,-3.361081541976085330e-02,1.745923390940107083e-04,1.756053091442549320e-03,4.112878823266170772e-04,5.515677928924560547e-01
5.165149112519453745e-01,-3.792563284699065895e-02,-4.292998855206664466e-02,2.256565765256970946e-03,-1.310230494232245482e-02,-1.459020210066571234e-03,5.574411749839782715e-01
5.073189797916582977e-01,-4.891448223769290227e-02,-3.304297157072122459e-02,7.411177106645275639e-04,1.157279262247598410e-03,1.704020878893851461e-03,5.484830737113952637e-01
7.068644775480209530e-01,1.598719831544906378e-02,-1.181959073851298614e-01,1.075048331456566475e-01,3.794984466553473317e-03,-2.493477833366613411e-02,7.903169393539428711e-01
7.170454505140492207e-01,5.160008431414259134e-03,-7.189825070138183838e-02,8.699775412147710274e-02,3.389280709565354460e-02,2.154135810701052547e-02,7.714399695396423340e-01
3.085119148514899878e-01,-8.245862475032034178e-03,1.447430000489402513e-02,9.602252791843168822e-02,-6.445313573658743855e-02,-3.574168225158175227e-02,3.709594309329986572e-01
3.713004710917802154e-01,-7.884481108259538962e-03,-2.156513862039277640e-02,1.977439770698536173e-02,-6.503280281141312876e-05,7.877980891524348842e-03,3.879628479480743408e-01
6.051493581796448806e-01,6.310425244864747985e-03,-1.559210128117877181e-02,8.650025914692237305e-02,6.033241120799845425e-02,4.722521367305061724e-02,6.420758962631225586e-01
5.053225877707392399e-01,-4.977980936315462568e-02,-3.131938216548535436e-02,-3.707521375216234465e-03,-8.361724869463139356e-04,-2.662544697948995669e-03,5.461654067039489746e-01
4.562569336555146182e-01,-4.153122998539401922e-02,-2.326786557070686934e-02,-1.802559305226910605e-03,6.236620872866388337e-04,-1.245768552080461604e-02,4.893994331359863281e-01
5.226283453621789477e-01,-3.406931400499241258e-02,-3.385878957066953965e-02,8.199426139682898171e-03,1.511361119589476470e-03,1.683902124748322762e-04,5.567798018455505371e-01
5.925469252414857779e-01,-3.978204035826943263e-02,1.221446881851384614e-02,-5.850628207479789678e-02,-1.388407316972344596e-01,2.383464007872652252e-02,6.629239320755004883e-01
4.969949093120841210e-01,-4.325130845551419800e-02,-7.426125614884648840e-03,-1.718695519370228800e-03,-2.115175762119290287e-02,-2.382787630695596586e-04,5.245438218116760254e-01
3.116634385415566477e-01,-2.860282475209791064e-02,1.095894087413588902e-02,-1.948858360755372290e-02,-9.810739999113224363e-02,-8.470031253834055598e-03,3.662165403366088867e-01
5.080433585733636903e-01,-5.443156510383473368e-02,-3.379928407186194583e-02,-1.444240222294245033e-04,1.273101606597625435e-03,4.782898824700843043e-03,5.525143742561340332e-01
5.125885318638002675e-01,-4.435902773825148304e-02,-4.022639650321924165e-02,1.328762737408983744e-03,5.048200623778756595e-04,3.911345724188232051e-03,5.549396276473999023e-01
4.322688286482426201e-01,-5.237215141823103881e-02,3.327897934709109218e-02,5.337890548780649391e-02,-1.261880338724546968e-01,-6.356990252383829844e-03,5.070920586585998535e-01
8.547488303751387129e-01,1.015874628982393890e-03,-1.177427228800878578e-01,2.318338956052764036e-02,5.182413630361040746e-02,-2.406355212043719688e-02,9.250721335411071777e-01
8.369882681079137132e-01,1.066565395755100787e-02,-1.203234154686573798e-01,3.493235161065690736e-02,2.017881182505865123e-02,-1.247419488577249623e-02,9.019731879234313965e-01
5.140585204253169671e-01,-7.076295954768607732e-02,3.445788466053567589e-02,2.489216466639394137e-02,-9.420814350614174770e-02,-3.942991058373515080e-03,5.657589435577392578e-01
5.347519033176103553e-01,3.819802183888146296e-02,-5.547352395246832324e-02,-1.818604928795499636e-03,3.408332575971742117e-03,-8.265283440966125165e-04,5.494542121887207031e-01
5.368553303468861504e-01,2.701715216651862095e-02,-6.073827687883123772e-02,-2.867664522014091305e-02,-2.266164247012736679e-02,1.454109394879183823e-02,5.630444884300231934e-01
7.336907730458122057e-01,2.388234983587697591e-02,-1.098080729935538846e-01,-1.387814233219492877e-01,-6.669622765117646374e-03,2.492982878575021599e-02,8.224198818206787109e-01
5.195490587006355021e-01,-3.601243794525477160e-02,-3.230144260560488534e-02,2.079581392257197694e-03,1.439415516578993436e-03,7.664979847404379456e-04,5.537342429161071777e-01
4.886776478890441644e-01,-3.653910645328961593e-02,-3.483633688813542184e-02,2.185650784825918583e-02,-4.661138059163527636e-02,1.018237522830192469e-02,5.321872234344482422e-01
5.361787400433445372e-01,-1.772325430967497395e-02,-2.654024776952873532e-02,-2.576356360664360922e-03,1.735758245631849502e-03,-1.538700547762359393e-02,5.590242743492126465e-01
5.683987079358012728e-01,2.598462729361400436e-03,-6.956525805801408446e-02,8.439739670472143004e-03,1.026270201414877445e-02,-1.198058053359023906e-02,6.059108972549438477e-01
5.260070905115274975e-01,3.682106421822911591e-02,-5.430889521368528761e-02,-3.376721116225485896e-03,3.924311321732804232e-03,5.120092945706711425e-03,5.406904816627502441e-01
3.489568057661334155e-01,-5.566899238696076946e-03,-2.666741665743871392e-02,3.121653493667232368e-02,-2.548159434778093577e-02,8.680384832848372922e-03,3.724383413791656494e-01
2.849712308147930306e-01,5.303047958541917684e-03,-1.135985032325217969e-02,-6.758977455711949293e-03,-3.771073709740065810e-02,-3.298568483920265391e-03,2.959527373313903809e-01
5.171382728054981781e-01,-2.232890241162599487e-02,8.442591925968967459e-04,1.247071048746421166e-03,1.347417470507799231e-03,-6.968321206246566243e-03,5.284093618392944336e-01
3.704342342171421110e-01,7.719755470697170496e-04,-2.166044966089475388e-02,-3.040992389237611934e-03,-9.710177846735880316e-05,6.084334036752610773e-03,3.815555572509765625e-01
7.806921313320406286e-01,-1.124099796910554838e-03,-1.169929568371793072e-01,7.019845101923637143e-02,2.964149603229538840e-02,-3.730607058013283434e-02,8.583967089653015137e-01
5.124701404495062285e-01,3.225644746423812770e-02,-1.030747413038478610e-01,-1.225064669613247365e-01,-6.007142955751969271e-02,3.456292208093465768e-02,6.110160946846008301e-01
5.467926267526118655e-01,2.604724226575741430e-02,-6.880171971189283364e-02,1.095697240564398739e-01,9.174856538858586555e-03,-2.726103411012439220e-02,6.066818237304687500e-01
4.054729562557349287e-01,-1.370005712928334951e-02,-3.197803671116405955e-02,-1.399157436647972472e-02,-7.186781088392310774e-04,1.114179800722823327e-02,4.297243356704711914e-01
5.180971950640994583e-01,-2.776748124342162671e-02,-1.814175141988638718e-02,7.251768792171032129e-04,-2.673259174464625351e-03,7.875311150183300440e-05,5.411373376846313477e-01
2.813063431990862617e-01,5.274409159643334011e-03,6.748958486937059464e-03,-2.029600815893515403e-02,1.321616797377865755e-02,3.771215522030555139e-03,2.785520255565643311e-01
4.095150770353930270e-01,-1.806191365519874137e-02,-2.177413445071196829e-02,7.109710533739466674e-03,3.287044596611370800e-02,-6.878847987842727323e-03,4.335413873195648193e-01
5.151558282356317742e-01,-4.442998225052655070e-02,-3.925202005025688057e-02,1.625710122704013445e-03,-2.113790704246598477e-03,4.696320208244011800e-03,5.570934414863586426e-01
3.709953281761481092e-01,-4.057843444427872148e-02,8.242582808859033605e-03,-4.030263880119303727e-02,7.109130152286685655e-02,-1.578525727498276618e-02,4.152894914150238037e-01
5.395175857216077953e-01,-5.409190567201099809e-03,-3.356887632834879009e-02,-1.266905042230963632e-02,-1.337650636513185338e-02,1.667960007536946690e-02,5.611916184425354004e-01
4.937026926708542596e-01,-2.571165082667231649e-02,-5.572824637107665069e-02,-5.028231506786977160e-04,-1.669315923254823550e-04,1.144759836214048277e-03,5.350589752197265625e-01
4.972820919438218357e-01,-3.857389876959743669e-02,-3.944153910932440832e-02,-6.663140383178023721e-04,-1.468464752949928372e-03,7.395074088226709537e-03,5.364505648612976074e-01
4.913412586484534605e-01,-5.333036505896726620e-02,-2.202733781991214612e-02,9.983817865523450519e-03,4.995697065747164338e-04,-1.034602855380143153e-03,5.300001502037048340e-01
4.851150892506370660e-01,-2.437938292996610912e-02,-5.351307005928571114e-02,4.197682923315097987e-04,-6.583460159266088345e-03,4.113283994043859075e-03,5.248410701751708984e-01
4.116307656460613806e-01,-1.130777707751912109e-02,-3.245278879017562956e-02,-2.192381151751847824e-04,-1.419245117200244009e-02,9.805845417387690915e-03,4.349253475666046143e-01
5.135006567295744562e-01,-2.608002846681506393e-02,-2.544728376185040331e-02,-3.471658333572112069e-03,-9.748934901339686813e-04,1.457009621567848835e-03,5.393066406250000000e-01
5.292565852134447635e-01,-3.406739909765946206e-02,-5.741991934040735490e-03,-7.950857702684003409e-03,-3.851635555166889411e-03,1.548348796479097692e-02,5.505753755569458008e-01
5.192362677848527674e-01,-3.337888830169502552e-02,-4.242985888289158014e-02,2.143601966254954708e-03,-1.773356684556748331e-02,1.571802265352950732e-03,5.580607056617736816e-01
5.126506517903668403e-01,-2.844914543412799257e-02,-2.363196622007784908e-02,-2.004885385805644463e-03,-6.894405779310276185e-04,2.222056009003984655e-03,5.387336015701293945e-01
3.851985813470287789e-01,-1.158682984388620385e-04,-2.859133538110636419e-02,6.516951479594224788e-04,-3.509958954311835633e-02,6.983129896372394958e-03,4.050846695899963379e-01
5.081331134273205929e-01,-4.542926446565073717e-02,-3.542322065358352590e-02,3.098581596457993231e-03,7.421753899226413501e-04,4.558464170761876780e-03,5.487123727798461914e-01
5.760336544799424807e-01,-5.846814893968582671e-02,-5.058008890595930285e-02,1.515700127834850586e-01,-7.099110172229046445e-02,-7.197546065870910614e-02,7.051459550857543945e-01
4.526702255372077599e-01,-4.085284243734008114e-02,-2.429117186382681592e-02,1.959890392797205075e-02,2.667113821299130954e-04,1.097451062702224645e-02,4.870108962059020996e-01
3.103022152772902942e-01,-4.265967846037305167e-03,-4.354821506850278801e-03,2.467803218713030683e-02,2.760587957276326027e-02,-4.589412567433370435e-03,3.211815059185028076e-01
4.908417100605590999e-01,-4.208122343351317074e-02,-3.115707985804166968e-02,3.733580452069468029e-03,-2.097277243317189135e-03,-7.166529307133137107e-03,5.277438163757324219e-01
5.194582236379030604e-01,1.732790935978040237e-02,-8.832432159966546736e-02,1.404705807397242101e-01,-4.264504841375037041e-03,5.654244990191054261e-03,6.129395365715026855e-01
5.271193493636221472e-01,2.275865371645277579e-02,-4.628805202405897323e-02,5.652318034435535946e-03,6.101976734923685551e-03,3.128631396848926324e-03,5.424098968505859375e-01
4.191385573754899396e-01,-1.077200523168286850e-02,-4.259424808154121944e-02,-3.509134072942257827e-03,-2.232118753942844910e-02,-3.171622049014817622e-03,4.484175443649291992e-01
5.188487953064206959e-01,9.685347975827429678e-03,-4.041089318221513516e-02,5.364698885732848387e-03,-2.626449094926581670e-03,-3.571547854549695684e-05,5.360702276229858398e-01
5.322227236370666859e-01,5.913885757510978225e-03,-4.799500430954031782e-02,5.465731059838714427e-03,3.886760365844458415e-03,-1.064263957541173060e-03,5.553541183471679688e-01
4.489396448089176817e-01,-3.246870147455802047e-02,-3.070438693802032826e-02,-3.950384848784423142e-02,1.903717455719696264e-02,-4.524165010155510136e-04,4.864948689937591553e-01
2.572941196650309070e-01,1.702391311798630291e-02,1.619820166029439790e-02,-2.520811407437466983e-03,1.517334951990839740e-04,1.531776910460473824e-03,2.407384812831878662e-01
4.819754053520258763e-01,-2.473735202427537749e-02,-5.471178334921283914e-02,3.164243431672581538e-03,-4.264922852581740434e-03,2.200814534885773416e-03,5.224402546882629395e-01
5.190941909560542467e-01,-3.970037097452738806e-02,-3.988163998160565438e-02,-3.447554407363466467e-02,5.369540634564759366e-04,8.459357142086300872e-04,5.620688199996948242e-01
5.176408149518711976e-01,-2.523986118162335757e-02,-7.173034847961168303e-03,-3.571198856539044698e-04,-1.975697167641718866e-03,-1.595617966679480776e-02,5.348023772239685059e-01
5.290492535307794730e-01,-4.618546901024675466e-02,1.194655920787435210e-02,6.422774241317196278e-03,1.265802296754457192e-02,-1.928978661683389967e-02,5.500504374504089355e-01
5.021038317319419519e-01,-3.096490594881115554e-02,-4.350406013729460342e-02,-2.201304563026333736e-03,2.486701891091546227e-02,7.079349935054423185e-03,5.413166880607604980e-01
7.189304265972622510e-01,-6.341372770510816936e-02,1.667812741965649104e-02,-2.571947898865105733e-02,-1.117777679754541897e-01,2.902825158041265688e-02,7.731835842132568359e-01
4.932361718597895739e-01,-2.569025185286857860e-02,-5.396751437648186767e-02,-2.765767713066476230e-04,-8.041148853457880889e-04,9.017355337338373716e-04,5.336315631866455078e-01
5.084828940559532606e-01,-4.749484650360719096e-02,-3.491184954293322096e-02,-6.899416135988212890e-04,-2.721145703779956522e-04,1.288858045214966250e-03,5.498002767562866211e-01
5.207239479973291285e-01,-3.344390460223750638e-02,-3.391684215173820793e-02,3.328777583997762687e-03,6.139803971202335668e-03,4.178854189726632592e-04,5.545368790626525879e-01
5.216193086087386188e-01,-2.444393935187191835e-02,-3.612156643250477583e-02,4.589856638037605185e-03,2.633103358574130594e-04,5.108380187113591804e-04,5.520528554916381836e-01
5.194705911048733693e-01,-4.466998920668485695e-02,1.262581443933996628e-02,6.391994803472420342e-03,3.770194404719483250e-02,-3.050505830744771121e-02,5.444199442863464355e-01
2.818935554122617981e-01,-2.348423489575983403e-02,-6.152945597397679878e-02,-6.367999917919343889e-02,8.401638413732877286e-02,-4.842691689434702740e-02,3.830122351646423340e-01
3.409128769209910370e-01,-3.877284589791465952e-02,-5.149283917885438822e-04,1.240205845624296060e-01,-8.805157512438281653e-02,-1.683327226946824268e-02,4.487221539020538330e-01
6.200173713876842019e-01,7.537821011270567917e-03,-8.015534887702208122e-02,1.270421103919712772e-03,1.779435983827580559e-02,-2.617122037560324493e-02,6.629789471626281738e-01
6.198934289345392479e-01,2.645860536728489310e-02,-7.430193793625783361e-02,-1.102270992381707525e-02,1.121426146024004714e-02,2.705683142572884014e-03,6.502892971038818359e-01
3.059833667926098455e-01,-7.673792831810893889e-02,-1.234518977444098997e-02,1.651395507774809993e-02,8.659681038048611113e-02,-3.046777083913452047e-02,3.899712264537811279e-01
5.899127126485186334e-01,-7.312574299226770602e-02,2.871670876665266547e-02,8.152565831919915407e-03,8.902175207280511871e-02,-3.848295938785673692e-02,6.410017609596252441e-01
5.147681741949048373e-01,-2.965831828105999768e-02,-6.159566188867371395e-03,5.229722480537461835e-04,-4.617041120018354310e-03,2.920180261045793573e-03,5.331504344940185547e-01
8.629474074453034049e-01,-3.648827318663722119e-02,-1.695306142690283790e-02,-5.378587792335550247e-03,-1.173533426745210217e-02,4.736698793446204175e-02,8.938827514648437500e-01
5.259619460197147989e-01,-4.534971167185458674e-02,-2.076682481906272359e-02,4.451554581520696108e-03,1.511745399691074611e-02,-2.645515159655424924e-03,5.601097345352172852e-01
6.005208528677310476e-01,-1.071011632234580846e-01,2.687629949497963300e-02,-1.751320792960460102e-02,-1.377496397950926377e-01,2.314806822311910040e-02,6.952165365219116211e-01
4.149895442986268890e-01,-3.097425039545387282e-02,-1.833592269169190270e-02,-7.336505286855471430e-02,-1.284514493563126275e-02,1.477769502957911952e-03,4.583187103271484375e-01
5.510915214244915816e-01,4.006583902952470799e-02,-7.398837971031199667e-02,-5.755369727185507406e-02,6.998614360272868186e-03,8.025495079724725197e-04,5.852575302124023438e-01
5.133414908347748717e-01,-3.356036106896786997e-02,-4.490448707971245179e-02,1.501307772396202889e-03,1.212238231021692259e-03,-4.281254593610085528e-03,5.527210831642150879e-01
4.959315411374028981e-01,-1.063185198094285244e-02,-3.734132120964497870e-02,-8.196043683278850245e-03,-4.728411926508376169e-03,4.743637828246036192e-03,5.207552313804626465e-01
6.201033260155535132e-01,4.437912903631019423e-03,-7.018161656746380039e-02,-8.221036104759636004e-03,4.382500276554195454e-03,-2.492243128184010864e-02,6.577814221382141113e-01
5.157794214357165341e-01,-4.598065081434185575e-02,-3.670931132573335143e-02,1.108415204564285918e-02,-6.977974313092862903e-03,6.231502067370194367e-03,5.577483177185058594e-01
4.184037922860138203e-01,-8.651163550880328068e-02,-1.501998296866105531e-03,1.481152971923220020e-02,1.515430078904710376e-01,-3.614973930689760473e-02,5.410341620445251465e-01
5.103454932493600715e-01,-1.293597062909715434e-02,-9.798795147424932406e-03,-6.247579292338857832e-04,3.338390816521618655e-04,4.350163479750520333e-03,5.217757821083068848e-01
7.263477926776290561e-01,3.320412446639534054e-02,-8.357161506045290844e-02,8.048173220245226356e-02,-6.401969238372093307e-02,-4.171325135322263844e-03,7.789780497550964355e-01
3.610077971572874800e-01,2.450972238027745997e-03,-2.005615715059530513e-02,-1.312432551814429098e-03,2.553609887027185124e-02,6.976932229372992747e-03,3.731583058834075928e-01
7.213170738841101493e-01,2.277681868506456486e-02,-1.091060954362323421e-01,-8.649600666447783415e-02,-1.222314246645920047e-02,2.253458173926308275e-02,7.886021733283996582e-01
7.416092829576930168e-01,-4.789302369257841807e-03,-7.506780469466495243e-02,-6.883464764406466152e-02,-7.097925203518544619e-03,4.456424781158548065e-02,7.967618107795715332e-01
6.079514739445326388e-01,-5.654792920032625236e-04,-1.067769147702085641e-02,-1.462710291169921906e-01,-1.076711815959913165e-01,4.881760099993226465e-02,6.947394609451293945e-01
5.190500931851012023e-01,-2.646291315588863990e-02,-3.688129932966954794e-02,3.523864322685416831e-03,3.851145555379601078e-03,4.633999575596393548e-05,5.508702993392944336e-01
3.297934707502607199e-01,-2.564187483459627603e-02,-7.171832669943301042e-02,7.453875022161117470e-02,4.252646099043901062e-02,6.137103114775492585e-03,4.087066054344177246e-01
4.564168006441000069e-01,-3.977998793647971598e-02,-3.063802842957225048e-02,9.094045752908574975e-02,2.933821556394550917e-02,-1.892731174590864610e-02,5.198327302932739258e-01
5.200983387475583974e-01,-3.404064634424747160e-02,-3.233976694183948730e-02,1.523492821103634943e-03,2.266769192174221056e-03,1.706971170081077963e-03,5.533186197280883789e-01
3.017835689382862840e-01,2.681120079691096114e-03,1.460469269863190478e-02,9.863759016728185225e-02,4.642321424452232337e-02,1.893368730171469602e-02,3.503812253475189209e-01
2.634887351282909629e-01,2.919118090801789411e-02,-2.610272612308656148e-02,-1.225533448494731115e-01,3.555645690422661737e-02,-2.210975688506092857e-02,3.481741845607757568e-01
3.639588062390457512e-01,-1.913107535379438007e-02,-1.190853977999270508e-03,-2.016967745450405549e-03,2.213460417358241797e-02,7.917477738067604451e-03,3.766657412052154541e-01
5.133842427985038093e-01,-3.953100412424365162e-02,-3.386782500906032611e-02,-7.026525764555971096e-03,2.712460246727015968e-04,-8.593268361337080526e-04,5.502423644065856934e-01
5.783712018866022930e-01,-1.348573246572304374e-02,-7.283937712264915154e-02,1.118214700772302700e-01,7.278608405991289498e-02,3.412036008834518769e-02,6.677159070968627930e-01
2.828621946739230952e-01,-9.022681271015825510e-03,4.248654913137597799e-03,-5.488651699651251464e-02,5.628500792368619499e-02,8.631810218032488075e-03,3.166454136371612549e-01
4.598590488864490733e-01,-3.852744504184890673e-02,-2.974591363925133125e-02,-7.381428914894835880e-03,1.954024150848822361e-02,1.207224853932147186e-02,4.958182573318481445e-01
4.349802683451439722e-01,-3.881572795351662108e-02,-2.321802138693723760e-02,-1.813927777335058375e-02,9.895721544456873367e-03,1.325993568078719965e-02,4.681283533573150635e-01
5.019755596017283494e-01,-2.750489563243893598e-02,-5.606384573325304266e-02,3.166432499127569411e-03,-2.567982720995933433e-03,1.525536348231072096e-03,5.443743467330932617e-01
6.355304994711310496e-01,-1.224827518341815025e-01,2.876628231041805650e-02,7.080431871709216840e-02,-1.321865713556461819e-01,-1.711652921159981938e-02,7.423948645591735840e-01
5.925125146113626728e-01,-1.002074176649662141e-01,2.614275552131259395e-02,9.479678615761834293e-02,-1.513784545438910389e-01,-4.114485210139517957e-02,7.135014533996582031e-01
4.181547207862729154e-01,-3.048968921187147907e-02,-2.373102056426248940e-02,-1.248901024696857584e-02,2.246482293681801440e-02,1.434566195057311068e-02,4.482126533985137939e-01
5.174982031204451438e-01,-2.009815289067853894e-02,-1.578083153279646877e-02,-1.459005363996231791e-03,4.395804537625605177e-03,-7.042753782746867877e-03,5.356497764587402344e-01
5.190261114028023037e-01,-3.157486940234979778e-02,-2.082341992758729443e-02,2.352908719386329062e-03,9.860543375294010104e-04,-3.710011703395046673e-03,5.453605055809020996e-01
5.130295531403776810e-01,-1.614694832141894132e-02,-1.811963471848584972e-02,5.722156237022338983e-04,-9.277954358625134295e-05,-1.765592802038389334e-03,5.301753878593444824e-01
5.524771358053857107e-01,-3.503120710663393256e-02,-5.203828570385371499e-04,1.122037935465537532e-02,-1.762415846949459816e-03,-2.967776725578460256e-02,5.736819505691528320e-01
5.340232990519881984e-01,-3.907357944639311409e-02,5.066092251345688524e-04,6.328877677951453770e-03,-2.125951422079053882e-02,-1.311881566144960758e-02,5.561615824699401855e-01
5.215748944877022231e-01,-2.569653496117402236e-02,-2.251177303035045707e-02,9.640331139918011506e-05,2.786372572102097534e-03,-2.485130192254192492e-03,5.457243323326110840e-01
5.286689644496622709e-01,4.084767498636010519e-03,-3.502806403050129358e-02,2.550570553786421068e-03,3.252934881782609464e-03,-3.562151614245626964e-03,5.452758073806762695e-01
5.286633730583349955e-01,-3.402092496876346628e-02,5.435170294915997458e-03,5.458099679018372022e-04,1.927289416804695574e-03,-3.683918025190157253e-03,5.440788865089416504e-01
5.991409597689580924e-01,3.506705473048993271e-02,-6.692733670617390107e-02,-1.448666410149631982e-02,1.135042047353925117e-02,2.692412326462111614e-03,6.222157478332519531e-01
5.590127004982694547e-01,2.581004829572075554e-03,-5.498865200583882840e-02,1.587673173357153451e-03,7.571897697529214252e-03,-2.106353485740844814e-02,5.886209607124328613e-01
5.188430453974341994e-01,-3.144694059779776230e-02,-4.766875342028553675e-02,4.921326896224427309e-03,1.672698313458465327e-02,-1.852847466623692074e-03,5.594025850296020508e-01
4.976477171315948356e-01,-2.997214603751022222e-02,-5.416355005085354835e-02,2.629542950788967427e-03,4.880013522304526554e-04,3.181508798892635197e-03,5.401700139045715332e-01
5.162977459615950560e-01,-2.872651672935422340e-02,-3.363276419328203870e-02,-2.693742140241783736e-03,2.097714642860638509e-03,-1.202574459030677492e-03,5.475297570228576660e-01
8.248602033573571024e-01,3.093980102474372385e-02,-8.872960890355036101e-02,-8.557365287970377515e-03,-1.191043770769356289e-02,5.219733754441615789e-03,8.604448437690734863e-01
5.673355948605405263e-01,-2.642639804782226376e-02,-7.234080649644480943e-03,2.010130784904961762e-02,8.825225648650691229e-03,-5.988153859729983958e-02,5.947514176368713379e-01
5.200111035897978518e-01,-4.984183879165970943e-02,-3.316628983154362720e-02,7.960735628276102618e-04,2.112134258202162662e-03,-1.349494818780279165e-03,5.617192983627319336e-01
8.050755780160665509e-01,-1.156498681098131476e-01,-6.587954260504874648e-03,4.497229496759131556e-02,3.539054575412704101e-02,-2.139540570071507206e-02,8.777312040328979492e-01
8.227218749853661972e-01,-1.118480064646921734e-01,-1.374891048338111599e-02,6.164512144160522178e-02,-3.131103839414078275e-03,-4.271713943038098898e-02,8.990371823310852051e-01
6.663268020692085791e-01,2.294835108139858804e-02,-1.191157788397444461e-01,-1.436321358144586058e-01,3.874288061021523982e-02,-2.158266549182707994e-02,7.702662348747253418e-01
5.158804331587418801e-01,4.605004600058233699e-02,-5.823934594253646346e-02,-1.526211108108871672e-01,-2.110211989680050009e-03,9.052453560422767456e-03,5.922448635101318359e-01
7.328672523207858669e-01,-4.425843512922578160e-02,-6.093604005219882547e-02,-5.771828997654319948e-02,1.087014074990272500e-01,-5.817928119480961918e-02,8.202193379402160645e-01
5.946795378996461157e-01,3.299800866484864370e-02,-7.929026438599706683e-02,-9.956780400780613702e-03,7.930001481200141689e-04,1.150511612520513025e-02,6.259883642196655273e-01
5.425414003210613512e-01,3.689248629710956129e-03,-3.291540829669784007e-02,2.446969201797122642e-03,5.279934137598250518e-03,1.989074462646421571e-02,5.592088699340820312e-01
5.508330246715721357e-01,-1.732619035057747503e-02,-5.486316453404174731e-02,1.043756878384123066e-01,6.027620092127384394e-02,3.404695712827625342e-02,6.265788078308105469e-01
5.128933856349829901e-01,-2.739279760009138975e-02,7.425287697777449569e-03,-2.941363730791336090e-03,-1.639354236002339617e-03,5.372026906754343717e-03,5.238609910011291504e-01
5.195412267590343580e-01,7.183592609664141149e-03,-2.738905973279820438e-02,-1.908999345671851802e-03,-2.893238508105302857e-03,5.706277621941612845e-03,5.306155681610107422e-01
5.984070976819400034e-01,1.627587000234231862e-02,-7.888180144578293973e-02,-4.029383206897162867e-02,1.038111013666269573e-02,4.915243400059707973e-02,6.448007225990295410e-01
6.304131482353213523e-01,3.835817908257405096e-02,-1.075347456512122379e-01,6.777045968599568204e-02,5.332998040328006811e-02,1.490554363410700155e-02,6.936625838279724121e-01
5.062970906928402348e-01,-3.083924273772706282e-02,-4.851818467615662267e-02,5.812207288025892857e-03,-2.353161413774295958e-03,-1.334534507323199793e-03,5.463032722473144531e-01
5.760011062263492576e-01,-6.641032799380885976e-02,-1.321154714640157546e-02,6.896401860491552238e-02,1.243258674934672875e-01,3.529510795536990042e-02,6.676250100135803223e-01
2.943018299776781199e-01,-1.703514396816832588e-02,-3.928021028710228235e-02,4.710339326858831166e-02,1.173644931529872586e-02,2.864932712768603063e-02,3.374656140804290771e-01
6.978699821351875832e-01,-8.840354184639181989e-02,7.402679504046438819e-03,2.004756928710427905e-02,1.078830554502448053e-01,3.862431063881809762e-02,7.698522210121154785e-01
5.141444397554253420e-01,-3.318070141441370469e-02,-4.380228739477440292e-02,-8.730020057011474545e-04,-9.144905010951213237e-05,-1.443285162058867074e-03,5.527202486991882324e-01
5.144064877727456686e-01,-7.705677110781100625e-03,-2.253537764019755696e-02,-2.562110210642045728e-03,1.551311418859664931e-03,1.493429230578534458e-03,5.297144651412963867e-01
3.318914300377059368e-01,-2.527362711253461347e-02,1.699910242454638620e-03,-7.230957845129905304e-02,-1.295793515141653238e-02,-7.169577503193183196e-03,3.674294650554656982e-01
5.270977143153130484e-01,-4.804554248733985955e-02,2.963417222010880647e-02,2.844736348513462500e-03,1.918682815531182358e-04,-1.914383094681555752e-03,5.405389070510864258e-01
5.128052128922907515e-01,-3.085725267651659443e-02,-4.937270162458837208e-02,-1.572425584409286280e-03,4.697653426037486199e-04,-1.267339526339766832e-03,5.531643033027648926e-01
5.173254482167062296e-01,-3.454025293211668290e-02,-2.361240414559787060e-02,-3.813059823086007490e-03,-4.130782409176252286e-03,-3.112698974028080745e-04,5.465707182884216309e-01
5.171409171549740114e-01,-3.705444949482222805e-02,-2.498789777530319167e-02,-2.449249528491158952e-03,-5.135014169850464667e-03,1.582133134089806856e-03,5.483570694923400879e-01
5.167408635210684054e-01,-4.611295732130032965e-02,-3.525316207272471969e-02,3.438089963365561011e-03,7.750026218109421503e-04,1.771128965771171871e-03,5.575451254844665527e-01
5.262913394472694684e-01,-3.708590376121656540e-02,1.684622464131921293e-02,-6.892507300048618737e-03,-7.490073928795312232e-03,1.075821497283925218e-02,5.390514731407165527e-01
5.262680325439796913e-01,-3.620169944634379910e-02,-3.984581753375784907e-02,-1.361893817954176267e-03,-1.128409814372210431e-03,-4.991499725813365942e-04,5.643095970153808594e-01
5.161029340511344987e-01,-3.637386706595574504e-02,-3.562944603630482932e-02,-5.411110175937227469e-04,-1.062001330996490116e-03,-1.911438463617109876e-03,5.521187782287597656e-01
5.194730985146327473e-01,-1.523078865923416236e-02,-2.451735970261420539e-02,-6.731974489354382481e-04,-1.306127509022408668e-03,2.321566948489352331e-03,5.394281148910522461e-01
4.851538300752897270e-01,-3.181942700565990045e-02,-2.205821467435617467e-02,1.006435782691596920e-02,8.004332581972743721e-03,6.778145286580190528e-04,5.126478075981140137e-01
5.505587388649426650e-01,-6.173211951137497211e-02,4.525763766633297824e-02,4.641674377810841787e-03,2.839589410681283687e-03,-3.232225556719531614e-03,5.665317177772521973e-01
6.798828514269597001e-01,-1.145805445461083871e-01,1.537957771984144184e-02,-9.556610868291098848e-03,1.679851358333656064e-01,-3.763291920949170949e-02,7.962366938591003418e-01
5.040079923816915830e-01,-3.668534909732357185e-02,-4.034919797403899167e-02,-2.222009076212120540e-04,6.688512829676934550e-03,-8.413787375283277373e-03,5.428540110588073730e-01
3.190445908247225293e-01,-1.024414962788104677e-02,-8.657905830613266129e-04,-7.129669037783573733e-04,4.689991427185999373e-02,7.874904786714024066e-03,3.349883854389190674e-01
2.871708202668331600e-01,-1.690694421240022949e-02,-3.861834128940305755e-02,6.514214703616987012e-02,7.123694900116736561e-02,-1.295515583420750287e-02,3.577635288238525391e-01
1.820800347329590563e-01,-3.479021601910332884e-02,7.780382206075867058e-03,9.369755648460917352e-03,8.128945861337502632e-02,5.340271432382169732e-03,2.445107847452163696e-01
5.200734086719467353e-01,-3.281315969226897278e-02,-5.059149109797317356e-02,1.679052117621213005e-03,-1.101115647034551159e-04,-1.269340337675459954e-03,5.619985461235046387e-01
5.131054469838391974e-01,-2.358676674219414848e-02,-1.704371461187997872e-02,2.472490854202029353e-03,2.316077624034480927e-03,6.493858213731446742e-04,5.334842205047607422e-01
3.897778676241356322e-01,-2.056619484332061765e-02,-2.800738570817570827e-03,-1.089995935450594755e-01,-1.803383032530779251e-01,4.477043049740916936e-02,5.482969284057617188e-01
5.075739735742470504e-01,-5.063219758174322682e-02,-3.088969930478929760e-02,5.561199064883437789e-06,1.476568159866516010e-03,2.020849400325799763e-03,5.486185550689697266e-01
4.818395601490828017e-01,-4.699101713743719655e-02,-3.066445607982407062e-02,-1.280777963043827497e-03,-6.227907577709220280e-03,8.745627328809551376e-03,5.211958289146423340e-01
5.053456452177536029e-01,-4.504385886911888015e-02,1.873718767495555215e-02,-2.180309417644334113e-03,-6.890958497088067736e-02,1.873469816730916754e-02,5.359151363372802734e-01
5.132776358930628557e-01,-3.784337651932254132e-02,-2.533534110288088170e-02,2.020977459044982338e-03,2.513817552685246749e-03,1.661151694667943862e-03,5.450108647346496582e-01
5.193146191047004478e-01,-3.803058786776092326e-02,-1.332029293538064540e-02,1.248342086682578808e-03,-1.193589035813622141e-02,4.244082952060889910e-03,5.458555221557617188e-01
7.306369396070861999e-01,-6.340131758427092201e-02,2.091047517069744011e-02,-8.209211732496793368e-02,-7.631422679665023079e-02,2.549738419197506920e-02,7.812155485153198242e-01
5.214557789405694921e-01,-4.885008257183243163e-03,-3.026897451865259714e-02,-4.750169415087128998e-03,1.053601874053124512e-03,3.361791121332159855e-03,5.395780801773071289e-01
4.070779000638852785e-01,-3.835555769311391194e-02,1.860549234324769541e-02,-2.748819958010259926e-02,-1.204404539761753518e-01,2.133498953391119862e-02,4.726872444152832031e-01
5.569550522626479649e-01,-5.996932778159952404e-02,1.509722594708282073e-02,-2.972425296397285949e-03,-2.220539731184535334e-02,-4.641161683655079093e-05,5.843167304992675781e-01
5.227921051804851338e-01,-4.750923314931063124e-02,-2.727031149020200940e-02,5.192732152844299967e-03,2.625920759053869142e-03,2.039303257974674297e-03,5.605577826499938965e-01
5.204698474143183429e-01,-3.732645642424417542e-02,-5.150720070950465246e-03,7.526614650407828554e-04,6.394340848077014958e-03,3.779618822993483472e-03,5.425787568092346191e-01
5.149624480516423741e-01,-3.751916818825840050e-02,-2.671509259348581189e-02,-2.498168407110103705e-03,-1.750536904126198841e-03,1.188277425082825663e-03,5.471889376640319824e-01
5.244016247639576855e-01,-3.174639534875253744e-02,-2.789738411745151803e-03,-3.578117784498172169e-03,2.331810424900008106e-03,4.111927954693305777e-03,5.423470735549926758e-01
8.379047954936474918e-01,-3.018947318604098262e-02,-3.653168417546076574e-02,-1.470081440599982012e-02,-3.313269441254035330e-02,5.546793244994419059e-02,8.788089752197265625e-01
5.237029443947321949e-01,-3.057179135193824338e-02,-3.055416469293126269e-02,-2.026390056790589901e-03,-4.967030117109037628e-03,3.177234227316830424e-03,5.543711185455322266e-01
4.749487781399021613e-01,-2.966178301723729205e-02,-4.282635540588272671e-02,2.746600744298022170e-03,1.525149586543909051e-02,-8.046480765326666576e-03,5.122136473655700684e-01
5.371887280022304978e-01,-4.577270090915375178e-02,-3.388591939894475269e-02,2.748159907730319748e-03,3.941807885679504860e-03,-2.755503671806040777e-03,5.771896243095397949e-01
5.437211875972304265e-01,-1.668727789327639766e-04,-2.328649988083408839e-02,4.817066672494582646e-03,5.769577193670562786e-03,4.569568646056793720e-02,5.615665316581726074e-01
7.902838423461109318e-01,-2.456268238625824996e-03,-7.946369303253419947e-02,-6.796210292371003547e-02,-1.440553360894295844e-02,4.727751674068340210e-02,8.465213775634765625e-01
5.072939825357529742e-01,-2.867566676881000420e-02,-5.294276963276106640e-02,5.835373636358732238e-04,-8.814226537506037059e-05,6.339157642678836576e-04,5.485079884529113770e-01
4.670813832363059914e-01,-2.871991182654423658e-02,-3.980877779784194881e-02,1.312587645090276811e-02,-2.119933328894871294e-02,9.088335371622152659e-03,5.035400986671447754e-01
5.409358043810724714e-01,-4.749887771051214402e-02,1.177591702809116514e-02,4.626162054021344867e-04,-3.077918195786892921e-02,8.678878716916183216e-04,5.636794567108154297e-01
5.072325339298556779e-01,-3.535105586632247832e-02,-3.066979020713522797e-02,2.080729995723873925e-03,-1.815167076405382906e-04,2.413614537523708231e-04,5.402704477310180664e-01
5.945998223374400204e-01,-6.765698891739790888e-02,2.887513890638637726e-02,2.769795863691833226e-02,6.033526060215058627e-03,2.272580978765273083e-02,6.228431463241577148e-01
5.547508208020368592e-01,-3.906246621589082313e-02,-9.312949891772365207e-03,-1.603339750308312855e-02,7.375208726642627777e-02,-1.286487382484803425e-02,5.944908857345581055e-01
4.823593145384441616e-01,-2.476828221036977973e-02,-5.715427637462922039e-02,-3.276586364187249970e-03,-6.692780058811999278e-03,-3.162826939602189549e-03,5.242591500282287598e-01
5.252663364282056380e-01,-4.736316156275333089e-02,-7.042077996087553471e-03,4.113289127493538304e-03,-1.408616532316779926e-02,2.712271619005672714e-03,5.541744828224182129e-01
6.859808088594485653e-01,-4.911550942946893428e-02,-4.542099414982667116e-02,1.267371954670438450e-01,-5.234690487481954285e-02,-7.338869792842199480e-02,7.811719775199890137e-01
5.367322532050560202e-01,-4.445725333050154493e-02,-1.570408539299933404e-03,-1.828283103540751051e-03,-7.645210234308072450e-03,1.817992341264556373e-03,5.611509680747985840e-01
4.811649699614811704e-01,-4.082848574358863281e-02,-3.471533599002477044e-02,6.198033498507143045e-03,1.064308375560912232e-04,1.063804391603088637e-02,5.194018483161926270e-01
5.548623531332221859e-01,-5.848281762409210383e-02,9.912767107408293477e-03,-3.418232879967567084e-02,-1.071861400236127498e-01,5.307687911812566939e-02,6.207604408264160156e-01
8.621612706433866569e-01,-9.548600199287243795e-02,1.434094432306420863e-02,2.015906130804944255e-02,-1.560764851524881931e-02,1.041756876358200870e-02,9.089831113815307617e-01
5.290845769825973655e-01,-5.397003032449010362e-02,2.917923048058576607e-02,6.587372973932196368e-03,-7.167547974015377708e-03,-4.002670857493583791e-03,5.465512871742248535e-01
7.854193739857904255e-01,-1.111438774624687320e-01,5.641677630755959072e-03,4.087732595126487845e-02,-9.732235681229529922e-03,-2.478787907939931923e-02,8.484687805175781250e-01
5.850101587887122090e-01,1.410180410344216706e-02,-5.770303179735580823e-02,-1.757655567074958153e-02,-5.834108077159627821e-03,2.097240464793429654e-02,6.119107007980346680e-01
5.592814808835727680e-01,-5.724764742253229954e-02,4.699734642850483812e-02,-6.582482440500968777e-03,-1.312814631712115598e-02,1.988650736330360713e-02,5.731828212738037109e-01
4.944345204333152610e-01,-3.196420982746939199e-02,-4.944581293624869534e-02,-4.123587856133867531e-03,7.356496831464435192e-03,8.955978934094610544e-03,5.357775092124938965e-01
5.024651966140327719e-01,-3.950950693876451036e-02,-5.166006281145374412e-02,4.076384996097588698e-03,8.942724199609200508e-02,9.365866289524552371e-03,5.698896646499633789e-01
5.826904347075556601e-01,9.860221671641522523e-03,-6.850824502212973788e-02,-1.949345584728400796e-03,1.897451636754462351e-02,-2.429661168664254411e-02,6.180860400199890137e-01
5.930881167809216592e-01,4.113458734889913204e-03,-4.547102554309484512e-02,-4.274660855010656464e-03,-1.128466670961497578e-03,-1.518877681219320090e-02,6.158770322799682617e-01
5.914837271840975852e-01,-9.099967406790615554e-02,1.876602812297675782e-02,-1.838953458348479425e-02,-1.282506709622198149e-01,2.549288192958584429e-02,6.747056841850280762e-01
5.259655245656451594e-01,-3.808449480636752482e-02,-2.194280900310352500e-02,3.062587545684474898e-03,-9.909010196745473426e-03,-5.515403688595296120e-04,5.564457774162292480e-01
5.314905933147998640e-01,2.870155718477415685e-02,-4.843633119166423917e-02,-5.449288830549527812e-02,6.928172168907648087e-02,-3.535711365693743058e-02,5.697278380393981934e-01
5.224995826418763478e-01,-3.946045353682053891e-02,-3.212367706548982516e-02,-2.171242139742450214e-02,2.479872546411711343e-02,-6.860911431363586697e-04,5.612401962280273438e-01
6.310176237523200671e-01,-2.298378719604837750e-03,-2.058530912046807604e-02,4.870141756428807145e-02,-9.564552168253581677e-03,-4.677132209742714680e-02,6.534199118614196777e-01
6.105691263138091074e-01,-4.114293898210930056e-02,-7.118822360176405017e-02,-1.048680773089314539e-02,8.527673839278711310e-02,-7.183837606843410106e-02,6.948674321174621582e-01
5.001698040138624624e-01,-3.656098959712902885e-02,-3.325860005276301545e-02,-3.624064392855872591e-03,-4.425025934733589975e-03,-2.607973640970437292e-03,5.351980328559875488e-01
5.425635892198928945e-01,4.468760818577774407e-02,-5.310786951479953832e-02,4.023961802595486109e-03,-6.985137041521627919e-04,2.097761948076802205e-02,5.545310378074645996e-01
7.838983307645843723e-01,-9.717689240681925966e-02,-1.018695580645878618e-02,5.777049785604355253e-02,1.252966266452486613e-02,-4.290364350765892010e-02,8.504243493080139160e-01
8.494020863766770235e-01,-6.410769045379238751e-02,-8.188577301350752347e-03,1.244079058391021333e-03,1.608432276209929412e-03,-3.721709848241441104e-02,8.892199397087097168e-01
2.778523465345550392e-01,1.586621451777346647e-02,1.089997778972219555e-02,-7.633577291336221537e-03,5.161016547254326965e-03,2.554931086547114830e-03,2.650222480297088623e-01
2.808366467164541413e-01,5.096560349351728081e-03,1.227436562368909578e-02,-2.021994223418421832e-02,1.131772514723704444e-02,3.740418697855658371e-03,2.752411365509033203e-01
4.635140946811379670e-01,-4.595540529491803916e-02,-2.383722654543501962e-02,1.546028103986880724e-02,6.949686444629377862e-04,-7.453671606868642399e-03,4.996649026870727539e-01
2.963536739864677250e-01,-1.263434486899422948e-02,3.859055711090464413e-03,3.461308845398424622e-02,1.389422525068915656e-02,3.114837807084741127e-03,3.079802095890045166e-01
2.467317889829248045e-01,-6.430841548551678721e-02,-4.189446199220361877e-02,4.353504619165247252e-02,-8.351485046203165064e-02,-3.667223836148648247e-02,3.477375507354736328e-01
4.708208292402182860e-01,-2.890874529564341211e-02,-3.997611232880898813e-02,2.276125807503206165e-03,-6.714581051319672318e-03,9.143400794238793969e-03,5.057513713836669922e-01
2.909593385218727235e-01,1.255771210453249243e-02,7.395908022540378934e-03,6.532324533107619624e-03,8.869871817558964630e-04,9.236432727337227921e-04,2.812545001506805420e-01
4.033884299248422511e-01,1.775690713685162958e-02,-3.998763449911205137e-02,7.846089722814289513e-02,1.458966384160511123e-02,-7.344333425172399656e-03,4.399806261062622070e-01
5.937983827966240025e-01,-1.117271477853924999e-01,3.710384032941779764e-02,-1.455098845766101233e-02,-4.772686476289918212e-02,-1.672831846851135021e-02,6.505544781684875488e-01
1.688104802375035018e-01,2.513362570580307542e-02,1.276768633692133142e-02,-2.766490175643484487e-03,-3.473420369439263189e-02,-4.048278750919595808e-04,1.619120091199874878e-01
3.225411313880815478e-01,4.211493403250055056e-03,-1.323226114649510288e-02,2.779402852671721685e-03,-3.500775634507401202e-02,6.741098185343928628e-03,3.332071900367736816e-01
4.980526750129217750e-01,-3.103367240229953916e-02,-2.657412427049918313e-02,-9.269988162089522199e-03,-3.515594788402229276e-02,4.123620344766124084e-05,5.306207537651062012e-01
5.090179330063286933e-01,-4.039470072728224004e-02,-5.364729849497404390e-02,-4.825698929259571862e-02,-6.363589612098134556e-03,5.547204612801134730e-04,5.625119209289550781e-01
2.962718759266405044e-01,1.513048253670024046e-02,3.276505730869766486e-03,-2.565578468598820119e-03,2.031926049380162330e-02,1.466098221668656184e-03,2.894450724124908447e-01
3.141807440532830564e-01,-2.516222118599115154e-04,2.746603810406103574e-03,2.257349021419950003e-02,1.944599439643854635e-02,9.122199872724847140e-04,3.171743750572204590e-01
3.138935776815517942e-01,-1.757160063156751328e-03,2.715661561583940231e-03,1.504840618978405160e-02,1.616732988108545571e-02,4.097100156287057735e-04,3.157650530338287354e-01
2.887707651550227572e-01,8.477739900135658480e-03,4.171370003829208417e-03,1.001093986950531665e-02,1.340839294947909766e-02,-6.876120012208574751e-03,2.842034995555877686e-01
2.785146599832276082e-01,1.860836125484335857e-03,4.624726347278743099e-03,2.850639624232679040e-02,5.895738585096054266e-03,1.696478000149733703e-03,2.798769176006317139e-01
5.945126259046669137e-01,-5.896726511819358474e-02,-4.883080371464079694e-02,1.468874880746769973e-01,-8.347274329810826232e-02,-6.761562596445029605e-02,7.210140228271484375e-01
4.193300462248307214e-01,-3.117308842019145265e-02,-2.619145105558107200e-03,5.786862729156800949e-04,3.236708731157895286e-02,1.691386968515931968e-03,4.405192732810974121e-01
5.246168101055472821e-01,-4.524454975594346950e-02,-3.730380710281627765e-02,1.379239514512582048e-03,-8.107100439344221490e-04,-5.146876342850754613e-03,5.660097599029541016e-01
4.378878178114692377e-01,-2.921291029814299112e-02,-2.363528098517961307e-02,6.432822572144163359e-04,2.820812418301176698e-04,1.113758358486583409e-02,4.647391736507415771e-01
4.908149093320134382e-01,-4.761872779807188594e-02,-2.421846097136903797e-02,1.009374487029535833e-02,-2.634798831520609791e-04,-7.121493558367207079e-03,5.275574326515197754e-01
4.483662815595695350e-01,-1.360291803916355291e-02,-4.356112349296198394e-02,-3.592914235897414887e-04,-2.157879311337569574e-03,-1.472907723864581202e-03,4.776752889156341553e-01
5.050218461998297048e-01,-4.412654570083837657e-02,-3.747379035078823861e-02,-5.305981290941986193e-04,-1.153559675204507938e-03,-3.060941145418187657e-03,5.458825826644897461e-01
5.070677461251353879e-01,-4.733868851199918293e-02,-3.762810334676416901e-02,-4.109516886813444850e-04,-1.266539698003374187e-03,-2.637348373521145300e-03,5.496392846107482910e-01
5.012212092096328675e-01,-4.955871536445455305e-02,-3.403565383875228889e-02,-2.379114271163605340e-03,-1.728323014733871600e-03,-1.845681896238880694e-03,5.432180762290954590e-01
4.447518475081768119e-01,-3.901214700951746717e-02,-1.521663251133428818e-02,2.918953061685725450e-02,5.248100726247624873e-03,1.091867353887446268e-02,4.754774272441864014e-01
5.447679175730801848e-01,2.587211143964027182e-02,-6.813548789793952287e-02,1.170289196829638334e-01,-3.984714036652518138e-02,-3.640311125255647068e-02,6.137561798095703125e-01
5.162092877472358454e-01,-2.580400958866094219e-02,-2.316513461682817576e-02,-8.482525247848032553e-04,1.375592978935509829e-03,-3.072611199299008118e-03,5.407321453094482422e-01
5.604770547833026750e-01,-1.697317692311639536e-02,-7.620172077274903200e-02,1.549134029492073572e-01,-3.358297641184924964e-02,-5.409471654244447231e-02,6.747702956199645996e-01
5.082247965869720607e-01,-4.984745249896724295e-02,-3.521171081032606343e-02,-2.173915909025994457e-03,1.581650632352469849e-03,-1.866172540607551273e-03,5.509293675422668457e-01
3.289829641253305681e-01,3.528752703919599276e-03,-4.872090466622736038e-03,-2.098065084007448653e-03,-2.837891974677662910e-02,-5.778971255764027946e-03,3.335484862327575684e-01
4.843853759708008355e-01,-2.650981671341146040e-02,-4.899673845792137938e-02,-5.283337888981132560e-03,-8.913373402845595900e-03,-5.813079920500945942e-03,5.229067802429199219e-01
4.379834511185186630e-01,-3.003027846107522714e-02,-2.367655107175589690e-02,7.905184903505482882e-04,2.901928241493079239e-04,1.070673351476444934e-02,4.652414619922637939e-01
5.118173707259111582e-01,-5.414388362495939355e-02,-2.980400831742180401e-02,-5.656231224833254182e-07,-8.804493940074628860e-04,-3.722614672945180440e-03,5.542319416999816895e-01
5.138848023278764776e-01,-9.134752516644956133e-02,2.088969954489036662e-02,5.127820699943168303e-02,-1.098253842574993533e-01,-2.679294883889227555e-02,5.976625680923461914e-01
4.686074531290919665e-01,-3.137826192557929827e-02,-3.484266542276537315e-02,-6.322787922196219956e-05,1.594192514179262454e-04,1.085102324178190483e-02,5.020788908004760742e-01
4.180725587910007479e-01,-3.541521581846257538e-03,-3.712289044165414942e-02,-5.365432013996834781e-03,-2.060874794679026442e-02,-9.547071306696873483e-03,4.412238597869873047e-01
3.194865088792354646e-01,1.038379055119498240e-02,-1.021756410985447117e-02,7.381205268184967347e-03,-3.983438525773212030e-02,2.020717442362303905e-03,3.275253772735595703e-01
3.690723285149313249e-01,-6.804918635902354462e-02,-2.522900150597530422e-02,9.854857579304483750e-02,-8.503455121485657686e-02,-6.467913772446913512e-02,4.874109327793121338e-01
5.208530711436174521e-01,-3.462874021025957871e-02,-3.375036578301002232e-02,6.536911691256876676e-03,3.312089876710278425e-03,5.900075225358957691e-04,5.551891922950744629e-01
5.097093755079928901e-01,-4.429685063038388271e-02,-4.028583659811382778e-02,-8.632418512197001167e-03,-2.836110995325282977e-02,-5.805140857005482505e-03,5.544858574867248535e-01
5.215820709483229844e-01,-1.620595094133542302e-02,-3.484957156724372007e-02,-3.636431576879980716e-03,4.634177689578436628e-03,-4.200153342637607395e-03,5.474914312362670898e-01
7.636563266755129753e-01,-8.199160956348716667e-02,-1.802964209559504427e-02,9.166871145012560340e-02,-6.718889119006463129e-02,-5.886909019974318619e-02,8.451458215713500977e-01
3.212976124753229024e-01,1.892567439651340888e-03,-1.264729438187914279e-02,8.965214824098241900e-03,-3.404750696638525476e-02,7.720277124454356758e-03,3.328253626823425293e-01
5.238909868776140399e-01,-1.542028042399973264e-02,-4.187015706431981843e-02,-1.179850598183094373e-02,8.925586914111834080e-03,2.168094532252758978e-03,5.536168813705444336e-01
3.567205535564991759e-01,-1.512373949893625058e-02,-2.245012759268660840e-02,-5.147689590213952449e-02,-4.549008724570912515e-02,-1.081806062205215371e-02,3.944044709205627441e-01
2.822274873796621897e-01,5.475763057525756539e-03,-1.134356073707612489e-02,-2.700706097360146274e-02,-1.992123970945208072e-02,-3.186233761771463304e-03,2.914418578147888184e-01
5.147036729233005481e-01,-3.570976312015536336e-02,-3.671743700480314954e-02,8.388968962166244367e-03,-6.061876338590277673e-04,1.458956085041680046e-03,5.511163473129272461e-01
5.195536187120743943e-01,-4.483492408535511009e-02,-3.776607852980570779e-02,1.186996043267905376e-03,5.423543309564828052e-04,9.899510460074684333e-04,5.608947277069091797e-01
3.997277291395074372e-01,-2.822420909992742755e-02,-4.360289676964970718e-02,-9.273432582656952750e-02,-8.760125118225116359e-02,5.887186241258769021e-02,4.991786181926727295e-01
4.369873889521687094e-01,-4.197942498173615200e-02,-3.452443048431913519e-02,-5.241151542950547165e-02,3.799534916856228683e-02,7.541518374538729551e-04,4.883314967155456543e-01
5.200665207279542290e-01,-4.369593916271694023e-02,-3.969136154688032714e-02,7.152526325558148995e-04,-8.212306291517522307e-04,2.722698313341316394e-04,5.617742538452148438e-01
8.029762040993350114e-01,-1.280597807493810691e-02,-8.166701630298944803e-02,2.410824325732182846e-02,5.094106750131327521e-02,-4.567908245045397553e-02,8.615139722824096680e-01
5.252120068062786640e-01,-1.725641284639126138e-02,-3.787645465897526709e-02,-1.517525001910177522e-02,1.113982244977441722e-04,4.580851288968301423e-05,5.536910891532897949e-01
5.497375327935980494e-01,-2.222563189216736346e-03,-4.951026233082267414e-02,-3.731541886191111490e-02,-2.079060764494158192e-02,2.540444398689572017e-02,5.834442973136901855e-01
5.196002689376442163e-01,-3.255252769959929293e-02,-2.506339607296376171e-02,1.156066017777480931e-04,3.234426837961673889e-03,-1.174512577404196456e-03,5.484790205955505371e-01
5.186846539484096796e-01,-3.331486789406060134e-02,-2.322954890836831376e-02,1.828972406913127432e-03,9.299174551261826663e-04,-1.159983025319635125e-03,5.470418334007263184e-01
4.974520829284642676e-01,-2.792001145696806907e-02,-4.976735909543744674e-02,1.073359704501195304e-03,4.391199558718150014e-03,4.900917711632221327e-03,5.367536544799804688e-01
6.781991107008531472e-01,-4.302259746130213114e-02,-6.762335145286246796e-02,-5.339486568474646061e-02,8.632353612784514352e-02,-5.755860194875579705e-02,7.611542940139770508e-01
5.053854532407606737e-01,-3.613208657262159673e-02,-4.862465673303617564e-02,3.800186186183357896e-03,-3.092823969338392726e-03,6.602274727777409508e-03,5.480557084083557129e-01
5.178124177528449223e-01,-2.776422891970614648e-02,-2.190598911576291385e-02,1.664540995860189611e-03,2.498028945017187995e-03,-2.248180436395804706e-03,5.427101254463195801e-01
5.333945319323227796e-01,1.570145232285094505e-02,-4.721610994227104507e-02,-1.185133544322558401e-02,-1.898320223451994537e-03,3.143723159574945882e-03,5.522667169570922852e-01
6.320258508325171665e-01,3.283969348521123544e-02,-1.026615512659815321e-01,1.292788476777677505e-02,1.782910960299421282e-02,-1.923740022322616150e-02,6.790731549263000488e-01
5.189524339058402269e-01,-3.344825221470573706e-02,-3.415653558387851674e-02,1.992556816398980031e-03,-1.051946774676830931e-03,-2.306796244420616839e-03,5.527833700180053711e-01
5.198880651085537874e-01,-3.896028663507286605e-02,-3.423886785014432221e-02,-9.464413231632761011e-04,1.577883232689183219e-03,-1.983300500755540517e-06,5.565117597579956055e-01
5.986549116406778559e-01,-1.889739065038559263e-02,-5.307939191370752985e-02,-4.899723014618702008e-03,-6.423190866843384028e-02,-4.890393781174323662e-02,6.505939364433288574e-01
7.878321589045845785e-01,2.174562188190151679e-02,-1.122199658772125574e-01,1.077418154454001797e-01,-7.909806914585872442e-03,-1.843786133505151414e-02,8.622627258300781250e-01
6.110532730135715962e-01,3.481783312138214681e-02,-6.010503259935390252e-02,2.855263531334601129e-04,7.024142202288263109e-03,-8.714079210335155118e-03,6.293898820877075195e-01
5.453323546550932210e-01,3.143364886515281897e-02,-5.744154178356228324e-02,4.795190972412943092e-03,2.309693957925456655e-03,1.582629496074718903e-04,5.636919140815734863e-01
5.310749923447575238e-01,2.100827117249004505e-02,-3.311503097558887720e-02,3.882850543670231420e-03,-1.841378420961590958e-03,1.946184457075507065e-02,5.402736067771911621e-01
8.861795036180952767e-01,-1.146040137081122401e-02,-7.171968309946935571e-02,5.229960353571943416e-02,3.901768736690557071e-02,4.988271098216279925e-02,9.400624632835388184e-01
8.142291873314562167e-01,-4.019659639212397328e-02,-4.856551769501948890e-03,9.637252577256302799e-02,7.434730744189034513e-02,6.346248173496414624e-02,8.704165220260620117e-01
5.618347442764923816e-01,2.539808723613840025e-02,-4.268580636456525967e-02,-9.872470200967276011e-02,-5.106074309568007369e-02,3.956537046630927146e-02,6.088349223136901855e-01
5.567248456562254866e-01,-2.772222547598687803e-02,-2.393687897039517565e-02,-1.018891811370230098e-02,-1.105895919005352342e-02,1.783270977275657268e-02,5.839629769325256348e-01
4.924616308314969104e-01,2.166974561250833986e-02,-3.900850669536476412e-02,-8.133882162938016469e-02,-1.364253462491854182e-02,2.901588520147888733e-02,5.261423587799072266e-01
6.899070714122422787e-01,1.260413555109723971e-02,-1.093681760818604465e-01,7.091230888994395909e-02,5.774871312700206177e-02,1.197257040878004289e-02,7.627248167991638184e-01
5.128258129439604573e-01,-3.610197685754923391e-02,-3.559529455476739823e-02,-5.291662028762679666e-03,-3.251256997355890695e-03,-1.668925526785796547e-03,5.487876534461975098e-01
8.078818814152953776e-01,4.142386924782232027e-02,-1.126808689749155823e-01,-6.571898265200457057e-02,3.442488230001910371e-02,1.554462324697101355e-02,8.640359044075012207e-01
5.260832958890079292e-01,-2.161227660673836759e-02,-4.117585072252155642e-02,6.787376038790427814e-03,-2.437552995788779941e-03,-1.159929463196144933e-03,5.578782558441162109e-01
5.734729307347813387e-01,2.426595358811967085e-02,-7.186455819603085327e-02,1.050288129260336031e-02,1.959037776146059159e-02,-1.769422753373087534e-02,6.050508022308349609e-01
5.267906563027420219e-01,1.133796141102300092e-02,-4.681145490819169086e-02,1.008457441821816042e-02,-6.006002955320112599e-04,3.334593395184600167e-03,5.471614599227905273e-01
5.358732778314337919e-01,-2.310197237207434195e-03,-3.323288573249455480e-03,-9.930684684648069527e-03,-1.143711962961633209e-02,3.636679456246855874e-02,5.429950356483459473e-01
5.195953646803284087e-01,-5.299368996116632369e-03,-1.806581869447859701e-02,-2.626419626574079576e-03,-3.384018176304234155e-03,2.068784363794489919e-02,5.326514244079589844e-01
5.992400896960022871e-01,1.716287528415408326e-02,-2.858340746148993472e-02,-3.648395953433231781e-02,-4.495762391609468833e-02,5.491411337541698967e-02,6.218022108078002930e-01
5.684675033544537293e-01,1.365570385462208658e-02,-5.308507690134911527e-02,-9.495829504245018038e-02,-4.856439443729664018e-02,5.464776644781974002e-02,6.264063715934753418e-01
5.778525299232971646e-01,1.222078889756297859e-02,-2.209362870180039962e-02,-8.973677707928733038e-02,-7.346175790054243482e-02,5.277100310312940468e-02,6.238816976547241211e-01
3.222630764438486617e-01,4.734480888553826983e-03,-2.585516773554596970e-02,2.478994010243376449e-03,-2.985698460991818154e-02,7.115603000259095555e-03,3.381092548370361328e-01
8.696324020964666390e-01,1.734722508901184734e-02,-1.110825906284189646e-01,2.194173604863700056e-02,3.953306811323385045e-02,1.277602075598586150e-02,9.268040060997009277e-01
5.168845280792437880e-01,-2.931462581821672742e-02,1.068054183513236777e-02,3.949927048325271167e-02,4.472853140044225073e-02,4.074729276766042574e-02,5.419883131980895996e-01
8.603450135707102486e-01,6.999968357611907610e-03,-8.857494846778957154e-02,-7.210748609857894550e-03,1.497289792411009637e-02,4.068083813661281523e-02,9.081211686134338379e-01
5.255751961645422909e-01,-3.478810494457901248e-02,-3.275324922763953039e-02,1.011616237318208880e-05,-1.655210713803178949e-03,-1.159098115496713871e-03,5.593596100807189941e-01
5.119475963934565499e-01,-3.587119704961197475e-02,-2.414872387135338916e-02,3.405831427978556463e-03,1.721703716359281348e-03,1.835062045785229058e-04,5.420930385589599609e-01
5.167165364461594468e-01,-1.799836432215784487e-02,-2.011912901743395654e-02,-3.758183968091153692e-03,-4.186657918980481868e-03,1.140121510966512607e-03,5.358706712722778320e-01
6.740392774842540735e-01,-3.870321427906564526e-02,-1.382773988678112631e-02,1.192654537076185683e-01,-4.879845217294096621e-02,-5.092102966410630427e-02,7.405986189842224121e-01
5.200998034061051767e-01,-4.118534215061678272e-02,-2.194877416173124374e-02,5.219668024264360710e-03,5.005157989858476314e-04,-3.082591345106899848e-04,5.519933104515075684e-01
6.456740274730128348e-01,-1.098725302886287558e-01,2.075483829596572183e-02,6.665608146260443290e-02,-1.187893805428035798e-01,-2.705748690879427112e-02,7.396466732025146484e-01
6.498355979010055350e-01,-1.080109861142262706e-01,1.545853255391158032e-02,5.825994814048344322e-02,-1.244581046597972168e-01,-2.934547368778274087e-02,7.451448440551757812e-01
4.386723701910792972e-01,-4.417811650827685455e-02,-1.187917867011009654e-02,1.996596891605028484e-02,7.585821646386069206e-03,-2.666344812627738283e-03,4.690225422382354736e-01
5.184905977274536504e-01,-2.958183898890062724e-02,-3.021200930595085987e-02,-7.941440113840882165e-04,-1.744848195064841628e-04,5.574524337282634303e-04,5.483904480934143066e-01
3.871833962343828595e-01,-1.220783325557794896e-02,-3.407720201402683613e-02,8.713218885560080132e-03,-6.328529598463192296e-02,-6.643268755769872816e-03,4.255599975585937500e-01
5.824399093965008101e-01,-5.601180711336992135e-02,-3.828415574294077861e-02,-5.231488780488669638e-02,1.174795972762458646e-01,-6.682386933930536954e-02,6.779585480690002441e-01
5.083428651219337180e-01,-2.931741849147362355e-02,-3.885261343643778287e-02,-2.947815711206062950e-02,2.124917527600335074e-02,3.021742220436952984e-03,5.461547970771789551e-01
3.827050117026655762e-01,-1.627792181997739229e-02,6.741599146980040147e-03,-9.821701414521315232e-02,-1.780151529876535799e-01,2.759975790314347574e-02,5.261425971984863281e-01
2.760247291620408494e-01,9.124050367286154484e-03,4.414890332691434605e-03,5.870679726136952825e-03,3.002237086911345790e-02,2.854312989914423344e-03,2.744938731193542480e-01
5.129411916362509594e-01,-5.090576979493974252e-02,-3.316661415603172625e-02,-5.918276076341034281e-03,5.988228271740717555e-03,-1.322571233236879062e-03,5.553861856460571289e-01
5.105767056213971200e-01,-3.932617878583233306e-02,-3.490029877078745790e-02,3.875346476324057453e-04,1.392568421057326653e-03,1.238186070146070491e-04,5.477091073989868164e-01
5.153009247555082606e-01,-2.469313764091410346e-02,-8.941325566418606430e-03,1.770965383635455213e-03,4.087965815757040522e-04,-2.952992804430632119e-03,5.323268771171569824e-01
5.816373415288897952e-01,4.452753004806669912e-02,-9.004449923508650588e-02,8.139738644692615793e-03,4.259605685851667461e-02,1.576326087480953153e-02,6.206964254379272461e-01
4.972143399329179703e-01,-4.319247296460101970e-02,-3.041894859887792069e-02,-5.799234653268765111e-02,1.081308881873179091e-02,-6.199604329558752736e-04,5.438207983970642090e-01
4.689633950951537789e-01,-5.090750594451246003e-02,-1.873325484045060274e-02,-1.124044309410858131e-02,3.957243026610010248e-03,2.887890247203977936e-03,5.050005316734313965e-01
4.277166049007975479e-01,2.570870768785234184e-02,-8.737864647341028745e-02,-1.464468687421341675e-01,-1.825386956381662429e-02,2.176083315986080888e-02,5.353702902793884277e-01
5.172933362228081533e-01,-1.488215440753593022e-02,-2.740302051027806995e-02,1.660894776506638285e-03,1.948015367656477951e-03,-1.030541064857853906e-02,5.388590693473815918e-01
6.819375316306517387e-01,1.898444545231464664e-02,-1.107065833009310829e-01,-1.193337767293135149e-01,8.601675126963373441e-03,2.063306111180564922e-02,7.658501267433166504e-01
5.280966534044108096e-01,6.696533394233511460e-03,-4.721962289905259902e-02,2.042037663540692462e-03,1.480075674311919637e-03,1.917457190847172499e-03,5.503699183464050293e-01
5.244269869407320872e-01,-4.020138507279530371e-03,-3.560379082425485509e-02,1.028286829118118997e-03,-1.695251250848718149e-03,2.348315614873005500e-03,5.449518561363220215e-01
3.219593804479401467e-01,-3.043369414059353406e-02,-2.108037229188727824e-02,-4.497691896634740949e-02,-7.903980944767982630e-02,2.652431905779979032e-02,3.845693469047546387e-01
5.151029069825483475e-01,-4.734700557460877479e-02,-2.621147428886266839e-02,5.454362494451622800e-03,-4.219357277942881179e-02,8.425728405501909562e-04,5.570827722549438477e-01
5.652624128522649727e-01,-2.852806240462910092e-02,-5.993975482763819196e-02,-1.738436946989357565e-02,5.557464257377542349e-02,-1.533653148072055238e-02,6.189537048339843750e-01
4.887628631462432316e-01,-8.207689444256552336e-02,-1.358180162731065233e-02,-7.449114135654569778e-03,1.332470407595823803e-01,-4.737822020461660705e-02,5.929711461067199707e-01
5.318629685222358017e-01,-4.171015125969959603e-02,-1.638715251755265556e-02,8.586047064092281259e-03,2.927178894447863763e-02,2.384592320623845014e-04,5.638214349746704102e-01
4.914134867704604837e-01,-5.467479203585487446e-02,-2.498108814347843598e-02,-5.377219849355835586e-03,4.238674669221565751e-03,5.549641880912246916e-03,5.320824980735778809e-01
4.966405066522814327e-01,-4.048377442226769318e-02,-2.039651683702309315e-02,-5.657420934235435350e-03,1.329373638090976598e-02,-7.111256257983603057e-03,5.281046628952026367e-01
5.010099885751733151e-01,-4.338623831788296359e-02,-3.457701536772858630e-02,1.604313284351954749e-03,8.309976757521833624e-03,7.210492543585708333e-03,5.403887629508972168e-01
5.270421727959193614e-01,-1.111440675006789003e-02,-1.781114560755434062e-02,-6.260133476629502550e-03,1.114287855221921843e-02,-2.243664945007454309e-02,5.433797240257263184e-01
5.139166581411349632e-01,-1.554427947511236030e-02,-2.168875755637708624e-02,4.965746228077877163e-04,1.624135061333873168e-03,-2.701155514640653666e-03,5.325884222984313965e-01
5.374425954559794993e-01,-1.312047671123711678e-02,-5.270244471632715144e-02,-4.685752261448180439e-03,2.110750747490478668e-02,-2.910008520666605356e-02,5.748232007026672363e-01
5.254199282832665574e-01,-3.007849321605504667e-02,-3.948016128358641796e-02,-1.484302771352034173e-02,6.159583885061382241e-02,-7.575652775363614887e-03,5.710558295249938965e-01
5.878454761291215247e-01,1.768865263768606977e-02,-1.130868754912566221e-01,-1.115942832859362494e-01,7.043745687246451281e-02,-2.631221560393325054e-02,6.863415837287902832e-01
4.417503478070220480e-01,-4.644870180769877788e-02,-1.683875984345969967e-02,-1.849339335595544601e-02,8.674491481515857888e-03,7.655852281362234175e-03,4.755913317203521729e-01
3.044815947694601288e-01,-4.138780039460818183e-03,-1.158310355045195916e-02,-2.396245441403658388e-02,3.417274367795229001e-02,7.419029015529908684e-03,3.209213018417358398e-01
8.024858059551400746e-01,9.606997824527563345e-03,-9.989323899664281914e-02,-7.255304765309225634e-02,7.091997101663070902e-02,-4.705178462851444809e-02,8.746370077133178711e-01
7.901524361316956124e-01,5.611056633312599962e-03,-1.166762225329963654e-01,-6.458629942906057853e-02,4.802454772194661436e-02,-3.464643742255377190e-02,8.656980991363525391e-01
3.528996282353350500e-01,-2.246201919192658547e-02,-1.306294078124552172e-02,2.504128514542714595e-02,9.450875206999968803e-02,1.146398373741392210e-02,4.080782234668731689e-01
6.175668615436098463e-01,2.725411973985514269e-02,-9.812072761750245675e-02,3.803754266674785195e-02,6.343276090824137570e-02,-4.747402925086727232e-02,6.792432665824890137e-01
7.799954159795907671e-01,2.634361074476149200e-03,-1.071304998573781031e-01,6.218118709769621805e-02,9.858222302103619716e-03,-3.181602163130651389e-02,8.465183377265930176e-01
6.339264385734190155e-01,6.095863075407159659e-03,-1.132320082121012206e-01,1.418808109180930976e-01,9.187620131278356750e-03,-1.522277641249179803e-02,7.380155920982360840e-01
8.264739034300495613e-01,2.236294646199862846e-02,-1.178994843519532987e-01,3.413219758460460558e-03,4.238843499396596076e-02,-1.206475908058382736e-02,8.859551548957824707e-01
5.245470818174577943e-01,-6.459879234865018027e-03,-3.509905889589953754e-02,2.157208029292640231e-03,-5.138176572349037212e-06,5.795337802983543821e-04,5.459039807319641113e-01
8.690654531484279799e-01,1.732388394003270271e-02,-1.087509742893820186e-01,2.352724091836060419e-02,3.909765979688727827e-02,1.042670419891030160e-02,9.248321056365966797e-01
5.771818261949812623e-01,-5.046511713715676195e-02,1.851133143963068495e-03,1.379593778604161838e-02,1.750753072094085594e-01,1.500674681186567674e-02,6.760489940643310547e-01
5.210800939223561024e-01,-2.298198951814200974e-02,-2.616306192259973407e-02,6.471698186885851967e-04,-2.749870749978933302e-03,-7.204109008531714604e-04,5.456829667091369629e-01
5.178794196358167401e-01,-3.414331933196446123e-02,-3.208157630311256336e-02,2.485454985472781726e-03,5.868753261315372977e-03,4.949587253380054652e-04,5.511059761047363281e-01
5.205041769193692325e-01,-2.261759976085206403e-02,-2.890036721264005459e-02,-2.571645974376928433e-04,8.835412949784848379e-04,2.900263075945403758e-03,5.463156700134277344e-01
3.956452715040268409e-01,-3.050479506479053526e-02,-1.021470749869643480e-02,-3.488891792174659418e-02,-9.192142825660153029e-04,1.433529338375646826e-02,4.214732348918914795e-01
4.484842282580490669e-01,-7.813902957212681688e-03,-3.711670513773196456e-02,5.701280963287983644e-02,8.234293171808587664e-02,6.768557291373271563e-03,5.026602745056152344e-01
3.170015252777467207e-01,-1.236863840716584395e-03,1.015714077832186035e-03,2.785188239157838138e-03,-1.202409703702160982e-03,8.849870900652491088e-03,3.175318241119384766e-01
4.886946287751732232e-01,-5.703808630603562912e-02,-2.351505883743881808e-02,-2.524018677888173381e-03,-1.100607295725038615e-03,-1.142263533432093334e-03,5.297924280166625977e-01
2.929267844004987964e-01,2.486036499201330074e-03,-1.479152181889914486e-02,2.135870190035852809e-02,4.535252601566564651e-02,-3.570984283470143329e-03,3.118490576744079590e-01
3.656428303133576474e-01,-6.795807244516399725e-02,-3.011895819376581018e-02,1.022796394523291415e-02,9.156825668514717576e-02,-2.005500010450659773e-02,4.468882977962493896e-01
1.782968993270293567e-01,-4.530753970399713226e-02,-2.498623020026234653e-02,3.986977030294505675e-02,-2.098691215867822674e-02,-6.571528964318219812e-02,2.547814846038818359e-01
4.854912203692997030e-01,-4.317674684251568418e-02,-3.230726138919640111e-02,-9.523620234517844382e-03,-1.055997789516023230e-03,-5.691148978396737800e-03,5.236737728118896484e-01
3.025069251089658184e-01,4.832259379194250859e-03,4.214011380563723042e-03,-1.482133567936038537e-03,-8.647205633214912618e-04,-7.103308876011114360e-03,2.982529699802398682e-01
3.158780109957800564e-01,5.206949661651874561e-03,4.063288920269705895e-03,-5.100437226389788843e-04,2.317169304490314472e-03,3.769039535279758955e-03,3.113400340080261230e-01
1.710829612086220974e-01,1.677820219070472185e-02,-7.401852581707629719e-02,-5.898433033519367985e-02,-2.080274099084515344e-03,5.170007841894529686e-03,2.378970235586166382e-01
1.925467163053808939e-01,1.085793196715720277e-02,1.837162380028289910e-03,-1.182501423369076432e-01,9.665420509559052159e-03,4.046501876848167950e-03,2.775064706802368164e-01
2.727727101593199754e-01,-2.056993408647934951e-02,-3.534398392908806585e-02,-8.134318596399257861e-02,-4.706196129409010581e-02,5.385549523906781044e-02,3.546800017356872559e-01
5.020980265416408184e-01,-4.888044517925571597e-02,-3.307150467036695796e-02,-2.782515966439005374e-03,-1.438841978531612024e-03,-6.292046179099636087e-03,5.433829426765441895e-01
4.818396124328351293e-01,-5.721551868595836643e-02,-2.411623313393387869e-02,-8.583189499797425417e-03,-1.649384751510409291e-03,-3.568774395200747813e-03,5.235465764999389648e-01
5.019953414981275230e-01,-5.093504785896826870e-02,-3.160500323439063841e-02,-2.552356925850787837e-04,-4.210358714811801855e-04,-2.016796439770416217e-03,5.435351133346557617e-01
5.008885705738210792e-01,-5.455873951172282577e-02,-2.865680513953891562e-02,-1.329291912068052616e-03,-2.185364085387734613e-03,-1.987166784291835749e-03,5.429888963699340820e-01
3.811877261717304677e-01,-1.113826752450655655e-02,-1.572822545125956983e-02,3.506209766353830110e-02,-1.815605878220886635e-02,1.110651257641553750e-02,4.009844958782196045e-01
4.896180445491182254e-01,-5.736188035015998832e-02,-2.448452857846883379e-02,6.476018232173540211e-04,-1.293596696054001051e-03,-2.845382174050465045e-03,5.313335061073303223e-01
1.876936225983225071e-01,2.069065990278020489e-02,2.097768388161859454e-02,-1.517109828748452321e-02,2.211305694934953200e-02,4.168289030223766567e-03,1.733542978763580322e-01
2.290483780272161429e-01,-3.191830300977144264e-02,-6.687764577576867098e-02,1.277749851759507338e-01,2.635890698404076346e-02,-1.732666273999355910e-02,3.611278831958770752e-01
3.670644103246771817e-01,-2.283198328527588639e-02,9.144072012438331232e-04,3.919097542469036216e-02,6.657546771793652722e-03,-1.006067909937363768e-03,3.847963809967041016e-01
5.240010240315768897e-01,-3.014850187346615473e-02,-2.914958360971392493e-02,-2.564138225671219219e-03,-2.300241422639449224e-03,7.213175181022215719e-04,5.536842942237854004e-01
8.627475168396671057e-01,-3.810433018176317965e-02,-2.338631662366175146e-02,-8.094624198650989672e-03,-8.961553462696298517e-03,5.248681040111387308e-02,8.984397649765014648e-01
4.940963498696057110e-01,-5.428427818770162339e-02,-2.771056006309968733e-02,-4.843984921360949846e-04,1.143130882475643139e-03,-1.916902134514442396e-03,5.356030464172363281e-01
5.139227115232447574e-01,-1.846339372404368073e-02,-9.552079929661505542e-03,-3.412965842656273761e-03,8.352747677476055608e-05,2.660826556057563092e-03,5.280400514602661133e-01
4.921257727224700451e-01,-3.723612523312661016e-02,-4.228397296027353036e-02,-9.785056241322974066e-03,-3.774904769512202590e-03,-5.618142064789018349e-03,5.323028564453125000e-01
5.840636832350815100e-01,-4.480793158036472379e-02,-1.144822561512873205e-02,5.177820159395055133e-02,1.894555169609591153e-02,5.642342351107416942e-02,6.279203295707702637e-01
5.044744010692696623e-01,-3.535080469229201494e-02,-4.987231105537565101e-02,-1.931036627763513822e-03,7.134677557185746186e-03,5.451662660700584868e-03,5.474616289138793945e-01
5.178855577481309425e-01,-3.397436889587998610e-02,-3.932772138043763577e-02,1.878202607672919619e-03,-1.158710109757404415e-03,5.181143055600231050e-04,5.545699000358581543e-01
5.056406271668760777e-01,-3.731271846955117044e-02,-4.669985134205972832e-02,-3.334124677538011314e-04,-4.367286390766652823e-04,-1.302819541408178471e-03,5.477127432823181152e-01
5.153607807367922566e-01,-7.881860678112639906e-03,-1.722840200048508796e-02,-4.552872190346102070e-03,1.301782380822677889e-03,6.450400971226858717e-03,5.281598567962646484e-01
5.036706256891125832e-01,-3.708230211186724912e-02,-3.932836657620433773e-02,-2.338032082988281482e-03,-2.074072042258079136e-03,-3.011770505018041260e-03,5.419315695762634277e-01
5.204741091249880380e-01,-3.633227873899327887e-02,-2.879984863704751485e-02,2.435166945972774832e-03,4.714014280789024722e-03,-9.493082937982340579e-04,5.531574487686157227e-01
5.053066806122954446e-01,-3.939649573307468788e-02,-4.835676207479003286e-02,-2.879820597667491402e-03,-4.951764349723922556e-03,-6.352263190316048865e-03,5.494378805160522461e-01
5.071837656100085523e-01,-3.755472088126754482e-02,-4.816240744810390551e-02,-1.557991599090621782e-04,2.425680233918038468e-04,-2.988956143355308171e-03,5.501435995101928711e-01
5.250365022039890084e-01,-3.735938302905583708e-02,-3.662612771918721810e-02,2.293828709039361059e-04,-4.938448430818812712e-03,-1.315694303871501377e-03,5.620994567871093750e-01
5.079107221693470731e-01,-3.486457537714121591e-02,-5.002530225732823577e-02,1.434374541383984713e-03,-2.934260954759813043e-03,-1.670537540452483264e-03,5.505489110946655273e-01
5.007458056288218717e-01,-3.135066056093588349e-02,-5.291310950531824542e-02,-1.590572278430095335e-03,-1.108749570392211998e-03,-2.005702165120754141e-03,5.432202219963073730e-01
3.656786069731832733e-01,-1.126176803235383328e-02,-5.105924399355576959e-02,5.398651088927011732e-02,-5.460724810825528380e-03,1.151067036062645640e-02,4.097557067871093750e-01
4.134465038469224973e-01,-2.340850558459117714e-02,-2.047343082574970552e-02,-1.270900211308105369e-02,-1.458213964293653304e-02,-1.674275217543927038e-02,4.376438558101654053e-01
5.179903924190718545e-01,-3.244202945534088722e-02,-2.840242107698723317e-02,2.370063666757181095e-03,-1.225278294272380986e-03,-2.436321325751235692e-04,5.484434366226196289e-01
4.554604669800873529e-01,-4.341220087190986177e-02,-2.207614072494734625e-02,1.480810937654784137e-02,1.551161017053700152e-02,-7.086503100166886143e-03,4.901178479194641113e-01
4.969221199850609727e-01,-4.511947919143130536e-02,-2.986711121593299545e-02,-1.326209577361251541e-03,-2.334024131083044240e-03,-7.161446078163710011e-03,5.347427129745483398e-01
5.225666785795114455e-01,-4.099676719721170870e-02,-3.397924122442580463e-02,6.959113839420254938e-03,-2.103741024786137670e-03,-3.738850250325431550e-03,5.602666139602661133e-01
5.102457532995526845e-01,-5.133658345024999514e-02,-2.865925789003420654e-02,2.460668041540364434e-02,1.502124715340117300e-03,-5.170113310477270248e-03,5.523198843002319336e-01
5.288076110996183798e-01,-1.263121372085501681e-02,-3.363065092783579235e-02,3.872575343517044300e-03,-1.441359583527091577e-03,7.016064113474145686e-03,5.524181127548217773e-01
5.356990302776087898e-01,4.689493695853541588e-02,-5.265833387249255204e-02,-2.632558847838389459e-03,6.723719735830658954e-04,2.418597686836102684e-02,5.470643043518066406e-01
5.090819055394200099e-01,7.679096095737830696e-03,-2.733417891646078290e-02,3.178184471465277106e-02,4.408472452585870949e-02,3.817585818407481790e-02,5.323714017868041992e-01
3.497853124848119277e-01,-7.034454024451936016e-02,1.034730045169246493e-02,3.178703267768154261e-02,-1.085864279150303424e-01,2.122453565870188654e-03,4.330554306507110596e-01
5.189863553041963451e-01,-2.379885188212357838e-02,-2.030105037789717293e-02,-3.018620514774476155e-03,4.818427572793602173e-04,1.000048552640679222e-03,5.410734415054321289e-01
5.011369222863206740e-01,-4.079569683836270499e-02,-3.286619847592103794e-02,2.670865669502713816e-03,6.200285639360715671e-04,-3.074212293417310626e-03,5.380589962005615234e-01
4.498479276652067038e-01,-3.309036710532792247e-02,-2.588571894707952792e-02,-4.855995275783291099e-02,-3.852826772367810154e-02,-8.652452283537509156e-03,4.914814233779907227e-01
2.827343544875863812e-01,3.697373438532866596e-03,2.620053740755676208e-03,3.592713912528737452e-02,-4.335332956223462986e-02,1.134340074275152696e-02,2.967494428157806396e-01
5.224918606757797956e-01,-3.364992937314437160e-02,-3.311666135274249356e-02,1.017744685996736613e-02,6.029548210959403617e-03,7.957010914899588418e-04,5.562545657157897949e-01
5.231121699450401730e-01,-2.266440702437802490e-02,-3.354962185564921984e-02,-4.347476585783613748e-03,6.913101352861833124e-03,-9.697854819573569710e-04,5.514837503433227539e-01
3.738151821518911899e-01,-2.694162532132005072e-03,-3.336894662265219025e-02,7.093731563308827140e-04,-3.603432123924266151e-02,-9.919155273481932225e-04,3.976800739765167236e-01
1.825198204469210550e-01,2.238901572143000424e-02,1.614060533543197618e-02,2.488734391540487791e-03,-4.117067673824191532e-02,8.390028588646201990e-03,1.788751333951950073e-01
2.597359717309506433e-01,1.289128716704188160e-02,-3.474717191894363677e-03,3.864613542001128083e-02,2.356511252932444456e-02,6.503352139956819142e-03,2.674199044704437256e-01
6.444734971814272684e-02,2.566039408189010190e-02,2.514739063795844859e-02,5.189445475749633607e-02,1.011056380335885983e-02,4.817508495507692029e-03,9.989988803863525391e-02
5.224573904009984782e-01,-3.531710759436387792e-02,-4.432959449210388536e-02,-2.329733096418106256e-04,2.793103095740559049e-03,-5.829591290566063684e-03,5.624464750289916992e-01
1.214735609023313706e-01,1.418205583220083499e-02,-6.499668477580969328e-02,-6.853184293116659428e-04,-3.967035842262323780e-02,-4.317718360002528039e-02,1.912887245416641235e-01
5.262009431914648205e-01,-4.439479166563148338e-02,-2.200776780619026485e-02,-5.580508793371541289e-04,-9.928519613299335161e-03,-5.975115045916773665e-04,5.600039958953857422e-01
3.718281674296002315e-01,-2.359968587645672189e-03,-2.134025323734953239e-02,-8.818466561006879255e-04,3.542685440069372194e-02,-3.696722858535300953e-03,3.889572322368621826e-01
4.999027494973700136e-01,-2.919779809277839311e-02,-5.631933132891431271e-02,-2.857736540386522899e-03,-9.700931501927620437e-03,-2.282148351359510833e-03,5.434661507606506348e-01
1.081066953939736203e-01,9.577727900978383335e-03,2.921943514316504426e-02,1.981759732047302935e-02,-6.104267473868785210e-02,-4.158142961470303201e-05,1.432316899299621582e-01
2.611736263564602423e-01,9.011760957757991575e-03,3.387810778207184237e-03,-1.977225893638476575e-02,-3.468426137800439263e-02,-6.094291820337779421e-03,2.644402086734771729e-01
5.260811601281973893e-01,-3.408839578978242746e-02,-2.974228321046698542e-02,-5.419205188626467383e-04,9.978242572426612202e-04,-2.111399386406367755e-03,5.580246448516845703e-01
5.265253694434779419e-01,-3.418264942341467383e-02,-3.716680410890479958e-02,-5.360459074948152646e-04,-3.177136257707103596e-03,-2.003419292469810296e-03,5.622444152832031250e-01
5.262535949256972323e-01,-3.554605407074129531e-02,-4.070237959136113748e-02,-5.651521914405655206e-04,-8.529617808541410662e-04,-4.964436087705420639e-04,5.643989443778991699e-01
5.281994462801516965e-01,-3.895321312962016225e-02,-3.784520676163141695e-02,-1.741170795035326202e-03,-1.454627628173809414e-03,-7.307564188042559722e-04,5.666145086288452148e-01
5.315662931745335218e-01,-2.028763755076226638e-02,-2.286223143465460073e-02,2.884748905324661591e-02,3.310329125625294331e-03,-3.077759069422423069e-02,5.579797029495239258e-01
5.227310917565981541e-01,-3.525408270426011459e-02,-2.593678779603353357e-02,-4.825089612571965662e-03,-4.048643681064968518e-03,3.581346049057018872e-04,5.534932613372802734e-01
5.258590115588402947e-01,-3.550340192376508219e-02,-3.837664626801357004e-02,-2.810720976963104658e-03,1.578710765018213370e-03,-1.541499551830414040e-03,5.628385543823242188e-01
5.277329775438550641e-01,-3.938100570770625142e-02,-3.773361857091139804e-02,-9.891390744030967384e-04,-9.330611956457275950e-04,-6.064096628399115669e-04,5.662979483604431152e-01
5.243869807115011383e-01,-3.292820254786243961e-02,-2.960779509965819067e-02,-1.957982016968522979e-03,-1.998634433286093637e-03,-3.685522006085920933e-04,5.556839108467102051e-01
5.133485726010011962e-01,-4.292414199125715868e-02,-4.350669644214763543e-02,-4.495921360960214842e-05,9.082745948952674177e-04,-6.919119810730805457e-04,5.565677285194396973e-01
5.267599712705263171e-01,-3.482299238790606544e-02,-3.577654005032612772e-02,-2.415907679093199333e-03,6.500848745571580212e-04,-1.863648314250112561e-03,5.620863437652587891e-01
5.178482516835137828e-01,-3.993813602371326654e-02,-4.027715749296323366e-02,-2.061483218572288112e-03,2.127857044679538207e-03,1.603112804531293002e-03,5.579864978790283203e-01
5.053265076170095904e-01,1.670452151159593224e-02,-4.290978845626425286e-02,-7.224479224502673713e-02,-3.964664272763238073e-02,3.516762717677686390e-02,5.436156392097473145e-01
5.095017597276716437e-01,-4.633557254102704803e-02,-3.077463215841549915e-02,1.194646548076079041e-03,2.996974260745369212e-03,-7.841353644018386054e-03,5.484191775321960449e-01
5.289464764717641820e-01,-3.948432148186278856e-02,-3.680743451504550623e-02,2.951287743642199064e-04,3.883212816407710460e-04,8.712477096186779346e-05,5.670977234840393066e-01
4.974280570516114164e-01,-3.651978435420533131e-03,-1.996674761263050879e-02,-4.985776167321955693e-02,-5.682972657653614229e-02,4.704459086514596600e-02,5.322670340538024902e-01
5.061454688610376174e-01,-1.607552730609318470e-02,-5.138302083588502933e-02,-5.648465440749889099e-02,-7.939582071990195639e-03,8.356261467023598857e-03,5.498816370964050293e-01
5.508301096735739311e-01,3.993565015543099062e-03,-5.405227337295329115e-02,6.550650361368988428e-02,8.410061297999836538e-02,2.715870522112896410e-02,6.086426973342895508e-01
5.091683770651849184e-01,-3.277478626984745014e-02,-3.532153987600966660e-02,-1.057231499215944247e-02,1.882651419319361728e-03,-4.737723706413184349e-04,5.435400009155273438e-01
5.220673191676257208e-01,-3.549148672166491103e-02,-4.481170925079433487e-02,-1.264669022211274219e-03,4.333789719116970616e-04,-7.640362347512522382e-04,5.622831583023071289e-01
5.235303592552102980e-01,-3.414351911421029118e-02,-2.358728862983752728e-02,8.110960406763986113e-05,-9.288545686565013440e-04,2.649670000021823492e-03,5.524928569793701172e-01
5.225280595483987600e-01,-3.426790961060321994e-02,-2.647831780893397657e-02,-3.884256384408149836e-03,-4.517882838268852744e-03,8.261039255885135098e-04,5.530404448509216309e-01
3.949746444766521480e-01,-3.249170812235543937e-02,-6.543250517468401917e-03,-2.323292248977490426e-02,-1.396712388596557317e-03,-8.417068567977914473e-03,4.173085391521453857e-01
5.159163767268430956e-01,-3.469948384305768241e-02,-3.702373656734167517e-02,-1.321144857223799114e-03,2.861980170526925234e-04,-4.304653471661588557e-03,5.518369674682617188e-01
5.200821566018410946e-01,-3.707818776491386692e-02,-4.157646759554325944e-02,1.220358998663126967e-03,2.291324938678149497e-03,-3.551513665262108922e-03,5.594749450683593750e-01
5.255866290627640991e-01,-3.522356370144355542e-02,-4.574642748013627025e-02,1.001554680783475803e-03,-3.814438736625076548e-04,-1.754418319982556287e-03,5.661561489105224609e-01
1.823153336427144611e-01,-5.021901666073247394e-05,3.390765831315555034e-02,-6.452473054130490691e-04,-7.757022102700564248e-02,-6.027820486122792767e-03,2.153584361076354980e-01
5.794356447382977837e-01,1.007182730291594774e-02,-4.387931813176426665e-02,3.497819242824235647e-03,2.633317922813393878e-03,2.390223998236158318e-02,5.996458530426025391e-01
4.545325701823045295e-01,-3.078099597067182613e-02,-3.210998532803277516e-02,-1.909770930680451196e-03,-8.271660846855154181e-02,-1.413658095631256965e-03,5.066745281219482422e-01
5.472159933223175177e-01,3.024787966288067231e-02,-5.833489668589164623e-02,-4.706170975275790654e-03,6.103509702317755185e-04,7.233240733751600433e-03,5.666761994361877441e-01
4.752931881136800429e-01,-2.236911505036132120e-02,-5.209239135463666903e-02,8.725601015098444560e-04,-1.039392749919541142e-02,8.285802208281133757e-04,5.134898424148559570e-01
5.112182467979570211e-01,-3.926357889754708563e-02,-4.307043534486260095e-02,-3.083114861095255402e-04,9.637611084749188707e-04,-1.335764947004724123e-03,5.524027347564697266e-01
5.056774573810067785e-01,-4.769728994587421611e-02,-3.422383145580551456e-02,9.646539566178366975e-04,-5.508450061075505569e-04,-1.159653672068557129e-03,5.467696189880371094e-01
4.270672734715897922e-01,-3.549839543719834900e-02,-3.272029752174107631e-02,-9.833337973675074228e-02,-3.070624335437927357e-02,-1.689547161347361697e-03,4.945050179958343506e-01
5.168337777308626979e-01,-4.126148334374205029e-02,-4.302539101878558037e-02,1.436222005431907331e-03,7.395144349299115653e-04,1.533939601290502637e-03,5.589926242828369141e-01
5.363012092155100552e-01,3.490845526059824233e-02,-3.781253293114641978e-02,8.505206037820728718e-03,3.049810009543232978e-03,2.850960143696620527e-02,5.439008474349975586e-01
5.222833809096125712e-01,1.364335934783075799e-02,-3.681454451722948606e-02,3.369303998926870183e-03,-2.847928432172674063e-04,1.047453430211060105e-02,5.359935164451599121e-01
5.409832103798832836e-01,-1.098996182226863461e-03,-3.083561171602308693e-02,3.709309546652543588e-03,8.558235494477272470e-03,2.151828023093051157e-02,5.590234398841857910e-01
5.325425348227239564e-01,2.466752849237380252e-02,-4.346308832488371410e-02,-8.658583921786812757e-03,5.696374842130138362e-05,1.312721787008831048e-02,5.458227992057800293e-01
5.201055298512735625e-01,-4.592458895258955121e-02,-3.799646169971476750e-02,8.760921265198421889e-03,3.988835568349705443e-03,-3.064052289789640903e-03,5.623802542686462402e-01
5.193428027555018200e-01,-4.979232602109981420e-02,-2.756471019316325544e-02,1.192464535046369040e-02,-6.339436157125051628e-04,5.737628419639526729e-04,5.587370991706848145e-01
5.671313207090607905e-02,-2.264021909258969595e-02,2.050977211251024668e-02,1.446941663564657197e-03,2.310312010027959495e-02,4.023234998103463606e-02,1.058217808604240417e-01
5.342386985672092914e-01,3.489263473064868615e-02,-4.960115320333169375e-02,-1.480976477852605395e-02,1.978477366184874277e-03,1.632161525909772010e-02,5.478560328483581543e-01
3.862101257739335991e-01,-1.001525754644400079e-02,-2.846959536052010020e-02,1.206226456687345579e-02,-2.968913121442516220e-02,8.314388264815088941e-03,4.097992181777954102e-01
5.017297619334450953e-01,-5.152065571134856192e-02,-2.924440415861004339e-02,-2.011069144610072113e-04,1.628368638529885696e-03,2.149006722334998853e-03,5.424756407737731934e-01
4.792826047882685625e-01,-4.871354836912933362e-02,-2.339545741172030513e-02,-6.642898361589673513e-04,-5.936969411744555392e-04,5.670240762798489306e-03,5.158991217613220215e-01
2.443837756688277962e-01,-3.357668775803000771e-02,-2.548813094535347379e-02,7.700846562825862385e-02,-9.948867409959637198e-02,-6.489982479817865690e-02,3.676955401897430420e-01
5.009750469542832985e-01,-5.499582866624677657e-02,-2.514508902568046711e-02,6.920690100805593215e-03,2.987091288570306417e-03,1.322415640850913964e-03,5.418249368667602539e-01
1.619767201477805840e-01,4.663063057932792521e-04,1.361173651772665943e-02,3.765196628370251486e-02,-3.969683605005471655e-02,-3.001355875296640979e-03,1.820517629384994507e-01
5.108551057987443800e-01,-4.751002763611297808e-02,-4.046786287219905631e-02,7.082849872163595470e-04,5.389512137135133276e-04,-1.106358229836632142e-03,5.548830032348632812e-01
1.065011942070625967e-01,2.377282063971791065e-02,5.645822218694106220e-03,-4.408412177119648383e-03,-6.044990867526933015e-02,-5.822111464475109022e-03,1.406938433647155762e-01
2.456643085749278810e-01,5.328561527211506110e-03,3.950988816248529600e-03,3.414484032478367487e-02,-6.737701576098228951e-02,-1.724022487418524346e-02,2.758668661117553711e-01
5.768508359133197594e-01,-3.582022040104729244e-02,-3.674141661717864049e-02,1.707969378254173276e-02,2.553572787479752720e-02,2.249919914265227638e-02,6.166693568229675293e-01
5.369283949264214151e-01,-4.390574768339480793e-02,-1.077930584158526273e-02,4.838213234060591500e-04,1.568925008261819925e-03,5.556627716891981289e-03,5.650888681411743164e-01
5.768902468617116419e-01,-5.356054682514854726e-02,-2.966834599580345233e-02,6.385473583132930848e-03,1.968573146511005609e-02,1.073170548430201800e-02,6.201665997505187988e-01
5.275830431682693167e-01,-2.745549840905020522e-02,2.014979603188160606e-02,-6.283799206279637103e-03,-1.866387453428065444e-03,2.936875942210420698e-02,5.353762507438659668e-01
5.286896630797398577e-01,-3.827485918507803064e-02,-4.434820334593331248e-03,-6.047919851787618428e-03,-8.705924391809415075e-03,5.722983043849692170e-03,5.512197017669677734e-01
5.307338872721756307e-01,-3.652037391460355442e-02,1.957413161892407327e-04,-5.168619896132647419e-03,9.410660135415197447e-04,1.499204600853970559e-02,5.505045056343078613e-01
5.208922741159650593e-01,-4.873057604054403802e-02,-1.012299744732197970e-02,1.306851948514240434e-02,7.646416724155228467e-03,-9.332905068700655254e-03,5.521938800811767578e-01
3.038575676582172536e-01,-4.360976142087265306e-02,-4.842714366178496599e-02,3.807448416328244184e-02,3.670119027562575298e-02,7.357370692733845342e-03,3.619156777858734131e-01
2.570901534546165546e-01,1.654493423584992018e-02,1.881916710563602546e-02,-2.508339390998975439e-03,7.588975334372322339e-05,2.681692027290728982e-03,2.395007014274597168e-01
4.347287260924743157e-01,-3.241389385690926495e-02,-1.729182311435120689e-02,2.265737828759664934e-03,3.919806944074728187e-04,-7.662258298479934261e-03,4.599768817424774170e-01
5.105520599956143712e-01,-4.416119298541973381e-02,-4.121324966466533013e-02,9.609768114254765023e-04,5.974146867114061600e-04,-2.380799713936452341e-03,5.532640218734741211e-01
4.901312417024856205e-01,-5.036776496930880920e-02,-2.504383265400070280e-02,-1.897834303128892149e-03,6.056748011304551732e-03,-4.549285152887623702e-03,5.284655690193176270e-01
5.269105816998724823e-01,-4.046032675072230855e-02,3.537890699083287571e-02,2.319942447058358399e-03,3.690243340257301670e-03,1.286416520651682133e-02,5.340279340744018555e-01
2.821591166691809205e-01,-7.123365988927854442e-02,3.594962877168761395e-03,1.901199999514395847e-02,1.037248032193374969e-01,-1.850028753040432183e-02,3.720611929893493652e-01
4.474250680267501390e-01,-2.517599293244521252e-02,-2.876281411766232199e-02,1.836943566901596755e-02,-2.089829035885906305e-03,-3.513953184752574566e-03,4.755230844020843506e-01
5.094541280495439306e-01,-3.314147450083679280e-02,-4.842269500783005776e-02,1.231768494225199450e-03,5.652700188325699739e-03,-4.209495046790163487e-03,5.505348443984985352e-01
5.017217140785561469e-01,-3.011585072142067276e-02,-5.131644448591915486e-02,2.984459694107811662e-03,-6.179542318742444005e-04,2.896329945122508905e-03,5.427973270416259766e-01
2.415818733058220924e-01,3.585176784888788326e-03,8.549586735926109626e-03,-4.441684688099735434e-02,-3.128318845949730476e-02,-5.700634221778778932e-03,2.538454830646514893e-01
5.174373797067253200e-01,-2.950090120002629712e-02,-3.774460860414033392e-02,-5.894848552210984029e-04,1.583574863698409966e-04,1.309025858788435287e-04,5.511074662208557129e-01
5.062321649343596297e-01,-3.424978087666566418e-02,-3.856485697468176044e-02,-8.619362857337138639e-02,-7.270712005172319525e-02,1.569139629101173883e-02,5.773709416389465332e-01
4.985434448219662751e-01,-4.919931335459357125e-02,-3.606668453701078469e-02,-7.177437544815725573e-04,3.054848702583038062e-04,-9.113429246808038564e-03,5.415277481079101562e-01
5.193951480970385726e-01,-3.133267899694064385e-02,-2.007582147930730976e-02,-4.802340555065634509e-03,-7.465303089988872647e-03,8.085490833182901876e-03,5.455830693244934082e-01
4.324644880638498501e-01,-8.746686430778999322e-02,1.667060389646254914e-02,-4.358263151599833796e-02,-1.465189750091945020e-01,2.579574924417202264e-02,5.469249486923217773e-01
5.105626505128668668e-01,-3.218097954099483071e-02,-2.854524468466179687e-02,1.149766958008682565e-03,-4.174444746569757649e-03,-2.241109522437339998e-04,5.409870743751525879e-01
5.282578118708507464e-01,-2.167947188277638548e-02,-3.455947505708945044e-02,-1.000420592486567575e-02,-3.118363325091851306e-03,7.695632108155043942e-04,5.567865967750549316e-01
4.423477360860765817e-01,-1.341975331551772954e-02,-4.915520325481492758e-02,1.098702558384000562e-04,-1.746386985051882890e-02,-6.329386802634705440e-03,4.757344424724578857e-01
5.833336176236790793e-01,-8.460187434447630217e-02,1.754185133139049557e-02,-1.799025730673415799e-02,5.454947705233376132e-02,-2.500053889150397751e-02,6.325493454933166504e-01
5.155497905278023651e-01,-3.455526755351306933e-02,-3.786416424023131277e-02,7.295311329033341875e-03,-8.651387423412955704e-03,2.798974432327092608e-03,5.521363019943237305e-01
5.171269544196946955e-01,-3.385437548014930131e-02,-4.547447139912486058e-02,1.592139715842262214e-03,1.597058226214841722e-03,5.375743060288921960e-04,5.568968057632446289e-01
5.166458406322821384e-01,-3.990245288698068826e-02,-4.502705368754869597e-02,2.793004920985100656e-04,4.482936835347236534e-05,1.217742721642456035e-03,5.591323971748352051e-01
4.923930778003333675e-01,-4.653661577547160699e-02,-2.752070870700679128e-02,-3.881481851043695579e-03,6.763260881475156860e-03,-7.148669816101843946e-04,5.298514366149902344e-01
6.835447182562359725e-01,-5.930333708055657294e-02,-7.724665547951120592e-03,2.274079237729203107e-03,1.438968837457290650e-01,2.181723191196851749e-02,7.614006400108337402e-01
5.401769753492083881e-01,-4.826074647582098698e-02,-1.239946878442421685e-03,3.244482036980032673e-03,-1.024706311469635728e-02,2.595119095943238061e-03,5.667167901992797852e-01
5.367341870105741819e-01,-4.756307199988085710e-02,-4.470298152563584315e-03,-6.858332981728418364e-04,-4.170548859656393430e-03,-7.738571951358877822e-04,5.640360713005065918e-01
5.139016002100029734e-01,-4.448276720664801065e-02,-4.204330336255843181e-02,-9.300949360784375444e-04,-4.500857278962817399e-04,-1.226604796282238343e-03,5.571755766868591309e-01
5.166939449766025927e-01,-3.573305406977195231e-02,-3.745322126139133401e-02,6.119972101638494061e-03,8.348915466519933951e-03,-3.957552564601840572e-03,5.536219477653503418e-01
8.189502148961791406e-02,2.113170058483020836e-02,1.969022142168113179e-02,-4.610600217229849501e-02,3.807081982101926526e-02,1.191388084742656941e-03,1.204639300704002380e-01
2.998862010217100416e-01,-3.172419906948151236e-02,1.708634535170881763e-02,3.212611619660519363e-02,8.846088571009437518e-02,6.246295223238160395e-03,3.505012691020965576e-01
4.774578667731266268e-01,-2.423135776546395115e-02,-3.561879599276018826e-02,-2.729132699937206544e-02,4.100645213989750903e-02,-8.234005739288823705e-03,5.147981643676757812e-01
3.941320806461820481e-01,-9.856241311421412576e-02,1.734730647937023085e-02,4.224190124825418641e-02,1.373644362543254283e-01,-4.042144826597875856e-02,5.156904458999633789e-01
5.061038765868304257e-01,-4.614972439797551673e-02,-3.775491665491104154e-02,1.650515387747227144e-04,5.736124354779851978e-04,-1.773223316034375522e-03,5.481140017509460449e-01
4.967021720319911848e-01,-3.206572089296330641e-02,-3.194355862564438042e-02,3.969543686088625005e-03,1.505371411300101755e-02,-3.802960070427708998e-04,5.293944478034973145e-01
4.526574127129729397e-01,-2.883863050337667766e-02,-3.392400731536537872e-02,-2.759851118152246638e-02,7.598023151157366761e-02,1.056299461938830890e-02,5.042337179183959961e-01
5.506021397478770840e-01,-4.957064482577303033e-02,-4.251720080151261127e-02,-9.048352379959706884e-03,4.861582701050522204e-02,-1.115610945101917079e-02,6.031031012535095215e-01
5.081705613732845350e-01,-4.548032140146515689e-02,-3.906739262398675749e-02,-1.163924019291116005e-03,-1.454123027048521283e-03,-1.880162007345898955e-03,5.504915118217468262e-01
5.083253606673026059e-01,-4.825351861274113086e-02,-3.764566758983647898e-02,-7.072866494997746053e-04,-9.915922308653889964e-04,-2.578814912948224417e-03,5.513736009597778320e-01
5.842449573296071286e-01,-1.124202240711896783e-02,-1.958120959909048775e-02,-2.028567102203688785e-02,-8.846718685427308604e-03,5.375720299305580818e-02,6.080945730209350586e-01
5.142075298672947881e-01,-1.684087003607359634e-02,-9.846985964072574316e-03,-4.346891521470490349e-03,-1.743286730738019931e-03,1.425939639532237263e-02,5.282263159751892090e-01
5.258323188671688575e-01,-3.664468323059955068e-02,-3.703287651558401228e-02,-4.463474573238003333e-03,-7.292043964506036079e-05,-1.442589601604957021e-03,5.627298951148986816e-01
5.266839850383321364e-01,-4.538751191751011493e-02,-3.900568095826753567e-02,1.798754261725595274e-36,-2.311471862555104003e-03,-2.989385006348144018e-03,5.689450502395629883e-01
4.243977975667683200e-01,-1.577401237160483416e-02,-1.942802160231155151e-02,1.379198357134139574e-01,9.127350516690135862e-02,2.340525162481790072e-02,5.282751321792602539e-01
5.490301638105445914e-01,-3.390718751822863197e-02,2.658319994252039686e-02,1.184786104155797007e-02,1.784269649200796379e-02,3.270722852039453787e-02,5.592838525772094727e-01
5.138762100333751359e-01,-4.572268595938461244e-02,-4.058592125751622759e-02,-2.553323976917646308e-03,8.990786304759727397e-04,-1.587223633519978250e-03,5.570747852325439453e-01
5.205268826842768259e-01,-4.394578233870252704e-02,-3.185652536153807390e-02,4.173192645601240050e-03,8.425807295366322114e-03,-5.265686349028531228e-03,5.588380098342895508e-01
4.704965199911823048e-01,-1.711835509453130122e-02,-5.349692829328328569e-02,-1.162730607197822895e-03,-2.110148222993016992e-02,-2.687504324984683977e-03,5.081259012222290039e-01
4.578543941815855778e-01,-1.057131203263342312e-02,-5.388721361801354637e-02,5.128020879718326865e-05,-7.836582303857597426e-04,-1.064701856446735075e-03,4.915225803852081299e-01
4.585158339351954604e-01,-1.741889526795581400e-02,-5.277549652882859710e-02,-1.195045890669179951e-03,-9.899629756278970939e-04,1.791107253101926035e-03,4.945788383483886719e-01
2.829704987300281083e-01,-6.817026619490612616e-02,-5.633040308836975707e-03,1.259046116906493706e-01,-8.228633669227135294e-02,-5.099060985090787118e-02,4.253475368022918701e-01
5.403508431615572372e-01,-2.277184671833643037e-02,-3.612617700543735433e-02,-3.182727964957484355e-03,-5.081486442686176637e-04,1.861188881735728259e-02,5.708554983139038086e-01
3.178763784820424210e-01,-1.784032089909011465e-02,-2.165739586295706287e-03,-2.906794267935195603e-02,4.875446844613984081e-03,2.937280608421719268e-03,3.321463465690612793e-01
4.874889010058233718e-01,-2.104343435087632774e-02,-5.880500256978765661e-02,-3.981360056317348765e-04,-6.903768148235887338e-04,4.354636909031884759e-04,5.284283757209777832e-01
5.497337352620306206e-01,2.364889066647876681e-02,-4.510695103144965468e-02,-1.020707688811471441e-03,5.126012789430843715e-03,7.223764342631448961e-03,5.638284683227539062e-01
4.759408255125504583e-01,-1.827194704999784980e-02,-5.745727132776434765e-02,7.146338754215736649e-04,-9.703894599777811852e-03,-2.532499793652147812e-04,5.152007937431335449e-01
4.357776643726143928e-01,-9.579440508479669658e-03,-4.205927181131638437e-02,4.100413950088498886e-04,-1.724727497859679382e-02,1.672238967616772884e-03,4.634267091751098633e-01
5.157935749511810553e-01,-4.052208251419084362e-02,-4.248109905892274996e-02,-1.305331483519131270e-03,-1.856479823135229754e-03,-6.605174490818331405e-03,5.574290156364440918e-01
5.132088481302600202e-01,-8.031622450808989511e-03,-9.186869633590416528e-03,-1.928699166016361764e-03,-1.915021829645924267e-03,1.038280917561561385e-02,5.221500396728515625e-01
5.408759153515207974e-01,3.282932081979259009e-02,-5.191699491707069125e-02,-8.391439834660082905e-03,-1.484334699027742071e-03,2.177552613666896945e-03,5.555001497268676758e-01
5.016346507010388533e-01,-3.024295498806806037e-02,-4.563781553771248389e-02,-6.355101012115893944e-04,-2.382982583609243900e-03,-6.213735178548460700e-04,5.397577285766601562e-01
5.239883563738829686e-01,-4.161449379639600710e-02,-3.877854573099032143e-02,-7.249357100162528338e-04,8.318137957088998519e-04,-2.669679676434506821e-03,5.642123818397521973e-01
5.335282548079318676e-01,2.060462059237821997e-03,-4.024250833952874862e-02,1.047419602422719823e-02,1.674164104400441104e-03,1.365636049609577230e-03,5.541419982910156250e-01
5.320849442986018696e-01,-2.053703715891946890e-03,-3.434492470519504015e-02,-1.965579234684937133e-03,-1.908902811837524371e-03,6.933396180083979503e-03,5.511456727981567383e-01
5.178069460016000436e-01,-3.342362293939263318e-02,-4.958632286591235783e-02,-7.292823197386464089e-05,-9.034200294571085666e-04,-2.603885950224998306e-03,5.595074295997619629e-01
5.157118090517862630e-01,-2.081978831079203673e-02,-2.560471545925291359e-02,-5.064685003032002794e-03,-5.432385707360515292e-03,7.147102376701216890e-03,5.392355918884277344e-01
5.213854115292868574e-01,-3.812304492644488785e-02,-4.137653636442559235e-02,-6.855597576715999125e-04,3.184895709836628799e-03,-3.712758029870829365e-03,5.612074732780456543e-01
5.235765797471217953e-01,-4.132458812119649272e-02,-3.502503590453517890e-02,-2.523220717672674390e-03,-2.138827063970165365e-03,-1.345070635720097517e-03,5.618119239807128906e-01
4.765719448918169787e-01,-1.767548109750760599e-02,-5.571253401171241681e-02,-2.698836447538263857e-03,-7.908975308694827025e-03,-2.397810295451776978e-03,5.145423412322998047e-01
4.973303221885773118e-01,-3.971539186866659965e-02,-3.360387408973641854e-02,1.928802899758112060e-03,-1.942292798180019452e-03,-6.011849649818531982e-03,5.341387391090393066e-01
5.213805963661281018e-01,-4.358659817970936268e-02,-3.646078678829600683e-02,1.804875096475341877e-03,5.391354609981332293e-05,-2.287629467895247511e-03,5.614609122276306152e-01
5.130312156872484097e-01,-3.398713649666931791e-02,-2.328493217025656703e-02,4.145592446492826245e-03,4.186660255681829259e-04,-7.972875530382617093e-04,5.417963862419128418e-01
5.277944936915048846e-01,-3.675371566064558615e-02,-3.975955519612262012e-02,-1.909525111675254572e-03,-2.452380435193424798e-03,-2.528598257381679186e-04,5.660828948020935059e-01
5.239087527824635160e-01,-4.533726151643127644e-02,-3.733157118502089533e-02,3.156735378958638264e-03,2.780903406742401412e-03,-5.280482189852151766e-03,5.654066205024719238e-01
5.253464041973328058e-01,-3.899686494710155604e-02,-4.167917456504752205e-02,7.865332447475992077e-04,2.893776879008448741e-03,-3.372207887882572482e-03,5.657432079315185547e-01
5.223584506500755786e-01,-3.607576886011312767e-02,-4.057233377246716177e-02,-3.036423186849820672e-03,-1.344848968241517829e-03,-9.116112490805558738e-04,5.607277750968933105e-01
5.176210108883588790e-01,-2.822495382225823080e-02,-2.323999520294367516e-02,6.438654106012538193e-04,2.691006248545649467e-03,4.112399721100287427e-04,5.433922410011291504e-01
5.019944626572707680e-01,-3.460147919202810618e-02,-2.638158845949109543e-02,1.667019246539919175e-02,-3.887556921350224237e-02,-1.251045838774448010e-03,5.375540256500244141e-01
6.000393134186013944e-01,-2.013377347937422845e-02,-4.165651443240361851e-02,-2.605892297329944970e-02,-1.029304824201715193e-02,2.647110991435000504e-02,6.347305774688720703e-01
4.909011895429701844e-01,-3.682163828211601486e-02,-3.847055740003074709e-03,-2.126889217236888497e-03,-2.351886248176740177e-02,5.538699503510701241e-03,5.137531161308288574e-01
5.212203571049380812e-01,-2.551182575798574548e-02,-2.025105035429564104e-02,2.273450999573863127e-03,4.777114977609849683e-03,-8.448037803215980093e-03,5.443947315216064453e-01
6.099958399021776501e-01,-2.737438121132465541e-02,-1.756834397887258037e-02,1.496341569271290341e-02,-7.357245681926981307e-02,5.278322108919354660e-02,6.521928310394287109e-01
5.166042003645922032e-01,-1.916202465568714319e-02,-2.311621371043853790e-02,3.308566592062681198e-03,1.724758356667904693e-03,-1.196350001828455243e-03,5.377970337867736816e-01
5.168596833142689029e-01,-2.330408893203714249e-02,-1.674835490777576430e-02,4.696281191274427787e-03,-4.713379076838929496e-03,-1.318459135153272595e-03,5.370444655418395996e-01
5.179032933347903489e-01,-2.485257464433354713e-02,-3.094228363596857045e-02,2.635295548677420510e-03,-6.324306572810158705e-04,-1.009712811697092202e-03,5.458492040634155273e-01
4.823772149884240079e-01,-2.459178526714758672e-02,-4.293933423770446289e-02,4.271992170563074578e-03,-2.248060834380210399e-02,7.067460914251791695e-03,5.180507302284240723e-01
4.325389195251321262e-01,-4.886244555817764734e-03,-4.215957153824637094e-02,-1.186954918139880057e-02,-3.718452646099317188e-04,-1.313934172423428075e-03,4.576708674430847168e-01
5.060753878042985043e-01,-3.475010743631704035e-02,-4.123466659674709933e-02,5.625003883704656274e-03,-1.184052044000240625e-04,2.988282465409427234e-03,5.442086458206176758e-01
5.180858553633229668e-01,-3.886697910114139676e-02,-4.250556613338626888e-02,3.250267861373968073e-03,-8.497963223113243897e-03,-8.194079556437870553e-04,5.590049624443054199e-01
5.361756071291724490e-01,-6.033815272631826154e-02,-3.297602981483330198e-02,8.539728630617382868e-03,-6.627084926639573159e-02,-2.232074641138404210e-03,5.946971178054809570e-01
4.148582482575181585e-01,-8.515031770289641089e-02,3.700232456538229964e-02,6.674178427798363802e-03,-1.378169883240873417e-01,7.590417052273643224e-03,5.110180974006652832e-01
5.108953413848295044e-01,-3.941430775235468809e-02,-3.136433187379558674e-02,-6.714095785351937781e-03,1.832688284862038974e-04,-5.486022319836584421e-04,5.464538335800170898e-01
5.289338035028934293e-01,-2.257460846268918853e-02,-3.773183033907220874e-02,-4.862492884673022542e-02,3.381630153596238645e-03,1.956773023778921733e-03,5.655878186225891113e-01
5.236826286148512644e-01,-3.747964273637638399e-02,-4.377612629943430922e-02,-9.955405959520698643e-04,2.327954502887117933e-03,1.989766583769609547e-04,5.643540024757385254e-01
4.806479604635086056e-01,-2.380102470035050377e-02,-5.060461874736735255e-02,8.932863244506053513e-03,1.091023822049889958e-02,-8.842976328204280381e-03,5.191717743873596191e-01
1.658355198212174419e-01,-3.404872248600376849e-02,-6.287038655125376518e-02,-7.678439202228288379e-03,2.528648385213306052e-02,-1.369621097471997173e-02,2.218180447816848755e-01
3.471433359323510270e-01,-8.128591373632895745e-02,-8.249369932389741256e-03,-7.383785149528012716e-03,8.656119646179838423e-02,1.494071762845446778e-03,4.245512187480926514e-01
3.235274906931160377e-01,6.047380925730913570e-03,-1.201047845826488936e-03,1.204296711669386715e-03,-3.169688192589399222e-04,1.045632158887772629e-03,3.211780190467834473e-01
4.409343804763484198e-01,-4.407520432883652028e-02,-1.638258391092839439e-02,7.672043864708850969e-02,8.441680807601640094e-03,1.845943584522321233e-03,4.903591275215148926e-01
3.414705339914981819e-01,-7.946300119754431956e-03,1.212192689031318937e-02,-2.057600652407481478e-03,-5.329931019317323340e-03,3.909661949927919350e-03,3.400389254093170166e-01
4.151138027668912489e-01,-1.931376338559023798e-02,-1.647400459819686747e-02,-1.343540687370203997e-03,-1.606152016408124005e-03,-1.010859823910244953e-02,4.333836734294891357e-01
5.349468299824556849e-01,-1.066397152355880174e-02,-1.041703815108491193e-02,-2.748699276522757751e-02,-2.357888950153082253e-02,2.806980791650073165e-02,5.512301921844482422e-01
5.112111963836751816e-01,-4.115735927131711214e-02,-4.864134468673239620e-02,3.895132244697593719e-04,-5.590037409689724594e-04,-3.315937046503971385e-03,5.561792254447937012e-01
5.130702599487613202e-01,-4.032886467825538834e-02,-4.591621014203289830e-02,7.783385899832092605e-04,-1.061528128646727119e-03,-1.181282019505754295e-03,5.562222599983215332e-01
5.123752433914496862e-01,-4.168028828227729465e-02,-4.458603314694170594e-02,4.946927242205154124e-05,2.170549932444524233e-04,-1.896457868251260215e-03,5.555239319801330566e-01
5.132367470376998364e-01,-3.629440885067045097e-02,-3.974750382890829270e-02,8.483155729074955175e-04,-8.724243479052940994e-04,-2.188564959627520886e-04,5.512699484825134277e-01
5.137531811938280679e-01,-6.947741105883392665e-03,-1.486429146982284899e-02,-2.104568079401883309e-03,-2.604484363202543788e-03,5.064892202531690729e-03,5.248093605041503906e-01
5.139384058370248809e-01,-4.012335794099561315e-02,-4.181188139503846934e-02,-6.745056977651792346e-04,1.726858134142473340e-03,-8.780226522691437574e-04,5.549193024635314941e-01
5.128290807872811774e-01,-3.799107409593668883e-02,-3.538985126505039824e-02,2.326365789102002434e-03,4.317976934166365961e-04,1.955003566368218625e-04,5.495395660400390625e-01
5.022213068697158889e-01,-4.612472629916603006e-02,-3.688502023013029429e-02,-1.390332000676366715e-03,-2.098495447517758771e-04,-1.299740827652735159e-03,5.437951683998107910e-01
5.108943604021103368e-01,-4.463386506251734720e-02,-3.713734826463177541e-02,-2.519030417752488211e-03,-8.107625376821569639e-04,-2.867412685222300080e-03,5.518595576286315918e-01
5.191256695734607352e-01,-2.313978454980619714e-02,-2.673820654723010892e-02,-1.244530013877812209e-02,-9.830541960257623349e-03,1.489353550609528835e-02,5.453770160675048828e-01
5.147079077591110163e-01,-4.012109717235204376e-02,-3.699184950379447168e-02,-5.047395244268158094e-04,-1.594860955743928254e-03,-1.433931644901846603e-03,5.532841682434082031e-01
5.341379842155296043e-01,-4.155890906867110157e-02,1.016947823190503253e-02,3.214511444943135370e-04,5.113479399695395472e-03,8.869841530770026725e-03,5.519399046897888184e-01
5.135314379606474855e-01,-1.295288274091949132e-02,-1.662175281337519017e-02,1.744832018598519569e-04,-2.312527747632164930e-03,4.231798149698678090e-03,5.283944010734558105e-01
6.217290241605979428e-01,-1.996036269160303411e-02,-2.201001341915803655e-02,-3.009591490114420925e-02,8.161403523478832564e-03,5.898667084185000437e-02,6.530238389968872070e-01
5.154104830972192630e-01,-3.209556928892373651e-02,-3.211219459970851564e-02,2.613101148527661576e-03,-1.517303614230003025e-03,-4.960223588287631866e-04,5.475400686264038086e-01
5.105858052066817310e-01,-1.811982814040827283e-02,-1.204611895196472382e-02,1.847573535155244844e-05,-1.990026571392093137e-03,3.664617478226350668e-03,5.257447361946105957e-01
5.151226816919334262e-01,-2.993139844050879406e-02,-5.724521531018905707e-03,1.039789406109830194e-05,-2.419004742801174942e-03,3.223328367096837434e-03,5.334084630012512207e-01
5.163289407953974841e-01,-3.835464470095420464e-02,-3.597159014503714669e-02,-1.565766212226428174e-03,-3.359321703499306626e-04,-8.699452400681959062e-04,5.535048842430114746e-01
8.568032313722506732e-01,7.097285445020917738e-03,-9.897305526268895814e-02,7.101395200999086228e-03,1.883574596892089933e-02,2.030177127190955361e-02,9.087529182434082031e-01
5.079148928752108549e-01,-4.888340205049473974e-02,-3.323793106540032238e-02,7.654453293854185858e-04,9.765073160522674128e-04,1.241000480571184976e-03,5.491511821746826172e-01
5.081376130922974355e-01,-3.901379104261420983e-02,-2.546289771959167614e-02,4.377791324083581820e-03,1.149273629230494450e-03,-1.224046674412646290e-03,5.405643582344055176e-01
5.282496781407146624e-01,-4.020035785416375962e-02,1.697582019476065462e-02,-4.524355277850051810e-05,3.718080275982645067e-03,-1.161511134624580721e-02,5.425393581390380859e-01
5.515194261702440759e-01,-3.751757332196961614e-02,4.926515785012353099e-03,1.556169204978642868e-02,1.288977634559419078e-03,-2.546647803830254242e-02,5.713510513305664062e-01
5.195301133575795927e-01,-3.683793584900302287e-02,-3.478951156507761877e-02,3.682128052176122154e-03,-6.120802958507910903e-03,3.423180038484349014e-04,5.554847717285156250e-01
5.175950683428218735e-01,-3.759451240821551354e-02,-3.888831840967357789e-02,4.085434043532818610e-03,-7.772198189854700448e-04,1.316071453272911213e-03,5.558889508247375488e-01
5.320066538721128779e-01,-4.839198723039231376e-02,2.263666083459731082e-02,4.286119457685878473e-03,-2.755506396168825624e-03,-4.566119903860682908e-03,5.484734773635864258e-01
5.502783406344120554e-01,-6.333670813889460960e-02,3.715776209563345645e-02,-1.240448536293084839e-02,1.430576686300136105e-03,-2.271600573726064928e-02,5.718159079551696777e-01
5.299315899938132901e-01,-2.846679901835882931e-02,-1.202014277838409084e-02,-4.808223263280752592e-03,9.793980429075284724e-03,-1.388233925635276936e-02,5.512084364891052246e-01
5.179873731293853645e-01,-2.469941371101089245e-02,-2.371332650545510123e-02,1.873641802516897445e-03,3.677844311966756239e-03,-1.265784189849285648e-03,5.422459840774536133e-01
5.168524172593805810e-01,-2.900375558964074507e-02,-2.450676008047517063e-02,4.638902896396050843e-05,3.274247183354686997e-03,-9.890318985231829653e-04,5.436539053916931152e-01
1.937194131829772514e-01,-7.258671063217224384e-02,1.622528238357321198e-02,-1.277939661083779804e-03,7.412742898170744665e-02,-1.863727595308531382e-02,2.696051001548767090e-01
4.291181095424051462e-01,2.696348432388211147e-02,-9.325910274748705486e-02,-1.496003242716249515e-01,1.243829631092341044e-03,1.218507278342161569e-02,5.404819250106811523e-01
4.277661627095428742e-01,-3.876770882103552918e-02,-1.481235651807707998e-02,-8.857307357562441705e-04,7.108010563419709868e-03,7.434898178925833899e-03,4.553805887699127197e-01
4.722364367951323860e-01,-5.486970129662710471e-02,-2.074547459307249375e-02,-4.222089062590874482e-04,-3.076250088892788629e-04,-2.602941594690492706e-03,5.109201669692993164e-01
4.775085902871601951e-01,-5.284150593148201347e-02,-2.651926366892129461e-02,1.144155391268428679e-03,1.113434560930014411e-03,-6.785208754267648378e-03,5.178318619728088379e-01
4.958689470621896467e-01,-3.651649716736024565e-02,-3.353393364131035392e-02,-1.911580265696029984e-02,-1.442769208262339488e-02,-5.631023752874763158e-03,5.326078534126281738e-01
5.839852064197210701e-01,-5.065383156100086715e-02,6.577703381962340945e-03,-4.767748164300182612e-02,-5.992256379875945255e-02,3.011679001911185538e-02,6.245265603065490723e-01
1.323370695991233359e-01,9.513994531063517390e-03,6.094792982279439997e-03,-7.706949398881893232e-02,3.221710999085032612e-02,1.354560409750056246e-03,1.909335106611251831e-01
4.672882282215292116e-01,-5.037498048209973489e-02,-2.272592404371970298e-02,-1.229546268390731625e-02,-3.240639899802496421e-03,-7.798207379471481723e-03,5.050685405731201172e-01
4.712444674571071856e-01,-5.286925237872625027e-02,-2.419612662793507729e-02,-1.801601943872781914e-02,-1.045610945449356594e-03,-3.715557819479109111e-03,5.113783478736877441e-01
4.118953016058065630e-01,-3.067111737708200225e-02,-1.892766819296276548e-02,-1.408208620558229485e-02,-7.196155923126074799e-03,-1.193026329323032195e-02,4.381586015224456787e-01
4.773482860253044358e-01,-3.194652143234905095e-02,-4.113836587495653396e-02,-1.984531971066834030e-02,-1.819958421280024052e-02,-1.290917725887200454e-02,5.165483355522155762e-01
2.617003770586066036e-01,-5.939486242457714393e-03,-2.290743418755719629e-02,-9.127620728216802315e-02,-3.830584756690397913e-02,1.253745369850420115e-02,3.260796368122100830e-01
5.057579027209970768e-01,-5.647496419482023189e-02,-2.383320259435925403e-02,-5.434712541852986488e-03,-4.469982113933842344e-05,5.510408950953786316e-05,5.467244386672973633e-01
5.076432575777296563e-01,-3.781808185134863387e-02,-3.255533119661951913e-02,-1.342145833801515649e-02,5.379578870211637436e-03,9.042938453642366441e-04,5.434287786483764648e-01
5.093505456578355517e-01,-1.848146066704126067e-02,-3.296551407481296270e-02,-4.606308504858712925e-03,-3.081056699758243957e-03,2.504206036974522109e-03,5.353246927261352539e-01
5.258310173785563091e-01,-1.723712777821587161e-02,-4.325744120075483701e-02,-1.269282123445167505e-02,9.996563453704551336e-03,-4.368356555075723771e-04,5.572383403778076172e-01
6.159742269106166512e-01,-2.442008800254907852e-02,-1.426505776365286082e-02,-5.307682201666901259e-03,-1.019034351443794638e-02,4.843405124127068972e-02,6.412007212638854980e-01
5.619556215114258624e-01,4.100569130423517561e-02,-4.664407190642025358e-02,1.929020002128230271e-02,1.949348052466494050e-02,4.578750401528546704e-02,5.773025751113891602e-01
8.355017544732911139e-01,1.938243330840749845e-02,-7.431552075472114272e-02,1.017594470252497886e-03,9.362119663733512939e-03,3.469832056543825649e-02,8.690090775489807129e-01
6.246583560324442397e-01,1.613002333212690265e-02,-6.994133336466223927e-02,1.698978289922322207e-02,2.695197424329214692e-02,-1.135721824698570845e-02,6.584253907203674316e-01
5.292949389442729302e-01,7.818807212093104031e-03,-5.653873097170447615e-02,2.412087660043205767e-02,1.008708554152900304e-02,-1.397391242884642171e-02,5.588172078132629395e-01
3.625523876338468399e-01,-1.966966315701873524e-02,-9.721059506349799539e-03,6.964989966893392337e-02,-1.769844213681284403e-02,3.809025502080651097e-03,3.973998725414276123e-01
6.397634616607292823e-01,6.940609171244005449e-03,-3.987497205016862778e-02,-5.950611466376109354e-03,-4.531100486991892703e-03,3.949191412156799474e-02,6.611573696136474609e-01
5.952490636189019524e-01,8.482334139820579821e-03,-6.807852359467059244e-02,-2.884474207338118615e-02,4.429595783887416713e-04,1.298431654732505429e-02,6.309378147125244141e-01
5.283777627712085145e-01,-3.408536027798336754e-03,-3.823377702413208179e-02,3.834092340952585665e-02,-3.902301594788849803e-02,-4.209329933431115583e-02,5.628703832626342773e-01
5.484348912192580361e-01,2.997526456823526586e-02,-5.363068942619075852e-02,-1.663049224971033593e-02,2.794279283383479216e-03,-8.086985657711693795e-03,5.658497810363769531e-01
5.203544842192229236e-01,-3.800428208856693191e-02,-3.963717759162088683e-02,4.594033357571834959e-03,1.070958296660021701e-02,-3.127565072973906984e-03,5.595673918724060059e-01
1.962579834808312329e-01,-4.398823245399673121e-02,-4.046065588295677529e-02,-5.744160628979449318e-02,-8.869153928980651191e-02,2.249558075760199269e-02,3.031477034091949463e-01
3.329468087803967302e-01,-1.472882828633814700e-02,-9.849641660638813745e-03,-2.468512656738577893e-02,9.647702719304726560e-02,2.628448437543713309e-03,3.859767019748687744e-01
3.987914240298527924e-01,-3.089474919526011276e-02,-1.584312154006731199e-02,-1.904285831626127690e-02,-1.847417025003679145e-02,-1.279855935670731228e-02,4.254320859909057617e-01
5.127012270402360183e-01,-3.987976565358303249e-02,-4.655686379255324914e-02,-1.182699909406702016e-03,3.479015559656022712e-03,3.821187747989381999e-03,5.560254454612731934e-01
3.676437739877980171e-01,-5.516883451489595913e-03,-1.651000682474218495e-02,-9.832791658526637314e-04,-1.883044223829216397e-03,-6.164368884446819533e-03,3.789452016353607178e-01
3.227567727685795584e-01,-1.246068088493498816e-02,4.988446566139850824e-03,-3.330918921072287264e-02,-1.733940675178471729e-03,-1.095984242654920657e-02,3.324512541294097900e-01
3.929948038450236103e-01,-3.038782243645876679e-02,-6.277850916452609731e-03,-2.345739253642753139e-02,-1.954792315369756036e-04,-9.274487912844518386e-03,4.141682088375091553e-01
2.543215827441029919e-01,1.915699361732842859e-02,-6.888392393682896131e-02,-1.228545209779338121e-01,-5.286207159556157581e-02,5.370356891980426761e-02,3.821947276592254639e-01
5.532487985832592603e-01,-3.460041833172808334e-02,-2.436824538952842012e-02,-5.884676386636069657e-03,-1.797969294099602267e-02,2.508756804259122328e-02,5.853360295295715332e-01
3.518465038180136339e-01,-1.833842934671239822e-02,1.029627326074235294e-02,-2.997558355940498857e-03,-3.696685640675587570e-03,1.472770033520004733e-04,3.568258881568908691e-01
5.293745580846662691e-01,3.112187855465459174e-02,-5.845399497510433973e-02,7.419060883540737859e-03,7.966002160421174413e-03,-9.186468224706336588e-03,5.491080880165100098e-01
5.012499629941435941e-01,-5.657662941151450631e-02,-2.487251984029961727e-02,9.005014153348249450e-03,1.594356709691912123e-03,-2.100141104598199273e-03,5.429129004478454590e-01
5.046769776270718655e-01,-5.623696667179545194e-02,-2.633837487399531829e-02,2.771764261535887477e-03,-1.065319782125744713e-03,2.407599364491190986e-03,5.466184020042419434e-01
5.327125510908281569e-01,2.237433765312266121e-02,-5.799627306409485539e-02,9.967780928775001048e-02,3.141286242008664489e-03,-2.640551577477731962e-02,5.829657316207885742e-01
5.762975778440585506e-01,-7.891788011034434058e-03,-6.629856754356214243e-02,1.050735644878019945e-02,1.070187289498945003e-02,-1.020863717236980420e-03,6.160252690315246582e-01
4.918946604098120567e-01,-5.081395780961994735e-02,-2.567420407488993361e-02,9.260979989215529715e-03,-9.407912257197981979e-05,5.806709624679833211e-03,5.309233069419860840e-01
4.972679791725291842e-01,-5.815468846160570804e-02,-2.396993889831963709e-02,-2.406464724449936486e-04,2.609940296082893059e-04,1.363626581696587977e-03,5.391492247581481934e-01
5.070972118982137733e-01,-5.469746627952623563e-02,-2.644265299738324249e-02,2.370085633777743684e-04,2.197109201323165265e-04,1.851734868891295781e-03,5.482233166694641113e-01
5.457137692376217153e-01,2.728937628392713588e-02,-1.133065087721099040e-01,7.434433381780701511e-02,4.193067034553518702e-02,-1.443297567759647612e-02,6.195967197418212891e-01
5.119059082554102691e-01,-3.246110970710028298e-02,-3.769651978242585799e-02,2.548360035738136465e-04,-5.018623692355124455e-03,-8.432380833147941433e-04,5.470746755599975586e-01
4.905022795646656886e-01,-9.384261799891532863e-02,2.919943646966183248e-02,2.819718316561479685e-02,-1.364514117052275377e-01,1.350629197485425648e-02,5.860791802406311035e-01
5.083311749202412688e-01,-3.456223193443877517e-02,-3.679584072755973101e-02,-1.025465193493287075e-03,-9.259978079696726955e-03,-1.321842565581318480e-03,5.442577600479125977e-01
4.946322735781557012e-01,-2.878701156601670696e-02,-5.574765733730355222e-02,-2.258011324514375747e-03,-2.818083568546056895e-03,-1.771359475850113998e-03,5.374522209167480469e-01
5.110510095268882003e-01,-4.341127130705793591e-02,-3.642909039599165344e-02,-1.720841814243038092e-03,-7.193451899892162318e-04,-4.210668800193676821e-03,5.510621070861816406e-01
5.197207410204096600e-01,1.361515936884521993e-03,-3.835359430207560538e-02,3.879176083363096179e-03,4.911579714814199270e-03,2.679928747117711705e-03,5.394435524940490723e-01
3.570301131736696165e-01,-5.140836820142358210e-02,6.828853563412076721e-03,-9.549514630919608837e-02,-1.200872609797615231e-01,5.166877189785573643e-02,4.744017720222473145e-01
5.083565323546763715e-01,-3.386889841877538387e-02,-3.165450839828523599e-02,-1.259017418856375400e-02,-6.328651517720228258e-04,-1.653340038015981743e-03,5.415695309638977051e-01
5.014756086514098321e-01,-2.459216145192166803e-02,-5.646486602177941405e-02,1.066898523295400220e-03,-1.739194920552548235e-02,-1.337716963701971818e-03,5.435500144958496094e-01
4.333869259815001929e-01,-3.358607450151820939e-02,-1.748100468793203910e-02,-2.312015257756238479e-02,-7.180703070542085280e-03,-1.219456750986580747e-02,4.615267813205718994e-01
5.098158818494135103e-01,-3.604056553477663627e-02,-3.471340605874742580e-02,-6.115040946157521660e-03,-5.649168951202915290e-02,-1.905600319674949621e-03,5.540158748626708984e-01
5.233510482320749002e-01,-6.704108928245161581e-03,-1.250120029121915000e-02,4.923517401189144056e-03,5.028356254968042874e-04,8.938946766259168661e-03,5.332710742950439453e-01
6.801629400052391361e-01,-6.847622419586546494e-02,1.021741801481282352e-02,-3.639033697419612190e-02,-1.319078104234245596e-01,5.294428549943323153e-02,7.565191388130187988e-01
6.180688979132529237e-01,-8.419909684343751533e-02,2.502296132158393638e-02,1.408281989464228723e-02,-3.475674362178295812e-02,-2.625248733293793907e-03,6.577585935592651367e-01
5.127107005968312148e-01,-3.615553080428787758e-02,-3.401690352433250908e-02,1.498946104704441864e-03,-1.885496734368252800e-04,-2.979793931451852392e-03,5.478305816650390625e-01
5.145069655521834484e-01,-4.349618069062993753e-02,-4.315588664509870109e-02,-2.673593556478377647e-05,-8.519530288564709439e-04,-2.123305034614368474e-03,5.578471422195434570e-01
3.773542850017623795e-01,-1.609344096753825837e-02,-1.868371161581916517e-02,-2.372845053142771943e-02,-9.546686639212691866e-04,-1.207167929611049038e-02,3.974367678165435791e-01
4.736609378807444259e-01,-2.239070450444460847e-02,-5.401934550853418338e-02,3.713823435452666866e-04,-2.025234451657920154e-02,-2.758084903492222717e-04,5.137977600097656250e-01
5.198172956692024282e-01,-3.138146903115279773e-02,8.455094940074459053e-03,-3.884666568997915243e-04,5.086961228885600013e-04,7.148958401065655041e-03,5.325445532798767090e-01
5.583715758714438149e-01,-2.381757310513071824e-02,-3.068533899463576908e-02,-5.965962573252275858e-02,-2.124819961219128264e-02,5.213252159219002729e-02,6.026403307914733887e-01
5.161879052160551762e-01,-1.502824853039805286e-02,-1.675121294516071502e-02,-1.240184766266726364e-03,-1.620214775570278602e-03,4.583062943124128000e-03,5.321506857872009277e-01
5.797724043421215168e-01,-5.721170190925953247e-02,1.288116192248695002e-02,4.452207321727724883e-03,-1.113465018012641319e-02,-2.150980962005805130e-03,6.053586006164550781e-01
5.059866456853732153e-01,-2.591313864107858134e-02,-5.469355978156026366e-02,-9.395049790062744545e-05,2.756198540087787495e-03,-3.172470834730712220e-04,5.468794107437133789e-01
4.921195557233510876e-01,-2.481509651707208830e-02,-5.442413210721402939e-02,5.753315988508539945e-04,8.243280474603350075e-03,1.476308847419921738e-03,5.325555801391601562e-01
5.250512976854444513e-01,-4.688658380289825733e-02,-2.171483174883201417e-02,-3.182185505131059945e-03,1.270947449132246720e-02,3.181581869167455189e-03,5.602635145187377930e-01
5.000648317986844393e-01,-2.515496606994915840e-02,-5.634633200879798909e-02,1.411521679114026082e-03,-6.218944350532024535e-04,-7.634222546287445317e-05,5.414962768554687500e-01
4.444601882080713717e-01,-2.440126272810980157e-02,-3.109764354345362358e-02,3.707804489889261063e-02,5.927822954760394308e-02,2.518807806449582971e-03,4.875455796718597412e-01
3.409810068455343401e-01,-2.212416373055731134e-02,1.464907811038893004e-02,2.491593479511703541e-02,8.070582256230852958e-02,8.579813690670597473e-03,3.761231601238250732e-01
5.126953722485781961e-01,-2.890867006951822193e-02,-5.497287903540687415e-02,1.949480422746355463e-03,3.557769663540694734e-03,-6.271212509887979028e-04,5.551407933235168457e-01
5.209641751622549055e-01,-3.834123506942094251e-02,-3.526503149295143191e-02,-1.531531083125134418e-02,-9.753452824920471470e-03,-3.387781546462610704e-03,5.586904287338256836e-01
6.980122436106721562e-01,-4.499709135100959934e-02,-2.624735471103814555e-02,-5.297288293018356103e-02,-9.167940739555169305e-02,6.154552604558390788e-02,7.638589143753051758e-01
5.709577627550705969e-01,-4.755069756898655520e-02,1.565429627412273650e-02,3.424926003559592303e-03,-5.114392680578617491e-03,2.391341203111900515e-02,5.910025238990783691e-01
5.387207159116418342e-01,-2.481723186289241934e-02,2.828253892231846756e-03,-4.827894900911558246e-05,-1.052277777805460911e-02,2.009716152141214490e-02,5.516374707221984863e-01
6.240306629120115911e-01,-3.403451567031973157e-02,-1.945582594719319491e-02,6.891157202563952342e-04,4.278117056883370094e-03,4.699776535636305402e-02,6.560116410255432129e-01
4.958504413129015131e-01,-3.612006106449905385e-02,-4.330441833341155955e-02,-5.170133388422660722e-03,-6.690688492095760165e-03,-7.440473810882736357e-03,5.359539985656738281e-01
5.221582081587665680e-01,-8.482966250953877241e-03,-2.328104919068313405e-02,1.216846454208072355e-03,3.122713924772296552e-03,1.234852876533020297e-02,5.386489033699035645e-01
5.005958081533101733e-01,-5.065869170150358314e-02,-3.116147884837658366e-02,-8.797383633576990984e-04,-1.875918287342277216e-03,-4.914530665273472015e-03,5.418478250503540039e-01
7.270783672825169575e-01,2.699878652743009644e-02,-7.225301770204251017e-02,-1.320260984809924487e-01,3.476834151760962131e-03,3.412772493237789528e-02,7.907398939132690430e-01
5.170724383313566319e-01,-4.556967649724072422e-02,-3.599780391612458774e-02,5.334939540006134774e-03,-1.195179064312690796e-03,-4.719420317149244579e-03,5.580579638481140137e-01
5.216011169075671638e-01,7.147100392860039619e-03,-2.852896650164069015e-02,-5.956618487198130259e-03,-7.421060368784774576e-03,5.007755409243857571e-03,5.335131883621215820e-01
5.215717934436268077e-01,4.645277178116635763e-04,-2.174014621298178684e-02,-5.508786653720404956e-03,-7.790302776834740449e-03,1.157456610023940152e-02,5.331902503967285156e-01
5.486010318832021948e-01,-2.518106557653887467e-02,-2.246778626833345616e-02,-3.340609695780952411e-03,-8.467748073481358786e-03,1.220024426827127743e-02,5.730371475219726562e-01
5.202422436270565109e-01,-2.346233359566785026e-02,-2.168660561556273736e-02,-3.094224807069407418e-03,3.297990897931564491e-04,1.799555005308624191e-03,5.428546071052551270e-01
4.375661560013922036e-01,-1.470602669018611364e-02,-3.334904528117321743e-02,-7.801914064340150900e-04,-3.306409150238665104e-04,-1.060851125676699584e-02,4.622436463832855225e-01
4.110313787750372594e-01,-2.367912466290403306e-02,-1.955857084740150742e-02,3.435517789838503366e-02,-3.288954833576109796e-03,-9.890447281970349974e-03,4.371106326580047607e-01
2.721890156095598812e-01,1.485437827132340960e-03,2.523172472734591665e-03,3.129701303620904818e-02,7.595681581750438581e-03,-4.723808936582456902e-03,2.760056555271148682e-01
5.295705587117003343e-01,-1.829207755511369493e-02,-2.318659942662540385e-02,3.642593514534460571e-03,1.184521694143940429e-02,3.598277489325131528e-02,5.542598366737365723e-01
5.160988204893579567e-01,-3.376021089211297954e-02,-3.802219091230882309e-02,1.761583265331340175e-03,-2.343874708245496669e-03,3.752158423935998948e-04,5.520260930061340332e-01
5.433021576316057200e-01,-3.292516424776262274e-02,3.243358230217097127e-03,-8.060428342836907858e-03,-8.478698200933941151e-03,1.885698098090297925e-02,5.603410601615905762e-01
5.068887895506342112e-01,-5.009607247201475211e-02,-3.144263496680546610e-02,6.458669977795328428e-03,-1.587133547009799773e-03,-4.352307640483815861e-03,5.480692982673645020e-01
5.554791460085291011e-01,4.831483701383601503e-02,-5.033325000087918166e-02,3.739066751159186158e-02,2.272006620074076486e-02,3.183946692534362494e-02,5.707555413246154785e-01
5.277590277699180099e-01,-3.936101604510386376e-02,-4.173987499906817167e-02,2.692857875957016880e-03,9.064948968969206711e-03,1.756695406933797814e-03,5.685573220252990723e-01
3.818570086883824044e-01,-1.081853213391428814e-02,1.392610971656445262e-02,1.193193227441877724e-01,9.722057283261910376e-02,2.150412392163176048e-02,4.664159715175628662e-01
6.155647013856515581e-01,-2.446304218030440070e-02,-2.871470338266984834e-02,9.964567900283802931e-03,8.476459899891888861e-03,3.739832895995010703e-02,6.458204984664916992e-01
3.915955786619843004e-01,-2.423592431520318891e-02,-1.809490101712749044e-02,2.587576072687194570e-02,1.577816671175508514e-02,-6.392859301301613735e-03,4.162667989730834961e-01
4.236760483496033736e-01,-1.149650577651342709e-02,-3.494749314710732246e-02,-8.146005661421685867e-04,-1.163522276880719691e-03,1.233236414371205718e-03,4.473711550235748291e-01
5.957669304653603337e-01,-6.909198564259233510e-02,4.047104445349072877e-02,4.645427485144818132e-03,-1.625801593543850163e-02,1.054873175123599398e-02,6.183761358261108398e-01
5.126589012074025398e-01,-3.525471882196601348e-02,-4.923082288892555169e-02,-5.815822296351565689e-04,9.181644784947577730e-04,2.572175411949722060e-03,5.550547242164611816e-01
5.369678117664991035e-01,-5.372399440892020039e-02,3.241557134537778606e-02,3.412904432254468354e-03,4.706171037642104156e-03,2.834913151568257614e-03,5.527932643890380859e-01
5.362309559458788844e-01,-4.889924422984456842e-02,2.503586343819944049e-02,3.255299354408297974e-03,3.070462002843175713e-03,-1.671128570164498754e-03,5.519515872001647949e-01
6.412447288127698375e-01,-8.516818659540154046e-02,2.602326208306848798e-02,6.907625753800132259e-03,-5.146227852669860853e-02,-6.705514984604608007e-03,6.837335228919982910e-01
6.195927890617858314e-01,-7.218421732763580234e-02,2.068830479541902689e-02,1.424847868953892094e-02,1.782669625228824328e-01,-2.823843259439980449e-02,7.219918966293334961e-01
5.315857530924248397e-01,-4.266705300660814104e-02,-3.392967671874691504e-04,1.573912404033674800e-03,6.087373437094934121e-03,-4.034559511189242040e-03,5.544533729553222656e-01
3.420239599734418157e-01,-2.657928979259019386e-02,2.204993263057318520e-02,3.498399244595651325e-02,-1.157631717352061163e-01,-2.776242173407261413e-02,4.080385863780975342e-01
4.451321246730839398e-01,-1.452227925873042502e-02,-4.206587296531338893e-02,-1.020704179671930861e-03,1.730804726329797025e-02,-3.699860303257306981e-03,4.750202596187591553e-01
4.869495104599498303e-01,-3.177668228663757533e-02,-3.555392948088431648e-02,4.571178048273298079e-03,1.179234389368538291e-02,-4.462673459040484777e-03,5.211430788040161133e-01
4.922480381248856562e-01,-2.283482139570000569e-02,-5.388187669042582284e-02,2.615236048912615336e-04,9.362247565923258533e-03,-1.786007535207099605e-03,5.315437912940979004e-01
4.873433577274191575e-01,-3.008859564294669164e-02,-4.477614419575698390e-02,3.895708809063663618e-03,1.404683056543976939e-02,-1.968428071375277581e-03,5.255477428436279297e-01
5.179423590352860707e-01,-2.592264812911665439e-02,-2.895937067863396663e-02,2.099320637567230786e-03,-1.365492430324083710e-03,-5.304292793655965331e-04,5.454077124595642090e-01
6.683690681864182803e-01,-4.525079734708789547e-02,-4.614997219296695929e-02,-3.928294772900844251e-02,1.465183983378805233e-01,-7.931083911093106398e-02,7.731744647026062012e-01
5.191162214255953256e-01,-2.601575930731078734e-02,-3.461420822035077283e-02,3.208187180494436169e-03,1.659063281527304841e-03,-1.461068310076256167e-03,5.495231151580810547e-01
5.182907908317212486e-01,-3.363976103383167771e-02,-3.882641631163619156e-02,9.077953769608469552e-04,-1.362111020965603436e-03,6.406750419171287859e-04,5.545504093170166016e-01
5.822297630699062587e-01,-3.611161444262406262e-03,-5.031621261473936957e-02,8.530353742671597031e-03,1.512041995897253459e-02,-2.277052619003374495e-02,6.125457882881164551e-01
5.162431571446858269e-01,-2.820109501561185450e-02,-2.680684172115435637e-02,3.244911029577821158e-03,6.359256903687928613e-05,-8.264077470914659796e-04,5.437794327735900879e-01
5.223895151602809817e-01,-3.351850626056512850e-02,-2.268110377996479521e-02,6.187636252852910315e-03,-2.520121376380475564e-03,-1.367326692063043463e-03,5.506960153579711914e-01
5.294684916212581971e-01,2.065452560012326355e-02,-5.899786597039727298e-02,2.133059140431349879e-02,2.460700420084924005e-03,-2.302295268791897456e-02,5.556417107582092285e-01
4.845453644398944881e-01,-4.432996433512473300e-02,-2.910459521376457248e-02,1.641532333700553318e-03,-2.373598633259796364e-03,4.945388812638305820e-03,5.215237140655517578e-01
4.938340775275301131e-01,-3.337602927536739705e-02,-3.205697623558961817e-02,1.103377194076307632e-02,-5.543729624434497877e-03,5.891877775208301856e-04,5.269870162010192871e-01
4.686736062607315123e-01,-3.204573406057129037e-02,-3.475496137727390744e-02,-5.454777119773723311e-05,1.582828658873667855e-04,1.056340563598253020e-02,5.024127960205078125e-01
4.720884456033315191e-01,-1.862972839120416446e-02,-4.808652984316102996e-02,7.143414121964810053e-04,-2.896429851314939069e-04,6.891771172383004233e-03,5.062324404716491699e-01
5.931523286220568014e-01,-6.516419517952207197e-02,7.546621465610720003e-03,5.317977970903641632e-02,-1.468109908716095681e-02,-4.425182042909790725e-02,6.370292901992797852e-01
4.752087870011731940e-01,-2.764069075724351343e-02,1.136009166760418299e-02,8.877628430592457431e-02,-6.691772298106561656e-02,-4.021823185112131244e-02,5.260202288627624512e-01
5.427394718511358018e-01,1.164717455572020222e-02,-4.708137099432593842e-02,-8.398308123142758305e-03,6.040589336670090966e-03,-1.873083657022942775e-03,5.630540847778320312e-01
4.580291796703880314e-01,-1.701769479752884839e-02,-5.121591157501231839e-02,-6.031915653135840223e-03,-8.401256243048282630e-04,-2.853236335982037644e-03,4.931738972663879395e-01
4.936613973163949676e-01,-3.635750897652900715e-02,-4.774775258537278244e-02,1.006347072430153339e-02,-1.411630544968802206e-02,7.203130034910303243e-03,5.367905497550964355e-01
5.176752990092192697e-01,-3.203127125891877536e-02,-4.488195172781983544e-02,2.475064950559164711e-03,9.362208869517470514e-03,3.843019271162346519e-03,5.565358996391296387e-01
5.243612059075971610e-01,-3.778600217086935942e-02,3.450683155246880851e-03,-2.818665154643385483e-03,2.822990516868934419e-03,7.170263400672810539e-03,5.428912043571472168e-01
5.337630084821127774e-01,-4.895915733448097384e-02,2.399083616530475749e-02,2.847564315114177935e-04,-2.491069806247737679e-03,1.305660745822943489e-02,5.503703355789184570e-01
5.183688318594752431e-01,-2.374495155614014807e-02,-1.688038630301641474e-02,-4.309446168962298776e-03,-3.314243845297165300e-03,1.527019165387591762e-03,5.388031005859375000e-01
5.277814330799276421e-01,-4.271534227255469052e-02,1.993051086047653575e-02,-6.868205590940638060e-03,-4.251842376382914887e-03,6.055376087908646843e-03,5.421785116195678711e-01
5.203747205876929627e-01,-2.848741960168868492e-02,7.915626285417476371e-03,6.238451908896975370e-04,5.481808211979127300e-04,5.394709909946327625e-03,5.316802859306335449e-01
5.265371026392440257e-01,-3.783293167181220329e-02,-4.318417634193447152e-02,-1.804636225984288498e-04,8.710337951581955881e-04,-2.875435602678645241e-03,5.670885443687438965e-01
5.226046733554728929e-01,-3.582246944724881699e-02,-4.849497098636956771e-02,-1.869550810280313103e-03,-1.795117695275448696e-03,-1.199773220951599363e-03,5.648916959762573242e-01
4.916699265810054453e-01,-3.676068127358789184e-02,-3.514313919364048244e-02,4.918966691522828200e-02,2.784440452902560079e-02,-1.271256840077659989e-02,5.370813608169555664e-01
5.243638997510466915e-01,-1.467463069663055286e-02,-4.011554426704116993e-02,-1.714482970676105928e-03,9.145717859316584292e-03,-1.657730178890010932e-03,5.524412989616394043e-01
5.335792605002376288e-01,-9.153332579586032081e-03,-4.072705111495134034e-02,-5.104649651093299233e-03,8.047850884293874726e-03,2.660169542304533299e-04,5.594321489334106445e-01
5.468702389140094322e-01,2.489626837886321775e-02,-5.355238210790733144e-02,1.578665847246922506e-03,3.019671636244135749e-03,-3.196040517293723300e-03,5.653535723686218262e-01
5.168808617866598176e-01,-4.558872308395831019e-02,-3.655348249211670675e-02,3.934953797940338519e-03,-1.474143371013375428e-03,1.918230608424775557e-03,5.580641627311706543e-01
5.433096110791126865e-01,3.267498368883861581e-02,-5.728173656757509780e-02,-8.549622675506797845e-03,-5.175143409507880618e-04,1.870285271218488816e-03,5.612535476684570312e-01
5.344431991721286801e-01,3.482619969763978141e-02,-4.932620574433368987e-02,-1.576451973747105932e-03,5.273178417156481126e-03,-9.021532128368286996e-03,5.468800663948059082e-01
7.911656842454363181e-01,-1.689388967723315371e-02,-8.705830495526001300e-02,9.843382017189136746e-02,1.522151028643203841e-02,-6.459636293398496321e-02,8.699776530265808105e-01
5.385999817304119031e-01,-6.764508511748701380e-03,-4.986919664342323588e-02,-8.072138793922680605e-03,6.138293978872722857e-03,-8.527440877254618620e-03,5.686078667640686035e-01
5.286526446055719308e-01,1.514737669266333353e-02,-4.228234573130731921e-02,1.752054136605090589e-03,3.907086846678717307e-03,-1.286335101244799432e-02,5.450024604797363281e-01
6.409595880347525032e-01,4.053646967970936377e-02,-9.378115858383795356e-02,8.931843620465412803e-02,6.719523063918136918e-02,3.263648182246618040e-02,7.070155143737792969e-01
5.456008509477026092e-01,5.637561186679865277e-02,-6.390038215379650888e-02,1.026501548958904352e-02,8.491732912014727727e-03,-5.021722520243633060e-03,5.596943497657775879e-01
5.207838721585782427e-01,-1.258468280367353032e-03,-3.226545404563260777e-02,-5.160312102840475083e-03,-2.761008331105908875e-03,1.122303370181277314e-02,5.386624336242675781e-01
5.318931283587360337e-01,1.537835822360145155e-02,-4.041945569538249461e-02,-4.138007400374032509e-03,-4.379150354940125091e-03,6.752950517801627715e-03,5.467787384986877441e-01
6.134311973619572811e-01,2.788823255018388347e-02,-1.113636453497660050e-01,-1.355792929307849670e-01,-2.077129625411520963e-02,1.987594103665576289e-02,7.081061601638793945e-01
5.797929748183957566e-01,3.087211693696984005e-02,-6.742248738159062338e-02,-3.720308870372667637e-02,-2.255899560481419361e-02,3.675503387766487079e-02,6.120977401733398438e-01
4.827755210344131798e-01,-2.642794353740793301e-02,5.643826825729753027e-03,3.803680663723297412e-02,5.258425376678013685e-02,3.679239240801005645e-02,5.105707049369812012e-01
5.489211424204876177e-01,-1.376070208619933899e-03,-2.631036094927993729e-02,-4.076347302949432511e-02,-2.390114424618184491e-02,4.164351836262599610e-02,5.736473798751831055e-01
5.004271720047428484e-01,-5.619442936874224914e-02,-2.690844812820003540e-02,-1.881682707082606197e-03,2.818791350091380543e-03,1.241823017779590923e-03,5.426077246665954590e-01
4.928532424652825039e-01,-5.887527896424560314e-02,-2.264464123450704580e-02,-9.326557188897879186e-03,9.890380053766767779e-04,1.429144253778475478e-03,5.347874164581298828e-01
4.910068235873958908e-01,-5.349820074973027362e-02,-2.506041904636943651e-02,-1.213782846806519709e-03,-4.112121807922369137e-04,1.118628858862686466e-03,5.308659076690673828e-01
4.712350938542144707e-01,-2.599429545569628686e-02,-3.499429155040778561e-02,-9.276681044208362828e-03,-2.048384212427039816e-02,-3.153227485519819427e-03,5.033288002014160156e-01
5.150636772046996992e-01,-3.353311151193927309e-02,-3.533354762386142767e-02,5.581838304973356889e-04,-9.928874180449520637e-03,-2.551408532879673782e-03,5.497868657112121582e-01
5.092369882424369054e-01,-3.239252735614756018e-02,-4.608328419374710383e-02,-7.763408792362793721e-03,-1.094502472809877162e-02,-3.222967840462115461e-03,5.491235256195068359e-01
5.114796111731245709e-01,-9.086492881364288676e-03,-1.179436412216786079e-02,-1.429808649257031678e-03,-1.746921607481171507e-03,4.868080093668260104e-03,5.220080614089965820e-01
5.875560722040240602e-01,-4.225395826689246070e-02,-2.885836506065331264e-03,-1.028963151301848233e-02,-2.859409135735950860e-02,2.490009567967093121e-02,6.148549914360046387e-01
5.132596738874855014e-01,-2.704342424380892784e-02,-2.224168053966266156e-02,4.538748039443854868e-03,4.200268455553835163e-03,4.359645824739077913e-03,5.380778908729553223e-01
5.130251471093374427e-01,-3.502667365345568662e-02,-3.950834049911458590e-02,-2.800446203212384258e-03,-4.315906431512277837e-04,-6.009613901591343921e-04,5.503292083740234375e-01
4.752574983240683282e-01,-5.725208941561654719e-02,2.217301848011982157e-02,-3.124924192192316680e-02,-1.038520377748173296e-01,2.247084930745068751e-02,5.332731604576110840e-01
5.417245931118687130e-01,-3.345885092220482471e-02,4.437743876571920154e-03,2.026971757960903051e-03,-2.161838993675771568e-03,1.706848151359853516e-02,5.580098628997802734e-01
5.329355625219431847e-01,-4.375096814188739192e-02,-1.405863620474584463e-02,8.511258774093604165e-03,-8.416904967713318558e-03,1.175357698744993861e-03,5.628141760826110840e-01
4.987305346737749279e-01,-2.622693737710651840e-02,-4.783979427573586962e-02,6.174814475497674045e-03,1.521565419876552000e-02,4.563369087823584622e-03,5.369029045104980469e-01
6.592753503446749930e-01,-6.860738654035741790e-02,6.275104482165561048e-03,-1.047038148198934336e-02,9.741632814605222235e-02,-4.417079221139247336e-02,7.180298566818237305e-01
8.057172433129486944e-01,-1.122294920420709441e-01,-6.654611511886843189e-03,2.158010622610451179e-02,3.422401118739594461e-02,-2.477798195171160636e-02,8.738495111465454102e-01
5.189508883918062532e-01,-2.096750961278431857e-02,-1.616935186747783804e-02,1.666733741309498048e-03,6.882708426403268132e-04,-5.406077649611536889e-03,5.376260280609130859e-01
4.647583912377275528e-01,-2.006751869812195554e-02,-3.664742675817417306e-02,-5.016382097693189435e-02,1.893163786993759881e-02,-5.949793382961121244e-03,5.020956993103027344e-01
5.313871732728681074e-01,-4.888618050583287689e-02,3.169904873099613218e-02,3.616206479443065825e-03,2.452078635799982437e-03,-2.599980167916743443e-03,5.445431470870971680e-01
5.237786134767878909e-01,-5.125391798771491980e-02,1.387520784393109219e-03,1.008406142149981602e-02,2.092591264371158541e-02,5.491572334363258555e-03,5.521523356437683105e-01
4.725631618191655781e-01,-2.807763382317837730e-02,-3.864433184533766497e-02,-4.263271013171890562e-03,3.493588487515267293e-02,8.456142984596990569e-03,5.098760128021240234e-01
4.895611568574844141e-01,-4.306726880803474211e-02,-3.437642264605003661e-02,-4.417094650063190658e-03,4.161966310014234352e-03,8.591443171209616619e-03,5.286506414413452148e-01
5.170181440647889648e-01,-2.304850958461002186e-02,1.632263910773451565e-03,4.565686319841995126e-03,2.683910420834424021e-04,-8.032788887407861511e-03,5.284015536308288574e-01
5.341689318281016563e-01,-4.695546612605810965e-02,-1.652107544902114977e-02,-6.971047551866187131e-02,1.745437036154841651e-02,-5.092951420775820859e-02,5.867024064064025879e-01
2.382893384470826936e-01,-9.909224520561116245e-03,7.602915804128460020e-03,-6.553324349348681188e-02,-1.106523973736805028e-01,9.933958220397781300e-03,3.278329372406005859e-01
4.130805347468832212e-01,-4.160597982917788040e-02,-3.192123667905663598e-02,1.236336179590669521e-01,-7.578255318249128847e-02,-6.225427368883184459e-02,5.264424681663513184e-01
3.801208758357347839e-01,-2.257652841463064775e-02,-8.131268285727910605e-03,5.030930997266994803e-02,4.123505029181805809e-02,-5.184840560208859792e-03,4.114991128444671631e-01
5.129522157245858249e-01,-4.217494113880421169e-02,-4.532520560484587513e-03,-2.820694089847938790e-02,-2.848317712107146203e-03,7.014123100888306102e-03,5.396717786788940430e-01
5.071402797526415318e-01,-3.349647266756064501e-02,-5.107818698867783169e-02,2.570597281717969685e-03,-5.071467389237220222e-03,1.413458445592423018e-03,5.497322082519531250e-01
4.346259564253362462e-01,-1.581162860198206954e-02,-6.061554997167145631e-02,1.296152575967510490e-01,-2.695037591747954583e-02,-5.499659396890922008e-02,5.354773402214050293e-01
4.404512573521625618e-01,-3.183019753775706562e-02,-3.269211414877393196e-02,-1.632544917983637378e-02,-1.600447687535808128e-02,-1.269200626600613079e-02,4.748777151107788086e-01
4.253189668677200275e-01,-3.118945030763300985e-02,-2.186028355509950227e-02,-1.589489302559503672e-02,-3.145012392887281717e-04,-1.355350108043924286e-02,4.533623754978179932e-01
5.504312828548405534e-01,-4.809835615658727970e-02,-8.915825479848094037e-03,2.956655015493434100e-03,-1.036692902608180381e-02,-2.503726876188883772e-04,5.802326202392578125e-01
4.312941304946775189e-01,-7.964922877608943130e-03,-4.285461494477876832e-02,7.028519062420180569e-04,-1.519240317454926105e-03,-4.956000464569543761e-03,4.577919840812683105e-01
4.328051514852491177e-01,-1.009823149589200719e-02,-4.342851426973770579e-02,3.402953987787254303e-02,-5.714127076716734449e-02,5.835133171307742457e-03,4.747714698314666748e-01
5.074041416456179787e-01,-4.287051022863788696e-02,-4.122587670811245220e-02,-2.347021566565797232e-03,1.594664639833260516e-04,-3.907726646534796441e-03,5.495109558105468750e-01
4.914811604186484773e-01,-5.652396678120660822e-02,-2.611079769154536767e-02,-3.198134187864538642e-03,3.923274495934461932e-03,1.076474255791893099e-03,5.335244536399841309e-01
4.968784296964979807e-01,-5.317925817764904139e-02,-2.818473539106405856e-02,-1.014023931886097658e-04,2.037122212864563801e-03,2.877944615643449749e-03,5.380307435989379883e-01
4.838603990844512204e-01,-5.495824090128628714e-02,-2.424375893603072929e-02,-7.884825742781861879e-03,-1.898393157586929586e-05,3.821458932403178771e-03,5.243564844131469727e-01
4.999867275950234391e-01,-5.685773182899267475e-02,-2.604708852916121087e-02,-4.545557185144461811e-03,-1.012297955573583695e-03,1.141092041163920597e-03,5.421598553657531738e-01
4.903178324218080975e-01,-5.901482749219980062e-02,-2.339918113108860331e-02,-7.003890898015511374e-03,2.380145763784132472e-03,-5.826178184689933268e-04,5.325741171836853027e-01
4.899776241742501148e-01,-5.252154901682384858e-02,-2.789706881206449607e-02,-3.713669073136710835e-03,2.414121088488836026e-03,2.108548273354373444e-03,5.306836366653442383e-01
4.851811177294484967e-01,-5.962727632528222466e-02,-2.071643736598269281e-02,4.616176460141988361e-04,2.571632242720399083e-05,-9.946955897556315675e-04,5.264360308647155762e-01
4.812468306541180518e-01,-3.496068449094114072e-02,-4.272594913041305453e-02,3.650517307008313697e-05,-5.765408623690498197e-03,-9.303818779902930589e-03,5.204790234565734863e-01
4.659231890114152175e-01,-4.020230123235438158e-02,-3.421446152201901292e-02,-1.910423010820936143e-02,-7.835008629727104523e-04,-8.692142395003311234e-03,5.044716596603393555e-01
5.308200272222547422e-01,-5.393023082453343720e-02,1.582151432544134928e-02,2.686651054703740205e-03,-9.630119394981836653e-03,2.250155253124965209e-03,5.534671545028686523e-01
5.168210377602305838e-01,-3.025307364952334321e-02,-2.711242896771892674e-02,1.107472501914460918e-03,-3.689042421133218591e-03,-2.287397065437185226e-03,5.455657243728637695e-01
5.394911786595369962e-01,-2.755395906851271226e-02,-3.172120223944668860e-02,-5.634812570794100334e-02,-3.916605454159277633e-02,2.447575331668569443e-02,5.829622745513916016e-01
5.112957981003104502e-01,-3.652391477247959872e-02,-4.451049298659232045e-02,-2.215879970379048408e-03,-4.104292570555019733e-03,-2.377506176956891131e-03,5.519308447837829590e-01
4.930094572016633370e-01,-4.096051164918512733e-02,-3.458702832511365011e-02,-6.043965435259612828e-02,-8.320736698081872273e-02,1.389213182418271540e-02,5.604190826416015625e-01
5.102897635840337731e-01,-4.734387334582379481e-02,-3.380691763996931942e-02,-9.778695394014316408e-03,-2.717489763938953778e-03,-4.867720638862663152e-03,5.513347387313842773e-01
4.850082073216572809e-01,-3.143775558582065366e-02,-4.670285716985972391e-02,-4.469210607161951121e-02,-1.974720481143443090e-02,1.147575575084111739e-02,5.314039587974548340e-01
4.925478424018437940e-01,-3.080009538633535215e-02,-4.027333645367917048e-02,-2.580654490004173889e-03,-1.085281763271191829e-02,-4.465032206221053977e-03,5.285581946372985840e-01
5.144679704922816565e-01,-2.041624666612523731e-02,-2.810752987751807819e-02,-4.211026450478340052e-03,6.154715482862196246e-04,-6.722389905097831591e-04,5.388227105140686035e-01
5.166478964810587993e-01,-8.145118082506286328e-03,-3.013711686036868453e-02,3.201213541121528290e-03,4.756711980479995210e-03,2.505836143376889789e-03,5.362369418144226074e-01
5.261130035586121245e-01,-2.724757234528779604e-03,-3.182902679464161277e-02,-1.311573749831739313e-02,-2.280204196203516193e-03,1.146968420240515422e-02,5.448248982429504395e-01
5.007042300207635854e-01,-2.852392466688369321e-02,-5.511776134933144000e-02,1.713010807665746619e-03,-4.188379049757685706e-03,-2.002663261112042591e-03,5.430813431739807129e-01
6.230659961172313466e-01,-1.789515855830264845e-02,-1.949504614321065366e-02,4.615041400006320016e-03,3.838533134839598997e-03,4.431335763239252490e-02,6.464196443557739258e-01
5.160062134278498025e-01,-4.189995679641622672e-02,-3.953781519970783753e-02,3.931873227089961731e-02,1.628855659863857192e-02,-3.809450786139289766e-03,5.616265535354614258e-01
5.168943446386520257e-01,-3.797499647202784434e-02,-4.025833796158709288e-02,3.059481025481849883e-03,8.046317175515920253e-04,2.477585860402559560e-03,5.560581088066101074e-01
3.532892827761525134e-01,-3.278532193695232744e-02,-1.895135316094716249e-02,-7.411672377135997136e-02,2.382394082089943702e-02,-3.405015621424456115e-03,4.026430547237396240e-01
4.902942858586056274e-01,-5.636254647782906746e-02,-2.451186308557778970e-02,-3.100296322528466714e-04,3.649542135392860962e-03,3.850809611445197601e-04,5.314860939979553223e-01
3.708123069235920166e-01,2.427143654909048875e-02,-3.832243214702257816e-02,-9.082118134973124479e-02,-4.458289215220049943e-03,-2.784656092116770312e-03,4.129506647586822510e-01
4.875485504908962375e-01,-3.555583696342443090e-02,-4.105509929099454558e-02,-3.898422525199923393e-03,7.534604011783100838e-03,9.267942034300492501e-03,5.263257026672363281e-01
4.336034720363506345e-01,-3.010793164962524693e-02,-2.943668137643037919e-02,-3.664715201805725242e-02,-2.729550406037405466e-02,-1.036521095833905191e-02,4.704295098781585693e-01
4.919413163089280672e-01,-3.419128292990289419e-02,-3.087222699874853094e-02,-7.629544420800338407e-03,-1.957056573558872692e-03,-1.557044486493872146e-03,5.246652960777282715e-01
4.786618649674355686e-01,-5.835240472593231087e-02,-2.197336295726667887e-02,-1.046268944155218442e-02,1.713196032967203349e-03,1.458082318873480440e-03,5.201108455657958984e-01
4.551936680111051126e-01,-5.038259680247589301e-02,-2.178741470281586601e-02,-1.912302399043002213e-02,-8.379883469715018046e-03,-7.275260261863465347e-03,4.933908581733703613e-01
3.689810890558822276e-01,-1.685639835737404169e-02,-1.502321883192014873e-02,-1.872574240529857256e-02,-1.664878203874948365e-02,-1.286496796888541780e-02,3.880034089088439941e-01
5.217065839351562317e-01,-1.855186735210342941e-02,-3.885106338702043471e-02,-8.548461099629802926e-03,1.737441390256962755e-03,5.741583338936480417e-04,5.508968234062194824e-01
5.190489964426026059e-01,1.423244548451138569e-02,-2.926162340780930071e-02,-2.165902595861727512e-03,-1.759197398693950788e-03,9.844927687577232842e-03,5.282065272331237793e-01
4.364595654384902934e-01,-1.602777851810682774e-02,-7.449776049665965405e-02,1.377598676266852673e-01,-3.189887543480669514e-03,-2.842532649026232802e-02,5.422253608703613281e-01
5.224137935323216464e-01,-2.672694458803984152e-02,-3.247485736106059395e-02,6.348741994136995357e-04,3.383930188471173401e-03,-3.712375325065835432e-04,5.520697236061096191e-01
5.430906203046217406e-01,-2.768135091215556676e-02,-4.748741665921552002e-02,9.839615764578111667e-04,-1.787105262017853581e-03,-4.187205273293241169e-04,5.809394717216491699e-01
5.127811357126557112e-01,-5.418793193900994787e-02,-3.059815060416712362e-02,-6.805749232286136549e-04,-1.237869061795817977e-03,-2.856235284607443886e-03,5.555773377418518066e-01
5.268951031716140321e-01,-2.221026845719928366e-02,-4.204340629544786601e-02,9.200920235236416736e-03,5.466478988776087358e-03,-1.396510093968194232e-03,5.595980882644653320e-01
5.232103430869308180e-01,-8.661224668707390162e-03,-1.696546250281427692e-02,3.217858421736577174e-03,2.957116663145538567e-03,1.184355207561494511e-02,5.365176796913146973e-01
5.023275302834744327e-01,-3.767081755836421131e-02,-4.069118206050884035e-02,-3.957650183822912678e-03,4.612220755730187839e-03,3.288563353537205143e-03,5.416470766067504883e-01
5.052273830004612165e-01,-4.555628339467213128e-02,-3.109302506319039372e-02,4.536017428608675461e-02,5.376424184109387765e-03,-6.099322797300792132e-03,5.495240092277526855e-01
3.554661756671121942e-01,-7.253863033983717901e-03,-1.293042039639948071e-02,4.643516304871614375e-02,-1.133184134797322364e-02,2.169141413696564630e-02,3.767260313034057617e-01
5.557295440617786575e-01,7.688805464967890524e-03,-6.651478859834861201e-02,1.422689787951832326e-02,1.593238951273410683e-02,1.947979770916118125e-02,5.907863974571228027e-01
4.848817328707871188e-01,-5.078917045232281269e-02,-2.953869859816868337e-02,1.786952418461083478e-02,9.877961799839888105e-03,2.491648638495406348e-04,5.265572071075439453e-01
5.108658289508252182e-01,-3.468904455697607858e-02,-3.083237607500569077e-02,-2.956627889256205864e-03,-1.310653872602641568e-03,1.181927362843028994e-03,5.436695218086242676e-01
4.922199426269301958e-01,-3.846842622492063768e-02,-2.814847107950987914e-02,1.577784521223979039e-02,4.786767218438655984e-03,-1.111033919464451394e-03,5.263831615447998047e-01
5.078574190564608681e-01,-3.806417510344356492e-02,-3.307760829866432384e-02,-7.662385322509114539e-04,3.921825237180572368e-03,5.108922478677067067e-04,5.434902906417846680e-01
5.024497958437131873e-01,-4.702653562956402022e-02,-3.727699593739072781e-02,-2.029854196189772968e-03,3.223486580267056182e-05,-5.176020964010178901e-03,5.447521209716796875e-01
5.009055649654486908e-01,-2.827841361977778689e-02,-3.887386663342623505e-02,2.036131520518172019e-03,1.213719995247026368e-02,4.119779101754970398e-04,5.349857807159423828e-01
5.141914037205379540e-01,-3.321681082898783610e-02,-3.438802213384856143e-02,6.626729527545597090e-03,2.511904549512486862e-03,-1.323078378996469563e-04,5.481322407722473145e-01
4.804479282518199224e-01,-5.573533442831818396e-03,-4.113415063594352827e-02,4.176664201172418378e-02,-3.400646625160313324e-02,-2.797741117373081857e-02,5.155730247497558594e-01
8.392935540440349396e-01,-8.964364816734504693e-02,-3.657007714605309268e-04,3.496487723701623140e-02,1.814060153004233567e-02,4.163017255724352217e-02,8.932051062583923340e-01
5.224099429848072518e-01,-2.769504061115504734e-02,-2.355334191332381089e-04,-3.932935145540797546e-03,-2.897815475941378522e-03,7.829797134497037958e-03,5.371400117874145508e-01
5.243463710053031246e-01,-3.427834056975248567e-02,-2.198111095121130232e-02,-5.052394184986250258e-03,2.562647018888690887e-03,4.087768934314617514e-04,5.526663064956665039e-01
5.178995422186827291e-01,-2.750878517166449599e-02,9.554095777723481397e-03,8.606993244797599358e-04,-8.061416006219064502e-05,5.227542284512246180e-03,5.279334187507629395e-01
5.419002752267447764e-01,1.108478242223112642e-02,-2.572210064611388236e-02,-9.643994266667546902e-03,-1.537547278902403648e-02,2.289454475561242264e-02,5.524655580520629883e-01
5.246013751194109620e-01,-4.142630695609342273e-02,-1.709491110366637145e-02,-3.507580366561276284e-03,6.490572809307770981e-03,1.751068796355882001e-03,5.544182658195495605e-01
5.911461939953164269e-01,-2.848791633165487225e-02,-1.477116288801239019e-02,1.977334511034476924e-02,9.994097134831618490e-02,6.100064483162919576e-02,6.464796662330627441e-01
5.275973272793283986e-01,-4.344809294088547436e-02,1.754069261888591136e-03,2.180922658824760874e-03,1.657113126464955163e-02,1.224733136981823699e-02,5.510097146034240723e-01
6.805546492742471365e-01,6.311224729742548334e-03,-4.648448284436618172e-02,-1.352830703014483264e-02,5.633369589047908244e-02,6.020639212018676079e-02,7.168909907341003418e-01
5.403213878672183945e-01,1.483821485896999470e-02,-1.926134045676936024e-02,1.820874867067852690e-02,1.373100379397365275e-02,3.728911397756257823e-02,5.485852956771850586e-01
5.199894704110736843e-01,4.177151513031218677e-03,-2.838653226517956485e-02,2.516502573974082994e-03,2.897988651933296189e-03,3.595375739524295580e-03,5.329188108444213867e-01
5.783182820633134824e-01,-7.556739419322056062e-03,-3.083842343431392186e-02,9.464508049916353985e-03,2.168819257710683998e-02,5.007981509195504749e-02,6.055043935775756836e-01
4.570213565884196361e-01,-3.260481069592058301e-02,4.901564718953101141e-02,-5.368206846422313855e-02,-1.026649027261679614e-01,3.088448651882899978e-02,4.995590746402740479e-01
4.904013962164763263e-01,-2.726373638204473981e-02,-4.750664032469439912e-02,-3.537312082899102868e-03,2.936640974696306042e-02,5.881643522488875717e-03,5.306547880172729492e-01
5.237793416098814880e-01,-1.520398212403950566e-02,-1.359116070999194514e-02,2.061119457832165987e-03,1.374454556505420736e-03,1.330818852661849391e-02,5.386891961097717285e-01
5.376698160637023438e-01,-2.485811656822595195e-02,-4.545462388757937067e-02,1.149218592658658548e-02,2.176567747514700658e-03,5.548593208905591712e-03,5.735422968864440918e-01
5.224000698356607852e-01,-7.101088000655203514e-03,-3.145805058989409320e-02,-7.464332369898452751e-03,-8.127895981283711838e-03,3.515353930682574984e-03,5.424612164497375488e-01
5.220059806216125198e-01,-2.625020357781873703e-02,-3.478812133252259797e-02,-3.867190521588403495e-03,-5.487412607649563151e-03,1.222556000102033476e-03,5.527009963989257812e-01
5.397985012278223582e-01,-9.262238140827744326e-03,-1.571594292598899045e-03,2.792969156102976646e-03,-2.414354196090354957e-03,2.304263577512528569e-02,5.467522144317626953e-01
5.295792618727962475e-01,-3.800005514464607770e-02,2.640747111984476092e-03,2.798438905645150767e-03,1.056153928876772848e-02,5.771393048861811828e-03,5.488070249557495117e-01
5.332828989013571608e-01,-4.843742924905242164e-02,2.757369729405595438e-02,3.852482166512036319e-03,4.004793290088774597e-03,8.813960528282047471e-03,5.479823946952819824e-01
5.210579163067663444e-01,1.043139381404462052e-03,-3.260382818147775086e-02,-5.405203959457127380e-03,1.593264756663412480e-04,6.585713922085440972e-03,5.378310680389404297e-01
6.017604770366923317e-01,4.849786065761335641e-03,-1.916469962227759782e-02,8.543701828979779686e-03,8.271788097724984759e-03,4.436621880656058114e-02,6.144452095031738281e-01
5.200562216183419739e-01,-3.155972906620518881e-02,1.684121408200478509e-02,-1.569476863024873558e-03,-1.500991096512110066e-03,1.149365671107206374e-02,5.294662714004516602e-01
5.269315239365126580e-01,-4.832279597134556126e-02,3.470523772854064437e-02,-1.083257312045599659e-03,-3.190061884933154644e-03,1.062913776225151916e-02,5.389081239700317383e-01
8.155231309301794740e-01,-6.775889870917040092e-02,2.453836509779208641e-02,-3.792598338804865910e-02,-2.530366921470849143e-02,2.831909420827829343e-02,8.460634350776672363e-01
6.293249829246847504e-01,-1.219438754586362750e-01,3.088054738564094404e-02,-3.764323989734288424e-04,-2.752809772985512216e-02,2.230527808906091966e-02,6.904450654983520508e-01
6.439502022387367797e-01,-6.225312460285442606e-02,1.790148800284085961e-02,-2.045772625976300177e-02,-6.660133743091972008e-03,3.170998423119421317e-02,6.730138659477233887e-01
6.004484150637321438e-01,-1.896319897887030481e-02,-8.404030463744299739e-03,7.631556339357399230e-03,1.469310273722721459e-02,2.977194399211998896e-02,6.170277595520019531e-01
5.338303253720784181e-01,-2.159916838122619143e-02,9.374234738969866587e-03,-3.862412042194734215e-03,-4.960875797949741879e-03,2.660382476033363100e-02,5.426781773567199707e-01
5.139781054659224857e-01,-1.571783164893347795e-02,-1.281332097345377896e-02,-3.204761555002982789e-03,-2.510290532537831496e-05,5.065938346298985880e-03,5.283517241477966309e-01
5.867052328571126241e-01,-3.659797794145552841e-02,1.326474459618459667e-02,-1.907043943838614836e-02,-7.768503808100432444e-03,4.001922380913642413e-02,6.049713492393493652e-01
7.417109757446582741e-01,-2.999003464578331446e-02,-2.310500624685363213e-02,-2.964463011353219227e-02,8.304418347113594334e-02,5.953249026757370665e-02,7.900724411010742188e-01
5.747095956615265733e-01,-5.813607706006659881e-02,-6.828326299714804204e-03,2.111823526293703929e-02,-4.281584582512407838e-02,1.403494463183130661e-02,6.148859262466430664e-01
5.101413021948186799e-01,-3.083242221697354846e-02,-2.441428012387444890e-02,-6.776167319786458032e-02,-6.192305779732470289e-02,6.862805930470533555e-02,5.732621550559997559e-01
5.224728775250433443e-01,-3.663030134451997211e-02,-5.225497185853467119e-03,-4.288436701442382114e-03,-5.170016132936420053e-03,3.728462116774283047e-03,5.442436337471008301e-01
5.219194852774936555e-01,-3.173131754257396686e-02,-8.234098543460938169e-03,-7.691515860856829728e-03,-7.598563150421543295e-03,2.938323246252973805e-03,5.426312685012817383e-01
5.391603034720202636e-01,-6.260446293364835268e-02,1.695336790950704997e-02,9.212220054544097148e-02,4.458157384282680075e-02,2.917061549206668991e-02,5.954410433769226074e-01
5.154150251696597573e-01,-1.761300686816333338e-02,-8.535022043091089472e-03,-1.627564947940308244e-03,-1.937279383377640807e-04,1.127764502892636585e-02,5.289159417152404785e-01
5.299453846777677501e-01,2.056235801378800132e-02,-4.158223281392670057e-02,-7.378661413738324751e-03,-4.873828746619342060e-03,3.957849974678504835e-03,5.433875322341918945e-01
5.189024903420611512e-01,-1.309824083837793363e-02,-1.912160275371591056e-02,-4.207245363066873522e-03,-5.306727779540215163e-03,5.825066753679690110e-03,5.352615118026733398e-01
5.133119401007060212e-01,-1.566789742153709697e-02,-5.809630255198233728e-03,-3.013922411990149937e-03,-2.498511931086770319e-03,4.397030186420653776e-03,5.242194533348083496e-01
5.077748117341234213e-01,-3.114674731742028690e-02,-2.614527345583203544e-02,-6.197576084811028205e-04,5.899453109950191562e-04,1.021652662693803976e-03,5.364432930946350098e-01
5.091586747292605741e-01,-3.343421285448280877e-02,-2.580250522980331862e-02,2.731499494350035813e-03,-5.262847826717813532e-04,5.691119991744513678e-04,5.388399958610534668e-01
4.853887444948226659e-01,-2.612609005766264314e-02,-5.256823057597845295e-02,9.890377670451666516e-04,-1.289269986431058152e-03,-8.316454942870556838e-03,5.254403352737426758e-01
4.982463915965111290e-01,-3.156946856410722257e-02,-5.281164790412526400e-02,-3.547828360620316644e-04,2.989525378015786138e-04,-2.809069393159861414e-03,5.407724380493164062e-01
5.032236640952467699e-01,-3.420156809862556768e-02,-3.934781288050820391e-02,-2.822087952896897706e-03,-1.731591183852566190e-03,-1.284767594507552372e-03,5.400517582893371582e-01
5.135567537017470263e-01,-2.852236402469224275e-02,-2.840864270360390909e-02,1.301398575124002727e-03,2.428138090773633226e-03,-1.541208529224458276e-04,5.420433282852172852e-01
5.200269069214942252e-01,9.600297612751829135e-04,-2.091670558166147664e-02,3.805629407625529727e-03,3.165798485210644716e-03,6.384257048913846884e-03,5.305283069610595703e-01
5.133406991758919791e-01,-2.489329953863420042e-02,-1.784603225149847261e-02,2.492265759940036698e-03,2.332929242510271492e-03,1.749169501520066432e-03,5.347864627838134766e-01
5.291922602300183076e-01,2.008641196778263027e-02,-5.754942594974102321e-02,-1.145859801185950336e-02,1.604653292077362278e-02,2.456208202680158770e-03,5.531052350997924805e-01
5.140585321447439515e-01,-2.911222431175689018e-02,-3.166379946490768815e-02,1.345831118579637886e-03,-9.239645943209497591e-04,-2.615357663692132297e-04,5.444585680961608887e-01
5.113988860430571659e-01,-3.656304102595314687e-02,-4.341410875784496026e-02,-2.086549205126071553e-03,9.027802830667184478e-04,-4.096359919219756673e-03,5.514791011810302734e-01
4.838787235421456723e-01,-1.891706079150193287e-02,-5.677575617700539312e-02,3.967792593304174387e-03,-8.893471100344557331e-03,1.990195812631066763e-03,5.230377316474914551e-01
4.254374483192499001e-01,-9.952015605598385495e-03,-4.571545063952706101e-02,-2.151383967404368186e-03,-4.061248487548004688e-02,-5.246843995884688250e-03,4.598463177680969238e-01
5.187642904473106498e-01,-4.122148538277500829e-02,-3.708757105248730590e-02,9.744334064735655533e-04,3.145110094140786319e-03,2.189925362031355099e-03,5.579723715782165527e-01
5.106900164840153522e-01,-4.185574642261452594e-02,-3.595404374116109580e-02,1.847528130673873129e-02,1.881921880494419341e-04,1.071998028708853745e-02,5.508625507354736328e-01
4.991577385895122898e-01,-2.829062853543010125e-02,-5.501240429663201148e-02,3.800494252160282853e-03,-1.521001795757418633e-03,2.279237891288342973e-03,5.413649678230285645e-01
4.983485921078416592e-01,-2.733206329312334870e-02,-5.257974800903089663e-02,1.934760098563725536e-03,-2.282357053613241174e-04,9.051143273697161281e-04,5.387611985206604004e-01
5.656060530586793922e-01,2.215344433760227383e-02,-4.455502005727451920e-02,-7.319421525811478646e-02,-6.969834300581033426e-02,4.538221963941618115e-02,6.106292009353637695e-01
4.057395833754941505e-01,8.345663703913555609e-03,-4.021186007494129133e-02,-7.163520171326703823e-02,-6.603941891231959738e-02,2.678514430307633865e-02,4.584833383560180664e-01
5.129925002090081065e-01,-3.960339233182247343e-02,-3.239999383850883374e-02,-6.155603142138818887e-03,-2.958131620704302863e-04,-3.033744111799857243e-03,5.491585135459899902e-01
4.769641967087922541e-01,-5.317518619301847549e-02,-2.212163422513893640e-02,-1.654038121189555996e-02,-5.125255964354559317e-03,-4.142462962393254466e-04,5.161874294281005859e-01
5.373665115040948681e-01,-1.299470653540915621e-02,-5.113492503482405804e-02,-2.966015305125789536e-02,-7.868768592593182801e-03,1.196765157376444150e-02,5.732343792915344238e-01
4.980663400191786550e-01,-2.892033812347144517e-02,-3.186184973231423467e-02,-3.527237018834970123e-02,-3.154001701502347904e-02,5.909919372541461678e-03,5.348787307739257812e-01
4.031549069920505324e-01,-4.525761081507445605e-02,2.662297577042560537e-03,-4.493023399277324553e-02,-1.227187350671369998e-01,3.076573568705672640e-02,4.857547283172607422e-01
3.714840257552801672e-01,1.153578190868129183e-03,-3.120166339567775893e-02,1.869796390662250283e-04,-3.676143913335881697e-02,1.944918380359116940e-03,3.927330970764160156e-01
5.010521090117718845e-01,-5.711002367079082154e-02,-2.077131539421939177e-02,8.249384675086046323e-03,5.273604864932492694e-04,9.098837719857715890e-05,5.410985350608825684e-01
5.862386522173150816e-01,-5.286221819266057054e-02,-3.237762192547119500e-02,-2.025701740322495559e-03,2.469094706058419866e-02,1.186051246205478520e-02,6.309049725532531738e-01
4.848633692208542678e-01,-3.917832927118802822e-02,-3.342067039539953210e-02,6.497343292688624247e-03,8.381857591798040630e-03,-9.463318110212601275e-03,5.217678546905517578e-01
5.075773674360786192e-01,-4.665084948736894499e-02,-3.186622531508118139e-02,-4.336426376880398847e-04,1.396561205688787773e-03,-6.785451649830714915e-03,5.471178889274597168e-01
7.054834485348042694e-01,1.675241138739513858e-03,-9.374546723348142763e-02,1.048613116911851911e-01,2.518773253186121566e-02,2.896994799891619912e-02,7.803958654403686523e-01
5.062553290652029858e-01,-3.955973535296461452e-02,-3.409505142943489164e-02,6.496608271447991759e-03,-2.606058642055258967e-04,-2.826416965339312391e-03,5.432421565055847168e-01
4.878739886386488367e-01,-3.092697322077164745e-02,-3.202305952813275236e-02,1.444360655553832661e-02,7.939894368700743405e-04,-6.962726864176787232e-03,5.200937390327453613e-01
5.227983979773285217e-01,-1.179282940369874577e-02,-2.795294944755483124e-02,-7.814420124586331576e-03,-8.002881304299892459e-03,5.828710758658017452e-03,5.432911515235900879e-01
5.242432199996698294e-01,-3.582223968423023375e-02,-2.873109540160179165e-03,1.180411690425556791e-02,1.130218204537297884e-02,1.646741870894492116e-02,5.458205342292785645e-01
5.034594866283592651e-01,-2.671718670284364827e-02,1.884580366653371142e-03,-1.042548885961691423e-02,-1.479677149404728422e-02,1.864963173495692503e-02,5.184280872344970703e-01
5.150480784197570827e-01,-3.171799002663988620e-02,-2.968676240543452471e-02,-7.694347924003389679e-04,8.383035346020970609e-04,-1.854651517111417401e-03,5.457662940025329590e-01
5.158544799035198469e-01,-3.422961730719906170e-02,-3.640009311832798078e-02,-6.467154496992166303e-04,-1.812822912223524974e-03,5.323849187555857202e-04,5.511834025382995605e-01
5.995826782613717931e-01,-9.840074131586828976e-05,-4.440245590283442567e-02,-3.304909687689350922e-02,-1.019722264194211116e-02,3.104697780774598459e-02,6.281949877738952637e-01
5.244208810210728711e-01,-2.461876200030785333e-02,-1.950201607478713184e-02,-4.607884133828031472e-04,-3.233436642554490120e-02,1.769841763945687041e-02,5.502165555953979492e-01
4.520923137566478234e-01,-2.768977299753883070e-02,-3.371620582604106797e-02,-5.077561303119664665e-02,-4.224908871599747373e-02,-4.904413904275716635e-03,4.962662160396575928e-01
5.214396721407921209e-01,-1.696988030877119580e-02,-2.579528115329948745e-02,5.310811684962669400e-03,1.752585796951899085e-03,-4.269605525481572419e-03,5.430128574371337891e-01
3.138546378664813230e-01,2.943712495535870388e-02,-1.087311000472894473e-02,1.263670742178692186e-01,-6.150005916547082035e-02,-3.233533658717305248e-02,3.954397439956665039e-01
4.113928097793466687e-01,-2.904471197188598919e-02,-1.321554501590238573e-02,-1.261335495850980648e-03,1.321262833650289903e-02,1.057962473037314492e-02,4.337375760078430176e-01
4.168167704222953684e-01,-1.218575857758594227e-02,-3.040166118566087206e-02,1.258034025425344184e-02,-2.153863377386173658e-02,1.271254198099454683e-02,4.410680532455444336e-01
4.971640697777795492e-01,-3.249982532020362358e-02,-4.827308344871969470e-02,1.933821832699219158e-04,-2.919762063501468632e-03,5.348105467107896333e-03,5.378277301788330078e-01
5.159753464281020552e-01,-4.595903128264985926e-02,-3.128775100630049044e-02,1.710798838053577062e-02,-2.843335007695488130e-03,2.548313808391447933e-03,5.555744767189025879e-01
5.419754690299869448e-01,-1.640465806718938158e-02,-4.616709188226883476e-02,2.790254113592691154e-02,-1.124985623765892241e-03,-9.583776412229320571e-03,5.761144757270812988e-01
5.228373548513365332e-01,-3.447255536434160050e-02,-3.509762846961969607e-02,8.045363284820600952e-03,1.604041674813542128e-03,7.034659849685306887e-04,5.578050613403320312e-01
6.260303336116154194e-01,-3.440576391305638637e-02,-5.715403238551419740e-02,1.943086800583153362e-01,-6.935832337440736572e-02,-8.029808534973151279e-02,7.737956643104553223e-01
6.375766851425015425e-01,1.260821045807372642e-02,-6.251888431131036317e-02,1.284977244587253153e-01,-3.173304657150723129e-02,8.848086705904018414e-04,7.040880918502807617e-01
6.027709825930580578e-01,-2.059458641749634111e-02,-2.811568892891350147e-02,7.533014998809775542e-03,1.496077096076421642e-02,3.518142373734764461e-02,6.307808756828308105e-01
7.019531042931960174e-01,7.127418420509262775e-03,-5.889408216033098498e-02,6.504615077081216112e-02,-8.098966837109325412e-03,-3.492583258928771972e-02,7.413259744644165039e-01
6.267226603306419452e-01,4.723038748458069369e-02,-7.662289778481995439e-02,-3.539254636909172635e-02,-6.655366113694688446e-03,2.397332602355605607e-02,6.546280384063720703e-01
5.422742300836472795e-01,7.925730299605665552e-03,-4.206013088014554091e-02,5.251349843091887744e-03,9.578856585188817718e-03,1.493551746132097853e-02,5.619288086891174316e-01
5.384811689748325580e-01,1.207356587571539741e-03,-5.629443114026549955e-02,-8.525448394731523216e-03,3.476496820913605682e-03,-1.294960697972375374e-04,5.684348344802856445e-01
5.365884512175813637e-01,-1.005096611023886810e-02,-4.088479258556396156e-02,-1.146031523157379443e-03,-1.953084200039363659e-03,7.136495030114341220e-03,5.628396868705749512e-01
3.731659231975842927e-01,-1.278722733532580702e-02,-9.258315626013063904e-03,-2.183963488567897647e-03,5.981356042780327413e-04,9.943485961078923213e-03,3.846066892147064209e-01
4.140614520585451652e-01,-1.214886055101163653e-02,-3.249135550953777263e-02,4.116493124200668020e-04,-7.022836498211580897e-04,7.822521250811920526e-03,4.369494020938873291e-01
4.270775582563888784e-01,-7.777638525505864431e-03,-3.776562737334501763e-02,8.124484816583215502e-03,1.004690307183650488e-02,-5.030537967348783397e-03,4.512377679347991943e-01
2.629559492933340459e-01,1.689445240490550226e-02,1.844270379133403082e-02,-6.493227835508323838e-03,1.771011582688770567e-03,7.976747244742396666e-04,2.455717772245407104e-01
2.608578259645715214e-01,-4.136419974841779035e-03,-1.433021810960363740e-02,-9.645848588005913327e-02,-8.895720947718932514e-02,4.328769577702075086e-03,3.531801998615264893e-01
5.062058902952146777e-01,-3.016591078527114389e-02,-5.521502787864435158e-02,-4.858420123306024150e-04,2.991561835684710020e-03,1.637139991984399700e-03,5.493572354316711426e-01
2.218820522827791852e-01,-3.025739895032854287e-02,-5.757738614500314267e-02,-5.719308082997699716e-02,1.104979353712095547e-01,-3.668348277589573991e-02,3.488390743732452393e-01
2.671292064927581755e-01,1.223307992254010768e-02,1.216096456054556463e-02,-4.226811078027708016e-03,6.700347711210656717e-04,1.946256434639005717e-04,2.550401687622070312e-01
5.253575909659261578e-01,-2.943646042352374148e-02,-3.539981066121883346e-02,-2.734561441455429873e-03,-3.108282404645491999e-03,-1.952151239740024984e-03,5.578559637069702148e-01
5.214374321500152565e-01,-1.902156802438176308e-02,-4.110513061812676172e-02,-5.785619183306352394e-03,-2.156677888944770298e-03,2.093032073529598087e-03,5.519478321075439453e-01
5.255518741367514179e-01,-2.114003848777343264e-02,-3.609225052183964721e-02,4.997491542261220041e-03,-1.376821658551046455e-03,-3.382477059998791253e-04,5.543922781944274902e-01
7.535566600957813721e-01,1.008440033222357535e-02,-6.621805533747016081e-02,-4.103244882551356464e-03,4.892793523899201247e-02,4.160204040089546945e-02,7.922918200492858887e-01
5.232833110289625278e-01,-4.484042849183492163e-02,-3.389687526770662762e-02,6.428481607390734709e-03,8.916056460673533286e-04,-1.856769585426227111e-03,5.628532171249389648e-01
5.202932833266240564e-01,-3.093150762108337615e-02,-3.398515025742870899e-02,-7.762388741251178333e-04,-1.592029399090417845e-03,-2.943007046732579483e-04,5.527666807174682617e-01
5.728476899007659551e-01,-2.798685759278463081e-02,-4.019195441598222285e-02,1.615282452194840429e-02,2.062887857865516872e-02,1.744688639756953458e-02,6.094726920127868652e-01
4.884122362315596599e-01,-4.406147973297158682e-02,-2.021993764706470076e-02,9.102407479806409740e-03,1.463977677728339798e-03,6.661245438241799504e-04,5.212082266807556152e-01
4.934480804830801426e-01,-5.239755061702328076e-02,-3.098046507040266850e-02,-4.703887285852413266e-03,-2.061123480686757100e-03,-5.317090192818848572e-03,5.356115102767944336e-01
5.192635975069882504e-01,-9.028338080468267801e-03,7.145940294958297301e-03,-6.305675156479924673e-03,-4.981029603071082321e-03,2.717513770837716447e-02,5.227029919624328613e-01
4.889553703674056062e-01,-3.921445270621082280e-02,-3.221636767356367281e-02,-4.894046368987619959e-03,-8.114121403048277226e-03,-1.534316625179335146e-03,5.249691605567932129e-01
5.125290701708131724e-01,-1.763634529995219968e-02,-2.066457497064705384e-02,1.926890131833499309e-03,1.040877000862218665e-03,6.900747461264278987e-03,5.318338274955749512e-01
5.288308852806264948e-01,-3.833024692958675317e-02,1.170068691459721921e-02,-2.685561164667915092e-03,-8.164584682166122973e-03,2.453859063071949648e-02,5.457355380058288574e-01
6.198967335021705605e-01,-2.370690570377043116e-02,9.628358344686865911e-03,-1.577459672613281197e-02,-3.607813197555041762e-02,5.675490433248892019e-02,6.389029026031494141e-01
5.217703389051657759e-01,-2.138834497894290254e-02,-3.560276047703522795e-02,-1.388747169940878975e-02,-4.736907713769560220e-03,6.244195170153086843e-04,5.509910583496093750e-01
5.278002860561934462e-01,6.608622081458515041e-03,-3.661038988006534711e-02,-8.338174817724057150e-03,-3.433719678597834508e-04,4.804999643212396442e-03,5.443456768989562988e-01
5.133194079585070568e-01,-3.869931670299120441e-02,-3.406202246210399132e-02,-6.509000565587554250e-03,-2.059281445335418327e-03,-2.711289667008245051e-03,5.498619675636291504e-01
5.451732279650045587e-01,1.512880109976705301e-02,-5.187843888039425644e-02,2.385049517814785691e-02,3.472289763360822835e-03,7.048488394673684682e-03,5.681950449943542480e-01
5.120068385525446963e-01,-2.640144252880041731e-02,-3.241880844661684802e-02,2.803288780758297124e-03,2.777420884654695481e-03,8.275127692371049776e-04,5.414870977401733398e-01
5.259639324661478099e-01,-1.982827832630948417e-02,-4.860396389855442534e-02,-5.106249366550252855e-02,-4.928966681023958483e-03,-6.333423366147122521e-03,5.678362846374511719e-01
5.204411415802552288e-01,-4.606884401657715400e-02,1.919956397987279684e-02,1.046310950633196589e-02,1.784897010236945972e-03,2.491640147612921019e-02,5.389052033424377441e-01
5.020662302266984955e-01,-4.899759417262691819e-02,-3.424535907510467547e-02,-4.340903515385138877e-04,-8.373372204879967395e-04,-1.009483079547295655e-03,5.438430309295654297e-01
5.231443193606132303e-01,-2.856233617824557869e-02,7.875002609294440292e-03,-7.554144825045878454e-03,-7.207379092412229647e-03,5.438848700681626035e-03,5.348092913627624512e-01
5.127780534255408362e-01,-1.841625460642343226e-02,-8.606449710640923234e-03,-1.111143660568577902e-03,-5.736100937012310243e-04,1.572692067034940633e-03,5.263694524765014648e-01
5.242522599663115290e-01,-4.779867953746544385e-02,2.676037146401527567e-02,4.105310251970927882e-04,-4.580063621650867171e-04,8.347987421919535189e-03,5.388506054878234863e-01
5.290170483101025445e-01,-4.095418770768047279e-02,8.043261668757017979e-04,-5.566212336170302602e-03,-1.094827448792980509e-02,1.997395617080691566e-03,5.507035255432128906e-01
5.192138210230774487e-01,-3.146663842955854662e-02,1.701778500210368583e-02,-1.908632700369906334e-03,-1.756222368705854251e-03,1.120706861865376248e-02,5.284858345985412598e-01
5.130952511024444718e-01,-2.631874457861577143e-02,-4.366458437790080027e-02,5.250564961019964227e-03,1.477590554825107018e-02,-3.097333128593541055e-03,5.489912629127502441e-01
5.135848312668049864e-01,-4.860495464219655171e-02,-3.355799190911323837e-02,-7.728783489814593753e-03,1.178163825745242622e-02,6.776446505527426549e-03,5.554798841476440430e-01
5.148039221274318678e-01,-4.227823103264513604e-02,-3.182593939651620629e-02,-1.255175153422352988e-02,5.537505083260255319e-03,1.290181780728081630e-03,5.524460077285766602e-01
1.135109739712361898e-01,2.603759404538190034e-02,1.667195713559226772e-02,-6.668431237020262803e-02,-1.830868313359318086e-02,1.494306510798953068e-02,1.535397469997406006e-01
2.712453024962304671e-01,-2.144159222914987506e-02,-2.744119489067331497e-03,3.622481939542925976e-03,9.835433722053724126e-02,4.885178776602909154e-03,3.311712443828582764e-01
3.934835589863501792e-01,2.378066555216715172e-02,-3.165973913216196811e-02,-9.029230805014606953e-02,3.022490679785322723e-02,-2.545924674193845993e-02,4.351937472820281982e-01
5.282441457912030458e-01,2.945273726643826695e-03,-4.888057903480286237e-02,1.854384622210379944e-03,-5.165078527284296768e-04,-5.206132847591839197e-03,5.531195998191833496e-01
5.033181612520521986e-01,-4.705640498840407693e-02,-3.737140381724737836e-02,-2.203057038093088164e-03,-1.734355551216832953e-03,-5.141828490224245075e-03,5.456908345222473145e-01
5.222130929381449960e-01,-3.463671704589577072e-02,2.974607599195627783e-03,1.560247070022636670e-02,4.289206189283992395e-03,-3.081055049500808912e-02,5.423890352249145508e-01
5.323048701697093987e-01,3.244933274402089785e-03,-3.379171969963024047e-02,-1.281831842058501689e-03,2.643064360708958886e-03,-5.129502022966514301e-03,5.486124157905578613e-01
5.121925223932037863e-01,-4.584126900545412719e-02,-3.768951161186687160e-02,4.571274151662565598e-04,9.563951762891810277e-04,1.872814124644039003e-03,5.540154576301574707e-01
5.425829926308962659e-01,-3.156528391084295615e-03,-5.877941282784962529e-02,-4.520412487297221366e-02,1.439241870003562032e-02,6.040256827908548065e-03,5.814999938011169434e-01
5.189693590756422337e-01,-2.232319496652346302e-02,-6.385396883658300826e-03,-2.035722575039447275e-03,5.522533207779073069e-03,-1.863773857206401513e-02,5.345752239227294922e-01
5.590479050402954453e-01,-2.414655089060668836e-02,-2.793982156448851506e-02,-2.956915882316672045e-02,5.255557349521329524e-02,-1.881392632608947652e-02,5.952424407005310059e-01
5.245270186408520496e-01,-3.228361795777090482e-02,-2.102303545266581697e-03,-5.349019505516398702e-03,5.411368652790393523e-03,1.616827454028582287e-02,5.432325601577758789e-01
5.401061500305627261e-01,-5.631415016693119835e-03,2.027856713774645048e-04,2.748877721559954065e-02,3.973296607681921916e-02,5.350714970738266324e-02,5.570203065872192383e-01
5.699245279342577408e-01,-3.273844293321856447e-02,1.617176454898142102e-02,-6.008472236199245871e-03,-5.831130693817170724e-03,2.586439617092074761e-02,5.816662907600402832e-01
5.329742827827682605e-01,-3.272418325106610237e-02,7.270818832456255043e-03,1.625644247686422461e-03,1.021638837008839468e-03,2.045186273378660560e-02,5.479553937911987305e-01
5.225821009173157172e-01,-3.161434891313585904e-02,1.632291951365580362e-02,-4.942677312363354288e-03,-5.509143561864479621e-03,1.115503670014713310e-02,5.323557853698730469e-01
5.169154417393422296e-01,-4.350182841363486874e-03,-2.488812235903309356e-02,1.522272984046900250e-03,-3.137659966732127183e-03,5.838573458419126123e-03,5.319625139236450195e-01
5.181223826657520570e-01,-1.658113713537553990e-02,-2.288353596000070045e-02,-2.957897391975241892e-03,-5.626152670010642169e-03,3.662681283127134247e-03,5.380324721336364746e-01
5.703899667724947609e-01,-3.833925334559995513e-02,1.800105207000313179e-02,-5.880982146894966553e-03,-8.757102977871560751e-03,3.927554054197285316e-02,5.868483781814575195e-01
5.193139977627141413e-01,-3.159398750213532336e-02,-2.433370403600412790e-02,-2.362585392235275888e-03,-8.053510243014006323e-03,2.992065982051757538e-03,5.475314855575561523e-01
5.186100386094267822e-01,-3.451508432160649287e-02,-3.963845358776549310e-02,-1.080466581395966071e-03,-2.921955556184878053e-03,-1.890478761977998183e-03,5.557403564453125000e-01
5.121203183084208632e-01,-3.508205903936056913e-02,-3.238151384164983382e-02,-3.143014310994359135e-03,2.567506969805725958e-03,-2.711451672834812093e-04,5.459025502204895020e-01
4.651653567795696054e-01,-3.739155139090497015e-02,-3.620801326121977914e-02,-3.512297898561538012e-02,-1.530922925671298306e-02,-1.256681645716963003e-02,5.068015456199645996e-01
5.105788606958596709e-01,-1.716909982772013565e-02,-1.366782464218702087e-02,-3.005641555200581124e-04,-1.590933541947073910e-03,1.570943027933566476e-03,5.260205864906311035e-01
5.193113722223717810e-01,-2.762827614156479483e-02,4.033104739713744280e-03,3.803516090192070667e-03,2.909561608003066041e-03,3.470554562837311306e-03,5.319149494171142578e-01
5.117829711047783281e-01,-1.883170673277720364e-02,-2.270248993978754570e-02,1.532422866742890214e-03,-1.432710061467110877e-04,1.186313797877398303e-03,5.325712561607360840e-01
5.256156756647361039e-01,-3.773775472811438658e-02,-3.331391377575876334e-03,5.039430149499453740e-03,2.440572308929499831e-03,2.304702391860596108e-03,5.470629930496215820e-01
5.294475103895583956e-01,-6.004100046870805563e-02,3.394394963569910550e-02,8.058280591818251654e-03,-1.083922861092373457e-02,1.035650841505901141e-03,5.490695238113403320e-01
6.219789992435856840e-01,-2.601393793396897247e-02,-9.257724803674483027e-03,-4.003499262200104630e-02,-3.496821045628280972e-02,5.565020591838737429e-02,6.535176038742065430e-01
5.220628990656701607e-01,-1.784465413776242793e-02,-2.204274521859986291e-02,-8.072579934929699497e-03,-9.389472116705396484e-03,1.198214264703468569e-02,5.428398251533508301e-01
5.238470792363159045e-01,-3.719827584165150136e-02,-2.673598958340162035e-02,-2.007451798894421043e-03,-5.903364271538158632e-03,8.125438582714326462e-04,5.559947490692138672e-01
5.200096918885760422e-01,-3.331052245903970421e-02,-4.539933640848223262e-02,1.194008693387536716e-03,5.661113000564054615e-03,-1.741599802981014505e-03,5.595604777336120605e-01
4.261862430695029791e-01,-1.859424337876439126e-02,-3.734354962823827062e-02,1.919109547685082101e-02,5.100224990095263145e-02,-1.072636813136408108e-02,4.645151197910308838e-01
5.170163214408558527e-01,-2.964555785952810441e-02,-4.598670098714124910e-02,1.566835136051738164e-03,6.745082131515959915e-03,2.882248182281082170e-04,5.551427006721496582e-01
5.010380665605860262e-01,-2.657263444599852753e-02,-5.395423263790088964e-02,4.668742812836581928e-03,7.596070341809071404e-03,-4.422650451530460783e-03,5.420948266983032227e-01
4.753474240052802391e-01,-3.535714265193951045e-02,-3.957943670549579629e-02,1.746917715344198027e-02,7.819728674888478184e-03,-9.871809293126731708e-03,5.141834616661071777e-01
5.155159056924664140e-01,-3.240574763353223919e-02,-4.674971014028445060e-02,-2.904472607528872110e-04,-6.592763807147372776e-04,-3.881727986957096092e-04,5.552344322204589844e-01
2.391289374359786279e-01,-1.197846830084714487e-02,1.427180058445665090e-03,2.824833679944153617e-02,2.688342078762183222e-03,-8.246725932583170299e-03,2.499759942293167114e-01
4.150272479721038299e-01,-2.690141918541341659e-02,-4.383426090284608945e-03,1.182257941132058149e-01,1.214225362123893120e-01,3.430881861958257756e-02,5.249288082122802734e-01
2.341317647938056523e-01,-2.320459514009461099e-02,-5.795396103961279743e-02,1.170340309723521127e-01,7.408773619001086941e-02,1.086138512492500728e-02,3.664472401142120361e-01
5.112426697739511638e-01,-4.270608086075325383e-02,-3.867514011750725067e-02,9.504011781399237342e-04,2.155922562426050072e-04,-1.274692430070516538e-03,5.519512891769409180e-01
3.823724467411502292e-01,-1.022741111283934079e-02,-1.779980789177210143e-02,1.622894295773572720e-02,1.516394807936887607e-02,-8.383494944400896043e-03,3.985671103000640869e-01
4.902500847167359788e-01,-1.998412308064834164e-02,-5.453264165690288601e-02,4.081420122373631727e-03,1.321105424994652514e-02,2.334365825967715368e-03,5.289142727851867676e-01
3.819205644331100102e-01,-1.309023749563925643e-02,-2.150071878209960929e-02,1.055216562246825279e-02,3.382693329970126034e-02,-3.989050320034747896e-03,4.040310084819793701e-01
2.588534160800247674e-01,1.731845924608510501e-02,1.790222444900017862e-02,1.631378587121620804e-03,1.345900525137613867e-03,-3.327222644457148142e-04,2.412721067667007446e-01
5.454194054494800881e-01,3.144109253054541697e-02,-5.396475129051567232e-02,6.582533632032578838e-03,4.704784460360584772e-03,3.814937547354735770e-03,5.617870092391967773e-01
5.316227308069412238e-01,1.681592682496346747e-03,-4.710857800906689818e-02,-7.494979312807424632e-03,-8.592305735946282816e-04,3.301725899190218524e-03,5.561271905899047852e-01
5.264797932298523886e-01,1.094455516831999153e-02,-4.337169424795717099e-02,9.660490660867252291e-03,2.616696039095406552e-03,4.761489306996791529e-03,5.450663566589355469e-01
5.931684968078341225e-01,4.081595869196061321e-02,-6.666373148595267084e-02,8.618781396231302294e-02,2.180648934833453664e-02,5.983896073615044449e-03,6.323218345642089844e-01
5.380938761364750800e-01,2.508236488600024128e-02,-5.265569668053401986e-02,-5.790105870340076302e-03,6.214353763322994590e-04,9.121116934206001045e-03,5.562875866889953613e-01
5.419555186219775500e-01,-1.268438714562442060e-02,-4.536687555379559367e-02,3.464616082145609982e-02,5.863403351036068807e-03,-1.945221027354122455e-03,5.749227404594421387e-01
5.175342724648985815e-01,-3.918120821323448078e-02,-3.709478413167802135e-02,3.349566354153634545e-02,-1.292146493354030248e-03,-8.986856976314968205e-04,5.587022900581359863e-01
5.447692463489259840e-01,1.812825081557078999e-02,-2.924785595919723868e-02,7.805782998236622527e-02,4.826490984373740106e-02,4.631969355173576330e-02,5.798702836036682129e-01
5.332801653020102783e-01,3.218722157265069272e-03,-4.416703177636677191e-02,3.487517329409912416e-03,-4.882241462539374478e-04,-1.300566198627833977e-03,5.553109049797058105e-01
5.934234552271449026e-01,1.937052430054622687e-02,-6.569770263843063840e-02,2.398022592973281242e-02,-8.737687934469950263e-03,-6.446526188168526933e-05,6.225441694259643555e-01
6.181135484142896708e-01,3.687865611272569955e-02,-6.769150852851479883e-02,1.356919194634733858e-02,-6.794121744284804820e-05,-3.082178709973556335e-02,6.426126956939697266e-01
4.925530066565469989e-01,-4.197038034592520672e-02,-3.853928515962856682e-02,-1.143617408070411560e-02,1.066368067943221191e-02,9.230612507255200536e-03,5.337435007095336914e-01
5.116428514261858185e-01,-4.809650044480090481e-02,-4.153988070898867457e-02,2.177252327670413932e-04,-6.072743586417918152e-04,3.563313624044790913e-03,5.565253496170043945e-01
5.098085893025294801e-01,-3.991359525682350307e-02,-3.486526833302136530e-02,1.753145063144169371e-03,4.143692395974066071e-03,3.092891511454209669e-04,5.472712516784667969e-01
5.153251809491523616e-01,-3.818997453339600945e-02,-3.763414744748985741e-02,-7.032420664189220931e-05,5.901423129615726397e-03,1.024402010916782447e-03,5.533347129821777344e-01
4.963958386272038226e-01,-3.976772251853874507e-02,-3.792573376700131282e-02,-6.876628817620630135e-03,3.155605268052043364e-03,4.761239602893812574e-03,5.354688763618469238e-01
5.007767502039826013e-01,-3.642072420503170149e-02,-4.324057648072807125e-02,-2.945788867435827994e-03,1.535528467420692789e-04,7.438069210104145297e-03,5.408172607421875000e-01
5.109365563187183712e-01,-4.304385672969870957e-02,-4.051820930839489243e-02,-8.026601295124066206e-04,-4.102953828958009227e-04,5.879027646658136971e-04,5.527250766754150391e-01
5.173931529805261276e-01,-4.140944479446045934e-02,-4.313789273127405233e-02,6.282950085252937125e-04,1.692462716189134086e-03,1.308130008408863246e-03,5.596821308135986328e-01
5.130885068833934692e-01,-3.834292709984959968e-02,-4.620565131786838475e-02,6.682926164578624224e-04,7.070197895489097875e-04,1.072505801893380547e-03,5.554102063179016113e-01
5.128776120725810905e-01,-4.432374497860275264e-02,-3.668176999064390320e-02,-3.104261534643793299e-03,3.332336702627964470e-03,2.350189571379729479e-03,5.534911155700683594e-01
5.702770135938759477e-01,-3.118450139119666176e-02,-4.642915916979442614e-02,4.419290756761731082e-02,-2.184331684969860465e-02,-1.813006266715731785e-02,6.159821152687072754e-01
4.399632727518884012e-01,-1.446293130466597132e-02,-4.430378088171374462e-02,6.225330250379156917e-03,-2.768786955292925830e-02,4.317758652517777324e-03,4.726797640323638916e-01
3.855494235728777475e-01,-1.499910336526194543e-02,8.023627530896526583e-03,1.165634709322997120e-01,-9.718818176439986134e-02,-4.383748110749616234e-02,4.760361015796661377e-01
3.674326775970103154e-01,-1.769673903390954484e-02,-2.794655736888870812e-02,1.291719578690327663e-01,-6.328213086613103389e-02,-5.919889930694922919e-02,4.743003547191619873e-01
4.182385204746082996e-01,9.827713062564052970e-03,-5.158002571549261117e-02,2.029997779837415250e-01,-2.714595502392403922e-03,-5.735740132442020828e-02,5.737319588661193848e-01
3.138691293297730667e-01,-2.775451839830363199e-02,-2.187008325164373213e-02,5.920474880956196756e-02,-5.956234070033351174e-02,-4.409907019488398805e-02,3.764623403549194336e-01
3.925193440266557254e-01,-1.199864191850497086e-02,-4.134169534696935377e-02,4.221214902911119178e-03,-3.967911941351352778e-02,5.415560921035369318e-03,4.257115721702575684e-01
5.126765481786637046e-01,-3.075488962349109956e-02,-5.105030884815714431e-02,6.511721661128408445e-02,-2.986830140004764766e-02,-6.273944682243950619e-03,5.676918029785156250e-01
5.321566270715043512e-01,-3.824948892740995254e-02,-1.662283336401945699e-02,-2.653358233556894611e-04,-9.406037104981512104e-03,-4.795619885803897343e-03,5.602048635482788086e-01
4.947528154788147225e-01,9.287339812151518270e-04,-3.909843214140204526e-02,5.710844413833580935e-02,-4.111030780714564764e-02,-3.540714329582833608e-02,5.327720642089843750e-01
5.094749713238161393e-01,-3.677155742260554416e-02,-3.618128236043632873e-02,-4.664696266315002462e-03,9.624284135232346249e-04,-2.852262237452394492e-03,5.460363030433654785e-01
5.262464853496143791e-01,9.460425957205476077e-03,-4.121316696865998108e-02,-5.085832123497355771e-03,6.258965942743044235e-03,-5.812793906013191680e-03,5.441686511039733887e-01
5.215631963634460577e-01,-3.551492377484474772e-02,-3.294373479413378880e-02,5.381577442231327314e-03,1.076168693860155273e-03,1.958228468683363992e-04,5.558784008026123047e-01
5.276124199132220527e-01,-9.579897825877092821e-04,-4.648814928920641520e-02,-8.902969486387385389e-03,7.512167279900850043e-03,-4.358706726958461831e-05,5.531117916107177734e-01
5.295443752146379301e-01,-2.196246201746854254e-03,-2.597898362584255549e-02,9.934393558163303467e-03,-2.788738566137582801e-03,-2.087154594907037267e-02,5.455146431922912598e-01
6.308884148310041073e-01,1.391276775925653908e-02,-6.688126366156393887e-02,-8.156729293757979116e-02,3.926135543919136162e-02,-4.433947280988274203e-02,6.837518215179443359e-01
5.113574135259166820e-01,-4.225840721426302182e-02,-4.419514503965282781e-02,8.907697191987074469e-04,8.659515181436708764e-04,-2.822311221003566666e-03,5.546124577522277832e-01
5.133729894614715850e-01,-4.054089474626823564e-02,-4.506434337537282286e-02,6.697736912316514793e-04,-1.405075560654534287e-03,-1.097787524161338924e-03,5.561991930007934570e-01
5.079406210380201792e-01,-3.749815423561159156e-02,-4.762403774776718945e-02,-1.179819587558713408e-03,-5.701295897862115707e-04,-1.805741562501896871e-03,5.505850911140441895e-01
5.211429773155532574e-01,-1.692028529222630584e-02,-4.481021412149827077e-02,-8.426454106320432902e-02,-3.032203643072069188e-02,8.319228223106938866e-03,5.740765929222106934e-01
4.928231265448789200e-01,-3.487056442689115410e-02,-4.290615516860987744e-02,-7.680288569379823196e-03,-4.437325581384065666e-03,-8.258716344444789678e-03,5.321711897850036621e-01
5.142234348287184620e-01,-3.801236860796819439e-02,-3.615481902910241963e-02,3.574995639361249031e-04,-2.141089629790244361e-03,-1.159212793617104068e-03,5.513258576393127441e-01
5.128569028623493065e-01,-3.547907680729067703e-02,-3.810870320249207244e-02,6.663057404476596321e-05,2.240869344079278892e-03,-7.928685934744851983e-05,5.496692657470703125e-01
4.395157174471658323e-01,-3.541585526687482388e-02,-2.875337658563184573e-02,-3.606643278763266292e-02,-3.086015570671601926e-02,-1.301050429706200953e-02,4.792779982089996338e-01
5.059039715177853225e-01,-3.946184519691742221e-02,-3.339416737761866094e-02,4.610450050696399539e-04,-1.011681236709971021e-03,-4.870083147851111548e-04,5.423614978790283203e-01
5.076377067245259056e-01,-3.907029409895826366e-02,-3.307506545939373210e-02,-4.096646969065230633e-03,1.270846859539969374e-04,-1.495544845633750217e-03,5.437876582145690918e-01
4.961226627448231952e-01,-3.413663533966096453e-02,-4.891490373175658157e-02,2.357741096172794016e-04,-5.353353593563097909e-03,-5.583100281346258485e-03,5.379677414894104004e-01
5.073085704270214880e-01,-4.103876970873854280e-02,-8.208044949958720471e-03,3.853927291994255645e-03,-3.316889925831201930e-02,2.528041621859818469e-02,5.376080274581909180e-01
7.661328345123121775e-01,-5.075469043078595366e-03,-2.384201710006733643e-02,-4.703693722989345238e-02,-9.417170637457185356e-02,5.128204441617816717e-02,8.066716790199279785e-01
5.486927377318426835e-01,-4.777453664077244144e-02,8.444559180659172437e-03,-4.219204735037945797e-02,-5.330880376181335034e-02,2.731049340419822863e-02,5.843839049339294434e-01
5.203010892809725174e-01,-3.382075791058777869e-02,-2.353363873476127521e-02,2.920166261845450785e-03,-1.109572881750343562e-02,2.128514672014318078e-03,5.494224429130554199e-01
5.440273333616475471e-01,-4.176677550665919281e-03,-6.910266739040576978e-03,-1.286055846807433456e-01,-1.144263569087396598e-01,5.941135962270816667e-02,6.336569786071777344e-01
5.055912490878786691e-01,3.285603858534047461e-03,-4.933905157933421437e-02,-6.437628374026459210e-02,-4.361337894565397999e-02,5.268451284479071933e-02,5.549596548080444336e-01
5.688052166230926909e-01,-2.954692110750153922e-02,8.862600633721073873e-03,-6.140733840008003735e-02,-9.646118677900275551e-02,4.682301200087150839e-02,6.183220744132995605e-01
6.766976668138846573e-01,-6.625570968333382993e-02,1.273064455286626595e-02,-2.178842393844590899e-02,-9.112124251300263156e-02,5.572166895283851840e-02,7.315623760223388672e-01
4.923514395201267768e-01,-4.334734376109039555e-02,-4.040963043893991413e-02,-7.544434960898244689e-03,-9.835662182553347663e-03,-7.854624532033930087e-03,5.348402857780456543e-01
6.050753896429095224e-01,4.023369758405892505e-02,-6.357781915831289821e-02,-2.043797294753870591e-02,-9.045657564204272194e-03,2.909079541351876352e-02,6.264961957931518555e-01
5.682843911380961455e-01,-2.046916545068078186e-02,-5.394221371107746354e-02,-3.049443429298133446e-02,-1.956361870475773271e-02,1.743626532699701914e-02,6.101709604263305664e-01
4.154155777641413416e-01,-3.963198535117373744e-02,-8.115270834097326746e-03,-5.126950054772216187e-04,-3.948577207947499487e-03,3.744346192516449789e-03,4.402381181716918945e-01
5.201717682363899975e-01,-2.925894072853627015e-02,-2.952682855897018066e-02,-2.636161656235130185e-03,2.723448315166667345e-03,1.705061135471304433e-03,5.496118664741516113e-01
5.127500362259294064e-01,-1.900866566594766605e-02,-1.717775763903919839e-02,2.224630663754230842e-03,3.543852516178456862e-03,1.648916013724472567e-03,5.309027433395385742e-01
4.178741170251535908e-01,8.263680085196511982e-04,-5.136000368766907576e-03,-1.147683303090465956e-01,-9.175666318375591546e-02,4.758621327014719848e-02,4.980135262012481689e-01
5.008964426967550398e-01,-1.722470870772119245e-02,-5.441465524716110336e-03,-4.640052423049718933e-02,-4.618464362731972139e-02,4.260695027641141219e-02,5.298937559127807617e-01
2.885420396046824987e-01,-4.098114835567311098e-02,-1.684590224553574045e-02,-6.939256585083930506e-02,-7.310344820020987788e-02,4.414765035637618212e-02,3.708642423152923584e-01
4.753476054470806011e-01,-3.368424111800111254e-02,-3.948977284769034091e-03,-6.074622684855314481e-02,-1.144172860275987913e-01,4.851860448745171778e-02,5.497888922691345215e-01
4.851213224193466900e-01,2.125508680116708349e-02,-3.268349783543073039e-02,-5.977592931685175859e-02,-3.500578703326413799e-02,3.534237771404784290e-02,5.111207962036132812e-01
5.475084008799895319e-01,4.096094526750798659e-02,-6.715842412310196741e-02,-7.804127870701059455e-02,-1.571800112976729294e-02,5.221418207493298824e-03,5.849290490150451660e-01
5.063998124816802004e-01,-4.093098291738714312e-02,-4.405509885858241437e-02,1.790879184187305539e-04,-1.696422554953405659e-03,-3.566808460137274074e-03,5.489422082901000977e-01
5.060785765279260939e-01,-5.335735969830307512e-02,-2.938515136594871402e-02,-5.232394035764434403e-03,7.785153895130713427e-04,-2.291548672631087136e-03,5.479343533515930176e-01
4.939998925619433767e-01,-5.560636833158813519e-02,-2.554227588098983981e-02,-8.038773557241527586e-04,-1.284700400309449599e-03,-2.121859629403989676e-03,5.352269411087036133e-01
4.029999539305331724e-01,-1.113338357209012197e-02,-2.150415266992550256e-02,-1.061803279709599146e-01,-2.601296056606380858e-02,6.440041234164047175e-03,4.603108465671539307e-01
5.116705167739328264e-01,-4.345265724175051414e-02,-4.449593453493955186e-02,-1.408397803035174416e-03,-2.183358586424809147e-03,-3.787052438320261116e-03,5.557025074958801270e-01
5.017699581832837374e-01,3.195385708113812617e-02,-4.424221728175936619e-02,-8.457312127483446185e-02,-7.044352154863724527e-03,3.163349087358801465e-02,5.356677174568176270e-01
5.366369623389590782e-01,3.596977287356017960e-02,-5.338501463517048018e-02,-1.261939980318029821e-02,2.463216194760887816e-03,1.837723675781237700e-02,5.521757602691650391e-01
4.025401586762071271e-01,-3.550596439363407075e-02,-2.418065992076853798e-02,8.665782073741041397e-03,6.476286849677918844e-02,1.322681070812248456e-02,4.476432502269744873e-01
5.136832795503325499e-01,1.122372462437873364e-02,-4.452534357922696695e-02,6.043636328720968648e-03,4.171392871244422422e-03,1.332442563615951307e-03,5.326840877532958984e-01
5.249213178505944821e-01,1.353039088505939014e-02,-4.756370666000231395e-02,-1.015161570499319849e-02,-1.230967796293553794e-03,4.800512981520812378e-03,5.448660254478454590e-01
5.326702361011033116e-01,8.959881900619054429e-03,-5.432273909659482425e-02,6.888401901628541518e-03,5.690976026415922769e-03,-1.036626665967290990e-03,5.582666993141174316e-01
5.006005805220394844e-01,-1.923421373609057738e-02,-3.842928548319624049e-02,-2.972851943354035131e-02,1.896218136155376072e-02,9.355732106720757515e-03,5.334487557411193848e-01
5.503920324642174178e-01,1.589677253257287814e-02,-5.603914541086355006e-02,-1.041975126092215161e-02,5.996946653042430422e-03,-1.340470471607921842e-03,5.742372274398803711e-01
5.126613143065799072e-01,-2.458583845268966228e-02,-3.794413212265196345e-02,-1.590745256851675959e-03,4.989146576291209924e-03,5.200864852001978438e-05,5.441249012947082520e-01
2.592124871930413521e-01,3.115115469072130688e-02,-2.424004562485247705e-02,-9.825688807828325544e-02,-3.674393856655247537e-02,7.232101945424159427e-03,3.176212608814239502e-01
3.370131581413897126e-01,-1.834480021283697859e-02,-2.846845379258514108e-03,-6.082981847114935642e-02,-2.263680655546668717e-03,1.417612839351756237e-04,3.634946644306182861e-01
5.056361122322271529e-01,-2.416472522003287882e-02,-3.408118282796696041e-02,-2.043758070464629997e-02,-8.317315067077390989e-03,2.086023768584052088e-03,5.362039804458618164e-01
3.437624182170356812e-01,-6.503387200593277462e-03,-5.575451023963590158e-03,-2.385751134840139592e-02,-2.779068959330951646e-02,-4.178082239799625966e-03,3.555824160575866699e-01
2.894071482424417918e-01,8.163901482623886485e-03,2.334155133207657662e-03,-2.752378896648747728e-02,-1.330879116280990135e-03,3.843228017344883524e-03,2.882596552371978760e-01
4.236367735265534340e-01,-4.052866675127153595e-02,-9.788536863523267240e-03,-6.913592241239298157e-04,-4.248404686486488210e-03,-5.444896666972894733e-03,4.497449696063995361e-01
1.490585821748884321e-01,1.372330171566622792e-02,6.957412598299544948e-03,-1.027915945376830648e-01,2.586801359073711074e-02,-1.103065872546776793e-02,2.309716492891311646e-01
3.871310823796549894e-01,-6.310606699355819638e-03,-3.219021763526813684e-02,1.333727891591007342e-04,-2.739535812944817947e-02,-9.129654066103276566e-03,4.100607931613922119e-01
4.395440394865124389e-01,-4.659580357528614325e-02,-1.533867103135541643e-02,-1.173392599359308029e-02,6.927132422049374523e-03,7.534925893420545487e-03,4.720603227615356445e-01
5.260082587692590517e-01,3.414114920587188462e-02,-5.154703706820884523e-02,-1.993231900357835852e-03,-6.169623417136146318e-04,9.150422024745740249e-03,5.400807261466979980e-01
5.121995166001138688e-01,-9.931193858306874844e-03,-2.147532896702133987e-02,6.053333747085144333e-04,-6.072942098382927683e-04,5.320364128629222027e-03,5.280799269676208496e-01
5.181731886364998596e-01,-3.640912660422931935e-02,-7.051555012798915723e-03,-4.651083725160386033e-03,-2.051174517073374101e-02,1.480388899212725998e-02,5.423345565795898438e-01
5.701986876787579206e-01,2.154139673210933581e-02,-6.844458154138041706e-02,-7.278154502121585850e-03,-3.606671175961809455e-03,1.967819709387657809e-02,5.998778343200683594e-01
4.253729230492258595e-01,2.098923366327051787e-02,-3.444241110237816761e-02,-1.563051606974875385e-01,-4.521717437709544402e-02,2.910069950348001880e-02,5.205600261688232422e-01
1.254600064818519600e-01,1.161806471785000600e-02,7.901565305580490750e-03,-5.460333087164477572e-02,-1.850506957826806090e-02,1.579452086719998830e-02,1.552970707416534424e-01
4.626656043392923801e-01,-5.168165426276560837e-02,-1.683270735574651789e-02,-1.240426659484360553e-02,-3.160696290895718703e-03,6.777518682549016609e-04,4.983332455158233643e-01
3.822968060546213520e-01,-3.637553968942125460e-02,-1.865698033472709683e-03,-3.503170881766813627e-02,2.327345448986829768e-02,6.133500505650439985e-03,4.092048704624176025e-01
3.855959585592727557e-01,-2.383715352872139981e-02,7.392555326344404931e-03,-4.544118033651402960e-02,-1.174920054844436484e-01,4.175462464020538583e-02,4.567958414554595947e-01
5.115809194224021361e-01,-3.253765396460120418e-02,-5.924147116926098411e-03,-4.829772302050298373e-03,-1.586076448788704615e-02,1.748029967714390814e-02,5.329481959342956543e-01
5.243488193719207935e-01,-1.542050425252658452e-02,-3.067783426519316015e-02,-9.962107277323346138e-03,-4.431000960494391877e-02,2.236832126788361463e-02,5.545340776443481445e-01
5.195226950199556271e-01,-3.293038170016332478e-02,-2.149790133329573805e-02,-3.482493565699110410e-04,-6.422443144441436144e-03,1.046883991344993914e-03,5.469429492950439453e-01
2.110311524093292090e-01,-5.142139151733046698e-03,-8.929365669734512512e-03,-9.422197928495154584e-02,-5.921700201736611324e-02,4.324648657464705455e-03,2.911586165428161621e-01
2.834065273667108475e-01,1.564628072059925934e-03,-1.386738612195931308e-03,-2.350439723257647523e-03,-2.949323599482021885e-02,7.188637294044374082e-05,2.879262566566467285e-01
5.118714498906939969e-01,-3.256406736541780922e-02,-3.718740107760087898e-02,-1.792933088450555500e-03,-6.889457393366376671e-03,-6.136559718582242735e-04,5.469018816947937012e-01
4.958234011087811477e-01,-4.318586798129903093e-02,-3.750968381101166260e-02,-4.263577772291771498e-03,-8.062407758070828066e-04,-5.132119791909959573e-03,5.363200306892395020e-01
4.416445904558269353e-01,-2.719075840776480346e-02,-2.649533791459540710e-02,-5.053095775379048277e-02,-3.448410110774292187e-02,-5.484479896588551236e-03,4.804153144359588623e-01
5.083177779440325450e-01,-3.366650451278943579e-02,-3.753481785619269817e-02,-1.859082616030908108e-03,-9.906296721286910606e-03,-1.446381448202179419e-03,5.442146062850952148e-01
5.164264313676723006e-01,-3.479794507701783335e-02,-2.855723571514928727e-02,3.074266356413189304e-03,2.015061709324345203e-03,7.062301862116062128e-04,5.481690168380737305e-01
4.156324739796547485e-01,-2.160885917211949336e-02,-3.250135295879807984e-02,-2.299185282210421469e-02,-7.461799412768673487e-04,9.639102691999874156e-03,4.448904991149902344e-01
5.838079396681404853e-01,-5.976210661933817336e-02,2.541607147770819086e-02,-6.331204997045099259e-03,1.246145504642931778e-01,-3.265081513804489466e-02,6.453870534896850586e-01
5.280280236497461033e-01,-3.825496497271790863e-02,-3.593851021961896874e-02,-4.366163214388275524e-03,1.695667680063248084e-02,1.995195841975004429e-03,5.659520626068115234e-01
4.718998151720744660e-01,-1.857563207897033886e-02,-5.228986875488728092e-02,2.224121962553122188e-03,-1.156903370710262238e-02,1.776427963528885495e-03,5.085908770561218262e-01
4.181866818759257254e-01,-2.690206389812180299e-02,-2.737687847154898768e-02,2.145790148279657391e-04,-2.816787767243513624e-02,1.449192902405157732e-02,4.486936926841735840e-01
4.651192011298388440e-01,-2.791905720988072104e-02,-3.255135440868905938e-02,1.004219469204193152e-02,-1.563628036047702563e-02,1.310960368469985850e-02,4.969342947006225586e-01
5.251399197182643475e-01,-4.142811386954525776e-02,-3.732794974659273124e-02,-1.642073098997416571e-03,-3.122011942087217756e-03,-3.474172569762792265e-03,5.645942687988281250e-01
5.177907676130463210e-01,-3.631447903490667151e-02,-3.879614405028758428e-02,-4.411464464803543234e-03,4.518844767630367416e-03,7.891297438472130591e-04,5.554596185684204102e-01
4.714578835573478011e-01,-4.046596964977117183e-02,-2.995410374098006479e-02,5.382615558789534058e-03,-3.050528129192091320e-03,1.026009799155311146e-02,5.071744322776794434e-01
5.030690705066329649e-01,-3.969032457901389144e-02,-3.326350310467851568e-02,2.143386019810660653e-02,-1.306101622568717202e-02,7.180349311121054200e-03,5.414660573005676270e-01
4.775009177545487815e-01,-3.262087575604891154e-02,1.525007449193946374e-02,4.431511810094598131e-02,-7.662260811598080312e-02,-4.290450363342181161e-02,5.168392658233642578e-01
5.108120235960085243e-01,-3.557334032183750994e-02,-3.873523162951475474e-02,1.267618856209833805e-02,-2.050900020721861672e-02,4.460890761339777154e-03,5.496163964271545410e-01
1.856782368605177369e-01,-4.295293925791530965e-02,-4.794177751099908125e-03,3.873211119047387241e-02,-5.124854887696134870e-02,-5.513393237668540864e-02,2.578818500041961670e-01
3.646564222384251486e-01,-4.724696546529549845e-02,2.860154024561911701e-03,7.146580661430625148e-02,-9.422318198346248119e-02,-4.890976464684279601e-02,4.479603171348571777e-01
5.801360541299260820e-01,2.887647425663461553e-02,-4.394740366131758003e-02,-1.134834853376987494e-03,-5.225808185151190575e-03,2.365420756153702522e-02,5.925366282463073730e-01
3.149055822572949248e-01,-6.359152931179487545e-03,9.923752725464571323e-03,-2.326519268288159553e-02,-1.303172291233458801e-03,1.198608887423462284e-03,3.160352110862731934e-01
5.979159656727528471e-01,-2.848329926110090837e-02,-3.490961118394020346e-02,-2.453675306156468880e-02,3.818009476593706153e-02,-2.615426101408059936e-02,6.361401081085205078e-01
4.381492282906445657e-01,-4.026574130573251642e-02,-1.540918906980509595e-02,-3.319113112507609403e-02,5.697979494068854123e-03,8.455166097876770995e-03,4.703443646430969238e-01
4.077797281764377613e-01,4.015780832513403398e-02,-4.325959387718497640e-02,-1.322027099548230000e-01,9.303710473974397682e-03,1.207995092604905937e-02,4.752899408340454102e-01
3.985862524582852728e-01,4.193558503341801580e-02,-4.306517054097258601e-02,-1.309429183713927414e-01,-2.242379743207034704e-02,2.920120585802044380e-02,4.693028330802917480e-01
5.181931543578808252e-01,-2.253314984866228166e-02,-4.387634773715712311e-02,1.033338007744026305e-03,-1.719718408335776287e-03,-4.224626177758717809e-05,5.517185926437377930e-01
5.294050516982936605e-01,-5.229400395550054537e-02,1.280838586230015341e-02,7.156257732795036526e-03,5.095844880382872054e-03,-1.138117331512577060e-02,5.525959134101867676e-01
5.200492129723414125e-01,1.126608022098671280e-02,-4.138587069500823667e-02,-2.945358160112819881e-02,4.065037500011129366e-03,1.980269132047721061e-03,5.395227670669555664e-01
5.228367633380464063e-01,-3.504571906398612491e-02,-3.893439487165320512e-02,-3.831143537611509959e-03,1.086581252849231011e-03,-1.115063662095121472e-03,5.598827600479125977e-01
5.259230837208352938e-01,-3.833494368910803085e-02,-4.498732078090356135e-02,-1.392859060834199204e-03,-5.933508209962847120e-04,-2.349662907685040169e-03,5.676341056823730469e-01
5.273506330684885057e-01,-4.404271361773259841e-02,-4.096029692021085911e-02,4.760267866511495687e-03,2.729046002905877091e-03,-7.738327008629332197e-03,5.700952410697937012e-01
5.131870272642664599e-01,-3.455932037033934701e-02,-3.358473096499539623e-02,-3.835240869457366523e-03,-2.192131021083460060e-04,-2.077062035380633498e-03,5.473119616508483887e-01
5.111236281124409420e-01,-3.910452256613908273e-02,-3.643407543733356846e-02,1.520773780986399036e-03,1.041244699394615336e-03,-6.148127479609234031e-04,5.489081144332885742e-01
5.142223782407933097e-01,-3.363819038118590066e-02,-2.782771341595197123e-02,2.057544187406260775e-03,2.157778972936099694e-03,5.017432230844025374e-04,5.450037121772766113e-01
5.132510189417622826e-01,-2.640526198777037870e-02,-2.794242060213295020e-02,-6.921706485321976526e-04,1.512257787516987527e-03,7.957008152078299396e-04,5.404359102249145508e-01
5.129520968314381646e-01,-3.871403148436131092e-02,-3.474599863162119995e-02,-1.549697157655094979e-04,-2.318250751566428881e-03,9.571741549627568269e-05,5.497075915336608887e-01
5.141189524962457291e-01,-5.594103036720476929e-03,-2.193430868038201420e-02,-4.025391788850724017e-03,1.369016618353397429e-05,2.852321375467750750e-03,5.281419157981872559e-01
5.142043812335834740e-01,-2.937862099715191078e-02,-2.446057154306857662e-02,2.137676864667469381e-03,2.672662671936690878e-03,3.025058403779004113e-04,5.411734580993652344e-01
5.122385588972316883e-01,-2.635008624623322304e-02,-3.245963066087839688e-02,3.108083218505456984e-03,2.400370628602814093e-03,7.999326548841343863e-04,5.417137145996093750e-01
5.144605274975569964e-01,-2.956165381654876634e-02,-4.876100953782461223e-02,1.235846524940455984e-03,-1.514447802022898110e-03,-1.643823087260554020e-03,5.538891553878784180e-01
5.046693162878981287e-01,-2.853940302137061846e-02,-5.173110464225158522e-02,1.556577770012806516e-03,2.034609777037178682e-03,-4.588800978152729145e-04,5.451933145523071289e-01
5.028367754125463440e-01,-2.164977306009702174e-02,-5.380441070945507498e-02,-9.637822987566666997e-04,6.162964409990903149e-03,-1.058924764945906464e-03,5.413915514945983887e-01
4.459110395360025292e-01,-1.894161802819335771e-02,-4.364733052510680333e-02,5.369394361189500390e-04,1.546927834562183621e-02,-4.539605414538143446e-04,4.784373044967651367e-01
5.033918926572035213e-01,-2.519181044509305467e-02,-5.223168322008975295e-02,-8.504391015876761311e-04,2.985661452091603434e-04,4.936499073293788554e-05,5.426114201545715332e-01
1.128092207079416931e-01,-3.888580441373173935e-02,3.805186609675558634e-03,-1.830011475581192620e-02,1.845656574558061057e-03,-2.448326963928289246e-02,1.455028653144836426e-01
5.184330598246162936e-01,-2.688116012507402175e-02,-3.041114530476396460e-02,2.069949778968864420e-03,1.915221109078624976e-03,2.210952031697129699e-03,5.471229553222656250e-01
4.015898312274711612e-01,-2.687419465549839570e-02,-3.592773539417426498e-02,-2.382733135191257914e-02,-5.826429013519265898e-02,-5.252167037585812361e-03,4.466684162616729736e-01
4.635097864516031230e-01,-1.655590292956901632e-02,-5.411630168804379415e-02,-3.445523245998018645e-03,7.340700263560657373e-04,-3.744363168487328808e-03,4.999845921993255615e-01
4.426641640867540195e-01,-1.688958601844203766e-02,-4.975656275637446724e-02,1.038757984515807599e-03,-1.610768297605400662e-02,2.389602131594433920e-03,4.776743352413177490e-01
5.110662031546704398e-01,-3.571737167392366463e-02,-3.388415807802669377e-02,1.009889008892107636e-02,4.044699930359822726e-03,-9.264551332705516775e-04,5.461967587471008301e-01
4.495621909372661817e-01,-1.487900822091411945e-02,-4.642011343529039991e-02,5.030043259784300509e-03,-1.988865744084975656e-02,5.948986320291540543e-03,4.824087619781494141e-01
2.299020949629099198e-01,-7.407389496606187063e-04,-2.885304692915660607e-03,-5.611186305710123834e-02,-1.284781698736052122e-02,-3.433774279933376073e-03,2.523322105407714844e-01
2.972538721273070284e-01,-3.919852163186687832e-03,-6.827195196766472352e-04,-2.388638319257935239e-02,1.604801913140707290e-02,9.931113896704611699e-03,3.041732013225555420e-01
4.667732274748728205e-01,-2.424636652686373850e-02,-4.430388305749954903e-02,9.627621089978707913e-03,-1.081111185354916189e-02,5.557535494279087877e-03,5.020682811737060547e-01
4.774251644983675269e-01,-1.366907881156464999e-02,1.066107874364263797e-02,8.591478270950191065e-02,-7.094958147597388298e-02,-4.811009496305494043e-02,5.234562158584594727e-01
5.230321648836715465e-01,-4.034530219151249986e-02,3.941320499609851646e-03,8.449202360312312379e-03,-1.873477398550429246e-02,-7.980730804957328339e-03,5.439334511756896973e-01
5.166294682231471480e-01,-3.865470947368485066e-02,-2.452784124986687186e-02,3.892371394415140677e-03,2.066424784013404519e-04,-1.238389342947891335e-04,5.483988523483276367e-01
5.171983700390417882e-01,-3.516600246399578800e-02,-3.847175374474373633e-02,5.000235241272928295e-03,-7.276256685081467293e-03,3.285787039460712992e-03,5.542648434638977051e-01
4.543682686761562062e-01,-3.464456860292777773e-02,-2.756007182736117112e-02,-1.760471174603796957e-02,2.591355507993917465e-02,1.325984607175823698e-02,4.890716969966888428e-01
5.258249131932331011e-01,-3.696986774537427967e-02,-2.542655210750988104e-02,1.819881873184619634e-03,4.250524957703315405e-03,-8.156722852847232870e-04,5.571721792221069336e-01
5.543062017199993363e-01,1.249383658384953244e-02,-5.502177627336307664e-02,-1.371251035587654488e-01,5.101003333212684315e-02,-3.757115349435807827e-02,6.349413394927978516e-01
5.790353647418455818e-01,-5.886987982114733065e-02,1.369579207427951140e-02,-2.844561259166876986e-03,9.738376067007500914e-02,-5.086238222936346337e-02,6.341410279273986816e-01
5.464842565268681618e-01,-6.886116907190154013e-04,-5.233887291745970005e-02,-1.467083600128511571e-02,6.141199860028211110e-02,-3.149480490706366154e-02,5.875911116600036621e-01
6.403470114835561056e-01,-1.003938286574422856e-01,4.334846982017470651e-03,-2.234225237761126512e-02,1.427325456857128361e-01,-4.024580379186310647e-02,7.413249611854553223e-01
3.407517330936102873e-01,-2.799132960365524614e-02,-5.015034277293620169e-03,-6.588262194165767083e-02,1.053165789188361713e-02,8.250869841085377646e-03,3.762785494327545166e-01
5.143216630391740374e-01,-2.994067490752580496e-02,-4.963702578221299011e-02,3.832824652764797810e-03,5.593573967890658367e-03,2.159506643925551608e-03,5.545099973678588867e-01
1.481257366469413417e-01,-3.756547351905399623e-02,1.166094359156768026e-02,-1.120325573158341415e-02,1.272264491849801893e-02,-6.488725231424984086e-03,1.695641428232192993e-01
3.237919068768640996e-01,-4.708238554513036189e-03,3.203437768082059711e-03,-3.226116829266268554e-02,-8.877862286322799924e-04,-6.926076335224739221e-03,3.296127617359161377e-01
3.530006941014077193e-01,-1.306035764507211538e-02,-1.933432023426248647e-02,-4.970241083394170284e-02,-3.352658838149810000e-02,-5.883992203484590504e-03,3.836973607540130615e-01
2.993092949342440745e-01,3.568553809856739312e-03,-1.302519737374024933e-03,-1.839226945031222776e-02,1.263855940725867356e-02,6.591752036978053633e-03,3.009173870086669922e-01
5.141064838917112079e-01,-4.584753416292117190e-02,2.583576073102361592e-03,9.400008738771496730e-03,3.292588623010734433e-02,1.874630367362616762e-02,5.416147708892822266e-01
2.427467990552694688e-01,6.790456404792297174e-03,1.002495622317646495e-02,-1.800109247023505207e-02,5.338122783892571693e-02,1.004506634014135959e-02,2.544526457786560059e-01
5.166608490395483422e-01,-3.406210270305337628e-02,-3.887113475169945431e-02,3.751660417221720691e-03,-1.496308926300637119e-03,-5.654466722994733012e-04,5.531882643699645996e-01
2.649413675518245137e-01,-1.945688076954468770e-02,-1.054440365745701325e-03,-9.502946162267425501e-02,4.757599840691673077e-02,3.029219448384763442e-03,3.315073847770690918e-01
1.684935930886976296e-01,6.973443015333830736e-03,-6.626306096180814564e-02,-6.897640348806961808e-02,2.550685496455299892e-02,-2.464816920623121022e-02,2.476472109556198120e-01
1.837197863226281147e-01,-3.610701123813647717e-02,-6.575908517864792469e-02,-2.357695257375165554e-02,1.560455537687134402e-02,-1.638369493130967941e-02,2.427442818880081177e-01
4.165070598822465109e-01,-3.960648160300517251e-02,-1.559037954620334787e-02,-4.495416625544269287e-04,1.080990355663593791e-02,7.945722197682393573e-03,4.451997876167297363e-01
5.102635771261256892e-01,-3.296409583945406063e-02,-4.347149299253544319e-02,-7.077215795785511687e-02,-7.716349596038624657e-03,1.916536548646550217e-03,5.622547268867492676e-01
2.837168137510756027e-01,1.070693917150303265e-02,2.966648007023814371e-04,2.648325238482479235e-02,-3.427789251495089173e-02,8.844604712121170026e-03,2.887015044689178467e-01
3.685474056735077997e-01,-3.434495911511228905e-02,2.939639632442606065e-03,-3.222318854014022405e-02,-1.521452366798174910e-03,1.517445945095388313e-03,3.896403014659881592e-01
2.458675763386513891e-01,1.449996557235457006e-02,2.080404667047272560e-02,-3.096159176445101822e-03,1.642214996759330803e-02,3.884267851004854968e-03,2.302069365978240967e-01
3.556476825648113849e-01,-2.113737633635318081e-02,-2.211678834352007184e-02,-5.902873664071388304e-02,-3.481978860034464635e-02,-8.058963068208840202e-03,3.957552611827850342e-01
1.353269777413749209e-01,-5.237282838473190927e-02,-4.086375580700618571e-02,-6.861356237607630498e-03,-3.495486855971271199e-03,6.044577528826000981e-03,1.830052584409713745e-01
5.200981116844225483e-01,-3.602570454052239635e-02,-3.055509991305793704e-02,1.242016270634063203e-02,-3.057433342541113555e-03,4.506078165907720021e-03,5.539070367813110352e-01
5.078815344987095415e-01,-4.404364628859186448e-02,-2.907422688078481476e-02,2.810936040267940014e-03,-3.568041352198598332e-02,-3.406017607919368390e-03,5.481435060501098633e-01
7.116750737234420754e-01,-1.218866793629062584e-01,2.838040846620223934e-02,7.635049069945190614e-02,-1.289313904864117788e-01,9.609938880839315276e-04,8.121018409729003906e-01
4.730631933479755857e-01,-3.586080682029782474e-02,-1.292290092925926781e-02,8.420688512619395674e-03,-5.131043715998007820e-02,-1.447805081677665641e-03,5.059381723403930664e-01
5.327474452627559698e-01,-5.678432954216705575e-02,2.415624081947931323e-02,9.348843531232364432e-03,-7.059465285047004240e-03,-2.074291415464953048e-03,5.539013147354125977e-01
5.238204226349177928e-01,-3.919504473071336315e-02,-1.666430903328294799e-02,6.778386683277413992e-04,-1.472185377145391466e-02,6.137769616720409500e-04,5.526857972145080566e-01
4.098340773736384723e-01,-5.581617385695225586e-02,5.039933243699469545e-02,5.111515916536668244e-03,-1.338664288511307587e-01,-1.447181246716179939e-02,4.828249812126159668e-01
4.822301529554240962e-01,-5.186827144093039688e-02,-2.453428537442092772e-02,-2.957388972768034015e-04,-9.363288654684239756e-04,6.341507387266767833e-03,5.210880637168884277e-01
5.169137150094833544e-01,-4.328408813969938929e-02,-3.164178454743643565e-02,1.120645430831821929e-02,-5.794757849011348411e-03,3.695726754103892051e-03,5.549356937408447266e-01
3.865682292432788270e-01,-2.897274490412540815e-02,-2.341563625367051871e-02,-4.463250840980551720e-02,5.363533861951109288e-02,1.592371033376171682e-02,4.310024380683898926e-01
5.050668279009942196e-01,-4.249886691367246727e-02,-3.140981583735077964e-02,4.385259028871679038e-02,5.259047529040842585e-03,-2.992780953333990315e-03,5.475017428398132324e-01
5.262832369103385144e-01,-3.051617254023569759e-02,-3.543093600281840838e-02,1.707623760133514246e-02,-4.259592186414805880e-03,-1.592877595631854090e-03,5.601099133491516113e-01
5.148012642854757903e-01,2.569718415083244167e-02,-6.487313317988577244e-02,2.332016881460606539e-02,2.494282364864690293e-02,-1.522651872834014132e-02,5.439830422401428223e-01
4.291148603008113072e-01,2.886850298341039900e-02,-5.936761542268020886e-02,-1.520221712900001465e-01,-3.148984080146465664e-02,4.058539246949027790e-02,5.296673774719238281e-01
2.964289205437444230e-01,-9.320104186261446433e-03,-3.913309725352058510e-02,-1.190828807176826237e-01,-4.056620210573355645e-02,3.497942814949571433e-02,3.932382166385650635e-01
5.129098744970259638e-01,-2.548254388951620708e-02,-3.258609183236049756e-02,3.103432835368652876e-03,6.186128629104352752e-03,2.116431333786665189e-03,5.421240329742431641e-01
4.797119294116644062e-01,-5.200607416715233300e-02,-2.319361026446831175e-02,-1.794880761218975787e-02,6.411346967125800076e-04,5.880800808887518130e-05,5.188466310501098633e-01
4.262579027647156460e-01,3.272919511813029980e-02,-1.111811075264769744e-01,-1.051913384041530813e-01,2.698443458499878017e-02,-1.794904361844760349e-02,5.182224512100219727e-01
5.728074331776625838e-01,5.783439632080814019e-02,-7.258426247151472666e-02,-8.133019288613556330e-02,5.096233711335136337e-04,6.723746836662708795e-03,6.077405214309692383e-01
5.259366358809485220e-01,7.449846285487005115e-03,-4.891137423564587139e-02,4.681358938409504664e-03,6.180042735164176237e-03,-1.296397851701433686e-03,5.490109920501708984e-01
3.598640263654694360e-01,-1.622184979588819909e-02,-9.436794450379260013e-03,4.824996885871752489e-02,-2.501694069089126227e-02,-1.178067915960458395e-03,3.844486176967620850e-01
3.692261940357907668e-01,-1.261998524859964110e-02,-9.538851310116475135e-03,-2.205961582159339171e-03,2.771043634625186200e-02,-7.108818729990078189e-03,3.835482895374298096e-01
4.181604401875962940e-01,-1.947557606032707112e-02,-1.663556415281303158e-02,1.368517273979398194e-02,-1.046492714351270406e-03,-5.220318028684019403e-03,4.369637966156005859e-01
3.040178341735816359e-01,-1.536288965058646427e-02,-5.366671046232868170e-03,8.813260738744889758e-03,3.275186293870754189e-02,3.756142864068023261e-04,3.199419677257537842e-01
2.808927178696274951e-01,1.304573508496886802e-03,1.530501368136047424e-02,2.993476204168301139e-02,-6.960706310997620983e-04,-8.518067702290687670e-04,2.777464389801025391e-01
5.172039350420243320e-01,-3.605239888476802212e-02,-3.782461080267504605e-02,-1.686890538173670693e-03,7.721264406572185025e-03,1.322921661447038323e-03,5.543183684349060059e-01
1.657632164846042921e-01,6.472627272806889820e-03,4.080883023215083061e-03,-4.622942860020327893e-02,-9.411278276442953949e-03,-1.085322860628481524e-02,1.810822188854217529e-01
5.125620433332953585e-01,-4.813141660471836891e-02,-3.167632312702955977e-02,-1.194740394472324505e-03,-1.863448163044816551e-03,-3.769018727889219666e-03,5.527015328407287598e-01
5.092714944910716746e-01,-4.857102658075110324e-02,-2.991920099101869068e-02,-1.291343007057269617e-03,8.266934032905850441e-04,-1.875927831285777734e-03,5.487704277038574219e-01
5.130372834669045812e-01,-4.571670235608418786e-02,-3.371899890482019102e-02,4.025006784677238360e-03,1.338211881088267625e-03,-4.449711813028681996e-03,5.529553294181823730e-01
4.940961983350738995e-01,-5.038264371766473793e-02,-2.754834138988576653e-02,-5.498081602496985394e-04,5.251327184972458435e-03,-5.662022736795335742e-03,5.335968732833862305e-01
5.132689349817518565e-01,-5.372769159620230384e-02,-3.220058129812033987e-02,-1.883194791080244207e-03,-1.808086230477223659e-03,-7.760056226611821307e-04,5.565654039382934570e-01
5.129617039245176757e-01,-5.282024865950021852e-02,-3.008869287977861129e-02,2.663490587480330570e-03,1.814877210606001285e-03,-2.267497740301336120e-03,5.548075437545776367e-01
4.799122692304805815e-01,-3.859164508450188547e-02,-3.369177078952989568e-02,-2.190408108651356166e-03,6.697618620504478329e-03,-1.226665840781260113e-02,5.166527628898620605e-01
5.010843783076692759e-01,-5.327292116020290735e-02,-3.501137626269212877e-02,2.295085467164155804e-02,1.093653358267552417e-02,-7.727581010704539545e-03,5.473940968513488770e-01
5.218038388688860385e-01,-3.484031412550475659e-02,-7.366676564798391169e-03,-3.380580321863541245e-03,-3.808412316738209180e-03,2.108364677905195678e-03,5.435122847557067871e-01
5.270026667004277243e-01,-3.553381471832672833e-02,-3.790570330589729253e-02,-5.579487231162644743e-03,1.714464133924489082e-03,-2.748411236320401265e-03,5.638369321823120117e-01
5.228229058502003035e-01,-3.667305194440270699e-02,-4.011934447076648258e-03,-3.218394863001764524e-03,3.051276485372708073e-03,1.027406196936986489e-02,5.442466139793395996e-01
4.938516805062507231e-01,-3.312359386809846096e-02,-5.037739917276845558e-02,5.140226756984587336e-03,1.474926371111449919e-02,-8.320638626282237868e-03,5.366866588592529297e-01
5.213621023930661291e-01,-3.165265410922207812e-02,8.011150555364332515e-03,-2.359288334266481432e-03,3.691158127302116270e-03,1.124777037120409592e-02,5.346971154212951660e-01
5.210801800007709428e-01,-3.144767520137400907e-02,-7.910419059785567253e-03,-8.130437751164100446e-03,-7.297934697986668308e-03,2.892589213432499202e-03,5.414972305297851562e-01
5.264230130874939517e-01,-3.556643018025426595e-02,-4.230042910376360932e-02,-5.509564031400907697e-04,9.666864619455779479e-04,-3.460808071764284299e-03,5.654215812683105469e-01
4.965785567352514751e-01,-3.038970345000552298e-02,-3.484226397039796863e-02,1.241070806704050802e-02,1.314094376038698817e-02,-3.336747651628354291e-03,5.301653146743774414e-01
4.696545996510710919e-01,-3.252734525042891289e-02,-2.952875363762749727e-02,1.110887388445883604e-02,7.312122633411402561e-02,5.960412991767243852e-03,5.169205069541931152e-01
4.090041182820289278e-01,-1.233649490436186658e-02,-2.890807624567953704e-02,2.120788822785949282e-02,2.330102854653890235e-02,-3.373308478792259521e-03,4.333555996417999268e-01
4.897994088919130351e-01,-4.995440168085013566e-02,-2.783706380616562948e-02,-5.809358314557242810e-03,2.303252078173552257e-03,4.494108001763083733e-03,5.292099714279174805e-01
5.236058415309865488e-01,-3.632327087681613831e-02,-4.849379752123444964e-02,1.516030551807011524e-02,3.004841474063452145e-02,2.081880094008097242e-03,5.691173672676086426e-01
1.048023438034396126e-01,3.003221795131561303e-02,2.557530140605140945e-03,3.550811048520135377e-02,-8.808916491280698036e-02,-7.719682094668897133e-03,1.887857913970947266e-01
5.447912736807997147e-01,2.149802977200138132e-02,-5.612959442914741692e-02,2.433194107546210808e-02,1.388050433226416594e-03,-4.784630117621992769e-04,5.676851868629455566e-01
3.225871682997665246e-01,1.843713373435695857e-03,3.314518447586400907e-03,-5.478781056245227068e-04,-1.126142097961100935e-03,7.250359115127129675e-03,3.202642500400543213e-01
5.096605035748352774e-01,-5.097838681936142646e-02,-2.999395047957212346e-02,1.422743970279295896e-03,8.171076448455339260e-04,-3.802431102875218107e-03,5.504934787750244141e-01
5.083841865792996240e-01,-5.483704169883113488e-02,-2.829092150172582421e-02,6.515229024986169369e-03,4.776625674440074590e-03,-4.555468440399819061e-03,5.506628155708312988e-01
5.277619449480182023e-01,-6.571744218777930691e-04,-4.092195849186608392e-02,-7.307365118041792180e-03,-7.011274435470816156e-03,2.863437590607497297e-03,5.499608516693115234e-01
4.832864917429648410e-01,-4.297916572675272717e-02,-3.076753635192480685e-02,1.167208614476709407e-02,9.227456590253881779e-04,-7.176405844571799066e-03,5.208107829093933105e-01
5.290965131930422949e-01,-3.710594009214601696e-02,-3.283925822672134620e-02,-1.762786877830660286e-03,-1.264375208608049762e-03,-2.894120215654106577e-03,5.641160011291503906e-01
5.162056621272503865e-01,-1.913315432153853135e-02,-1.522209073324506945e-02,-6.744650815824425848e-04,2.409511272008780982e-03,-4.752199457517174673e-03,5.334751605987548828e-01
5.556384373069480631e-01,-2.223331740005415891e-02,-3.060488013204626379e-02,4.870688186320244577e-03,1.380744225661646035e-02,-1.556096766115965500e-02,5.832778811454772949e-01
5.208867536367549622e-01,-2.779334274655945181e-02,-1.252129450262987054e-02,-1.616047510101007887e-03,2.366609441135584212e-03,-1.917526835395542582e-03,5.412386655807495117e-01
5.162546711623374751e-01,-3.459859281687444055e-02,-9.379755812754242417e-04,-2.876852917060500944e-03,6.827147283838801844e-03,-3.689535441333623590e-03,5.350100994110107422e-01
5.193663797222312084e-01,-3.715588316941856317e-02,-2.345455319953682061e-02,6.613667102481060253e-03,-4.919464178262362248e-04,-1.304821694056049457e-03,5.499242544174194336e-01
5.452377839569753082e-01,-2.729243090754360224e-02,-3.514356924823158757e-03,-2.091825549206740263e-03,6.154738970318782663e-03,-1.942141242078218241e-02,5.621395707130432129e-01
5.283485883235153890e-01,-3.765075532166115013e-02,-2.233633796289091755e-02,5.702176900621134734e-03,-9.211645635128147200e-03,6.254134788266885962e-04,5.588158369064331055e-01
5.484212218067521238e-01,-7.872903184700172363e-02,3.860767520325858460e-02,6.643681741909403249e-02,-1.484522358239602213e-01,-2.048668758605383736e-02,6.435157060623168945e-01
5.841299885580858442e-01,-1.379744301631394277e-02,-3.871681183352862488e-02,2.162128257889286975e-02,-5.950735196559466152e-03,-4.167541441962648030e-02,6.162445545196533203e-01
6.639603035595424974e-01,-5.403680889078826821e-02,9.985178502928099276e-03,8.739853687152500383e-02,-6.806341589827134830e-02,-4.361933944620612069e-02,7.184513807296752930e-01
6.863967951866711825e-01,-7.059611572215612751e-02,-2.716787248977903246e-02,7.991393103797032882e-02,2.595624458129268744e-02,-5.586612991126359284e-02,7.566983103752136230e-01
5.732389578418392029e-01,-2.110264077294671248e-03,-5.098233764915027777e-03,-5.978251553731639498e-04,1.856449961351214813e-03,-5.286352450386053864e-02,5.840803384780883789e-01
4.818725840114500003e-01,-3.267291184532764015e-02,-3.931841175235095687e-02,1.837687209065825417e-02,-3.260920041039442469e-02,3.892410734123807111e-03,5.219859480857849121e-01
4.922980740756585649e-01,-3.150244511749805687e-02,-3.037195687327756688e-02,-2.388189306021636180e-03,6.662672966612049642e-03,-1.697614135226220263e-03,5.233880281448364258e-01
7.227893665002892432e-01,5.356182030576833730e-03,-6.443340119012774814e-02,-6.608010954140983162e-02,9.585012569034993823e-02,-4.272433860563197572e-02,7.847215533256530762e-01
5.290844853019733840e-01,-2.992462160872225163e-02,-7.154459309791860733e-03,2.435781314727512858e-03,6.956844388847020343e-04,-1.478382441939404650e-02,5.485944747924804688e-01
5.153398286740207279e-01,-3.845798374946268749e-02,-1.546820599340539837e-02,3.734246760372286495e-03,-1.112977375646543796e-02,-4.344256403130223113e-03,5.431011915206909180e-01
2.488578124287525173e-01,2.045298153072347414e-03,4.325505612295971192e-03,-4.863133701605874826e-02,-1.368014637272108557e-02,-2.603643274855688659e-03,2.608363926410675049e-01
2.679494174824947339e-01,1.765172051164984324e-02,1.177829201690956673e-02,-3.336693953257380534e-03,-9.856493201605314933e-03,-2.928605938944573057e-04,2.539264559745788574e-01
1.765185318041970763e-01,-6.267989811603394412e-02,-3.933646462370710140e-02,5.157039811049961980e-02,-4.601745454357863280e-02,-1.933489261561112740e-02,2.600575685501098633e-01
4.752857668945190683e-01,-5.786975264887081472e-02,-1.803791719112793346e-02,-1.050478823386034356e-02,2.796835648873635281e-04,2.188614458654652257e-04,5.147196054458618164e-01
4.548988094489331835e-01,-4.476929380724684049e-02,-1.762481919570488276e-02,7.624271629220566449e-02,-3.526019572673484703e-02,2.440511342255052233e-03,5.079649090766906738e-01
3.851322173663550008e-01,-8.590073873405018601e-03,-2.812216033946493554e-02,1.684486432791963001e-02,-3.290573725569029273e-02,7.572107641250982665e-03,4.090972840785980225e-01
5.168569948519214918e-01,-1.453554228143974503e-02,-3.546481294593556433e-02,-6.952203758492073518e-03,-2.305166091012903363e-03,-2.944415167605527253e-03,5.423326492309570312e-01
5.171953070888097859e-01,-2.646210104989674128e-02,-3.333005124409496589e-02,1.647268950270571125e-03,-1.044814426695206324e-03,1.773971766860119731e-03,5.471427440643310547e-01
5.164952525608137446e-01,-2.771221975954210603e-02,-3.166179700883198223e-02,4.134113518448874133e-03,3.078260828649843385e-03,1.112528902969063234e-03,5.462692975997924805e-01
5.151745640635513324e-01,-3.427646722934143964e-02,-3.377685237054553480e-02,-1.349334637045505707e-02,-2.919585154691153265e-03,-6.210645523977516205e-04,5.497227311134338379e-01
5.056216853248834964e-01,-1.843776415584968964e-02,-2.898228835618688048e-02,-1.038935747397484906e-02,-3.303458799367035674e-03,7.903003427143567503e-03,5.299239158630371094e-01
5.343772705622888974e-01,2.196128137162556282e-02,-4.361477792411705412e-02,-1.771090176517103572e-03,9.799632092493971644e-03,3.446267115332414532e-02,5.516639351844787598e-01
5.080352812746147251e-01,-2.930006588849423665e-02,-3.811056229661877182e-02,-2.527886053253943985e-02,3.381012357160363430e-03,-1.001221172732650504e-03,5.435949563980102539e-01
4.817547989661504770e-01,-3.572312505478855704e-02,-3.407441746371647762e-02,-2.530114821929501864e-02,-1.006393474666520023e-02,-1.720704615490450040e-03,5.188122391700744629e-01
4.850654106391033005e-01,-2.056536173620515662e-02,-5.786329491695493821e-02,-1.223362740037198758e-04,-1.433621655194546561e-03,-6.089787405285092096e-04,5.252807736396789551e-01
5.032063711892920121e-01,-4.716745873166855452e-02,-9.862205763632253541e-03,9.377544524213321867e-03,-2.603468011216948652e-02,2.856534404705758038e-03,5.348765254020690918e-01
2.456828211198843204e-01,-6.589027446579789893e-02,1.447425732152169547e-02,-3.306126831414762240e-02,-1.020131131716052741e-01,9.458472108115253615e-03,3.365477323532104492e-01
3.965085703465549560e-01,-2.088383951508487879e-02,-3.061492233250573403e-02,-1.802540253444004023e-02,-1.616177749813629827e-02,-1.432561666220172163e-02,4.251433014869689941e-01
3.917854716145248717e-01,-6.000133680687080862e-03,-3.586212144483069686e-02,-2.623374754942774893e-03,-2.517886631581420925e-02,-8.889101856969769400e-03,4.161290824413299561e-01
3.975948274495492152e-01,-3.714145057996637300e-02,-2.174047126014325149e-02,-4.436208375004348226e-02,-5.227845558961612127e-02,1.926616323939826791e-02,4.446955323219299316e-01
4.555309951070697361e-01,-5.046576027313012802e-02,3.211725807617614448e-02,-3.807021599946334967e-04,-1.517405740245368062e-01,1.260284227624873694e-02,5.390903949737548828e-01
4.871928958341892324e-01,-2.741381516859686673e-02,-3.936503422570705735e-02,-3.603035904250891271e-03,-1.147197978611651063e-02,-6.152000964011681595e-03,5.212104916572570801e-01
3.072424815424942279e-01,-5.298189400254960102e-02,8.447546767072336427e-03,1.278213849596409463e-02,-1.364776946850396189e-01,7.758122706966383113e-03,4.098243415355682373e-01
3.496696911279656983e-01,-3.073055390388124142e-02,-2.024815724217365887e-02,1.021647568198360417e-01,-1.063477758907320214e-01,-2.320874933769923390e-02,4.557248353958129883e-01
4.555610364772681442e-01,-2.587248259061056266e-02,-4.329792268777465925e-02,-8.775325919856188234e-03,-2.614309162774946724e-02,-9.570597481600077658e-03,4.929779469966888428e-01
4.929179757781642635e-01,-3.473772054610094195e-02,-3.373347774868915017e-02,-2.875123833769724357e-02,-1.328877233588850182e-02,-5.907238672801078290e-03,5.300999879837036133e-01
4.793259698023555893e-01,-2.400624192257949652e-02,-4.896716726314703783e-02,-2.763952163525568596e-03,-1.013172020589220464e-02,-5.792664652225142270e-03,5.166832208633422852e-01
4.394223658801916788e-01,-2.073281745005278731e-02,-4.143805712545339803e-02,-7.864526591420981788e-03,4.714812405729494138e-04,-1.043773691447208267e-02,4.713938832283020020e-01
5.020009469361537136e-01,-3.109959729488617763e-02,-4.290688056653196858e-02,-1.233111747995262577e-03,7.544389377233788347e-04,-7.366652109004685387e-05,5.391070246696472168e-01
5.004522613512979445e-01,-3.191653064429197939e-02,-5.017027978310104053e-02,-4.395785759972853346e-04,2.928634320683268406e-04,-1.874661987984376724e-03,5.417368412017822266e-01
3.720757287055168061e-01,-1.299933048381665679e-02,-1.521907701341418395e-02,8.935955033173353587e-05,-1.765139423490574844e-03,-1.102386445596306719e-02,3.866735696792602539e-01
3.580108221453326411e-01,-8.569362668192720411e-03,1.995004997438959427e-03,-8.967440935904292349e-04,-9.184800072174348004e-03,2.762577863467696217e-03,3.617987632751464844e-01
3.099003055563581688e-01,1.380113142683653260e-02,9.052003260573163179e-03,1.729241577215169921e-05,8.439884488884385159e-04,5.343340664169091495e-03,2.986491024494171143e-01
3.651583717221831282e-01,-7.210207614479713367e-03,-2.332210996395692182e-02,-2.186296043824548577e-02,1.091998253534557685e-02,1.010108447350457211e-02,3.834257721900939941e-01
4.548692145066662862e-01,-4.723736656857116523e-02,-1.888225035245080785e-02,-1.223425075543512798e-02,-3.361541096651721465e-04,7.506729207710610176e-03,4.891790747642517090e-01
4.604675036752139405e-01,-3.193139594905325396e-02,-3.348165155738366816e-02,-7.803393051970467474e-03,2.034526481397039462e-03,1.258443384590142780e-02,4.938548505306243896e-01
3.965894841106660795e-01,-3.356490888319688115e-02,-1.318067484611992746e-02,-1.778397578469376183e-02,8.795364619986537763e-03,9.701584257149471063e-03,4.220701456069946289e-01
2.443016295811107075e-01,-6.113347172568603383e-03,-3.295481909023510736e-02,-3.649812172483991868e-02,-5.101596248528578875e-02,2.858564817525995061e-02,2.905258536338806152e-01
4.402776301349755617e-01,-1.383618330963673482e-02,-4.490005723868942256e-02,-1.847905944050260384e-04,1.663213898173108996e-02,5.916728226441933351e-03,4.714083969593048096e-01
5.075952606584140936e-01,-2.591220290453863373e-02,-5.766790944150435028e-02,2.374570152268560500e-03,8.342025533899616666e-03,-1.367186185907894383e-03,5.502834320068359375e-01
5.070740807457230215e-01,-2.587182686037645118e-02,-5.606353023447460671e-02,1.225185673370945104e-03,3.536196553058602084e-03,-3.696778840428305898e-04,5.487037897109985352e-01
4.637421099641189648e-01,-1.971849421943366876e-02,-4.567304534291399820e-02,7.867513212038233783e-03,-7.203842214784705661e-04,6.491222558786602544e-03,4.972619712352752686e-01
4.622325532010639337e-01,-2.130239256286053928e-02,-3.980361464008735917e-02,-3.330306012544566839e-03,4.103257274288576312e-02,1.040094739726789893e-03,4.981785416603088379e-01
5.007346139494872617e-01,-2.929004175311403224e-02,-4.947139839067682399e-02,1.827865883228192538e-03,4.743924487518390298e-03,-3.687913828249939248e-03,5.405074954032897949e-01
4.180955406227193083e-01,-3.432632236359298150e-02,-2.270945658902243092e-02,-2.208684122245532094e-02,1.303389523242318333e-02,1.292941808177926373e-02,4.494879543781280518e-01
4.240911088781622595e-01,-3.642527207287532542e-02,1.685764581552932906e-02,-3.860940407484982073e-02,1.013292678770651573e-01,-2.337120018885387174e-02,4.767497479915618896e-01
4.822911652169554753e-01,-2.243712469753766925e-02,-5.499841073054118068e-02,5.367661132781653861e-03,1.203777438935096054e-02,-6.388521256820683079e-03,5.223878622055053711e-01
4.691499741817237168e-01,-2.763414096488397975e-02,-4.639395607592508575e-02,-9.451102425091763293e-03,1.121335617338383404e-02,1.092564161561318352e-02,5.074142813682556152e-01
5.723843155201651101e-01,-7.298180098909076707e-02,-1.337007443209364821e-02,2.090295400608882179e-02,9.644713685839204076e-03,2.285577413968983666e-03,6.190195083618164062e-01
5.909311708986888512e-01,-4.481465403551512794e-02,8.446634490511834015e-03,1.558469328021398932e-02,1.385456020683193679e-01,5.652227418598175339e-03,6.569307446479797363e-01
3.785951233226479973e-01,-4.073211301526605266e-02,-1.779820467953092955e-02,-1.045817974157535121e-03,-4.938564262152937701e-02,-2.478669956614400725e-03,4.172325730323791504e-01
4.750825085574022499e-01,-2.109285129244878321e-02,1.402137939020359214e-03,-4.457124483752467753e-02,-6.220325111618000419e-02,3.943715683718497511e-02,5.077085494995117188e-01
3.943428175498823740e-01,-4.087770484829694739e-03,1.186115359123832147e-02,-9.257698928427535168e-02,-1.087081900749326674e-01,5.339305981632365417e-02,4.715539515018463135e-01
3.807574955261208149e-01,-1.645254636681095506e-03,-1.887099573469366853e-02,-1.069099303016694535e-01,-1.097742085511913962e-01,4.226203533348048269e-02,4.784499108791351318e-01
2.984440534519050559e-01,-7.860003151377414898e-03,-1.389699852831903504e-02,3.537684601307859722e-02,-2.752829991321206760e-02,-9.345560343914890641e-03,3.193709254264831543e-01
4.507845850236742447e-01,-4.965082269815074278e-02,-1.666158626231051265e-02,-1.244285390602986076e-02,4.940264700951549175e-03,-4.406622123118130938e-03,4.853976368904113770e-01
5.011281998384293779e-01,-4.171827228120705833e-02,-4.145366724760249366e-02,-2.434798289017740119e-02,-3.558431260690188974e-02,-5.695172790371644082e-03,5.479171872138977051e-01
3.960438753660407984e-01,-3.239472708109153443e-02,-1.461897672824383210e-03,-2.363832529967255236e-02,-9.684351229037695824e-03,-7.512227890050768124e-03,4.164020121097564697e-01
4.634811529612820058e-01,-1.727947732666959557e-02,-3.013837006714534250e-02,-1.143315357844473523e-01,-3.341442161183037080e-02,3.529256382799053453e-03,5.292260646820068359e-01
5.129172937125061615e-01,-2.012083410552584217e-02,-2.306824485239539202e-02,3.101080001880302320e-03,-3.675528496599288339e-04,1.640188767710752497e-03,5.345528125762939453e-01
5.141704087870118123e-01,-2.855888354857477607e-02,-2.903917330122129936e-02,2.288116855657921014e-03,9.948658025714235409e-04,3.212108154915505314e-04,5.429871082305908203e-01
5.135837897322900192e-01,-2.479237474840270683e-02,-2.898572387440692677e-02,-7.193668785216726560e-04,-1.781954226862461632e-03,2.003181416463867878e-03,5.405064225196838379e-01
5.158912866520881657e-01,-3.017767866014500755e-02,-2.630340969326908085e-02,3.206439137919599516e-03,3.062723136383163711e-03,1.726649847205030111e-03,5.442045927047729492e-01
5.133494159701421644e-01,-1.519626746275215545e-02,-2.548165199232851896e-02,-4.204946035756647847e-03,7.969059980859649920e-04,4.885660185211570909e-03,5.338812470436096191e-01
5.199634062675310142e-01,-2.859562222627651251e-02,8.971684831754117573e-03,1.176680481577876362e-03,-1.281999565122156565e-03,7.490390724342228107e-03,5.309405326843261719e-01
5.149890983378140330e-01,-2.720987725707080251e-02,-2.654859319569222165e-02,1.108729121988754306e-03,3.549237657465701464e-03,3.753292247602245217e-03,5.419458746910095215e-01
5.173686898319638239e-01,-2.162905609055698619e-02,-1.244533170609909978e-02,-7.100193245362018332e-03,-2.775923562649426201e-03,1.002282577200590101e-02,5.349099040031433105e-01
5.019309420381860010e-01,-5.155683300468549835e-02,-2.419783988788729023e-02,-1.540997312217375764e-02,5.520963664933837417e-03,4.795479229375614050e-03,5.411350727081298828e-01
5.261054208445382629e-01,-1.807269744063735861e-02,-4.399920434741907971e-02,-1.224136955785084038e-02,-8.053935154100368664e-05,-3.633929474192374321e-03,5.580320954322814941e-01
5.542123711734586733e-01,3.125859278532402974e-02,-6.531631815228991500e-02,-1.378045216280123220e-01,-5.729048900299382047e-02,2.429679345230765716e-02,6.339554190635681152e-01
5.420133195530864034e-01,-1.455645443781139470e-02,-5.158266092077720688e-02,-3.552631164130302249e-02,1.607061529893076806e-04,1.291989091288709909e-02,5.796858668327331543e-01
5.176600338818382330e-01,3.723954132033960307e-02,-6.372608016191069757e-02,-6.020358119824589099e-02,-2.016017686121225963e-03,3.859278644301116206e-03,5.481187105178833008e-01
4.806153708455272455e-01,3.557656076182426352e-02,-9.749015997325147231e-02,-1.386610160022212213e-01,-2.797930931828595397e-02,1.689884537924249072e-02,5.795446634292602539e-01
4.943714591714508666e-01,3.765298765840630058e-02,-6.585108484332621859e-02,-1.029725237326932497e-01,1.638424309054169539e-02,3.694145564152204880e-02,5.507144927978515625e-01
4.819275237035450243e-01,-2.383686831635478676e-02,-4.714509112729162177e-02,-8.381135685125190582e-03,-8.967047821680269523e-03,-1.100844534447342760e-02,5.185989737510681152e-01
4.757180502896520835e-01,-2.378790314411383111e-02,-5.216925931018759344e-02,-3.409210601665029622e-03,2.914564409376348706e-04,-6.799526885722172870e-03,5.144532918930053711e-01
4.650788838269396819e-01,-2.518535571570995613e-02,-4.611253093889255972e-02,-5.864147500779531451e-04,-9.668845974273632821e-03,-9.905900728107293676e-03,5.016300082206726074e-01
5.178733915564940338e-01,-6.878311345300092139e-03,-2.948871846533185348e-02,-1.458844934289631537e-02,-1.015001570806636430e-02,1.704239189663634205e-02,5.381071567535400391e-01
5.088452973303931870e-01,-3.543061156625645913e-02,-4.997458454257061589e-02,1.510703533843483484e-03,-2.191227507578302324e-03,-2.110162283504478636e-03,5.517230629920959473e-01
5.013422179797255573e-01,-3.135488323073343242e-02,-4.570136445396363878e-02,-3.063802904240264715e-03,-1.231717245686614511e-03,-1.982354577633699527e-03,5.400545001029968262e-01
4.874607657507332159e-01,-3.257090880484450612e-02,-4.442450588249902133e-02,-2.047808979801366954e-05,-1.125172587726289142e-02,-6.426415135931613613e-03,5.265371799468994141e-01
5.116818259149971126e-01,-4.919836068396613027e-02,-3.301505767352863607e-02,5.362543955391833352e-03,2.454565870742160798e-03,-3.821036224570467134e-03,5.531001091003417969e-01
4.529375913294401146e-01,-4.217450893557542213e-02,-1.946730513216396452e-02,8.660703779807961411e-02,5.743223735386174256e-02,-1.063300839271292750e-02,5.168616175651550293e-01
5.114316023295465419e-01,-4.949428150897364209e-02,-3.107181518635462880e-02,-4.844500602305431398e-04,-1.531280624684971817e-03,-1.110475182500493107e-03,5.519556403160095215e-01
5.251253182558428545e-01,-1.747634843809631189e-03,-3.601221735226942111e-02,-6.813601445819677908e-03,-3.966961394185471342e-03,4.319891063605999122e-03,5.450364351272583008e-01
4.636009666575199861e-01,-4.456151262736784968e-02,-2.252078979958660465e-02,1.654674648349575838e-02,-1.558693525278260442e-04,-8.956323371170535688e-03,4.985747039318084717e-01
5.124533157541643069e-01,-7.529590659725332591e-03,-1.038087387098549086e-02,-2.222295068796714419e-03,-3.450029257086119610e-03,1.075981690537988235e-02,5.217957496643066406e-01
5.214937086414757061e-01,1.500070305307471541e-02,-3.521938773176799820e-02,1.678377821544491935e-03,9.369257108833760556e-04,7.304633984436252614e-03,5.335395932197570801e-01
5.838493827291293403e-01,-1.270471555343941072e-02,-1.647129029948829482e-02,1.106020071312428937e-01,5.046626102281873832e-02,5.845612260805533450e-02,6.424393057823181152e-01
5.257386496058917835e-01,-3.804781632530390700e-02,-3.719063067850453264e-02,3.932909196206632135e-05,-6.153657575065658164e-04,-1.364732975196565222e-03,5.633643269538879395e-01
4.700338918552230405e-01,-5.311279784775857493e-02,-2.015281213381314718e-02,2.481033016786237657e-04,3.996264531361515791e-03,4.347649028498377574e-03,5.075733661651611328e-01
4.749815778047673520e-01,-4.837154849678876323e-02,-1.710820030026855010e-02,-1.000335843781848671e-02,5.578438037956915188e-03,7.574094872780409542e-03,5.089988112449645996e-01
4.792531489010755097e-01,-5.769898076825252797e-02,-1.767485769184515276e-02,-9.246795740020507040e-03,-2.494169675042760045e-03,-5.678453279042420436e-04,5.183672904968261719e-01
4.786816732119016371e-01,-5.001948755944546354e-02,-2.318380448781018344e-02,-1.412388961927874692e-02,8.697215574875955327e-03,4.208968512350153186e-03,5.166580677032470703e-01
4.946849465462949125e-01,-5.415092789788172878e-02,-2.881670380265283216e-02,-6.368229276253660129e-03,4.489511469964817779e-03,4.082720139196626200e-03,5.368337035179138184e-01
5.019393848332998065e-01,-5.926107642848665868e-02,-2.454197922238524066e-02,-1.945458987818050184e-03,2.308481615028648484e-03,-4.745777607787226866e-04,5.446971654891967773e-01
4.680421354671880363e-01,-3.380340948350207819e-02,-2.863459761121364688e-02,8.863677232147422090e-04,1.276711107143364485e-02,-1.076005607410800147e-02,5.001204013824462891e-01
5.421850708354822856e-01,1.780894518564613005e-03,-2.050589933387589325e-02,-4.656159269255203195e-03,-9.636596218317368401e-03,3.032798091059828172e-02,5.546893477439880371e-01
4.440219304695704472e-01,-1.965666581132211044e-02,-3.500226039238968356e-02,1.139849970530676035e-02,-1.489688308904997581e-03,-6.668929086813896873e-03,4.721001982688903809e-01
4.638954024496493300e-01,-2.559542023947070088e-02,-4.214229872461749959e-02,5.913629456783246752e-03,1.066608068188549911e-02,-6.364303539962683914e-03,4.985401928424835205e-01
3.635797036801916016e-01,-1.333659518328270122e-02,-1.759956856994354668e-02,8.708131898245298486e-03,6.668023904834223525e-02,4.583827920648571655e-03,3.966360390186309814e-01
5.287867811318036626e-01,-4.206666671463363261e-02,-4.127522806307404313e-02,-1.192013642346476110e-02,-3.109965213471804486e-04,-9.871347780214312362e-03,5.710878968238830566e-01
2.842298244667028628e-01,-3.135903096615304253e-02,7.466508296754437168e-03,-2.382230753631674192e-02,8.787248721209652003e-02,-2.664483316684309027e-03,3.372526764869689941e-01
5.242575552609028966e-01,-5.364747353587240308e-02,-1.551419065059703173e-02,1.303729178688021496e-02,5.883730479468702451e-02,9.378776313134508033e-03,5.696930885314941406e-01
4.079846919536374572e-01,-3.363416259861282120e-02,-1.247084061033085223e-02,-2.036639966349761133e-02,-1.673607184039391715e-04,1.114086612328414258e-02,4.332964122295379639e-01
3.753145288626020815e-01,1.646738402483817476e-02,-8.686904533366415770e-02,-7.276969075344549842e-02,8.002489852846200735e-02,-4.980154971424580884e-02,4.680496752262115479e-01
5.027583777830813005e-01,-2.853056852622126716e-02,-5.347409012579834586e-02,1.478211250834926072e-03,1.121476784534826366e-03,1.660724657724335423e-03,5.442067384719848633e-01
4.594640174286087064e-01,-4.759993073241761130e-02,-1.680683920277989407e-02,-3.956339494850871080e-02,1.701773577660530695e-02,4.324432757179454134e-03,4.980649352073669434e-01
3.907562761377617044e-01,2.725434730698349239e-02,-9.699620882475362693e-02,-9.935024341236028955e-02,1.828949286469818900e-02,-5.934477488630611301e-03,4.727131724357604980e-01
4.362938815347637833e-01,-2.877330348478038258e-02,-2.503195732129806506e-02,-3.888475326034326190e-02,2.515263759885619579e-02,4.298203594423215083e-03,4.701605737209320068e-01
5.786746134773810279e-01,-7.020863277517511158e-02,-1.579962468475243353e-02,9.753223102483199111e-03,1.173151785404463743e-02,5.336190509391318393e-03,6.240900754928588867e-01
5.881901693288122956e-01,-5.003347544057409890e-02,1.601476288471781473e-02,-6.066568503013089995e-03,-6.382527684996890368e-06,2.276002157097259046e-02,6.092640757560729980e-01
5.324592760716371220e-01,-4.286046238763124849e-02,1.968282845591853847e-02,3.002233927930896169e-03,5.037823530920236461e-04,5.981042564163631392e-03,5.468612313270568848e-01
6.061090301418471382e-01,-6.454271699221630909e-02,5.337515836142472936e-02,1.575389391073904813e-02,4.403946204541323711e-02,2.442241465434664971e-02,6.268563866615295410e-01
5.218478517516499382e-01,-3.761264037180347963e-02,-1.720881930105602753e-02,-4.533077796864251607e-03,-1.319419716967098859e-02,2.577886426743601547e-03,5.500918626785278320e-01
6.162421210132926763e-01,-8.234469930228299761e-02,4.055176282731159931e-02,1.293555884862651779e-02,-2.052585654928593129e-02,5.838102021502524983e-03,6.474112868309020996e-01
5.446142914278205849e-01,-4.319913265629429788e-02,5.412650352662501385e-03,-8.075384714531862185e-02,-7.113768652244975566e-02,4.936512661425779269e-02,6.011398434638977051e-01
5.173305527756232314e-01,-4.022335153016479148e-02,-1.669367003027169560e-02,-3.590473157801407200e-03,-8.926994748891831088e-02,1.377102073923695998e-02,5.681688785552978516e-01
5.134788755783723513e-01,-3.797824425682180816e-02,-3.077307413132829295e-02,6.395313263561392889e-03,-2.612887985870834817e-02,5.104057717541451121e-03,5.499386787414550781e-01
7.476850500044552872e-01,-2.433952944494238713e-02,-1.481785050130685066e-02,-1.012304322501574871e-01,-3.181797734046473702e-02,5.681902841559818840e-02,7.951269149780273438e-01
5.208729298654679596e-01,-2.876766606424555062e-02,1.458484849804903005e-03,-7.993246720117559408e-04,-7.175269692927571837e-03,6.213142591229178953e-03,5.354223251342773438e-01
5.303797200356108466e-01,-3.307828676577004301e-02,7.092347167849066825e-03,5.607682057440764069e-03,-4.025009499901579624e-04,1.818907379714374689e-02,5.454828143119812012e-01
5.326662390499765642e-01,-4.225692564294902809e-02,2.028710168805242242e-02,-4.154777012245099155e-04,-6.578771786854469353e-04,3.780900359072282124e-03,5.463836789131164551e-01
5.026428468483394862e-01,-5.271838018038060847e-02,-3.138674257496432141e-02,-3.804403065261902257e-03,-2.908966740849347701e-05,-5.231410216318719587e-03,5.451237559318542480e-01
5.010098514330190156e-01,-4.995822782584452559e-02,-3.425433369142869000e-02,1.279264508028355666e-04,1.482016313375516137e-03,-1.610307123803007183e-03,5.432996749877929688e-01
5.076845944722245818e-01,-5.022859528614834201e-02,-3.449781651280700578e-02,-1.475856978898545935e-04,-2.192471835626108329e-03,-1.605770081051198159e-03,5.502367019653320312e-01
4.707461482923616103e-01,-4.685976107155870318e-02,-3.170292280819131392e-02,-9.409954926450234125e-03,-4.043998544592691292e-03,-8.596143066971146177e-03,5.107217431068420410e-01
4.819312886664167683e-01,-4.288084695487490161e-02,-3.532053387108199938e-02,-6.818892215647332465e-03,1.452351218353850843e-04,-9.304327441855294797e-03,5.214561223983764648e-01
4.881701553986606545e-01,-3.612482021170748681e-02,-3.050024144247925895e-02,-4.067938021930257025e-02,-4.171607027708051918e-02,-6.929029239501884214e-03,5.313163399696350098e-01
5.084797018168392135e-01,-3.882360756688393866e-02,-3.616663938240038956e-02,1.212612185400309102e-03,6.684690523384135370e-04,-6.923564497279134210e-04,5.459862351417541504e-01
5.741908385595557718e-01,-1.869191916003018483e-02,-4.134068217691730385e-02,4.926628272804166146e-03,5.711456480081263803e-02,5.423719403407741696e-02,6.197862625122070312e-01
5.300007190647146871e-01,1.439557873896971096e-02,-3.655345361631598400e-02,-6.129626570118792452e-03,-4.767275974394973199e-03,9.469216298468089571e-03,5.432898998260498047e-01
6.795778010915638490e-01,1.190551998274552714e-02,-6.949552247486390222e-02,6.566098620539866093e-02,4.592691957747430109e-02,9.872527869356188465e-03,7.254763841629028320e-01
6.194254917687371798e-01,-2.498309074443938460e-02,-2.198596594243595881e-03,6.840223938080636050e-03,4.450154589329096376e-03,6.550097120237960424e-02,6.435603499412536621e-01
5.775099455911687496e-01,1.992855973805940373e-02,-6.616243748718350637e-02,7.609367455491200007e-03,1.168255164267914883e-02,6.911283563177383904e-03,6.058365106582641602e-01
5.759899023548468167e-01,1.071677921952390866e-02,-5.612748669259715051e-02,-1.681097237090211152e-02,9.465774572665465111e-03,1.875906465046002156e-02,6.032905578613281250e-01
5.267117763898614413e-01,-2.495626083964613828e-03,-3.476903760738797589e-02,-8.778070960165999456e-03,-4.032138267763143470e-03,4.407986601758437373e-03,5.463694930076599121e-01
6.050983754461263242e-01,1.756362992785662214e-02,-2.558060999140379654e-02,-4.214881274737793809e-02,-1.842931332131754821e-02,5.363332440662417488e-02,6.224028468132019043e-01
6.203121005792107123e-01,-3.217871110526823730e-02,-6.798322615435281602e-04,4.493822322724000048e-03,-1.145288525143031222e-03,3.679559122270701504e-02,6.405544281005859375e-01
6.518649184195298707e-01,-3.180722307101749302e-02,2.767475031650717954e-02,5.494012563627196505e-02,1.164409865620126272e-01,4.966476938507900785e-02,6.981475949287414551e-01
5.549992888358645793e-01,-1.517246355327797613e-02,-6.336821605226444776e-03,1.536732362199735337e-02,2.481114099148760271e-02,4.578124651057351169e-02,5.735669732093811035e-01
5.230480395758341228e-01,-1.396085027256355193e-02,-2.436720203615361235e-02,-3.057265956507080554e-03,-3.448711233088823987e-03,1.048384561897436687e-02,5.426496267318725586e-01
5.445328753679623546e-01,1.383783714797187647e-02,-7.197949274377729578e-02,1.333421225385984510e-01,6.120073860601064203e-02,1.315718163706879398e-02,6.321716308593750000e-01
5.263273116154438824e-01,-2.327881827826783212e-02,-2.305996517161890136e-02,-7.375098090378786990e-03,-1.332079861888995492e-02,1.575836623475471501e-02,5.508059263229370117e-01
4.984016025994321142e-01,-4.789536014178269463e-02,-2.977173810895963890e-02,9.198485154395068947e-03,7.031341933474842543e-03,-7.202066668230008677e-03,5.379830002784729004e-01
5.275247219778029795e-01,-2.333052203545185610e-02,-3.733067142543566863e-02,5.914767403900498578e-03,-5.453207714182950906e-04,-2.872418514377982329e-04,5.580821037292480469e-01
5.270565986200175246e-01,4.274827195158814597e-03,-7.071629126398468190e-02,8.335180325766981813e-02,7.577468838308985821e-02,3.523245297878416227e-02,5.999336838722229004e-01
5.238552715153833583e-01,-4.505586429291816297e-02,-3.338949859465345504e-02,1.304255148847243903e-02,-2.230042201512927660e-03,-4.121375940913620493e-03,5.636799335479736328e-01
3.408581051570340748e-01,1.915421192803877515e-02,-3.064110948283887970e-02,1.025897962455934592e-01,6.720151089949452650e-02,1.423987103959086127e-02,4.095396995544433594e-01
5.618387218895244395e-01,9.579108611757397584e-03,-3.003766784484715457e-02,-1.686983608717092589e-02,-1.638832814185060827e-02,3.700917981160289916e-02,5.781067609786987305e-01
5.218163423259130074e-01,-1.106447909424188025e-02,-2.224024586250208935e-02,-7.137288453403217194e-03,-8.269102392388249026e-03,5.639028990188880465e-03,5.389764308929443359e-01
5.427887961915277559e-01,-5.892824307572641640e-02,3.309010116172578231e-02,3.253974100783013634e-03,1.854276814033637213e-02,9.242916829432380743e-03,5.625667572021484375e-01
5.301307036844969955e-01,-3.961746576990185509e-02,-3.844735262266771314e-02,-7.732898117940602799e-04,-7.442200267645818429e-04,-4.337252267590989939e-03,5.692166090011596680e-01
5.073417373382749229e-01,-3.505321869410849001e-02,-4.631345547993764855e-02,-4.885000764486354015e-04,2.608044367306911349e-03,4.326824160543544552e-03,5.481823086738586426e-01
5.207008598067106586e-01,-3.283943162288227580e-02,-3.428472329190510037e-02,1.183809590470261087e-03,5.226854642180669280e-03,1.078777336795392656e-04,5.543420910835266113e-01
4.816492416343712835e-01,-3.566561472248216957e-02,-4.211485839514761409e-02,8.674568508738061566e-04,3.715702217778822300e-03,1.040227180677952973e-02,5.209230780601501465e-01
4.881607860829172973e-01,-2.714756094695805477e-02,-4.549345228851578438e-02,1.923254462522621224e-03,-3.195106240506130602e-04,9.357136004188146630e-03,5.249829888343811035e-01
4.982191605140448010e-01,-3.321497872559719955e-02,-3.954360614165092214e-02,-4.941599325403971121e-02,4.249819319682903579e-02,-1.434566633773379663e-03,5.464209318161010742e-01
5.161656449545473091e-01,-4.154480302506657896e-02,-3.536565594170745785e-02,-4.796119682258412689e-03,5.682263816031117576e-03,4.596249336114698741e-03,5.548533201217651367e-01
5.089212434349142944e-01,-3.312878285405060352e-02,-5.219032105193746607e-02,-4.869440598206446996e-04,1.828858016683996461e-03,2.067375375687454005e-03,5.518491268157958984e-01
4.847150337249413465e-01,-3.040388358790926948e-02,-4.695445694771596679e-02,-3.620192563032226252e-03,-7.943616556745379531e-03,-4.841300484510457566e-03,5.238758325576782227e-01
3.374486792092781240e-01,1.209906383461883950e-03,-2.282578007312960344e-02,-1.737627767121020794e-02,-7.954451928097502900e-02,-5.990701964722331720e-03,3.764457702636718750e-01
3.879214219863999502e-01,-1.708114546584266202e-02,-1.095919169951414807e-02,2.679318917868535321e-02,3.761794718932965839e-03,-1.350548947503694888e-03,4.047057032585144043e-01
4.604131519101851699e-01,-4.594101176598286429e-02,-2.289097872432066527e-02,1.474791147008508267e-02,4.823502747519517984e-03,-7.022338432904176413e-03,4.961094558238983154e-01
4.788977943451035446e-01,-4.886562012267325894e-02,-2.809429161030141398e-02,-1.226171499594741650e-02,4.559171265258920615e-03,4.147959906483668184e-03,5.182358026504516602e-01
3.272991631137490698e-01,-2.627824151055252466e-03,-1.297957278084106714e-02,1.197325508842751090e-03,-4.383376909201416177e-02,1.331933321297734847e-02,3.444924056529998779e-01
5.204552944642735213e-01,-4.665928018030104929e-02,-3.328529682498537756e-02,4.300507307618485660e-03,8.987120149828777558e-04,-3.696261641282013333e-03,5.606354475021362305e-01
4.122206741566893928e-01,-2.472181973938497590e-02,-2.248118822992292709e-02,1.283564361956658455e-02,-1.193112169761025628e-03,1.223367756339273360e-02,4.369121789932250977e-01
5.223886492680182014e-01,-2.048086281329419833e-02,-2.237368438991216291e-02,8.099960039876683351e-03,-6.941949927402514368e-03,-1.166479162998146704e-02,5.445071458816528320e-01
4.883679001014169518e-01,-5.469637568691351759e-02,-2.285814145550205123e-02,9.099708242318736012e-03,2.284593852623086031e-04,2.175684103471757849e-03,5.281146168708801270e-01
4.406991091056612908e-01,-3.696160251808150443e-02,-1.769139412754355822e-02,2.182876540324746317e-02,-8.670629346586985683e-03,8.960792246700927458e-03,4.703428447246551514e-01
2.930983640751361197e-01,-1.587444049064232199e-02,5.103991620407727359e-03,4.378726763388014059e-02,9.907635819271667574e-03,-4.973773602846575954e-04,3.089817464351654053e-01
4.771405977957885458e-01,-5.046621057642564079e-02,-2.121189380059565477e-02,-6.300919314805013965e-04,-7.903173144936276621e-04,-3.805375931380198932e-04,5.136082768440246582e-01
4.875113197039259716e-01,-4.330666014152137477e-02,-3.013616612025180053e-02,2.369334013296109029e-02,-4.233503726219841647e-03,9.101078418105323226e-03,5.262475013732910156e-01
5.289131492056056150e-01,-2.872307522206318797e-02,-7.264919777500017384e-03,1.718449228856805053e-02,-1.160048027969533442e-02,-1.546473762756108740e-02,5.490536093711853027e-01
5.339788903509279372e-01,-2.826308209864847321e-03,-4.466126499743891531e-02,-2.052249872824657407e-04,4.609808137210303844e-03,-1.425161804496265922e-02,5.595001578330993652e-01
5.203305714795825043e-01,-1.868288023811931486e-02,-1.767650790086769397e-02,-3.102939102736534428e-04,1.480386545958896133e-03,-6.797172451773984304e-03,5.386460423469543457e-01
6.052922030629747097e-01,-7.442956835110492442e-02,3.007040817592784854e-02,-3.772583751856953271e-02,-1.240536391947160977e-01,9.507194408995597867e-03,6.727702617645263672e-01
5.619787235922844015e-01,3.256310710106791184e-02,-6.315434925774232600e-02,1.015440530388183465e-01,6.533415398115520467e-03,-4.243263489053143017e-02,6.136613488197326660e-01
5.154761226493127513e-01,-2.319262701933721971e-02,-1.079679973284380923e-02,4.797195979375773055e-04,1.511990226302462395e-03,-3.232228610794010606e-03,5.326155424118041992e-01
5.209553111940918857e-01,-3.808580176618980850e-02,2.920788878916752429e-03,4.267444513002408360e-03,3.729169917234293787e-03,-3.042892680132858185e-03,5.398224592208862305e-01
5.218626001759225641e-01,-4.389536291843512683e-02,2.932400416729930015e-03,-3.136490648099119968e-03,2.863212318383840521e-03,-2.979123443207387645e-03,5.439323782920837402e-01
5.355955462419563773e-01,-3.619108843515284057e-02,-3.484260826479923523e-02,-4.503741663730667123e-03,5.476091667461175511e-02,-1.026142370415272440e-02,5.792613625526428223e-01
5.183412230177683044e-01,-3.518824216606006305e-02,-2.603593186558711414e-02,1.558576420329095850e-03,-1.361586694828130061e-03,2.143395252927164651e-03,5.490347743034362793e-01
5.210741727948475788e-01,-2.801290672659312309e-02,-1.506782890135410780e-02,-1.460508556200969732e-03,3.984737858155511410e-03,-4.007384048568179112e-03,5.428245067596435547e-01
5.241885142280922061e-01,8.603168300207741925e-04,-2.765844429664723880e-02,-1.572337252542838244e-03,7.324510689025635164e-04,-6.826771523916040467e-03,5.382928848266601562e-01
5.174807187337897574e-01,-2.018521241630824581e-02,-1.887247646591203032e-02,-1.109841344584424011e-03,2.025795085990530608e-03,-2.314001249635357625e-04,5.370258092880249023e-01
5.160414206669270420e-01,-2.457942334795190642e-02,-1.886257866239182679e-02,2.508259202806872087e-03,-5.909085984613364918e-04,1.903592847849468542e-03,5.378138422966003418e-01
5.223610222275465453e-01,-2.158867849944454131e-02,-3.381831598066223354e-02,-4.968180868282246442e-03,3.377238735583575242e-03,7.693334864334836637e-05,5.502648949623107910e-01
5.537180812049324885e-01,-5.361965395201101492e-02,-1.649776900257055035e-03,2.374852024413281679e-02,-2.459366273527695268e-02,-2.981626357414864786e-02,5.883623957633972168e-01
5.149772150106662894e-01,-1.981700985582440788e-02,-1.192601171454585329e-02,5.952210260254752307e-04,-1.089125870652137441e-03,-3.902398341193762110e-03,5.309401154518127441e-01
5.189306863822702454e-01,-3.849621531530725282e-02,-3.074026229586973580e-02,-1.843892300072429982e-03,-5.517610116586034496e-04,3.456574387869688642e-04,5.536000132560729980e-01
4.904120499878933948e-01,-5.852862502304614911e-02,-2.448781945050401698e-02,-8.874969311743642966e-03,3.461884793012718568e-03,1.100897592484118828e-03,5.329954624176025391e-01
1.485757036787587193e-01,2.166459430242466400e-02,-3.879513944557967664e-03,-8.079649137674800585e-02,-5.663738883423696108e-02,7.563207038847150933e-03,2.222160398960113525e-01
2.309305935666921550e-01,-1.598688744006648843e-03,2.312411449998991869e-02,-5.732260231786474175e-02,-2.418624278898308388e-02,4.365036790184803096e-04,2.460598349571228027e-01
1.754528749846809565e-01,-7.382299501338120129e-02,-3.961555332454343853e-02,3.055692839110119713e-02,-2.582720456154847730e-02,-2.097797114518993103e-02,2.467874735593795776e-01
3.566656700427225379e-01,-2.003241243081188561e-02,-2.074412755745333459e-02,-7.030277386498731684e-02,-3.241159143941491072e-02,-1.259197723402181307e-02,4.007801115512847900e-01
2.054194333067593525e-01,1.933773116784759383e-02,1.852084946715733260e-02,1.819352464297945005e-02,-2.517865772201761942e-02,7.884864073952408542e-03,1.945777386426925659e-01
9.347569344434114580e-02,-1.573711748751768780e-02,-2.416555417923224591e-03,-2.759997737510635346e-02,1.965883052696144884e-02,3.471401086898814187e-02,1.330788135528564453e-01
1.925056242506244797e-01,-2.629477598581862752e-02,8.996026318697294966e-04,-7.378374583860855757e-04,-7.438469915650741671e-02,2.796660579749744857e-02,2.482141852378845215e-01
2.144429848084684342e-01,2.096842134070210639e-02,1.923205212046517898e-02,-4.165238154012269010e-03,-1.527455003736009898e-02,5.716966611740645528e-03,1.965232789516448975e-01
5.183130670120680294e-01,-4.088338450440670568e-02,-4.492410746762914853e-02,7.744046401978667602e-08,9.235649150590320017e-04,2.977516793839337836e-04,5.612302422523498535e-01
5.183555765555575290e-01,-4.145260945312387313e-02,-4.471877780284372328e-02,-8.764792214537021594e-04,-2.453140589443321521e-08,9.949368987844784318e-05,5.614504814147949219e-01
5.139525705156806623e-01,-3.836053838732803034e-02,-4.996136626461480934e-02,1.507259403412047416e-03,-1.088434225965828183e-03,1.977846843410582377e-03,5.582237243652343750e-01
5.130085101072581200e-01,-3.689997745059919732e-02,-4.797407591589908371e-02,-5.222125671089590570e-04,7.807783307893915222e-04,1.696927568306906076e-03,5.555384755134582520e-01
5.155109961111745687e-01,-4.483079874063228276e-02,-4.116850416123879475e-02,-2.491375914696101947e-03,-9.105596108132450565e-04,1.293263245928614504e-03,5.585430264472961426e-01
5.066922733139879176e-01,-4.708613928993460318e-02,-3.632449303756657422e-02,-1.708812019380904077e-05,1.251070143425957052e-03,3.407345390558668297e-03,5.485128164291381836e-01
3.854238228002290767e-01,-8.599111431463662969e-03,-2.931531042450402635e-02,1.018605752682210167e-02,-2.660836233229689832e-02,1.165310419114305891e-02,4.082750976085662842e-01
4.981264036547196072e-01,-4.626063149184223011e-02,-2.879415953852434984e-02,5.773303681827891918e-04,2.125653643294876487e-03,1.125972589593258960e-05,5.358809232711791992e-01
3.213665334488765013e-01,9.067922813632611767e-03,-5.206510017743470886e-03,1.413680240901072846e-02,-2.860027376803088439e-02,1.409610985338947964e-03,3.244248926639556885e-01
3.092853278351439528e-01,2.173783983570848344e-03,-1.083235391030654138e-02,3.817922657756835092e-02,-1.408987132224695602e-03,9.275820990482616657e-03,3.211199641227722168e-01
3.973185124689507797e-01,-1.127621741502865538e-02,-2.780541692242771701e-02,1.875918465434907702e-03,-6.498394662155797426e-03,1.228979734192150314e-02,4.178121387958526611e-01
4.661924378810796132e-01,-3.223412185222407356e-02,-3.195785396049322102e-02,1.470985793830918535e-02,-1.139004001826991914e-02,1.160303697224354669e-02,4.997335672378540039e-01
5.038427514368122306e-01,-5.506200272090494563e-02,-2.973566975079819374e-02,-2.122044515392725473e-03,-3.672948998743536322e-03,-8.480056704173458615e-05,5.467311143875122070e-01
5.020786242555832501e-01,-5.437289570400324901e-02,-2.681218492185397095e-02,1.198400878346195545e-03,6.128356579423833517e-04,1.375544519706284113e-03,5.432060360908508301e-01
2.562631495861621422e-01,1.260834042305966629e-02,1.145136956051615029e-02,4.049176211776819856e-02,5.214426225425249951e-03,5.129413102332180258e-03,2.544212341308593750e-01
4.414482572811123662e-01,-4.416055046121392103e-02,-1.417083001178290336e-02,2.232017027013367613e-02,-4.692480579794979022e-04,-1.289611028170308503e-03,4.729188680648803711e-01
5.621674200812212252e-01,-3.223698885020453986e-02,-5.844844676228785896e-02,2.600044152949432252e-02,2.464612820835508297e-02,4.025900913319409476e-03,6.111324429512023926e-01
3.818587943232190085e-01,-3.071903433366365843e-02,-1.971348910924827780e-02,-5.846586904857366263e-02,4.782203446371974254e-02,5.014539708074961660e-03,4.277756214141845703e-01
4.898697287512453480e-01,-5.736388805481085207e-02,-2.225432554925652062e-02,-8.156573622964874426e-03,1.881134638694732320e-03,9.968189843870881289e-04,5.307517051696777344e-01
4.117437350088483661e-01,-2.482464616738769281e-02,-2.058471339456605098e-02,-3.257838086896166357e-02,4.780961283282614271e-02,9.491738495099523443e-03,4.461731910705566406e-01
4.617128102962075320e-01,-2.758410872266425784e-02,-3.865567632352745475e-02,-8.698135149496842924e-03,1.071681784783993022e-02,1.272234735907618389e-02,4.959923624992370605e-01
5.107776272239131776e-01,-3.820077930064746941e-02,-1.357520168508299929e-02,8.802554666531009833e-03,-3.589802078059988171e-04,-1.185876983860254972e-03,5.373098254203796387e-01
4.904530841866659996e-01,-4.547906398284121132e-02,-3.664573140161475617e-02,-1.063627141814219718e-02,2.390692621447979699e-02,1.919332365449314412e-03,5.335094332695007324e-01
4.452359756130296331e-01,-2.973568356386083189e-02,-2.969166674044718124e-02,4.822144940483800296e-02,-1.385242524705755825e-02,2.879505686001885591e-03,4.828598499298095703e-01
5.037788068496610316e-01,-3.077551736113748326e-02,-4.947594006238895115e-02,8.901992136071661815e-03,-6.957816488661962805e-03,6.093114743066557239e-03,5.445996522903442383e-01
5.110176439617202249e-01,-3.967691350521113103e-02,-4.422513449709661315e-02,2.358878243485294009e-03,-2.169429900589000572e-03,7.174437894018073636e-03,5.531501770019531250e-01
4.830854834586295610e-01,-2.819099671845837207e-02,-4.792779433079999429e-02,2.611797017415796139e-03,6.501878232416416189e-04,7.962838883671934098e-03,5.216283202171325684e-01
5.193447906462425046e-01,-1.624408054279524727e-02,-1.424022750706610552e-02,1.927629216575646548e-05,2.451434205559903032e-03,-1.157990001959357217e-02,5.349827408790588379e-01
5.148283712592514050e-01,-4.538559732095268084e-02,-3.710588981067669545e-02,-1.354469698129972199e-04,-3.735490319793946209e-05,6.219274909248166238e-04,5.561214685440063477e-01
4.714297619286821894e-01,-3.174431113843592667e-02,-2.905827009614764256e-02,5.089024216773490455e-02,-4.150495693243171080e-02,-3.660192454144613021e-03,5.146041512489318848e-01
4.614876874769315851e-01,-3.522861640787589010e-02,-3.235560768587755764e-02,1.917701664336008902e-02,-9.203462020643560573e-03,9.864579958834147552e-03,4.969482719898223877e-01
4.164881806225770311e-01,-2.387635136270926939e-02,-3.027143114572919402e-02,7.772185796745641716e-03,-2.117951572848790487e-02,1.405943138262922068e-02,4.459797441959381104e-01
4.540457189554734652e-01,-2.630727914513308896e-02,-3.946214847880832877e-02,9.069126793522092056e-03,1.054815251857590085e-03,1.087135765886369787e-02,4.876839816570281982e-01
5.186688293478336487e-01,-3.820389412601191137e-02,-3.232655379354773539e-02,-5.843438130417073903e-04,-7.332865915742063818e-04,-2.721640331574546787e-04,5.539600253105163574e-01
5.198629513338404173e-01,-4.123869626099702090e-02,-3.257107506188403057e-02,9.652566952540619525e-04,-1.540147751118596856e-04,2.330117658448796394e-03,5.568356513977050781e-01
5.177249488819586354e-01,-2.868963548427663768e-02,-2.595352074426693356e-02,-2.204548902634248780e-03,2.544813068210743847e-03,-1.240946856313271960e-03,5.450870990753173828e-01
5.191506677335898656e-01,-2.909784533786241578e-02,-2.748691164494360129e-02,-2.197612453467517706e-03,3.549162134597058562e-03,-2.659993541635415916e-04,5.474927425384521484e-01
5.172465895027043015e-01,-3.073675229431011013e-02,-2.401403420684455892e-02,-9.742397187479459337e-04,2.847549547949583711e-03,-8.049051190411361800e-04,5.446798205375671387e-01
5.176909614161773199e-01,-3.740778312093492874e-02,-3.670686928043576103e-02,6.119725943272212414e-03,-1.563768371965221530e-03,5.128098119611655421e-04,5.548571944236755371e-01
5.192840216856684510e-01,-3.640519071014178265e-02,-3.304824200393710609e-02,4.373467630625624443e-03,-5.849705519256924099e-03,2.680265506857956899e-03,5.541822314262390137e-01
5.179674096762605373e-01,-3.238298551898621813e-02,-2.318064585900619923e-02,-7.471875301008954308e-04,4.484953054822404285e-03,-1.703531919399816578e-03,5.458722114562988281e-01
4.907078405977650104e-01,-4.624054394719753769e-02,-2.753520478021967421e-02,-7.236537536782225791e-03,3.197301737996546735e-03,2.227973443940063430e-04,5.280223488807678223e-01
5.183571729605719325e-01,-3.619014866163913768e-02,-3.266384275248820912e-02,4.064349393257839574e-03,-5.706120291338811004e-03,2.394840900861573349e-03,5.529413223266601562e-01
5.196717715318759367e-01,-2.837224042518352030e-02,-2.869887207858429212e-02,-1.837176195585811696e-03,3.994192761696426994e-03,-2.933444429790326487e-04,5.482605099678039551e-01
6.193430359705227595e-01,-6.558795047194693195e-02,1.394609301883742436e-02,1.164813012554680866e-02,-9.750191642723399221e-02,-3.411669820007236925e-02,6.733494997024536133e-01
5.201251364027907886e-01,-4.853512290213621294e-02,-4.142534889096322059e-02,9.856961543993809916e-02,-3.368695137752816121e-02,-7.310292659406800175e-02,6.066023707389831543e-01
4.285231556315393653e-01,-4.877530409191438432e-02,3.671729345762798913e-02,4.571224350579145002e-02,-1.321499747758261567e-01,-2.822852357990206316e-03,5.029919743537902832e-01
3.407202382361321780e-01,-1.567565188224376294e-02,1.709913762010441263e-02,1.860516066323318141e-03,-7.990584713763886071e-02,7.958089168316971260e-03,3.684652447700500488e-01
5.258470894328350909e-01,-2.163807292843686336e-02,-1.079923949406780270e-02,6.560211773103993838e-03,-3.895893048422415482e-03,-6.110495319155731866e-03,5.424113273620605469e-01
5.222132744644849556e-01,-1.647047165535842073e-02,-3.294923357490608939e-02,-4.173880195246306574e-03,3.266997932344711635e-03,-3.600847899002285711e-03,5.472218394279479980e-01
5.186736884069987896e-01,-3.485488771894670879e-02,-3.138617531665316429e-02,3.132298512099852481e-03,1.143578520266653022e-03,2.456298051421343300e-03,5.518490076065063477e-01
5.147968533446629635e-01,-3.249029960340052425e-02,-2.766510399194030412e-02,1.994442978612317834e-03,3.007934408704261708e-03,6.163309037888600522e-04,5.449274778366088867e-01
5.712344054979904273e-01,-1.710530163512663515e-03,-3.947171725108930551e-02,-5.632966663863437501e-02,-1.603762623575738858e-02,1.871914223825590570e-02,6.022198796272277832e-01
5.127066289473110050e-01,-2.214429735393522169e-02,-1.340587550896227276e-02,-5.119409772626108170e-03,-5.399961994267052368e-03,1.089869570243778146e-02,5.310278534889221191e-01
5.223089259924504901e-01,-2.782933508442272941e-02,-2.881521530404637654e-02,-7.317337187377937965e-03,-6.231295305055258374e-03,8.822967195496354484e-03,5.510953664779663086e-01
7.497496367875662315e-01,-8.818745741631711654e-02,2.439756382416147229e-02,1.535822078322774970e-03,2.873439045617045065e-02,5.211115129784205839e-04,7.892779707908630371e-01
4.389668623276752335e-01,-4.078201589673569050e-02,-2.041182574339331368e-02,3.848039807156170282e-04,-8.427898387818719486e-03,-1.029742606945769322e-02,4.704604148864746094e-01
4.764292654313298514e-01,-3.856151481702099759e-02,-3.319948292331023620e-02,-2.093592096623623014e-02,-1.600951884551736829e-02,-2.664445867908559785e-03,5.143811702728271484e-01
4.050948876953476274e-01,-2.857141305333960046e-02,-2.285449712118392540e-02,-5.288592425497099653e-02,-3.001886571951693783e-02,-6.119252128824555562e-03,4.436512291431427002e-01
4.893362522763767264e-01,-5.747728261598364363e-02,-2.221685612061333193e-02,-1.575815607714587145e-03,1.435288875864794813e-03,9.557445501143409239e-04,5.300790667533874512e-01
4.669345170545867729e-01,-3.036871205008559449e-02,-2.806732439047004979e-02,-3.031087286060730676e-02,3.560911128625439122e-04,3.715902097075964619e-06,4.989267885684967041e-01
3.831703740961892590e-01,-2.831568975192352844e-02,-1.206710801166646641e-03,-2.472453867525185520e-02,4.240178242408337156e-03,4.896977790648388180e-03,4.010741710662841797e-01
4.223191221500941506e-01,-4.254124474164372449e-02,-1.067679806216792482e-02,-3.599121276371176209e-02,-5.826388978196863841e-03,-1.399239747866797283e-04,4.541871845722198486e-01
2.579136486633817338e-01,6.405277006365922565e-03,-2.124941271976274471e-02,-1.367738921395407481e-01,-3.311382080314491383e-02,-6.157024709548142988e-04,3.610936701297760010e-01
5.195922195693237766e-01,-4.082973829705091595e-02,-3.519473423780500321e-02,-1.920116057364042866e-02,-7.018891394059827713e-04,-1.588897076029279691e-04,5.586180686950683594e-01
4.801866920372815928e-01,-2.908804029448863737e-02,-3.225601419163293127e-02,5.236788980291210219e-03,-1.631059825629102653e-03,-1.054154159217230921e-02,5.112805366516113281e-01
5.200497759487106020e-01,-4.115548140475261407e-02,-4.025109739520046914e-02,2.031591655475780897e-02,1.759963905575048781e-02,-8.855289217530306831e-03,5.628919005393981934e-01
3.580351874981990701e-01,1.339860977497928096e-02,-3.110985795265508447e-02,1.105698953544100166e-01,7.059866045754135955e-02,1.936035965618186985e-02,4.345672726631164551e-01
5.097822703392254073e-01,-9.254426223781697658e-03,-1.210441936070730251e-02,-9.771718406348316958e-04,8.092456923405974990e-04,5.353622112026321968e-03,5.205547809600830078e-01
5.134704481577508917e-01,-8.393890555972033374e-03,-1.877405083839636668e-02,-3.151403186282645662e-03,-4.439868140059581580e-03,6.716832379104414365e-03,5.273437500000000000e-01
5.144024165487365297e-01,-1.742080087717312598e-02,-1.079055750136198588e-02,-3.693748651255582618e-03,-2.130190315421272122e-03,7.562266056817186152e-03,5.287531614303588867e-01
5.118207141889947742e-01,-1.268382917948837618e-02,-9.876228980917084455e-03,2.600485302693786305e-03,2.386392589951285507e-03,7.581183307559860411e-03,5.233069062232971191e-01
3.125414736252207226e-01,-4.450613797956118334e-02,-1.737577938830406343e-02,-2.822272037207097795e-02,9.166075474697633896e-02,1.251501410208376644e-02,3.828795552253723145e-01
3.034278384096135706e-01,-8.836733345272643203e-03,-1.525967088086510604e-02,6.606515331368668920e-02,8.195391377625015072e-02,3.886410825134495317e-03,3.644784390926361084e-01
4.973611558130205390e-01,-4.033940872729729898e-02,-2.161124364664923636e-02,8.088858856961818333e-03,1.163547590744824951e-02,3.518576464449855025e-04,5.291552543640136719e-01
3.087167786020488802e-01,-6.877477651461183505e-03,-6.516072908684819587e-03,3.361083525767780134e-02,3.220298388758394137e-02,-7.700823936185758993e-03,3.258279860019683838e-01
3.793298225055788397e-01,-9.636466181191336022e-03,-2.696244585625862111e-02,2.453230642179325335e-02,2.156001518610933809e-02,-4.197805969589747666e-03,4.019789099693298340e-01
3.350010967543128326e-01,-5.963117445628524083e-03,-1.984749471128928466e-02,-8.816315570522380990e-03,8.021987139001829359e-02,5.338397846859350808e-03,3.752436637878417969e-01
5.235297374044101115e-01,-3.741978025574430045e-02,-2.433769731079357679e-02,1.469285429565084320e-03,4.690914916066596732e-03,-1.071610918637531029e-03,5.545926690101623535e-01
5.256243720324640378e-01,-3.974492009807431558e-02,-2.124336333687112943e-02,6.725347888891860734e-03,-8.902986236348406010e-03,2.242575045604617862e-03,5.566983819007873535e-01
5.299368193033012764e-01,-4.730147343015686512e-02,-3.809318775391928869e-02,2.802591769539035729e-02,-1.845330609880219130e-02,-7.620775673147135026e-03,5.757825970649719238e-01
5.183571871606980075e-01,-2.509337844401510198e-02,-2.128212003868068525e-02,5.423976522007042684e-04,-3.577139788753582210e-04,-4.137334823974017813e-03,5.416035652160644531e-01
5.248324206742275289e-01,-3.637139644409634331e-02,-1.494835640273933786e-02,-2.023421401321065863e-03,-2.808625296587469351e-03,-9.666119544458290011e-03,5.510918498039245605e-01
5.370249733639049783e-01,-4.895401940347027248e-02,7.123582337296457956e-03,9.690672077685071484e-04,3.920333746033947096e-03,1.121253966343661781e-03,5.600968599319458008e-01
5.322674683207845314e-01,-5.508585485136491267e-02,-1.513596841712300245e-02,4.080765969259727254e-03,-6.668089152166238251e-03,4.233001699898180335e-03,5.686407685279846191e-01
4.949423288280845878e-01,-2.729013375832012311e-02,-5.133903098391331965e-02,-1.102188301186334674e-04,-1.916168101622352238e-03,-4.768880088840071231e-03,5.347368121147155762e-01
4.869126443736255250e-01,-3.738843880244127615e-02,-6.492177511233432341e-03,-3.274563661177972481e-03,-2.096538030756431997e-02,2.843937299642603205e-03,5.109034776687622070e-01
4.937145113131110596e-01,-2.866988469631026604e-02,-5.374635922965831369e-02,-3.333175603329848607e-03,-6.217433556539305600e-03,-5.817628455577478555e-03,5.355975031852722168e-01
3.649542604835341875e-01,-4.760808983130920824e-02,3.660777459521057098e-02,-6.310279844220850753e-02,-1.520963542466258756e-01,3.241690056568061196e-02,4.765019118785858154e-01
5.691328334621843510e-01,-5.251330114220165157e-02,2.250678590178006866e-02,-7.925767446151742168e-02,-1.341157803170762164e-01,2.887726267346611350e-02,6.486479043960571289e-01
4.608736646952851790e-01,-3.627831847693280265e-02,2.555220122638841851e-02,-5.220420244510107916e-02,-1.031740724443240970e-01,4.301736726333707517e-02,5.156606435775756836e-01
3.894274755758850293e-01,3.066775467513022102e-02,-4.975515522743634289e-02,-1.116960244129936164e-01,4.683258181491810335e-02,-1.200160501081405998e-02,4.565839171409606934e-01
5.210465801526833474e-01,2.887027400889272122e-02,-5.929626957785646968e-02,-5.588059143640503740e-02,2.251266327386753502e-02,-2.197939137758065861e-02,5.529394149780273438e-01
5.168137578925089404e-01,-3.941968423084993289e-02,-3.197021887317164079e-02,-3.393764390335023140e-02,4.173787972356085389e-03,1.037537320748191513e-03,5.557141900062561035e-01
5.168847187045744196e-01,-1.737595970985153504e-02,-2.537323150446829656e-02,1.320834786159378596e-03,1.539590892993580309e-03,-1.067936684335542025e-03,5.383185148239135742e-01
5.319784909371524373e-01,-1.820478485796331314e-02,-3.531458204299497972e-02,1.595299261682186359e-02,2.679673498847874070e-03,-1.057813693923255471e-02,5.599362850189208984e-01
5.015804946256821051e-01,-5.470690619429063872e-02,-2.499394320187936502e-02,-5.655907071875665090e-03,2.582677285823735576e-03,8.415599124685771209e-04,5.421509742736816406e-01
5.197357906395054794e-01,-2.573703076098085574e-02,-3.186580524632831590e-02,2.302263017915272703e-03,4.093664996781192639e-03,3.054270889784261775e-04,5.486234426498413086e-01
4.392322510784101297e-01,2.533167860460390497e-02,-3.716768792562893942e-02,-1.613374237635488151e-01,4.412733505387858579e-02,-2.111087503897746132e-02,5.351227521896362305e-01
4.503306247530620143e-01,2.772905070547009021e-02,-2.327244641097295230e-02,-1.123750907664102794e-01,9.632739879978009789e-02,-4.611067379825591062e-02,5.242580771446228027e-01
2.978530454061549815e-01,-4.963134282255754481e-03,-2.007332447640006179e-02,8.543282982738197029e-02,-4.048653235852431309e-02,-1.933503994990117339e-02,3.527561128139495850e-01
3.628923465491906697e-01,-1.003173725414190087e-01,-2.873702680159342937e-02,5.657836871892334835e-02,-6.170186490040630023e-02,-5.004795435266734538e-02,4.637557268142700195e-01
3.785653833770271093e-01,-8.642202687458855337e-04,-1.437672581088345058e-02,1.210358233582718990e-01,-7.520723442996081476e-02,-3.636403054616464681e-02,4.627752006053924561e-01
4.421882564240401936e-01,-4.088159728103371582e-02,-2.388950867076877760e-02,7.452956194232646103e-02,7.023415195760566478e-03,3.953245694888068724e-04,4.921882450580596924e-01
2.651050589609279529e-01,1.422570477987871590e-02,-7.177862505637505608e-02,1.152472888637225967e-01,4.009687048085409239e-02,-3.236328376739184415e-02,3.737982511520385742e-01
3.400215669348159997e-01,-1.128300069066752453e-02,-6.860953535408068071e-03,4.219162113489348387e-02,-6.690234415420905079e-02,1.075546106970379744e-02,3.754945695400238037e-01
3.956798458068569446e-01,-3.622905019889988143e-02,-1.184272840921102299e-02,6.974692897241592526e-02,-1.050708149529564761e-01,-1.464457864297072018e-02,4.743039608001708984e-01
3.219230850031640223e-01,-7.846743609245088180e-03,-9.601221032889337148e-03,1.159974614251537278e-01,-7.551112732159379060e-02,-2.146283471653957428e-02,4.101021587848663330e-01
5.259337362617282352e-01,8.254315977969051144e-03,-6.116644902173676290e-02,6.133791800245183556e-02,1.537545312985429645e-02,-2.929990551066447013e-02,5.686128735542297363e-01
5.377981775584466106e-01,-3.920793148490095414e-02,-5.384871743059480020e-02,-6.194512318707404153e-02,2.990945174240987325e-02,-9.054715808906235036e-03,5.966904759407043457e-01
5.140723655659031888e-01,-2.229688963156944981e-02,-3.382317429545123044e-02,2.034426616949875071e-03,6.739976431725719364e-03,4.886532348151272206e-04,5.423620343208312988e-01
5.109162865576297730e-01,-3.795788729382407189e-02,-3.644321827747570852e-02,8.143221180208101663e-05,2.851157126673125111e-03,1.491933837707239922e-03,5.481467843055725098e-01
5.171775766006088126e-01,-4.010977917536368009e-02,-4.675175307856030416e-02,3.361325235586834406e-04,3.032295480851983187e-03,3.844651580284265662e-03,5.607023239135742188e-01
4.897514752797511584e-01,-4.484472950480652975e-02,-2.442990879974896168e-02,-6.494590577052481058e-03,4.048428011132153975e-03,2.273751744430452248e-03,5.248689651489257812e-01
4.856591784423362479e-01,-5.425843965713411654e-02,-2.368900363724435465e-02,-5.526788725990865875e-03,2.250558324090194456e-04,4.135631573896247221e-03,5.254366397857666016e-01
4.946094553092579282e-01,-5.132736341791702128e-02,-2.880831141220968616e-02,6.753853572056486582e-04,4.443164202492321836e-03,1.900946052776459130e-03,5.350995659828186035e-01
5.025521268923411888e-01,-5.399765026426781023e-02,-3.317100909940839948e-02,-1.194310258405975676e-04,-3.262726706481074786e-04,4.265239088185702326e-03,5.464844703674316406e-01
4.445297040432686919e-01,-3.525062421485636310e-02,-3.211505157363417351e-02,8.481101432408778840e-02,-6.480728769206007753e-03,-1.324653077896645152e-03,5.004044175148010254e-01
4.859919427396254821e-01,-3.682690410191047370e-02,-3.823569404850496456e-02,4.777966693281410909e-02,-4.050652082694573136e-02,2.334293161979440149e-03,5.346638560295104980e-01
4.246972697927191009e-01,-4.178283843346133897e-02,-1.824505863830799823e-02,2.628849143478070513e-02,-1.064945007747013575e-02,5.063039938080159640e-03,4.578953981399536133e-01
4.621630157263610927e-01,-2.259278110611748214e-02,-4.071972603825879666e-02,6.868314837866182181e-03,5.828383814353602782e-02,-1.424392343898190152e-02,5.050199031829833984e-01
3.845460784900900375e-01,-2.386427006970859299e-02,-1.545929861057993016e-02,1.822989477983726070e-02,-1.456633109063889056e-02,1.217940796883727403e-02,4.068359732627868652e-01
4.190959825575134023e-01,-2.631634319142128753e-02,-3.257205572256896553e-02,3.543202300168035029e-02,-5.376871721397554838e-04,1.167807443276975936e-02,4.532040655612945557e-01
4.988664038388269106e-01,-4.607795221191696156e-02,-3.191068553210207881e-02,9.859582372364047997e-03,1.353997635439466163e-02,5.116738466128944486e-03,5.388551354408264160e-01
4.873752916112641942e-01,-4.901896053842383361e-02,-2.833346804262010243e-02,1.263394810701643292e-02,-2.192001913626061803e-03,3.729391941494475133e-03,5.268644094467163086e-01
5.072655296159291893e-01,-1.767390366214935393e-02,-3.617646879966959772e-02,2.403720882779273454e-02,-7.927954772530340991e-03,-7.380595760539863937e-03,5.363784432411193848e-01
3.513683910282546785e-01,-1.009913677538747112e-02,3.426271395915628237e-03,-8.908735370968497158e-02,-1.311797204558229069e-01,2.156765165647313645e-02,4.503134787082672119e-01
4.720494432373371629e-01,-2.560645697505670171e-02,-3.675064081531728699e-02,-8.388026328804936219e-03,-2.140839114688815673e-02,-2.747811673171999657e-03,5.049160718917846680e-01
2.610674609473508379e-01,-5.860677492814866940e-03,-5.728356540670040409e-03,-1.922051830297841690e-03,-1.009664175319166246e-01,-1.224740591055414884e-02,3.197796940803527832e-01
2.696018547921101849e-01,-2.882252453822273242e-03,2.009380308365699142e-03,-9.438930103745019062e-02,-6.153921570235561939e-02,1.410581792494229603e-02,3.341029584407806396e-01
4.955592382298393272e-01,-3.263657599543223764e-02,-4.266638942498354736e-02,-1.221592991128971723e-03,-5.276970564352190599e-03,-5.513322541190000987e-03,5.334494709968566895e-01
4.416187191189293593e-01,-2.475015999793050980e-02,-4.739776620346006220e-02,-1.568202228229132258e-02,-4.390437347479260455e-02,-9.041239103351767642e-03,4.851193428039550781e-01
5.267936610622876437e-01,-3.383657947973250923e-02,-3.822736711532284670e-02,-1.023640003066288466e-03,1.439663281472351817e-03,3.402322962959498432e-04,5.628470778465270996e-01
4.354745119534278452e-01,-2.276746810604110549e-02,-3.988198126291614409e-02,-1.344762663739807601e-02,-7.701377291660789189e-04,-1.167831160245094008e-02,4.680541157722473145e-01
5.238420681971047710e-01,-3.391769423461551969e-02,-3.111298832796463576e-02,-2.062420931002884733e-03,-2.161664759383852621e-02,7.846355610274411904e-04,5.576342344284057617e-01
4.721605007272002275e-01,-1.867299021560303585e-02,-5.311579182505107855e-02,1.878523561487689404e-04,-2.059835997950962630e-02,1.544305295086021964e-03,5.101858973503112793e-01
4.080705214869362885e-01,-9.508814290076966769e-03,-3.443422712102434113e-02,6.636636543863271270e-04,-2.612532179710115240e-02,-6.746519139080273640e-03,4.331138134002685547e-01
5.016712885308549641e-01,-2.367944737577920566e-02,-5.472485181484093575e-02,2.163974681721799603e-03,-1.621299750425403766e-02,2.184624303978335735e-05,5.422818064689636230e-01
5.216159977919712087e-01,-2.135666765939878142e-02,-1.072746896423187879e-02,-1.127302579862420615e-03,1.469791798226707412e-03,1.579026311129567289e-02,5.384414792060852051e-01
5.239913988652692423e-01,-3.425463730109065685e-02,-1.867667498871808385e-02,-1.065980161994903612e-03,5.556698103495075029e-03,2.571794394789539678e-03,5.507275462150573730e-01
1.276647097903914618e-01,6.850440400856340484e-03,8.709497449705456973e-03,-1.856077389729679158e-02,7.292553587986082275e-02,6.359477461702390394e-03,1.774378269910812378e-01
1.748288461867256172e-01,3.719840127210639891e-03,-4.132320265320468811e-04,-7.709532533584644021e-02,-7.534262793176920749e-03,-7.064464213300261468e-03,2.194394320249557495e-01
4.811857012775628273e-01,-2.860309631639634809e-02,-4.485738591976845546e-02,-1.192114746327769311e-03,1.686163916340996036e-02,5.016967125908819609e-04,5.189345479011535645e-01
3.852371649842630807e-01,-2.640882902344618421e-02,-2.179070214253944759e-02,-4.523475659715339714e-02,5.360405009642058710e-02,1.813627131666254236e-02,4.281567633152008057e-01
3.387237332617660246e-01,1.337665198562124069e-02,-2.762099319580960111e-02,-6.839087870163136629e-02,3.262327598993741695e-02,-1.699957040556272087e-02,3.727757036685943604e-01
4.076954143234715611e-01,-2.977268741681834974e-02,-2.429172728962833427e-02,-1.811734262815400259e-02,2.824890494681718198e-02,1.166332825580753546e-02,4.390870630741119385e-01
3.955055431125584775e-01,-1.777296393317137624e-02,-2.379074956160878718e-02,-1.025781685961481542e-03,2.734431070044507014e-02,1.480019590528832210e-02,4.197925627231597900e-01
5.077814815748513677e-01,-2.998867613843392288e-02,-5.021632410984899764e-02,8.575012309544207236e-04,4.083276496906019203e-03,2.964468138481491950e-03,5.482356548309326172e-01
3.960537181229088488e-01,-7.979070792805131873e-04,-2.299312172153344935e-02,-5.447872864686287980e-02,1.091789591401560594e-01,-3.390877575070312677e-02,4.635789096355438232e-01
5.173086360577809906e-01,-3.734080729644095875e-02,-3.783875703633549081e-02,-1.367610832309062822e-03,7.729291593061155853e-03,1.311406529066976847e-03,5.550697445869445801e-01
5.273711266381451157e-01,-3.720500213093205777e-02,-3.962968806139274824e-02,1.274173228292857464e-03,9.611992811269126288e-03,-2.112191724028407783e-03,5.660533905029296875e-01
5.367660824898305982e-01,-4.717546532028685236e-02,-5.963335436490191377e-04,-3.774945315606337108e-03,-9.393447705682223675e-03,1.095883373995051695e-03,5.623779296875000000e-01
4.269579848151722201e-01,-1.576639460024856221e-02,-3.384153584830748573e-02,4.899330658878185002e-03,-7.205575030972253712e-04,-6.674835363088152916e-03,4.522622227668762207e-01
5.212863557772213774e-01,-3.333454672381980233e-02,1.906677279380847301e-03,-3.164857364661485990e-03,1.013167377740436300e-03,1.278811227784969369e-02,5.383535027503967285e-01
5.358780016283232195e-01,-4.130637696021355332e-02,-1.774539079505099703e-02,-4.895893170389838643e-03,-6.843559987732945708e-03,5.014744135251820827e-03,5.660262703895568848e-01
5.434732761750336039e-01,1.838218913645467412e-03,-3.938242523239249282e-02,-1.325954410184206934e-02,-7.625945172531044432e-03,1.630276385407138096e-02,5.647065639495849609e-01
5.209374126437332775e-01,-1.870273761714316696e-02,-3.365050834879426689e-02,-6.098059023392539066e-03,-4.437536442508586802e-03,3.644294415939153958e-03,5.474594235420227051e-01
5.237163699608033962e-01,-3.641030892794966389e-02,-1.493420945236123565e-02,-2.109785802806270118e-03,4.054397101700131338e-03,3.420572523053623179e-03,5.497922897338867188e-01
2.177455270035362767e-01,6.154527132731929528e-04,3.892569663187794848e-03,-7.096001473865549969e-02,-3.806051198842445166e-02,1.301838468341432950e-02,2.576914131641387939e-01
1.917098040371610079e-01,-3.570489913645183422e-03,-4.012300237503449440e-02,-5.467110047467749895e-02,-8.734722518324961049e-02,3.836034526179402104e-02,2.878861129283905029e-01
5.273939284700310814e-01,-2.969964486936629844e-02,-3.817840217403833947e-03,-4.528786240916708034e-02,-7.136317429417611546e-02,2.104677770941461995e-02,5.651234388351440430e-01
5.273047437575717478e-01,-4.374175946571823292e-02,1.361816124756015656e-02,8.002309866178083670e-04,-9.276419627213514790e-03,6.902917807481233521e-03,5.450065135955810547e-01
4.719935825180288647e-01,-4.394642802926482239e-02,-1.489438450806379599e-02,-2.256559261898837682e-02,-3.779125398389570484e-02,1.801321263056005970e-02,5.087578892707824707e-01
5.034683928876221293e-01,-2.288752030635068935e-02,-7.949339652858711247e-03,-1.531396493062669138e-02,-2.132065005087143209e-02,1.995277676261746763e-02,5.221804976463317871e-01
4.214018504558762479e-01,-4.822272330459803635e-02,1.507471311410280013e-02,-7.500293820151926472e-02,-9.439317931674869044e-02,2.394466770934053357e-02,4.900554716587066650e-01
5.530966819895779540e-01,-3.643675502541490752e-02,-8.866161990162269024e-04,-6.850295780431497894e-02,-1.127737050470485614e-01,3.038954670782295642e-02,6.187549829483032227e-01
4.090974538381170755e-01,-8.495652386928626010e-02,2.826952062069869320e-02,-4.019308564270925033e-02,-1.156556733922772945e-01,2.997971166102878990e-02,4.986393451690673828e-01
5.001948541284075844e-01,-2.676060720950698690e-02,-5.324901170599058431e-02,-1.157189109550204502e-03,-1.402233550114804182e-02,-3.721622083913160659e-03,5.412738323211669922e-01
5.380368273024120906e-01,-3.914493831629259346e-02,-1.499838506993242393e-02,6.463348534523865978e-03,-1.824301690817832586e-03,-1.334772737979809335e-03,5.656195878982543945e-01
5.152348516962372837e-01,-3.645827022574221754e-02,-2.975654327301927027e-02,3.285567309531905403e-03,-1.767348141527571963e-03,6.289455687246221956e-04,5.484121441841125488e-01
5.371839663476564164e-01,-4.077337617427759242e-02,-1.226495178333947278e-02,8.844965026998028584e-03,-3.175381572919192246e-03,-2.476168333701250605e-03,5.644945502281188965e-01
5.261784546356362835e-01,-5.012803964318890415e-02,1.771304805885856593e-02,2.299861729404988932e-03,8.757910679419360009e-03,-6.914537106464022607e-03,5.459154844284057617e-01
7.458116395340776972e-01,-1.019265609454861332e-01,3.981967706873895674e-03,6.979801176723290923e-02,2.043006161702564868e-02,-3.172087770931263095e-02,8.117758631706237793e-01
5.331483852885929853e-01,-4.774447865625769394e-02,4.241461893718934117e-04,-2.186772431820687302e-03,-7.327715817273234601e-03,4.595885605128063184e-03,5.585827827453613281e-01
5.446834171272205705e-01,3.223904458671608686e-02,-7.543320612031764738e-02,-1.782146688231931592e-02,1.491724654340068068e-02,-7.110140533694788052e-03,5.754482150077819824e-01
4.774914117204772102e-01,-4.303891763689510208e-02,-3.010468193731810627e-02,3.963446751558634407e-02,-2.260756334129784481e-02,9.267690363383800783e-03,5.204710364341735840e-01
5.194116652846070270e-01,-2.468800396252976426e-02,-1.078594978329838749e-02,1.433144370172785131e-03,-2.662552545066378638e-03,-5.317175834076015226e-03,5.373880267143249512e-01
4.838879066930025230e-01,-1.632161623786848592e-02,-4.768383357496314146e-02,3.362809300740053631e-02,1.723150430971270158e-02,-9.759305111777866930e-04,5.207369923591613770e-01
5.244935766901732688e-01,-3.114300742580344838e-03,-3.273093466874879565e-02,-2.874463543051454344e-03,7.542036681990634331e-03,-3.980849231582457050e-03,5.432459712028503418e-01
5.445868544848788684e-01,-5.183417149159774695e-02,-3.978819902174579592e-02,2.778982391768664365e-02,-3.932461038822909066e-02,-1.567127929741729542e-02,5.969686508178710938e-01
5.242660767289893942e-01,-5.149584016518493623e-03,-2.759430670424634080e-02,-4.353209457094642763e-03,3.495670167981156096e-03,-5.752723644170604396e-03,5.411654710769653320e-01
4.210691823097318931e-01,-3.439692981459735455e-02,-2.390291111536246849e-02,4.507928054692598996e-02,-4.367161795460578963e-03,-6.097671130704704042e-04,4.570936262607574463e-01
5.321777892765555684e-01,-2.868051055122464166e-02,-4.472523018655769067e-02,1.584264103538190679e-02,9.933198470185384459e-05,-5.239221129879064820e-04,5.697122812271118164e-01
5.827209382030309470e-01,-4.548379344490807719e-02,3.391362504485212481e-03,1.773096281630171314e-02,1.286528359315067781e-02,-2.335631693709827594e-02,6.077849864959716797e-01
5.833151891243151255e-01,-3.394924228385778897e-02,-1.131922773949087246e-02,1.186193615781345155e-02,4.340325165622162598e-03,-4.350980983847683309e-02,6.113237738609313965e-01
5.182059369210701982e-01,-2.459756014676867109e-02,-2.292063427694521205e-02,2.476314429178555401e-03,1.460467898471676847e-03,-5.370015815272970779e-04,5.419906377792358398e-01
5.181484173456754050e-01,-2.878150361929188161e-02,-2.313823628369393592e-02,-1.185905011193672193e-03,1.037923520638023419e-03,-1.657683203469169321e-03,5.441446304321289062e-01
5.438008417838922082e-01,-5.715192691110113077e-02,-3.065054605266046006e-02,4.905203245356661024e-02,-2.691680220181309410e-02,-9.412547875860113877e-03,5.963037014007568359e-01
6.935624345780875277e-01,-1.012773783821689921e-01,1.211952610171820877e-02,8.598316761380596362e-02,5.572829894164699378e-03,-1.903920381377149224e-02,7.601689100265502930e-01
6.197265284984470046e-01,-7.817312620183147764e-02,3.818995181695739038e-02,1.281231485450266307e-02,-5.017234952790685515e-02,1.145854429344173898e-02,6.540892124176025391e-01
5.196738906106610489e-01,-3.056823598566954514e-02,-3.496545625083119502e-02,1.738676495273462196e-03,3.112973200593245789e-03,8.934321749507361833e-04,5.524905323982238770e-01
5.509778556242624914e-01,-5.656974944971487895e-02,2.969065405943824287e-02,1.445386497724601010e-03,-6.257601907685403191e-03,-8.775807155111560042e-05,5.694483518600463867e-01
5.138032967417054397e-01,-3.514503157915258025e-02,-4.788619367228813539e-02,-2.012833466416132176e-03,1.329415733218443450e-03,1.302791375600595306e-03,5.554488301277160645e-01
5.285222002817062670e-01,-4.006187623401905040e-02,-8.565306765211222473e-03,8.247065188719064285e-03,1.407700881166787550e-02,-1.667198958777432608e-03,5.542367100715637207e-01
4.265377863439626105e-01,-3.658231882119025724e-02,-1.575224209777276174e-02,4.461040443899080832e-02,4.153607629035509577e-03,7.329591531617583823e-04,4.596639275550842285e-01
5.326533058171281088e-01,-5.141432518638328064e-02,-3.389006064945201957e-02,1.637228383596734532e-02,-6.805331339432714455e-02,1.445955603225997435e-03,5.881419181823730469e-01
5.669414176243416925e-01,-6.345163167139791782e-02,-2.807605543742769383e-02,2.013471866208317931e-02,-1.780867738787142440e-02,-1.494184240978586528e-02,6.157789826393127441e-01
5.259053333759162729e-01,-2.093682308955824301e-02,1.185645157306430830e-03,1.306790958612791820e-01,-1.083554251731870255e-01,-4.236612478049415348e-02,6.158463358879089355e-01
4.860867446317242990e-01,-3.296843717715050581e-02,1.661336878567115649e-02,7.291923462265610667e-02,-8.243548218117761894e-02,-4.930095493453596350e-02,5.383039712905883789e-01
5.427187001254196730e-01,-8.210048283404799974e-02,1.433429634577532141e-02,1.659555289705360107e-02,-6.264679482484140915e-02,-4.150390078942040040e-02,5.976723432540893555e-01
2.441253936127732727e-01,8.928374344046682842e-03,-4.686759998514963832e-03,4.859476894001776154e-02,-5.638563926199557930e-02,-2.084856136718871156e-02,2.768241465091705322e-01
4.807484350390276995e-01,-7.107434756912286988e-02,4.034696386769644205e-02,2.799377492336725670e-02,-1.320342990590457066e-01,-3.089815624632083133e-03,5.568815469741821289e-01
5.864945861340322697e-01,-7.650361310793940550e-02,3.356016430454009103e-02,1.092551163849203588e-01,-1.442493931863805812e-01,-2.819003275947881346e-02,6.923339366912841797e-01
6.873455382779211642e-02,4.565182301483339256e-04,-1.425746753421103935e-02,3.435495054252677566e-02,5.362470614291732496e-02,3.316012122337568674e-02,1.461144387722015381e-01
3.706234544824169030e-01,-1.547205050986993902e-02,-2.942526692790631282e-03,6.142607240196061580e-02,-7.478500218105491038e-02,5.780754590328932366e-03,4.154362380504608154e-01
3.158486283453809662e-01,-4.467498866778150945e-02,-4.782689731542968947e-02,3.963036512376356957e-02,6.649153458881865153e-02,1.394264002748151279e-02,3.868873417377471924e-01
5.023100885521836201e-01,-5.836240506467052502e-02,-2.615454860882798771e-02,-5.426694475044853633e-04,1.039651898193969231e-03,3.455436589843279352e-03,5.453190803527832031e-01
3.174724697712791865e-01,-4.555002068339225607e-03,-9.410619044242382603e-03,-8.958860839292344738e-03,2.543253873563708703e-02,-1.125657140272771656e-03,3.278321921825408936e-01
2.877788907376988004e-01,8.463693892566931387e-03,-8.106713258914655107e-03,6.760996929265479473e-04,2.571770939739007403e-02,-1.417550456916805666e-03,2.913958132266998291e-01
3.096569284242821629e-01,1.804862666429721263e-03,-1.609387797613004434e-02,9.694703759410627786e-02,5.388395503986320029e-02,-1.376448263632425954e-03,3.708311319351196289e-01
4.025728174746607824e-01,-1.227335831827575108e-02,-2.372973720543308795e-02,-1.141650904422510321e-03,7.560697306175642729e-02,2.704640870591312925e-03,4.406317472457885742e-01
5.928470475673277562e-01,-4.315495277230924076e-02,3.487901472343679643e-03,-6.466078009188372389e-02,1.555335963647691555e-01,-3.379782032396869140e-02,6.823130846023559570e-01
5.589017561501344877e-01,-4.311589276287486339e-02,-4.472890635803236647e-02,-1.558273852355327241e-02,1.226854680975967421e-01,-7.344591794932273099e-02,6.522771120071411133e-01
5.176559692206472718e-01,1.473418510789598068e-02,-4.823999835270831316e-02,-3.217726011562978966e-02,6.816561080195068789e-02,-3.289403378957247992e-02,5.557508468627929688e-01
5.798398319099531406e-01,-2.871062761391204865e-02,-4.641960479337720047e-02,-8.334429155368418621e-03,3.132084661002335069e-02,-1.752871191769479406e-02,6.208842396736145020e-01
8.300398516208125077e-01,-2.493345604560975870e-02,-8.650330123852639774e-02,-6.705830804575907715e-04,4.707956006064336479e-02,-5.390113631711622444e-02,8.959785699844360352e-01
5.944401956191666114e-01,-5.431044639431448218e-02,2.998920452540124182e-02,1.278499511219340252e-02,-2.057862293824892080e-02,1.764380449981484481e-02,6.131795048713684082e-01
5.177566858755950907e-01,-4.608825010691308677e-02,-4.039336540116283958e-02,6.285606212108048145e-04,-3.356052388705514276e-04,7.424931484812092013e-04,5.610219836235046387e-01
5.152622060363152290e-01,-4.592690863940390722e-02,-3.856206051428406889e-02,2.446780135263677066e-04,9.208275147853342991e-04,8.157431661227883355e-04,5.575473904609680176e-01
5.136460827689108832e-01,-4.879409559339795144e-02,-3.694084494298191523e-02,1.436114707113376370e-03,-6.107674948253210331e-04,1.914043672864176957e-03,5.566246509552001953e-01
4.914586479722634627e-01,-2.967651252084244073e-02,-5.396521547213251058e-02,2.645627794184696960e-03,-5.279252546461846163e-03,2.969024308026329498e-03,5.338169336318969727e-01
5.136099223400423242e-01,-3.728614820405279362e-02,-3.506160519661624675e-02,-4.209562513660746694e-05,1.999214550889222720e-03,6.199549144222844550e-04,5.497991442680358887e-01
5.017679863024616660e-01,-3.661213560261394884e-02,-4.534025754638953964e-02,1.813068092238273588e-03,-1.777830706586927415e-03,1.564814030948380019e-03,5.428214073181152344e-01
5.151226086300213503e-01,-4.783222477902360215e-02,-3.703444725788029857e-02,-7.725944608426804866e-05,-1.873175963919223338e-04,1.737985342630584329e-03,5.576425790786743164e-01
5.191329052546530543e-01,-3.856795326329989781e-02,-3.763125519320467682e-02,2.229953531818688710e-03,-1.815636073844437891e-05,1.360259596412887557e-03,5.572514533996582031e-01
5.219148123970570596e-01,-3.072421483689685706e-02,-3.615831962484444828e-02,-4.141024310405744496e-05,-2.677663525860218591e-04,2.853214205692717383e-04,5.553764104843139648e-01
3.565592414125484666e-01,-3.465231347292666020e-02,1.439893828599982106e-02,-3.334344032108917111e-02,1.516480598121337231e-01,-3.393358517520989048e-02,4.604826867580413818e-01
4.862995150070250072e-01,-3.097538913955405482e-02,-1.668021708401645764e-02,1.502742841559358451e-02,2.986464923685703404e-02,4.352944644796025685e-03,5.136079788208007812e-01
5.033246213943403102e-01,-2.623285641792730272e-02,-5.770564826433632888e-02,-2.469572358426902806e-04,-1.723682731389599744e-03,6.073305200598023388e-05,5.459829568862915039e-01
4.940252159088880934e-01,-3.048720684660724545e-02,-3.622413836069995896e-02,7.349947588468264039e-04,7.485091835721055867e-03,-4.297783975473921589e-03,5.276176929473876953e-01
4.520667354222706602e-01,-1.414266494300045474e-02,-4.465597692128367435e-02,2.547566030628489568e-03,1.533144703314297252e-02,2.089771279835217314e-03,4.829550683498382568e-01
4.511184541139040549e-01,-3.794977437909086149e-02,-3.520837743985236190e-02,-8.813985268561182196e-02,5.357282344786946232e-02,-4.858377097748340333e-03,5.194625854492187500e-01
6.121517674878174109e-01,-1.010673928371501606e-01,4.569379797866424120e-03,4.650735147176537215e-02,1.554180006496875821e-01,-7.250202485692066288e-03,7.236084938049316406e-01
5.811990590838991277e-01,-6.401933302817075511e-02,4.918580716738887859e-02,3.966034122059922291e-03,6.107204510399281278e-02,3.618751348926772804e-02,6.092990636825561523e-01
5.619976586475179392e-01,-1.137169554214787492e-01,3.787245996573899987e-02,1.245860926605975999e-02,6.410105561445085531e-02,-2.338602823271257805e-02,6.257568597793579102e-01
5.289939725499801515e-01,-2.576099850740518060e-02,-1.243950424897055651e-04,2.971066068083636023e-03,-2.619154974996786272e-03,-8.079683552445151087e-03,5.426151156425476074e-01
4.740299100174018565e-01,-2.424170441162021294e-02,-4.012546278333900540e-02,-2.389356651140631116e-02,4.663783175025461303e-02,-6.848577910841609391e-03,5.146066546440124512e-01
2.552779229651978565e-01,-1.387664648230688136e-03,3.307664436516352668e-03,-1.128260632238106687e-01,7.286656917667783118e-02,-1.131294423678869815e-02,3.452475368976593018e-01
5.019878427544495203e-01,-5.415371025614162948e-02,-2.752013118366097855e-02,-2.391746027150525399e-05,1.211235160099096916e-03,2.054885604572805231e-03,5.433303117752075195e-01
2.923831762924724020e-01,-2.043857941729247674e-02,4.877935128303242940e-03,-6.524835377866472497e-02,3.546220125946910467e-02,1.270086508060373418e-03,3.273047506809234619e-01
4.607888153708058487e-01,-2.317011186890466368e-02,-2.735530211313663695e-02,-4.053895093345358421e-03,2.800246269485426667e-02,1.665075709838563164e-02,4.893798828125000000e-01
4.404515987675917121e-01,-1.332209141160684007e-02,-4.553881285545524626e-02,-9.410448943576928691e-04,1.997685347812432066e-02,3.435598813390744292e-03,4.720200002193450928e-01
2.488936814539401687e-01,2.265630342713022272e-02,1.674619001632117465e-02,8.337880036763199026e-03,-1.379655961931420573e-02,5.962851506843471622e-03,2.311744689941406250e-01
2.921040394049884137e-01,1.019999960496623115e-02,3.908917515156859479e-03,-4.260111304833058121e-04,2.287189362938103071e-02,5.829855089366004287e-03,2.880187928676605225e-01
3.109643702049925684e-01,-6.133362252208257592e-03,2.606258377979051022e-03,-3.086044963713440586e-02,2.913843961656107165e-02,9.055831047277827783e-03,3.217239677906036377e-01
4.094672834472280476e-01,-1.968600261511072036e-02,-2.295275939358465411e-02,-1.435073679357709662e-03,2.063963412411688042e-02,1.208477192387999964e-02,4.327903091907501221e-01
4.483988000870257618e-01,-1.717478146953427265e-02,-4.525060405718420165e-02,-8.593656546960100340e-03,1.656722909172082467e-02,5.681301767523821988e-03,4.814147651195526123e-01
3.661595017274198449e-01,-9.576669653929587023e-03,-2.078554814745747770e-02,6.773937069126293939e-03,3.356401480370480722e-02,-1.286604551117574973e-03,3.860532939434051514e-01
5.241754771563365001e-01,-4.095055074331879763e-02,-3.482827643485639224e-02,2.896560779162651780e-03,-1.009268901710559749e-03,-1.924689300988323502e-03,5.621249079704284668e-01
5.219808917488089062e-01,-2.142419006229356881e-03,-3.339282478602390025e-02,-7.206774427352900456e-03,-5.868714679661813510e-03,6.021594873725193663e-03,5.407668948173522949e-01
5.226579872540253469e-01,-4.101437536215746249e-02,-3.476682580252032917e-02,6.963981474971202290e-03,-2.323023314432457517e-03,-3.286158052678477427e-03,5.607478022575378418e-01
5.249601619890208459e-01,-3.516170376212915394e-02,-3.414510092836198218e-02,-8.531577844320964313e-04,1.529602433581207094e-03,-2.031065393228950083e-04,5.596225857734680176e-01
5.148280582602557942e-01,-3.546696006394753353e-02,-3.655992591920750878e-02,7.930864961195358909e-04,-2.616941070785200416e-03,-2.899270369730764033e-03,5.508855581283569336e-01
5.940214356037853971e-01,2.518830503709681978e-02,-5.809537957397978292e-02,-2.156340332080647348e-02,2.363916032919292053e-03,3.625498781015600025e-02,6.190612316131591797e-01
7.313736817392080258e-01,1.419355412805176075e-02,-6.907019541084180592e-02,-7.108550655488904413e-02,-9.648535724076123463e-03,3.396422934259941961e-02,7.745287418365478516e-01
4.734842959215223579e-01,-4.033716907894224768e-02,-3.153493022081896302e-02,2.425999024275696941e-02,-1.531208349202696321e-02,1.163907097196975257e-02,5.122915506362915039e-01
4.698112961574765212e-01,-4.582046342849005471e-02,-2.279013378888058994e-02,2.208627977888436011e-02,-8.261461414389019084e-03,7.225760960173209513e-03,5.063162446022033691e-01
4.907271112725726248e-01,-4.997924053957697454e-02,-2.790488338571456284e-02,-5.651526990546302566e-03,2.918213841810302252e-03,4.522290070191744768e-03,5.301864147186279297e-01
4.616905360569705796e-01,-4.462210905384211834e-02,-1.501712441382099805e-02,-4.019517795848029373e-02,1.773336387449717111e-02,4.008168367828696317e-04,4.980265200138092041e-01
5.235479642912488352e-01,-3.731328655853466403e-02,-3.467523714159084780e-02,9.949052282932581773e-03,3.175577305013400128e-03,-1.520300775769941812e-03,5.598453879356384277e-01
5.370909748344232515e-01,-3.850010208541387868e-02,-1.016764854571694521e-02,3.944187938956344140e-03,7.174664694588162028e-03,-1.389989052873374931e-02,5.626549720764160156e-01
5.136427042320990122e-01,-4.591817660521516076e-02,-3.433280544439429316e-02,-3.911676717781035345e-03,6.433233178118011883e-04,1.666190726480814210e-03,5.539091825485229492e-01
5.091418733435950639e-01,-5.116135595646456591e-02,-3.087963982914804228e-02,-5.308490397064693535e-03,4.067810213329255131e-03,2.887351063793259977e-03,5.505872368812561035e-01
5.130597287075584489e-01,-3.540825714758355502e-02,-4.827477414933728506e-02,-5.426638526579330608e-04,3.281154592912648225e-04,1.989973970164329430e-03,5.550249218940734863e-01
5.154599531748494945e-01,-4.257448752057224617e-02,-4.298349248338398376e-02,-5.026456844791585971e-04,1.428233639421736803e-03,1.842626455635189503e-03,5.582543611526489258e-01
5.089296064238335582e-01,-2.746793407198144799e-02,-2.539631936952327362e-02,-3.441622480746770168e-03,1.150623029233995356e-02,-7.857570034395600436e-03,5.359415411949157715e-01
4.349622291279008346e-01,-5.619788141067033616e-02,1.074119398912368184e-02,4.087494909639584340e-02,6.631689705285542802e-02,-1.578740083786815337e-02,4.814510345458984375e-01
6.039112875137749858e-01,4.575449275028839469e-02,-7.880345796602056252e-02,3.402783916357169768e-03,8.992883962257468278e-03,-3.463881471075945864e-03,6.299920082092285156e-01
5.267876469878023382e-01,1.658663603030469114e-02,-3.692841345454517255e-02,-2.657671958912015669e-04,9.609316984332930828e-03,-1.640312918031936601e-02,5.399599671363830566e-01
5.482747415068562891e-01,3.523651072964240072e-02,-6.185474501750129472e-02,-6.203050762474795858e-03,3.511536911933473611e-03,-2.840095611144424076e-03,5.679991841316223145e-01
5.286333363812210084e-01,2.055236436446797321e-02,-5.570942638390444235e-02,4.587794351484676507e-03,6.645877505520884389e-03,-2.699689403785025289e-03,5.503878593444824219e-01
5.482170271310390364e-01,4.157956028366693868e-02,-6.229653250636113526e-02,-1.060031181149409182e-02,3.487826211707560631e-03,-6.186880373085713002e-03,5.662046670913696289e-01
5.101864298963816324e-01,-1.438015124007691048e-02,-1.044211940557335239e-02,-5.980755529285130840e-04,-3.764655713721640814e-04,1.572372492588538367e-03,5.226172208786010742e-01
5.086668330697605711e-01,-1.350449198602735046e-02,-1.037903293716974096e-02,-9.371365689151494541e-04,5.280566485413678368e-06,1.372225592726474376e-03,5.206235647201538086e-01
5.108388660804787929e-01,-1.226571008350624270e-02,-1.390648868518573611e-02,-2.574364924962271699e-04,2.076486986234307817e-04,7.317193798941785390e-04,5.239287614822387695e-01
5.074364276896288217e-01,-5.113263297976450295e-02,-3.070909179827657765e-02,1.113107968508583213e-02,1.699956352892699300e-03,6.101815510117388451e-03,5.490907430648803711e-01
5.409767417623057018e-01,-2.034049324213485499e-02,-1.933006494396585784e-02,-9.928728002804613692e-03,-1.142080090941651263e-02,1.960034317485422062e-02,5.624504089355468750e-01
5.211276707975374123e-01,-2.760736422956386327e-02,-2.057370071195338546e-02,-7.128047078027049434e-03,-7.624410058434806341e-03,7.941431745127619860e-03,5.457252264022827148e-01
5.184168336754062523e-01,-2.591789348104103774e-02,2.166122423746197345e-03,-3.551068986322269516e-04,-9.887420694866702435e-04,-8.572389786517099416e-03,5.310608744621276855e-01
4.555602930282658947e-01,-2.573541044808813627e-02,-3.937031629851181491e-02,-7.619186312492244768e-03,2.168895660236658252e-02,7.920278693130710160e-03,4.900688529014587402e-01
5.216124351269157966e-01,-3.384055981925196410e-02,-3.311585175664724656e-02,1.539532890842598180e-03,7.829718002096830790e-03,4.563763767332313851e-05,5.552630424499511719e-01
5.352524276560977068e-01,-3.033644108547756124e-02,-2.459069353779866351e-02,-4.492561797904150687e-04,1.171383476395822937e-02,-4.530713023717804211e-03,5.631588697433471680e-01
5.183423140997953649e-01,-2.676346938041468393e-02,-1.424307378410719083e-02,-3.089003356829419741e-04,2.915914133451814622e-03,-1.908957298304343221e-03,5.389887690544128418e-01
5.173663144833039462e-01,-3.920993690316018632e-02,-4.274051813084245310e-02,-2.969700753306482761e-03,3.347697456609861205e-03,4.406645096991652390e-03,5.584558844566345215e-01
5.128865625569469788e-01,-3.483696789879153766e-02,-4.898831264480338343e-02,-1.812163034899957155e-03,1.429905563247796255e-03,2.193852978968632763e-03,5.549619793891906738e-01
5.069670510330872570e-01,-3.292468175733848090e-02,-4.739720897604057792e-02,2.588408863510598904e-03,2.654377203502181985e-03,6.092679727190716647e-03,5.474109649658203125e-01
5.092710202533328179e-01,-3.734163008352162083e-02,-4.183129778216054806e-02,2.316704719320766305e-03,1.152317987184339190e-03,3.935426289559134164e-03,5.489318966865539551e-01
5.157002878148175817e-01,-3.962716004006128223e-02,-4.614945828266822647e-02,-1.667101577648492613e-04,-1.517074887813918557e-04,2.148159036753374395e-03,5.586296916007995605e-01
5.122064988579575484e-01,-3.936073229809075591e-02,-4.397910578231711831e-02,-9.970987745447938352e-04,2.979510697045521014e-03,3.986819830894038422e-03,5.539606213569641113e-01
5.229084764577969224e-01,-3.132658383849709627e-02,-2.594716775986652402e-02,-2.371752828084805996e-03,-1.850383407004457846e-03,2.355328269434595577e-03,5.516047477722167969e-01
5.222573744999039480e-01,-2.261458168165159099e-02,-2.864355615173325154e-02,2.503954578859055816e-03,-3.736852623352432748e-03,1.392250596591207033e-03,5.479720234870910645e-01
5.200593996192426349e-01,-3.013748875771779523e-02,-2.367512877254251968e-02,-3.945577396712858335e-03,-3.659052270607449629e-04,-1.701733272793493068e-03,5.470453500747680664e-01
5.166981854890958514e-01,-1.883647489984718870e-02,-1.973386930220755175e-02,-2.462478745184452054e-03,-2.510929366469412827e-03,8.532274871953334687e-04,5.360205769538879395e-01
5.187027838596121043e-01,-2.464855622075820540e-02,-1.986564758636180650e-02,-1.572362659465319375e-04,3.691327674919608155e-04,-1.832936640477804760e-03,5.409855246543884277e-01
5.143761916527208600e-01,-2.100696630357321015e-02,-1.485170359801954443e-02,-2.842565193105888940e-03,-2.317998383643807465e-04,1.036238425026970089e-03,5.323581695556640625e-01
5.221991683238806914e-01,-2.609105874329942232e-02,-2.916277588933829934e-02,-2.852429503917421972e-04,-2.611531305194923856e-03,3.051383910421318589e-03,5.498767495155334473e-01
5.123079695498378161e-01,-1.449780476420234332e-02,-1.471384060324104626e-02,-1.622825457837813988e-04,1.578105745468197428e-04,-6.443519687646022138e-04,5.269151329994201660e-01
5.121023775487605345e-01,-1.446250821924491281e-02,-1.191402864286619789e-02,-1.888423536802336274e-03,-1.377900248112084308e-03,9.674738045775847306e-04,5.253135561943054199e-01
5.257136783005607050e-01,-4.149185038430744377e-02,-3.546926250710782935e-02,2.663433287173832230e-03,-9.458504439803178208e-04,-3.333083432724623634e-03,5.642691254615783691e-01
5.464032708075361455e-01,2.768462771969459890e-02,-5.390328685948889142e-02,2.842210042645521711e-02,-3.176760140018615886e-03,-3.211303793337571405e-02,5.688534379005432129e-01
5.139486580428599405e-01,-7.780808201533373492e-03,-2.465043198776215028e-02,7.625761827608452470e-04,2.015403804510731717e-03,-6.009137878466375496e-03,5.304808020591735840e-01
4.969816355282621334e-01,-3.001546738956853422e-02,-3.801319777623857199e-02,-2.399441073112586198e-02,2.239589056775660031e-02,1.867922642412794560e-03,5.340852737426757812e-01
5.197790619998635675e-01,-2.499634783550794270e-02,-2.963720946512241050e-02,-2.380037782195808336e-03,6.835967825152565501e-04,2.837906063995118515e-03,5.471494793891906738e-01
5.206268912974856278e-01,-5.184621375772968666e-03,-3.564128012557907232e-02,-7.875362439286843347e-03,8.146503464332805963e-03,-1.202586870045811718e-02,5.424378514289855957e-01
5.219875497544185228e-01,-2.718462917677635926e-02,-3.687477443334918892e-02,-1.638454706947339856e-02,5.893277169525493187e-03,4.852922723216619261e-04,5.549015998840332031e-01
4.929925704314039869e-01,-1.994321707850296721e-02,-3.672520408826021598e-02,-3.556063741196217182e-02,1.360419753335780427e-02,-4.294212676794413423e-03,5.257347822189331055e-01
5.501633671401844339e-01,1.781536689754434355e-02,-5.998223116994205739e-02,-5.998747601463338269e-02,4.480827711521387542e-03,-2.652576395623902628e-02,5.863692164421081543e-01
4.876066093403209623e-01,-5.088324341308653187e-02,-2.277764360944886657e-02,1.097704760428636940e-02,-1.582778059698850427e-03,7.460456210487875252e-03,5.255118012428283691e-01
5.573087276088314335e-01,-1.364641287361031963e-02,-2.912502062475610942e-02,1.440004760066790623e-01,-7.396878346949094241e-02,-4.268694808780090083e-02,6.474226117134094238e-01
3.906774670603970767e-01,-1.258812097025061028e-02,-3.338529114053845337e-02,1.697393109314687329e-02,-3.414743665653352522e-02,1.192242879177477823e-02,4.197991788387298584e-01
5.977520466329317994e-01,-7.956916011484599371e-03,-5.442723755012554565e-02,1.284698012211481048e-02,2.273816229829519250e-03,-1.244652623590828885e-02,6.310037374496459961e-01
5.394304523100543758e-01,-2.026568775200859873e-02,-5.075545558320071482e-02,3.278971598130554083e-02,1.202576222148445811e-02,-1.135062440737140584e-02,5.790511965751647949e-01
5.333032886008786111e-01,-2.109237220322970896e-02,-4.198976601318049617e-02,7.464003241545644207e-02,3.948695595802155338e-03,-9.440232023957211005e-03,5.800036191940307617e-01
5.272401491901110848e-01,-3.240107753114712663e-02,-3.381605387462524592e-02,2.052409506277615842e-02,-2.231511033586143673e-03,-8.329217141267796594e-04,5.614916682243347168e-01
5.755058277046354309e-01,-8.869821412045342246e-03,-3.569269327797416902e-02,2.035579221791876739e-02,-1.147253566019893790e-02,-1.750927597677144620e-02,6.003720760345458984e-01
5.092864201471953844e-01,-4.223586500539969202e-02,-4.140969827892010402e-02,-3.161917591877549884e-04,-3.658760248982324337e-05,4.703296970839744573e-03,5.511701703071594238e-01
4.790993260055045333e-01,-4.575496599600001324e-02,-2.833635060858449850e-02,-1.378686782396864978e-02,3.857727392607413625e-03,6.652122154087690420e-03,5.170888304710388184e-01
5.138371369074286044e-01,-3.519703440468807676e-02,-4.659003935530117713e-02,-1.853594808598843990e-03,2.867976402000887385e-03,3.768883709385032702e-03,5.548883676528930664e-01
4.995654169269460598e-01,-3.457410177250494487e-02,-4.211366175374930965e-02,-1.786164424122104431e-03,7.697498266416023457e-03,3.769775245817892900e-03,5.381626486778259277e-01
5.175116552787180080e-01,-3.537182432965133017e-02,-4.724313171068991735e-02,-1.298420265294688289e-04,3.199635242549218710e-03,2.154110679028616634e-03,5.589536428451538086e-01
5.148531656589317995e-01,-3.260173931030696526e-02,-3.855567058731540486e-02,9.699925155520356659e-04,-1.624171177722947461e-03,1.951704808474922657e-04,5.504658818244934082e-01
5.088258050299383495e-01,-3.696932265594904399e-02,-4.828003733879032700e-02,-2.821841498021572612e-03,5.939051510925726085e-03,6.269567236289277402e-03,5.517619252204895020e-01
4.834516512333336680e-01,-4.367201564255465684e-02,-2.581871059321311224e-02,-1.720313680376048694e-03,1.136843759129910723e-02,1.099672815122365588e-02,5.191594958305358887e-01
5.138881909090486921e-01,-4.399265139385971635e-02,-3.667444476028239309e-02,-7.987918584133613109e-03,2.592230841491467274e-03,3.933048773243822023e-03,5.544906854629516602e-01
5.230790778139533526e-01,-2.244598695904798102e-02,-3.284924619781293131e-02,-4.035977206503642799e-03,6.504732492300224940e-03,-9.043699606314619917e-04,5.509621500968933105e-01
5.650650814399429400e-01,1.005654320673946001e-02,-4.776433133829849353e-02,-6.521090662945096261e-02,-7.082909898427595941e-02,5.157626772428536982e-02,6.158382892608642578e-01
5.851747244186786823e-01,6.163898508435433632e-03,-2.519273577081462823e-02,-6.558105997622877548e-02,-3.326579010560399424e-02,4.671482681677137372e-02,6.141350865364074707e-01
5.100616093826000341e-01,-4.867488017961102420e-02,-3.353598984105751746e-02,5.421707123380864989e-03,-4.981316963592265397e-03,6.724931825832484826e-03,5.515934228897094727e-01
5.363368723759602830e-01,-4.065642442111294663e-02,-3.362847759711351525e-03,3.062206209647261833e-03,-6.379545499501993941e-03,-5.945349323332268674e-04,5.594150424003601074e-01
7.181806701045465591e-01,2.010555546968353924e-02,-7.247483022476108872e-02,-7.497073502045493998e-02,7.306942212475922571e-03,2.826283379358254452e-02,7.615290284156799316e-01
5.287490791397879697e-01,-1.439951000502884271e-02,-3.628902811397397010e-02,-2.326747853664832763e-02,1.580469739923282078e-03,8.529132961121833195e-03,5.560833215713500977e-01
5.805971826948868042e-01,8.908139029815409504e-04,-4.715060093661407881e-02,-5.061830568559495119e-02,-2.829739166898512237e-02,1.319336866312119730e-02,6.138635277748107910e-01
5.824082736803666283e-01,-1.978971068940801881e-02,-4.102706012589144025e-02,-2.257520540898883682e-02,-1.125714661570564185e-02,2.649466580261307380e-02,6.163582801818847656e-01
5.207108365560839669e-01,-3.648463717227642955e-02,-2.858092943831483379e-02,-1.201666245728536149e-04,3.699105164503354356e-03,8.450405051955686741e-04,5.533250570297241211e-01
5.290656215637310478e-01,-2.708311430572291068e-03,-3.348684133808710328e-02,-7.411545533540205358e-03,6.479949456127920629e-03,-2.753171141717428161e-03,5.480981469154357910e-01
5.285673035522335805e-01,-4.651944961881768204e-02,1.695220550249845748e-02,3.813808353016162438e-03,5.430488878926201593e-03,8.365239367614477062e-03,5.464373230934143066e-01
5.490875423257615129e-01,-3.270474284156635325e-02,-2.182975382485374816e-02,1.594237746553382046e-02,-3.061081383264443404e-03,-6.466873058197315609e-03,5.772257447242736816e-01
5.297884315574407088e-01,-1.182247012543774511e-02,-3.727083227501504226e-02,9.559526776017552782e-03,-1.808827139790655228e-03,-3.894643501301611917e-03,5.550698637962341309e-01
5.266707169234298158e-01,-3.667936094892865206e-02,-3.472119347377256027e-02,1.393169343543164754e-02,1.348640268549988796e-03,-5.109470061226879106e-03,5.629653930664062500e-01
5.221644404817901153e-01,-2.919201339642615856e-02,-2.502254612755464014e-02,5.496303820256821793e-03,-2.826144885963445454e-03,-3.265253694360154956e-03,5.494170188903808594e-01
5.292236462748637349e-01,-3.533736719962599082e-02,5.624597872731895709e-03,-1.806035604109354140e-02,3.912830713728922966e-02,-4.703926659259389381e-02,5.563192963600158691e-01
5.266735337634240732e-01,-4.027745541651162053e-02,-1.658076276156267292e-02,6.532461246536005843e-03,1.170754842162433432e-02,-1.675373324484881422e-03,5.559746026992797852e-01
5.158845692626483626e-01,-3.595427859151584249e-02,-3.812711761122963838e-02,-4.035871466177577346e-03,5.673177730137569062e-03,3.103694621843808375e-04,5.530602335929870605e-01
4.983645591558816257e-01,-3.589765474183470584e-02,-4.212020081256281911e-02,9.840622535986605563e-05,4.576655057666132072e-03,9.527131135599900547e-03,5.377122759819030762e-01
5.161365927274688126e-01,-3.333260401626486624e-02,-1.230546363789558617e-02,1.833303687686519811e-03,-3.184444392849498841e-03,-1.521471160054177962e-03,5.393071770668029785e-01
5.144869919798338298e-01,-3.427829194199849550e-02,-3.766962231504977776e-02,2.609684737533932066e-03,1.315193641325842567e-03,-5.627150503535840228e-04,5.504929423332214355e-01
5.182545100741513533e-01,-2.654750803996144826e-02,-3.078016666766758558e-02,2.999644435259116171e-03,-2.196143862773183812e-05,2.820627639828979176e-05,5.469552874565124512e-01
5.176154877608764027e-01,-3.531199262136727746e-02,-3.830952914544752397e-02,2.769095465737808626e-03,-7.656305051643422146e-04,6.512446007115113913e-04,5.544558167457580566e-01
5.180640986150253369e-01,-3.040783213399528284e-02,-3.828594482835881441e-02,-7.788672261483360962e-04,2.205309244035662253e-03,-1.712310647837387559e-03,5.524759292602539062e-01
5.019948698075189508e-01,-4.713835814207292807e-02,-2.833812396587293003e-02,-8.480416185801357976e-03,-1.363840027046897769e-03,5.607657211347579895e-04,5.401843786239624023e-01
5.191466737141352539e-01,-3.373617330558101313e-02,-4.208366908029928521e-02,-2.500164947949685620e-02,7.383312985724138112e-03,-6.693254296180351122e-03,5.590505599975585938e-01
5.198460343164219566e-01,-2.790200602562040166e-02,-2.866302200094555941e-02,3.984480466023969727e-03,-3.665185431139025688e-04,-9.932132522137772129e-05,5.481727719306945801e-01
5.512570485188460490e-01,-4.929073721697951882e-02,5.994714738296214041e-03,-1.659414438164358990e-02,-1.881542639425979333e-03,2.855125682742092746e-02,5.777497887611389160e-01
2.915428185376398584e-01,-5.188102741771469240e-02,-2.438111906159144693e-02,-1.446572452541389046e-02,6.611225728959492509e-02,2.655619548340988623e-02,3.537061214447021484e-01
3.668007890070023036e-01,1.693045847874760645e-03,-2.037321301794733919e-02,1.569277022427942314e-03,2.893405858936966280e-02,6.713990449602923877e-03,3.801332712173461914e-01
4.665249020002688041e-01,-2.259697906792804134e-02,-4.317046191388362875e-02,-6.823210441131839733e-04,1.260461590073253674e-02,-8.283715987000695238e-03,5.004101395606994629e-01
2.426757144033721558e-01,3.671127633183307593e-03,1.161194774643364847e-02,-3.608725947118381072e-02,-1.883132997837099658e-03,-3.396654020732787268e-03,2.433936744928359985e-01
3.863707201289405813e-01,-2.096095742053050159e-02,-1.517083458381868200e-02,-3.404903804601367443e-04,-1.461763192499737629e-02,-1.148983592011361236e-02,4.057481288909912109e-01
4.256484441973694133e-01,-2.325711494912957589e-02,-3.382966454311450710e-02,-5.867994637393092049e-05,-1.860020618565959294e-02,-1.366778867234968824e-02,4.560399055480957031e-01
3.333251638079980372e-01,2.070679585087692454e-03,-9.001674980218948852e-03,-1.869240187131796481e-04,-3.091596368781774837e-02,-7.914414103409525558e-03,3.414312601089477539e-01
3.472883180857895269e-01,1.932054632557717033e-03,-1.563025303795548271e-02,-1.314829973611144481e-02,-7.656059009171795483e-04,-4.740131311923054952e-03,3.552920520305633545e-01
3.795343603073438876e-01,2.196427178158683047e-04,-3.320334145016839988e-02,-8.309901756442540297e-03,-3.392806714590312217e-02,-2.754855023435524852e-03,4.016937315464019775e-01
5.237895340139466782e-01,-2.542453351357740199e-02,-3.255373786251880563e-02,3.008890190484705875e-03,-1.685160960151619453e-02,4.763353894708049520e-03,5.536691546440124512e-01
5.265288438062055709e-01,-4.433521229347092696e-03,-1.973771860707204673e-02,2.795185447532313669e-03,-4.321524250213775245e-03,1.658791382961389074e-02,5.396166443824768066e-01
5.207145662788756901e-01,-2.443378735781398525e-02,-1.458218814068551472e-02,2.069276069649195367e-03,-3.461960970384136038e-04,9.732282249546874570e-03,5.405650138854980469e-01
5.425224779144521836e-01,-1.315178163809765932e-02,-1.902165324929547263e-02,-6.811152084124453936e-03,-6.882535622727076023e-03,2.268916323170146535e-02,5.602639913558959961e-01
5.238069413829831156e-01,1.230311501639519411e-02,-3.292538109919893041e-02,-2.028730320118026995e-03,-3.526987108312709587e-03,8.518022185281481223e-03,5.358018875122070312e-01
5.157236044000973463e-01,-1.972318205016085346e-02,-2.600071475450543845e-02,3.556282356165476905e-03,3.873629041079088876e-03,4.592887780838076847e-03,5.387487411499023438e-01
5.185680407868298314e-01,1.900338541944782134e-02,-3.037772727716919752e-02,-1.000753441040110091e-03,-1.400743857689726616e-03,1.432222338048611335e-02,5.265896320343017578e-01
2.211389489253912377e-01,-4.612002825418896890e-02,1.717218427069801961e-02,-6.612072951304509560e-02,-3.534079693290501090e-02,9.183588399392270465e-03,2.750157117843627930e-01
3.155911874359957348e-01,-4.434974219052659206e-03,-2.422055119066296447e-02,-2.236037669307933129e-02,-6.478311713932112526e-02,-3.646453871259545433e-03,3.510990142822265625e-01
3.641303328422995644e-01,-2.510150794209498049e-02,-2.389668958234128504e-02,-2.710735600210223417e-02,-5.255637262050183445e-02,-6.156470701418592303e-03,4.020429849624633789e-01
2.645539161399007022e-01,-7.373779103844443905e-03,-2.449918655530403111e-03,-4.214685488822382531e-02,-7.195769231213298978e-02,-9.105484372043568322e-03,3.061723709106445312e-01
3.570037485172411484e-01,-9.430568669072755816e-03,-3.247389940603878644e-02,-3.935143462035173290e-02,-3.594140575319024894e-02,-1.388707045335661923e-02,3.903184533119201660e-01
2.805359250358180900e-01,1.274511321358835769e-02,1.119964968164584296e-02,-8.128428951637997613e-03,-2.704177902270904574e-03,1.176953563137732523e-03,2.689841687679290771e-01
2.282789340128928424e-01,-2.603697635470261784e-03,3.948665982272073216e-03,-1.774293141162911966e-02,-5.091143794443483972e-02,-6.048723633847208001e-03,2.463067471981048584e-01
1.362976395432846655e-01,2.218336627774461500e-02,-6.834957431968492758e-02,-6.272975564285515615e-02,-4.902132952248870051e-02,2.757294120111540917e-02,2.298793643712997437e-01
1.277814901103456191e-01,5.443488481948109692e-03,4.560063293189628442e-04,-8.033186544400622298e-02,-3.654253751528574456e-02,-6.390563038358553459e-03,1.977114975452423096e-01
5.413905884680054736e-01,-5.081679567360122829e-02,2.715942320109346331e-02,2.174563882315357945e-03,1.030791536267908030e-02,1.651588791980416332e-02,5.583574771881103516e-01
5.273503344728545095e-01,-3.763969742138204011e-02,-4.016672050919062320e-02,6.069395921197487213e-03,1.707339970629775938e-02,-9.399258019401867878e-03,5.673604607582092285e-01
5.148954707703030653e-01,-2.790839343618839452e-02,-3.118697370545789327e-02,-3.751963781416396086e-03,8.535667896719055167e-03,-4.471036803315306049e-03,5.447450876235961914e-01
