sxx,syy,szz,sxy,sxz,syz,smises
0.000000000000000000e+00,0.000000000000000000e+00,0.000000000000000000e+00,0.000000000000000000e+00,-7.596454196607839156e-67,-1.139468129491175808e-66,0.000000000000000000e+00
