sxx,syy,szz,sxy,sxz,syz,smises
8.530365912254228578e-02,8.530365912254228578e-02,-6.547033182450832101e-01,3.055788775111400134e-51,1.411825245922416755e-51,1.411825245922416755e-51,7.400069832801818848e-01
