sxx,syy,szz,sxy,sxz,syz,smises
2.604740621558859770e-01,2.127725627174771872e-01,2.079835523768803207e-01,-1.485997201267138558e-03,-4.855874671950480542e-04,-3.638717418504708312e-02,8.066115528345108032e-02
2.679008117758711616e-01,2.003071818292604389e-01,2.260159671578605423e-01,-4.743296161658832298e-03,-5.641776208808780418e-03,-3.422689976313914723e-02,8.467300236225128174e-02
2.858643639481948107e-01,1.876522182639240588e-01,2.012611433080325196e-01,-1.929106372343454209e-02,-7.482417526387321639e-03,-5.372706282329520189e-02,1.357882618904113770e-01
2.789881048034923428e-01,1.968194633139240535e-01,2.174831977644650916e-01,2.470693409064478839e-03,1.088387462308930929e-02,-4.524807994952849410e-02,1.095290854573249817e-01
2.727838525770123201e-01,2.163388871686840464e-01,2.111109245201667484e-01,7.198235801115816790e-03,4.681424086493831196e-03,-3.425654179995854531e-02,8.514799177646636963e-02
2.191966040668704152e-01,2.229846963417616568e-01,2.568706184968364004e-01,-1.878760659799992225e-02,-8.174102544736628131e-03,-1.052871515142566813e-02,5.369264632463455200e-02
2.134194640874612359e-01,1.840262385738391515e-01,2.665965682576197371e-01,-4.044916231537854651e-02,-1.308735162266897595e-02,-1.805322344344560681e-02,1.079574450850486755e-01
2.133643589397922202e-01,2.084165599269511282e-01,2.543741430090973865e-01,-4.303782619565064971e-02,-1.465253122119269252e-02,-2.861777545015570939e-02,1.027957946062088013e-01
2.190966524607015076e-01,2.167253944728726733e-01,2.518832866790233771e-01,-1.767566855545853882e-02,-8.796114251125600192e-03,-4.474641149524016988e-03,4.886513948440551758e-02
2.217877946439066328e-01,2.075035055027425746e-01,2.532980407307683923e-01,-2.478104713434747114e-02,-1.289077544405353715e-02,-7.551880205704731425e-03,6.448990851640701294e-02
1.971992662877495861e-01,2.162500456308307228e-01,2.547312714519581744e-01,-3.314053599888872742e-02,-1.767985019953700193e-02,-1.440712379249386825e-02,8.620990067720413208e-02
2.107400342558388151e-01,2.241787741664650058e-01,2.605895977831768628e-01,-4.128249409693144495e-02,-3.291678635829965033e-02,-2.040386904205607546e-02,1.077399402856826782e-01
2.136808972005369289e-01,2.224388620770273439e-01,2.676782937553403019e-01,-4.290788629554762729e-02,-1.423315927676061660e-02,-1.338662176527739139e-02,9.585471451282501221e-02
2.136752032278558810e-01,2.198563329726656856e-01,2.598332887575108829e-01,-2.589753368428584016e-02,-3.508778459877156478e-03,-4.598555928964516253e-03,6.321303546428680420e-02
2.226254097638747098e-01,2.165564316478836293e-01,2.526010605876004567e-01,-1.743120158176725623e-02,-7.221701936173486464e-03,-4.401012892586364349e-03,4.736454039812088013e-02
2.122119650204904451e-01,2.362976370630717748e-01,2.450983548062316553e-01,1.545182599730163253e-02,-1.151227115042743540e-02,8.873704640207820404e-03,4.711311310529708862e-02
2.305509585133000139e-01,2.349276008876625133e-01,2.456172873533797596e-01,1.238085346104060049e-02,-2.413829020698336856e-03,1.041315899027804928e-02,3.135039657354354858e-02
2.338997754518823136e-01,2.218843036866562368e-01,2.533007778501198959e-01,1.628393806562445853e-02,-6.038167357422467157e-03,1.066232117506655044e-02,4.471930488944053650e-02
2.255808028000728382e-01,2.289356629349228733e-01,2.438532642643131132e-01,9.625826008051611982e-03,-6.397947656130783568e-03,5.137871126486415543e-03,2.763693779706954956e-02
2.360618745321152179e-01,2.265138926017212229e-01,2.516018273096228275e-01,1.077313104773332600e-02,-2.980449289845882570e-03,1.045896595349609520e-02,3.440972790122032166e-02
2.359332542905129559e-01,2.258155924670806891e-01,2.441301430396616567e-01,1.056905864702689310e-02,-3.323080770217404136e-03,6.951666429647186327e-03,2.767146565020084381e-02
2.317918863041897592e-01,2.227861087668173423e-01,2.448100014307106331e-01,1.644278235369755689e-02,-9.786586285695871371e-03,1.262248609630732023e-02,4.409333318471908569e-02
2.318397514648330437e-01,2.218195271314540029e-01,2.420886101809489876e-01,1.619476974961756022e-02,-1.082764913392851407e-02,1.070761245629035449e-02,4.231576994061470032e-02
2.594746909164693527e-01,2.155136172753324975e-01,2.341973922445312328e-01,4.398512808319206095e-03,7.592908234962931699e-03,1.091294722090960928e-02,4.526118934154510498e-02
2.526570046613300091e-01,2.291601954346841330e-01,2.303044364233106933e-01,4.627855951017832356e-03,-4.631490316844469432e-04,1.466902211150935414e-02,3.517042100429534912e-02
2.576098323626903053e-01,2.293869099098482522e-01,2.285909355218820327e-01,1.172820332825274571e-02,-8.693436579158565422e-03,2.572972457344991498e-02,5.869469791650772095e-02
2.698198906527636276e-01,2.248031516148144282e-01,2.352742000320523497e-01,1.146786294788128789e-02,9.140326454608195539e-03,3.400228605049734204e-02,7.601588964462280273e-02
2.575793298970526779e-01,1.995661582346635876e-01,2.346115840321821022e-01,-1.404636781103086847e-03,-1.348342596616497295e-03,-4.289956687296674585e-03,5.125619843602180481e-02
2.812254572954765997e-01,1.979674819908024963e-01,2.201353028055048899e-01,1.040249755274969164e-02,1.423578683118759255e-04,6.338627110951064458e-02,1.339992880821228027e-01
2.554865956999690102e-01,2.193688825379042640e-01,2.219594263984877025e-01,-4.797737215964818563e-04,1.747427828737215536e-03,-6.734927410006045535e-03,3.692647442221641541e-02
2.616942446988265170e-01,2.207634100835188795e-01,2.301060486630315260e-01,1.709094658149551763e-02,-3.662215379494948402e-03,4.087552902714863129e-02,8.549374341964721680e-02
2.585790436094035916e-01,2.062678014270243332e-01,2.345552263526870240e-01,-2.587321954334111801e-03,6.794536013862316134e-03,3.136481531888132140e-02,7.187996059656143188e-02
2.321414982346237943e-01,2.576440296372145000e-01,2.242173646095267647e-01,-4.152358143100400435e-04,1.882728241169582400e-02,9.068434032912124632e-03,4.717926308512687683e-02
2.196897184803860426e-01,2.488093817783118278e-01,2.283771321142439858e-01,-6.180954598329945274e-03,1.042793952064920496e-02,5.599761797116641765e-03,3.471831977367401123e-02
2.298898045926317524e-01,2.508467687227448062e-01,2.181626739475173160e-01,-1.695016815979807955e-03,8.029568029406004490e-03,1.974848887225688718e-03,3.219046816229820251e-02
2.334371573885303253e-01,2.502698610331083318e-01,2.182520607730886464e-01,-4.242990191791838790e-03,7.624365166333350874e-03,2.158597932973770669e-03,3.181058913469314575e-02
2.423581290356950357e-01,2.603749119520143429e-01,2.134140954297411019e-01,-7.102421270795375202e-05,1.957822434363582983e-02,1.166553145266134052e-02,5.693882331252098083e-02
2.337822013169291446e-01,2.319177508813810018e-01,2.383923727557909211e-01,6.686946068357495969e-05,1.615010424141209841e-03,5.609009744898925615e-04,6.489014718681573868e-03
2.441059513166641548e-01,2.563776053788376919e-01,2.198250786713241978e-01,-5.894219079008934832e-04,1.568598420917656847e-02,9.591748468578027709e-03,4.531355574727058411e-02
2.397850473881313893e-01,2.284744411537470987e-01,2.358503438863448487e-01,5.117436703682735726e-03,5.745713526962107146e-03,-6.304924738403055659e-03,1.989392377436161041e-02
2.478348403851119985e-01,2.216512741455665680e-01,2.296792165649824413e-01,1.174060926256968035e-02,1.301229333476984322e-02,-1.276835379199697286e-02,4.416338354349136353e-02
2.530220591934684848e-01,2.201480816381650163e-01,2.166581849147339867e-01,-1.540248952742232901e-03,-3.457989824855123512e-04,-3.481774911238649621e-03,3.537581861019134521e-02
2.309921210305548589e-01,2.480721499663517959e-01,2.266705420338310240e-01,-1.773903812552990022e-03,4.007955496661456431e-03,3.403402034338236497e-03,2.183109894394874573e-02
2.467355663243039621e-01,2.353822173537466478e-01,2.209409644337003709e-01,1.202897390825512051e-02,1.032546508808583272e-02,-9.469972520865200041e-03,3.904331475496292114e-02
2.472131914580305845e-01,2.375613301979367653e-01,2.286580683450731843e-01,1.104326510692280570e-02,1.430061745433318550e-02,-1.582233571821162546e-02,4.459576681256294250e-02
2.544258760149608611e-01,1.813576830203003087e-01,2.619074832207826109e-01,-1.114401899613663358e-02,-3.142178349376880970e-04,-9.930868843144625979e-03,8.130395412445068359e-02
2.474308477328806544e-01,1.896613237616722736e-01,2.612170845283854903e-01,-6.797885493915379988e-03,-2.495880022914578455e-03,-8.579849006407727283e-03,6.857088208198547363e-02
2.348764133498897066e-01,1.912110655512997137e-01,2.627595302684647693e-01,-1.291499063588662233e-02,-2.552923762954522821e-03,-5.896361580285109164e-03,6.727481633424758911e-02
2.582919661420880475e-01,1.649112633549684181e-01,2.673258031233447518e-01,-2.389477584662429155e-02,9.239404004989459039e-04,-8.341756312329336523e-03,1.075609028339385986e-01
2.488554056706777651e-01,1.825971668640939405e-01,2.641387951822126157e-01,-4.851972270167568407e-03,2.237728827010493100e-03,-2.172137215020417469e-03,7.573762536048889160e-02
2.313205585104326778e-01,2.421998667522266280e-01,2.315154336729216833e-01,-1.085647837238207063e-03,9.228307427903807703e-04,6.320187074757945608e-04,1.111603807657957077e-02
2.400565340042919715e-01,1.726806069532539900e-01,2.668688052674760836e-01,-2.298304094869627057e-02,3.528584224385267068e-04,-3.996034698536369244e-03,9.326228499412536621e-02
2.512700185738058756e-01,1.676709253393019461e-01,2.677765182556826606e-01,-2.407931753418957391e-02,4.203915210894702652e-03,-5.883052772812035446e-03,1.026522815227508545e-01
2.496451602959207927e-01,1.860508164528536512e-01,2.651596601789928953e-01,-7.034737249202600504e-03,1.356871293928492385e-03,1.331794833651418373e-04,7.365876436233520508e-02
2.225770498431225985e-01,2.256244337548008183e-01,2.539871821327799317e-01,1.740183332477622524e-02,1.284233379016857385e-02,-6.445415102367502841e-03,4.927517101168632507e-02
2.102200126576479478e-01,2.193987557075407768e-01,2.643083433879285793e-01,2.999663341268531819e-02,1.400916665191736209e-02,-4.351779013257321520e-03,7.653961330652236938e-02
2.226933825884225837e-01,2.270373083726776597e-01,2.470862650643756431e-01,1.573280116338704460e-02,1.262145590806516143e-02,-1.410639887066291072e-02,4.822198301553726196e-02
2.510491823861348837e-01,2.177636821736087525e-01,2.640994466021914788e-01,3.874945512338973802e-02,2.472270623885074528e-02,-5.767456791900799941e-03,9.028071165084838867e-02
2.470041307286509891e-01,2.069889464686802405e-01,2.470842814475082139e-01,3.275494031535868683e-02,1.659336680190648741e-02,-1.887808668466053191e-02,8.196494728326797485e-02
2.407289252061177165e-01,2.242906262404884277e-01,2.543827615305584988e-01,2.345346174341437009e-02,1.521572742145394300e-02,-5.780005664230658709e-03,5.591123178601264954e-02
2.094283915348335023e-01,2.572515834078799024e-01,2.290977165737410337e-01,2.609036983601071159e-03,-6.018840173581539027e-03,4.658253772064927835e-03,4.390317201614379883e-02
2.347879797340213237e-01,2.183473276298806276e-01,2.460445726416881917e-01,-4.902278310924980571e-03,7.275929171189573358e-03,3.009106568188315515e-03,2.898534573614597321e-02
2.190390996301847526e-01,1.978456255081350867e-01,2.550596929355820053e-01,-2.577640594779568792e-02,2.575585547362215910e-03,1.547808486592785289e-03,6.730828434228897095e-02
2.339247129169496897e-01,2.304421208307994573e-01,2.486871762983773326e-01,-1.726792135219184371e-02,1.336949452715800561e-02,1.677838552158331456e-02,5.056467652320861816e-02
2.198911517155022755e-01,2.189908536055777399e-01,2.489164080410000146e-01,-1.546326108417344497e-02,5.653563903449087581e-03,5.513346574383795433e-03,4.211679100990295410e-02
2.056130883203924620e-01,2.549468152001020949e-01,2.224340450158826810e-01,-1.324585261514232880e-03,-8.208481277208934737e-03,-1.801282212818054382e-03,4.586998745799064636e-02
2.359893285957507802e-01,2.185176926078909176e-01,2.493517595070992299e-01,-7.466346879056971753e-03,4.397130447001165211e-03,4.724619884650406963e-03,3.177240118384361267e-02
2.279496173444845453e-01,2.308989854395446240e-01,2.534261004906905868e-01,-1.454436276957523158e-02,6.427459086444895463e-03,1.525948849317020073e-02,4.516324400901794434e-02
2.326655842240090422e-01,2.146215201345900159e-01,2.511931215137978013e-01,-1.104118523118956426e-02,7.772624335929107994e-03,9.046471715971365901e-03,4.237511381506919861e-02
2.340017672282040939e-01,2.334465067710363717e-01,2.405756966777045092e-01,1.071086891762047368e-07,1.414378696701857870e-03,-1.179288673693824592e-03,7.572890724986791611e-03
2.358327327242538685e-01,2.296106757482116456e-01,2.432675767686167667e-01,8.891158731598331963e-03,6.832439741996394061e-03,-4.239301177197895253e-03,2.390336245298385620e-02
2.358207833332806869e-01,2.305149914713686687e-01,2.440791274795551247e-01,5.910215937947496494e-03,5.847905092252231492e-03,-2.897172291888406182e-03,1.930635794997215271e-02
2.340216736268995179e-01,2.356319238125608173e-01,2.426448288453446622e-01,6.505993005049973306e-03,7.515148961365705066e-03,-4.051154559922277333e-03,2.021677605807781219e-02
2.241587072927291036e-01,2.312979029217488991e-01,2.400066515912935849e-01,5.148646459738729503e-03,3.802556984338261413e-03,-7.120560865632375412e-03,2.154054492712020874e-02
2.308964491779917916e-01,2.193866271426925252e-01,2.427574779822836426e-01,1.671078230912487542e-02,1.020966106337961241e-02,-7.413940805190295455e-03,4.153360426425933838e-02
2.733172488963558910e-01,1.984569102220485326e-01,2.129276916674691100e-01,2.838501164702351628e-02,2.016652715765714435e-02,-4.831011126158742813e-02,1.239716932177543640e-01
2.348840054564447777e-01,2.466365670132397159e-01,2.239865725637212868e-01,3.391233096878022539e-03,9.554567095718181132e-04,-1.063107943216401018e-03,2.062959410250186920e-02
3.455744749540363148e-01,1.454520997341507416e-01,2.088596354057356552e-01,-1.593344878417396818e-02,-8.127493104868647143e-04,-9.106662646902605185e-02,2.387953400611877441e-01
2.604404641956126198e-01,2.173859384739884049e-01,2.314807739809528753e-01,1.883882412116326399e-02,2.039567165403058380e-02,-2.626680792146769000e-02,7.634133845567703247e-02
2.710807284020188002e-01,2.159279959301834140e-01,2.065448960905602038e-01,4.257249222216741812e-03,-6.365834810604777214e-04,-3.588854009642582915e-02,8.698804676532745361e-02
2.578849933138051553e-01,2.187890391674798818e-01,2.302703014079074129e-01,9.665779564865747270e-03,1.161741281761409679e-02,-2.622066490469448022e-02,6.292206794023513794e-02
2.581440425203498368e-01,2.158960147868262403e-01,2.179611118774286982e-01,1.413268372417406452e-03,7.003506639608500332e-03,-2.957137011609053956e-02,6.692123413085937500e-02
2.319505229807597713e-01,2.334302677187913566e-01,2.414249521662617526e-01,1.517516985556311478e-03,1.350718655821425045e-03,-1.419122971062974426e-04,9.506683796644210815e-03
2.492966710281551701e-01,2.320789436445567233e-01,2.256784375708694168e-01,5.603676243575651111e-03,-3.752841866286498948e-03,6.773615267404966417e-03,2.686483599245548248e-02
2.491629138027928736e-01,2.299463058315458219e-01,2.290911772909197952e-01,3.102465536394081926e-03,-3.565940002049724404e-04,4.957928263373270576e-03,2.212334610521793365e-02
2.547049069702228552e-01,2.242184353271284292e-01,2.224637060448153292e-01,6.437250741750664626e-03,-3.589681550832894003e-03,1.093132840061833942e-02,3.882593661546707153e-02
2.216278334557690577e-01,2.185258530708857061e-01,2.566563039068223695e-01,-2.028210545132334841e-02,-8.059646100490850187e-03,-1.338407791749346085e-02,5.754684656858444214e-02
2.255384353570699107e-01,2.147156578867384369e-01,2.497233859705360604e-01,-2.882844485308329319e-02,-2.091824947109275842e-02,-1.920042703568554041e-02,7.665324211120605469e-02
2.261727945181578880e-01,2.344133103491573000e-01,2.491473016252509221e-01,1.983839308734866493e-03,1.386880259379548713e-03,-7.782784184504428935e-04,2.063508145511150360e-02
2.364687164355053495e-01,2.331907366001036708e-01,2.353224020604222644e-01,-5.093782601438172960e-04,1.077895107179009963e-03,7.171792468667981920e-06,3.544815815985202789e-03
2.254250226427224335e-01,2.534139337082400023e-01,2.259243298414031209e-01,-2.434755461203881588e-02,-3.528194534202439697e-02,-2.538467302443272663e-02,9.064025431871414185e-02
2.128834443871094328e-01,2.289597235081576865e-01,2.220496791196086561e-01,-2.759136492385525982e-02,-2.851637416192007168e-02,-2.651499732588752378e-02,8.383104205131530762e-02
2.247537293983815354e-01,2.271754550162810304e-01,2.234634464393360220e-01,-1.626008714832896662e-02,-1.862275407157547649e-02,-1.356165692253441003e-02,4.894897341728210449e-02
2.231690822411905029e-01,2.354802863545831515e-01,2.238615819749813773e-01,-1.937114785776175921e-02,-1.953265551082638413e-02,-1.884056926336211829e-02,5.898066610097885132e-02
2.422970861581386637e-01,2.082723079657036180e-01,2.578098152579735847e-01,4.400673602042398484e-03,2.875242312006549145e-04,1.410091827989142128e-03,4.461455345153808594e-02
2.171408851360761283e-01,2.209926270410836058e-01,2.497510588277613020e-01,-3.011081916140247085e-03,-1.383802528628162026e-03,-1.765447641668211253e-03,3.154280036687850952e-02
2.081828697861181354e-01,2.411583013223979610e-01,2.266700245155540139e-01,-1.436001523447964605e-02,-1.552569734334098561e-02,-1.413269390472174716e-02,5.254048854112625122e-02
2.091855808711703402e-01,2.470974036680267383e-01,2.177007341522946837e-01,-1.746962233419865548e-02,-2.968044383677866799e-02,-1.697367626529200368e-02,7.489763200283050537e-02
2.368350924522302781e-01,2.365826776947486665e-01,2.227807623929768388e-01,-1.539018652883155855e-02,-1.735400472176223605e-02,-1.768732658965265631e-02,5.240823328495025635e-02
2.176967290936450694e-01,2.338077111620674997e-01,2.245182318590140946e-01,-1.639841532911207392e-02,-2.024796393501964581e-02,-1.866186215535775572e-02,5.725080892443656921e-02
2.230378867622186678e-01,2.495218393295726700e-01,2.223271681299997804e-01,-1.106978574022027609e-02,-2.003074533761466103e-02,-1.018292946210606377e-02,5.102074518799781799e-02
2.259661111401213840e-01,2.251483171228970126e-01,2.303820685355719433e-01,-1.748810862809781555e-02,-1.566490214176507675e-02,-1.535997599220708179e-02,4.883888363838195801e-02
2.236812607548235854e-01,2.243308299717294285e-01,2.416208937583271821e-01,-1.908902443784714006e-02,-1.467203323460120751e-02,-1.628639332557839034e-02,5.334151536226272583e-02
2.195524220504890267e-01,2.086802125008495601e-01,2.373150852411275435e-01,-3.084268505614481265e-02,-2.645696880182181118e-02,-2.463107875181126671e-02,8.602693676948547363e-02
2.358461070296374307e-01,2.261282387953909845e-01,2.214875461186308903e-01,-1.244057502246378663e-02,-1.414407279646390063e-02,-1.504898764250709939e-02,4.364578798413276672e-02
2.845641939262371078e-01,2.059347460708876587e-01,2.051176814269613513e-01,4.657700451572251675e-03,7.289929403979222150e-03,-4.113288881159854471e-02,1.074604988098144531e-01
2.988860146050025812e-01,2.215655659199990968e-01,1.455155557625909535e-01,2.432422113274730971e-02,1.928050923204348288e-02,-9.119365093682046952e-02,2.132635414600372314e-01
2.779932024072424568e-01,2.366554627361840135e-01,2.030999172216453319e-01,1.786937093816478098e-02,1.662551379389260939e-02,-3.612006126800521716e-02,9.961444139480590820e-02
2.866654599426016192e-01,2.075350359249552579e-01,1.945231668144328518e-01,9.938544182578326266e-03,6.556912443240657529e-03,-8.013842244847117768e-02,1.647797673940658569e-01
2.630841137963551568e-01,2.112668649448368463e-01,2.030300912738902397e-01,1.369989136511231935e-02,1.251657564934596616e-02,-4.114644681310435093e-02,9.639410674571990967e-02
2.627812948723803887e-01,2.283653097158882816e-01,2.231546724249091618e-01,1.158798474595710074e-02,1.000627406534026695e-02,-2.277998750380421170e-02,6.042304262518882751e-02
2.629188813080037823e-01,2.369886289897762677e-01,2.030530760158606451e-01,1.095652360561230089e-02,1.109123338176924885e-02,-3.584848217570302947e-02,8.537259697914123535e-02
2.525537036851242534e-01,2.174719736220173394e-01,2.079042956665977937e-01,2.460238770855785809e-02,2.835077657820487054e-02,-3.604718444234455976e-02,9.891030937433242798e-02
2.390351178677001531e-01,2.215931380236911274e-01,2.298381554181099795e-01,1.196702152499116122e-02,1.302886175183593474e-02,-1.266488737059148426e-02,4.060140624642372131e-02
2.568303028088808615e-01,2.237309140907743910e-01,2.440594626471205841e-01,1.907650088870260774e-02,1.392974063544606851e-02,-1.472857153812697287e-02,5.621922388672828674e-02
2.396316411447590722e-01,2.303590503269929146e-01,2.420058097260075480e-01,1.716895437869951635e-02,1.037115022377187168e-02,-1.207504275779096303e-02,4.192914813756942749e-02
2.281226327355586891e-01,2.176844023606677725e-01,2.414084670429720858e-01,3.553689837431876081e-02,2.728352200161050789e-02,-2.139448078117044821e-02,8.842571824789047241e-02
2.662626630470181777e-01,2.107105141340222532e-01,1.962553294509282731e-01,-2.145062576634786458e-03,-4.243356913915294348e-03,-3.803224009169764441e-02,9.222356975078582764e-02
2.647275091200895214e-01,2.058082972249477005e-01,2.053513813090110107e-01,1.045261941151133349e-02,9.827081805733358169e-03,-4.079500356982249804e-02,9.543996304273605347e-02
3.280110136449001512e-01,2.098559778851966096e-01,1.840990528623622502e-01,8.186518174273793580e-03,5.990985898699596746e-02,-9.132688565807106640e-02,2.316414713859558105e-01
2.689301575818016099e-01,2.057728317985162703e-01,2.259299168630160282e-01,-5.670318087346356423e-03,-3.667692416508543107e-03,-3.457572783680906703e-02,8.273659646511077881e-02
2.845034533534652188e-01,2.301409117806420823e-01,2.037008725033585543e-01,-2.732433783421500889e-04,-1.232064891945051227e-02,-5.402687784868782234e-02,1.195994913578033447e-01
2.791672265703870059e-01,1.946063644165168804e-01,2.033596298821852555e-01,-1.449314084564522556e-02,-9.268529170441257639e-03,-4.856216760765996038e-02,1.202068999409675598e-01
2.435970586090241419e-01,2.292931633914484790e-01,2.116071805761708946e-01,-1.116049246602298164e-02,-9.547093186462331238e-03,-1.329774651226586432e-02,4.413586854934692383e-02
2.431288788587566974e-01,2.141404567593527541e-01,2.290765123279215609e-01,-8.563573913799917350e-03,-8.082670684285520740e-03,-1.106877182499940368e-02,3.760303184390068054e-02
2.447090241336103977e-01,2.292135573361984147e-01,2.137685573972723518e-01,-1.062306397959309270e-02,-1.843859474770388404e-02,-2.279904194569511849e-02,6.029815599322319031e-02
2.350378953381671576e-01,2.324928083704927428e-01,2.315112933148717467e-01,-9.264750121282255488e-03,-8.295584802605995497e-03,-1.042945806268715317e-02,2.828809991478919983e-02
2.353007798590721622e-01,2.202655218695357686e-01,2.310415613129709611e-01,-7.456766339248115799e-03,-8.347643050665815370e-03,-7.920041156137791125e-03,2.728006802499294281e-02
2.440018596165688392e-01,2.085157218532496248e-01,2.283769132181454886e-01,-1.225036145278418122e-02,-1.210608450551502527e-02,-1.423198955000801527e-02,4.946180805563926697e-02
2.214487389406428752e-01,2.454903597763876399e-01,2.222682550709464133e-01,-3.284813047573383309e-03,-4.761577335611486862e-03,-3.146868621450876584e-03,2.625004388391971588e-02
2.311494446081517051e-01,2.291959668367674341e-01,2.176639675470415369e-01,-1.248336577189375005e-02,-1.227992577179054870e-02,-1.162663194906105209e-02,3.853257372975349426e-02
9.573674894830183635e-02,2.742324007509872597e-01,2.931770740893516192e-01,3.129613278530892634e-02,-6.188675697263837198e-03,1.790379064122315372e-02,1.990377306938171387e-01
2.262907951996692146e-01,2.173495579915994680e-01,2.284927978295151763e-01,-2.052413013016995622e-02,-1.812510137042507366e-02,-1.978893941374902307e-02,5.940174311399459839e-02
2.562177318511277835e-01,2.246242893153153064e-01,1.954267715706320685e-01,-3.249723846023322427e-02,-2.760544742256841599e-02,-5.218277217454406897e-02,1.280492395162582397e-01
2.553354488376000098e-01,2.217434705405705309e-01,2.202501558679018090e-01,-2.362483278692887809e-02,-3.040574126973822483e-02,-4.669829631348271920e-02,1.103219464421272278e-01
2.646925105144284918e-01,2.255264273185157708e-01,2.181306475813000745e-01,-1.164014530039863583e-02,-8.345264366193821601e-03,-2.718051398085101142e-02,6.863012164831161499e-02
2.570341580058397302e-01,2.056165749973226098e-01,2.224799408951716739e-01,-1.358988843470917973e-02,-7.206693610686375727e-03,-2.813715247951536352e-02,7.173583656549453735e-02
2.493173150668621108e-01,2.077895773623099629e-01,2.206945323666486547e-01,-1.301744616291637159e-02,-1.279831555748318396e-02,-1.962139461123529882e-02,5.924463644623756409e-02
1.609568319015452498e-01,2.820952316442386643e-01,2.655523008471500357e-01,4.348024165649524986e-02,6.166679899857108182e-02,-3.277446205471872421e-03,1.733678132295608521e-01
2.410477225649268196e-01,2.092368736099393389e-01,2.261233252063122867e-01,-1.305764181473693594e-02,-1.619978896656332559e-02,-1.647351532617076855e-02,5.359893292188644409e-02
2.368492496517710377e-01,2.100425493504748942e-01,2.267797567148338855e-01,-2.312696350338813017e-02,-2.411113667682986822e-02,-2.834995603113839649e-02,7.943446189165115356e-02
2.520477697774146097e-01,2.217313589218874170e-01,2.099588862357048835e-01,-1.629513296238695522e-02,-2.192999783853476561e-02,-3.150591295665321895e-02,8.143593370914459229e-02
2.300576591091213485e-01,2.558834654789636232e-01,2.288505469751966892e-01,-5.301301261759910205e-03,1.662828045217063649e-02,5.193097265164071941e-03,4.116211086511611938e-02
2.297314068796683928e-01,2.570912406191030453e-01,2.147622698886191006e-01,-6.616425665828220247e-03,2.149701857057513890e-02,1.017241617675555300e-02,5.665967985987663269e-02
2.309239255014527148e-01,2.555646355687829496e-01,2.283492298774480456e-01,-6.327163425177284237e-03,3.097711935703571090e-02,7.398572061595311278e-03,6.197013333439826965e-02
2.276493649899867522e-01,2.450945406496597978e-01,2.271540859502237109e-01,6.067925194042800979e-03,-9.064549331793146647e-03,7.489317389071936670e-03,2.895594201982021332e-02
2.346099483085380688e-01,2.556929914404644788e-01,1.984018059269859191e-01,9.029654680276182413e-03,-1.933693146871889174e-02,1.085874154683316196e-02,6.510755419731140137e-02
2.349553839523844945e-01,2.459234567953809680e-01,2.321365862411541858e-01,1.338769632420715346e-02,-1.199693927565912907e-02,1.129433035987889231e-02,3.887566924095153809e-02
2.311173258152193211e-01,2.498439787633063847e-01,2.219663745242447805e-01,1.318323350932353553e-02,-1.932941518076842016e-02,1.503828947153000584e-02,5.409728735685348511e-02
2.254445657988067286e-01,2.404060055231923843e-01,2.109394874597208813e-01,2.067236861085222296e-02,-2.941687716391183649e-02,3.103235009994596144e-02,8.613000065088272095e-02
2.321638883779738594e-01,2.431519310200030426e-01,2.246399860117493652e-01,9.118513526126002106e-03,-9.413806183387231005e-03,1.044550448371745627e-02,3.320611268281936646e-02
2.324087739005226694e-01,2.413393072779226045e-01,2.327231892474956598e-01,9.510709311971423524e-03,-8.429913648257313097e-03,1.384900052878224215e-02,3.371914848685264587e-02
2.401587657857981173e-01,2.569287590344030425e-01,2.195753016920762579e-01,1.260595326412239543e-02,-1.792515076907407606e-02,1.747760014563562447e-02,5.837087333202362061e-02
2.318140909913680159e-01,2.423707470605013514e-01,2.225044534884720038e-01,8.581908224939161986e-03,-1.063823666635284847e-02,9.056525355757997012e-03,3.321018815040588379e-02
2.257914264992274822e-01,2.581929407862272319e-01,1.977420004998948766e-01,-1.627653399556827293e-02,-2.300264042632809564e-02,-1.082692658320652535e-02,7.402215898036956787e-02
2.236684930020642892e-01,2.432771864883138679e-01,2.043299468360778304e-01,-1.531713061956757604e-02,-2.102437517725475741e-02,-1.473831165855584227e-02,6.180011108517646790e-02
2.401099722877022558e-01,2.598795619563434856e-01,1.950398023726939156e-01,-2.777825714469647767e-03,-2.166153579899461265e-02,-8.496554322578151602e-03,7.043127715587615967e-02
2.295205170842570253e-01,2.604871847014681441e-01,2.128370153959893984e-01,-1.334457785061025047e-02,-3.059962327216116107e-02,-1.761102045973351668e-02,7.763758301734924316e-02
2.295595997923889076e-01,2.410326406385294162e-01,2.106990329811117002e-01,-7.862317843832613770e-03,-1.142252415251516877e-02,-1.022313314648640691e-02,3.992677479982376099e-02
2.670108297088492622e-01,1.790031358608679679e-01,2.384751037586531619e-01,1.531533424844312144e-03,2.293934515529024928e-03,-3.545737585202058534e-02,9.921077638864517212e-02
2.647479595502485461e-01,1.715546126247139702e-01,2.561249196647431559e-01,-1.448854605281298244e-03,5.760657837424090332e-04,-1.550421577548253410e-02,9.318895637989044189e-02
2.570828082196691677e-01,1.883232886410649010e-01,2.305637111318021015e-01,-3.840388348355717671e-03,-4.057982145628762430e-03,-1.430498144037132234e-02,6.569047272205352783e-02
2.641516391440166811e-01,1.989374142967447467e-01,2.412123183043972108e-01,-1.282473835505969564e-02,-5.862482722664368040e-03,-1.953284079133903867e-02,7.088202238082885742e-02
2.584241565237976879e-01,1.974102455677019530e-01,2.391767250324723926e-01,-9.881072695588686769e-03,1.946396152827181442e-04,-2.375025444936348235e-02,7.002887874841690063e-02
2.280578271496352671e-01,2.282432368514971943e-01,2.101915371701865709e-01,-2.458804971739175088e-02,-2.779170809992823413e-02,-2.867203480323786066e-02,8.318450301885604858e-02
2.125040643923144790e-01,2.267859792877591207e-01,2.453013259059177165e-01,-2.386285130969839283e-02,-1.285778099801209579e-02,-1.785910273694156850e-02,6.302652508020401001e-02
2.045025640277983447e-01,2.195410204270705767e-01,2.517725294425358640e-01,-1.957554130355958905e-02,-9.267367683911743523e-03,-8.920353012009489546e-03,5.827274918556213379e-02
2.231843168445953596e-01,2.258902482626477526e-01,2.503603060331903163e-01,-2.182155779658580957e-02,-1.682447577083701420e-02,-1.097761429045660160e-02,5.754628032445907593e-02
2.141743741516202171e-01,2.399945819405956415e-01,2.298629732947482796e-01,-8.741779871668809918e-03,-1.118642381004500592e-02,-1.033187587941877816e-02,3.785022720694541931e-02
2.035851394912902013e-01,2.417629092263914037e-01,2.391552874566110765e-01,-1.535111055123597121e-02,-1.542509135965224043e-02,-1.096930900773408074e-02,5.609399080276489258e-02
1.972887370864451206e-01,2.400961484786445221e-01,2.410555239959121243e-01,-1.949476635011855932e-02,-2.154769391555966598e-02,-1.794564028126835464e-02,7.330517470836639404e-02
2.504593676005805181e-01,2.310606345035854103e-01,2.362135268688724810e-01,-1.418619419031235881e-02,2.274943233302981899e-02,2.488013400676986758e-02,6.569871306419372559e-02
2.434609590025623715e-01,2.341796489121302782e-01,2.467798088350595942e-01,-1.110129823137085206e-02,1.780929458610219090e-02,1.826667050930176617e-02,4.949953407049179077e-02
2.382916934381094920e-01,2.329139035866467089e-01,2.390044875795998558e-01,-8.597004250646135895e-03,1.126008526103571689e-02,2.228690740701804243e-02,4.610287025570869446e-02
2.399083824531262898e-01,2.160967053306548924e-01,2.390261300415291446e-01,-1.115974318522773394e-02,1.282665969390705055e-02,1.549190586924303892e-02,4.619472846388816833e-02
2.632956240971081607e-01,2.148072016439305509e-01,2.474591056119218035e-01,-2.174164301632282303e-02,3.846467869908351545e-02,2.874805108345150975e-02,1.008468046784400940e-01
2.544210967038522675e-01,2.114998052105854509e-01,2.481222365414562092e-01,-8.436101419616816657e-03,7.077970762777093493e-03,9.860404688663448880e-03,4.761341214179992676e-02
2.279730623043197957e-01,2.404675183460613930e-01,2.342693321641926840e-01,5.733331193318283621e-03,-5.203023015631470273e-03,6.321822808556251845e-03,2.041592262685298920e-02
2.371303261228311920e-01,2.405437187482291628e-01,2.335344196378399129e-01,7.446750682399165197e-03,-4.213949592391704954e-03,7.062915760904392784e-03,2.015303447842597961e-02
2.198956574919219420e-01,2.394956038200448389e-01,2.306712231096581522e-01,8.386650850867255827e-03,-1.219427469414070819e-02,8.453989656813064302e-03,3.406741470098495483e-02
2.400980308643334282e-01,2.408598189556944436e-01,2.307786622006419153e-01,1.349868568365589910e-02,-1.089612352578438019e-02,8.502683215703851077e-03,3.484590724110603333e-02
2.350098745012802748e-01,2.255987413480643466e-01,2.314700923751800143e-01,8.877374281124941410e-03,-6.823538872166514009e-03,1.251181946392399685e-02,3.022463247179985046e-02
2.302128278438169140e-01,2.312327872816324903e-01,2.382396289707355563e-01,5.764479906770502739e-03,-5.274273111364869045e-03,5.905835392168294271e-03,1.857581920921802521e-02
2.487178219932783541e-01,2.228940872465264567e-01,2.299127090965178977e-01,7.620022278557809364e-03,7.665396634046155525e-03,-1.123829791587006854e-02,3.555624186992645264e-02
2.586650679422263788e-01,2.187929460926775760e-01,2.037809755616875884e-01,5.505549989229759078e-03,6.955873997145067475e-03,-2.129213126471723311e-02,6.332341581583023071e-02
2.568973232048022970e-01,2.257236193181405837e-01,2.197680721192729059e-01,1.801502385359149937e-03,3.827175275892479370e-03,-1.027214953319638586e-02,3.953674435615539551e-02
2.495463489275315250e-01,2.219867400318918382e-01,2.225834798290833305e-01,5.211739313096928547e-03,3.387746404531253187e-03,-1.120545809130701030e-02,3.515744954347610474e-02
2.525439599328453411e-01,2.225342483207272681e-01,2.276189480281120836e-01,5.549457900591282800e-03,5.578277194030680820e-03,-1.237922649666413528e-02,3.767390921711921692e-02
2.583240017591380555e-01,2.191548901754301337e-01,2.231294340952539035e-01,5.220029857217677212e-03,1.000145112779662719e-02,-2.263241684000289605e-02,5.755735561251640320e-02
2.454466148287495209e-01,2.226844733287029754e-01,2.268778228225007965e-01,8.946542719212923628e-03,8.076995629171636673e-03,-9.194352207275203331e-03,3.361091390252113342e-02
1.984832590427610399e-01,2.122460099568885261e-01,2.779736647119075976e-01,-4.641439865629062855e-02,-1.068465136996316935e-02,-2.537574058592177717e-02,1.189591959118843079e-01
2.487477250612299962e-01,2.607637720448156005e-01,1.879251867044658408e-01,6.962446305632238874e-03,-5.093808078361418065e-03,6.776229700525194209e-03,7.025405764579772949e-02
2.042504282539269189e-01,2.314267890321813625e-01,2.520685356226465834e-01,-2.383224402975735179e-02,-9.100169601322727689e-03,-1.161236370774400978e-02,6.389453262090682983e-02
2.124219735978642998e-01,1.983841850561344766e-01,2.557974895879819299e-01,-4.326916707521387406e-02,-2.040339674171402079e-02,-2.360601821214206725e-02,1.059466004371643066e-01
1.923753643911899347e-01,2.123751951627621815e-01,2.453357250746891483e-01,-4.750150416567132383e-02,-3.079955471659437394e-02,-2.523474523038002695e-02,1.169230043888092041e-01
2.121716028055768977e-01,2.266337241978296779e-01,2.505415986444982090e-01,-2.921068446580053768e-02,-2.035477188972706006e-02,-1.614301747524053698e-02,7.557136565446853638e-02
2.035306728627047923e-01,2.300713773393570083e-01,2.628873003998482560e-01,-2.605191348123563067e-02,-1.121008316393248307e-02,-8.697924320677133392e-03,7.274831831455230713e-02
2.193406316228302400e-01,2.228530412434980568e-01,2.581607051864435176e-01,-2.851256895312573314e-02,-1.095997651092905922e-02,-1.213798117536479121e-02,6.800174713134765625e-02
2.237553201210928100e-01,2.594669450793668508e-01,2.084120019370638566e-01,4.562446468118274562e-03,-1.556099181277182872e-02,3.495651737965828430e-03,5.370486155152320862e-02
2.219145734728271424e-01,2.543316284802158989e-01,2.113667109178460901e-01,1.953450443569345013e-04,-8.731255772304522683e-03,-1.281318280107306747e-03,4.168690368533134460e-02
2.192562152747552229e-01,2.632076436844438816e-01,2.064274510796647866e-01,-6.177729348410732416e-03,-3.495714379561336294e-02,-1.231532736027554642e-02,8.304004371166229248e-02
2.217073140105744189e-01,2.572922798727636517e-01,2.042435026051064306e-01,-6.697176590170821932e-03,-2.241442202786467566e-02,-7.299283047708717345e-03,6.320077180862426758e-02
2.161498506029402855e-01,2.586797793072279084e-01,2.235061944888780405e-01,1.180813040818902687e-03,-9.597370089812038915e-03,2.783922949925937695e-03,4.305586963891983032e-02
2.173712242926999771e-01,2.562722265969989421e-01,2.247238417048464110e-01,-3.340660853502379953e-03,-1.256249363891084533e-02,-4.306994770750881274e-03,4.294070601463317871e-02
2.165893658186842652e-01,2.558189347040787376e-01,2.151260551685642286e-01,-3.857190289214135204e-03,-9.839790595962551178e-03,-2.028940978090204659e-03,4.411296173930168152e-02
2.305259605872137241e-01,2.216656304085240503e-01,2.304340340383083663e-01,-7.965699991707780262e-04,-4.343759403479663730e-03,-1.129264831487045715e-03,1.183357182890176773e-02
2.042109502179831060e-01,2.596394983581913340e-01,2.180862221401217438e-01,3.646414202505963119e-03,-2.579195867112444793e-02,4.173394459623358879e-03,6.770212203264236450e-02
2.132498911735832836e-01,2.586459332875791772e-01,2.310101434092965977e-01,6.383819777392601459e-04,-1.390068387301326633e-02,2.705758656579846429e-03,4.661389440298080444e-02
2.022320261090160554e-01,2.567932718362733180e-01,2.126188913210387554e-01,-4.467985741156946418e-03,-2.611468157026597056e-02,-5.833631770431229810e-03,6.874597072601318359e-02
2.696416133292016681e-01,1.873253811251344991e-01,2.399915220016380912e-01,1.261675595216388453e-02,7.439785250101501116e-03,-4.942574385247279489e-02,1.148334369063377380e-01
2.521174090132823342e-01,2.484970023894330082e-01,2.096866944572445268e-01,3.527508884867429362e-02,-2.374480413911723292e-02,2.989562868038123100e-02,9.882077574729919434e-02
2.240975351350890377e-01,2.498881221335550740e-01,2.386452977739399461e-01,2.794632476943828547e-02,-2.063237147843651961e-02,3.168063851897112010e-02,8.445508033037185669e-02
2.408607958664248927e-01,2.144469460313692677e-01,2.368501366880805259e-01,2.810065166875993017e-02,-1.533554369057813990e-02,3.068197006632019525e-02,8.066266775131225586e-02
2.310510324853707331e-01,2.532916682619027471e-01,2.408537014037142598e-01,2.047552278319010252e-02,-2.035551579696673330e-02,4.306865790219876339e-02,9.185983985662460327e-02
2.448018589276350077e-01,2.415645817693813091e-01,2.260783822235093721e-01,1.256518682030304500e-02,-7.969163187376022278e-03,2.005309929725573523e-02,4.659388586878776550e-02
2.465198817094286232e-01,2.426943381799957222e-01,2.343452269549835543e-01,1.530307690266376891e-02,-1.218931304925158048e-02,1.615990695745274722e-02,4.525484144687652588e-02
2.462393541744117287e-01,2.345897211053079023e-01,2.427228300038764275e-01,1.772856231591797560e-02,-9.672422621621235353e-03,1.850013922430744293e-02,4.855360090732574463e-02
2.350011335097413612e-01,2.367598011868604635e-01,2.326940849144689127e-01,1.059182594279115160e-03,2.133697978364919236e-04,-2.129668814223348663e-04,4.013846628367900848e-03
2.230033809495714503e-01,2.432191707605396436e-01,2.265802570490775270e-01,2.578915552509946502e-02,-2.381134099299985624e-02,2.305983461882177288e-02,7.510401308536529541e-02
2.320176171683673294e-01,2.322405705929059538e-01,2.425450961209944800e-01,1.168290123827037293e-02,-9.112045739981937745e-03,1.905370397618100231e-02,4.308387264609336853e-02
2.297162314937062355e-01,2.415952043283061679e-01,2.346024181055145763e-01,1.131110594691432658e-02,-1.283465947337912930e-02,1.581623032583884259e-02,4.165825620293617249e-02
2.340634498528897378e-01,2.380894184515601752e-01,2.361450541418836091e-01,5.838385138651451187e-03,8.265663771939102400e-03,-6.036853456777991310e-03,2.070545032620429993e-02
2.340850906735276460e-01,2.276959563170172229e-01,2.347911947898291829e-01,5.365416740258193741e-03,5.497206934391493140e-03,-5.808947187847727026e-03,1.800232008099555969e-02
2.345454392856479164e-01,2.324017668952604587e-01,2.340944666185717227e-01,3.588068677911129822e-03,3.343660209435586530e-03,-3.065630805016907479e-03,1.020730845630168915e-02
2.134475869312757457e-01,2.440212220750264949e-01,2.522950690962773024e-01,3.587583333729650777e-03,2.231779371255602790e-03,7.593520873677840448e-04,3.621394559741020203e-02
2.261799833037937690e-01,2.506069460672783467e-01,2.249312268236430823e-01,1.285081584220121309e-02,-1.714741460250864685e-02,1.696748302212133103e-02,5.357198417186737061e-02
2.662151436299000640e-01,1.947988394255195377e-01,2.419266987489813725e-01,1.627528130042359524e-03,-6.029051480918670182e-05,-2.247464862430264415e-02,7.401967793703079224e-02
2.522139751240001226e-01,1.948003840561800815e-01,2.456415558323486181e-01,-8.596180464439183433e-02,-6.711132637146356716e-02,-8.858610376028999700e-02,2.493686974048614502e-01
2.205839245880722721e-01,2.431472539692274004e-01,2.303831962474751915e-01,1.029405709829715743e-02,-1.195825321871202621e-02,8.175594111878179901e-03,3.648902103304862976e-02
2.219775993845945206e-01,2.469732776894563719e-01,2.308561592025445697e-01,9.302288194388283818e-04,-1.614178193918674705e-03,4.006221841590059708e-03,2.324326336383819580e-02
2.210064038603785919e-01,2.453653347846792565e-01,2.339410112632838989e-01,1.486894633438211495e-03,-3.091211027315029971e-03,6.205462442205076506e-03,2.442152798175811768e-02
2.255926621483435035e-01,2.578387921349674095e-01,2.187604711134015778e-01,5.020247398525795081e-03,1.597374524484720254e-02,9.858857412495011623e-04,4.637682065367698669e-02
1.782711202233431824e-01,2.927366322155953160e-01,2.042174906762441733e-01,-1.866183283600848742e-03,7.319606182560799146e-02,1.688616039451433168e-02,1.665667146444320679e-01
2.972211398702173657e-01,1.394230191861490220e-01,2.697672379612607862e-01,-6.062242588101807508e-03,1.269100922027604182e-02,-4.194874253774784519e-03,1.482161134481430054e-01
2.381204921649407447e-01,2.580627749373274327e-01,2.130766915901726732e-01,3.359958298754965773e-03,1.719132448423411896e-02,2.839938914299641498e-04,4.944746568799018860e-02
2.028505253041983925e-01,2.968563640692000738e-01,2.153519244411314093e-01,-1.675515836608474501e-02,9.376628994660524130e-02,1.002335154705694814e-02,1.879844069480895996e-01
2.496208284146551881e-01,2.933634607198182254e-01,1.719247845100068950e-01,1.774284180834732882e-02,6.080153853128034136e-02,2.494901225928960325e-02,1.589055955410003662e-01
2.461366721184739537e-01,2.573853695196587910e-01,2.112268185007617205e-01,-4.022603533169816920e-03,2.504819034782562390e-02,-1.087747569880149817e-04,6.057009473443031311e-02
1.980750913863891238e-01,2.283020916930244837e-01,2.712817367164714888e-01,-5.690213847977846490e-02,6.970606737263814086e-03,-1.388993471941051385e-03,1.180050149559974670e-01
2.274070144963722395e-01,2.560599332207428858e-01,2.168699784772475658e-01,-7.863800925264785580e-03,2.746616197725056108e-02,1.633403190577593922e-02,6.695540249347686768e-02
2.566556098206534409e-01,2.155876350739874825e-01,2.253318892193764411e-01,-6.213924746772575211e-03,-5.223627733858099940e-03,-1.285461612318888718e-02,4.554967954754829407e-02
2.626589976381835667e-01,2.459857170785917369e-01,1.978861999605990019e-01,6.935000409453298716e-03,2.724699100805373078e-04,-2.056489608117619688e-02,6.933101266622543335e-02
2.489994265026795051e-01,2.327418412529631830e-01,2.147511734871124511e-01,7.853677625169395299e-03,5.654843378187998822e-03,-4.277366799006954677e-03,3.487575426697731018e-02
2.578274566708727566e-01,2.357581388957515067e-01,2.033067334971803419e-01,4.802496905499442637e-03,4.505198586502216773e-03,-4.235026098633234634e-03,4.939856007695198059e-02
2.591819704650125122e-01,2.405649313911835119e-01,1.980559251430999146e-01,9.023835418300651945e-03,2.513114697151661806e-03,-1.890440049444813697e-02,6.542450934648513794e-02
2.649107650623805932e-01,2.356877899308417179e-01,1.902397764857510221e-01,1.265558706400504198e-02,1.265658585025531552e-02,-3.214544136849101924e-02,9.115194529294967651e-02
2.595351946353190997e-01,2.036101347679004081e-01,2.365327357286824139e-01,1.373360498143526330e-03,3.114039444078112694e-03,-4.817942905851581650e-03,4.974634945392608643e-02
2.606581718326316799e-01,2.431281320496496423e-01,1.967395576477724561e-01,4.047108199684190839e-03,4.976150223259855412e-03,-1.159489602306077415e-02,6.163719668984413147e-02
2.585726433953502990e-01,2.433257272579599784e-01,1.882987833871190009e-01,2.390082447615323683e-03,1.688134124806251477e-03,-1.127127523803567351e-02,6.712850183248519897e-02
2.586898848248471161e-01,2.429077103037169949e-01,1.923903198879176879e-01,2.020236352050476351e-03,-1.205621042634865726e-03,-1.257380272507269657e-02,6.394735723733901978e-02
2.256191030171214862e-01,2.133456431459743174e-01,2.553874493562161008e-01,-3.000271162537634928e-03,-7.294152549294967511e-04,-1.051058457718858806e-03,3.786909207701683044e-02
2.193983392486199557e-01,2.156928214516684039e-01,2.553620617452525554e-01,-4.187903485664903024e-03,-2.042669583396330372e-03,-4.605972737288927237e-04,3.880919888615608215e-02
2.518556313345401421e-01,2.208843699213979550e-01,2.171266787178733892e-01,-6.992232310237253340e-04,-7.946694103087696172e-04,-1.950405470580597166e-03,3.323391452431678772e-02
2.161900100753033349e-01,2.008770221175135151e-01,2.604063503057380546e-01,-2.558040325768069084e-02,-1.540879268505167743e-03,-2.930656584718475911e-04,6.954932212829589844e-02
2.244584969485041159e-01,2.064138024749555544e-01,2.558962611473392101e-01,-8.137738878650446067e-03,-5.784119694542937812e-04,-3.455344263346888517e-03,4.600781574845314026e-02
2.267913110372475338e-01,2.127524242415891609e-01,2.439135104606592608e-01,-1.472911650734977027e-02,-1.272964811264600676e-02,-1.010831520951239147e-02,4.662770777940750122e-02
2.202123560246098399e-01,2.204307316103222836e-01,2.544774996492463748e-01,-6.127723670271929823e-03,-1.646027457250779985e-03,-8.474447956495693816e-04,3.591092675924301147e-02
2.262580762928638745e-01,2.152537237665314018e-01,2.430583052992507376e-01,-1.211566094796218129e-02,-9.088917955790028896e-03,-8.787123758275448490e-03,3.883365541696548462e-02
2.016173139715689566e-01,2.163317920733193178e-01,2.608581886247468562e-01,-2.560084726665267166e-02,-5.656959703371852548e-03,-3.438244121444242272e-03,7.037028670310974121e-02
2.149082372957944187e-01,2.350765161048454788e-01,2.478195202025729738e-01,2.509462346464011798e-02,-1.909679246193303134e-02,1.186983963100508160e-02,6.505466997623443604e-02
2.160533597664642258e-01,2.348958694731352048e-01,2.643424439716154373e-01,2.797407397814023408e-02,-1.395177057186417109e-02,1.728422923171842734e-02,7.486537098884582520e-02
2.038707348937562891e-01,2.511761318105406038e-01,2.633099160994132881e-01,4.246728901782571147e-02,-2.083159969498799349e-02,3.499450941412821092e-02,1.155212000012397766e-01
2.232211678748704520e-01,2.264063120260740580e-01,2.536160470316141669e-01,-1.291474853533755227e-02,1.433639463873858690e-02,1.141797562486358657e-02,4.842789471149444580e-02
2.073922273409108119e-01,2.279698283183191343e-01,2.482291326587054703e-01,-2.356600432110309354e-02,1.857456496256399553e-02,2.182926470396973073e-02,7.335822284221649170e-02
2.036807196701526101e-01,2.507594512211214766e-01,2.451181283772338182e-01,-3.510561667906052924e-02,1.398727407730968389e-02,1.891785484730747896e-02,8.567640185356140137e-02
2.543649051659746529e-01,2.430234553646249129e-01,2.054190179117973414e-01,3.681170121193439934e-03,-6.834325134176362981e-04,4.113928607336619567e-03,4.540967568755149841e-02
2.192549838013079788e-01,2.266380949518763399e-01,2.568358754381631082e-01,-2.413773585357786855e-02,6.086584400592418530e-03,8.081928976874057716e-03,5.695922300219535828e-02
2.056295905081608200e-01,2.098872228704717346e-01,2.870466794436413727e-01,-3.911803882625122103e-02,1.966780124098235077e-02,2.331642352934814796e-02,1.169714629650115967e-01
1.785607338436303593e-01,2.188355754294571409e-01,2.711310402641077810e-01,-4.398265276859136125e-02,2.674927361377119756e-03,2.003158232160109388e-03,1.109053418040275574e-01
2.004319001461905003e-01,2.408589902321973397e-01,2.716797554321221941e-01,-2.217204577771212520e-02,7.434988683682272267e-03,7.255832329311514076e-03,7.502559572458267212e-02
2.589636200758400619e-01,2.171486195711364031e-01,2.152820782783447517e-01,2.595952189202403639e-03,-2.242927430296728399e-03,-1.876368524267873344e-02,5.405149608850479126e-02
2.596538501646753483e-01,1.935006372023836130e-01,2.243344526484717105e-01,8.474722926785007316e-04,3.214908464776386043e-03,-2.271057022897628869e-02,6.976881623268127441e-02
2.593570323895722507e-01,2.005144038095319492e-01,2.209542848324483333e-01,-2.369909946037607965e-03,8.489555788162106518e-04,-2.290894392761816389e-02,6.535272300243377686e-02
2.660496671663852841e-01,2.320780434576861506e-01,1.973297002254059962e-01,-8.372554814592214146e-04,-4.268186802688073329e-03,-4.203832518580861294e-02,9.434189647436141968e-02
2.633530330226289684e-01,2.129565162824776647e-01,2.122179182115030982e-01,-8.161311852943883144e-03,-1.441786048847366886e-02,-3.164252854494595257e-02,8.002981543540954590e-02
2.570041366265803928e-01,2.247823284055930904e-01,2.164994748950492542e-01,-2.004176829932550943e-03,-2.481688574225918674e-03,-1.516051098147481319e-02,4.575793817639350891e-02
2.273584625353740618e-01,2.366721758214102023e-01,2.373643845121370666e-01,1.640197661651189272e-03,2.686356781233202248e-03,-3.067320208437691268e-03,1.231328863650560379e-02
2.576895922364063618e-01,2.146469044980333640e-01,2.263626636268518122e-01,-1.010485127020946481e-03,1.396169921951443413e-03,-1.429037345738054868e-02,4.590435326099395752e-02
2.570942581571984964e-01,2.096237664735608186e-01,2.172919195249471969e-01,-8.891761294972622479e-03,-8.475170875850696409e-03,-1.965756819767604247e-02,5.966718494892120361e-02
2.672034661613771345e-01,2.159524950175011615e-01,2.187499577726299271e-01,3.025865247286737872e-05,3.164349375475122243e-03,-2.115918763575595427e-02,6.216342002153396606e-02
2.643366079543261193e-01,2.526204192201904064e-01,2.011724506495047859e-01,1.648909631366061307e-02,2.178730988273139962e-02,-3.503866854656771668e-02,9.648726880550384521e-02
2.676447332007664270e-01,2.413122256743333027e-01,1.929883834813455046e-01,1.617049486292251870e-02,1.819215128586280233e-02,-2.329156854776621988e-02,8.778320997953414917e-02
2.628850505338680144e-01,2.345871019245747702e-01,1.866561265426037453e-01,1.100586275168331102e-02,1.086810984205649998e-02,-2.908229215183818703e-02,8.780418336391448975e-02
2.847545215661173024e-01,2.450782786678366298e-01,1.559245431877757659e-01,8.012068530489956444e-03,8.723957826120497597e-03,-5.048314520756310569e-02,1.453493237495422363e-01
2.793531532826766250e-01,2.456715235094781014e-01,1.565727638584241965e-01,1.085085678095092446e-02,1.030983388348286761e-02,-5.295682711039097906e-02,1.454627513885498047e-01
2.868766147937836242e-01,2.237877842789910143e-01,1.911247281820211141e-01,1.767669522806470522e-02,2.443205179293493970e-02,-4.924887248263484091e-02,1.308138966560363770e-01
2.122757944918261253e-01,2.552992050106406841e-01,2.361093956985023945e-01,-7.054823613386584360e-04,7.429804029212594071e-03,2.147211165299548787e-03,3.968100622296333313e-02
1.967794504771013253e-01,2.650190438517596725e-01,2.525841755431976754e-01,7.864556343655610890e-04,9.572219841719615749e-03,5.545462295428519456e-03,6.581573933362960815e-02
1.984428039631029594e-01,2.689896736458766702e-01,2.535454275594828943e-01,-1.008096159005195114e-02,2.429808169441715487e-02,2.505718357293911566e-03,7.887170463800430298e-02
2.069038238442443556e-01,2.755716945776244819e-01,2.302690030072173100e-01,8.687354589019960840e-03,3.068909462879301775e-02,6.633428366813877257e-03,8.270822465419769287e-02
2.223326515709582174e-01,2.569025390097536832e-01,2.377492308808691612e-01,3.217172593972861695e-03,1.360038516671232926e-02,4.160652365949182342e-03,3.921343758702278137e-02
2.564294449713973578e-01,2.269562636027951108e-01,2.093265021760494782e-01,8.417858134091876776e-03,7.421638118466029888e-03,-1.957279117489620426e-02,5.679953843355178833e-02
2.534492442829777703e-01,1.766067518857444008e-01,2.648034070838334308e-01,-3.034027842264914315e-02,-1.012136928759685937e-02,-1.733627149342688994e-02,1.042915657162666321e-01
2.504672327893801009e-01,1.595291058523354844e-01,2.672484618564914260e-01,-4.323635253759754854e-02,-2.138683847476371622e-02,-2.431302637201664812e-02,1.372265070676803589e-01
2.503972446412988107e-01,1.705373909845795122e-01,2.642325177342733644e-01,-2.622091356604936557e-02,-8.816024314764286246e-03,-1.922463638526706806e-02,1.052541211247444153e-01
2.603929923411770764e-01,1.536499183180358996e-01,2.799756676875248540e-01,-3.889114303064161726e-02,-5.469519427576923463e-03,-2.549029428331353250e-02,1.429841071367263794e-01
2.475000573070134102e-01,2.460486091173126610e-01,2.255900686186500248e-01,4.234300581725851387e-02,-1.554927820538257524e-02,2.509428120897031975e-02,9.188935160636901855e-02
2.590221261695493937e-01,2.045051847272130463e-01,2.379730731411287548e-01,1.716309738151705622e-02,-4.555805591740749727e-03,2.775961246257991136e-02,7.433303445577621460e-02
2.407127661610964919e-01,1.978971745644313440e-01,2.384491362655777602e-01,2.660193200898288562e-02,-1.491188979090043651e-02,3.158556065445326105e-02,8.674332499504089355e-02
2.584469838173200640e-01,2.181476434921048868e-01,2.260974045174926339e-01,8.338549888951990799e-03,-8.796956902212457394e-03,1.874547587520839637e-02,5.349577218294143677e-02
2.375276273696645124e-01,2.547366744224344171e-01,1.959840127668671383e-01,8.916677976503478362e-03,-1.804115284032269811e-02,9.117076012098292853e-03,6.481730937957763672e-02
2.449016522114831895e-01,2.682987235129087877e-01,1.882041990475704363e-01,4.495353751461778763e-03,-5.067760605521456907e-02,1.362162659306959817e-02,1.158037483692169189e-01
2.305834875648054560e-01,2.530708272010340765e-01,2.097658977557156912e-01,1.868506825679859887e-02,-2.950359915630995644e-02,2.580867976563515701e-02,8.404897898435592651e-02
2.283423952087281217e-01,2.877831297395895827e-01,1.958747852395451572e-01,2.135829542748307955e-02,-3.538733144055882657e-02,3.331529791991549860e-02,1.223613172769546509e-01
2.450441054609091840e-01,2.762140442500743420e-01,1.877083994787283883e-01,1.775493169750195013e-02,-2.714023183811886675e-02,1.983782923703530932e-02,1.018931120634078979e-01
2.549868686013333496e-01,2.262970364389553235e-01,2.076986435063158387e-01,3.465565713672196738e-03,-7.752721444042063930e-04,-9.311692835236782401e-03,4.472748562693595886e-02
2.477053979574929121e-01,2.505291187590050206e-01,1.972365099318452164e-01,1.477299810725695925e-02,-1.908263189160264162e-02,2.708064886143631347e-02,8.151590079069137573e-02
2.573973710590785613e-01,2.151401578805443859e-01,2.187870700273222557e-01,6.297521910062513063e-07,-4.456524805853042401e-04,-1.218337193385662237e-02,4.572486504912376404e-02
2.554725150317180282e-01,2.194760786342259684e-01,2.204532510985140192e-01,-3.752024342646123243e-04,2.350256321898482482e-03,-6.513431659853509588e-03,3.749388456344604492e-02
2.545444142512156005e-01,2.183030998368120090e-01,2.203671649183064074e-01,1.069551401388246174e-03,4.654619451141787803e-04,-3.970079455717428693e-03,3.597575798630714417e-02
2.545695323501037111e-01,2.161082751357115694e-01,2.269144291069341013e-01,7.013833024357957842e-04,1.254096906423681239e-03,-3.104432918214246242e-03,3.486444801092147827e-02
2.517335151709574337e-01,2.122554670519399556e-01,2.224989765984221601e-01,1.185689775297211167e-02,8.245440522300289538e-03,-2.089731762292390202e-02,5.652314051985740662e-02
2.524492534271220445e-01,2.162798555556900704e-01,2.317739659439749245e-01,3.564700673467207422e-03,4.925687893453893108e-03,-8.331980814779843536e-03,3.615320473909378052e-02
2.521821662996183711e-01,2.287053072967575873e-01,2.125464976021417818e-01,4.551401203153542657e-03,9.388146430416909136e-04,-5.642178592327177188e-03,3.676847368478775024e-02
2.575470272689854845e-01,2.183846706123946657e-01,2.027038076622349194e-01,3.766518924490326256e-03,2.652552486132643116e-03,-2.565577356519819704e-02,6.657329201698303223e-02
2.731329811361733473e-01,2.057928630280033699e-01,2.277037727441081072e-01,6.028878717072732457e-03,7.719448060800311248e-03,-3.187692952010681702e-02,8.291877806186676025e-02
2.612190218728152047e-01,2.016404365099182250e-01,2.190284156960645434e-01,-6.768892821482534001e-04,-8.019944937034454140e-04,-2.198611278119874668e-02,6.534118205308914185e-02
2.311212771369543784e-01,2.312678437930850706e-01,2.386031911180919729e-01,2.601779261417478187e-04,3.596709894276246063e-04,3.840407235427406303e-04,7.479141000658273697e-03
2.577232908333452199e-01,2.093206845270090266e-01,2.287435453122010909e-01,3.372123552999018413e-03,8.379484622550642525e-03,-3.004138114097496676e-02,6.879068166017532349e-02
2.937586617626935515e-01,1.449467606668932707e-01,2.896321824550936452e-01,-2.155702917507489914e-03,1.394659026633993104e-02,-8.549252312433109138e-03,1.495482325553894043e-01
2.703092727306077858e-01,1.746492575025266614e-01,2.656288284750061290e-01,3.721164202176836799e-03,3.457565803020764585e-03,-4.763329539982328990e-03,9.418326616287231445e-02
2.724769643876707725e-01,1.765928614068609515e-01,2.689481813480704142e-01,5.761100427713945760e-03,7.740520100892147801e-03,5.765180411983447965e-04,9.564609080553054810e-02
2.969578564210827998e-01,1.469739595833932655e-01,2.914121746907758492e-01,-5.760744734772375690e-03,9.890084331255473080e-03,-6.781972855198980035e-03,1.490810066461563110e-01
2.661513761316264826e-01,1.685709638522346066e-01,2.695061919963071539e-01,-2.312472434938014736e-03,3.902654371711719757e-03,-2.724326135741346119e-04,9.961181133985519409e-02
2.672466735129922499e-01,1.595546669587820654e-01,2.715802937943498918e-01,-9.702258381993919198e-03,1.857491364289688869e-03,3.394863625896256398e-03,1.114018484950065613e-01
2.347732989044538920e-01,2.344821038719082096e-01,2.357133436832647422e-01,1.953800423576601477e-04,5.855274585561467959e-04,2.024244958504485222e-05,1.544827362522482872e-03
2.337350541240771629e-01,1.995428463171165789e-01,2.459113783410123710e-01,-3.325685343321185816e-02,-1.537761994565307183e-02,-2.713099451279318841e-02,8.927175402641296387e-02
2.453394667940057006e-01,1.864871840584753915e-01,2.486747100204216299e-01,-3.935906057625546822e-02,-3.491612259371325300e-02,-3.934915579645619638e-02,1.289220005273818970e-01
2.649218391599945099e-01,1.491797652442027888e-01,2.433206882088191914e-01,-3.055267971538685318e-02,-1.815564884702628584e-02,-3.976842742315130769e-02,1.410550922155380249e-01
2.460215895242588158e-01,2.021990249984450816e-01,2.391804494012368110e-01,-2.721633471340989888e-02,-1.742210434854278220e-02,-2.975278248826525307e-02,8.634744584560394287e-02
2.356806525264613372e-01,2.301653341709547496e-01,2.416340827271257763e-01,1.177323379976450996e-03,-2.842669988718338030e-03,1.240350661453484089e-03,1.147663407027721405e-02
2.459325338413075324e-01,1.857501765094854984e-01,2.260586182702447877e-01,-3.587697069580113307e-02,-2.643569282515740790e-02,-4.466750201819385396e-02,1.215088292956352234e-01
2.464604912822533078e-01,1.542608111646102120e-01,2.665928856631138988e-01,-3.866005504268112819e-02,-1.965269445141791874e-02,-2.624925836156221867e-02,1.359111815690994263e-01
2.637406373610289290e-01,1.797057695127677879e-01,2.455863677493599628e-01,-1.650045431858738684e-02,-6.594988798482261626e-03,-2.504390583348965055e-02,9.324544668197631836e-02
2.691596100285601478e-01,1.815891889528696845e-01,2.495530925729235183e-01,1.559747886278737422e-02,1.285140706065200601e-03,-3.847232830428575640e-02,1.072902679443359375e-01
2.590399854838308369e-01,1.820204029457777872e-01,2.325849602781309977e-01,1.921397083919863455e-02,1.396503353878076475e-02,-3.710259135809559211e-02,1.020623967051506042e-01
2.709248334315370599e-01,1.236191684772025845e-01,2.535633713369695452e-01,3.607108864709351881e-02,2.190137646478447497e-02,-6.258608137918676706e-02,1.911448985338211060e-01
2.757991919221709498e-01,2.039566970211504349e-01,2.583300867006722568e-01,3.951574337874722009e-02,2.249617673283449068e-02,-3.027563479211138608e-02,1.147346869111061096e-01
2.431283018796527584e-01,2.460946351192743464e-01,2.002258606338074842e-01,-7.795990227276082540e-03,2.546398832423986749e-02,2.339112406035754460e-02,7.580034434795379639e-02
2.405905148652966730e-01,2.157277506546206591e-01,2.286019014235578239e-01,-2.180715699395730650e-02,2.489917414992293479e-02,3.294329667880352419e-02,8.370280265808105469e-02
2.363988426660679765e-01,2.468932180769458640e-01,2.263476550800368747e-01,-9.459810126287843818e-03,1.084373705426900508e-02,1.204390251974057739e-02,3.705441951751708984e-02
2.525607198929464281e-01,2.150518596159222140e-01,2.250417921131025456e-01,-7.179627432183485671e-04,-3.570721304415110098e-03,-1.590534472241416112e-03,3.434222191572189331e-02
2.876170688320132673e-01,1.537177960063157711e-01,2.585158943408272791e-01,-2.640943998255984148e-03,-1.164736627669115017e-03,-3.225721228598098927e-02,1.342603564262390137e-01
2.905052535897594268e-01,1.524217288079683652e-01,2.648981044149218977e-01,-8.950594531412454924e-03,-6.756642348244615640e-03,-2.828717157965447704e-02,1.377121955156326294e-01
2.783776070268450531e-01,1.766556028717309323e-01,2.436823096880423034e-01,-3.120222143298388012e-02,-1.509085014959061014e-02,-3.868347203600600026e-02,1.269449740648269653e-01
2.628045234527233154e-01,1.801216620347779185e-01,2.413075690023008812e-01,-2.769476781886003394e-02,-8.760380679467948822e-03,-4.160684770762645285e-02,1.150902584195137024e-01
2.686236310640052194e-01,1.516287078399405353e-01,2.342481948798708358e-01,-1.338935907852200312e-02,-5.265073881171204902e-03,-5.485854324852074138e-02,1.431680768728256226e-01
2.682805089026201739e-01,1.625397928475778020e-01,2.586355303124874272e-01,-1.119742851541657286e-02,-8.707755585842889140e-04,-2.200942831086932089e-02,1.099359989166259766e-01
2.922679934224391429e-01,1.472321516435338429e-01,2.636850772239900942e-01,-1.252273867511538921e-02,4.299854016488470834e-03,-5.016001373118225692e-02,1.605641096830368042e-01
2.733604363401436199e-01,2.616130560482712863e-01,1.546914019326447454e-01,2.338776664708574690e-02,4.181481688003246128e-02,-4.366042359777106557e-02,1.594722121953964233e-01
2.876117920535427031e-01,1.579868959404183704e-01,2.727646608838418252e-01,-1.754607050028990367e-02,-4.884330450722096893e-03,-3.930703609356987760e-02,1.439749449491500854e-01
2.321288526622959925e-01,2.341142952892779905e-01,2.329410016588370491e-01,3.139608638902715351e-03,-2.835026684088850276e-03,2.713748554069146234e-03,8.875017985701560974e-03
2.264930096281240202e-01,2.541341810978446913e-01,2.054267323062615169e-01,9.491301709544193096e-03,-1.996954582184485433e-02,9.790134531354880917e-03,5.953370407223701477e-02
2.284884923027417913e-01,2.463678576543779364e-01,2.261758392768889459e-01,4.868873201956405716e-03,-4.674646917253591841e-03,4.511041301731370280e-03,2.375062182545661926e-02
2.396951072811840666e-01,2.414659086379322694e-01,2.346541322446906996e-01,1.118006795658537875e-02,-1.302967905166645818e-02,1.341023146264614524e-02,3.822664171457290649e-02
2.272051692308597604e-01,2.435975525709810630e-01,2.313088160661901649e-01,7.856408047397067662e-03,-1.437963026317690129e-02,9.285156949923302483e-03,3.581082075834274292e-02
2.181641589314639029e-01,2.490304190073778512e-01,2.304097566721868273e-01,8.113489733412124205e-03,-9.951889633809942251e-03,6.400022720950430434e-03,3.663594275712966919e-02
2.342681145505599305e-01,2.404620215450797849e-01,2.276484555931347076e-01,5.148446550574030910e-03,-6.856151306436786969e-03,4.303008866051439424e-03,1.998182944953441620e-02
2.441543507618109676e-01,2.089404653772207465e-01,2.443921718143711730e-01,1.897364376445789813e-02,-9.883612314801138235e-03,2.149369502545987395e-02,6.330434978008270264e-02
2.129525465188274180e-01,2.381233223568735291e-01,2.250896378278884613e-01,-1.298428936355224862e-02,-1.889328306495295998e-02,-1.551534326617133239e-02,5.267065763473510742e-02
2.328715578052788504e-01,2.356835682750454686e-01,2.496837153829955247e-01,3.842620795217142893e-02,-1.175616987990163106e-02,3.057720512430391752e-02,8.883985131978988647e-02
2.616684206615999542e-01,2.484894870957232160e-01,1.805945724413650644e-01,2.311289117489091164e-03,-2.304347344201474607e-03,-5.606651954733786643e-03,7.618691772222518921e-02
2.395052508467973851e-01,2.494395136910134148e-01,2.216348700398437233e-01,1.554519995758644677e-02,-1.817223076720628910e-02,1.448908732238904373e-02,5.423117056488990784e-02
2.410675201137365553e-01,2.395133824974030878e-01,2.298682449167698538e-01,1.740238226012279232e-02,-1.010873037747635726e-02,2.443815966915733121e-02,5.583182722330093384e-02
2.575590300001827648e-01,2.276850154397684345e-01,2.083173322890702062e-01,5.464988345806727488e-03,2.661181399832146001e-03,-6.993519674498924719e-03,4.586639627814292908e-02
2.415385341263835972e-01,2.236496879530742443e-01,2.275968868731023387e-01,1.424124102877405082e-02,-1.095103447894577725e-02,1.873593184792765945e-02,4.781527072191238403e-02
2.419157420339307918e-01,2.231364922916893312e-01,2.407984870332326721e-01,1.440615543933843577e-02,-8.896390894471658747e-03,1.870770902630781649e-02,4.735938832163810730e-02
2.332944284240767441e-01,2.230783787615318314e-01,2.469188990455158383e-01,1.543047247622309284e-02,-1.047567154679848907e-02,1.183992936837961578e-02,4.351150989532470703e-02
2.828809997100472096e-01,1.080704313812514417e-01,2.728409530173380726e-01,3.295278604907654618e-02,1.222866172987625323e-02,-4.736344883525631100e-02,1.983446478843688965e-01
2.705939343652451479e-01,1.489462007396758214e-01,2.874506113629455850e-01,5.208081719126340763e-03,6.752978236387316598e-03,-7.423775116003046223e-03,1.323495805263519287e-01
3.003070831410052377e-01,1.598083630129394639e-01,2.767830738793995438e-01,1.915602521455013474e-02,1.456614798153380713e-02,-1.511813118394258332e-02,1.393241882324218750e-01
2.925493454534563442e-01,9.198423190772916924e-02,2.921686277327876780e-01,9.856999924395523638e-03,1.595290875266590011e-02,-8.878600783543352110e-03,2.035721242427825928e-01
2.655253422864871649e-01,8.468313890724374349e-02,3.618706910214399830e-01,-1.267251399023414452e-02,1.168056038971820171e-02,-3.830496971968661707e-02,2.543669342994689941e-01
3.060012172185052060e-01,7.385594638472611773e-02,3.435954909027936766e-01,-1.538229280316731271e-02,3.327451692239997982e-02,-4.907994458887723205e-02,2.743903100490570068e-01
2.858596983439177786e-01,6.801791808805304762e-02,2.952653702352525666e-01,-4.837674743042335440e-02,1.452386216020745344e-02,-4.706137739417560160e-03,2.394006252288818359e-01
2.911962223435013430e-01,6.172401206763497572e-02,2.977236935367318371e-01,-6.313558017436290623e-03,1.569897694548506514e-02,5.921576101193495867e-03,2.348661869764328003e-01
2.937977858329702263e-01,1.346513374018155351e-01,2.767110156450202085e-01,-1.158941350982983440e-02,1.778762445724950034e-04,-2.201811202115723162e-02,1.573457419872283936e-01
2.685566056520135580e-01,1.370135203839392690e-01,2.722954539507299598e-01,-1.384728629170248193e-02,7.052498771883927361e-03,-4.211082420705117117e-03,1.363342851400375366e-01
2.617763822372073945e-01,1.330544875270627814e-01,2.672962337372694064e-01,-2.234759522956750524e-02,1.145324425447561377e-03,-1.203698799112690350e-02,1.387341618537902832e-01
2.479979217201208619e-01,1.974186118929781575e-01,2.058053921133550512e-01,-3.013915804641879859e-02,-2.790934039341340031e-02,-4.685268338916229874e-02,1.176937967538833618e-01
2.399284235641087615e-01,2.170592543299280086e-01,2.406762423521970062e-01,-2.440834475171120219e-02,-1.626334412471020299e-02,-2.308606163087179031e-02,6.870479881763458252e-02
2.493555884674953926e-01,2.128369973943613769e-01,2.255488793164396877e-01,-2.417583186759992425e-02,-1.089967653014349037e-02,-2.520995228430991664e-02,7.104523479938507080e-02
2.284780204810446802e-01,2.214977733705442431e-01,2.312986086306170197e-01,-5.146925852350494983e-03,-6.458491335911198394e-03,-6.980251070633106819e-03,2.066757157444953918e-02
2.280235395514787489e-01,2.279152711286919764e-01,2.282156106449640121e-01,-1.484903906040779473e-02,-1.361551439607985685e-02,-1.492292019631345779e-02,4.342555254697799683e-02
2.316941279275401000e-01,2.228696878498282463e-01,2.310822170954133503e-01,-7.496543234161162292e-03,-7.183669569934349880e-03,-6.850995473889277126e-03,2.317463420331478119e-02
1.940638293573566098e-01,2.353352802142993916e-01,2.481839606199106318e-01,-5.250560312536842189e-02,6.627301814867757324e-02,5.087800706686173430e-02,1.777955889701843262e-01
2.167923610410789348e-01,2.213301850867348541e-01,2.833959510416961258e-01,-4.636046380252160232e-02,2.115928695242914881e-02,2.522249264061477564e-02,1.177027672529220581e-01
2.308403935380261285e-01,2.489507170117335466e-01,2.604281296010203528e-01,-2.998208948682243996e-02,4.479926395963314267e-02,3.773073262284205864e-02,1.168593093752861023e-01
2.629575677587839277e-01,2.626567222050122941e-01,1.573896707065956524e-01,2.086947857397578737e-02,5.344986278053130008e-02,-3.574667767851111289e-02,1.575552523136138916e-01
2.327400287654738387e-01,2.338172152859941400e-01,2.600501507708619653e-01,-3.096855113680394012e-02,4.449843123274430795e-02,3.595829520240462901e-02,1.158191114664077759e-01
2.454120514448030477e-01,2.436441913183765851e-01,2.113531563618977482e-01,-1.441016423099654616e-02,-2.466110936553437757e-02,-2.614467109013858884e-02,7.483998686075210571e-02
1.964623984072503271e-01,2.583246794602178098e-01,2.024351064163191216e-01,-2.465177771258950795e-02,-4.885100075019112309e-02,-2.282623721411608173e-02,1.184847354888916016e-01
2.048760257023390374e-01,2.518931151753295850e-01,2.192164455458828209e-01,-2.440481720647970365e-02,-4.608785389638384022e-02,-2.351432721048575189e-02,1.075166761875152588e-01
2.481267795714843238e-01,2.352432480489143052e-01,2.210764395646603875e-01,-1.888254788391942676e-03,2.944681704181706643e-03,4.678233137567979968e-03,2.552586793899536133e-02
2.332841012901737399e-01,2.279667170034259116e-01,1.947346090965100252e-01,-2.867632559497412803e-02,-3.931541934157837398e-02,-4.229359521965546376e-02,1.173869743943214417e-01
2.047005783844345339e-01,2.502839844904240496e-01,1.893924983504354231e-01,-2.998845634032021312e-02,-5.641088900316967858e-02,-3.343795917145767072e-02,1.364139169454574585e-01
2.165010162033920715e-01,2.507018447795812954e-01,2.248168230580705751e-01,-3.591442289821330375e-02,-5.371902418197196244e-02,-3.582497741781218853e-02,1.316490322351455688e-01
2.585106236918397471e-01,2.392722472895457420e-01,1.979446023096362584e-01,4.048036933161769510e-04,2.492939506234943293e-03,-1.947452362580420065e-02,6.348285824060440063e-02
2.292229348274751888e-01,2.443365257187652684e-01,2.103042322896531147e-01,-1.179088404145297447e-02,-3.026690096260288565e-02,-2.416715992487682846e-02,7.609042525291442871e-02
2.334036309684508481e-01,2.377050953697563973e-01,2.345134797632824897e-01,7.748439057136836255e-04,8.863783048848519058e-04,-3.313482721353563768e-04,4.409978166222572327e-03
2.372559089716713143e-01,2.479805167789490838e-01,1.876918676296697452e-01,-3.936875310540873668e-02,-4.211469048068072762e-02,-4.368905638868653130e-02,1.371131092309951782e-01
1.945933016205096677e-01,2.630822693221295805e-01,2.543159646575298138e-01,7.802495457698907858e-03,-1.513745379123557222e-02,7.832196566761328443e-03,7.225846499204635620e-02
1.960627335428439255e-01,2.470638441324110035e-01,2.627981366664480789e-01,1.098714328061792256e-02,-6.257692368448907264e-03,5.919966981694171730e-03,6.508389860391616821e-02
2.007677671669038655e-01,2.497266513104982877e-01,2.558742600397471700e-01,1.582283538211740059e-02,-1.777602693505402065e-02,1.079976064463854073e-02,6.917151063680648804e-02
1.949724909400037953e-01,2.640193094650460925e-01,2.630026542606520024e-01,9.599099397297396197e-03,-6.419513371359114422e-03,7.017521147415389446e-03,7.242993265390396118e-02
2.591180256675707505e-01,1.825817607553471278e-01,2.597077363340076772e-01,-4.141697193419614786e-02,-6.887266191436087863e-03,-2.436283594842789460e-02,1.138961166143417358e-01
2.485450101785804666e-01,2.129079436154833749e-01,2.361064981978392707e-01,-2.438799803108986780e-02,-1.895596437135649640e-02,-2.784044154300562013e-02,7.854314148426055908e-02
2.618040448838953038e-01,1.657397898895605071e-01,2.601373916936786657e-01,-2.240924105179508546e-02,-5.138211777355477031e-03,-2.237170121619100685e-02,1.102643087506294250e-01
2.200443829712262489e-01,2.536424265178551796e-01,2.199115419149352824e-01,3.671915024093754974e-04,-2.688015769745216981e-03,4.110860058255651206e-03,3.472877293825149536e-02
2.535391568525442452e-01,1.768074084174988680e-01,2.607375239107934117e-01,-2.105987999272207825e-02,-1.981547885043310510e-03,-1.834655293986424407e-02,9.404277801513671875e-02
2.464704205846112162e-01,2.021838716650056211e-01,2.379234671359355124e-01,-1.393212197516225694e-02,-1.711676574263872389e-02,-2.497112426809269814e-02,7.062412798404693604e-02
2.642871018163813757e-01,1.946077844644287513e-01,2.430050406263223328e-01,-6.839178010722533549e-03,-7.609632322800336662e-03,-2.214224913323184843e-02,7.490056008100509644e-02
2.206218841866613156e-01,2.545095449601009752e-01,2.127266190402871404e-01,6.457856357190179010e-03,-1.292951302254954568e-02,3.479492561671547208e-03,4.627321287989616394e-02
2.283071558845391757e-01,2.412057844109042892e-01,2.297529782626052119e-01,2.158001262028611585e-03,-3.183135047185372494e-03,2.852907237653326284e-03,1.478516403585672379e-02
2.250601264299120774e-01,2.349007063240508009e-01,2.532842234747400556e-01,1.720215183336866807e-02,3.566829532948710322e-04,6.139497037613742686e-03,4.021068662405014038e-02
2.006372052439101550e-01,2.233875797297541210e-01,2.666731007603169168e-01,3.241810324910840424e-02,5.060905742013537293e-04,8.686087307901295060e-03,8.219422399997711182e-02
1.771525087941314691e-01,2.500162919995281285e-01,2.839080135343968747e-01,3.703933098988021477e-02,-1.262838751379534831e-03,2.656073208772235378e-02,1.231429949402809143e-01
1.990616343240054209e-01,2.360967481331269768e-01,2.662229937657381029e-01,3.252558251436196701e-02,-5.910574211001443133e-04,1.035929989322278630e-02,8.301597833633422852e-02
2.278258577301208454e-01,2.337289735049253026e-01,2.543067889197782039e-01,1.895720534818500294e-02,-7.739859002836559088e-03,6.889080193932664749e-03,4.449705407023429871e-02
2.067572802732237369e-01,1.684007398896304741e-01,2.724952498160915226e-01,7.711767381508863317e-02,1.125012310637540404e-02,-7.081145481730179679e-03,1.633576303720474243e-01
1.868894726463243838e-01,2.857627533546682752e-01,2.830770735810491101e-01,7.012571963536416708e-02,6.087640313087876003e-03,2.830558597186371567e-02,1.636619716882705688e-01
2.105288383446952682e-01,2.547437289552385020e-01,2.820581011162544005e-01,5.949843908070384657e-02,-2.443318935151665185e-03,2.041626135443285958e-02,1.256873309612274170e-01
2.086422101994727385e-01,2.268311091741853081e-01,2.547073140643233979e-01,4.101032739511264319e-02,-1.111119568974890115e-02,1.543874946488281441e-02,8.801101148128509521e-02
2.155005630384709270e-01,2.532846836249344480e-01,2.168466699184039836e-01,-2.047550531702373514e-02,-3.048746971246760890e-02,-1.705322288419912347e-02,7.935504615306854248e-02
2.429540017558582121e-01,2.419644842561616271e-01,1.983781477793872816e-01,-1.642745487957554193e-02,-1.714521323659068397e-02,-1.887641269090397159e-02,6.858784705400466919e-02
2.206071009162418883e-01,2.466247553193552100e-01,2.081090414328263805e-01,-8.374746099903148874e-03,-9.544645771955111851e-03,-6.369923227445094434e-03,4.199675843119621277e-02
2.177419896900177065e-01,2.570571965732110775e-01,2.144389747339417174e-01,-5.844808151856173417e-03,-1.077767877779604346e-02,-3.781366366222652445e-03,4.669379815459251404e-02
2.298478912645683936e-01,2.482699758475299112e-01,2.100329984187647991e-01,-9.317649978279034934e-03,-1.203464042731807598e-02,-8.546953708391950497e-03,4.484573006629943848e-02
2.440894618683657480e-01,2.380622084759782542e-01,2.046234114765838330e-01,-1.077399656510920345e-02,-1.313663594398277457e-02,-1.486380447233960275e-02,5.371008813381195068e-02
2.416941322370985412e-01,2.652969166632335174e-01,1.974368308901500446e-01,-5.461339397538010274e-03,-2.112557928914815183e-02,-1.012716375670315305e-02,7.277652621269226074e-02
2.245228054259706951e-01,2.504961335088358165e-01,1.996346750644973078e-01,-1.209268015452988863e-02,-2.139073286063996812e-02,-1.113684618023516246e-02,6.421788781881332397e-02
2.362560343424635334e-01,2.247870263083321385e-01,2.226400549108835669e-01,-1.294744843596741697e-02,-1.738594794769896673e-02,-1.800027295972723290e-02,5.042344331741333008e-02
2.318159238436933167e-01,2.453949577262769244e-01,2.087611163534403846e-01,-1.022341483197610271e-02,-1.367073277777862243e-02,-1.309454222504625141e-02,4.916908591985702515e-02
1.844350451340226182e-01,2.494966459185067320e-01,2.594493348704836611e-01,-5.344555416465367366e-03,-3.272723229675514670e-03,-7.022797164317540804e-04,7.140665501356124878e-02
2.212697261146980010e-01,2.300817603020640090e-01,2.386113148956371666e-01,-1.023369422645587466e-03,-1.371932161463788489e-03,-3.812030212406627983e-03,1.667186617851257324e-02
2.268738754747877118e-01,2.541979837278124932e-01,2.200800896938341633e-01,3.682392982010462140e-03,-4.816295404432294029e-03,2.215412956291401905e-03,3.321732953190803528e-02
2.369723413328039818e-01,2.409012261929514842e-01,2.188176388987410070e-01,-1.325456356354486227e-02,-1.864381037685364229e-02,-1.617759545436039600e-02,5.264338850975036621e-02
2.380907666388905053e-01,2.424594655195722870e-01,2.141404225855273735e-01,-5.391466108376576950e-03,-7.869118349578287791e-03,-6.123072311306963084e-03,3.290570154786109924e-02
2.369563439335685695e-01,2.412496896419839554e-01,2.077907959060040499e-01,-1.298617672051876823e-02,-1.684094393352925101e-02,-1.545325603328386380e-02,5.538468807935714722e-02
2.281244292345893376e-01,2.306670301124569278e-01,2.290916877223214132e-01,-9.653968810773169706e-03,-1.102859623545626028e-02,-9.160424646585714134e-03,3.001946583390235901e-02
2.352184805806205592e-01,2.159952824465945775e-01,2.292247109572050634e-01,-2.681966500873511280e-02,-2.533361536999839334e-02,-3.797619002323748827e-02,9.327416121959686279e-02
2.193639139248365066e-01,2.198516202169550349e-01,2.442548582067179952e-01,-2.387672908891354251e-02,-1.668492617016140503e-02,-1.382192726312997388e-02,6.104301288723945618e-02
2.308668734296377145e-01,2.159019272517069821e-01,2.344789797791848041e-01,-2.105133094779965477e-02,-2.370152746837651467e-02,-2.035806552117016416e-02,6.744751334190368652e-02
1.909435401281370515e-01,1.946366266107762422e-01,2.584887693732364489e-01,-7.119467966148051996e-02,-2.550244778098569379e-02,-3.824463426318791548e-02,1.608467400074005127e-01
2.233884148010203130e-01,2.145796516342362847e-01,2.413045708228210018e-01,-2.596647619571858939e-02,-1.547600280924751187e-02,-2.194499408136256144e-02,6.886540353298187256e-02
2.262472237961388744e-01,2.101153902123515660e-01,2.420925308004659438e-01,-2.277284703491940995e-02,-1.384638769897116560e-02,-1.909851207256371350e-02,6.318353116512298584e-02
2.388031663775315727e-01,2.146834831004938160e-01,2.414474427519494870e-01,-2.649880860062072199e-02,-1.618919126705379782e-02,-2.182048868796779284e-02,7.052490115165710449e-02
2.229768080089284676e-01,2.062638015719248930e-01,2.493006398100355292e-01,-4.271516823048904232e-02,-2.199923496401449616e-02,-2.398412363852496509e-02,1.003174409270286560e-01
1.919405180239757702e-01,2.242378552264062130e-01,2.489152171059839935e-01,-4.936130780884636499e-02,-3.851366618181726459e-02,-3.980057719812882255e-02,1.376985311508178711e-01
1.824370470822165857e-01,2.701360851321465972e-01,2.172749533134877842e-01,-1.276173581475058098e-02,-4.723717085556805584e-02,-4.341085315222112037e-03,1.144059523940086365e-01
1.907106230866831842e-01,2.859443065008546170e-01,2.177098295962392460e-01,-2.841276967375367096e-05,-4.896231555423221499e-02,-6.266736302042036529e-03,1.205691546201705933e-01
2.044432925156632885e-01,2.710674467395618459e-01,2.291958630899490756e-01,-8.890642124625945664e-04,-2.710129318929210829e-02,5.066429264872444188e-04,7.489278912544250488e-02
2.033425930120345559e-01,2.572447911978821833e-01,2.276416572474348754e-01,2.616468926620180158e-03,-2.831662861954205995e-02,5.945654774838496186e-03,6.868917495012283325e-02
1.906822496521104193e-01,2.703437763077215505e-01,2.066584395022324494e-01,6.736083801356967243e-03,-5.236334526132157413e-02,8.563445978329873101e-03,1.179423257708549500e-01
2.142465363841398462e-01,2.635060660415786127e-01,2.278755595090473096e-01,1.068738800781210072e-02,-2.745864120095707628e-02,6.471254054020319536e-03,6.834556162357330322e-02
2.254052802939910394e-01,2.531309069967934144e-01,2.147507782292746303e-01,-3.966410164835648786e-04,-2.409652849238117303e-03,5.276142396951637083e-04,3.458840772509574890e-02
2.244929020555721244e-01,2.601608159931749764e-01,1.951113012427878046e-01,2.391641243015809205e-03,-2.420251961455855555e-02,5.368268784080137664e-04,7.041852921247482300e-02
2.196748139503490738e-01,2.584096921208716147e-01,2.087202052432977628e-01,-5.074237314354294870e-04,-2.002414626719232690e-02,2.855976584962929853e-04,5.699680745601654053e-02
2.289606517223297943e-01,2.377201586507570741e-01,2.369542263210649702e-01,6.821958779647070356e-04,-9.386376092405735502e-04,3.631793571207222494e-03,1.068716496229171753e-02
2.298359661075335958e-01,2.359715379657133516e-01,2.369687799651505888e-01,1.121343694915186064e-03,-1.577256122384154430e-03,2.395197320677866590e-03,8.555976673960685730e-03
2.348263633200735057e-01,2.362170289402644729e-01,2.333745225228596731e-01,8.109775636688809370e-04,-1.031081074774886685e-03,9.285634547603284408e-04,3.716173581779003143e-03
2.336526201050145024e-01,2.355074870070945625e-01,2.333826991629128211e-01,1.717456561621915007e-03,-1.585252355989268331e-03,1.454371785553460698e-03,5.171817261725664139e-03
2.321627670583600866e-01,2.384098198899818055e-01,2.332736043092601408e-01,6.174758726546735995e-04,-4.823679565025835569e-04,1.867184105891639672e-03,6.754344329237937927e-03
2.253550072424030382e-01,2.122167327579204399e-01,2.523771163633111714e-01,-2.944033893418955983e-03,-2.205807176478050656e-03,-2.265315059436285488e-04,3.603588789701461792e-02
2.651126617945743780e-01,2.272485559672363931e-01,2.184889541438953253e-01,1.042628065796991597e-02,1.205798052855369847e-02,-2.445116586413920157e-02,6.631727516651153564e-02
2.476750027514430796e-01,2.336348397535308874e-01,2.247858699483770983e-01,6.537287789452536461e-03,6.694334697501099982e-03,-7.221160354978025178e-03,2.861394174396991730e-02
2.210028676275634929e-01,2.548472908271322002e-01,2.163009030056794180e-01,-6.385777784589722868e-04,-3.399813022736050249e-03,-9.301000346715274176e-06,3.691325709223747253e-02
2.479493265033215210e-01,2.193873713033354655e-01,2.290160490372379065e-01,9.419721734630919288e-03,9.459856636600200500e-03,-1.276242148796013533e-02,4.070357605814933777e-02
2.475837900431015204e-01,2.285344277370785215e-01,2.243374047656218340e-01,7.639737863006769089e-03,6.417029245143746757e-03,-5.877319232107113683e-03,2.937182411551475525e-02
2.477668917246743374e-01,2.278479016249859157e-01,2.341247467050983355e-01,7.490653503405100486e-03,7.418680761481603880e-03,-6.131218119056277768e-03,2.752003259956836700e-02
2.744358761080251674e-01,2.959127003290272784e-01,1.470215328670304578e-01,1.048398180849546141e-02,-2.408288838194146478e-02,1.475754360919690616e-02,1.488461494445800781e-01
2.527309632837793640e-01,2.963062249151883765e-01,1.653766520843810983e-01,8.204359664738187716e-03,-2.403724419312271501e-02,-3.505967993299096211e-03,1.237264871597290039e-01
2.393603578955569300e-01,2.962644850718862410e-01,1.746499237914303504e-01,1.032288393491109443e-02,-3.813872520800033056e-02,1.349383885165761875e-03,1.256847083568572998e-01
2.421090444933552410e-01,2.950959547821890849e-01,8.863335436368172116e-02,-3.179203250077871409e-03,-8.836068844942901457e-02,-2.619367228809981601e-02,2.449613958597183228e-01
2.662180050628636385e-01,2.942690006485962906e-01,1.126591256943710873e-01,1.605471022144884172e-02,-4.711377016551252656e-02,3.658386508140276661e-02,2.003052383661270142e-01
2.383102012978297879e-01,2.674260567263417876e-01,1.877287361189267645e-01,1.021348923485617712e-02,-3.427706754385542731e-02,1.235456003159942154e-02,9.578383713960647583e-02
2.555395762338938948e-01,1.902628882348162132e-01,2.341910989024924283e-01,-4.533212532848011206e-02,-1.661242258642552441e-02,-4.709509867265876393e-02,1.302690058946609497e-01
2.579494275586933227e-01,2.208213551945630571e-01,2.237427488116983942e-01,-1.475720562704023811e-02,-1.397996231509756118e-02,-2.574969184268934008e-02,6.713677197694778442e-02
2.535577910434055893e-01,2.180794588983570870e-01,2.190401022174219281e-01,-9.548069635773578923e-03,-8.504862093241187526e-03,-2.944578187073036007e-02,6.570547819137573242e-02
2.640861879549745717e-01,2.163376930044755564e-01,2.187461713395649487e-01,-8.209040971639311457e-03,-8.377988414320223370e-03,-3.029536813352928792e-02,7.305397838354110718e-02
2.282729679351752639e-01,2.387914842879690080e-01,2.213838251701412407e-01,-1.829938267100491081e-02,-1.838408179622044378e-02,-1.406696450474377927e-02,5.331723019480705261e-02
2.498376319626627040e-01,2.231476051134678451e-01,2.048824565284053933e-01,-3.700944318765037044e-02,-2.763547124689267123e-02,-4.556104759736541443e-02,1.190006360411643982e-01
2.550102102017065553e-01,2.219773293376220979e-01,2.158640118002766450e-01,-1.280997438752814327e-03,1.234078280932173084e-04,-4.620730854593566028e-03,3.740997612476348877e-02
2.564977524563453737e-01,2.242549931418052755e-01,2.145994870443414804e-01,-6.938197633012612602e-05,-4.138583208007225525e-03,-1.391115334146046136e-02,4.556427523493766785e-02
2.552444873465622432e-01,2.261378634982504909e-01,2.101498279902461186e-01,2.221998837163547780e-04,2.169994818258306341e-03,-2.824269163429823839e-03,4.007960483431816101e-02
2.401051619533059178e-01,2.453303435560651447e-01,2.256289865466827027e-01,-5.750021560749824304e-03,1.230217925200268077e-02,1.649851916808260655e-02,4.101615771651268005e-02
2.403359961313382975e-01,2.296261584831265634e-01,2.240959915700820593e-01,-8.603023116790380759e-03,1.190531461422894913e-02,1.561304692046651052e-02,3.978765755891799927e-02
2.430819151924595301e-01,2.361391017233696321e-01,2.322519278292174139e-01,-4.551715342535066731e-03,7.045307036207255728e-03,8.024709046279335928e-03,2.223852463066577911e-02
2.309366770377978550e-01,2.385997447749785561e-01,2.325183735769139892e-01,2.960478462193606090e-04,8.921285070505968837e-04,5.681798163100646110e-04,7.261048071086406708e-03
2.440862156308063469e-01,2.443447959685991766e-01,2.305098568301363338e-01,-2.674846029888853366e-03,7.300647415573586346e-03,6.905642804816413197e-03,2.263451926410198212e-02
2.134071998223383837e-01,2.404333654762467465e-01,2.297920278183139819e-01,-1.818744304040902874e-03,-2.808676790547565746e-03,-5.996400383540161257e-03,2.641054801642894745e-02
2.087018410764798770e-01,2.396957006849017580e-01,2.363485407872694122e-01,-3.350954535113105474e-03,-2.935557431118748437e-03,-7.288498372371181658e-03,3.296948969364166260e-02
2.113812266502724801e-01,2.267895654590416921e-01,2.404773061613774687e-01,-1.433210388323685400e-02,-9.507698592230544310e-03,-1.055178003938314971e-02,4.309423640370368958e-02
2.214024087240709093e-01,2.300969510792677253e-01,2.333958783610057819e-01,-8.248963228871444148e-03,-5.593352559800803155e-03,-7.060264019709491107e-03,2.372120507061481476e-02
1.604740626355957711e-01,2.576756814579992949e-01,2.954497801581520977e-01,-4.877303402694677797e-02,-3.255796926038833326e-03,1.426534094549574555e-02,1.494170874357223511e-01
2.052399926482345038e-01,2.397033815485357378e-01,2.402667639637302566e-01,-3.344420624334252991e-03,-3.185222559284741923e-03,-7.389974902374111740e-03,3.788517042994499207e-02
2.117072336876771876e-01,2.300058771594339913e-01,2.402324031015128647e-01,-4.160747744072373390e-03,-3.100616760593151444e-03,-6.732179805936212326e-03,2.903958410024642944e-02
2.492354368562697819e-01,2.409281660356464294e-01,2.100688682504990024e-01,-1.875711903627274441e-02,-2.255329049317044213e-02,-3.271301263299614126e-02,8.408048748970031738e-02
2.650744478180271924e-01,2.245723711591887106e-01,1.977370911794966712e-01,-1.156922145779560283e-02,-1.029687847202984813e-02,-2.339104830678381125e-02,7.621335983276367188e-02
2.760041195103780098e-01,2.483406827335733758e-01,1.807034962442610471e-01,-1.599504710965454768e-02,-3.385853541590636007e-02,-4.604177294348294619e-02,1.333318799734115601e-01
2.662964390060316711e-01,2.315001821597804932e-01,1.951982237041858248e-01,-8.416529981041587227e-03,-2.809218216038875116e-02,-5.594565716942071637e-02,1.255450546741485596e-01
2.452472654402484964e-01,2.335199370826375187e-01,1.958585305794749432e-01,-1.276538770603457065e-02,-1.956537798745803733e-02,-2.614790240472600683e-02,7.540553808212280273e-02
2.151970410516952370e-01,2.673601759063625183e-01,2.028419918523177712e-01,-8.263472040517258824e-03,-3.947633072779793695e-02,-1.739316806787941788e-02,9.646596014499664307e-02
2.322694789611444988e-01,2.697776200362763110e-01,1.955147770054790068e-01,-1.515969212038281028e-02,-4.341880703237451650e-02,-1.762331198804267113e-02,1.068322956562042236e-01
2.272734880297907489e-01,2.498089182023258414e-01,2.126790623199984465e-01,-2.425261550101190031e-02,-3.170763020228798551e-02,-1.680838862840173739e-02,8.171896636486053467e-02
2.014192594459590646e-01,2.644301974286404899e-01,2.198664103578927276e-01,-1.709373692404055761e-02,-5.301406514269552811e-02,-2.901462212764573112e-02,1.224006116390228271e-01
2.059714629531776142e-01,2.604469444583282778e-01,2.202188519069265549e-01,-1.604439862172799339e-02,-2.945846164561818220e-02,-1.122282316729791840e-02,7.840891927480697632e-02
2.238826701534362140e-01,2.507839821247810352e-01,2.106080422468166735e-01,-1.145120173603301345e-02,-2.991594721477140728e-02,-1.714530497664335310e-02,7.222995907068252563e-02
2.272747118624046936e-01,1.869014455345970327e-01,2.708595609181074781e-01,-3.956876578576949688e-02,4.467629527414376800e-03,-6.525431267296834779e-03,1.008661836385726929e-01
2.400504576361235654e-01,1.948066843769099277e-01,2.618174250909472978e-01,-2.337123143679751408e-02,-4.802190947132782377e-03,-7.042951577311911369e-03,7.322742044925689697e-02
2.140166789969179806e-01,1.991559740102794018e-01,2.708873006518398574e-01,-4.269040033814475166e-02,-4.628230317476334822e-03,-6.252202407866474642e-04,9.916194528341293335e-02
2.169338920995727837e-01,2.532647603848820483e-01,2.152230307370489315e-01,-3.856331067066401212e-03,-9.460891715339198385e-03,-5.123320090210046682e-03,4.215329885482788086e-02
2.149027746729846589e-01,2.196039717488912080e-01,2.612473989563210419e-01,-2.960419934122682228e-02,-4.430793984341404104e-03,-3.967650770110590398e-03,6.846457719802856445e-02
2.491392380393696870e-01,2.411164826224237723e-01,1.917119040800580598e-01,1.810011042100945211e-02,2.305089946296540876e-02,-2.365608680879686260e-02,8.460049331188201904e-02
2.410993308686312786e-01,2.385473380862023762e-01,2.361612185029035582e-01,7.435962775760437612e-03,8.764734628862741114e-03,-5.854716834505523104e-03,2.274798974394798279e-02
2.481730295024311139e-01,2.533980912370810690e-01,2.032991876816232224e-01,1.565375735521366482e-02,2.734832452425918492e-02,-3.688558014480200486e-02,9.662289172410964966e-02
2.910258799464603974e-01,1.852127807966272577e-01,2.201017983859802352e-01,1.877583800102310477e-02,2.257063680718035190e-02,-5.873627950984239288e-02,1.471655219793319702e-01
2.310934500925288237e-01,2.401152806133392270e-01,2.346038564254520065e-01,4.456043957482178422e-03,-4.188077713610716644e-03,5.096277398359571643e-03,1.587926968932151794e-02
2.340202351565651984e-01,2.372153123410802589e-01,2.304361526615536782e-01,6.255438380568535336e-03,-4.421302823498098056e-03,3.861650597610467514e-03,1.597741805016994476e-02
2.365690676525624425e-01,2.316641814350010320e-01,2.297852171930291898e-01,4.589131863404656564e-03,-4.017212606062895222e-03,5.701610994693861317e-03,1.568196527659893036e-02
2.317824685198081880e-01,2.363429731665495082e-01,2.308141150592306345e-01,2.324358615679013741e-03,-4.256694211870173418e-03,2.539974761509767101e-03,1.077370718121528625e-02
2.252092416217370552e-01,2.432917479466137345e-01,2.340790763217058534e-01,6.460821963702600632e-03,-7.092976445168428130e-03,8.022420367594852719e-03,2.673008479177951813e-02
2.347445882688497520e-01,2.379966172676531988e-01,2.245036718702267675e-01,4.114023901858783472e-03,-6.506662851444361927e-03,1.178315392952832691e-03,1.818534173071384430e-02
2.330246027374458795e-01,2.384489839491671648e-01,2.287745846735959598e-01,3.684640811006580779e-03,-2.101028025540691967e-03,2.236287819732346669e-03,1.181168574839830399e-02
2.341832417732852556e-01,2.424638115129623128e-01,2.248765060143790850e-01,7.342250335890481913e-03,-7.999282592931951721e-03,4.928332570060133325e-03,2.566719986498355865e-02
2.804380140511223973e-01,2.829939415943866776e-01,1.456749010985948778e-01,2.878812777427254208e-03,4.280601928751223695e-02,4.813606756845642543e-02,1.760262697935104370e-01
2.923943119415753911e-01,2.965933108205741076e-01,1.528933542757665576e-01,1.428858040990309275e-02,-7.095850182398920521e-03,1.419241148272746764e-02,1.463958024978637695e-01
2.885217590988891634e-01,2.757831536760033675e-01,8.973653504173531581e-02,6.700408033386429617e-03,-1.772526661022265360e-02,3.607135055702196530e-02,2.052468210458755493e-01
2.890340218547595708e-01,2.751380665278159166e-01,1.498866371356018523e-01,6.051269867386568566e-03,-4.508621699584589027e-03,2.089013977949891188e-02,1.382083147764205933e-01
2.396462101750477802e-01,2.379689691261318019e-01,2.295944421311177652e-01,6.260192256116817351e-03,6.131700058039055677e-03,-3.514802505669871024e-03,1.882595755159854889e-02
2.220215015831717986e-01,2.549118893023248344e-01,2.075792526385862868e-01,-3.118779381963785596e-04,-8.967842166746941082e-03,-2.273915372166368520e-03,4.497152194380760193e-02
2.324792070596944371e-01,2.437557966229353945e-01,2.361551057621334160e-01,6.759825339564170740e-03,9.176606170755351177e-03,-5.593322728792172842e-03,2.414112538099288940e-02
2.322056780936939402e-01,2.436668733069863313e-01,2.245376795202699005e-01,6.722780627016115493e-03,7.144284140506865569e-03,-5.288066774915392391e-03,2.550769038498401642e-02
2.418688561759130273e-01,2.355201393823236067e-01,2.348065497080987218e-01,1.879220230826932070e-02,1.874871300759872392e-02,-7.965771900503957823e-03,4.847359657287597656e-02
2.411346440028982463e-01,2.439858218128289902e-01,2.348311157569851482e-01,1.367170096993997400e-02,1.835771912401409564e-02,-9.991748189026483651e-03,4.401255398988723755e-02
2.318708725888809496e-01,2.372326955709322116e-01,2.295611383453100840e-01,5.323095579228600757e-03,5.189954797150922623e-03,-4.431692451008955973e-03,1.646818220615386963e-02
2.231768970249022044e-01,2.240586192442046987e-01,2.040841383643896001e-01,-4.005247537631889676e-02,-4.908300708844933607e-02,-4.756789237873653570e-02,1.386011689901351929e-01
2.549680790202768499e-01,2.189439632330429653e-01,1.994713728920096130e-01,-2.503128767246531883e-02,-2.759688409400843506e-02,-3.949483358695968921e-02,1.059357672929763794e-01
2.510340654707353680e-01,2.205776401758835492e-01,1.919115654120219783e-01,-3.452646961391774016e-02,-5.091991805136386606e-02,-5.536495410244520604e-02,1.522267460823059082e-01
2.354045135996246096e-01,2.139969436613908260e-01,2.120290796709583259e-01,-2.767074346064868351e-02,-2.384111579304328682e-02,-3.245645511643310138e-02,8.756000548601150513e-02
2.415991639491638643e-01,2.258655933860380383e-01,2.230279580504248294e-01,-1.584083077274612075e-02,-1.480123801174212592e-02,-2.012580388308317023e-02,5.408708751201629639e-02
2.296468612360672290e-01,2.600700525766799220e-01,2.167565295637413902e-01,1.869003532394977220e-03,-1.382638987980887822e-02,-8.316758248330903200e-04,4.549679160118103027e-02
2.271103502219418702e-01,2.335674777291227577e-01,2.063955497959807650e-01,-2.202001855717839601e-02,-3.004402639847821715e-02,-2.706909287259493674e-02,8.345859497785568237e-02
1.503498609867735536e-01,2.501127668834777218e-01,3.412343786606614748e-01,-1.024523101793241298e-01,-2.777446354449772045e-02,-5.463248004525736098e-03,2.474663108587265015e-01
2.557578315569047911e-01,2.209246326129196969e-01,1.941937281505756452e-01,-4.777414445903772032e-03,-9.052693518393517894e-03,-2.365965788336070463e-02,6.966117024421691895e-02
2.502470367560308828e-01,2.241139098786992523e-01,2.084721972483962460e-01,-1.170481278527083120e-02,-1.140437935221071987e-02,-1.668708723538041977e-02,5.452462285757064819e-02
2.486327822102269158e-01,2.281557216051739445e-01,2.170552565611376106e-01,-7.263876938205843584e-03,-7.755793717711493077e-03,-1.027887774606922947e-02,3.775645419955253601e-02
2.610660011003128056e-01,2.130464180706366506e-01,2.201668115297092387e-01,-8.139258182185533930e-03,-9.151713049765261912e-03,-3.118042452660665931e-02,7.335750013589859009e-02
2.506977932649672725e-01,2.086952402600707468e-01,2.159857674927314897e-01,-1.119889570185869827e-02,-1.131035851932263997e-02,-2.070881621490444635e-02,5.964670330286026001e-02
2.351097906888932054e-01,2.580790121699709228e-01,1.988045356561041754e-01,-1.698561982225011520e-03,-4.401189722665485408e-03,-1.212690637649193421e-03,5.244748666882514954e-02
2.488237863012958684e-01,2.160157964777362216e-01,2.177351826121386724e-01,-6.257992837818932702e-03,-7.277533729073528204e-03,-9.991591619981908881e-03,3.998476639389991760e-02
2.525895214414271006e-01,2.130798309978647886e-01,2.252963258967930482e-01,-2.743284777903421279e-03,-4.733128914127251834e-03,-1.305078389507115244e-02,4.275911301374435425e-02
2.184962829921960337e-01,2.205208392285047669e-01,2.532579672984232033e-01,-9.528129039230552599e-04,3.373019397731282149e-04,-2.501353138687394465e-04,3.384300693869590759e-02
2.530924476524807898e-01,2.205863839693580630e-01,2.191498196973941659e-01,-1.385095097012018894e-03,-8.865355227908807171e-04,-5.170732038515125917e-03,3.455036506056785583e-02
2.536911891318525680e-01,2.183105806384754155e-01,2.163436394335593593e-01,-1.698349478410314658e-03,-8.851340539551465431e-04,-4.518720129506876085e-03,3.738325834274291992e-02
2.537158756209118571e-01,2.248258856841646169e-01,2.134370312981694329e-01,-1.949852516231173876e-03,-9.196621281552784001e-04,-3.181705142133165430e-03,3.657422959804534912e-02
2.567892226190688354e-01,2.186949274242423469e-01,2.026645895048963808e-01,5.159721904816591369e-03,3.515049746818759736e-03,-2.192687508832118562e-02,6.227447092533111572e-02
2.077896614566716593e-01,2.289657020020950673e-01,2.521094061108486994e-01,-8.614410035974564769e-03,-3.577364243399028341e-03,-6.444131901156631599e-03,4.312476143240928650e-02
2.557780525990309139e-01,2.275201666022201030e-01,2.071016463193430246e-01,8.642925599597139170e-05,-1.061014402586552084e-03,-1.110314322127691281e-02,4.653651639819145203e-02
2.598426328403070085e-01,2.276897174813923563e-01,2.088017317122959904e-01,8.348499483224899008e-04,1.505285742735841016e-03,-1.064555636974339088e-02,4.844318330287933350e-02
2.314448044571318364e-01,2.327079130857710454e-01,2.415810942715935772e-01,-2.783700202612113348e-03,6.606813952569838555e-03,7.839912578295714363e-03,2.073948457837104797e-02
2.292961518624564432e-01,2.389185042798867564e-01,2.321896960815996169e-01,-4.260206982386286791e-03,4.538203204086392953e-03,4.241104011758656429e-03,1.559853833168745041e-02
2.357006678684339385e-01,2.330125594312490445e-01,2.262898934991451061e-01,-6.805485622824348525e-03,1.098523681484964154e-02,1.145793819730166023e-02,3.106951341032981873e-02
2.382588949378250942e-01,2.373987885885754101e-01,2.419100925629931453e-01,-9.314461545453961086e-03,1.709719822630563490e-02,1.555018650037143929e-02,4.335731267929077148e-02
2.321381471836831134e-01,2.328334779366535157e-01,2.366098172952530443e-01,-1.497007166579528495e-02,1.107028560409560429e-02,1.090295590342604294e-02,3.760260716080665588e-02
2.213443746435417858e-01,2.186018320437863316e-01,2.532353002815253551e-01,-1.434670385421458073e-03,3.132920594621992110e-05,1.494759984556577126e-04,3.344038873910903931e-02
2.393035285199877904e-01,2.332284837109834252e-01,2.318470767576476244e-01,3.116418388232981059e-03,-2.714884250431137507e-03,2.782260812656294196e-03,1.103075128048658371e-02
2.319211085493331215e-01,2.397816405698374453e-01,2.332112613964246461e-01,2.957159375697126190e-03,-2.685898112679105561e-03,3.565475897954778050e-03,1.180362422019243240e-02
2.282865795742020643e-01,2.155168920760451301e-01,2.277803973347940214e-01,-1.315124393540267368e-02,-1.368874118929427897e-02,-1.244536571781776173e-02,4.126171767711639404e-02
2.338440757074030929e-01,2.356357543678310462e-01,2.326297191081395099e-01,1.718908053614592911e-03,-1.007793229923536040e-03,1.009886257164556130e-03,4.672365263104438782e-03
2.336173753531543551e-01,2.384179620131129662e-01,2.311900524538435808e-01,1.989655251801181798e-03,-3.935092380597295385e-04,9.030008840528191711e-04,7.441577035933732986e-03
2.602602615318763135e-01,2.284740626068419156e-01,2.141065841673490955e-01,-4.731958316497330598e-03,4.809547971856397396e-03,2.342374971650970292e-02,5.878826603293418884e-02
2.480953411728574198e-01,2.333234471420435607e-01,2.257243832212796619e-01,-4.588034514569232225e-03,5.653639821520015443e-03,1.274273217849132382e-02,3.216177970170974731e-02
2.567633246633334032e-01,2.235852913421597921e-01,2.243467352876835630e-01,-8.936168233626286912e-04,7.174390118551135162e-03,1.274579721408793803e-02,4.147620871663093567e-02
2.556196369294634896e-01,2.158212298879672586e-01,2.364134242922447393e-01,-7.560387787812417743e-03,8.080086559942842306e-03,1.516184165267473599e-02,4.738566651940345764e-02
2.570684317692650822e-01,2.250623762257040472e-01,2.361122001890637312e-01,-4.131001282678527318e-04,8.604807995112083788e-03,1.648671060836418359e-02,4.278901591897010803e-02
2.473455935149083129e-01,2.243542091751738188e-01,2.357608250400280714e-01,-4.481627067281597140e-03,8.055147146956438686e-03,9.081805571347823305e-03,2.998015098273754120e-02
2.218266738573695107e-01,2.612139703939295177e-01,2.157980525063757371e-01,-1.339766522571999609e-02,-2.916304560551378697e-02,-1.604455233378796961e-02,7.541471719741821289e-02
2.541437907826885056e-01,2.290937848464736637e-01,2.251224052724272728e-01,6.698719663478787216e-04,6.522126579236021233e-05,3.271904615534546902e-03,2.786095440387725830e-02
2.539565574312784846e-01,2.238986020354609974e-01,2.210963053239602127e-01,6.261909179957909216e-04,2.337088297527576113e-03,1.286300513193414964e-02,3.885225579142570496e-02
2.496100501752907819e-01,2.290337408165506183e-01,2.308563220470307431e-01,-3.094152427100439078e-04,2.687428983014970157e-03,4.458870078651634879e-03,2.169799432158470154e-02
2.312880021004999898e-01,1.962532807003161961e-01,2.589200520212249224e-01,3.080468329164694208e-02,8.773010122168901220e-03,-3.082294555407072076e-03,7.787957042455673218e-02
2.429471185108630915e-01,2.095825598404055801e-01,2.520113191278735010e-01,1.479543601066485997e-02,8.637974350689735584e-03,-4.420373382355746034e-03,4.936551675200462341e-02
2.476751022818397818e-01,1.961623897849242293e-01,2.622386705233275550e-01,8.956328706500267522e-03,2.600508995244618562e-03,-3.642338929313411987e-03,6.258275359869003296e-02
2.524411982574670810e-01,1.963696361070941809e-01,2.588178991880228375e-01,8.759590611324643075e-03,6.959420346294905094e-03,4.693061681110988030e-03,6.311735510826110840e-02
2.366977580184952967e-01,2.159066455186939848e-01,2.529833622315995068e-01,4.926792562442701071e-03,2.730156320917124114e-03,-6.946460093124593761e-04,3.365584462881088257e-02
2.391658001137245138e-01,2.207328542339743183e-01,2.566025663287466174e-01,1.245288572535100183e-02,-1.090258884210965930e-03,-6.210790648501798806e-04,3.788365796208381653e-02
2.371159023702125723e-01,2.154587829642726771e-01,2.527962328799355785e-01,4.322388930528720842e-03,3.329899121416297035e-03,-4.306979686529881831e-04,3.382845968008041382e-02
2.278491744096700355e-01,2.244856025497109775e-01,2.320709009037182913e-01,-5.320344602502434517e-03,-6.002586321037071786e-03,-5.069992907164935780e-03,1.770487241446971893e-02
2.610843713533197441e-01,1.987678016962743655e-01,2.522801361947034637e-01,1.776940018442106639e-02,1.363032051253405298e-02,-1.463698122534688208e-02,7.456242293119430542e-02
2.482227961192052246e-01,2.139856041391774710e-01,2.551628416761434481e-01,1.387615365122681944e-02,8.414074626597316253e-03,-7.875402002984473876e-03,4.933615401387214661e-02
2.704333680035326259e-01,1.990470302360287103e-01,2.333759557586226885e-01,3.530731385789242366e-02,1.143786767972965884e-02,-4.050726732185466750e-02,1.134842634201049805e-01
2.411305341359847032e-01,2.145681530517140889e-01,2.395123584241460601e-01,1.474113132802653409e-02,1.073057555090313996e-02,-1.014981899004696424e-02,4.440260306000709534e-02
2.295504343660205726e-01,2.158601556833181223e-01,2.406834113431218503e-01,3.496185349289882005e-02,2.802755309670374936e-02,-2.020318542385826990e-02,8.781749010086059570e-02
2.400302576180605718e-01,2.280538014361890853e-01,2.506898710301497246e-01,2.355935307221376437e-02,1.732724035909324889e-02,-9.329256346066277378e-03,5.667152255773544312e-02
2.110194724865744609e-01,2.362584359809857815e-01,2.566719778202766755e-01,1.444064612086332945e-02,-6.565875041376534674e-03,8.387967448985296504e-03,5.034816265106201172e-02
2.140118966172806780e-01,2.562007619526368574e-01,2.558685477815580978e-01,2.379721992908187533e-02,-1.987717749244348464e-02,2.034838192605625470e-02,7.676193118095397949e-02
2.153626519213250878e-01,2.561471796814489554e-01,2.510285841820011354e-01,2.346001641062671686e-02,-1.954791319305187666e-02,1.959405277168005388e-02,7.368906587362289429e-02
1.986104344986145964e-01,2.595318494393594189e-01,2.591322699596039225e-01,1.539468595524785474e-02,-1.290448791911641413e-02,1.382195990326380401e-02,7.396581768989562988e-02
2.306147036445772569e-01,2.372338187866836479e-01,2.462541591123187934e-01,2.947138280876137467e-02,-2.687022687885100292e-02,3.351038389064701917e-02,9.124384075403213501e-02
2.356731526483033246e-01,2.339267883066899201e-01,2.567051706681626189e-01,3.082710121246696328e-02,-6.176763372129499136e-03,2.287129272353683948e-02,7.082937657833099365e-02
2.093689738560287339e-01,2.250843000873952726e-01,2.619572095506986220e-01,4.585808375329498282e-02,-1.623517538779922081e-02,2.897153895594092171e-02,1.086450070142745972e-01
2.238490344442118918e-01,2.324988783624779842e-01,2.424762565984721063e-01,1.270841636569456680e-02,1.183997696724658696e-02,-8.382480747600378618e-03,3.710168972611427307e-02
2.453801509895542632e-01,2.335860939080517673e-01,2.234552110129045255e-01,9.564631017335832944e-03,8.850891543733162281e-03,-8.810949507730574809e-03,3.322015330195426941e-02
2.157346636474708201e-01,2.196396077109621925e-01,2.346586875473733458e-01,-2.947819478697370071e-02,-2.207520357548458170e-02,-2.623057281468144444e-02,8.020246028900146484e-02
2.407841355694071983e-01,1.970923595537671658e-01,2.418064629428774703e-01,-2.399083099854945611e-02,-1.506304908671122003e-02,-1.897734232897814802e-02,7.377308607101440430e-02
2.374395918854479703e-01,2.006671278752218956e-01,2.585122223276420939e-01,-2.266547298807730301e-02,-1.056712960131704626e-02,-1.304287929100475529e-02,7.041076570749282837e-02
2.200194781219964868e-01,2.045723657055002198e-01,2.499332512162588116e-01,-2.059291479152046064e-02,-1.141789355594535586e-02,-1.203758512034949768e-02,6.077456846833229065e-02
2.129614778665823716e-01,2.516439253208243021e-01,2.214011535985452028e-01,-4.764198622181166701e-03,-1.236092633453410132e-02,-4.191942666599737799e-03,4.266474023461341858e-02
2.191203887662647176e-01,2.528989257454454798e-01,2.195137776356570758e-01,3.507977385448725251e-03,-1.010307294604364560e-02,3.835202855940710899e-03,3.892449662089347839e-02
2.327895814856062728e-01,2.726808997055619188e-01,1.870063821772390833e-01,-9.256240812867674861e-03,-5.913399376282114928e-02,-2.847676399491185732e-03,1.276151239871978760e-01
2.232609455868518888e-01,2.555350263281938039e-01,2.239737867593603604e-01,5.977192212659256619e-03,-1.360911830741123874e-02,6.287762649725307101e-03,4.243266209959983826e-02
2.213509083639569330e-01,2.545345346823163490e-01,2.082559737770530994e-01,1.042292370588873175e-02,-2.839392059582062158e-02,1.020652025971696165e-02,6.902349740266799927e-02
2.190653641438893295e-01,2.548003762604745259e-01,2.239491743822016601e-01,3.681763404669987846e-03,-9.319734403128790423e-03,7.070827831814803684e-03,3.971835970878601074e-02
2.285906883050170535e-01,2.549620507707097694e-01,2.126342970862044324e-01,-2.234182852098040052e-03,-1.490143804535587480e-02,2.216025522523143183e-03,4.546111077070236206e-02
2.289852785878755126e-01,2.504144175422989838e-01,2.232766258818827954e-01,8.702862498769527860e-03,-1.210227854708834441e-02,9.650789277165013058e-03,3.949881345033645630e-02
2.044567434759486380e-01,2.696146314692070556e-01,2.164234704732745096e-01,5.145915212094382025e-03,-2.716429858781716292e-02,-5.882846247124509393e-04,7.683230191469192505e-02
2.007610859402418901e-01,2.355463660323826591e-01,2.521611141425885161e-01,-4.097538122343620005e-03,-3.806510752896439566e-03,-5.552881363415347257e-03,4.743791371583938599e-02
2.432212649413090788e-01,2.563210359438224950e-01,2.150660240947289137e-01,1.344367092390857249e-02,-1.108477363385236558e-02,1.229517888315853624e-02,5.193723738193511963e-02
2.251514655428727418e-01,2.211581727619140181e-01,2.420204671433798804e-01,-3.797103436572816550e-03,-2.715751466111839419e-03,-2.658269722593068710e-03,2.131786942481994629e-02
2.425071410899301561e-01,2.595305095389911498e-01,2.072840031947341122e-01,5.171656161915645991e-03,-1.620781161975751866e-02,6.739701310254427036e-03,5.598811805248260498e-02
1.685747439275967485e-01,2.177465196103972045e-01,3.687136810468770176e-01,-1.249583824845080238e-01,4.721893126465712826e-02,4.099072270323824568e-02,3.020027577877044678e-01
2.349492205469185802e-01,2.499724020586690798e-01,2.075844022355782803e-01,2.851430170019078267e-02,-3.799071327901094169e-02,1.666785422417610754e-02,9.480594098567962646e-02
2.380050738739710181e-01,2.865019372187533886e-01,2.084419222722943554e-01,1.166962549701001939e-02,-3.754805888701568534e-02,1.745591230791729981e-02,1.010538637638092041e-01
2.564028017538456106e-01,2.188135666306660065e-01,2.452090301182944243e-01,1.717760706807483842e-02,1.773852541582480319e-02,-3.247692568551494019e-02,7.817234098911285400e-02
2.650964282500039015e-01,2.105563373192312071e-01,1.946860249826619649e-01,1.093405036639463236e-02,1.256538017428667463e-02,-4.471655676540975399e-02,1.045136079192161560e-01
2.710842286926370415e-01,1.868059671016180090e-01,2.477129446506270427e-01,1.968556090123966401e-02,1.695062271656200964e-02,-2.318890452155003210e-02,9.652493149042129517e-02
2.563455012556120627e-01,2.044339646248022058e-01,2.258674453838755425e-01,4.686336752164769852e-03,5.856136696342702751e-03,-1.812246337644010663e-02,5.652960389852523804e-02
2.794160563969972366e-01,1.800303942781011080e-01,2.558245214810898061e-01,2.379679387402472424e-02,2.184666308082607034e-02,-4.356692648790818495e-02,1.300551146268844604e-01
1.880634062567391185e-01,2.457144302754447340e-01,2.534686470024354321e-01,-4.819502358258033470e-02,-4.383570353010104309e-02,-3.196410003121125110e-02,1.401031911373138428e-01
2.582955369126425094e-01,2.003339533825591046e-01,2.404427542667005036e-01,1.730703709771586399e-02,1.671990798462525199e-02,-2.304907006597674626e-02,7.729513198137283325e-02
1.825734064750217378e-01,2.365157030863592469e-01,2.602352479486128023e-01,-3.573940700549605581e-02,-1.859289827576455015e-02,-1.032288348006752364e-02,9.970237314701080322e-02
1.886188902267548206e-01,2.377036532255871193e-01,2.567573741354749473e-01,-5.022795870462234968e-02,-2.946904121780078573e-02,-1.208828012181027527e-02,1.196653768420219421e-01
1.633896693998478367e-01,2.405859786956146551e-01,2.710381890174723418e-01,-5.541238979150595739e-02,-9.098147196839902889e-03,-6.172426600257474756e-03,1.371554881334304810e-01
2.547824164488148302e-01,2.154550200922837611e-01,2.303630373167366019e-01,1.030442269837631396e-02,-6.062020503086737629e-03,2.107815544355180412e-02,5.426097288727760315e-02
2.546889172505370502e-01,2.424045388421752212e-01,1.988178628856534236e-01,1.244724820217565572e-02,-1.228607772784449763e-02,3.218791344483708933e-02,8.131401985883712769e-02
2.548409663708711692e-01,2.260285016248320678e-01,2.322114612710405868e-01,6.758534817107076514e-03,-2.534194859076933752e-03,1.502825829527778406e-02,3.903954848647117615e-02
2.503596815152250299e-01,2.299424025731625909e-01,2.278842797401088027e-01,4.707484556141936817e-03,-2.233911296482101339e-03,5.433033865436477997e-03,2.516204118728637695e-02
2.421804042410574398e-01,2.338698062304058189e-01,2.388302742907688903e-01,6.367418233890306117e-03,-3.403482786004091449e-03,8.250119750217378006e-03,2.032300084829330444e-02
2.548202631428287956e-01,2.377020890358238769e-01,2.107398974080631204e-01,1.270580624444509789e-02,-8.827384176004629893e-03,1.783259755865532550e-02,5.615710467100143433e-02
2.492689075043134916e-01,2.365512061969800850e-01,2.234766079098068348e-01,4.252596101899286732e-03,-5.889077473648141915e-03,9.433471596482863666e-03,3.040119260549545288e-02
2.425254699042974083e-01,2.376882858368855600e-01,2.329037932792150656e-01,1.068575570941125534e-02,-7.661354233547953974e-03,1.919959801289798998e-02,4.115764796733856201e-02
2.423625612760355041e-01,2.367979217891926502e-01,2.144775177693201418e-01,1.056958673830817388e-02,-8.880972463972222619e-03,1.573683330487679957e-02,4.436302557587623596e-02
1.928649311577799730e-01,2.374911044535591986e-01,2.518568708120526023e-01,-9.628572147948171248e-03,-5.323843802073679153e-03,-6.759887410852150058e-03,5.778586491942405701e-02
1.610942684355738397e-01,2.555037214395043943e-01,2.528377662547634519e-01,-2.231537585293897480e-02,-1.864749459044090854e-02,-4.041529756609820237e-03,1.060880646109580994e-01
1.874159850594167565e-01,2.146898921607509891e-01,2.535891285080859037e-01,-4.577181107961816181e-02,-2.797296132575655819e-02,-2.083951338890669899e-02,1.151235997676849365e-01
2.073600730986351615e-01,2.173667313324295913e-01,2.504498437567586611e-01,-2.014156568867645630e-02,-1.092378190685814807e-02,-1.087559702032736032e-02,5.878390744328498840e-02
1.970945577775927715e-01,2.425076176259244876e-01,2.367352628545248971e-01,-3.887619377346891725e-02,-3.808180690759990078e-02,-2.334778175293281827e-02,1.111468821763992310e-01
1.970943481921911544e-01,2.522648988010379734e-01,2.465651860787901883e-01,-1.550496911385273319e-02,-1.911782836163946134e-02,-9.765329756072962594e-03,6.975378841161727905e-02
2.155071975640978077e-01,2.301373067906994641e-01,2.467868580552433078e-01,-4.837838657396244767e-03,1.598793743380516261e-03,3.859561115379247891e-03,2.928145416080951691e-02
2.200598857891870597e-01,2.422706171693341237e-01,2.371418248477038804e-01,-2.991557200288742779e-03,4.387446804439081895e-03,6.045401768635052901e-03,2.449377067387104034e-02
2.412001908378365589e-01,2.391492455757803781e-01,2.177227607538964049e-01,1.112990371655302527e-02,-1.101026318267667517e-02,1.255700282667236191e-02,4.141958430409431458e-02
2.547713627043540763e-01,2.238450270366938166e-01,2.344419060471885086e-01,4.377783493278320642e-03,-3.995523966516197761e-03,1.197117580183871578e-02,3.572567924857139587e-02
2.606695008918734069e-01,2.410384626886827586e-01,2.127962720608422009e-01,1.922609812009864333e-02,-2.073246896162717328e-03,2.723160892359332771e-02,7.130166888236999512e-02
2.466650685599386106e-01,2.323455459735092599e-01,2.279331906648160433e-01,7.299849044276742610e-03,-3.689359706441447569e-03,5.905029441033341799e-03,2.435171604156494141e-02
2.466317879977637240e-01,2.390324862880474632e-01,2.286615946164599622e-01,7.581520374524700762e-03,-3.572705776801271115e-03,7.901607356243378275e-03,2.534074895083904266e-02
2.543241324512909296e-01,2.203653684841814508e-01,2.251913067985710504e-01,9.398949842710103281e-03,-6.660319013825343262e-03,1.740263177637627751e-02,4.815869033336639404e-02
2.466719578160772031e-01,2.322966302258031579e-01,2.349955471233989568e-01,7.078884240754430845e-03,-4.123568943748912551e-03,6.703349778612020284e-03,2.261159755289554596e-02
2.385232257956076962e-01,2.411522610716426707e-01,2.232854370888947282e-01,1.051372116227348823e-02,1.363093790969074903e-02,-7.156713446261387529e-03,3.635712713003158569e-02
2.448056250068325335e-01,2.456254765419171593e-01,2.186972214926782843e-01,1.673410589153309300e-02,1.601269229445955247e-02,-7.978368775757296513e-03,5.003997310996055603e-02
2.191077312727530424e-01,2.083094706011742459e-01,2.567160814959401072e-01,-2.294995557800099881e-02,6.402725838810878999e-03,6.357210736904648704e-03,6.133044511079788208e-02
2.201562378325243596e-01,2.203164181257413756e-01,2.703216636505529902e-01,-2.975930150917707739e-02,2.882872550469841016e-03,3.042837509804161619e-03,7.223653793334960938e-02
2.184363388471237677e-01,2.306882625890773753e-01,2.568246580520167077e-01,-8.131838983656904801e-03,4.874036647092199262e-03,6.139487873662853763e-03,3.919401764869689941e-02
1.490958744266098202e-01,2.086085703818772452e-01,3.327877776906651430e-01,-1.109843756967291289e-01,-2.214725521410781245e-02,1.620880901013943207e-02,2.560561597347259521e-01
1.480874005030542451e-01,2.411491387458510327e-01,2.651439011622499509e-01,-6.470143543017684018e-02,5.605715783086488713e-02,3.690667968612626471e-02,1.937565058469772339e-01
1.830652333694596234e-01,2.555011333170882915e-01,2.719698670496332182e-01,-1.009005846500664050e-01,3.260787421970058608e-02,2.374612458367683296e-02,2.052689641714096069e-01
2.397609320253295540e-01,1.973989413994755027e-01,2.887415227303721244e-01,-4.743633686221550294e-02,1.089760249501848383e-02,1.381865693177358398e-02,1.181029602885246277e-01
2.043958979243763463e-01,1.294980442059723846e-01,2.924123732074266901e-01,-9.842838002330776825e-02,-7.326484906883442769e-03,-5.198221035539056338e-03,2.219355106353759766e-01
1.979810453036102980e-01,1.401133962994149385e-01,2.962214993181944700e-01,-9.671926512028312939e-02,-1.176584313071602807e-02,-1.289771121705032483e-02,2.183185815811157227e-01
1.881039477857092690e-01,2.395899116590423927e-01,3.059248695482981173e-01,-5.308145663519937135e-02,1.353056523706434693e-02,1.167034140631470485e-02,1.409865021705627441e-01
2.394885432397259317e-01,1.968711302254471940e-01,2.821432310213904948e-01,-4.779838247421974023e-02,1.294195095001561026e-02,1.565728793869074209e-02,1.163850873708724976e-01
2.485087233816387631e-01,2.312542301365614894e-01,2.266229185382719891e-01,-1.705162741987642202e-03,1.615294393457621710e-03,3.523112165203141216e-03,2.128061838448047638e-02
2.568067517268307620e-01,2.342950795208713077e-01,2.212088466101927720e-01,-2.065316922585834318e-03,7.892947189580055631e-03,1.240008036691225835e-02,4.041777178645133972e-02
2.428711588866801774e-01,2.363088445668374837e-01,2.254404535990188752e-01,-4.364785513948880348e-03,2.405820247593700237e-03,3.714657743456038601e-03,1.866605691611766815e-02
2.455841814457070948e-01,2.287330043405946534e-01,2.361371651407382366e-01,-3.622558745694871851e-03,5.821516625316136215e-03,6.535134501254101329e-03,2.198130637407302856e-02
2.426851650829304208e-01,2.152682000612064495e-01,2.332101141790883791e-01,-9.709944363248367016e-03,8.601737986217283111e-03,1.255392632878845997e-02,3.948811814188957214e-02
2.552058885122909238e-01,2.062863983429164827e-01,2.306546338448490496e-01,-1.128843705280116634e-02,1.471944635687982492e-02,2.544474423597761076e-02,6.906101107597351074e-02
2.494023322318101310e-01,2.299124808763401695e-01,2.310494015779396004e-01,-5.768608988298300124e-04,3.127522921128616726e-03,3.867316739369255039e-03,2.083745226263999939e-02
2.454237807343099820e-01,2.366652150120421572e-01,2.336691751539000106e-01,-3.025019187056137825e-03,6.810441142329754297e-03,6.071409770133259949e-03,1.972598209977149963e-02
2.526797967258705979e-01,2.348629382578168445e-01,2.281033837630044026e-01,-3.095174323770530367e-03,6.410253310218578561e-03,1.155568131689901738e-02,3.218977525830268860e-02
2.535031455393140787e-01,2.320687986335774611e-01,2.129131084925627859e-01,-5.127537551781154342e-03,7.719599061113857630e-03,1.956009573126684872e-02,5.140432715415954590e-02
2.580663160300162851e-01,2.254245624380078472e-01,2.247260144000099713e-01,-7.436561764092538326e-04,3.038103369973525238e-03,1.094223232338007931e-02,3.843592852354049683e-02
2.585501219541700424e-01,2.082697574945690244e-01,2.232707138452199036e-01,1.022119598886275793e-03,3.918244602402875393e-03,3.115365181088388530e-02,7.042536884546279907e-02
2.547575584035103313e-01,2.053481489171758434e-01,2.509546768944522777e-01,1.119325145093338393e-02,-5.347121653934757291e-04,2.201778200297111257e-02,6.402285397052764893e-02
2.269319731031373966e-01,2.158062255258494377e-01,2.547719019136353014e-01,-1.348862283249589213e-02,9.534358953589190406e-04,1.485840764037604225e-03,4.199717938899993896e-02
2.624673267079269401e-01,1.785909652648206558e-01,2.660108709954350781e-01,-4.109579161540041032e-04,3.930062716710280325e-03,8.263683785578523205e-03,8.715921640396118164e-02
2.688825166827458202e-01,1.955372155271740409e-01,2.568403203385006828e-01,2.798801338580045317e-02,-2.189519325950211280e-03,1.547970287893526628e-02,8.788937330245971680e-02
2.305692799430132389e-01,2.190675672729630596e-01,2.390830933431852268e-01,-1.180778115608616813e-02,1.036118626818967672e-02,1.101958038266485050e-02,3.751432895660400391e-02
2.582211776384886748e-01,2.016000308499799887e-01,2.583975729441591596e-01,1.020411287870412291e-02,-2.280190388602294522e-03,6.168438261203764393e-03,6.048215925693511963e-02
2.565834031567583162e-01,2.037333880701159838e-01,2.519342693630500785e-01,5.485220803752037001e-03,1.601829750917185997e-03,9.853641493303392715e-03,5.439002811908721924e-02
2.570661442308244116e-01,2.119401396348326583e-01,2.527393260720161572e-01,1.212557916514347793e-02,3.577705294534028711e-04,3.397765517993860986e-03,4.833149164915084839e-02
2.529543796487007667e-01,2.138397175414293583e-01,2.548311654700903817e-01,3.029975076863949957e-03,2.400844915153387167e-03,1.619264020784613040e-02,4.937943071126937866e-02
2.432572088233846963e-01,2.202126499183947872e-01,2.202529109267426510e-01,-4.963845608224601476e-03,-5.533558527572804073e-03,-6.838825321034050671e-03,2.891736850142478943e-02
2.506823023463201072e-01,2.235915617243576514e-01,2.213758851303479214e-01,-2.732040383827758455e-03,-3.536544024374894870e-03,-4.632440629923911465e-03,3.038311749696731567e-02
2.202816384655604254e-01,2.056850977745888209e-01,2.573180420727133044e-01,-2.199107203519490641e-02,5.459805637831581689e-03,4.876225829318625582e-03,6.113051995635032654e-02
2.593592008953540806e-01,2.017446491909525297e-01,2.347657475341940192e-01,4.138024445020981133e-04,2.395140890545992014e-03,-5.592307900501748176e-03,5.117498710751533508e-02
2.301909117021030127e-01,2.222128429664128046e-01,2.491943195243354614e-01,-1.065187625331848360e-02,4.053016126023951254e-03,3.316459290487571397e-03,3.160782530903816223e-02
2.277964353130511044e-01,2.245976584955302890e-01,2.471192389304548709e-01,-6.410944183411908942e-03,7.120255141866082063e-03,6.183414183127564252e-03,2.890520356595516205e-02
2.245892138578409469e-01,2.136011629974310932e-01,2.573328752744460934e-01,-1.763426694504973552e-02,1.288980069713514809e-02,1.333707130186490702e-02,5.930977314710617065e-02
2.271177896536958896e-01,2.354272663691030498e-01,2.474411928709042974e-01,-5.973741182820800459e-03,7.185588790701535195e-03,7.706228466897736482e-03,2.744674682617187500e-02
2.198914546175241291e-01,2.318781919699457461e-01,2.474717156931570960e-01,-1.159284116903262947e-02,9.286120823423995793e-03,1.024495322385103602e-02,3.937652334570884705e-02
2.594715395261626978e-01,1.992832603472765862e-01,2.232844921644305258e-01,-7.441927344812247422e-03,-5.738928700541939473e-03,-2.342005124404544780e-02,6.829746812582015991e-02
2.552085454622132765e-01,2.154332453475443221e-01,2.159686379072509599e-01,-6.258789980358119183e-03,-1.614491974341625410e-03,-1.279904339311538700e-02,4.666743427515029907e-02
2.569913983850634631e-01,2.250853475402730119e-01,2.151915163843600987e-01,-1.424915076673347264e-03,-2.821548091052158112e-03,-1.412628102632786792e-02,4.538928344845771790e-02
2.485376085274823288e-01,2.243068985716522024e-01,1.970976167342146368e-01,-1.306862846842495214e-02,-1.702199694503393410e-02,-2.388816585395679704e-02,7.127635180950164795e-02
2.615659844397036915e-01,2.191631435719073595e-01,2.144994565359849004e-01,2.045772155832545347e-02,1.843158028008227631e-02,-2.912193366362492500e-02,8.268307149410247803e-02
2.720013030479808136e-01,2.192839968686523811e-01,1.698876943200343659e-01,-1.672885188198570483e-03,-2.659240925741481517e-03,-4.850154558542381367e-02,1.221063435077667236e-01
2.602977897717207445e-01,2.004564760242365795e-01,2.262664277718517691e-01,-3.674639288824678093e-03,-2.300937445240229529e-03,-3.565240733845989607e-02,8.106978237628936768e-02
2.648241860780149448e-01,2.402300312926128611e-01,1.936512707414241585e-01,1.197026356940618548e-02,1.169179489351026419e-02,-4.618099452337215416e-02,1.056315600872039795e-01
2.716144867128262308e-01,2.196695362193834822e-01,1.998536991898375581e-01,-2.801257732213830939e-03,-1.105112626981805775e-03,-5.547588461629702344e-02,1.156728342175483704e-01
3.025466096353138234e-01,1.930363906873575341e-01,1.281934747016756360e-01,2.130646564023435524e-03,-2.157698702760338198e-03,-1.092382427303118658e-01,2.431555539369583130e-01
2.929881385909959279e-01,1.861899384085461961e-01,1.318638970074347827e-01,-2.427790042490572675e-02,-3.561178641723224125e-02,-1.135612805455529922e-01,2.538118064403533936e-01
3.018547406165070779e-01,2.108434602276406111e-01,1.496242677980965108e-01,-4.395275802086933553e-02,-5.355818969325415457e-02,-9.164719067340025560e-02,2.391674667596817017e-01
2.924324327556978020e-01,1.812577036079031645e-01,1.899084721046732371e-01,-2.214623059960265511e-02,-2.182537881569358157e-02,-1.230619705732779734e-01,2.445527762174606323e-01
2.954905235281534148e-01,1.386334561217478223e-01,1.843646091995722325e-01,-2.337383895510337581e-02,-2.106218689065453981e-02,-1.094170886567451401e-01,2.416782528162002563e-01
2.268418600318850009e-01,2.365035236560857346e-01,2.553988174828056290e-01,1.523999905028175506e-02,-3.974904946695989203e-04,7.482385181258025333e-03,3.870587423443794250e-02
2.241731913084131778e-01,2.229376185624570572e-01,2.578775680561412043e-01,1.121692682365349990e-02,3.219434640171000596e-03,-1.125838368110525234e-03,3.989374637603759766e-02
2.227777618271507831e-01,2.226452783749284792e-01,2.536826530733867768e-01,1.179378471374722959e-02,9.216883293250073030e-04,6.955355535357367249e-04,3.715513646602630615e-02
2.061101090060603880e-01,2.246425562275638221e-01,2.583259417955745540e-01,2.755511887632279208e-02,4.820881218445644337e-03,-1.216809337372503968e-03,6.674036383628845215e-02
2.198955856305445378e-01,2.318232260820731749e-01,2.366352079196132330e-01,-1.151938192015116574e-02,1.128506091597288041e-02,1.104010188584446731e-02,3.699482604861259460e-02
2.039545692393969489e-01,2.555743754012017033e-01,2.289294869688853484e-01,-1.387234786094176508e-03,2.752170856796103821e-02,7.471297274675516714e-03,6.666871905326843262e-02
2.238784798556776312e-01,2.521651501006680896e-01,2.368370610758696315e-01,2.924201178452329707e-04,1.371697439774195379e-02,-1.188166540757666775e-03,3.421203419566154480e-02
2.351518164615155337e-01,2.715004695131931767e-01,2.278502441819348356e-01,4.192979185784764633e-03,3.464899690238772839e-02,1.000293328040972526e-02,7.479651272296905518e-02
2.360801507180805003e-01,2.584214008989843547e-01,2.222166439880896016e-01,1.448825087088996110e-03,1.252104898290799795e-02,1.332440999788675300e-03,3.850986808538436890e-02
2.365277384712979325e-01,2.526884616044648979e-01,2.220038817423934940e-01,1.717894001251943348e-04,1.275949451358988906e-02,2.133658753624417294e-03,3.477049991488456726e-02
2.689384375694371943e-01,2.002390972081767861e-01,2.226072191113601106e-01,-1.397529946561625524e-03,-4.324228712676650606e-03,-2.421601009478265010e-02,7.419203966856002808e-02
2.599501060358843096e-01,2.227351007151421591e-01,2.010322327157478828e-01,1.242571320073832929e-03,9.069634576837969997e-04,-2.049761112979841746e-02,6.269928067922592163e-02
2.469932633330089999e-01,2.187876646793232016e-01,2.080758429585159441e-01,2.250250043933012256e-02,2.872953838193228332e-02,-3.668122996284357840e-02,9.614685177803039551e-02
2.654867246619567189e-01,2.322278815585932521e-01,1.784619437309955536e-01,1.389036413649506968e-03,1.960104718520212569e-04,-3.403998195497769802e-02,9.626621752977371216e-02
2.524097312759684408e-01,2.220871404429334561e-01,2.196943267391897325e-01,5.788581140792574756e-03,4.301728310909012400e-03,-1.077919505051554323e-02,3.876018896698951721e-02
2.801715699160667317e-01,2.273974810118648826e-01,1.905812228969576694e-01,-3.876860850430018275e-03,-2.700199002259534922e-03,-4.849321403933249536e-02,1.149139851331710815e-01
2.847728832310728042e-01,1.990415232749818131e-01,2.090461635035448518e-01,3.353960117908997684e-03,8.403894702208491302e-03,-5.740168072620258077e-02,1.293163895606994629e-01
2.665468727984874331e-01,2.300264646090042775e-01,1.792858479396035598e-01,-7.328557826444660837e-04,-2.239358386144510351e-03,-3.471134147727916036e-02,9.691596776247024536e-02
2.327483986980905806e-01,2.309285205980599054e-01,2.563869592149132237e-01,3.736286267027156410e-02,-4.227854455335287344e-03,1.160321009879032930e-02,7.246096432209014893e-02
2.328595138474061077e-01,2.283602810929720728e-01,2.504596601005417700e-01,1.008949697398094786e-02,-1.683435107159962163e-03,5.119804704608123952e-03,2.831480652093887329e-02
2.496401499712986305e-01,2.041407962004014864e-01,2.549230045287577129e-01,2.336990421891332187e-02,3.013429119617004864e-03,9.608482218057833729e-03,6.543038040399551392e-02
2.463711568772386784e-01,2.193768715780510248e-01,2.534712824436431422e-01,1.389835085871029240e-02,-2.646569213332768643e-03,1.163708106952285500e-02,4.446950182318687439e-02
2.321062943267452883e-01,2.160673112301701726e-01,2.503672641667179510e-01,7.432508634990678958e-03,-2.307957375962523504e-03,2.785452179651708333e-03,3.299366682767868042e-02
2.520093933191990820e-01,2.003299319744424600e-01,2.650791197108677277e-01,1.193545734657503084e-02,2.727107695459987657e-03,1.059001577127575934e-03,6.300842761993408203e-02
2.449261652388029786e-01,2.075860608063260782e-01,2.503089904112023589e-01,8.161711237356010160e-03,-4.939419683393870587e-03,5.330197485687926569e-03,4.452550411224365234e-02
2.428587810966122418e-01,2.125029224108922477e-01,2.578211431889122496e-01,4.858427938301194786e-03,2.208313078397625574e-03,3.860347068023876546e-03,4.158961027860641479e-02
2.701751623611449160e-01,2.744154150380901380e-01,1.676257490014544382e-01,2.116911391241038231e-03,-5.548305383032460687e-03,1.902257626143758623e-02,1.102749630808830261e-01
2.752484529675479630e-01,2.896720380633029945e-01,1.035984234339074606e-01,2.489666035153458891e-03,-5.710160529015777947e-02,-9.165607346549611151e-03,2.054263353347778320e-01
2.692585160520978849e-01,3.524537895648471308e-01,1.084163015155292786e-01,4.406345916712286342e-02,-5.332184178536914648e-02,2.077887821044929750e-02,2.486416846513748169e-01
2.654833219226230279e-01,2.702933128851497391e-01,1.007813723883664164e-01,2.405560836501709557e-02,-5.074306794563555184e-02,4.124312660038938205e-02,2.061690092086791992e-01
2.661126039232235008e-01,2.684407452348125944e-01,1.791131250191906055e-01,1.993686378749249741e-02,-6.717646540346305754e-03,3.014439825360570174e-02,1.087692379951477051e-01
3.283740420100992319e-01,2.957122453173688381e-01,9.450037739865407849e-02,2.053745642350476158e-02,-6.109851849095578047e-02,-1.132431371165965386e-02,2.469293773174285889e-01
2.177156389555876537e-01,2.405730173248605552e-01,2.305909607777955062e-01,-5.040858036188702700e-03,-8.590338157303317387e-03,-5.683827593597173822e-03,2.807966805994510651e-02
2.285473109040614959e-01,2.355051546195100487e-01,2.279064619726952623e-01,-1.994238511265803305e-03,-2.455501428953542949e-03,-3.714912905841878839e-03,1.116702146828174591e-02
2.275994888221265500e-01,2.268403061645505592e-01,2.237868960481544933e-01,-5.458307158837319949e-03,-7.141630901133775612e-03,-5.887233621733501017e-03,1.893632300198078156e-02
2.277784965014704455e-01,2.218858479107720383e-01,2.359820117669130524e-01,-8.521119696254176451e-03,-9.888510141146505603e-03,-6.810547538354815716e-03,2.829643897712230682e-02
2.288262899295531450e-01,2.288179054344557650e-01,2.272897380906804266e-01,-2.765254826985446678e-03,-2.916652343301502290e-03,-2.502073625663523652e-03,8.342049084603786469e-03
2.271676862750763859e-01,2.254567210510548536e-01,2.324383472431098829e-01,-6.312792138044746003e-03,-6.899782879830208826e-03,-6.286844083023652822e-03,2.051032520830631256e-02
2.522958172339440086e-01,2.754140166839051940e-01,1.690429381191849989e-01,-1.054188956064275665e-02,-4.923523262257317734e-02,-3.777729777926746441e-02,1.458671987056732178e-01
2.056586197148320694e-01,2.256826041817912021e-01,2.558578250285989397e-01,-6.968091750147659309e-03,-8.024351440415439891e-04,2.213559587223445793e-04,4.542547464370727539e-02
2.679320567530283359e-01,2.844160987983714861e-01,1.054209543674828470e-01,-7.606839918763098375e-03,-6.488576859847629275e-02,-2.871390012229361674e-02,2.112769931554794312e-01
2.173049185457578136e-01,2.750225936085318734e-01,1.823757168489909541e-01,-2.730734763386625033e-02,-7.246118554988238702e-02,-3.409059605025922812e-02,1.674600243568420410e-01
2.381977937638545262e-01,2.880403513536335947e-01,1.341313884692987846e-01,-1.155348746725968524e-02,-7.728856374117894223e-02,-2.026090074029894897e-02,1.950732171535491943e-01
2.584554128935503958e-01,2.165161536390298180e-01,2.405885473276689612e-01,-4.332846881956308772e-03,1.691891194624155215e-02,3.441766797216962853e-02,7.614197582006454468e-02
2.533701888279971670e-01,2.165137779934307449e-01,2.337088582177919149e-01,-5.137333782998691929e-03,1.095528523270417748e-02,1.394084758920040475e-02,4.519502073526382446e-02
2.475689000665703410e-01,2.189360011180436216e-01,2.401165809975667198e-01,-1.105764907606318105e-02,1.438693179671022768e-02,1.089796528140091897e-02,4.478907957673072815e-02
2.444457266330014589e-01,2.159869269938288761e-01,2.502164910900429584e-01,-7.984665741342199599e-03,1.141189672052939086e-02,1.504078122274408666e-02,4.762423783540725708e-02
2.277583190781855005e-01,2.337638857369376544e-01,2.317604679589616856e-01,1.088698369883141052e-02,1.224849437389918111e-02,-9.331567153959956576e-03,3.308986872434616089e-02
2.292781932785879773e-01,2.407688803892854279e-01,2.222545961122244784e-01,8.754103698447594090e-03,1.068513665635512436e-02,-7.839096200710818016e-03,3.191937506198883057e-02
2.353464333397554398e-01,2.508224897749278814e-01,2.277236340774414503e-01,4.031583762683191990e-02,3.984611924789167176e-02,-1.708801452712234784e-02,1.045505926012992859e-01
2.437548767581144693e-01,2.446867542428660391e-01,2.110432695238169953e-01,1.953479362844322970e-02,2.876111568201921917e-02,-3.269323081635529954e-02,8.907509595155715942e-02
2.351040751518187755e-01,2.380046920826000834e-01,2.315169987427510012e-01,9.838680123884139747e-03,-7.030476404889442199e-03,1.149694137651177152e-02,2.944326959550380707e-02
2.276736095813310934e-01,2.335985670221622512e-01,2.450759043105734392e-01,1.901333683086254417e-02,-7.750686207066811301e-03,7.348771808471515898e-03,4.076261445879936218e-02
2.163391622145935111e-01,2.430616641993318394e-01,2.347010705007100129e-01,2.953708829540575842e-02,-1.874140244635709787e-02,2.487450591157287089e-02,7.802459597587585449e-02
2.154609470996527443e-01,2.369929625107137783e-01,2.627877234872278978e-01,3.252934244085774890e-02,-2.285832073813809720e-02,2.718099010225162940e-02,9.296672791242599487e-02
2.185347892592557906e-01,2.331877789550323987e-01,2.660321513785835479e-01,4.929326734454438086e-02,-5.431135794808912391e-04,2.381182036044726322e-02,1.037598326802253723e-01
1.999485013104220221e-01,2.489959596625540839e-01,2.472901647451601903e-01,1.662890231329416241e-02,-1.414668157258581159e-02,8.295311346167894354e-03,6.293871253728866577e-02
2.262617326614769497e-01,2.401269273484057665e-01,2.479064905839744037e-01,1.880343458378207905e-02,-7.467077903395777372e-03,1.159436728047446089e-02,4.463068023324012756e-02
2.312163093195898356e-01,2.436348828391927679e-01,2.467049293044872305e-01,4.216894017529933952e-02,-1.574237672496445195e-02,2.925932422415217227e-02,9.406498819589614868e-02
2.295393539373069003e-01,2.062861674616227048e-01,2.616990870962086491e-01,2.903181020150581368e-02,1.888613864840725759e-04,1.252030688992090794e-02,7.294994592666625977e-02
2.192337129177025501e-01,2.317325867245050575e-01,2.530289396940734736e-01,1.197274968330195796e-02,-4.392523324635331378e-03,8.864540387624811335e-03,3.999499976634979248e-02
2.316219882895788063e-01,2.234454499035647135e-01,2.436632444814246512e-01,1.500483603915351780e-02,-8.088841880714731439e-03,1.207115454774917995e-02,4.023884981870651245e-02
2.578894523385742432e-01,2.314868589566670409e-01,2.443667704767115700e-01,3.064236836428119171e-02,-1.000815842857418793e-02,3.614723674231514611e-02,8.694911003112792969e-02
2.449160583565197224e-01,2.127808299984373097e-01,2.484697343958638671e-01,1.401526021946033519e-02,-1.460654846457703701e-02,2.529098286004629464e-02,6.563335657119750977e-02
1.553934005519227446e-01,2.573009917442674599e-01,2.660573108079728466e-01,-2.366325230946594513e-02,-1.120584830120778877e-02,3.109812638733468887e-03,1.159298941493034363e-01
2.363803666155554484e-01,2.338858126418892069e-01,2.415751159732041631e-01,-6.165123544121680656e-03,6.478598454407664617e-03,7.585125718218028307e-03,2.141756750643253326e-02
2.173819169868196621e-01,2.407832008622146636e-01,2.353155962707338955e-01,-1.079775158543184663e-02,1.340695611997308467e-02,1.235071122204573456e-02,4.238159582018852234e-02
2.277898221182512173e-01,2.452955001345509811e-01,2.331818293080886451e-01,-4.086227594721662110e-03,5.322196681910179757e-03,7.027387480473582318e-03,2.289876341819763184e-02
2.259747240561645332e-01,2.297173660858614630e-01,2.487642866921260798e-01,3.115116189119960383e-03,-3.523164311017976851e-04,2.585413732856900546e-03,2.230730094015598297e-02
2.217498681301679764e-01,2.497237880294545798e-01,2.309903358461229683e-01,-4.861092074899058327e-03,1.270013984940091337e-02,7.122429516605798504e-03,3.628212586045265198e-02
2.329363722010483750e-01,2.556736385200432116e-01,2.381185277512147536e-01,-5.696385601453375809e-03,1.903449996898334481e-02,1.307228994996577180e-02,4.607545211911201477e-02
2.360021076727769340e-01,2.044175692978712211e-01,2.420231558860920784e-01,-1.607608873163317992e-02,-1.191132207456099129e-02,-1.637934849811199800e-02,5.683148652315139771e-02
2.429851939398867122e-01,2.121721862996877039e-01,2.282815267518672198e-01,-1.132664873166649988e-02,-1.080601555050256408e-02,-1.278311949114660853e-02,4.402258992195129395e-02
2.269572595339603427e-01,2.339160226800774400e-01,2.303448356252604801e-01,-5.046020382575906738e-03,-5.937465125510907500e-03,-6.108083835486990618e-03,1.817691512405872345e-02
2.350282738441350494e-01,2.293571341596448154e-01,2.207910771785433768e-01,-7.884898798770122522e-03,-7.034169668522890530e-03,-7.876955664625940809e-03,2.598482742905616760e-02
2.227285017866284245e-01,2.531370168946919241e-01,2.188693896425875640e-01,4.331974757731695252e-04,-5.984179399156878834e-04,3.676167025850856219e-05,3.253554552793502808e-02
2.303138704660030456e-01,2.382157702896753326e-01,2.146590348770268941e-01,-8.184655679991109309e-03,-4.533444824621775567e-03,-3.584236968758017141e-03,2.706250548362731934e-02
2.350016242496969499e-01,2.320370162442975115e-01,2.198874993976460968e-01,-9.173776074425604374e-03,-8.022873788718713414e-03,-7.495782813953725046e-03,2.839986793696880341e-02
2.202742973134350080e-01,2.323405456063299401e-01,2.311465426596628070e-01,-8.569266548266320227e-03,-1.009050861320551044e-02,-1.037297048943185661e-02,3.132348135113716125e-02
2.402992010207570805e-01,2.298750524313972754e-01,2.142085573719264557e-01,-9.639007787686715983e-03,-9.018261427663187488e-03,-1.168036334242809025e-02,3.807128965854644775e-02
2.401251517125452262e-01,2.295882123142458098e-01,2.123992649220029227e-01,-6.357977939692902383e-03,-3.916741057651417987e-03,-3.842249110179355928e-03,2.826992608606815338e-02
2.275010999954281687e-01,2.345856058041642656e-01,2.176700084940464963e-01,-1.152690760574862257e-02,-1.330249870998057200e-02,-1.259961681750286500e-02,4.027676954865455627e-02
2.535536739392569849e-01,2.236372829902185111e-01,2.238386546436464952e-01,2.542874816452969124e-03,1.137962928127974824e-03,1.219983541634156801e-02,3.686187788844108582e-02
2.544679229080795690e-01,2.242642615543726792e-01,2.384987411442829885e-01,4.617088566669617575e-03,2.029435222710333851e-05,1.398404772259644914e-02,3.654535114765167236e-02
2.685175670281308991e-01,2.046431276447742142e-01,2.290091402306370372e-01,1.278559986219967269e-02,-5.110553807162188968e-03,2.793875653243053578e-02,7.763872295618057251e-02
2.603962253369693225e-01,2.377366035754766571e-01,2.260027820104550944e-01,8.326044471685646597e-03,5.813696951410462707e-03,3.886258290541944049e-02,7.587682455778121948e-02
2.582391222217892413e-01,2.242330043340284018e-01,2.386430968800064278e-01,4.424230224008529090e-03,1.229738191767661614e-03,1.409892104348180533e-02,3.916161879897117615e-02
1.715355354725845438e-01,2.886145977762571424e-01,2.446568353216901637e-01,2.324548374149098054e-03,-3.575318956103445273e-02,1.703073165360915325e-02,1.233469843864440918e-01
2.009425084152756946e-01,2.603212082292276630e-01,2.369905610084363512e-01,-9.202874095509044894e-03,-2.067182147796689518e-02,-6.928169010764007388e-03,6.606705486774444580e-02
2.530544280607840979e-01,2.163983970850960059e-01,2.372802386832573995e-01,-8.750747879717692482e-03,1.125910808658985539e-02,1.449390679301222097e-02,4.748178273439407349e-02
1.965481148601483929e-01,2.785932019826798944e-01,2.379183211024950007e-01,-1.785311688637434765e-02,-5.442419333588401770e-02,-1.301851437885634226e-02,1.240938901901245117e-01
2.211196934525133384e-01,2.526088930887066542e-01,2.188389121456372211e-01,-6.147381133875003253e-04,-1.134694004292940680e-03,-1.387893574399018707e-04,3.276653215289115906e-02
2.556001286893042623e-01,2.308645267267937229e-01,2.242874255324296962e-01,-3.347731466137366611e-03,1.958922725353690747e-02,1.678477306026694010e-02,5.336495116353034973e-02
2.322424017889945513e-01,2.545134503696128703e-01,2.333443166757009912e-01,-1.310549017209881005e-02,2.664283991589880968e-02,2.164177556321290885e-02,6.724995374679565430e-02
2.540571058254019743e-01,2.137025242094208188e-01,2.375532007142212854e-01,-8.903088439184749306e-03,1.933748476837156977e-02,2.655100478628375296e-02,6.862463057041168213e-02
2.337301898956742063e-01,2.206305446176893281e-01,2.442249091632048008e-01,-1.791827529964417492e-02,1.256931852595927560e-02,8.419364842328035808e-03,4.548660293221473694e-02
1.804979773628411222e-01,2.759265140336288891e-01,2.330585413633338432e-01,-2.495939336842071393e-02,-4.265659961058872185e-02,-6.076632255884307880e-03,1.195486858487129211e-01
2.298151505812164597e-01,2.434932163821835194e-01,2.484654180685347546e-01,-1.712445705936711804e-02,3.211659369309895207e-02,3.902849604745887990e-02,9.393434226512908936e-02
2.263197015889523156e-01,2.293528618174152101e-01,2.537726051395983728e-01,-1.872495237886161526e-02,1.241989201054208118e-02,1.203639128935375842e-02,5.127231031656265259e-02
2.299522528880872385e-01,2.329675264106332577e-01,2.473490598933665852e-01,-1.498073676926463260e-02,9.390355825318783337e-03,1.040776740824200797e-02,3.901350125670433044e-02
2.396284746480328853e-01,1.991805353204961215e-01,2.462733427004760722e-01,-2.347238504963641836e-02,2.194928416215243677e-02,2.629593916076113785e-02,8.438935130834579468e-02
2.593040422318666494e-01,2.002790810979267477e-01,2.462112491140084902e-01,-2.793588656357068670e-02,2.089824775520900471e-02,2.670354221723884175e-02,9.313031286001205444e-02
2.301025204307675376e-01,2.182184962769186110e-01,2.472801322864849605e-01,-1.251340475812445265e-02,1.022293595115475288e-02,1.034456872858994202e-02,4.177021607756614685e-02
2.443204391960811239e-01,2.157191638235342601e-01,2.347810361418333491e-01,-7.997789747801542851e-03,1.031182173974911666e-02,1.502218813418328830e-02,4.270933568477630615e-02
2.292833476028051098e-01,2.194713252282500526e-01,2.472732030559355032e-01,-1.237886738120532772e-02,9.517705894085379953e-03,9.589925832569980851e-03,4.004743322730064392e-02
1.437695775701663403e-01,2.756206859577590707e-01,2.144725532143264557e-01,-4.660246705925553262e-02,-9.118337762104930522e-02,-2.909939446131815793e-02,2.169338166713714600e-01
2.472547306970067638e-01,2.195380845364468536e-01,2.508838561642804943e-01,-1.102623483340144095e-02,1.278880451207430220e-02,1.338963589502900099e-02,4.769917577505111694e-02
2.161349297589963692e-01,2.415162008907168478e-01,2.358978459849903897e-01,-1.189439818278380419e-02,1.259755713796687111e-02,1.300841434091097072e-02,4.406081885099411011e-02
2.303030018686900438e-01,2.279064829628291711e-01,2.389974744005070317e-01,-1.203977577169780717e-02,1.060092871749332942e-02,1.173604839167725726e-02,3.588015958666801453e-02
2.190768021456578896e-01,2.209864729501305192e-01,2.496934361053757268e-01,-1.084076842273324877e-03,-1.217056360502240687e-03,-1.199271140352905531e-03,2.991390228271484375e-02
2.447059039002065228e-01,2.454617845897693329e-01,2.195863089529649093e-01,-3.233072499139164491e-03,1.563075424680897621e-02,8.994833815884485662e-03,4.071355611085891724e-02
2.381091152428106428e-01,2.464763951941909559e-01,2.399334569580957310e-01,-9.194427796399217215e-03,1.785112829799930315e-02,1.673014617107483268e-02,4.590608924627304077e-02
2.033367241839993955e-01,2.111983586822197001e-01,3.710961435915644535e-01,-1.081655720066246607e-01,2.377910046659240106e-02,1.579559044212181657e-02,2.538313865661621094e-01
2.370812213150893244e-01,2.284487955429722883e-01,2.418373981233431502e-01,-4.056936029094371579e-03,5.947225114041275115e-03,5.258856729374908681e-03,1.940743997693061829e-02
2.447629552209142079e-01,2.488817465110732541e-01,2.246514119357930495e-01,-5.500856870080061099e-03,1.299130023921355598e-02,1.301331595638785185e-02,4.011749103665351868e-02
2.475848634796210257e-01,2.347751324608787216e-01,2.425312069216436217e-01,-9.966822876895205935e-03,1.448838373171550814e-02,1.689029492074722513e-02,4.368628188967704773e-02
2.446573726240313662e-01,2.082212061112511670e-01,2.299858763229793157e-01,-1.896138885609134975e-02,-1.106829678756028439e-02,-2.261111563720221221e-02,6.315208971500396729e-02
2.404086763396055815e-01,2.382925287029745431e-01,2.115235634642529949e-01,-6.912717436028715384e-03,-1.046271938162315202e-02,-1.153828402324613006e-02,4.060617089271545410e-02
2.443027843370518537e-01,2.667326694159158351e-01,1.799919000488430787e-01,-2.107463423158913163e-02,-3.268407918054978128e-02,-2.310049871820882630e-02,1.105420365929603577e-01
2.314010195574674467e-01,2.609091987835249205e-01,1.779218854279005502e-01,-1.240753859975060776e-02,-3.795509092903254222e-02,-1.998348152695324231e-02,1.062565222382545471e-01
2.310603254684598096e-01,2.194865872198223378e-01,2.373298204748829909e-01,-7.813952308135901220e-03,-7.752587547933316794e-03,-6.745282586649480744e-03,2.730929106473922729e-02
2.197305917452564150e-01,2.338418796808672540e-01,2.299112722383261365e-01,-5.726825465393262614e-03,-3.950845550633023257e-03,-4.427182712322057234e-03,1.905594766139984131e-02
2.429761072489622364e-01,2.288052326150228633e-01,2.297944420354626760e-01,2.125736684036888362e-03,2.926169569688269814e-03,-2.589032204284240791e-03,1.572027988731861115e-02
2.368987212161807188e-01,2.100663620658006214e-01,2.292196017147943854e-01,-1.321033216835430617e-02,-1.109278625695487783e-02,-1.347284756212047303e-02,4.483454674482345581e-02
2.392524219900941940e-01,2.200101138073545237e-01,2.249873121534667619e-01,-7.261797960943365202e-03,-8.475127427959647589e-03,-7.173212542990356662e-03,2.876309305429458618e-02
2.276357736886143179e-01,2.396430692742620716e-01,2.123152179687828045e-01,-2.398556679876393677e-02,-2.833159940353314338e-02,-3.364858947444980541e-02,8.996386080980300903e-02
2.140623424884116333e-01,2.158698955414848353e-01,2.500571948258129007e-01,-1.482516295476275781e-02,-5.826446449142246714e-03,-6.173891056643781607e-03,4.592802748084068298e-02
2.190784371629612703e-01,2.121980582993558406e-01,2.575921867751581051e-01,-3.288184562629438423e-02,-9.046733352507144513e-03,-1.279756486616552384e-02,7.600097358226776123e-02
2.608278874850007423e-01,1.669699773929126940e-01,2.596578303123753817e-01,-2.465478506703733946e-02,-6.795698420444144100e-03,-2.301914726799608388e-02,1.106915548443794250e-01
2.352475624885917160e-01,1.966315127834215026e-01,2.647063536633541547e-01,-2.261239527236133182e-02,-7.189574160771785433e-03,-8.777454902882966814e-03,7.359866797924041748e-02
2.416315725170744000e-01,1.878256363814862773e-01,2.542164452617727277e-01,-2.480885040064848349e-02,-8.558605030256818264e-03,-1.538214869010194608e-02,8.066359907388687134e-02
1.770667939537761693e-01,2.390300549205854885e-01,2.626683169010242680e-01,-7.064776055438139191e-02,-6.694606446276375744e-02,-2.765092899579542005e-02,1.912466585636138916e-01
2.005538819480944535e-01,2.387562344883369936e-01,2.629170403255868815e-01,-3.496764171995369458e-02,-2.328265782586525987e-02,-1.405553520419712196e-02,9.409193694591522217e-02
1.976748142486079440e-01,1.947260810380634088e-01,2.743654092785059451e-01,-5.285435048772579164e-02,-6.395856432632548820e-03,-4.682342000482863677e-03,1.211838424205780029e-01
2.304066547378274821e-01,2.352389105437901196e-01,2.346594097196508244e-01,-1.672023297273150452e-02,-2.355488857549980358e-02,-1.974969058904006008e-02,6.078020855784416199e-02
1.897235933963443699e-01,2.339920466526264065e-01,2.526122287945073430e-01,-6.360731133499208934e-02,-3.315016412832304249e-02,-2.963122815925805370e-02,1.455994248390197754e-01
2.313133775284755000e-01,2.236283851736144968e-01,2.490364131843922080e-01,-4.854597660859114733e-02,-4.255066385197384810e-02,-4.017128954541906993e-02,1.336127817630767822e-01
2.245364439439221094e-01,2.403991703165348215e-01,2.234554068707387542e-01,-1.697809490220030665e-02,-1.945429918792199522e-02,-1.590973770812435448e-02,5.504069849848747253e-02
2.162222386245074290e-01,2.454273690938406083e-01,2.260893010047337615e-01,-1.635643213766320176e-03,-3.701170039983036350e-04,-4.571579748364482457e-03,2.707886137068271637e-02
2.085940381049117553e-01,2.459842537484313030e-01,2.249282627164603532e-01,-2.742814304934121459e-03,-6.555131027133764485e-03,-7.220620314712851776e-03,3.690508380532264709e-02
2.049477030909980513e-01,2.544821813216911477e-01,2.234083396371861208e-01,-1.756206065560737785e-03,-1.011910651407449402e-02,-3.699521136796017108e-03,4.730245843529701233e-02
2.220253036433223193e-01,2.459005676328780698e-01,2.195565794673336457e-01,-5.253539715782917958e-03,-6.663697304703866849e-03,-4.167220872959253621e-03,3.005287237465381622e-02
2.214699592019188368e-01,2.485459133654460695e-01,2.209975512545707677e-01,-2.611457990155998613e-03,-4.348454856197957880e-03,-3.287044892966125339e-03,2.925272099673748016e-02
2.324809767967054019e-01,2.344732897678544481e-01,2.350719801029624578e-01,-3.741613331224786718e-03,2.848358633009155129e-03,4.106181239087653735e-03,1.106531266123056412e-02
2.333825209210326490e-01,2.331097732614013651e-01,2.338131521792250200e-01,-5.256046495209035566e-03,4.132280116948893606e-03,3.249827817597118317e-03,1.289056707173585892e-02
2.380192843518425250e-01,2.345438409772149513e-01,2.327787158063513717e-01,-2.159429984803282795e-03,1.804366250288835620e-03,2.368987786479349877e-03,7.869047112762928009e-03
2.340510941012613477e-01,2.352627148616802666e-01,2.342207778242510752e-01,-1.534683983430658099e-03,5.420648381853457624e-04,1.278564671536152903e-03,3.760674968361854553e-03
2.345770481856777057e-01,2.342052383569400986e-01,2.360114455671738776e-01,-1.158463724574414124e-03,1.493081469437138303e-03,1.956152356324914951e-03,4.992258735001087189e-03
2.789598996512425155e-01,2.097215254990923428e-01,2.030123919119681264e-01,1.074635891179515426e-02,1.816742142966715602e-03,-4.490615375755595967e-02,1.082106158137321472e-01
2.964925889361808564e-01,1.975165020354349710e-01,2.222299452605355774e-01,7.938295289104795385e-03,-2.248016831095835631e-03,-5.201457320772471388e-02,1.275999099016189575e-01
2.564496918900201483e-01,2.074415546955109546e-01,2.258511603256093403e-01,6.518464712405535461e-03,5.835551785239863169e-03,-1.972681722377919028e-02,5.688202381134033203e-02
2.631415327455965958e-01,2.352193889336411381e-01,1.927398715216219749e-01,-1.603237916871324414e-02,-2.147245958713636660e-02,-5.642111666361356720e-02,1.243969947099685669e-01
2.601443358095244518e-01,2.374675010440392420e-01,1.965525660038308919e-01,-3.634203235065801806e-03,-4.956572551347468783e-03,-2.362823169905408846e-02,7.003068923950195312e-02
2.687370501429288128e-01,1.916012159741948273e-01,2.194240594585835369e-01,-4.167055008761153499e-03,-1.047954992144232121e-02,-5.593033900952211479e-02,1.197667494416236877e-01
2.278549107888011849e-01,2.278716456631397769e-01,2.172187195363101120e-01,-1.615622238553135123e-02,-1.689280769216649700e-02,-2.088258554538428152e-02,5.532382428646087646e-02
2.537289581488265111e-01,1.977313119165627076e-01,2.176774839712101728e-01,-9.853016086509043883e-03,-8.608959723248764059e-03,-2.467308843569972210e-02,6.896752864122390747e-02
2.516093841054426461e-01,2.471916044282453651e-01,2.081947805185988543e-01,-1.582845845279832499e-03,2.797397800440141330e-03,8.614209428641470684e-03,4.434134438633918762e-02
2.539761300860049476e-01,2.470122473721339806e-01,1.986049577548534839e-01,-8.818484419127961202e-03,-1.667212220179997012e-02,-1.835735497075557943e-02,6.933265924453735352e-02
2.123433281576408427e-01,2.252105496154233888e-01,2.209667866253640922e-01,-3.590248090919262447e-02,-3.744504266648966684e-02,-3.409829576561296954e-02,1.081221923232078552e-01
2.514970397580339467e-01,2.607334168131482666e-01,2.041535064089706752e-01,4.745229140210996573e-03,1.952001178605614756e-02,9.262524917695723510e-04,6.306521594524383545e-02
2.339643038488734561e-01,2.344857549764136628e-01,2.368009281509186603e-01,3.866191231621879749e-08,7.210572837170198127e-04,-1.750060112890066604e-04,2.913904609158635139e-03
1.054545708429675821e-01,2.802087240348095087e-01,2.692242227608343530e-01,-4.640121242253442135e-02,-5.378683664400430581e-02,-1.017310281242351025e-02,2.102114409208297729e-01
2.523719812331892132e-01,2.666644114570645985e-01,1.964721534388448876e-01,2.057407608812229782e-02,1.963026564972376875e-02,-9.730450988710892535e-03,8.269204199314117432e-02
2.445557340809883795e-01,2.564385951228396743e-01,2.008033999568786809e-01,6.153955167236701933e-03,3.606045787213337048e-03,2.034941585135022213e-03,5.234901234507560730e-02
2.499333237982425959e-01,2.565122284799299379e-01,1.934736917675919654e-01,5.903279211099349798e-03,8.266279010112970865e-03,-1.340935465398150053e-03,6.258872896432876587e-02
1.254500332559558007e-01,2.810682791665403135e-01,2.932624177459142722e-01,-2.306818659743455069e-02,1.713211381262038160e-02,2.005351280023227184e-02,1.730512827634811401e-01
2.357944121167790397e-01,2.553365839129924098e-01,2.140095177146377758e-01,6.639412931041845101e-03,4.998686411632376203e-03,-3.120965041906867583e-03,3.896959871053695679e-02
2.830406587940777485e-01,2.915781791858523819e-01,7.917282268950603941e-02,1.470070392675159113e-02,5.028549890918443399e-02,-1.702382540881120171e-03,2.271969020366668701e-01
2.285693432467566233e-01,2.287139381319074904e-01,2.402570716828072994e-01,-1.300866021193163198e-02,1.037820317857003453e-02,1.023578697071629746e-02,3.577771410346031189e-02
2.335046216691628040e-01,2.327761799293699141e-01,2.386907436024407470e-01,-5.376949945520894877e-03,5.215189363834946829e-03,4.063767366779168916e-03,1.578214950859546661e-02
2.335169085239668929e-01,2.288647777825395802e-01,2.437172570680469774e-01,-5.563403697656640542e-03,5.531776593689557986e-03,6.852716718833795455e-03,2.233109995722770691e-02
2.187883866564085678e-01,2.518000741310977841e-01,2.304246426358142474e-01,3.728355807423203855e-03,-1.028010571842135311e-02,5.944517077902144661e-03,3.613581508398056030e-02
2.265957951099476786e-01,2.353957203092146289e-01,2.431287170474601134e-01,-1.761078752620124982e-03,3.333668087147640801e-03,6.070232513072508149e-03,1.893343962728977203e-02
2.408427571000833489e-01,2.285187000479513009e-01,2.352024064730537656e-01,7.568482001597790984e-03,6.967345928416978501e-03,-5.288230411754222399e-03,2.270589210093021393e-02
2.273121253386115592e-01,2.440875815253045200e-01,2.331717163254453107e-01,1.130390713123207921e-02,1.319715092995520089e-02,-1.031187428148873375e-02,3.797745332121849060e-02
2.291140137822152423e-01,2.517613391865518579e-01,2.339657140709166250e-01,5.673552157912999626e-03,1.322906581784945301e-02,1.208045979131329656e-03,3.244275972247123718e-02
2.262424417761508266e-01,2.570445265326578577e-01,2.335404218896673101e-01,4.346549399020190919e-03,1.486102203831983493e-02,3.044680423741747658e-04,3.868774324655532837e-02
2.262301879401390492e-01,2.516766651573223990e-01,2.272179656296668959e-01,4.773240618730892684e-03,8.638405766088593646e-03,-9.582461292909321814e-04,3.030405566096305847e-02
2.372899171819643216e-01,2.563964865542129323e-01,2.204262451041844040e-01,7.577675557850325691e-03,1.279782282182819614e-02,-5.456575234763394455e-03,4.152818769216537476e-02
2.393810018659247862e-01,2.440190371055775409e-01,2.180754124551773920e-01,1.396029862374643070e-02,1.219126658487698460e-02,-1.074795655483274000e-02,4.417422413825988770e-02
2.645655806104654229e-01,1.811207723644597534e-01,2.315456345234122026e-01,1.536472251616169404e-02,1.370273643480725452e-02,-3.887049494553795198e-02,1.053673326969146729e-01
2.666318488630311512e-01,2.375570444343030885e-01,1.991981976073177452e-01,1.040647740377857776e-03,-4.193253748298042538e-04,-2.049201966566533556e-02,6.852420419454574585e-02
2.623682899444715888e-01,1.955312786177498818e-01,2.196147438082219350e-01,-1.538296463538813344e-02,-2.787720368452059963e-02,-5.091832838390706467e-02,1.194021925330162048e-01
2.979480242186999250e-01,1.701536508786957447e-01,2.081971830509124488e-01,1.955221924268358072e-02,1.720547306209540758e-02,-7.506247401911288197e-02,1.784798055887222290e-01
2.680521206246440080e-01,1.879668947875752505e-01,2.170990809271189648e-01,-9.787654586533044154e-03,-8.937350014516166202e-03,-5.546464945062271751e-02,1.211828142404556274e-01
2.823272265414721871e-01,1.793973494608067099e-01,2.468559549506690876e-01,-5.955171091704418353e-04,5.949425850688144432e-03,-2.797239606871673376e-02,1.032295152544975281e-01
2.339975454353638018e-01,2.694790869947618628e-01,1.680301355547354492e-01,-1.459918525574587303e-02,-4.275628011832404568e-02,-1.340499268483379483e-02,1.208885982632637024e-01
2.310522678363310101e-01,2.480231753050298471e-01,1.985653152173876834e-01,-1.216433791808474614e-02,-2.427350563366948571e-02,-1.599570540908464358e-02,6.981301307678222656e-02
2.055471465678138931e-01,2.637933930333296595e-01,1.919299933290309068e-01,-1.606449659985549963e-02,-5.948263555607039010e-02,-2.470154820034614965e-02,1.326290220022201538e-01
2.267619197961176780e-01,2.663215892264502727e-01,1.875387975467512625e-01,-2.338449474792972382e-02,-6.297312373905390726e-02,-2.363184035874485792e-02,1.409532278776168823e-01
2.287526239316254040e-01,2.380288393449306872e-01,2.353753959670492613e-01,-4.522320959498874263e-03,2.834464861377835460e-03,3.044429657919451096e-03,1.348100230097770691e-02
2.260868061563688358e-01,2.357502645134412489e-01,2.434191147653977649e-01,-4.592589508600191696e-03,4.674605739781457527e-03,5.685279481803131793e-03,2.126264199614524841e-02
2.324560352965438226e-01,2.417253313519039937e-01,2.309829170874153348e-01,9.946076293616194601e-04,4.689169082082294280e-04,-1.207457010441207465e-03,1.047596894204616547e-02
2.247540675301507029e-01,2.278276412653955085e-01,2.479753932672860983e-01,-3.818251928377553589e-03,2.944430237363064150e-03,2.548064728619616522e-03,2.380185760557651520e-02
2.274755785518630946e-01,2.202394311206860023e-01,2.475715839467103330e-01,-1.249732855604248662e-02,8.700918501411750855e-03,6.759626858552331141e-03,3.787313401699066162e-02
2.347200121515864712e-01,2.252456422564542426e-01,2.471892864439524939e-01,-5.239158231851288872e-03,6.887391009691010667e-03,6.006590128118495867e-03,2.638706378638744354e-02
2.251776741544098681e-01,2.336276162669126966e-01,2.437470271028308044e-01,-6.423068449550398303e-03,4.283414093863692138e-03,3.892360689454111081e-03,2.199031971395015717e-02
2.249622990237974962e-01,2.282062692803497050e-01,2.428352151476985132e-01,-4.245772835936776485e-03,3.251355794663666945e-03,3.175021354073392227e-03,1.969825476408004761e-02
2.294412174720818209e-01,2.570624676236905048e-01,2.202841070224258457e-01,1.263213000230264081e-02,-1.281504859827591394e-02,1.440879325918935708e-02,5.190323293209075928e-02
2.509287590718379812e-01,2.485471776152754775e-01,2.053362199815558786e-01,7.735658872999953001e-03,8.515198086767514912e-03,-3.816405013568592575e-03,4.915802180767059326e-02
2.249649376384147692e-01,2.561496773438541319e-01,2.080852181719790583e-01,2.870341339151947623e-03,-1.436852424852865136e-02,-9.991012902731662496e-04,4.930392652750015259e-02
2.553033789582572211e-01,2.574393855762820427e-01,2.013819762707406702e-01,8.306153078510857685e-03,3.308295095554348881e-03,2.733405988014367752e-04,5.716022849082946777e-02
2.144726711080929549e-01,2.683471243283628294e-01,2.363612945602135140e-01,1.775870030106478301e-02,-2.533259043099956448e-02,1.534022449775172825e-02,7.602389901876449585e-02
2.650830400859850444e-01,2.431246078777472286e-01,1.903677438110549791e-01,2.680774200984856713e-03,-2.045873781782415850e-03,-1.114357958328929601e-02,6.950231641530990601e-02
1.770977168798527068e-01,2.802195514615829497e-01,2.574843900084058390e-01,1.955990812387204195e-02,-3.839120789166857589e-02,1.594556987194770473e-02,1.230394914746284485e-01
1.704731528690938691e-01,2.613932680920820761e-01,2.485421035407733847e-01,2.149813985825434551e-02,-2.463655896065489181e-02,9.382149335739326315e-03,1.036081761121749878e-01
1.786593480582022997e-01,2.789463772949458131e-01,2.235539915732266958e-01,1.738270838096089843e-02,-5.226356703489676986e-02,9.417029850796386839e-03,1.301446259021759033e-01
3.562836947660187881e-01,3.271212139598099755e-01,1.005336272636046802e-01,2.976296604281640501e-02,-4.220028081905963582e-03,-4.315397240186455430e-02,2.590327560901641846e-01
1.964876151950627481e-01,2.490587366793600710e-01,2.812478260524444718e-01,-3.900917861922054142e-02,3.498009534248551489e-02,2.636418404136943797e-02,1.257507652044296265e-01
2.144850525089724846e-01,2.530694323383081423e-01,2.259528515842633145e-01,-1.310644855464322342e-02,3.438698203731477970e-02,1.854269763275218433e-02,7.919603586196899414e-02
2.206530413562587389e-01,2.513227275915141390e-01,2.514415223465870652e-01,-9.468118767433506694e-03,4.750111099865568509e-02,2.140305929846420332e-02,9.672932326793670654e-02
2.245518091083776868e-01,2.585492916588895684e-01,2.239899813710824472e-01,-2.144288633110186942e-02,3.530489737575576853e-02,1.959703394106821622e-02,8.629065006971359253e-02
2.027241383167176225e-01,2.369473350512005527e-01,2.491541949084780105e-01,-2.947141682110612088e-02,1.328587191625750334e-02,1.255968220886201532e-02,7.311952859163284302e-02
2.584415876126825440e-01,2.129311224886107912e-01,2.423952697945728763e-01,4.304963451583876388e-02,4.289766818844265722e-02,-2.185657650234575783e-02,1.187938749790191650e-01
2.346117661874278504e-01,2.287963106591318074e-01,2.234424547346220979e-01,2.706748284678432356e-02,2.838564600922103068e-02,-2.273230429181945580e-02,7.911429554224014282e-02
2.491183675654010943e-01,2.008684284426442701e-01,2.203897822953642116e-01,3.252449506219938502e-02,2.809330450489931283e-02,-3.781071207803749640e-02,1.076912954449653625e-01
2.159013917585018982e-01,2.449790468699135360e-01,2.428878782742857900e-01,2.223453791074622016e-02,2.631299674903471442e-02,-5.152470033836260323e-03,6.655047833919525146e-02
2.143734698150037699e-01,2.487426298400146618e-01,2.349300122801893376e-01,2.184255042264832483e-02,2.289525392236023069e-02,-7.509497347812345291e-03,6.379926204681396484e-02
2.369145007148304449e-01,2.571479025604967439e-01,2.241499551328196838e-01,3.490683341614099489e-02,2.886426210674008022e-02,-2.003379752842461906e-02,9.049613773822784424e-02
2.298377797104601827e-01,2.439581161432017586e-01,2.250860582097083673e-01,2.116467886133909307e-02,2.874144556729368166e-02,-1.621822233925833065e-02,7.000138610601425171e-02
2.600173465463875289e-01,2.149465792491802307e-01,2.042020384070882266e-01,-3.982501230006222498e-02,-4.098246669416316657e-02,-6.030562593871488519e-02,1.527683585882186890e-01
2.598779709820904782e-01,2.152055845231309050e-01,2.186290449155650073e-01,-4.755142677873532009e-03,-1.075623797650412938e-02,-2.376820224005651155e-02,6.296121329069137573e-02
2.930431870799731775e-01,2.189790924933152361e-01,1.735232593335085394e-01,-7.824976341795526757e-03,-5.873311646969850072e-03,-6.064796287183002454e-02,1.491310596466064453e-01
2.676751563964909209e-01,2.384720731635480151e-01,1.938145551909458142e-01,-4.948402083285154997e-03,-9.110405164235470948e-03,-2.418708931643697921e-02,7.892246544361114502e-02
2.499572815107590773e-01,2.505668071388943430e-01,1.932752560160101440e-01,-1.276070372622074324e-02,-1.977260301319330379e-02,-1.625486688141077052e-02,7.551032304763793945e-02
2.496449872722560914e-01,2.282313245555990522e-01,2.072811869163373455e-01,-1.034148562356944356e-02,-1.024081457591306636e-02,-1.662057895526027410e-02,5.301193520426750183e-02
2.407777121102259998e-01,2.298077229101873342e-01,2.174159847087158148e-01,-6.678788695269376532e-03,-5.615448469365590979e-03,-9.106124532389526724e-03,2.978281490504741669e-02
2.436584210687578744e-01,2.177837223037207282e-01,2.292732275840077549e-01,-5.944138260989157221e-03,-6.005665196905408086e-03,-1.035577482259580386e-02,3.225135430693626404e-02
2.312028549871752992e-01,2.285624874347783608e-01,2.253298513157320215e-01,-2.533094663223230125e-02,-3.612740899120979454e-02,-2.685311595426710315e-02,8.960895985364913940e-02
2.461020890880781520e-01,2.059171142044147473e-01,2.298446797854132306e-01,-2.622279578910141629e-02,-1.841101108335584796e-02,-2.864435340289952364e-02,8.226256817579269409e-02
2.506335045464304079e-01,2.050849255542576688e-01,2.275690581580525340e-01,-1.539985341909016689e-02,-9.505817244557063575e-03,-2.896837319475721248e-02,7.110651582479476929e-02
2.406882472572286491e-01,2.135760041679896637e-01,2.281249916630619101e-01,-9.259397451656270484e-03,-1.106147237967339096e-02,-1.431685409295452988e-02,4.232594743371009827e-02
2.420166734027977551e-01,2.352387061287267433e-01,2.267235201137550449e-01,4.833605092755652484e-03,3.447038877430698336e-03,-6.462651434656052282e-03,2.017919532954692841e-02
2.456577855369110608e-01,2.199481833326889790e-01,2.348654903345074596e-01,2.036101275454214356e-03,6.870100374781279440e-03,-3.309433680819622546e-03,2.620840817689895630e-02
2.449345998524194989e-01,2.212192629362245144e-01,2.308207145006539729e-01,2.776845477091681273e-03,5.102889948903717963e-03,-2.483556678551742617e-03,2.338073216378688812e-02
2.489043445447381431e-01,2.232922838542624466e-01,2.255582051418551504e-01,1.770333397160393134e-03,3.774712404825091364e-03,-3.563419635373845946e-03,2.633094415068626404e-02
2.523522610482165640e-01,2.227435110144984354e-01,2.222606412145965993e-01,3.158278982450244896e-03,3.793206229584015349e-03,-5.024690440969334024e-03,3.224965557456016541e-02
2.197980115950496083e-01,2.190906068006555352e-01,2.565152755813443486e-01,-1.536301913247545975e-02,4.365314169161699752e-03,6.534228985377589852e-03,4.762305319309234619e-02
2.450468689691558399e-01,2.284722812400151459e-01,2.273221916550546562e-01,5.000612891798288627e-03,5.123461625713715377e-03,-3.767434218196486113e-03,2.216868475079536438e-02
2.379964962427807695e-01,2.263835244497788557e-01,2.440576917492329467e-01,9.526332579349788832e-03,-4.176251444989796495e-03,7.367175889181438661e-03,2.700721845030784607e-02
2.310755526380726121e-01,2.290376289069953608e-01,2.454005469484871749e-01,1.633966950814716825e-03,-2.774135070122915343e-03,1.978120301576816783e-03,1.677461527287960052e-02
2.355396118517648629e-01,2.230251445178229042e-01,2.452188326775922023e-01,4.939690068529291669e-03,-2.653007160113783538e-03,3.262817059763734647e-03,2.230884134769439697e-02
2.311063207368031502e-01,2.308008086463745057e-01,2.418689870849317636e-01,1.267652082475712646e-03,-2.429372475371754936e-03,1.599334008766323820e-03,1.222360134124755859e-02
2.317808269680423083e-01,2.329716422841945356e-01,2.414957256565017918e-01,2.995602331183940502e-03,-2.521248688390606910e-03,2.703230775881216956e-03,1.233458518981933594e-02
2.491406714513019760e-01,2.308044622771196208e-01,2.208533060742027543e-01,4.122179579898062850e-03,3.177168712475638996e-03,-1.053991016764365199e-02,3.212846070528030396e-02
2.368354815408321157e-01,2.300224223588508421e-01,2.368872470098252470e-01,1.859884394726380070e-03,-3.630702977379725305e-03,1.587660961578232907e-03,1.021071337163448334e-02
2.385134253216757705e-01,2.331551524496939531e-01,2.379856548339811251e-01,6.600513470359822832e-03,-4.053574883034418048e-03,5.008375368064531784e-03,1.677521690726280212e-02
2.363093940667160275e-01,2.307795845127533496e-01,2.310355450233286811e-01,2.492337659464623559e-02,-2.133678732817538212e-02,2.569932570663021817e-02,7.238711416721343994e-02
2.706973488076205303e-01,2.373789958510754694e-01,2.274906218639051181e-01,2.994988680896417538e-02,-2.916009174296343640e-03,4.483325928074921585e-02,1.014096513390541077e-01
2.498623032361910190e-01,2.283478013471378631e-01,2.276035787481699990e-01,4.486271459695222869e-03,-1.573006404861713656e-03,6.689922056582865185e-03,2.610569633543491364e-02
2.616863040306998123e-01,2.368589881702266586e-01,2.251452945668653283e-01,7.927429154561691296e-03,-1.757735826363320290e-03,1.340456926087170084e-02,4.220514744520187378e-02
2.527432338464212780e-01,2.168109978681696248e-01,2.278185967351192276e-01,1.076712053399355969e-03,8.089612820021642101e-04,9.064347925174269169e-03,3.561872616410255432e-02
2.722915989997212738e-01,2.004574221676070633e-01,2.244163006690398920e-01,1.009638488730317703e-02,4.097362095941310678e-03,5.961024490879318627e-02,1.225945800542831421e-01
2.432285584737138850e-01,2.300591777942564142e-01,2.190635451266697564e-01,2.166113803358600889e-02,-1.972319666748476030e-02,3.018230733562464463e-02,7.580689340829849243e-02
2.660373699771244049e-01,2.280178006488849385e-01,2.107250214252241183e-01,1.017764215622870075e-02,-1.123990904999679205e-03,2.549977971031283652e-02,6.831728667020797729e-02
2.429996355284212706e-01,2.193676604220744508e-01,2.471294693698630474e-01,1.157012781557284313e-02,-5.005247789253307669e-03,1.480963395874954069e-02,4.251892119646072388e-02
2.241809064215877778e-01,2.393110852189694049e-01,2.342527437473205243e-01,2.481292520708427637e-02,-2.098000595526950188e-02,2.078897571333667912e-02,6.813255697488784790e-02
2.237002389563365612e-01,2.379868863762472642e-01,2.561977409298780151e-01,2.245943837374400967e-02,-8.672634314185866805e-03,1.673845723696767637e-02,5.809790268540382385e-02
2.383154537791693228e-01,1.964532808843333367e-01,2.596952972473836607e-01,2.952981888300858920e-02,-1.464209957510508031e-02,2.478501296531836554e-02,9.059050679206848145e-02
2.150147700059918676e-01,2.367274096264920802e-01,2.486399064540447956e-01,5.668222204608952715e-03,-2.251821356611141429e-03,6.012030073184963970e-03,3.304587677121162415e-02
2.229520182685313379e-01,2.203064268110269119e-01,2.502026594290237549e-01,-3.386634525882717926e-03,2.721241202766925323e-03,8.813102395062500684e-04,2.967564947903156281e-02
2.267608672428882977e-01,2.293956251908638722e-01,2.447196236371983469e-01,6.269466655229820502e-03,-3.342835000415393578e-03,4.470934833666692296e-03,2.221602946519851685e-02
2.362513437699659269e-01,2.364597925033013470e-01,2.652928703836327506e-01,3.272572037568621806e-02,-9.610426724913318647e-03,1.837851060516547397e-02,7.308015227317810059e-02
2.338825741626611165e-01,2.069705063489586383e-01,2.576812426260703948e-01,2.224795595097994391e-02,-1.129078363228504722e-03,5.809879362722993566e-03,5.933894589543342590e-02
2.323086067921876496e-01,2.348212501319110468e-01,2.451461183199210581e-01,1.842712691409246692e-02,-1.001780582097714159e-02,1.103389817671735287e-02,4.270651191473007202e-02
2.155038445396960101e-01,2.532779348441932532e-01,2.352983942480318946e-01,2.747983825328982090e-03,6.491518274231214934e-03,-3.452196095217200701e-03,3.543743118643760681e-02
2.385762653366003405e-01,2.217366290603757228e-01,2.578784503280862617e-01,1.303368518281187820e-02,2.561810930742168969e-03,1.821015736214857354e-03,3.899304196238517761e-02
2.610400616904602344e-01,2.517287278096629888e-01,1.993138529044300999e-01,4.283024752167299658e-03,-4.436566760972240377e-03,1.105582970333600888e-02,6.166724115610122681e-02
2.657091968213393662e-01,2.636802812720233091e-01,1.755789680617636517e-01,7.725499759035050346e-03,-1.160858194502128289e-04,7.809128623313774109e-03,9.114135056734085083e-02
2.551967829230450957e-01,2.620070843254705961e-01,1.632649839559996430e-01,9.566904619836984897e-03,-2.012189694655878644e-02,1.501343137922589097e-02,1.062514856457710266e-01
2.598474813476889800e-01,2.630566584565048882e-01,1.826647462902219465e-01,6.977645090819528315e-03,-7.615053405403119161e-03,6.525823870245711471e-03,8.162692934274673462e-02
2.614995744262411659e-01,2.552206477413956343e-01,1.973282677174067468e-01,5.539219830483199311e-03,-7.865408580071682476e-03,3.095046435223899189e-03,6.372468173503875732e-02
2.649560480377159966e-01,1.872416912275629008e-01,2.376840220444205731e-01,-8.590401814739455702e-03,-1.686138958223216164e-04,-2.297601754496348195e-02,8.043020963668823242e-02
2.565626968087855175e-01,2.153557630718212490e-01,2.127616190762666171e-01,-4.137579660826474007e-03,-5.009596548159826399e-03,-2.360880519552277165e-02,6.008670106530189514e-02
2.419697523529434346e-01,2.339752702511443683e-01,2.233976221612089530e-01,5.025099848286591030e-03,2.725739857736662972e-03,-3.697342792964438199e-03,1.998539641499519348e-02
2.400694449145806819e-01,2.377537370773539493e-01,2.099548179870396880e-01,-1.042189512602112282e-02,-1.382839906583502483e-02,-1.089906687576244239e-02,4.580837488174438477e-02
2.318565360760553307e-01,1.892037365309074126e-01,2.434771589203489350e-01,-3.927988509389418459e-02,-2.667661322116471681e-02,-3.924009630429114992e-02,1.176136061549186707e-01
2.453554895332923091e-01,2.055658087413032020e-01,2.428339878444688016e-01,-1.592466371692783170e-02,-1.157944125809931384e-02,-1.645754274261781308e-02,5.886284261941909790e-02
1.937914536418194056e-01,2.690508422237619102e-01,2.192998441256054643e-01,3.394581227318561878e-02,-5.163309618371663551e-02,2.106317774169474272e-02,1.310754120349884033e-01
1.877955872924971792e-01,2.430014418480175020e-01,2.525767907650950383e-01,1.799249504078615641e-02,-1.672058310646742929e-02,1.085478330190740165e-02,7.636354863643646240e-02
1.974058118736214396e-01,2.530958200314201711e-01,2.237552494976320638e-01,3.303427459749339740e-02,-5.129792887813794389e-02,3.016327916757693267e-02,1.273811757564544678e-01
2.220300580570629956e-01,2.360374117649838566e-01,2.386475926980783646e-01,1.137465283151053649e-02,-9.970372133587626987e-03,9.633967415291780356e-03,3.470437973737716675e-02
1.637506032336358830e-01,2.832934286953602832e-01,2.809809991130578499e-01,7.406934849940498625e-03,-1.831612362494613316e-02,1.268204248662535734e-02,1.251915842294692993e-01
1.581378397967747873e-01,2.858012686623615517e-01,2.768734653898385356e-01,-1.389463921049267393e-02,-2.902828540946865432e-02,9.385608052279063168e-03,1.364158242940902710e-01
1.571481718447530485e-01,2.783159353321206786e-01,2.814116929363256192e-01,-1.825143887132871928e-02,-2.807538360553444440e-02,5.248436020369636086e-03,1.360624134540557861e-01
1.154026168192032464e-01,2.955591700491495555e-01,2.787816994129995729e-01,-7.377645421313814081e-03,-3.492694389835460100e-02,1.567987883425130471e-02,1.851373463869094849e-01
1.726973283369868106e-01,2.923009993940394180e-01,2.711295553818443560e-01,1.622062181343555953e-02,-2.124397044941659513e-02,1.046648656525884721e-02,1.212145686149597168e-01
1.098288171235035637e-01,3.444423133149190352e-01,2.675883093769199639e-01,-2.113997762367404026e-02,-4.361301313209534070e-02,7.877584211283988110e-04,2.235349714756011963e-01
2.291868020370627645e-01,2.170939923362074364e-01,2.437664485597886288e-01,-9.679340569226811339e-03,-5.906290092580057140e-03,-6.021715934551070612e-03,3.208762779831886292e-02
2.176677015910051805e-01,2.282035158004571962e-01,2.407536740623298366e-01,-9.630250869950182993e-03,-6.201099833052052535e-03,-5.772649012071048510e-03,2.990472503006458282e-02
2.260616594088726561e-01,2.083461856514501331e-01,2.402639916497182615e-01,-1.580023536971950082e-02,-1.687250439409268554e-02,-1.577172214163792205e-02,5.582448840141296387e-02
2.284603155778682226e-01,2.165177558437414163e-01,2.509881561692611784e-01,-1.120803824580034365e-02,-5.841492153343266248e-03,-6.006361336130161890e-03,3.881529346108436584e-02
2.299880123968130741e-01,2.120648923831147670e-01,2.394526382425297972e-01,-1.201328250058177928e-02,-1.048230764626455896e-02,-9.714748390938547640e-03,4.032586142420768738e-02
2.129643938467459807e-01,2.647080307070597827e-01,2.196504972334024364e-01,3.847850787544135689e-03,-1.795093550769180299e-02,3.919045381073777909e-03,5.859477445483207703e-02
1.951642597892017383e-01,2.810015894392099423e-01,1.959877493250203884e-01,-6.703121561941819719e-03,-6.514516640355740018e-02,-5.990667290046278529e-03,1.423804014921188354e-01
1.803863730936382526e-01,2.874891762501536330e-01,2.218758688006169100e-01,-1.623952388423319584e-02,-1.021917867632472221e-01,8.318265274833785972e-03,2.026745676994323730e-01
2.343409076979554306e-01,2.302800037492308549e-01,2.386452905579397321e-01,1.720626533737449693e-03,3.186396574185708288e-03,-9.232165887997009768e-04,9.715778753161430359e-03
2.167995583714346641e-01,2.546411713345241856e-01,2.306763008001471160e-01,7.291992877238708069e-04,-1.278888342312005551e-02,4.369975428404744740e-03,4.060769826173782349e-02
2.446384572554336223e-01,2.393119340042745291e-01,2.192336698747897605e-01,1.204723368868031164e-02,-8.630638526099030164e-03,1.300983745119708643e-02,4.129279404878616333e-02
2.304708833983417360e-01,2.385121912955215639e-01,2.305319196344061961e-01,1.233986447030458074e-02,-1.169846820633134270e-02,1.237433812367039893e-02,3.729514032602310181e-02
2.398582758531677406e-01,2.449651671231002914e-01,2.177849054486327429e-01,2.876061940869310482e-02,-3.969819808310795506e-02,2.307578736436776898e-02,9.712299704551696777e-02
2.476114334349253931e-01,2.296666629267645754e-01,2.391642016594175413e-01,2.065259700613024038e-02,-3.102280804654416330e-02,2.911540338494237115e-02,8.337709307670593262e-02
2.312831936115515574e-01,2.383734077716644084e-01,2.378398261908359623e-01,1.273040553713641887e-02,-1.398567830105498268e-02,1.141641288772619021e-02,3.886853903532028198e-02
2.269761745180201296e-01,2.590160800779955919e-01,2.090490345965001495e-01,1.573091684838218152e-02,-2.646675721259001551e-02,1.201161580780561386e-02,7.210417091846466064e-02
2.141222203835895788e-01,3.441287623190264489e-01,2.103948535147510401e-01,2.608147904062043873e-02,-9.326587450006257329e-02,2.012235436510314071e-02,2.162202745676040649e-01
2.650114328697830701e-01,2.254904768857653452e-01,2.126452484202389082e-01,1.089641007323704884e-02,1.144591465170883768e-02,-1.734382517012889730e-02,6.233946233987808228e-02
2.561266461602945688e-01,2.219648979823227730e-01,2.193029487857882931e-01,6.025385004980083475e-03,2.979446823325556781e-03,-8.576529959836477063e-03,4.026494175195693970e-02
2.545998226745053161e-01,2.107034731695927032e-01,2.306983175795348229e-01,1.013745711081870393e-03,6.310062345545168830e-03,-7.914521645877675010e-03,4.194562137126922607e-02
2.575468790062723223e-01,2.292541804152937457e-01,1.977872661073793448e-01,4.829756378077402872e-03,2.292947641441920020e-03,-1.956935861901457074e-02,6.257443130016326904e-02
2.345538576240958351e-01,2.386674173912883279e-01,2.343021097373448325e-01,3.570217460556793319e-03,3.300322191735364195e-03,-2.123775665485855280e-03,1.012261491268873215e-02
2.508903747990753330e-01,2.583485079831225328e-01,1.990770360324617960e-01,1.774746266483934968e-03,1.054562993241013255e-02,1.413292273704379494e-03,5.895548313856124878e-02
2.697887007465387121e-01,2.478287891574816049e-01,1.934675858355509315e-01,1.724402464855460601e-02,2.939394021475542906e-02,-4.149106163920796703e-02,1.152378022670745850e-01
2.856339173070753801e-01,2.372166195119423948e-01,1.935401819985445304e-01,1.368725023412007032e-02,1.829218718629812418e-02,-4.843307061459903307e-02,1.223506554961204529e-01
2.755756856517230791e-01,2.216610639126231075e-01,2.178151120211110348e-01,2.981699747877325501e-02,2.628733952109259947e-02,-4.344960023012230804e-02,1.163304224610328674e-01
2.006107993426305414e-01,2.059361313842033303e-01,2.609361567280477079e-01,-4.392446787914017908e-02,-1.282517615084604462e-02,-1.438674493674446490e-02,1.012359783053398132e-01
2.562267149032719238e-01,2.366475396584786506e-01,1.906223289756443229e-01,-4.979489265717655481e-03,-3.528143148792835769e-03,-1.335389588514417601e-02,6.363575160503387451e-02
2.009235054126295994e-01,2.343870662929458948e-01,2.649614742255432254e-01,-2.356610373055912505e-02,9.459626094127808471e-03,9.559502183739227929e-03,7.270778715610504150e-02
2.009318875058723197e-01,2.203995326309559910e-01,2.625714314966182683e-01,-2.556378323537503855e-02,7.489420472985322888e-03,2.110044744406894789e-03,7.155835628509521484e-02
1.974532959885729189e-01,2.389607746197617566e-01,2.674112776982774387e-01,-5.002757341550762710e-02,4.791945452562867969e-03,1.650932557901312048e-02,1.100365668535232544e-01
1.966240429632296616e-01,2.205142038537924731e-01,2.568210691534354995e-01,-2.315917333990276036e-02,-6.305945099742945974e-03,-5.143733059750549286e-03,6.755749881267547607e-02
1.925850678372449942e-01,2.396934073199331605e-01,2.699156458966009420e-01,-2.034438331624294563e-02,-3.836029311207925230e-03,-5.572284376186682981e-04,7.643989473581314087e-02
1.748936739216899738e-01,2.379862536400426387e-01,2.711334745795607182e-01,-3.499103946799149434e-02,-5.588989504515439778e-03,-5.835449853060444697e-03,1.050701737403869629e-01
2.108110984719129277e-01,2.686867898127663357e-01,1.868642480048656740e-01,3.891912882435940267e-03,-5.288053743554646524e-02,2.241998872423044652e-03,1.172968968749046326e-01
2.436139662034394193e-01,2.566994064439198642e-01,2.103435971339804034e-01,1.683896295294517315e-02,-2.712504076606166853e-02,1.684425068651672353e-02,7.498430460691452026e-02
2.533838121715557556e-01,2.424152863327666274e-01,2.218845691131854925e-01,2.947214421507736437e-02,-1.357036630552327719e-02,3.011183064115518365e-02,8.151971548795700073e-02
2.601472656802930605e-01,2.411046632719810734e-01,2.185884537566760710e-01,3.212648067051050021e-02,-2.202103213420139941e-02,3.255162603646036962e-02,9.501738101243972778e-02
2.339824443900686557e-01,2.372408887633775665e-01,2.328582302877346411e-01,6.257986558494387777e-04,1.085446474949022008e-04,-5.173264798707480914e-04,4.190179519355297089e-03
1.535460958717726199e-01,2.497669118656874188e-01,2.610192176651919826e-01,-3.358739861349994971e-02,-2.583934846594062099e-02,-7.966685812318153107e-03,1.266709417104721069e-01
1.625708657039089122e-01,2.619467512023250233e-01,2.642156887704742441e-01,-4.392405423920250213e-02,-2.048285479484774491e-02,-1.437978896713146618e-02,1.333159357309341431e-01
1.856969465662719754e-01,2.523245958345363693e-01,2.657040348388687301e-01,-2.319178283478189745e-02,-1.280220567280222765e-02,-7.144137753436939631e-03,8.813668787479400635e-02
1.949822933143479098e-01,2.557271549875970162e-01,2.390779676745133364e-01,-1.803716917364817096e-02,-2.380446567944892108e-02,-1.176233537030600164e-02,7.776127010583877563e-02
1.877408365419762082e-01,2.287709577269375072e-01,2.538511351983424036e-01,-4.898636924964833161e-02,-4.390349929633555193e-02,-3.012650255268808919e-02,1.380068510770797729e-01
1.873221305982145923e-01,2.368591725681626625e-01,2.503544492414561118e-01,-2.720542126262986971e-02,-1.799649959283708758e-02,-1.200868730618436485e-02,8.324187248945236206e-02
1.863724887963500998e-01,2.379300344454676197e-01,2.602221716903908577e-01,-2.861775384867019933e-02,-1.667750425972501505e-02,-1.606750048976672215e-02,9.148927032947540283e-02
2.170263837621244085e-01,2.425709450110552223e-01,2.470443016123738955e-01,1.171247111902486843e-02,1.110577339491861625e-02,-5.242615834501518184e-03,4.063029587268829346e-02
2.332742609490421337e-01,2.419903506393483172e-01,2.377361538797985174e-01,5.096704180779384162e-03,6.214083769521083593e-03,-4.058002281307793689e-03,1.732525043189525604e-02
2.335106401173061841e-01,2.331666732077652959e-01,2.360492257959945217e-01,4.972748589724114952e-03,4.175625249628821603e-03,-4.667140118493778335e-03,1.411647070199251175e-02
2.390663154297459347e-01,2.300097983798252699e-01,2.373546006976171296e-01,5.144449731241360589e-03,6.002761064671171751e-03,-3.389176165199605552e-03,1.707054115831851959e-02
2.407044972511227787e-01,2.384099531457809507e-01,2.297175727969275605e-01,6.095617776996071872e-03,5.389266671522383902e-03,-3.365439138486408990e-03,1.825782656669616699e-02
2.381891240013894184e-01,2.208626775620326776e-01,2.425065354900018122e-01,1.011603705802768642e-02,1.093228581847244078e-02,-9.856285252796533058e-03,3.675102069973945618e-02
2.237224766405999932e-01,2.449196067146470202e-01,2.354977549593399722e-01,7.958600110043527812e-03,1.083140368357156380e-02,-3.668019763643843266e-03,3.034324198961257935e-02
2.176911454329053530e-01,2.400926245406087844e-01,2.575719693780286201e-01,-1.456624486900919349e-02,1.098426598346523113e-02,8.014243732808078863e-03,4.888854548335075378e-02
2.202573412083289606e-01,2.206751124506514117e-01,2.553703440183019424e-01,-7.709365570968806231e-03,6.273471934334858696e-03,4.524868435710598276e-03,3.970168530941009521e-02
2.144494111083226073e-01,2.218976991038534852e-01,2.497880650038668271e-01,-4.577542436219923794e-02,2.899642562826893963e-02,2.182071199962916722e-02,1.061982214450836182e-01
2.473412108654483854e-01,1.967154533749972400e-01,2.606567576658644914e-01,-2.213960452860424741e-02,1.461951865282517388e-02,1.330895970214553137e-02,7.782957702875137329e-02
1.975669164084723484e-01,2.174373543395820563e-01,2.594800204817209188e-01,-2.606785180285397727e-02,-3.120186844747351550e-03,-2.630560295454034171e-03,7.131893932819366455e-02
2.342535165927139285e-01,1.963391607665544991e-01,2.582030749885151355e-01,-2.379543331137172132e-02,-4.743339516204504551e-03,-5.336053874330952580e-03,6.907024234533309937e-02
2.295784379387844631e-01,1.776690126634035971e-01,2.922404027033065343e-01,-4.228604728888194636e-02,-1.194045298261093083e-02,-4.564000431462259498e-03,1.254129111766815186e-01
2.004028316459539050e-01,1.956002452104077527e-01,2.703950677671591030e-01,-5.191004002188119582e-02,2.695003836907372465e-03,2.864732620079557621e-03,1.157086342573165894e-01
2.376151285731395446e-01,1.996409647240712792e-01,2.702614324870402096e-01,-2.413052086183651787e-02,3.857963277980572432e-03,1.050789168471261787e-03,7.444692403078079224e-02
1.994714318313038359e-01,1.951554389372419929e-01,2.961780276939156020e-01,-5.315039843634131872e-02,-2.328599033601329825e-04,-6.248306122584723100e-03,1.355741918087005615e-01
2.632958485247103853e-01,2.568810735137139201e-01,1.860439297249996959e-01,4.786739875724629022e-03,6.904480549188479581e-03,8.878557285277586739e-03,7.721201330423355103e-02
2.315318992493110850e-01,2.383503013118711544e-01,2.357344827352490235e-01,5.043626072553328852e-04,1.214536801019186095e-03,-2.539100487912660659e-03,7.747706025838851929e-03
2.646178407422632994e-01,2.651843735831577176e-01,1.775907593023158260e-01,7.958579624425895019e-03,-3.200118733611657159e-03,6.470323189824400169e-03,8.927302062511444092e-02
2.649358019830539979e-01,2.612626242425124534e-01,1.519734204677892775e-01,1.078616528515693356e-03,1.169891783285080707e-02,7.568022700359250399e-03,1.137759611010551453e-01
2.614627295483648028e-01,2.519782157352458141e-01,1.732275024018763432e-01,2.223506740676270410e-03,-3.125783261139869311e-03,1.923718099567124640e-02,9.051460772752761841e-02
2.619540092027806133e-01,2.561643379748374527e-01,1.848034989019778918e-01,3.101472310967239455e-03,-5.680077325597589211e-03,2.457629838707608375e-03,7.538443058729171753e-02
2.199847119948028229e-01,2.546851654673923937e-01,2.182884057325451543e-01,9.928860987638555430e-03,2.563006022983036619e-02,-6.108850003395222342e-03,6.036772578954696655e-02
2.237880844154710724e-01,2.591922981763591372e-01,2.254794567485852441e-01,3.120512220011870032e-03,1.744307009710784062e-02,7.456358715509477791e-03,4.801274836063385010e-02
2.303237903817926813e-01,2.530205558542127919e-01,2.147803735699994609e-01,2.510928413800282179e-03,8.656139532276145229e-03,-3.615497280034643329e-04,3.679155930876731873e-02
2.375110006803853036e-01,2.498505381530512492e-01,2.249223532061071507e-01,5.118762400066700913e-03,1.102681954008815149e-02,-3.734527631766216237e-03,3.084305115044116974e-02
2.348639618337353407e-01,2.558186088141414238e-01,2.197116984403143791e-01,1.322144239390832081e-02,2.770100712602301812e-02,-1.704406315290716081e-02,6.844089180231094360e-02
2.265493231624446102e-01,2.497385003718777530e-01,2.242162359689914564e-01,5.268674840180097470e-03,8.619582003041234564e-03,-3.719023979810767364e-03,3.073996491730213165e-02
2.375187586250932514e-01,2.295296490089034636e-01,2.292721485632846778e-01,1.375360291450702932e-02,1.400887419762661401e-02,-1.356991261393864119e-02,4.212608933448791504e-02
2.149967221259730943e-01,2.768341013016755725e-01,2.309011418781697633e-01,9.465622833891703877e-03,3.918739866712271647e-02,6.697626842762291303e-03,9.002027660608291626e-02
2.274212223130160082e-01,2.530534236606874487e-01,2.223269713736874265e-01,2.361962929063278569e-03,1.149804845274525651e-02,-5.040733310977558307e-04,3.503786772489547729e-02
2.272209737174388233e-01,2.547632882729040649e-01,2.247473682668243156e-01,2.791759042673857064e-03,1.195096257113421531e-02,-4.047725279924644509e-03,3.652173653244972229e-02
2.348316434543893660e-01,2.284410508218134295e-01,2.260313796424416044e-01,-2.230655502925608935e-03,-2.902115290080869731e-03,-2.044668672539359192e-03,1.071362290531396866e-02
2.301632656882713068e-01,2.296520906332552847e-01,2.280026631430884243e-01,-1.172188495937252642e-03,-1.230317379406472905e-03,-1.574432678066266288e-03,4.463708493858575821e-03
2.302197113462998990e-01,2.331480007438324897e-01,2.180800575002150576e-01,-5.556643894515751400e-03,-2.873986968035004835e-03,-2.662285997633707761e-03,1.817047223448753357e-02
3.365036572477586585e-01,3.400501729171429566e-01,1.409597603384759590e-01,5.234135991134672428e-02,8.297233838940483441e-02,-1.531779284701906968e-02,2.617622613906860352e-01
2.321743312643072266e-01,2.300456796630398759e-01,2.445356697979968186e-01,4.711102939658560161e-03,3.595608465025210317e-03,-1.422901395125029337e-03,1.717816852033138275e-02
2.290281342547483834e-01,2.284409767446486661e-01,2.279172643958597699e-01,-2.327216004845523729e-03,-1.824824365176938232e-03,-2.143316694254823480e-03,6.398883182555437088e-03
2.290847758669423140e-01,2.335798255294403714e-01,2.225729552371573938e-01,-3.167626987346456972e-03,-1.549721525794657811e-03,-1.883482924994963996e-03,1.182494219392538071e-02
2.193114802320696166e-01,2.496133331590776050e-01,2.308573506494478178e-01,6.979935550601984841e-04,-2.914735765501520141e-03,2.593992043093681227e-03,2.736390195786952972e-02
2.303385122453222300e-01,2.332506202347857938e-01,2.215635973439101791e-01,-4.033913021534190312e-03,-1.002171910403991395e-03,-1.186314626529666634e-03,1.292615290731191635e-02
2.476190260332694071e-01,2.739458943805702096e-01,2.265361830697513734e-01,-7.840449964155936716e-03,4.143377709031936112e-02,2.844997246273430619e-02,9.723954647779464722e-02
2.375369163879687273e-01,2.371854671334786280e-01,2.285411472222022566e-01,3.651412027038597637e-03,8.641397013743404298e-04,-3.727530352120690194e-04,1.097912993282079697e-02
2.334538759296725108e-01,2.689249827073601495e-01,2.407213673790392083e-01,7.190354231296465851e-03,5.107274206948137635e-02,3.323180027526149299e-02,1.111155524849891663e-01
2.442796569615859892e-01,2.696517531711520865e-01,2.068618750934752559e-01,3.008737725712039551e-03,3.316929656272106508e-02,3.824626071495638643e-03,7.978000491857528687e-02
2.290365230356095072e-01,2.431162052145257324e-01,2.341642653070590829e-01,-4.357069506542131029e-03,3.907238032791283955e-03,6.154010467167968929e-03,1.920159906148910522e-02
2.315164011863425630e-01,2.451316815323789922e-01,2.192194243073123106e-01,-5.794587904169827899e-03,1.417421137687659323e-02,8.629781617120902554e-03,3.782716393470764160e-02
2.367977198822815432e-01,2.456523158036522658e-01,2.307680652077788719e-01,-3.941478272268253077e-03,6.301641098896219526e-03,6.266967082359692007e-03,2.125354483723640442e-02
2.280649765589273514e-01,2.422031832676262986e-01,2.374976498768374966e-01,-4.848830596325869914e-03,6.286573431865341392e-03,5.929905258383312214e-03,2.121534757316112518e-02
2.207582339973664376e-01,2.212597086819050318e-01,2.442100325554333318e-01,-2.945168661598308868e-03,-3.295269175422382759e-03,-3.362510308709159342e-03,2.511962875723838806e-02
2.390147934137620833e-01,2.489226683450312394e-01,2.285082988114594538e-01,-3.497676651385272454e-03,1.221384122558785701e-02,6.215415708745604048e-03,3.021222539246082306e-02
2.336041187549378062e-01,2.366487066652313842e-01,2.345443024232280183e-01,9.916297818333445410e-04,6.058273376105265291e-04,-1.606841807830914053e-03,4.368967842310667038e-03
2.346294577964062600e-01,2.341146288723190139e-01,2.345475461869052092e-01,6.456470019059254569e-04,7.850166746646169589e-04,-1.814557199572611537e-03,3.634112654253840446e-03
2.324628601683992324e-01,2.386556347409431178e-01,2.342602136650343003e-01,1.117383888346593123e-03,1.275963072075668534e-03,-2.126738781554251417e-03,7.255981676280498505e-03
2.347144955841471425e-01,2.392810953005421459e-01,2.320648560201264698e-01,2.988809142244686773e-03,2.321836801262222669e-03,-2.030447211318186368e-03,9.762895293533802032e-03
1.525054664948815308e-01,1.994298573152156195e-01,2.762621386405499369e-01,-1.035000759821023963e-01,-5.355595498823897960e-02,-4.415630690062553876e-02,2.414565384387969971e-01
1.623606453289190288e-01,2.366673732667406993e-01,2.641814475468589607e-01,-4.320722986635465446e-02,-2.052439981114821677e-02,-1.258365076577998287e-02,1.251494586467742920e-01
1.757029378986843804e-01,2.228952778586391903e-01,2.710435726831855741e-01,-4.240025318270637666e-02,-6.413501157736459582e-03,-4.889615755599717277e-03,1.113825589418411255e-01
1.289269657372317246e-01,2.459907946848703120e-01,3.064123551278621349e-01,-6.564347106973940360e-02,2.380793693702915395e-03,1.236825554185162421e-02,1.945019364356994629e-01
1.320899761091315905e-01,2.506721358701928248e-01,3.239721487430002322e-01,-1.002618006616968205e-01,-2.524354763961607004e-02,2.527616566308866705e-02,2.492234855890274048e-01
1.536654012732273922e-01,2.456765279959802484e-01,2.624014378739185638e-01,-1.079970217879474975e-01,-5.750609652001446165e-02,-1.873596587215282244e-02,2.371680438518524170e-01
2.353623001175009499e-01,2.363045436308375269e-01,2.326581659934087165e-01,1.019996773159600805e-03,1.030222491331512060e-04,-3.703162705935207177e-04,3.783191787078976631e-03
2.356643826806714692e-01,2.152872066789645045e-01,2.559389359202616232e-01,8.787057328490660915e-03,1.107199454683314120e-03,-2.642125399598299704e-03,3.867405280470848083e-02
2.495621454492769065e-01,2.114245043903079935e-01,2.518482780344073468e-01,1.193558035290952050e-02,7.690202161266345912e-03,-1.122002180066428503e-02,5.029266700148582458e-02
2.444579635499387060e-01,1.872726740643596011e-01,2.471892451995635342e-01,2.359889061098507587e-02,1.372946735495564514e-02,-2.238769825235189734e-02,8.469741046428680420e-02
2.505035930983779413e-01,1.986691339657901123e-01,2.509401950370133139e-01,1.352748035240979377e-02,9.501777035504338498e-03,1.736305594537744610e-04,5.941003933548927307e-02
2.429292398465802971e-01,2.168059073892339983e-01,2.620034792833519366e-01,3.719703629357271057e-02,3.440718733852641143e-03,-1.625703470858976853e-03,7.575513422489166260e-02
2.365621403750526874e-01,2.192332257115582883e-01,2.514415319039248753e-01,4.098789560704379359e-02,1.270927570015283926e-02,-2.612231910195476556e-02,9.138521552085876465e-02
2.277701638972149667e-01,2.240571553228110913e-01,2.544007716537873276e-01,1.972151895064367180e-02,9.443009014609215351e-03,-5.748468097269839386e-03,4.853159934282302856e-02
2.452575504995838929e-01,2.222062557305763963e-01,2.692555566789652799e-01,4.614035083082596717e-02,2.556440148273405114e-02,-1.532107988600063531e-02,1.034991294145584106e-01
2.507925741766341976e-01,2.109537907489887898e-01,2.744308238601242400e-01,4.250308689606403095e-02,1.583056533755905146e-02,-1.737910994010298180e-03,9.627062827348709106e-02
2.450606365071150705e-01,1.835302652320935368e-01,2.558252889463064617e-01,2.343136816101119499e-02,1.370167448760461169e-02,-1.318106588728465076e-02,8.541506528854370117e-02
1.791652083709913690e-01,2.782239504282553733e-01,2.388886319384689594e-01,-2.281796178266682490e-02,-3.878306449049973709e-02,-1.605791249066775960e-03,1.163850799202919006e-01
2.013632537492955343e-01,2.550224843922618834e-01,2.345056543929063264e-01,-2.642326839425983113e-03,-5.156145127650224591e-03,-2.511173031015052296e-03,4.815555363893508911e-02
2.206969291306476177e-01,2.512571426448284573e-01,2.183936260293873333e-01,-7.789078210928999588e-04,-1.542146196651576198e-03,-3.652720491641997655e-04,3.192140907049179077e-02
1.941394984972776017e-01,2.707593715576132043e-01,2.395363206331421468e-01,-2.682073085978273642e-03,-2.361417099982359227e-02,1.247621270570616015e-03,7.843669503927230835e-02
1.905802906791538021e-01,2.884547848199069398e-01,2.379454119606392304e-01,-1.498556051529776386e-03,-5.543305575652521938e-02,1.375449816694701609e-03,1.281324177980422974e-01
1.755897701442594716e-01,2.430746704165250016e-01,2.418267692515425060e-01,-3.370561524997283537e-02,-3.585377281822631212e-02,-2.175337717337187324e-02,1.146990284323692322e-01
1.916802984401170251e-01,3.259629702569060705e-01,2.155495118592954951e-01,-2.617816755886154256e-02,-1.028404826210865541e-01,-2.505883657084389052e-02,2.259747236967086792e-01
2.428562503049560006e-01,2.601155325023767895e-01,1.905555412632096990e-01,2.405961245533899933e-03,-9.668737011219345062e-03,-9.265597160068078566e-04,6.508697569370269775e-02
2.366967278257525731e-01,2.694209715823142059e-01,1.960198622514214839e-01,-1.146490019086582801e-03,-2.163131261329774221e-02,-3.804072140180364200e-03,7.421388477087020874e-02
2.181062273328422951e-01,2.569634869774534147e-01,2.242729037094890465e-01,-5.904913525997701473e-03,-1.400660143975123416e-02,-5.169924487655523822e-03,4.562496393918991089e-02
2.126867058763506624e-01,2.499474735431382044e-01,2.251611779788258161e-01,-1.018020557526520126e-02,-1.833910080197256876e-02,-1.169207779600078649e-02,5.300151556730270386e-02
2.942714124406919929e-01,2.205369852935778752e-01,1.933383320553097584e-01,-5.866152340625952269e-03,-1.107164159293652292e-02,-6.636326849571154429e-02,1.478689908981323242e-01
2.391837214600903982e-01,2.373585959406757095e-01,2.288230719293939952e-01,9.377967253995169589e-03,1.431169254285248257e-02,-1.613635933549096776e-02,4.184762015938758850e-02
2.528681861572953937e-01,2.507459950870213339e-01,1.614118681461228222e-01,-6.213864749823119760e-03,-2.641395284052300632e-02,-2.840831987743382137e-02,1.131578534841537476e-01
2.571724561070395931e-01,2.389662186844435099e-01,1.964439180373822591e-01,-4.485857901464946305e-03,-5.717471007203671698e-03,-2.286058531323264045e-02,6.811784207820892334e-02
2.186202856095119940e-01,2.531722845761534280e-01,2.215470730579763015e-01,-8.391533357179950775e-05,-1.020381686972008685e-03,-1.993726624547655644e-04,3.323468565940856934e-02
2.993013202177732257e-01,2.440427067229379576e-01,1.640513633982370600e-01,4.070562198611110856e-03,-1.885872676148032338e-03,-4.802283200938759627e-02,1.443997770547866821e-01
2.806845612381340671e-01,2.466704087099005349e-01,1.663530239795159016e-01,5.094357468469410712e-03,-1.088096832184853868e-02,-4.322470772867689770e-02,1.279763430356979370e-01
2.171892486073387918e-01,2.466038333195908483e-01,2.014906087959303649e-01,-3.222720331117037013e-02,-5.265706821067846904e-02,-3.929239617715833688e-02,1.328126043081283569e-01
2.236528731299411710e-01,2.264644904380815893e-01,2.227072238659469350e-01,-4.078553555604051695e-02,-4.556558915109107377e-02,-5.700988247330767561e-02,1.448478102684020996e-01
2.350732446801556963e-01,2.278265897996626932e-01,2.340192711736525100e-01,-3.019187724178600679e-02,-2.864758453452027204e-02,-2.986622744374819310e-02,8.898686617612838745e-02
1.992682139777759431e-01,2.459519135756669805e-01,2.408881351968114870e-01,-4.353319108300698209e-02,-3.512294257322554764e-02,-3.035191056407272880e-02,1.188217550516128540e-01
2.190330945177736410e-01,2.091566007795568616e-01,2.408636335974687626e-01,-5.022953506331298557e-02,-4.501301208236621609e-02,-3.860777670929009531e-02,1.375097781419754028e-01
2.276655696929807959e-01,2.538757572856451539e-01,2.052729955988351340e-01,-4.052757348169081821e-03,-6.869680549283401286e-03,-2.388944545678382738e-03,4.453412443399429321e-02
2.070942159647745917e-01,2.521516835537191414e-01,2.212092333374809372e-01,-2.904924241083519862e-02,-4.346151324825819201e-02,-2.825251527231077350e-02,1.103916689753532410e-01
2.049844214142782783e-01,2.583551723183314941e-01,2.197269657292043599e-01,-9.805705406275271735e-03,-2.163289777078850409e-02,-1.272542184328285045e-02,6.676204502582550049e-02
2.135137316987645306e-01,2.560215928773227900e-01,2.139600190827798121e-01,-2.165495722706624500e-03,-1.286172315181099458e-02,1.132772351831097665e-03,4.798266291618347168e-02
2.787373697653668936e-01,2.763187358212004785e-01,1.796954573452675397e-01,1.784107639676618673e-02,-9.963581608372483467e-03,2.488238075247936262e-02,1.126309633255004883e-01
2.824687184473485546e-01,2.688009295402562504e-01,1.375308298597991974e-01,-3.315176945585976680e-03,-1.258696470674916350e-02,-9.768976500794772366e-03,1.414474546909332275e-01
2.814699867661997201e-01,2.832936691214097413e-01,8.418342646152099373e-02,-7.061152669707042220e-04,-3.467778504377661691e-02,-5.068050858293935562e-02,2.249439656734466553e-01
3.012586106378686290e-01,3.370799086583315396e-01,8.863661710496870128e-02,3.242954036902927217e-02,-2.822500544139195516e-02,-3.922687918084130643e-02,2.535130977630615234e-01
2.708073065836197335e-01,2.685054158727490647e-01,1.476697821003544187e-01,2.312668111299125660e-03,-3.525261327676939421e-02,-1.030982285388973817e-02,1.376512348651885986e-01
2.259130347128394389e-01,2.337326715925671927e-01,2.503181658933185116e-01,-6.691670759718130676e-03,2.220806241724536736e-03,5.020083959444511523e-03,2.628027647733688354e-02
1.979912004957193605e-01,2.203483134167185387e-01,2.600892729715086893e-01,-2.541612457673011333e-02,3.239249210975639337e-03,2.122216707383331284e-03,7.036054134368896484e-02
1.572975302015262311e-01,2.589818633858512742e-01,2.836879531664023846e-01,-2.118953091388810564e-02,-5.068094063171811950e-03,8.728150538152758958e-03,1.229426860809326172e-01
1.934037455967099195e-01,2.161691319867592720e-01,2.718880029529903153e-01,-6.509876699436902003e-02,-3.958363176516066853e-03,-7.641507640751075969e-03,1.335179805755615234e-01
2.149200004933581043e-01,1.956022268002324815e-01,2.610812957404448076e-01,-2.898920738354324525e-02,-4.240184435651658985e-03,-6.280017785542594232e-03,7.803300768136978149e-02
2.140821289134270944e-01,2.286338675898721973e-01,2.494335008307602131e-01,-1.467520712913644720e-02,5.587429575211954116e-03,7.702339147509507100e-03,4.318298399448394775e-02
2.674671134561235619e-01,2.218295318526879445e-01,2.303535973253132418e-01,1.593839864770869516e-02,-2.964593703203411475e-03,3.212963884706130507e-02,7.517869025468826294e-02
2.159107702878415580e-01,2.259640588072014400e-01,2.606004075176344137e-01,-1.175290381740913895e-02,1.294849016473284585e-03,-4.975761737797597959e-04,4.548757523298263550e-02
2.625917500278606709e-01,1.844482735098172399e-01,2.510268959094337227e-01,5.550392976090336508e-03,9.004740228139325800e-03,-7.108288742628233146e-03,7.631310820579528809e-02
2.816356689103737820e-01,1.875296982206504093e-01,2.562141426175170711e-01,2.907350504918636280e-02,1.781126863251257519e-02,-1.617963114293490684e-02,1.066899299621582031e-01
2.471422006039392938e-01,2.269125242153207378e-01,2.248614390331030721e-01,2.290094140533591605e-03,1.819997917219139030e-03,-1.017024345812195555e-03,2.199348434805870056e-02
2.608470639614353104e-01,1.864129804890213848e-01,2.675432579284366952e-01,2.502179955302803391e-02,9.868332377838894345e-03,-1.833672560739402907e-02,9.624358266592025757e-02
2.215393149801317130e-01,2.509520513933740649e-01,2.431001320177430536e-01,2.008549967160212085e-02,2.016654012168574150e-02,-4.843623758697014094e-03,5.653801560401916504e-02
2.992282055398609586e-01,1.645479213979868793e-01,1.999638938385804865e-01,3.146384366805957816e-02,3.130609499516755906e-02,-8.194852725939907878e-02,2.016929686069488525e-01
2.573349229703289498e-01,2.105187434831716220e-01,2.401768651750078865e-01,6.544523999090851724e-03,6.537664166292981444e-03,-1.470558367636764716e-02,5.087589845061302185e-02
2.596072701789729487e-01,2.000215185689719344e-01,2.395477796920084390e-01,1.335648708938994358e-02,5.685035702841386394e-03,-2.241051701755084058e-02,6.997445970773696899e-02
2.164599384577423069e-01,2.510649289765077286e-01,2.145008215863000167e-01,-4.449896446846001233e-03,-1.016165438425576696e-02,-4.035075706613159424e-03,4.107513278722763062e-02
2.643851307532593120e-01,1.682535491294380736e-01,2.515297739447288072e-01,1.164545273908300718e-02,7.136449617970970841e-03,-2.780285032645194929e-02,1.051159724593162537e-01
2.280812516217954333e-01,2.436136084971350368e-01,2.185201620993725558e-01,-5.603759954674969110e-03,-8.678846193546765897e-03,-5.964086689302358635e-03,3.013402223587036133e-02
2.660656339871476650e-01,1.940207177178066567e-01,2.412313120460915783e-01,2.896478503051513279e-03,8.221997993954338960e-03,-2.392854268560470551e-02,7.722515612840652466e-02
2.618332195435396637e-01,2.612694337227232100e-01,1.593962499433501656e-01,-1.579379374196241380e-03,-6.378320424347390383e-03,-1.279828720542769763e-02,1.051514074206352234e-01
2.575328046757736078e-01,2.623648220755430138e-01,1.694745583926747234e-01,-1.478834210846256955e-03,-1.167106761453947858e-02,-8.393380733658847848e-03,9.396622329950332642e-02
2.609143945431665057e-01,2.854626395774385594e-01,1.610229063830309892e-01,6.619324814140381194e-03,-1.746882282866535699e-02,-2.377294856971328904e-02,1.256004422903060913e-01
2.712268547422408416e-01,2.847719155443079186e-01,1.638894807893120364e-01,7.025242142180795901e-03,-2.735935933754611582e-02,-1.576853962094303813e-02,1.276647150516510010e-01
2.933482260498735394e-01,2.751475522175083066e-01,8.930260471874509887e-02,1.080580402132893560e-02,-7.857781279860708706e-03,-4.821598428322075580e-02,2.139205187559127808e-01
2.747991350100797425e-01,2.626327566191831719e-01,1.626886599568255209e-01,3.510874880925174586e-03,3.122233791494914614e-04,-6.498538157323945422e-03,1.073161885142326355e-01
1.407179106800118262e-01,3.101735704095788249e-01,2.766145248217943831e-01,-5.587527664929285709e-02,-7.998540127390404986e-02,-2.227002997798114767e-02,2.328124940395355225e-01
2.764694505348341824e-01,2.879328550073196880e-01,1.482448109301580663e-01,2.787530393430432633e-03,-8.191509138160394830e-04,-7.550543872745691526e-03,1.350526362657546997e-01
2.369663196200552102e-01,2.224278096098604163e-01,2.295906577600025922e-01,-1.345435527466221429e-02,-1.108399283342187402e-02,-1.634442495448482427e-02,4.326178506016731262e-02
2.270007320732026768e-01,2.524691793826918662e-01,2.200570948006694283e-01,1.666301199211679077e-03,-1.508772036307433426e-03,-8.560991793833838765e-07,2.981372922658920288e-02
2.544885980655754998e-01,2.578486348876976586e-01,1.967951830688201564e-01,-6.853751924248515336e-03,-2.350348013936719854e-02,-2.153808939245295540e-02,8.199696242809295654e-02
2.072544710520814182e-01,2.526811003839952163e-01,2.247028254494067290e-01,-2.103117403107103781e-02,-3.002198627653412943e-02,-2.672678198381935738e-02,8.802986145019531250e-02
2.219327471027196796e-01,2.082899232299529335e-01,2.184823014330065372e-01,-4.678297429486572706e-02,-4.324162935606204461e-02,-4.755562107977109182e-02,1.382426321506500244e-01
2.603220948946390334e-01,2.182961377729256414e-01,1.959677218845093938e-01,-3.782341396432609137e-02,-4.367446580008216284e-02,-6.015724776080037806e-02,1.551579982042312622e-01
1.747703903406908066e-01,2.907586358830858697e-01,2.458356297374648392e-01,8.868217002460827836e-03,-2.349228591046960413e-02,1.295285211762995693e-02,1.124977171421051025e-01
2.174849675817154271e-01,2.635741463708220489e-01,1.917703171834901077e-01,-6.881227883529550046e-03,-3.014421350037607000e-02,-1.102425863194080903e-02,8.487226068973541260e-02
2.214206140976794912e-01,2.518413475378122324e-01,1.983365738031055148e-01,-1.077694633634089516e-02,-2.068839015066590431e-02,-1.432572972407438958e-02,6.639776378870010376e-02
2.056923844660999423e-01,2.551605663999511053e-01,2.095627028753948295e-01,-6.924652034573485458e-03,-2.631268161074015385e-02,-8.909515076284138524e-03,6.877270340919494629e-02
2.595080019336410970e-01,1.828479054265167991e-01,2.668098737534958520e-01,7.833392651106314483e-03,4.638665234339468986e-03,-9.048579212260900867e-03,8.357103914022445679e-02
2.696076657664567278e-01,1.833454488492259893e-01,2.364458131675688524e-01,6.377427471067761804e-03,8.123521946418625628e-03,-3.306769655816343273e-02,9.633623808622360229e-02
2.574322598684969932e-01,1.995934937226859218e-01,2.751271640007948438e-01,3.186366853050853071e-02,1.513334329644289503e-02,-1.683220278518994875e-02,9.625376760959625244e-02
2.019526391295285717e-01,2.520666121108944835e-01,2.374977971593458803e-01,-1.212774159155375134e-02,-1.884425341756911995e-02,-5.481010644688816789e-03,5.991867557168006897e-02
2.754569581150265734e-01,2.826008796284384950e-01,1.641121211078053754e-01,1.562707431092944747e-03,-2.402870032071691489e-02,-1.990890988468200021e-02,1.271719485521316528e-01
2.430413054940200046e-01,2.545314181787643459e-01,2.062339257375092327e-01,-3.676417390741665986e-03,8.055029678516064523e-03,4.721306024229374350e-03,4.702975228428840637e-02
2.803858434018323131e-01,1.030470701005222062e-01,2.550082974315232565e-01,3.785388208622850192e-02,3.017002549972092745e-02,-6.773169163148815008e-02,2.199655026197433472e-01
2.644351649688932993e-01,1.781004488236356265e-01,2.663031032048754909e-01,1.630076482364521337e-02,1.260322905536132021e-02,-1.144062298209221930e-02,9.635752439498901367e-02
2.764096126271080589e-01,1.666377478986746929e-01,2.699562089663560260e-01,1.654852056214992095e-02,2.118600498644320623e-02,-1.673943534557317120e-02,1.199659705162048340e-01
2.585116498916141814e-01,1.819923959187627061e-01,2.467766310813970243e-01,8.458388813662875635e-03,9.095466685848900210e-03,-1.163168079368419316e-02,7.722470909357070923e-02
2.866750762257409546e-01,1.470848862147920433e-01,2.716370606234704832e-01,1.319789867682618929e-03,4.561726016196126360e-03,-2.670816149537850667e-02,1.407836526632308960e-01
2.587497593308755728e-01,2.389343560539277378e-01,1.973828008093608533e-01,6.844961058844267233e-03,3.512269708156396091e-03,-9.452682136747643168e-03,5.820799618959426880e-02
2.286204758337592458e-01,2.208853099232640782e-01,2.619572009678203806e-01,3.291809904614909077e-02,2.101287536259977256e-04,1.013599949834696236e-02,7.062709331512451172e-02
2.240159140417744832e-01,2.365006917451323576e-01,2.438523373673056605e-01,1.068930158607965877e-02,-7.979574774411980417e-03,7.055651872183973938e-03,3.138233721256256104e-02
2.377425460156095960e-01,2.409071478343134953e-01,2.311241616450912806e-01,6.934538100995640310e-03,-3.471819501074818910e-03,6.109995789168477971e-03,1.916200481355190277e-02
2.011111278425370130e-01,2.508971122852201030e-01,2.366445599315274428e-01,1.626123655795297732e-02,-1.776641876336096382e-02,1.321490076763816128e-02,6.508704274892807007e-02
2.313018573836751746e-01,2.336620429238339958e-01,2.368242248678340267e-01,3.805974055616218391e-03,-3.515786897894027270e-03,3.642364694671248841e-03,1.197381503880023956e-02
2.280743947874618593e-01,2.401525335792648319e-01,2.333019909511564460e-01,5.656434234190200333e-03,-5.176758688922562281e-03,6.888763911087926461e-03,2.070789784193038940e-02
2.346901304644155584e-01,2.254930674237516919e-01,2.398552958054808726e-01,1.098657875146762108e-02,-8.471057175041901699e-03,8.338174548075538359e-03,3.073655627667903900e-02
2.297735031591212618e-01,2.390626744002916082e-01,2.384439935520258624e-01,5.537526735026147666e-03,-5.334696207989556883e-03,6.856003858454515210e-03,1.998270116746425629e-02
1.935252395561511407e-01,2.499975492617764194e-01,2.547186466456764498e-01,3.098623697710691655e-02,-2.082640349877972960e-02,1.949227488718424314e-02,9.380578994750976562e-02
2.293359161794152612e-01,2.303465696813628838e-01,2.465450104112343055e-01,1.198987329299668633e-04,-3.128218347925155692e-04,9.407816772134440855e-04,1.681588031351566315e-02
2.313625955649727672e-01,2.333458052245684089e-01,2.387212851113648948e-01,3.738933288427296643e-03,-2.958872156564187807e-03,4.349841638274943439e-03,1.297908369451761246e-02
2.345583657492443241e-01,2.324163840320822294e-01,2.466195725308643616e-01,9.348490351323001171e-03,-2.761864660610068977e-03,5.689481956826283708e-03,2.362356521189212799e-02
2.278117599519647873e-01,2.515988358266832425e-01,2.216397954898744194e-01,4.942539570094118748e-03,-8.768754479292513795e-03,1.571457031211174332e-03,3.258985653519630432e-02
2.524020971679849512e-01,2.204764005288312179e-01,2.233145655386486461e-01,-1.991145353233608940e-05,1.491658557304529438e-03,-1.278796140756825045e-03,3.079411014914512634e-02
2.011460112502753694e-01,2.489310626996838471e-01,2.402196444606285730e-01,1.554566519046045314e-02,-1.832249827636460784e-02,1.473245068778682859e-02,6.577464938163757324e-02
2.278316247677995288e-01,2.311690703559629856e-01,2.436895682048636214e-01,6.463250961405488451e-03,-4.540619439731624456e-03,4.933303890911630053e-03,2.167655155062675476e-02
1.910349986293023994e-01,2.817845551953347960e-01,2.235069435274179006e-01,6.171964166344569465e-03,-5.229872881768998782e-02,2.244366655237929609e-02,1.271770447492599487e-01
2.061139794240736400e-01,2.452136521099704813e-01,2.615029244935279662e-01,3.015781483071607039e-02,-2.981009355478858591e-02,1.952605511490500614e-02,9.470605850219726562e-02
2.180809953411969870e-01,2.430389519743280657e-01,2.517568996977637696e-01,1.141102922825194300e-02,-4.203573852755787370e-03,8.378280009557195415e-03,3.963226079940795898e-02
2.027613519829183919e-01,2.623341115315688810e-01,2.372254951952113833e-01,1.117772507773481805e-02,-1.690357853128886256e-02,1.060158116338659473e-02,6.521322578191757202e-02
1.688738516128875378e-01,2.776527067925962933e-01,2.673415235622120245e-01,1.417526099907025910e-02,-2.067574202701575811e-02,2.497629230802641404e-02,1.207238137722015381e-01
1.880020326111929707e-01,2.801894781179998239e-01,2.568182389648616115e-01,3.078526146191714469e-02,-2.534938360792524104e-02,3.195605204672218730e-02,1.213455572724342346e-01
1.865422152375069698e-01,2.461941394252208370e-01,2.622957918850951087e-01,4.512041444739211399e-02,-2.412178830511689520e-02,4.691209740537390961e-03,1.126821637153625488e-01
1.927906416455618666e-01,2.615586126465476724e-01,2.003103829328282404e-01,-1.680760849260098250e-02,-5.165590857503362526e-02,-1.652506397150215259e-02,1.180685460567474365e-01
2.015684455767096650e-01,2.619482973137694515e-01,2.538051924376625856e-01,1.237565721683077380e-02,-1.814994687871962151e-02,8.636493192754638934e-03,6.994181126356124878e-02
1.827149714458319307e-01,2.873761856918237156e-01,2.711563841356416926e-01,2.591897768493562834e-02,-2.763890489792410546e-02,1.753987732798204316e-02,1.214475855231285095e-01
2.748673196801589835e-01,2.580440033714828663e-01,1.692231434417077462e-01,3.574746866365715453e-02,3.580323248449835544e-02,-6.132522321540127830e-02,1.691982150077819824e-01
2.748041382566892565e-01,2.511669999666451547e-01,2.010370811651008838e-01,3.565404506401086138e-02,6.084985981899442009e-02,-6.138917336735942587e-02,1.745975166559219360e-01
2.499126399616463934e-01,2.563460844258612092e-01,2.015973102097318448e-01,1.070636422014079568e-02,1.135810134376508476e-02,-3.916509431651729427e-03,5.885158851742744446e-02
3.439407303429694585e-01,2.060900906809272626e-01,1.486828716191359034e-01,2.949069222714666150e-02,3.267249573137708668e-02,-8.611196648568812673e-02,2.413905560970306396e-01
3.627111367686018384e-01,2.435778396628788534e-01,1.481763964146423362e-01,5.591719273762840725e-02,3.590031630137677232e-02,-8.203649845472588131e-02,2.609527111053466797e-01
2.515012783175450961e-01,2.555487630931908005e-01,2.041620438864337750e-01,5.041305821206514513e-03,1.903350326351875912e-02,-6.633346431974955840e-03,6.118873134255409241e-02
3.481746333859185305e-01,2.070296884354762001e-01,2.070653886487701378e-01,2.782119250577225200e-02,4.849430527083151143e-02,-8.896716707667443047e-02,2.303030192852020264e-01
3.867521917445241320e-01,2.115229775470846008e-01,1.952681171274234795e-01,1.396088636274413729e-02,4.480182384375940713e-02,-8.252188632852626438e-02,2.466855049133300781e-01
2.227976401223527303e-01,2.418846316192539703e-01,2.249019078135822136e-01,-6.378973702944984794e-03,-7.894945462887733786e-03,-4.838589417879106229e-03,2.660596370697021484e-02
2.267049904119291526e-01,2.344306086802974420e-01,2.311634213605472943e-01,-3.901071880413686278e-03,-7.109598613296108302e-03,-6.756494938569927548e-03,1.947725750505924225e-02
2.558896784966928073e-01,2.347655559428503125e-01,2.019586517398023195e-01,-2.788200529117503077e-03,-3.788834062494488356e-03,-5.397322653426195500e-03,4.867566004395484924e-02
2.258387726742456247e-01,1.906877823792210158e-01,2.274121740946427606e-01,-4.390888738685694292e-02,-3.009099808171559337e-02,-4.197357946104166709e-02,1.227969601750373840e-01
2.225717826400808452e-01,2.308586287404604254e-01,2.283510858082062889e-01,-2.247210657056850774e-02,-1.643009148193463886e-02,-1.440279176709171639e-02,5.478440970182418823e-02
2.220489305207130615e-01,2.429278993897575900e-01,2.214932200000047646e-01,-6.176547811095486028e-03,-1.154369152377212465e-02,-7.910608296117862398e-03,3.390863537788391113e-02
1.694958923719861454e-01,2.362638887878846794e-01,2.955002243996342481e-01,-1.041080452176836035e-01,-5.610256064867752412e-02,-3.812309402971236771e-02,2.413297742605209351e-01
2.178511688127992563e-01,2.543978273426169001e-01,2.384022048526530935e-01,5.625472917477904698e-03,-8.688824404224885709e-03,7.426364997338714621e-03,3.864982724189758301e-02
2.276343881369294608e-01,2.463931505064296812e-01,2.224984377332732965e-01,-1.252714180515496038e-02,-1.373033941794486734e-02,-4.986637597548016637e-03,3.981918469071388245e-02
2.332024412435448335e-01,2.425113609430892547e-01,2.307501468499779940e-01,-2.160729039502950338e-02,3.814648679575347034e-02,2.423308750180785953e-02,8.742605149745941162e-02
2.110391835883382861e-01,2.401820474932446214e-01,2.543168338394524719e-01,-1.587841740645289448e-02,5.636790595213976227e-03,7.751567016407480415e-03,4.992974922060966492e-02
1.969522561943795047e-01,2.457244738552950836e-01,2.489447771004350274e-01,-2.244640960046547645e-02,2.553066607633440455e-02,1.570930764277040856e-02,8.217953890562057495e-02
1.961698337302989759e-01,2.455977121014121800e-01,2.380615220374633634e-01,-2.273858073737360097e-02,2.242569037164705154e-02,1.406898538520100043e-02,7.603344321250915527e-02
1.735345916397646737e-01,2.351052498447130379e-01,2.759539230906674079e-01,-6.189480689301581073e-02,3.868094643781326558e-02,3.310499341426362263e-02,1.650575995445251465e-01
1.944702375102013714e-01,2.522916865537220277e-01,2.729685096010700529e-01,-2.442663881472312629e-02,2.157109856844570059e-02,2.779799189014339061e-02,1.023255512118339539e-01
2.059360679161064966e-01,2.306809916690088502e-01,2.435608927536940804e-01,-1.767830782211608429e-02,-1.406348453186140324e-02,-1.667265564417810125e-02,5.883672460913658142e-02
2.024648049527313365e-01,2.386534728078657519e-01,2.474881969902120171e-01,-1.629199642222770028e-02,-1.445248944535175786e-02,-1.073072685693059886e-02,5.895544961094856262e-02
2.394768044159927556e-01,2.544401744990675285e-01,2.235128959452282182e-01,7.312415151759739385e-03,1.297452850239314177e-02,-4.733357225704426172e-03,3.808236122131347656e-02
2.198492310246650261e-01,2.524375029751119714e-01,2.173104035599489059e-01,4.756699768692704625e-03,-1.347888833409306882e-02,5.069919084204709166e-03,4.290931299328804016e-02
2.334021333618709337e-01,2.478883677322013535e-01,2.144225977687223283e-01,6.649651597949117650e-03,-7.748872442538929511e-03,7.422953501584634434e-03,3.637451305985450745e-02
2.299175234634250331e-01,2.550280462794675129e-01,2.130306485489889545e-01,1.554942251478083929e-03,-1.463605287308235997e-02,5.019967272977959860e-03,4.544490203261375427e-02
2.356207011635620963e-01,2.552626720967862695e-01,2.019592864524687725e-01,5.443310288051962306e-03,-5.158196569122942658e-03,5.233220853962021121e-03,4.930460453033447266e-02
2.310937784500535219e-01,2.486039626103609401e-01,2.192435374441297491e-01,5.382439493859563634e-03,-2.371267804521152642e-03,5.557968716895919301e-03,2.917170524597167969e-02
2.231505851190518919e-01,2.228070919662591409e-01,2.526971315207736102e-01,1.205545162050020505e-02,1.035260123367520929e-03,6.729286565684375766e-04,3.638462349772453308e-02
2.139925438713396744e-01,2.267430269092723938e-01,2.700759907937020921e-01,2.627859227292051597e-02,2.062566485334474745e-02,-3.412124937540532508e-03,7.730273157358169556e-02
2.303121276339112344e-01,2.376097747373303037e-01,2.441675163269485527e-01,1.681264051153414513e-02,9.746672885310938769e-03,-1.233921556541728998e-02,4.163978993892669678e-02
2.283445907542873687e-01,2.114020741769699341e-01,2.560482388448042657e-01,2.444401830569870038e-02,-5.066089141593991055e-03,9.895993531581210104e-03,6.072255223989486694e-02
2.371901484869341215e-01,2.211319897824698399e-01,2.576092085494229300e-01,3.239561589895073590e-02,1.013152916699757919e-02,-1.670134729521982608e-02,7.277274131774902344e-02
2.416076518908702453e-01,2.365887925404091541e-01,2.284890827396675039e-01,-1.862666583891385130e-03,1.845926412161026566e-03,2.357614394794030864e-03,1.299043931066989899e-02
2.308366444784792082e-01,2.183073119560593467e-01,2.496147969284191748e-01,2.791161214773375462e-02,1.712939901237344950e-02,-1.170834445565165950e-02,6.613289564847946167e-02
2.199538372051134671e-01,2.463099238191779339e-01,2.232043528096053775e-01,-1.039515041174696218e-03,-5.382912227832113532e-04,-2.504919125233104251e-03,2.534705400466918945e-02
2.238170323409926499e-01,2.369084066713079417e-01,2.563902177767041213e-01,1.331308049482970469e-02,4.507924321167693961e-03,2.540889068872717105e-05,3.739851713180541992e-02
2.647294162200187762e-01,2.251268135083434041e-01,2.101312308678082719e-01,-6.637486292075522876e-02,-7.748164506666460616e-02,-1.010676187848057878e-01,2.534919679164886475e-01
2.126227836692603235e-01,2.495052675472409498e-01,2.589358583709945316e-01,1.653871889981044230e-02,-3.120686999541372100e-03,6.528046102000258089e-03,5.267567932605743408e-02
2.167719174080906253e-01,2.370632824820679552e-01,2.485681916614002340e-01,8.774377073900231291e-03,-6.157124288142972086e-03,4.147721003544955175e-03,3.426168486475944519e-02
2.146717385347830798e-01,2.376433798249411034e-01,2.534299981200280882e-01,1.152669847493508794e-02,-9.838022136840517736e-04,3.870506664383163188e-03,3.982459753751754761e-02
2.347195224010386883e-01,2.182010614520948355e-01,2.562448230590324005e-01,3.047447083198515788e-02,-6.482070192221482154e-03,4.916153090575357473e-03,6.384669244289398193e-02
2.388019813413657655e-01,2.175554330289189153e-01,2.608418353767310016e-01,1.237837996486730249e-02,6.600765841867878986e-03,5.135614822652991452e-04,4.468351230025291443e-02
2.357515090569979044e-01,2.170376804470091070e-01,2.527772177790109098e-01,1.015431309720190092e-02,-4.258500301529836822e-03,2.456048791803458367e-04,3.636775910854339600e-02
2.377715121648358576e-01,2.139517955728658938e-01,2.547354875117015527e-01,6.550143124198539064e-03,6.821513381537534608e-04,1.261904273474916864e-03,3.733789920806884766e-02
2.398106203854671048e-01,2.158150915220483079e-01,2.586919481794801579e-01,9.756483106205414077e-03,8.443685518924718553e-03,2.556130816936457058e-03,4.363958165049552917e-02
2.508820392647587161e-01,2.394331962235352329e-01,2.085514219934063995e-01,8.474839612512091030e-03,9.447826913325966386e-03,-8.148930197215659144e-03,4.605202376842498779e-02
2.600740539820109998e-01,2.619914393119571194e-01,1.982869397228467501e-01,3.339960942495851653e-03,1.343249376689456716e-02,2.080764460007037374e-03,6.728702783584594727e-02
2.340510400889029285e-01,2.372392800151769954e-01,2.326531817221480780e-01,8.364223613779593180e-04,3.309469486899565475e-05,-3.199634244188908597e-04,4.357156343758106232e-03
2.539688595060856646e-01,2.675332919401610665e-01,1.931892222755778876e-01,-3.388970519879900894e-04,2.124447930317763245e-02,1.333160679541668669e-02,8.117957413196563721e-02
2.588978042674757729e-01,2.763944384182091540e-01,2.100318539497640080e-01,3.813090173959912330e-03,3.412212942104564384e-02,2.245813063195697956e-03,8.426572382450103760e-02
2.507218712489004409e-01,2.737708367821304889e-01,1.397094624234687110e-01,8.417094047600326423e-03,5.818594529326914788e-02,-1.166301371215135163e-02,1.618368476629257202e-01
2.621084711379056409e-01,2.791459043338017643e-01,1.710890812664022653e-01,1.022507693662959294e-02,2.707538366696275386e-02,1.339437490031009960e-02,1.147896051406860352e-01
2.725795735703021028e-01,2.820038136753899027e-01,1.062467891048971130e-01,2.338665091345671666e-03,3.337086196325542153e-02,-4.864273277020948402e-03,1.809729486703872681e-01
2.340908694818720770e-01,2.480939598212013320e-01,2.234271184824513923e-01,-3.978804011165642390e-02,-4.536102008418641668e-02,-4.200974097997098311e-02,1.291344761848449707e-01
2.339986643344853512e-01,2.221035197740999501e-01,2.228363662381109556e-01,-3.288104278110056539e-02,-4.581529397296741496e-02,-3.753251119007444681e-02,1.178982406854629517e-01
2.237949878453071861e-01,2.405633821668281824e-01,2.148603116939745983e-01,-7.836833643457464041e-03,-5.217313117876095502e-03,-4.423304932865340829e-03,2.890386618673801422e-02
2.501278007059009045e-01,2.600875886837566431e-01,1.966932048955366275e-01,6.757637330305613088e-03,8.898930638495821527e-03,3.150686280221919652e-03,6.237788870930671692e-02
2.302270989223407227e-01,2.383124819503350811e-01,2.167968960715589422e-01,-6.046628248887130595e-03,-2.580574589671204202e-03,-2.403859149029139233e-03,2.239042147994041443e-02
2.252762548513758123e-01,2.466709360911595039e-01,2.152787259752885485e-01,-4.836503503907087741e-03,-4.236497980279578524e-03,-2.670715329516758652e-03,3.028191067278385162e-02
2.177261729585431849e-01,2.464228588311224710e-01,2.131704488771493933e-01,-6.888555271984531450e-03,-1.100138493617205081e-02,-7.404649613656076601e-03,4.055765271186828613e-02
2.143846430669103520e-01,2.543425862506937807e-01,2.216367139420071797e-01,-2.659177551687172923e-03,-9.833522888572280782e-03,-1.736026495464511321e-03,4.098538309335708618e-02
2.280424633615310837e-01,2.572660219357675859e-01,2.114094303360755100e-01,-3.951373016376906987e-03,-1.169429788582604900e-02,-3.209517720179513953e-03,4.587770253419876099e-02
2.192183602138924048e-01,2.545096493013526140e-01,2.143201749291343272e-01,-9.011965543209767351e-03,-3.110114914817507098e-02,-1.241980656605730371e-02,7.106740772724151611e-02
2.152219530015571647e-01,2.294665846287775868e-01,2.286291466307026621e-01,-1.317220139833798036e-02,-1.575704645737643211e-02,-1.323787225134539711e-02,4.452841728925704956e-02
2.252822595717646759e-01,2.488547137632697859e-01,2.137138505864507876e-01,-5.034429943442671196e-03,-4.039340601608106852e-03,-2.872243457785787595e-03,3.334544971585273743e-02
2.395620356860638789e-01,2.196873894001220018e-01,2.313735888160028398e-01,-7.353122472000494375e-03,-7.078834558245429912e-03,-8.337874505861620281e-03,2.864271588623523712e-02
2.266834688703190381e-01,2.373535013739149213e-01,2.296699365970496232e-01,-1.047819722593078089e-02,-1.107828476967720292e-02,-1.110017311767978916e-02,3.403097763657569885e-02
2.384266705726049707e-01,2.086803675946317382e-01,2.419880598622789758e-01,-1.494842702184629932e-02,-8.047533925239307856e-03,-1.514512005384338264e-02,5.055930092930793762e-02
2.222592918803418804e-01,2.214585541241470834e-01,2.337740480576519508e-01,-6.504088466878001421e-03,-6.249813427263393832e-03,-7.835815393727463274e-03,2.389018796384334564e-02
2.177029459937279143e-01,2.345505861028508443e-01,2.156928385958458705e-01,-3.954071355907989166e-02,-6.545194501216047844e-02,-4.529445706584244585e-02,1.549799591302871704e-01
1.829742811295116123e-01,2.337155642092713093e-01,2.814711463478568043e-01,8.434990171636140566e-02,2.090038986297566154e-02,-3.425024148833109155e-02,1.829013079404830933e-01
2.311129986594044061e-01,2.409003713528048707e-01,2.187901921502545532e-01,-6.488093411929522943e-03,-7.526633955400126655e-03,-5.578970757065416369e-03,2.752932161092758179e-02
3.135645909648406282e-01,1.665271528814407376e-01,2.342665781968231720e-01,7.328720247143624689e-02,3.128232994657182547e-02,-8.235077668315592125e-02,2.358858883380889893e-01
2.185342636931428828e-01,2.880642657418366892e-01,2.244380914491441725e-01,2.023429942605368265e-02,-4.774542222221967586e-02,2.378337927486367381e-02,1.192597448825836182e-01
2.091935083060975364e-01,2.807041481295494689e-01,2.005030416217217226e-01,1.790152656778282517e-03,-5.015611363659892158e-02,-1.605437790274099469e-02,1.189138665795326233e-01
2.201595800190598862e-01,2.658825660468491225e-01,2.033151858815145374e-01,-4.454233097551905940e-03,-2.360275718148416302e-02,1.335624197349811072e-03,6.986160576343536377e-02
2.172186735264081958e-01,2.561534187753181091e-01,2.181048852473887190e-01,8.779747235401826359e-04,-9.445691139281956611e-03,1.826114469725627961e-03,4.197826981544494629e-02
2.563489757215511311e-01,1.972776750855103345e-01,2.616560247381933824e-01,2.674150599172823908e-03,4.051594228719384086e-03,-6.516843396113228618e-03,6.347586214542388916e-02
2.035460566436258223e-01,2.402840274409541732e-01,2.368997096654143764e-01,-1.514359483346281593e-02,-1.578766540281167224e-02,-8.984710302300524809e-03,5.398806184530258179e-02
1.993293019283405298e-01,2.530505945682994251e-01,2.385150164060305111e-01,-1.669715457308218812e-02,-1.907919276525827865e-02,-6.116212038748956512e-03,6.600792706012725830e-02
2.272643251113775908e-01,2.291708185985467383e-01,2.492372867829915906e-01,8.953300896483487245e-03,4.788026506761527620e-03,-6.567303585915488032e-03,2.971873618662357330e-02
2.254117052115125475e-01,2.170849699370001329e-01,2.528583657711911958e-01,-1.381002799367398066e-02,-3.957489929483520331e-03,-4.045967719101734028e-03,4.146613180637359619e-02
1.912267292254539175e-01,2.371640410860001991e-01,2.553806598318326682e-01,-2.290429679599571486e-02,-1.680218045821692610e-02,-1.021653634683698103e-02,7.754223048686981201e-02
2.191614918162461401e-01,2.314142071545600143e-01,2.418382054231355827e-01,-2.209220726167026097e-02,-1.847803112551596114e-02,-1.683105929769204701e-02,6.103175133466720581e-02
2.453688329988317762e-01,2.166829134391326794e-01,2.164877026096171386e-01,1.395405456987239626e-02,1.696305838421427112e-02,-2.887690009813611777e-02,6.911966949701309204e-02
2.481877970927310328e-01,2.191482495230986371e-01,2.468976033712332041e-01,1.455198174743531705e-02,1.112363644099733512e-02,-9.959021681526481276e-03,4.595134407281875610e-02
2.621166683977713685e-01,2.245291216272437551e-01,2.586963385333623799e-01,4.082072815770203256e-02,2.741267487726807561e-02,-1.837304844726868683e-02,9.778561443090438843e-02
2.422441406696764499e-01,2.434086785443028145e-01,2.184719816421738237e-01,1.209166830946772214e-02,1.102495216550464056e-02,-9.284544320983774759e-03,4.069444164633750916e-02
2.483159829002864749e-01,2.185905358989672087e-01,2.297576937874502290e-01,8.708460736983473713e-03,8.882373255929601127e-03,-1.225392154439665544e-02,3.988779336214065552e-02
2.274955375119208367e-01,2.595589861658325614e-01,2.069455462870383178e-01,6.925783683170030989e-04,-7.720295887162569384e-03,1.271746619745514921e-03,4.789958521723747253e-02
2.060054014178864523e-01,2.583980215968045835e-01,2.123245851171688403e-01,-5.464666138816139270e-06,-2.439335748437954088e-02,2.347481324014740172e-04,6.510847061872482300e-02
2.356661256368972057e-01,2.598522935991012806e-01,2.022161312210605244e-01,2.452355449069298053e-03,-5.095610844181245290e-03,1.065265163247042755e-03,5.111010000109672546e-02
2.367606413907696605e-01,2.601837270916408928e-01,1.935397316143459001e-01,1.773678565479627366e-04,-1.341122147727852668e-02,6.282496867364146913e-04,6.300727277994155884e-02
2.429475528948750185e-01,2.641803744569663492e-01,1.956141504898428751e-01,5.228516546268023764e-03,-1.001792689559701313e-02,3.520757900945611744e-03,6.416059285402297974e-02
2.252883811482048471e-01,2.724700036731260155e-01,1.732799602337582734e-01,-7.759397444146713674e-03,-4.346810320084766588e-02,-4.985468506165219825e-03,1.153622120618820190e-01
2.498623256040612972e-01,2.280270293520472724e-01,2.300090653025993193e-01,9.302236564369258543e-04,1.560470216931998406e-04,9.809381345454871570e-04,2.104723267257213593e-02
2.245253680299073573e-01,2.695875667523245922e-01,1.993048553293333136e-01,-2.754587963221011055e-04,-2.894475824365312297e-02,-1.906345386622219744e-03,7.954680919647216797e-02
2.638801437962222662e-01,2.357401173324052412e-01,2.016574699260389458e-01,-6.030048876812971713e-03,-9.869708520276448266e-03,-2.269873612850743100e-02,6.971076130867004395e-02
2.464390294328018816e-01,2.223683573060473706e-01,2.167522957222561553e-01,-2.885932333401411420e-03,-1.839536271063280885e-03,-2.285299471389363058e-03,2.822986058890819550e-02
2.202753200205278539e-01,2.457312786077369693e-01,2.230580953458605187e-01,-9.752700358128905001e-04,-1.350436579716114086e-03,-9.470494523580929788e-04,2.441160939633846283e-02
2.081375075045463485e-01,2.545002291495164215e-01,2.022333269241549381e-01,-3.593775096026679411e-02,-6.402276455332342464e-02,-2.530413157448046374e-02,1.433537602424621582e-01
2.612934238614702531e-01,2.120222685126596784e-01,2.026322139960598789e-01,-2.697483146176047047e-03,-2.878358299908455840e-03,-2.744057898498273099e-02,7.269194722175598145e-02
2.868709217916827203e-01,2.376570664918338238e-01,1.640144542819065854e-01,-8.811202373647863267e-03,-2.324454673189201015e-02,-5.193545486301668485e-02,1.463392972946166992e-01
2.854029481452161621e-01,1.918667130433359957e-01,2.170649656473458422e-01,-2.017816359827567449e-02,-7.929240718787764278e-03,-6.491156541750364717e-02,1.451814621686935425e-01
2.570858177707867065e-01,2.109562298674097225e-01,2.364123389978469159e-01,2.238198095699336747e-03,2.570884160598598065e-03,-1.001475418562794255e-02,4.401608183979988098e-02
2.442990850268776382e-01,2.360088210581821888e-01,2.161799238968871717e-01,-1.736556090954757478e-02,-2.450687335777568601e-02,-2.710977658264273477e-02,7.441484183073043823e-02
2.518092804567296228e-01,2.078485617506268257e-01,2.284753182629514767e-01,-1.595444245835452154e-03,-8.177965521115340697e-03,-8.174070611346668028e-03,4.312726110219955444e-02
2.543927987549154390e-01,2.140265578208025987e-01,2.276306082514333584e-01,-5.709043202294337982e-03,-4.801242690519164254e-03,-1.177747933121991997e-02,4.299327358603477478e-02
2.502548803689133017e-01,2.206639582407080025e-01,2.175647435608026314e-01,-5.667852776385107379e-03,-4.890887895149222987e-03,-1.084801677102484666e-02,3.870543837547302246e-02
2.168832060609794388e-01,2.553653696810130325e-01,2.545926855928122845e-01,2.587855514645375984e-02,3.358331141933112302e-02,-8.094178748088284511e-03,8.391008526086807251e-02
2.364428351759885194e-01,2.287683844606459016e-01,2.375303466894200799e-01,-2.659638141612914188e-04,3.204904666657279032e-03,4.138917663741497948e-04,9.998315013945102692e-03
2.524015631876454502e-01,2.359039161308932320e-01,2.014746392421350729e-01,-4.688813540176561476e-03,-1.179142385752983066e-02,-2.214344959499611049e-02,6.308418512344360352e-02
2.300395011597589912e-01,2.471110923155594163e-01,2.350182124208227974e-01,-6.771622873610108444e-03,2.552319814105265608e-02,1.978814085367143136e-02,5.914228036999702454e-02
2.350250380666612238e-01,2.453032843920494865e-01,2.297590444175590940e-01,-4.872693058371870695e-03,9.408555698152926833e-03,6.517867089251143040e-03,2.552916295826435089e-02
2.305696251990123902e-01,2.463347201999354086e-01,2.329981619424359440e-01,-6.048601099321507420e-03,8.291433060620275255e-03,8.398296120997831085e-03,2.727167680859565735e-02
2.434024307029981071e-01,2.281316238650827888e-01,2.375113768930604830e-01,-4.267615885791739214e-03,5.557151090614728152e-03,6.800483123237804906e-03,2.153982408344745636e-02
2.327495804261205392e-01,2.313814206122390416e-01,2.356876631847907855e-01,-9.205380991265258231e-03,1.344988920760856188e-02,1.065371435102670239e-02,3.394030779600143433e-02
2.310444590507096663e-01,2.202728463528983993e-01,2.438388977251733925e-01,-1.329434615831550336e-02,1.160249750047514898e-02,1.036155657999948340e-02,4.091088473796844482e-02
2.387392436710669974e-01,2.154954949833010058e-01,2.372513814897733164e-01,-1.197730545384993912e-02,1.142537602705311940e-02,1.448663814129867375e-02,4.426596313714981079e-02
2.432211501002893017e-01,2.192603062774274303e-01,2.389644641187070595e-01,-3.381330801901821954e-03,6.230264077572616847e-03,4.332085266049757154e-03,2.640638686716556549e-02
2.370293526830616893e-01,2.416223906593014392e-01,2.232952958109409858e-01,-3.354489164789382655e-03,6.758582363735951906e-03,2.055704799698401027e-03,2.136052958667278290e-02
2.318566451198803280e-01,2.463319963068285323e-01,2.259141569608424660e-01,-2.518538094051361170e-03,7.588210445510123331e-03,6.374537850809106759e-03,2.538788504898548126e-02
2.378638789065148362e-01,2.271706091582394726e-01,2.388017861421872501e-01,-5.087728625942755656e-03,4.174118300634286662e-03,4.831823087268657425e-03,1.803383603692054749e-02
2.350583655118904658e-01,2.446282720026814184e-01,2.303711985265311790e-01,-2.752094183478845900e-03,6.547310972238074532e-03,6.743467560693945650e-03,2.112239040434360504e-02
2.304521157792009944e-01,2.443996572216858842e-01,2.340564986677458048e-01,-3.701649749036774011e-03,5.895462504835538575e-03,4.221552660884297752e-03,1.887044683098793030e-02
2.246555727952079251e-01,2.001676619163757498e-01,2.899911912492269539e-01,-5.508672486640527055e-02,5.684920101241174722e-03,6.610053578141481152e-03,1.256980895996093750e-01
2.533072535768678968e-01,1.819918162953538254e-01,2.751571390645993209e-01,-1.627590869835294704e-02,1.249956939562439119e-02,1.572790737397922883e-02,9.553574025630950928e-02
2.396974553702830302e-01,1.871468416356530662e-01,2.765025804891982908e-01,-4.506360839054894540e-02,1.099270507656710701e-02,2.300008237292873806e-02,1.187098696827888489e-01
2.236272042567542528e-01,2.698363639088732779e-01,2.121577747316638063e-01,-2.641904411887310324e-03,-2.930649909501866629e-02,-8.370256458042252962e-03,7.486362755298614502e-02
2.185500000982986968e-01,2.499202007221386634e-01,2.275812035839679670e-01,-5.884565481160870283e-03,-1.048184076886281464e-02,-5.832774344027784330e-03,3.630284592509269714e-02
2.498153723605296972e-01,2.349244631375809744e-01,1.978676950935819301e-01,-1.761937874868345008e-02,-2.395194487843858855e-02,-2.441928512157132830e-02,8.116693049669265747e-02
1.994191829874236155e-01,2.543192195007955014e-01,2.202344789435611572e-01,-2.287823428410483764e-02,-4.715831525176682887e-02,-2.289604536601284879e-02,1.100871339440345764e-01
2.543588652191678956e-01,2.544721190980916425e-01,1.650643353994328821e-01,-8.069620478170272046e-03,-2.843258354488378478e-02,-1.957492121003499494e-02,1.084147766232490540e-01
2.242883357865337879e-01,2.568238283314920323e-01,2.023775260195860570e-01,2.697257101749469632e-04,-8.382257211848785639e-03,-7.746960113043962863e-04,4.964198172092437744e-02
2.147151544838632742e-01,2.470681503005798529e-01,2.131245401775004322e-01,-1.756690943573941538e-02,-2.870716372716362874e-02,-1.737438013553078628e-02,7.351467758417129517e-02
2.270397937253930132e-01,2.499337269011624729e-01,2.168807754208457450e-01,-6.188629490311237102e-03,-1.002886513762750280e-02,-6.466784724006184593e-03,3.744338825345039368e-02
2.393546880646662822e-01,2.324598068478602453e-01,2.254387673355078558e-01,-7.428061842871492779e-03,-8.428755308804151969e-03,-9.189427098366868482e-03,2.787903137505054474e-02
2.507844845073060602e-01,2.497150788929219378e-01,1.924114996241044206e-01,-3.412530746253996522e-02,-5.043556025635628770e-02,-5.605374836950109685e-02,1.545866727828979492e-01
2.439025043908170931e-01,2.478055942942772316e-01,1.931955953157990513e-01,-8.195998252992072949e-03,-2.295811030132154790e-02,-1.271217892592969335e-02,7.107660919427871704e-02
2.472267444067581255e-01,2.468199386058597400e-01,1.818546580496867571e-01,-1.599891709931191425e-02,-3.080808697409673225e-02,-2.802140141011360067e-02,1.010840684175491333e-01
2.137203543095009539e-01,1.970490887572505789e-01,2.630720132123692268e-01,-2.843610018560775374e-02,-2.970363028074184206e-03,-4.495481453019113498e-03,7.777663320302963257e-02
2.012154957895141150e-01,2.190644824462836260e-01,2.608295660419766016e-01,-2.367866369573329646e-02,-1.632424846128043873e-03,-4.562636650215526508e-03,6.753411889076232910e-02
2.174560548921054270e-01,2.157764141298941230e-01,2.826489486930295891e-01,-5.580700177150035857e-02,-1.986599016070354426e-02,-2.055360559872596721e-02,1.271102875471115112e-01
2.031041579999539604e-01,2.202435357727879628e-01,2.637143073638124058e-01,-2.024588190649748154e-02,-1.511956471234524035e-02,-6.056025181903842286e-03,7.038497924804687500e-02
2.423075772227961389e-01,2.353180981189756660e-01,2.418647257691150521e-01,2.069167018474207462e-02,1.313419664416035255e-02,-8.747453461471503891e-03,4.557920992374420166e-02
2.430181378315368346e-01,2.456211743627849109e-01,2.346327123777378343e-01,1.541291275771536698e-02,1.888528882965737760e-02,-9.267267979814416273e-03,4.625150188803672791e-02
2.419461414944020783e-01,2.281709489675584068e-01,2.266524431979886345e-01,4.177501536550265286e-03,3.768297891926270134e-03,-4.853480876818131416e-03,1.945772580802440643e-02
2.564559158715956633e-01,2.297984737624083895e-01,2.168630477809986856e-01,5.719475818045017916e-03,5.700863351337237539e-03,-1.292665307176508321e-02,4.381439834833145142e-02
2.594853313697559338e-01,2.413991410111614444e-01,2.248500888954358401e-01,-1.928642117929725910e-02,2.924491805999644700e-02,3.226632299290811690e-02,8.778001368045806885e-02
2.327617307584233519e-01,2.418280054021647307e-01,2.315300262961676458e-01,-5.644925480268238880e-04,1.375276791826255101e-03,5.097019846694863469e-04,1.011389680206775665e-02
2.317619327170814536e-01,2.387578276666569299e-01,2.336442266507641752e-01,-6.165761909176361655e-04,5.197923282908782465e-04,2.012228623459034853e-03,7.308590225875377655e-03
2.964716560669860557e-01,1.728134318572633887e-01,2.495135696438497142e-01,5.175040108603785362e-03,1.367503936203577804e-02,-5.190024272556249124e-02,1.428703367710113525e-01
2.211206484135325445e-01,2.267020323736978205e-01,2.528653664404801882e-01,4.097624333699448340e-02,3.320112245901997439e-02,-1.132217028169027473e-02,9.793046116828918457e-02
2.603509298065528332e-01,2.306588781178200431e-01,2.318635257510159031e-01,3.423472352163603460e-02,4.637844122957233278e-02,-1.931521810078062895e-02,1.092495396733283997e-01
2.425766837652196806e-01,2.212505082433905979e-01,2.296611401634295890e-01,1.110813231585423833e-02,-8.475807387561540285e-03,1.751190882334105470e-02,4.303334280848503113e-02
2.578302302463163498e-01,2.400595630473974784e-01,2.410543839034300917e-01,3.059273244678931830e-02,-1.984482338625692677e-02,4.205125790459545571e-02,9.794503450393676758e-02
2.376345731366876768e-01,2.326236452562594481e-01,2.379755051579648117e-01,7.505280316306513558e-03,-3.030658290354276956e-03,7.802552794029016942e-03,2.015231736004352570e-02
2.401540743993272609e-01,2.562657367685236554e-01,2.383623255086190773e-01,3.935292847435528651e-02,-1.632103167341466751e-02,3.674236906468153485e-02,9.892803430557250977e-02
1.924038309900725774e-01,1.940023391942322650e-01,2.737239377901032888e-01,-7.139413784564221932e-02,-3.245234138312329264e-02,-3.509555228795250420e-02,1.692083030939102173e-01
1.902717573558571351e-01,2.354894576647419135e-01,2.696510642534312163e-01,-2.894963508175323746e-02,-4.393230911430405679e-03,-3.032009621022524210e-03,8.576764911413192749e-02
1.906488967194543971e-01,2.235315503822229988e-01,2.690611079377690507e-01,-4.821263084618947203e-02,-1.315672389001742992e-02,-6.520165432759393934e-03,1.107770353555679321e-01
1.908532942013519418e-01,2.332249349554526285e-01,2.756519313410468741e-01,-5.419047701953057933e-02,-1.596899323331061812e-02,2.686711640270705859e-03,1.224320754408836365e-01
1.797279226433903532e-01,2.559837433138915097e-01,2.224616151514736684e-01,-2.090532618785697141e-02,-4.027706890626595038e-02,-2.073059561927178066e-02,1.088555157184600830e-01
2.066639920424905852e-01,2.392616189125273407e-01,2.232743116294810259e-01,-2.531259907841375972e-02,-2.904552550656699927e-02,-2.256051734818231846e-02,8.232309669256210327e-02
2.082872034485222512e-01,2.401167874050160189e-01,2.405276508769794985e-01,-1.086064274992996730e-02,-1.052350311094871205e-02,-7.075547513861739357e-03,4.315845295786857605e-02
2.067137937082563770e-01,2.505522215516136630e-01,2.228172461411158101e-01,-1.029854052611954562e-02,-1.815599777304922197e-02,-1.087210078745284858e-02,5.600792169570922852e-02
2.242742311528795884e-01,2.221710556925392266e-01,2.500527776234878208e-01,-2.914677546768570243e-02,-1.214686722710605141e-02,-9.591824685056205002e-03,6.316981464624404907e-02
2.464388512218171901e-01,2.284937786112854752e-01,2.256805925064165608e-01,5.771437879020033766e-03,4.144686968165538915e-03,-5.276620177455056820e-03,2.480754815042018890e-02
2.053497916593513550e-01,2.590032974920880027e-01,2.343673447061611348e-01,1.225650317562003173e-03,-3.546679711474570295e-03,7.798512610451371375e-04,4.698820784687995911e-02
2.164664533491186815e-01,2.665608637851260565e-01,1.896951455928241603e-01,1.817475887003039197e-03,-3.162944203760020834e-02,4.181833409774112463e-03,8.735492825508117676e-02
2.285599952817266856e-01,2.545996121786763267e-01,1.966878180505574891e-01,-1.590856759324363323e-02,-2.682074203738829543e-02,-2.266931742480062309e-02,8.356335759162902832e-02
2.183189405931161564e-01,2.752653925479196517e-01,2.215487209778738975e-01,-4.552340912240577554e-03,-3.624968702627220929e-02,4.545750853946607314e-03,8.447299897670745850e-02
2.493358368116645463e-01,2.270320613704741308e-01,2.287729515699714056e-01,1.040020869866826797e-03,-4.086079918976111519e-04,2.871458220638811818e-03,2.213915809988975525e-02
1.967238828327722566e-01,2.429775003282332591e-01,2.186750743541719388e-01,-5.396755756597940157e-02,-6.081398976144723745e-02,-3.342090963457075570e-02,1.574462354183197021e-01
2.634974794903259809e-01,1.811798764099282200e-01,2.483646097183343227e-01,-1.682298407706172031e-03,2.217401420720522143e-03,-6.799315951787106814e-03,7.695078104734420776e-02
2.525521168964015573e-01,2.274638452092659080e-01,2.341783040726592990e-01,-1.777541048916527833e-03,8.115727656166171408e-03,1.601539634450260124e-02,3.850459679961204529e-02
2.003587639822700106e-01,2.392517031362259849e-01,2.361328512938321578e-01,-1.606401141248139930e-02,-2.397640654692545156e-02,-1.502114674670227551e-02,6.765170395374298096e-02
2.012794162067577941e-01,2.518104212542869313e-01,2.391917608849635779e-01,-1.395393970430613625e-02,-1.719414721012050770e-02,-6.191451310936180175e-03,6.050648912787437439e-02
2.255986483903426598e-01,2.372833430732916860e-01,2.487202494776755146e-01,9.035377997600409217e-03,-3.257887114034302076e-03,5.956748944272853910e-03,2.800314128398895264e-02
2.288034678677175193e-01,2.392979097719219184e-01,2.413436264070064341e-01,6.180475735289158064e-03,-3.875775055812885270e-03,6.530021743453115479e-03,2.057596109807491302e-02
2.294093811708609321e-01,2.331356326066825191e-01,2.378125844644754516e-01,5.973417638803420714e-03,-3.308424537838694068e-03,5.055113116037140801e-03,1.642348989844322205e-02
2.441355230979557756e-01,2.284301120482494785e-01,2.277054701182312235e-01,4.189700397506899987e-03,-2.907997392584067524e-03,7.035767524279528708e-03,2.202503196895122528e-02
2.340391169698401441e-01,2.409262916668194476e-01,2.305169749424914594e-01,5.212454618088996697e-03,-4.407283950671796180e-03,5.326810891038628697e-03,1.757846772670745850e-02
2.637870549217045113e-01,2.434564257992324343e-01,2.246911620884436134e-01,1.549529747457591491e-02,-8.050732078863635788e-03,3.595439446706673314e-02,7.707068324089050293e-02
2.303954608303462603e-01,2.393791442929801283e-01,2.347046196474139035e-01,3.756629894183076586e-03,-4.469871805474525013e-03,4.784807171240422312e-03,1.521586347371339798e-02
2.349488073031666957e-01,2.424854192910263773e-01,2.281523118088336910e-01,7.594324561004046556e-03,-6.361923531492406740e-03,5.753798163440623087e-03,2.340891957283020020e-02
2.005281428614429373e-01,2.551797299430816346e-01,2.509238678956338675e-01,1.730321324539903574e-02,-1.645160112918860051e-02,1.983951269500049130e-02,7.525494694709777832e-02
2.565893252924116852e-01,2.290148849337604597e-01,2.128722741103221960e-01,1.211716667732761453e-02,-4.706600122068557539e-03,2.417866626851530865e-02,6.104763969779014587e-02
2.503521695289707139e-01,2.411779028190726148e-01,2.473275906398043900e-01,3.753455108540940804e-02,-2.299744468745528250e-02,3.491950566106559461e-02,9.765683859586715698e-02
2.205361960253132969e-01,1.737903043094132793e-01,2.662746391096573739e-01,-4.430719782858318079e-02,2.496167677525710973e-03,4.209881850636542494e-03,1.112497746944427490e-01
2.397937136034885841e-01,2.122489507841726353e-01,2.574055589570338753e-01,-1.748483127824209185e-02,1.289215731649635821e-02,1.312387438552356338e-02,5.904654413461685181e-02
2.367653078982589754e-01,1.939699857739139999e-01,2.579255981719498769e-01,-2.617217861842003473e-02,1.402312030932777696e-02,1.127051440573691860e-02,7.880815118551254272e-02
2.254408478236526736e-01,1.981068229854010820e-01,2.703174943195349456e-01,-5.867581115069067654e-02,2.959369254892166290e-03,2.751299284459154601e-03,1.198551505804061890e-01
2.363803993664219116e-01,2.320170782246685492e-01,2.329630912640209828e-01,5.115121690007589511e-03,-4.788773918359990125e-03,4.781428135587391035e-03,1.522111706435680389e-02
1.557467935909754297e-01,2.893462911757521128e-01,1.954038456716369332e-01,-2.605495591279158307e-02,-9.674257916396925006e-02,-1.777857627980583902e-02,2.125689089298248291e-01
1.535222074339300802e-01,2.908787108195772797e-01,2.362501556909394895e-01,-3.289027487187735216e-02,-9.252524484322832699e-02,-3.850854976789747780e-02,2.184589207172393799e-01
1.403417073213805710e-01,2.736505237822625114e-01,2.294038425940598813e-01,-4.850931913555539543e-02,-8.037998355630956993e-02,-2.575981480416823094e-02,2.055809497833251953e-01
1.921227206265312959e-01,2.639615554540914455e-01,2.402184647728896616e-01,-7.241036687397183619e-03,-2.636757747971196428e-02,-8.270077167674015541e-04,7.914526760578155518e-02
1.815534947532565779e-01,2.592228707302389190e-01,2.497450712430497044e-01,-1.176927354333284640e-03,-6.429402153483915541e-03,2.670648931500557103e-03,7.440289109945297241e-02
1.354830596021389666e-01,2.810259753006250638e-01,2.310070776772540357e-01,-3.201829576545755368e-02,-7.544980251517170722e-02,-1.749483982232278093e-02,1.935884207487106323e-01
1.710054085085389863e-01,2.637239138080285095e-01,2.415113638527904560e-01,-1.234285002263610029e-02,-3.599913234059032296e-02,-5.512651576415115648e-03,1.070823147892951965e-01
2.186199886816894422e-01,2.198603380575777921e-01,2.511132475145947396e-01,-8.400419802429196989e-03,-3.277589178752505442e-03,-4.009125777709380938e-03,3.618280589580535889e-02
2.059066881972207719e-01,2.241309324216312071e-01,2.572445570782440072e-01,-1.769462128535761319e-02,-5.814762496373251759e-03,-9.678246906775307343e-03,5.791238695383071899e-02
2.337794552017611605e-01,2.408079292171496633e-01,2.329396928926111554e-01,-5.057135205427883834e-03,6.656989734828520390e-03,5.679783393878246739e-03,1.903830654919147491e-02
2.227462032729607411e-01,2.283793319904503238e-01,2.445991695107502251e-01,-8.834092961970341912e-03,-5.510958613576422138e-03,-7.169644715785600253e-03,2.942160330712795258e-02
2.210897359515771043e-01,2.218136049748228866e-01,2.421559843220411623e-01,-5.398671697537027123e-03,-5.639976402008264021e-03,-5.556296126963889553e-03,2.654324471950531006e-02
2.215705877920302880e-01,2.210873262160459318e-01,2.440463268846971012e-01,-6.044771958207585325e-03,-6.606504170707030131e-03,-4.698474476703727067e-03,2.868861332535743713e-02
2.259597217235850553e-01,2.233304536796720807e-01,2.255754338849920437e-01,-4.893459567900888124e-02,-3.129052898360033808e-02,-4.082677871115479584e-02,1.229943260550498962e-01
2.233436633742882094e-01,2.395725733202943297e-01,2.499049139927803365e-01,2.099941310205056394e-02,2.319701454321176221e-02,-1.676419694887599024e-02,6.571272760629653931e-02
2.643022474199024918e-01,1.926230515045594116e-01,2.480791990657930934e-01,1.838714148362130887e-02,8.184956794333828056e-03,-1.973604454865833524e-02,8.137576282024383545e-02
2.995244292456632484e-01,2.469779207921404263e-01,1.732483673011256387e-01,5.680398797921639917e-03,-3.404722402657498273e-03,-5.536095990424257096e-02,1.462788432836532593e-01
3.177637811846559246e-01,2.318838026672363217e-01,8.513121506012671924e-02,9.751516954642085871e-03,-3.365194868655543847e-02,-1.113567496842514382e-01,2.870512306690216064e-01
2.547880618761217963e-01,2.425901279034588798e-01,2.129500429282586704e-01,-9.466609224686136411e-04,3.628460443471496523e-03,3.714314833641835928e-03,3.837246447801589966e-02
3.688138900372873175e-01,2.719097219529295062e-01,1.273077759005782350e-01,2.935132357049267254e-02,1.159007407703183980e-02,-1.014212412848716771e-01,2.795692384243011475e-01
2.792388355248596188e-01,2.420173037777955949e-01,1.687486116764136956e-01,1.551459522450155878e-02,7.466434328345915653e-03,-6.126461137984955119e-02,1.470725238323211670e-01
2.850554473951422696e-01,2.610506826321507545e-01,1.620892538507431868e-01,3.869145501729871067e-02,3.162704651116211851e-02,-5.741159287171609255e-02,1.735664308071136475e-01
3.601960894111017053e-01,2.237356567023316423e-01,1.509726212541868950e-01,1.057213235213829393e-02,2.056225492659767909e-02,-1.015736894429345449e-01,2.576830685138702393e-01
2.157847049156575159e-01,2.259242543346512977e-01,2.540225770327060317e-01,-1.201879139918233738e-02,2.231103551504208960e-03,2.912649973694572138e-04,4.032086953520774841e-02
2.236125123476044307e-01,2.402151907056249980e-01,2.188894862985313050e-01,-1.010638636472237749e-02,-1.902237627761231911e-02,-1.593740299766755603e-02,5.030251294374465942e-02
2.558127015424577211e-01,1.771468972002900322e-01,2.745984130469857898e-01,-5.220665902441644357e-02,-1.489873425835969156e-02,-3.547928489174730082e-02,1.436588615179061890e-01
2.482896764917637000e-01,2.252505841448790291e-01,2.128073594419034875e-01,-1.323231009424061765e-02,-1.743026794972179702e-02,-2.813502188673732210e-02,6.916485726833343506e-02
2.369673359923184508e-01,2.045276539258577553e-01,2.504464500343989153e-01,-2.078122379693840213e-02,-7.014448146616111997e-03,-1.251256552921730866e-02,5.986781790852546692e-02
2.458484832071335668e-01,1.958520181549306405e-01,2.404219571178822512e-01,-1.978475792890844673e-02,-1.678457514650087690e-02,-2.348245976181945888e-02,7.701649516820907593e-02
2.766910627287880176e-01,2.375921021984818138e-01,1.942335090629404570e-01,-1.622915123368085313e-02,-3.033470421158221408e-02,-5.430742686237621103e-02,1.322973966598510742e-01
2.470781920948871557e-01,2.272691813278441553e-01,2.352046689661977386e-01,-4.141473154906690456e-03,5.952864276913833429e-03,8.250031178019617828e-03,2.569297514855861664e-02
2.447273757762146174e-01,2.363862340004579954e-01,2.295991568788708359e-01,-3.037860571234071629e-03,5.872569732853051040e-03,9.965307892023054018e-03,2.452182956039905548e-02
2.338071404481098514e-01,2.405128073080199380e-01,2.336741424130327760e-01,-4.615954770177131510e-03,6.065916935398873132e-03,5.599329014429958208e-03,1.772681996226310730e-02
2.552832426426003831e-01,2.324040979112663163e-01,2.182315073391598581e-01,-1.124107416770443214e-02,1.719467653700214316e-02,2.625899656356127376e-02,6.620600074529647827e-02
2.133883498730461958e-01,2.099171031214725480e-01,2.488389648674824151e-01,-3.760873007864655448e-02,2.312680307505895691e-02,2.690288169501255100e-02,9.701002389192581177e-02
2.340851159875985688e-01,2.412686232794566676e-01,2.311797940688175013e-01,1.768501388353790329e-03,1.694723700401016891e-04,-4.696950654125141723e-04,9.541743434965610504e-03
2.482584339603019774e-01,2.045116041094462156e-01,2.478738810668272841e-01,-3.448218766024070420e-03,7.014014058869536689e-03,4.835778906343009970e-03,4.637374356389045715e-02
2.418928656204311356e-01,2.108979325107643021e-01,2.479591039936742680e-01,-1.094398899411833624e-02,7.707177878588676589e-03,9.996580848587489909e-03,4.497573897242546082e-02
2.353888852733357628e-01,2.606192229555522322e-01,2.189317907263799434e-01,-1.810080965932004782e-04,1.485915787955388589e-02,4.904195970552338232e-03,4.535702243447303772e-02
2.396755061442092660e-01,2.551944269370530205e-01,2.183422306536599022e-01,-1.554026272756624250e-02,1.647471857802226824e-02,2.560507796018977530e-02,6.732475757598876953e-02
1.774999383578753642e-01,2.331357225746314987e-01,2.628704189450481454e-01,-3.379733484540295430e-02,4.792608993139741737e-03,9.031521349148786959e-03,9.682044386863708496e-02
2.243011072000883344e-01,2.559249988940905940e-01,2.266607468639547374e-01,-3.102353950039594055e-04,1.081569699321032786e-02,6.123192072020080395e-03,3.734600916504859924e-02
2.037405914447691091e-01,2.761154604293168391e-01,2.431803292782669379e-01,-4.706463623588100567e-03,2.878216496626346405e-02,2.577216509532296793e-02,9.210577607154846191e-02
2.373465061246460006e-01,2.542248140257579725e-01,2.177842829694524307e-01,3.201350861190016160e-04,1.331923782086044845e-02,8.330447906299840236e-03,4.169457778334617615e-02
2.569314911428270953e-01,2.273063458372370227e-01,2.202863271097823261e-01,3.703068264226784881e-03,3.822830643088789837e-03,-1.151799617116555131e-02,4.022277891635894775e-02
2.558225731886981658e-01,2.017880544998532089e-01,2.427873548833520412e-01,7.893997247913352860e-03,9.782451826654154151e-03,-1.517189535996394528e-02,5.958093702793121338e-02
2.558393600446914329e-01,1.952415308657043658e-01,2.495197599996820670e-01,8.184090624637312128e-03,9.527213052724253436e-03,-1.908006041807353698e-02,6.996047496795654297e-02
2.642625122931758774e-01,1.751010422294790592e-01,2.407481923513914712e-01,-1.388657873395988777e-02,-5.384847936257442132e-03,-3.211091577319843265e-02,1.008213907480239868e-01
2.884768273674958028e-01,1.646936894025116116e-01,2.388689929345002849e-01,-5.476826349240100991e-03,1.287208147495501331e-02,-4.798061823491303612e-02,1.383331716060638428e-01
2.962100791668844102e-01,2.189397801470676919e-01,2.024756385456987218e-01,-5.563589827484814038e-04,-9.477270042472406980e-03,-5.694759895344246592e-02,1.323383152484893799e-01
2.902483387979271079e-01,2.195664091246143090e-01,2.045039755381471980e-01,-2.429112855941754738e-03,7.677552304799595967e-03,-5.498415689911253373e-02,1.247067078948020935e-01
2.690189202665573265e-01,2.013132462019459612e-01,2.182350402210766205e-01,-1.540039977310940717e-03,-3.967402632081158328e-03,-2.052168914774408701e-02,7.101027667522430420e-02
2.125908996828677899e-01,2.277836845240318875e-01,2.574290670913659818e-01,-1.159843514283196743e-02,-3.208313177765638978e-03,-2.658601393209290668e-03,4.489677771925926208e-02
1.945198760172782426e-01,2.383323855365332700e-01,2.597872104397017101e-01,-1.023988360524653342e-02,1.378308278650114014e-03,-9.931750605599741130e-05,6.033348664641380310e-02
2.048688224960869553e-01,2.255948455944666864e-01,2.545488217728110181e-01,-6.495671356093580574e-03,3.344069427939575781e-04,-8.051525009872211687e-04,4.468627274036407471e-02
2.048696445065247840e-01,2.259585160027292039e-01,2.579627313340404626e-01,-5.559478533656410371e-03,-5.785293268119003941e-04,-2.617565418197804594e-03,4.752079024910926819e-02
2.415798961322393745e-01,1.750886491917539867e-01,2.282239362862971965e-01,-6.986396203369425739e-02,-4.935372676276230525e-02,-7.744873545633068623e-02,2.089416682720184326e-01
2.151733575362204109e-01,2.285863554622818428e-01,2.582753873215913321e-01,-1.211391125529300873e-02,2.612621035832981414e-03,3.737295242915735990e-03,4.429657012224197388e-02
1.900185994313932925e-01,2.395721037814197429e-01,2.598484330137264542e-01,-2.087433988329828738e-02,1.011472637132770393e-03,5.816204179562715123e-04,7.199125736951828003e-02
1.952016461633217792e-01,2.163841053206259357e-01,2.933726175485134036e-01,-6.374452587265162784e-02,2.449319359616340328e-03,-5.747159533304062318e-03,1.425268948078155518e-01
2.289606028176933983e-01,2.384274882434756770e-01,2.402414481458048090e-01,-3.569483965383106819e-03,4.618387598894436487e-03,6.099372587328571668e-03,1.799733564257621765e-02
2.268726261883280970e-01,2.352577274674706453e-01,2.391033333375122971e-01,-6.066738697729043284e-03,3.141086415582531460e-03,4.233857387711811165e-03,1.763905584812164307e-02
2.271735117137472226e-01,2.271102185756494196e-01,2.416647690170460883e-01,-5.778281257790738971e-03,4.241654886078311502e-03,3.950376134183493544e-03,2.029469609260559082e-02
2.242998774529570416e-01,2.428973786927099143e-01,2.220708669549638081e-01,-1.644780249549489259e-02,3.331781201540878062e-02,2.494115829520419242e-02,8.000183850526809692e-02
2.266836948701034249e-01,2.479325132747876304e-01,2.323946585357208050e-01,-3.946057015510123778e-03,6.799259868896338765e-03,3.027190210632123638e-03,2.399315871298313141e-02
2.223897617924819325e-01,2.238554752118807889e-01,2.422903214943870065e-01,-2.374386109037144102e-02,2.552621590153801925e-02,2.293179730435399716e-02,7.478428632020950317e-02
2.211134172913874207e-01,2.600121795859671181e-01,2.006000393154386274e-01,-5.723663274345184952e-03,-2.016889346133836011e-02,-6.358856644241782721e-03,6.458944082260131836e-02
2.537776270845479853e-01,2.293186342227971353e-01,2.155556206314980794e-01,-7.730217622018524526e-03,1.491653631054214516e-02,2.218867992668790978e-02,5.872038006782531738e-02
2.377559496163180741e-01,2.280612162299276990e-01,2.331803952655382151e-01,-4.302730439842066684e-03,5.229370621568741467e-03,4.873515916440899001e-03,1.671519316732883453e-02
2.449620512201867717e-01,2.259580393429446166e-01,2.314462833534512987e-01,1.049540337768936626e-02,-7.529510557658970760e-03,1.245992214208557942e-02,3.540147840976715088e-02
1.828796883086961089e-01,2.632732614909921165e-01,2.201795675450286260e-01,1.835511071041870737e-02,-4.551125212606763060e-02,1.280181047471850263e-02,1.121247038245201111e-01
2.262775018304001851e-01,2.392359243265783364e-01,2.368497926638351569e-01,2.106127490656367965e-02,-3.366376460480896560e-02,2.228276868480631723e-02,7.976677268743515015e-02
2.279188426115552335e-01,2.531676082589565668e-01,2.312749832174717246e-01,2.555090422742789177e-02,-3.560172983330556901e-02,1.502127436346968256e-02,8.367757499217987061e-02
2.150223622569720217e-01,2.375765938091065899e-01,2.536161545504400094e-01,1.141154385349442586e-02,-4.469370515952109449e-03,7.018242193142986904e-03,4.154616594314575195e-02
2.450472535491647064e-01,2.551797543056810169e-01,2.076392181124474545e-01,1.499981492510525302e-02,1.961583389862150278e-02,-2.002274489162384624e-02,7.009366899728775024e-02
2.267212539385915770e-01,2.364699380526003314e-01,2.507799430427126164e-01,8.015492339965435073e-03,5.409648623439600700e-03,6.034981719682594578e-04,2.685045078396797180e-02
2.398713109289934420e-01,2.362658846420898628e-01,2.375855276889463907e-01,7.862601686680079430e-03,5.571262581681181089e-03,-5.713821268544336078e-03,1.965971477329730988e-02
1.508535115044587482e-01,2.273897473368637345e-01,2.577410507116593696e-01,8.479836544300192736e-02,4.165231796766638572e-02,-1.557329025693665776e-02,1.913284808397293091e-01
2.669379949154682685e-01,2.306197964775583698e-01,2.757837983765655809e-01,9.459384863595826642e-02,8.423334326775019920e-02,-9.728775718296434755e-03,2.239022701978683472e-01
2.341233153552236546e-01,2.435957548331804112e-01,2.285179330480229254e-01,3.965013587434812470e-03,4.659484724176769961e-03,-3.574291876316000073e-03,1.802407205104827881e-02
2.266575290031074830e-01,2.329124196926039836e-01,2.433450552602770545e-01,1.195733767937478056e-02,1.156274184563419946e-02,-9.210371593368854234e-03,3.602410480380058289e-02
2.337620044537914721e-01,1.650365591697852685e-01,2.289203375011203134e-01,5.065194935525615949e-02,4.840502227281370112e-02,-6.621447197959258457e-02,1.797023862600326538e-01
2.179742691277134492e-01,2.622411886719262508e-01,2.531749050459289885e-01,3.529296771417334000e-02,2.853705320753431238e-02,-8.536329317843954767e-03,8.965990692377090454e-02
2.329206457744537884e-01,2.374043180965602906e-01,2.290693989212914672e-01,4.004904893974729416e-03,5.723777235199645555e-03,-2.871788701639472335e-03,1.494480948895215988e-02
2.408016396527518088e-01,2.277890454123642772e-01,2.271227436065401672e-01,4.321828750566848905e-03,4.003197543069766245e-03,-5.189533660944239089e-03,1.906166411936283112e-02
2.418603890779203458e-01,2.363526099362072697e-01,2.327712340431437876e-01,1.741363174270419215e-02,1.549883002372010737e-02,-7.806237920622750501e-03,4.331332817673683167e-02
2.339344790049539824e-01,2.385162640478701024e-01,2.381525797875473915e-01,5.253472824344097673e-03,5.651450290878485064e-03,-3.992752192462317370e-03,1.568115130066871643e-02
2.331084472550995212e-01,2.347446699054689112e-01,2.373965412792684304e-01,3.457213682303819560e-03,4.835628221259589445e-03,-6.337841211806449424e-03,1.551000587642192841e-02
2.382318977258085502e-01,2.296806909751407666e-01,2.368515968325419496e-01,5.706527180825737497e-03,5.291612180555781489e-03,-3.006707033906216766e-03,1.649372093379497528e-02
1.970612764359592761e-01,2.625217343050071372e-01,2.239238725796376950e-01,-2.308356864828548655e-02,-5.156824969378398515e-02,-3.215885864118819826e-02,1.262030750513076782e-01
2.173795490532651198e-01,2.179843718410162112e-01,2.526539027329089415e-01,-1.193536426237551754e-02,-5.293032583077422748e-03,-3.459397885834351958e-03,4.207874462008476257e-02
2.383716853031059013e-01,2.297013540614518401e-01,2.316637511706755581e-01,-3.920399210995177686e-02,-3.959039800450041974e-02,-4.677269970251269476e-02,1.262462884187698364e-01
2.305864892436513269e-01,2.401494356070748848e-01,2.214737716560507830e-01,-6.688147248401938964e-03,-7.033729896713199203e-03,-7.135777575989789116e-03,2.640090882778167725e-02
2.179792884657147378e-01,2.165125758062672601e-01,2.507329534605112209e-01,-9.753519415233280476e-03,-7.395142359565187035e-03,-5.707192680381533052e-03,4.086768999695777893e-02
2.209978690643197574e-01,2.051416069752409754e-01,2.525639098999684085e-01,-2.330182185099967385e-02,-1.111528096971501657e-02,-9.565013398989409901e-03,6.342236697673797607e-02
2.194745945997642889e-01,2.231051428136263670e-01,2.421020113062901935e-01,-1.843224396114957406e-02,-8.835252213161023591e-03,-1.220666905538045702e-02,4.629759490489959717e-02
2.081527576619295605e-01,2.184330265817019390e-01,2.461380356956323623e-01,-2.819487414063914787e-02,-3.055318498513105024e-02,-2.148043995322338612e-02,8.790698647499084473e-02
2.241859016896424750e-01,2.050287842155071039e-01,2.529314445893348640e-01,-7.711938140463820909e-03,-5.080781585593985988e-03,-1.122213977053748831e-03,4.476188495755195618e-02
1.950138462456515176e-01,2.429371779552543242e-01,2.598669140294817548e-01,-2.265893693251595092e-02,-3.493059037139578053e-03,1.212328979890703231e-03,7.053996622562408447e-02
2.150082455035252360e-01,2.161982637338541180e-01,2.547023211831296874e-01,-1.118263958714622863e-02,-1.318328998589059220e-03,-1.275016304392690413e-05,4.370546713471412659e-02
2.154831075505007076e-01,2.156728586366350453e-01,2.600402668190087696e-01,-1.464501927530770589e-02,-1.442608979666225050e-03,-4.337884905833982660e-03,5.179813131690025330e-02
2.065870901885573374e-01,2.240940236418454690e-01,2.567607976814534343e-01,-1.803328959932885139e-02,6.332982090231015389e-03,8.023050190683739952e-03,5.687294900417327881e-02
2.249774072728748520e-01,1.976923098676137136e-01,2.960091182550965705e-01,-5.966936260185913554e-02,7.928506464131247419e-04,-6.516131348475004588e-03,1.361567229032516479e-01
2.013552509689124081e-01,2.164768470667380595e-01,2.567289581457173897e-01,-2.778326208770789604e-02,-1.304770871077672728e-02,-1.299405557821996758e-02,7.609575986862182617e-02
2.234583390858941310e-01,1.963304606723947354e-01,2.582175875204691939e-01,-2.262116539429398845e-02,-4.122593538265816385e-03,-5.570403478227052389e-03,6.757439672946929932e-02
2.307196936089346007e-01,1.751774266927517143e-01,2.650807352950044216e-01,-4.154113652471447954e-02,-8.403827466169461538e-03,-1.169477146832094763e-02,1.094225272536277771e-01
2.386575150385835120e-01,2.306783301212388115e-01,2.363089933929464481e-01,-7.374495584446869164e-04,3.292759668941910682e-03,2.149844058979557930e-03,9.923076257109642029e-03
2.201261956141312981e-01,2.517710951731043645e-01,2.159140470524816002e-01,-2.367457731494146400e-03,-3.925075779293413746e-03,-1.155438475507413777e-03,3.492095693945884705e-02
2.333873736190921477e-01,2.440075152120912694e-01,2.281205637622291948e-01,4.193732420873980127e-03,-1.505465202797205346e-03,2.602140784145660912e-03,1.662335172295570374e-02
2.341337927689637333e-01,2.320921472682971609e-01,2.366001333051683808e-01,1.836531555212374094e-03,-2.225057852732935382e-03,1.852767404036717667e-03,7.110272534191608429e-03
2.321010384796217130e-01,2.349793516823472650e-01,2.430628400946685808e-01,1.771979486212256786e-03,2.763309345596195142e-03,-2.989668965426681320e-03,1.249143760651350021e-02
2.253538082343171933e-01,2.367144622274554855e-01,2.428206303648912656e-01,1.659150397202144083e-03,1.661923506278045791e-03,-3.018431173609290377e-03,1.672115176916122437e-02
2.174901812766681930e-01,2.328835046334069570e-01,2.451107009025134953e-01,-3.631630838661347241e-03,1.874072698677798840e-03,5.695052506460437751e-03,2.687153592705726624e-02
2.213491309803232998e-01,2.151381362617279247e-01,2.549962280143837634e-01,-3.479682310694014354e-03,1.221864447137894225e-03,1.281723301873608704e-04,3.769002854824066162e-02
2.171525217273897745e-01,2.434718935654446581e-01,1.910588733891506463e-01,-3.346843029522997975e-02,-5.040728403228362381e-02,-3.364416983884406520e-02,1.282155811786651611e-01
2.375039583114031683e-01,1.893219904028050071e-01,2.567600490711647865e-01,-1.119765383264133621e-02,-4.152133753419409885e-03,-2.442804240092986100e-03,6.376425921916961670e-02
2.206984855329509054e-01,2.502844803516494077e-01,2.195869781817594568e-01,-1.574325526532639003e-03,-6.738964981291148881e-04,-3.792394486452505269e-04,3.030974976718425751e-02
2.165020416914992807e-01,2.495267947891268989e-01,2.218649260137034451e-01,-2.106532782417072040e-03,-2.878735497401517865e-03,-2.912915472997414969e-03,3.171617910265922546e-02
2.229752618805247999e-01,2.421870219209411312e-01,2.222747250640888517e-01,-1.879679718367232005e-03,-5.257038138221890866e-04,-4.643110265241420613e-04,1.987753622233867645e-02
2.212197352687591823e-01,2.459675955026379146e-01,2.178879609726805111e-01,-2.986743149014144377e-03,-3.192344478390329691e-03,-1.564344812574379375e-03,2.776127122342586517e-02
2.211246381354600166e-01,2.189859493190777218e-01,2.521505988760396333e-01,-5.481466879151514551e-03,-1.771199179381069671e-03,-2.271462723815631263e-03,3.389053791761398315e-02
2.211004740670561575e-01,2.195043032715217612e-01,2.500138875562288865e-01,-8.888396344277790751e-04,-1.650973731993868755e-03,-5.304436496993622518e-04,2.993451803922653198e-02
2.201758016711434507e-01,2.194749372928773146e-01,2.532519133527503796e-01,-6.484973812479163154e-04,-1.538641049182854880e-04,5.271191922246124678e-04,3.346443548798561096e-02
2.153593095051451467e-01,2.194002382614156921e-01,2.523902026666738907e-01,-4.496481914525417289e-03,-1.127768927022069481e-03,-1.566250577929110101e-03,3.619125485420227051e-02
2.267149862884004774e-01,2.472782172102234444e-01,2.255455801578719055e-01,1.635653830375834649e-03,-5.512168108771029742e-04,9.700358170691373433e-04,2.144810557365417480e-02
2.261892484281117499e-01,2.495312833661811058e-01,2.224680217853585162e-01,2.345683329569005215e-03,-1.321250185302594174e-03,6.997317536836672198e-04,2.586062252521514893e-02
2.260434560138274707e-01,2.517338853132851662e-01,2.251095302898380723e-01,2.583468394190240568e-03,-3.640905839613051663e-03,1.987424688268484094e-03,2.750462479889392853e-02
2.257414362952405162e-01,2.515223531097055543e-01,2.197783687798674779e-01,2.832829353435229250e-03,-2.549530670114914018e-03,6.507180919355992155e-04,2.997986972332000732e-02
2.592039101938442003e-01,2.442481195181523124e-01,1.970946547706830809e-01,1.008701074407329775e-03,2.637171951232583807e-03,1.130112152178731379e-02,5.966074764728546143e-02
2.618871632699689145e-01,2.515494826622376445e-01,1.974733258846541606e-01,5.338298444831485884e-03,1.601167721522031052e-03,9.541454600344508041e-03,6.290009617805480957e-02
2.690907307919202518e-01,2.603057079604239599e-01,1.605790042890321012e-01,2.948772860965712464e-03,9.033147591878286017e-03,8.571633800141791742e-03,1.067239046096801758e-01
2.593785907101906485e-01,2.451812832464501102e-01,1.781437765104218474e-01,3.296188134756642177e-04,-2.752759227141791509e-03,1.530251828935831615e-02,7.983046770095825195e-02
2.794920393534970904e-01,2.583266420188792822e-01,1.958894482247634239e-01,4.538149327383049492e-03,1.339201290285011586e-02,3.270250367320981510e-02,9.734509885311126709e-02
2.170522453607184599e-01,2.207392308810049442e-01,2.522537059288554318e-01,-3.709473118622349380e-03,-1.079423373653746326e-03,-3.521452307746920831e-03,3.471206501126289368e-02
2.177263297947671372e-01,2.209933108244032662e-01,2.515012757950430000e-01,-1.308780882685159179e-03,-8.046061271910128496e-04,-8.620732341500414626e-04,3.240969777107238770e-02
2.203466867644465754e-01,2.531148164131219458e-01,2.165404419986184936e-01,5.406416729964668398e-04,-3.252212374989897625e-03,9.798586266360192066e-05,3.529302775859832764e-02
2.177200451701116479e-01,2.204877439900737590e-01,2.515303727825091706e-01,-1.236156424153610212e-03,-8.000384821113035562e-04,-6.281844646134156131e-04,3.263295814394950867e-02
2.507547569571334511e-01,1.956931486090598971e-01,1.805109345805029075e-01,-5.369624608008983363e-02,-6.387694458433584854e-02,-8.642597685503677907e-02,2.177090644836425781e-01
2.786679965217068733e-01,1.970350695817729980e-01,2.149198271143596684e-01,-2.041816455476420933e-02,-6.566830845622850452e-03,-5.996944502250986520e-02,1.330146342515945435e-01
2.644439167606413843e-01,2.382131674165214319e-01,1.976053406632159171e-01,-1.977045387148921186e-03,-2.887480424282443808e-03,-2.144148009207058614e-02,6.941305100917816162e-02
2.868294968781244236e-01,1.908341234594470026e-01,1.880599891567601711e-01,9.880203451033164538e-03,6.369193575081973785e-03,-6.598288711574440413e-02,1.515417098999023438e-01
2.654808900649178738e-01,2.479628266986599328e-01,1.791106346453882336e-01,1.536667293357655900e-03,2.090504820289196405e-04,-3.158448661700292287e-02,9.619572758674621582e-02
2.621179742484228137e-01,2.506033028894080750e-01,1.766101811239139674e-01,-2.215758387407442201e-02,-2.372374912609849854e-02,-3.723695102837450144e-02,1.173911094665527344e-01
2.327393813844596260e-01,2.595439643650163108e-01,2.189076304747037127e-01,2.635647559202874274e-02,-4.062748970774901491e-02,2.680807714631363442e-02,1.023344844579696655e-01
1.938803727284910405e-01,2.681806604879105049e-01,1.801395266266176409e-01,4.375111414414804140e-02,-8.120925576402406032e-02,3.801360472218749675e-02,1.912921965122222900e-01
1.402323918155297666e-01,3.164028005568699786e-01,2.445467810580150836e-01,2.280382287681903195e-02,-8.531563203608268087e-02,-2.773350926525086635e-03,2.167020589113235474e-01
1.407069999893454937e-01,2.940873124297363472e-01,2.196419257162723071e-01,1.743219539856995931e-02,-7.786824781870708978e-02,2.184152668777288725e-02,1.954030990600585938e-01
2.266949402263318813e-01,1.832367843568546428e-01,2.604011105877481191e-01,-3.957850783649866089e-02,-1.054257023239072583e-02,-1.693676254654175387e-02,1.018965095281600952e-01
1.496062974450877714e-01,3.180942119404371882e-01,2.310027518155556570e-01,4.065220221344841012e-02,-6.689019922115777006e-02,4.173082774375622139e-02,2.119064182043075562e-01
1.833965152123893383e-01,2.894262880046767350e-01,2.580565977001568756e-01,3.022473942355696774e-02,-3.390046692471249123e-02,1.835339024068699532e-02,1.268822997808456421e-01
2.210061821594777043e-01,2.511980373817886969e-01,2.205050129088486355e-01,-2.349309759123519199e-03,-4.933118787307295104e-03,-2.050893441558442835e-03,3.207980468869209290e-02
2.149490996235443319e-01,2.523507356587866846e-01,2.205340057578732971e-01,-1.334735465876942364e-03,-3.252759308535579496e-03,-9.953996842789669328e-04,3.551404178142547607e-02
2.328334026349312968e-01,2.383843094246189120e-01,2.303746805644415752e-01,6.425155845774374250e-04,-3.854833278565081051e-04,1.922818621140615254e-03,7.954997010529041290e-03
2.463237450470698309e-01,2.153511777186015719e-01,2.277656169790228113e-01,-1.712885866869378725e-03,-3.938207939593605170e-03,-3.026108905917737103e-03,2.849058806896209717e-02
2.214481342156991717e-01,2.492243460519418530e-01,2.204933985873160085e-01,-3.210866400664061978e-03,-4.843727918816793411e-03,-2.044675331630283269e-03,3.021265566349029541e-02
2.494722758351945735e-01,1.947775677484207824e-01,2.575377784926058955e-01,5.405860109457599413e-03,4.390414799733767526e-03,1.361091686304370955e-04,6.035939604043960571e-02
2.614796459320639088e-01,1.824531880733045175e-01,2.674502626003739114e-01,7.806462227647303909e-03,6.609656532838794132e-03,1.701474521824980924e-03,8.411442488431930542e-02
2.532820203449344665e-01,2.057349296022691343e-01,2.608108235713637035e-01,2.556628699892252513e-02,-1.618651375385626260e-03,6.408761836073370924e-03,6.904609501361846924e-02
2.454380690331498804e-01,1.905997252029860145e-01,2.650288552122913033e-01,-1.137074254644898468e-02,4.379636080187316975e-04,-4.984674181078200774e-06,6.966940313577651978e-02
2.500874598940541205e-01,1.736869913813909316e-01,2.613999181566553642e-01,2.161180005455246370e-02,5.276265046689414089e-03,-6.202743024479583436e-03,9.181192517280578613e-02
2.530965570404845044e-01,1.942777540555051252e-01,2.605952191746430668e-01,3.749714556086935352e-02,6.787151967809494819e-03,-8.498402220390648826e-03,9.235754609107971191e-02
2.548113130026975481e-01,1.847974893345357694e-01,2.650008574530510752e-01,3.085918236335043544e-03,2.065826486821439271e-03,5.259716601522699490e-04,7.590370625257492065e-02
2.349494317724049319e-01,2.033877243601693308e-01,2.504473038871254387e-01,-3.922828320330929049e-03,-5.933274844175768885e-03,-3.789335874657749452e-03,4.382144287228584290e-02
2.277656199026906469e-01,2.561675155570629636e-01,2.049889653979480031e-01,6.982241758304332229e-04,-7.679937645523174372e-03,-1.244890429764533438e-03,4.642628505825996399e-02
2.520559161844551088e-01,1.990690971901515061e-01,2.584157696797987347e-01,9.317455714591492411e-03,4.033934000049076499e-03,3.038175153254526204e-04,5.911496281623840332e-02
2.593343277820546744e-01,2.315439327958181970e-01,2.065423085512776702e-01,6.156281118591454792e-03,8.337154438106909524e-04,2.497874273358160688e-02,6.387323141098022461e-02
2.743069178287262933e-01,2.449389220100136322e-01,2.151964162964709604e-01,7.322823828192617790e-03,2.025751514854659194e-02,4.028945727048203335e-02,9.424577653408050537e-02
2.277652785350505749e-01,2.440949759714737266e-01,2.252281374957851301e-01,2.770052307575661399e-03,-3.909653000300759330e-03,8.874840825932659013e-04,1.964091323316097260e-02
2.572337864195333168e-01,2.485448186087016453e-01,2.005056153648535899e-01,5.906956181243141688e-03,-2.994089699690048213e-03,1.973598277828517156e-02,6.403726339340209961e-02
2.346144101617228250e-01,2.335855476597723523e-01,2.369967177842119133e-01,8.057133684355835849e-04,-1.120958781674419660e-03,7.727149734240565046e-04,4.085761494934558868e-03
2.589757743425398218e-01,2.529593552363512687e-01,1.878213617286922377e-01,2.384822244317133782e-03,-1.478373463249361974e-02,2.789634154943692809e-02,8.762653172016143799e-02
2.515660760557987263e-01,2.095896399011185629e-01,2.449732251957971174e-01,3.295319075773042467e-03,-3.141174213050244596e-03,6.774081756729086884e-03,4.157625883817672729e-02
2.687194330387592811e-01,2.623432278890285296e-01,1.223341740507024600e-01,1.834970073334371912e-02,-4.169677395603660353e-02,3.760679333022137055e-02,1.760815978050231934e-01
3.323441780733022988e-01,2.856440459032786316e-01,1.809398182473759276e-01,5.595209084827028334e-02,1.686324041170738502e-02,7.232395410944152114e-02,2.096922993659973145e-01
1.967730670855279973e-01,2.441198970808119983e-01,2.544818272712321972e-01,3.344989750552970504e-03,-2.921705354817416035e-03,3.527349813611619853e-03,5.418670549988746643e-02
2.690629561006533943e-01,2.490705224523409311e-01,2.332670133245872968e-01,3.543228111310225623e-03,1.131911687759621157e-02,4.830928723522047441e-02,9.159034490585327148e-02
2.898569534157551808e-01,1.955132429548879225e-01,1.987702746067293302e-01,2.069555029829670337e-02,-5.045482935174721954e-03,7.332285107392426393e-02,1.615366041660308838e-01
2.490745823413447468e-01,2.270341066163236443e-01,2.343403856171064892e-01,7.009745359242712569e-04,-1.195341963953017173e-03,2.190618068798462232e-03,1.995714008808135986e-02
1.799460675045184144e-01,2.373694985011480241e-01,2.425122581264626542e-01,-6.422032859602923305e-02,-5.728089226812017182e-02,-3.521331684175213472e-02,1.719162613153457642e-01
2.230175126612005121e-01,2.358580723063780638e-01,2.299804089117299943e-01,-2.277452302111391581e-03,-1.139152708623666519e-03,-3.454905058646209719e-03,1.338719110935926437e-02
2.502741541710370998e-01,1.834326672834684369e-01,2.430955422831881652e-01,-1.708835077062201974e-02,-1.307279316920712843e-02,-2.373933290665850362e-02,8.437348157167434692e-02
2.184419144646173594e-01,2.345488135148615372e-01,1.896169631980570702e-01,-5.287344817042125694e-02,-7.074902866309676353e-02,-7.546773929276022475e-02,2.050458639860153198e-01
1.970824045471619990e-01,2.574004943740370588e-01,1.949336424023897507e-01,-8.148265209147495525e-02,-9.036615182721526029e-02,-9.455301041521033123e-02,2.738789916038513184e-01
2.442155131519436195e-01,2.311100598517829563e-01,2.270228099667672972e-01,2.413967876113325053e-03,7.599437928348365314e-04,-3.802386938510864096e-05,1.616299338638782501e-02
2.213440297907696142e-01,2.192413460716048645e-01,2.526358883638963881e-01,-1.011099872547656852e-03,-5.170418258078087305e-04,-3.251105826594832794e-05,3.245413303375244141e-02
2.357229515042691681e-01,2.339327398833622451e-01,2.338733117565149344e-01,1.852595211665248492e-04,6.151254261269661276e-05,1.048368121957966718e-04,1.860662596300244331e-03
2.415598155395440039e-01,2.193789161068991911e-01,2.526350246777007702e-01,3.349767667851988144e-03,-2.195728155330080485e-03,2.668100216405734984e-03,3.049251437187194824e-02
1.930368835752062640e-01,2.494417147487110187e-01,2.379450419491342672e-01,-6.205994107274927923e-03,-8.534460135351784257e-03,-8.037888992220272935e-03,5.650741234421730042e-02
2.626401298977731891e-01,1.958220466358062961e-01,2.604364654727244210e-01,2.448049733358025233e-04,4.740687426381751460e-03,1.712662882693287772e-02,7.259362190961837769e-02
2.807473767406098442e-01,1.897622165370811964e-01,2.668562210311843930e-01,1.301110292284838460e-02,9.229586312402039694e-03,3.567239912338564245e-02,1.085741966962814331e-01
2.008664683491914182e-01,2.394534190862095957e-01,2.515842759743224799e-01,-1.733834716731506506e-02,-1.348291348395443297e-02,-7.518010144378592732e-03,6.099988892674446106e-02
2.696097075322050340e-01,1.735299584204512136e-01,2.613591936291946860e-01,-6.632385191988727190e-03,1.219652789236906187e-03,2.534688132824565454e-02,1.028129532933235168e-01
2.474084043175079628e-01,2.297831667955249346e-01,2.294526049777307897e-01,1.054859656380003306e-03,-7.167130476363812834e-04,9.748946247278697172e-04,1.800874806940555573e-02
2.661829935110911483e-01,1.875194511590058122e-01,2.350107879261242871e-01,-1.423319402296150613e-05,3.545094835335350740e-03,-1.337606023218840777e-02,7.267739623785018921e-02
3.267464765872019616e-01,1.180301998234976751e-01,2.639023335366158518e-01,-3.213149770372759895e-02,2.357387219844018708e-02,5.372898602992256384e-02,2.186782360076904297e-01
2.795363996665839457e-01,2.097890008068637735e-01,2.356695579066187540e-01,1.290413281732737984e-02,8.848253193895889296e-03,3.257992775909636374e-02,8.745387941598892212e-02
2.467914828109986081e-01,2.370495615450176341e-01,2.126972835654011573e-01,1.433559949079260890e-02,-1.571560105887118489e-02,1.724977676532769497e-02,5.634988471865653992e-02
2.704702974355524536e-01,2.085729297021458040e-01,2.319755552024516665e-01,-7.518414688558933134e-03,4.402196251043652593e-03,3.228250629011717582e-02,7.927549630403518677e-02
2.541731940652349198e-01,2.248406642943375222e-01,2.142094894610083733e-01,-1.654607662858959124e-03,-2.990636623868007569e-04,-2.913627607231673161e-03,3.632089868187904358e-02
3.717431182307754933e-01,1.793374058898918322e-01,1.986492586747229949e-01,4.732634859389663745e-02,3.563652215653381056e-02,-8.399586209716827789e-02,2.556801736354827881e-01
2.765095452022865441e-01,2.026538767385585027e-01,2.176308573273965097e-01,1.769021378711750636e-02,2.996703120883247723e-02,-4.126303110822111125e-02,1.153847798705101013e-01
2.634064054243653308e-01,2.631597456535965107e-01,1.805205507856182390e-01,1.970474058924912095e-03,-4.374361519966523293e-04,-8.429399241627302114e-03,8.411341905593872070e-02
2.668136045928658495e-01,2.686088138684624704e-01,1.460223635298982803e-01,1.497167782888252042e-03,-8.121351950260986829e-03,-1.479248967765148248e-02,1.251864135265350342e-01
2.312402534089400552e-01,2.413941339907990646e-01,2.319162105973182342e-01,1.351627907851487773e-03,1.654467729595308391e-03,-2.233763601573526391e-03,1.119625847786664963e-02
2.673631991003563302e-01,2.689133969049051220e-01,1.521689890635736786e-01,5.386102866789706234e-03,1.138283091180035400e-02,6.988292235907117740e-03,1.186293736100196838e-01
2.683891243547457672e-01,2.687529747512522604e-01,1.577882006006298132e-01,4.293323988757073544e-03,3.288424759849051596e-03,6.814226264196945188e-03,1.118033081293106079e-01
2.236625448218757528e-01,2.495856627846052278e-01,2.226446213081476888e-01,2.105082656183669123e-04,-1.274289755524094306e-03,1.756725330332065517e-03,2.671506255865097046e-02
2.737261735446444577e-01,2.734664871070507930e-01,1.685966669361857739e-01,-8.828531337666479985e-04,-5.897218396075388711e-03,1.737712802811511997e-02,1.097157374024391174e-01
2.436403121146721862e-01,2.374266694347608453e-01,2.320775836894455602e-01,-3.660834014445378884e-03,7.129149496720386600e-03,8.375738334750641029e-03,2.244098484516143799e-02
2.313276283898643149e-01,2.463589586840511658e-01,2.329485819632082788e-01,-1.888287781599669746e-03,3.359598207355288853e-03,2.905205232958342400e-03,1.655540801584720612e-02
2.555604347841627377e-01,1.888091684492463340e-01,2.525171702940347540e-01,2.016368250594311948e-03,5.556914270426866701e-04,3.642343026303482105e-03,6.568694859743118286e-02
2.283735814749746351e-01,2.454587848776682291e-01,2.327020884644811771e-01,-4.329119723570695744e-03,9.550573724598407019e-03,7.912359901364426559e-03,2.746574766933917999e-02
2.304682753894613800e-01,2.413335865125947333e-01,2.353770870545262850e-01,-2.875954850236005309e-03,5.321555651205650550e-03,4.137762172408519443e-03,1.580977812409400940e-02
2.481082252676198863e-01,2.209153553357382505e-01,2.432713987230682162e-01,1.197658429474312766e-02,8.216472957650823930e-03,-1.056581686413635493e-02,3.998845070600509644e-02
2.496860230416554360e-01,2.228688550959948833e-01,2.231201580583976329e-01,3.998114504848736993e-05,5.651814321177102071e-04,-6.615342868854322657e-04,2.673500217497348785e-02
2.353762981703828028e-01,2.536513467059871574e-01,2.230031223739658841e-01,8.178120638240287538e-04,2.529517372116089468e-03,3.622997492516066213e-04,2.710698917508125305e-02
2.297142648212935623e-01,2.394359164072397961e-01,2.335859031220495208e-01,-2.781284213322493103e-03,2.076309788447791571e-03,3.724498334332925625e-03,1.223179697990417480e-02
2.216646920637752038e-01,2.355721524028903668e-01,2.507218174251317766e-01,1.690754694816502552e-03,-2.688973807647899073e-04,2.844012631382639242e-03,2.582017146050930023e-02
2.325408106478710490e-01,2.416539647063254137e-01,2.315743742041867226e-01,1.136354297133233826e-03,3.793490681852759640e-05,-2.854988696329037435e-04,9.844470769166946411e-03
2.300783158374677673e-01,2.378280002665105475e-01,2.353477160433620485e-01,-1.359243793450416477e-03,1.987358159924605943e-03,3.147146162022141768e-03,9.700153954327106476e-03
2.277920737424076192e-01,2.457689432467143331e-01,2.341330617062141461e-01,-1.743024685840013660e-04,1.354625705752419106e-03,2.977393643896768423e-03,1.678021624684333801e-02
2.269070805018959802e-01,2.419297197073360661e-01,2.361027432212741972e-01,-1.380064871850726019e-03,1.471445265822834058e-03,3.704453180365371856e-03,1.501582097262144089e-02
2.623175840264827530e-01,2.231100360535417382e-01,2.726602665861517782e-01,-2.730276220207794938e-02,8.955338696202728987e-02,9.284733087997178169e-02,2.328247129917144775e-01
2.209641013489750394e-01,2.293933278790823704e-01,2.375824567409919319e-01,-1.166694319079234409e-03,-9.086295350786194238e-04,-5.088194522267513835e-03,1.706960052251815796e-02
2.356214773682757391e-01,2.422192869060220133e-01,1.923787241370467638e-01,-2.703977292258403012e-02,6.385786197407404552e-02,5.894992512969031428e-02,1.644718348979949951e-01
2.336727119265470387e-01,2.348809833784470946e-01,2.350493436118759327e-01,7.929928639622007107e-06,-3.644936622567478894e-05,5.273533760444184138e-04,1.590650528669357300e-03
2.269874684652429531e-01,2.469149970793182991e-01,2.361703562397343137e-01,-4.305956762678166686e-05,1.924202430288101881e-03,4.537069042170855694e-03,1.926934905350208282e-02
2.293630616710206349e-01,2.364687491488466631e-01,2.380880103706276840e-01,-2.397933551785348303e-04,8.755479722088046297e-04,3.062600896572719670e-03,9.758565574884414673e-03
2.485828464361579393e-01,2.151041482505854641e-01,1.961122062729809823e-01,-3.736576072703051699e-02,5.548792688920246852e-02,6.468035185340224869e-02,1.676106154918670654e-01
2.160150343125700201e-01,2.444822573704919511e-01,2.337518909460897243e-01,-3.925416258620828894e-03,4.546491407141662125e-03,4.189563188003093443e-03,2.794558182358741760e-02
2.082885242525687741e-01,2.601438618672031744e-01,2.647754808782005753e-01,-2.964523915264464030e-02,4.074993113749204865e-02,3.018633950644257491e-02,1.153362020850181580e-01
2.508930615338240688e-01,2.612711607150954296e-01,2.079406978163170217e-01,1.856190150816990157e-03,1.225655296873393724e-02,9.892997254459466247e-03,5.615152791142463684e-02
2.637100717018995288e-01,2.430723393988717396e-01,2.491451949512637210e-01,-1.704340184856007953e-02,3.846538249080393157e-02,3.751346503116269326e-02,9.934502840042114258e-02
2.349517514023278242e-01,2.257386829810980877e-01,2.230916839690011144e-01,-3.914295751706535487e-03,-1.870064528708186881e-03,-2.597203229257556267e-03,1.389126200228929520e-02
2.299408668053659066e-01,2.286780353254751486e-01,2.277044950887935071e-01,-1.214573481844283482e-03,-6.965706627637581342e-04,-3.619848504746440879e-04,3.169580129906535149e-03
2.345732986547343080e-01,2.514348094398967670e-01,1.920841185852523170e-01,-8.778053769530509698e-03,-1.185859971445959310e-02,-6.057069693592453431e-03,5.974260345101356506e-02
2.138479838651785314e-01,2.362053508583612238e-01,2.375837980132595451e-01,-2.601067201812034841e-03,-2.517265292612630174e-03,-6.493435113621816475e-03,2.642671018838882446e-02
2.348940032151452528e-01,2.252026302074261188e-01,2.262083141460096147e-01,-9.162535266086795256e-04,-2.019719251874551279e-03,-6.746733575653147963e-04,1.006526499986648560e-02
2.317768391851505461e-01,2.286893927848654140e-01,2.259279855786584523e-01,-2.103446167092877864e-03,-8.669254131580502506e-04,-6.932114119214551713e-04,6.530938204377889633e-03
2.090914170997793253e-01,2.556165216162850085e-01,2.354741656713023046e-01,3.994025950237372301e-03,-7.743118909085428686e-03,4.040816848930968083e-03,4.370221495628356934e-02
2.512845011006739071e-01,2.365440326538391369e-01,2.261878661915463218e-01,6.474832701075851696e-03,-4.968922721519455910e-03,1.017508758227801333e-02,3.142649307847023010e-02
2.269401227426937062e-01,2.423716466866345787e-01,2.354084769150313339e-01,1.503295544298245559e-03,1.741513527759312036e-03,-2.655425421324898033e-03,1.470365561544895172e-02
2.534754483793418278e-01,2.467301581671846322e-01,1.958622383028299496e-01,1.075281788977586195e-02,-1.173844917162085791e-02,1.868744159938172042e-02,6.916695088148117065e-02
2.546285549664323300e-01,2.349717389928916711e-01,2.139623832799129599e-01,1.176655188627868075e-03,-1.871932152249108916e-03,9.580402729960822705e-03,3.912516683340072632e-02
2.687991347742070269e-01,1.599010681121786903e-01,2.449633662248425492e-01,-8.595375289181309691e-03,-8.132728559043108339e-04,-2.979075932108232044e-02,1.127712577581405640e-01
1.925447316370897943e-01,3.516913182686411954e-01,2.736045682335173646e-01,6.585828992480384503e-02,-8.256385193409009060e-02,6.694528900838536689e-02,2.567202150821685791e-01
2.510736703061863806e-01,2.323929893597732610e-01,2.133399400390268152e-01,4.142709967773709756e-03,-5.055604866722879231e-04,8.450551702428506576e-03,3.652942553162574768e-02
2.582355630007653335e-01,2.366813400032353465e-01,2.184019734072181196e-01,4.049257931006367169e-03,4.825395698379492809e-03,1.572560481348119973e-02,4.531715065240859985e-02
2.567689174224017656e-01,2.290471594569855329e-01,2.249524736736182584e-01,7.563938279235264336e-03,3.059073504134169133e-03,1.291470032403853156e-02,3.998569771647453308e-02
2.716525663960552839e-01,2.364591703070660633e-01,2.094574349204279540e-01,1.100145119751791932e-02,7.353049643359494542e-03,5.475711416925684721e-02,1.115270107984542847e-01
1.865012672179509889e-01,3.145176531046377510e-01,3.366294031058015834e-01,9.868591638846359315e-02,-2.712604742042531297e-02,5.525340288580224413e-02,2.455418556928634644e-01
2.281929396740028648e-01,2.297019905401863904e-01,2.510335326578438386e-01,8.958866063527369354e-04,7.722096049190533716e-04,-2.993416240670087962e-04,2.222538739442825317e-02
2.211240020410893958e-01,2.179208024022676327e-01,2.515342389515971555e-01,-1.766256815726772924e-03,-7.582955941084378775e-04,-6.714378941401361609e-04,3.232474997639656067e-02
2.227792097283143591e-01,2.530095239789051931e-01,2.226805957412594239e-01,7.839027872867278387e-04,4.605699326234561315e-07,1.012626761069817171e-03,3.036087192595005035e-02
2.319370478534584779e-01,2.393814554151104668e-01,2.338981057491980875e-01,-2.971267812692046997e-04,2.695815925759795163e-04,1.505805329560542735e-03,7.207722403109073639e-03
2.345728236316186321e-01,2.346893864293576049e-01,2.366412521020659632e-01,-9.554670648193588564e-04,1.274661678732521642e-03,1.750036095789700126e-03,4.566377028822898865e-03
2.342692521407117867e-01,2.368935073262204705e-01,2.334178936050768371e-01,-1.383657298370440493e-03,6.406924785264957699e-04,6.174123366335676098e-04,4.238429479300975800e-03
2.351196910051627786e-01,2.344707679336595074e-01,2.344933820442146599e-01,4.276193277956733224e-04,4.456430287365181720e-04,-5.071116920402088607e-04,1.524071092717349529e-03
1.894797573724776307e-01,2.594121264301955665e-01,2.483161693174068818e-01,-1.232327613699312581e-03,-5.104414279175103868e-03,1.635816600431147082e-03,6.579086929559707642e-02
2.322421869006305872e-01,2.470447916116579046e-01,2.289729865772412443e-01,2.113739239762893463e-03,4.510560208498336048e-04,-5.067100691782963975e-04,1.711671054363250732e-02
2.518292703351375783e-01,2.357684135775737766e-01,2.111310763952524150e-01,3.806071522392977247e-03,1.191521821841691779e-03,-3.535020172851276957e-03,3.668586909770965576e-02
2.334840146148692841e-01,2.356212753189845799e-01,2.351589653268859326e-01,-1.720084257068765397e-04,1.247022377813679730e-04,9.901830722022417468e-04,2.621132880449295044e-03
2.776933966176410862e-01,1.195653916512398607e-01,3.489090393580234206e-01,5.599027070018588320e-02,6.970084647726852711e-03,4.634667082072431443e-02,2.394406795501708984e-01
2.112203894364456103e-01,2.293887199497883500e-01,2.405785197733537883e-01,-4.629924625934833150e-03,-5.930658020005865130e-03,-7.479665796021151697e-03,3.156362846493721008e-02
2.321698614071311950e-01,2.270047197898877323e-01,2.256763953516767174e-01,-7.897715165777050754e-04,-2.386030022963463518e-03,-1.054420526874971743e-03,7.588818203657865524e-03
2.312516355411097513e-01,2.407608681406083750e-01,2.297990461477724400e-01,1.628846775110300363e-03,-7.733572646089251733e-04,1.060184425767966496e-03,1.093042455613613129e-02
2.274846949385759265e-01,2.476657523162219543e-01,2.291477731889723923e-01,3.863189565607750252e-03,-1.916737921270646964e-03,3.988366587410610738e-03,2.190876007080078125e-02
2.440038616141755323e-01,2.216425588100036370e-01,2.328896514427518105e-01,2.527426380578403145e-03,-3.484876385741869902e-03,5.383344122294503493e-03,2.275001630187034607e-02
2.229666475064867592e-01,2.470686829817337893e-01,2.249900073814037060e-01,9.906497322304424254e-04,-3.317157028982019307e-03,2.200782290377185490e-03,2.422230504453182220e-02
2.418839754098159600e-01,2.299417170714856129e-01,2.644598503679807533e-01,-3.037629961393197714e-02,2.860362655525662545e-02,3.166860283905108264e-02,9.567265212535858154e-02
2.336670390136576791e-01,2.338203322673440554e-01,2.356690003498480013e-01,3.667070299241381975e-05,-5.347118856417762216e-05,3.125130010914526062e-04,2.007502363994717598e-03
2.196532643486801550e-01,2.207364084392172965e-01,2.521577016712188701e-01,2.254648278347181831e-04,4.684071083551404014e-04,-5.363149398860219590e-04,3.200278431177139282e-02
2.287824265431534221e-01,2.437997606117842386e-01,2.292051351840691531e-01,3.278243387603695796e-03,-1.799107937378754789e-03,2.680123656018432686e-03,1.681818254292011261e-02
2.264481533527918089e-01,2.442027622874259896e-01,2.292771180057230906e-01,1.059812974790197600e-03,-1.801841275033757260e-03,2.857419251535893174e-03,1.762401871383190155e-02
2.444039785129122622e-01,2.043697294884029569e-01,2.547563909850779629e-01,8.811240217397556251e-03,-3.988222555320252924e-03,5.628399939496838041e-03,5.000032857060432434e-02
2.690288223859886307e-01,2.156890676736340495e-01,2.633105816052755954e-01,2.678454123614144519e-02,-1.695654199100997839e-03,3.198372280067681567e-02,8.833207190036773682e-02
2.306731556358007917e-01,2.405658105818609394e-01,2.327148922306083445e-01,-2.349239329563720859e-03,2.714507911322155444e-03,2.789139061079155563e-03,1.199314184486865997e-02
2.457895582500501108e-01,1.965512772829403065e-01,2.526056768026857524e-01,1.971464967836537158e-02,-4.889234137496180355e-03,1.435847016987899447e-02,6.828393042087554932e-02
2.611949685245031905e-01,2.134780220794816330e-01,2.489993000825758696e-01,2.336039010341928179e-02,-1.224334860635698831e-02,2.683817941301627763e-02,7.804733514785766602e-02
2.344957474066631520e-01,2.504589298479120152e-01,2.236388228704481174e-01,-6.057804111179688686e-04,1.963408263995030083e-03,1.124460837708208876e-03,2.371636778116226196e-02
2.422145765366506553e-01,2.387439794783713098e-01,2.297410989142478488e-01,6.963864850313528955e-03,-5.140632110901464241e-03,7.949326938998971942e-03,2.320952899754047394e-02
1.851096900255655708e-01,2.493971292751628044e-01,2.630523763881322252e-01,-5.815499351971760780e-03,-7.448840518887611022e-04,2.788440948324660221e-03,7.296336442232131958e-02
2.440453992661142102e-01,2.119350742642862329e-01,2.444456179654964090e-01,7.626531696248568110e-03,-4.948722686844031320e-03,6.201548924722656390e-03,3.751564398407936096e-02
2.353709385529295650e-01,2.354576453655589097e-01,2.335448156009356790e-01,6.693012441750416982e-04,1.257167485891207694e-05,2.776437485582628991e-04,2.253043465316295624e-03
2.383714377874974755e-01,2.342211645016557819e-01,2.316219813379256642e-01,1.452833637366581550e-03,-2.369459609639867318e-04,5.030998674525445982e-04,6.482883356511592865e-03
2.368894876356718304e-01,2.340008071130324219e-01,2.336296633511006915e-01,1.030914948944408908e-03,-1.454452991909463162e-03,5.217104535601280310e-04,4.461562726646661758e-03
2.476960801215671026e-01,2.245638115615677111e-01,2.319094268999012665e-01,-1.878050659499086450e-03,2.621483069377713183e-03,2.273838219303564272e-03,2.158351056277751923e-02
2.454889169912521651e-01,2.295813285757736522e-01,2.299583163848381850e-01,-2.429244199312581738e-03,1.552709040832432478e-03,1.255031546051044644e-03,1.663905754685401917e-02
2.311535597293595534e-01,2.338246623775216693e-01,2.384869485950085188e-01,6.210630077746415124e-05,3.706654159764490356e-04,1.573788264913730285e-03,7.012797519564628601e-03
2.466270022316681410e-01,2.295020923050435369e-01,2.285447352552714972e-01,-1.453079643534921882e-03,1.395193333045014394e-03,2.261217224907944526e-03,1.838714443147182465e-02
2.624354853939504517e-01,1.733940056999598300e-01,2.648424735634197780e-01,-4.901010822424278768e-04,3.666463150235371900e-03,-7.865464202129576927e-04,9.050638228654861450e-02
2.442525016761003809e-01,2.310296484672103023e-01,2.314599486824438224e-01,-8.691363775587359654e-04,3.607263308378239487e-04,4.472499607647991392e-04,1.313757430762052536e-02
2.267145703357582032e-01,2.059862416121967521e-01,2.504246729544805650e-01,-5.409033390643231028e-03,-6.186853555744400122e-03,-3.993031284700482124e-03,4.163821041584014893e-02
2.359768855242521945e-01,1.988384532486918987e-01,2.464889966751033779e-01,-1.070109312265564265e-02,-8.046617937880553434e-03,-4.247825088351627441e-03,4.972008988261222839e-02
2.513183019152587794e-01,2.549796806044394848e-01,1.791750748318191588e-01,3.663180285052266422e-02,7.257684926764597366e-02,-3.471707636519081458e-02,1.700761169195175171e-01
2.368345031886810725e-01,2.025094420242652682e-01,2.376151576911408880e-01,-8.846205257090027432e-03,-1.130914868457245578e-02,-9.089230095967246528e-03,4.551828280091285706e-02
2.396465334370513067e-01,2.040040359817100468e-01,2.391190161228042288e-01,-6.250128861645835171e-03,-8.496702729164591628e-03,-5.330288105721172134e-03,4.087632521986961365e-02
2.276422617562622874e-01,2.122756373797845819e-01,2.438435299888944141e-01,-4.549073006726894047e-03,-6.291446977020101125e-03,-3.071178150281216653e-03,3.093054331839084625e-02
2.341041158236957798e-01,2.375819080302936093e-01,2.336177535810227412e-01,-3.793356834896843507e-04,7.131646996754149002e-04,8.602458969351497835e-04,4.266218747943639755e-03
1.153909529257831357e-01,2.944559797458196626e-01,2.875303974355226111e-01,2.186564478366754757e-02,1.562989843254151620e-02,7.067116870364672718e-04,1.817713379859924316e-01
1.520573636198730427e-01,2.686261938469735044e-01,2.714785957527235394e-01,-1.909715277064036321e-02,3.650413095816110176e-03,1.111385939086040157e-02,1.242318972945213318e-01
1.573373585154583809e-01,2.757599796091994016e-01,2.830830578938541287e-01,4.313143196905224949e-03,1.042711441051319583e-02,1.422806916302097116e-02,1.262301951646804810e-01
1.743481659933681094e-01,2.670205550277764406e-01,2.661133106935260062e-01,1.891973741421276722e-03,6.446691030902526251e-03,2.243176862655308235e-03,9.303457289934158325e-02
2.284226754500817969e-01,2.304869410841891564e-01,2.276868673350969374e-01,-8.428229263123774044e-04,-2.215700915577170367e-04,-5.259969130014510632e-04,3.070807550102472305e-03
2.300127178097977343e-01,2.289851872169508806e-01,2.292991916416022846e-01,-1.981223964024795160e-03,-1.351583204386461482e-03,-1.631444275029876601e-03,5.106140859425067902e-03
2.283826408578659428e-01,2.280216230947864908e-01,2.291150363446162741e-01,-3.474590045496157788e-04,-1.048865024330750259e-03,-8.523887508755295444e-04,2.602572087198495865e-03
2.506684431639508714e-01,3.411906284003378143e-01,2.020160828944405629e-01,6.043007534170145856e-02,-8.240901497533854869e-02,6.504375868983311437e-02,2.428716272115707397e-01
2.277065647629833434e-01,2.289343296560577556e-01,2.291306095526410291e-01,-4.444304006749057959e-04,-8.151510887790379021e-04,-1.113179579569819602e-03,2.844361588358879089e-03
2.287394746382897803e-01,2.491018863932214777e-01,2.298094962762123605e-01,8.359817311064560467e-04,6.192624244963817115e-04,-5.733866052490295536e-04,1.995539851486682892e-02
2.319826722659369955e-01,2.498816757510449738e-01,2.296563407280823033e-01,3.998099845456877868e-03,3.323628442265765589e-03,-2.413242540132042296e-03,2.158680930733680725e-02
2.282444721949160593e-01,2.473802415334585836e-01,2.291632389403196191e-01,1.006523086164606102e-03,3.298056017480069640e-03,-1.334200104906597744e-03,1.975984685122966766e-02
2.309879734107110061e-01,2.433062775397099864e-01,2.311454557534890764e-01,7.575893114964609223e-04,7.241421569063344896e-04,-1.370296094000096132e-03,1.259974669665098190e-02
2.326756636735232142e-01,2.332962143086784179e-01,2.361834268468051279e-01,-1.337815043897177137e-03,2.259905421993435842e-03,1.353487510324522447e-03,6.057993974536657333e-03
2.261893848360634618e-01,2.294339335864905849e-01,2.505207524694276766e-01,3.627350038505291509e-03,8.227943882435049009e-04,2.830239365057408800e-04,2.377693168818950653e-02
2.175827402392747356e-01,2.329505372342185743e-01,2.507767881637932295e-01,-3.574760441958137799e-03,1.099961598723725106e-03,5.513872863028068672e-03,3.100112080574035645e-02
2.385439795879209235e-01,2.314990456266071139e-01,2.318772201335444760e-01,-2.232199753240795941e-03,1.460016113652863991e-03,1.659437322777506264e-03,8.758663199841976166e-03
2.306241414761223685e-01,2.418138216507356442e-01,2.323982630287400875e-01,-1.739027766341089956e-04,3.410665363086722805e-04,1.017311335078189497e-03,1.058532297611236572e-02
2.368854440372910874e-01,2.345556398456279112e-01,2.337459141887123504e-01,-1.247082360775431283e-03,7.723799097831294874e-04,8.192696713500180776e-04,4.054517019540071487e-03
2.392988236244218136e-01,2.321326747526247514e-01,2.340991254649348874e-01,-1.358783464082697948e-05,1.439247454740862206e-03,3.122039747206856132e-04,6.901884451508522034e-03
2.550839641842815864e-01,2.174487271176936687e-01,2.342970193817280333e-01,-3.264171665871509905e-04,-4.083111620369938959e-03,1.079023739313415137e-02,3.828588873147964478e-02
2.146475478460557751e-01,2.491254823015767450e-01,2.338926592501234247e-01,-3.471974417728062711e-03,9.575787454715843638e-03,5.829701051577585585e-03,3.617703542113304138e-02
2.509936548633263653e-01,2.255510327092901113e-01,2.293929101733572506e-01,7.766174160897355372e-04,3.511772685219679419e-04,3.984561132573074226e-03,2.478203363716602325e-02
2.498063814423124862e-01,2.166592390172073224e-01,2.324770614368590893e-01,2.141208359966058610e-03,-1.314265286784268650e-03,6.417519570582813637e-03,3.109840489923954010e-02
2.499312730562713025e-01,2.293645062707215243e-01,2.333142606559990562e-01,4.688013712884905176e-03,-6.967932746872109329e-04,9.251088245906291183e-03,2.610547095537185669e-02
2.685043208771500378e-01,1.876881684180570220e-01,2.633209830764486892e-01,1.144231029621274251e-02,-3.118465745588858400e-03,3.634472000535680231e-02,1.025865003466606140e-01
2.299732310243850220e-01,2.250515918247873448e-01,2.507264586998721456e-01,2.562004060835984358e-03,2.068249343034610568e-03,-2.572178167313793188e-04,2.428542636334896088e-02
2.622896211507363962e-01,1.783499387792785718e-01,2.633015783469259685e-01,1.891586352417187755e-02,3.013027871743276676e-03,2.976593417999640057e-02,1.043577268719673157e-01
2.627881949038692877e-01,1.973529819501056159e-01,2.465542041992585809e-01,1.858491270830327387e-05,6.110981571113532039e-03,1.028237612040446523e-02,6.254798173904418945e-02
2.661613278424432849e-01,1.795254920586989156e-01,2.658960669521429621e-01,-2.172409594344978760e-03,3.579249001610484808e-03,8.335873208248866656e-03,8.799948543310165405e-02
2.655898878202280766e-01,1.762958575091986557e-01,2.659249919689846142e-01,-9.374622485197927832e-03,7.955352535357897506e-03,3.181514681543257117e-02,1.072081327438354492e-01
2.668396131772210467e-01,1.492051401987272707e-01,2.647582511182167697e-01,-1.189175988118304321e-02,4.831310947065409721e-03,1.449212265068838303e-02,1.213329806923866272e-01
2.244671442030381214e-01,2.502824650069189749e-01,2.342798954154415025e-01,-8.478294971099142440e-05,2.446130698448219752e-03,1.785091190961598465e-03,2.317182347178459167e-02
1.916255197410167144e-01,2.397298013233626068e-01,2.568664152250756394e-01,-2.112486608421586948e-02,-7.706025299324500977e-03,-1.726997205061993508e-03,7.041239738464355469e-02
2.351894468754928136e-01,2.346740053599775389e-01,2.341886293302127275e-01,7.504393855152399458e-05,1.599773381710566176e-04,-2.171334209721291681e-04,9.932605316862463951e-04
2.348845535886684432e-01,2.342383556142440537e-01,2.348210088790508576e-01,3.707890048542655391e-04,3.554005562913478038e-04,-7.684099943000000359e-04,1.715602236799895763e-03
1.623267369082651568e-01,2.613905309072219740e-01,2.628836580621123908e-01,-4.674552960227370060e-03,-9.625310514506334875e-03,2.073794457699502979e-04,1.015253812074661255e-01
2.245173546680151455e-01,2.528961311892643504e-01,2.345542398731731981e-01,-7.634497147012079665e-04,2.383557339181488141e-03,3.189907502021352079e-03,2.589553222060203552e-02
1.517364350006765172e-01,2.636451143202880876e-01,2.493880286302483928e-01,-1.614839536955141319e-02,-3.026980711309748551e-02,-3.465556243449495217e-03,1.212371662259101868e-01
2.278184233395599279e-01,2.496375609304951337e-01,2.301786340982563683e-01,5.347161986287697578e-04,9.578136533693452394e-04,8.795003815393650896e-05,2.082740515470504761e-02
1.758162464142323800e-01,2.642025065002444606e-01,2.587743383381034823e-01,-2.520141450203584529e-03,-9.244723963838623326e-03,4.592798396616974222e-04,8.739508688449859619e-02
1.731708668278302277e-01,2.553641925987313321e-01,2.607290169605797625e-01,-1.259588910149573790e-02,-5.294358451746916661e-03,-5.820736862123361381e-03,8.880979567766189575e-02
1.808091166810504580e-01,2.496102888187270441e-01,2.509848575457340747e-01,-9.189604062861764927e-03,-9.124389427456296164e-03,-7.466502276400941926e-03,7.416480779647827148e-02
3.019931784470832326e-01,1.559223340216216447e-01,1.926194309459080545e-01,7.745607124006851502e-03,1.390435370322968579e-02,-1.017089497358078382e-01,2.216237783432006836e-01
2.256757732920845749e-01,2.455310263306812180e-01,2.328848909828508118e-01,-2.432595731558366472e-03,6.127373511422560745e-03,3.976581259639760078e-03,2.192920073866844177e-02
2.298210496149626081e-01,2.492075851331691516e-01,2.285860185848558324e-01,-1.792148529148495013e-04,8.873349140101209924e-04,4.319187823896041608e-04,2.010781317949295044e-02
2.284411452899977324e-01,2.491856676167907292e-01,2.297368679290990312e-01,-1.198915066562671061e-04,4.538106475029582811e-04,9.231099347267567989e-04,2.020772919058799744e-02
2.311489795390017921e-01,2.454591291678264453e-01,2.309829893768996778e-01,-1.161472566559390096e-03,5.103549157526505488e-04,9.188554522199362997e-04,1.464734133332967758e-02
2.337597881368869701e-01,2.316974930709508607e-01,2.381845279331522292e-01,2.755843002333465894e-04,1.799509026294850763e-03,5.351658283217230506e-04,6.615001708269119263e-03
2.302049173585886399e-01,2.471345947065833604e-01,2.272097643704405201e-01,-1.684502614905343488e-03,2.928484453770093844e-03,1.132880706496311712e-03,1.960568502545356750e-02
2.227291254940517162e-01,2.476352698958156351e-01,2.292532004764178122e-01,1.467187129963855221e-03,-3.035694070391112449e-03,4.154729468081230261e-03,2.421321161091327667e-02
2.330759053584597340e-01,2.379377752461385442e-01,2.329787034703048321e-01,3.731795475457419520e-03,-2.620715209653090051e-03,4.335278169244471437e-03,1.195353735238313675e-02
2.341627518395900664e-01,2.446476461273839331e-01,2.203315574456377324e-01,5.367839233675478390e-03,-1.787959103883981051e-03,1.755482703208739552e-03,2.348468080163002014e-02
2.348291316364237713e-01,2.431037274876353682e-01,2.252963911272362618e-01,5.717955835435115444e-03,-4.793039640670402821e-03,4.192339581043910690e-03,2.139984816312789917e-02
2.306310842051493559e-01,2.463306581010929197e-01,2.287997599024824691e-01,9.808378815306295542e-04,7.189751871228462505e-05,-1.973635602383858078e-04,1.678093709051609039e-02
2.260850449121530048e-01,2.473164986693167644e-01,2.354645071496883624e-01,1.316914506984892628e-03,2.163026090655782545e-03,-1.585124135837213044e-03,1.914121210575103760e-02
2.279477476777214962e-01,2.323729921412565347e-01,2.418609662697140950e-01,2.629163557457934314e-03,-8.196967348648357245e-04,2.557498148392325834e-03,1.392719056457281113e-02
2.373291122098449279e-01,2.400769446240606231e-01,2.292925831115295576e-01,3.865919553967068177e-03,1.170216615990931838e-03,-3.588326273276609105e-04,1.198123209178447723e-02
2.256272080366459321e-01,2.520723526223675459e-01,2.096818538042064806e-01,2.321623070377182470e-03,-5.693298294488231825e-03,2.376401508114108722e-03,3.880244493484497070e-02
2.037741953199107559e-01,2.543618185154167266e-01,2.176156706511387928e-01,6.263892679187656708e-03,-2.622839265390820851e-02,7.898439198734334699e-03,6.647659093141555786e-02
2.351213700040201415e-01,2.339129489660442818e-01,2.348411510562199156e-01,2.096508709095259760e-06,3.534893989122299255e-04,-1.899133131914221739e-04,1.297405222430825233e-03
2.277166815699969704e-01,2.510406842744422606e-01,2.134412085093163325e-01,3.127876903901989636e-03,-8.657313845683968848e-03,2.493265252310983781e-04,3.653962165117263794e-02
2.254832669808417567e-01,2.898486129490961960e-01,2.205228852499319381e-01,2.487209883283347453e-02,-4.183788295306309357e-02,2.415958381963809881e-02,1.155202388763427734e-01
1.777529857569598581e-01,2.847660744593207838e-01,1.980210917775739599e-01,3.844350461049460960e-02,-8.135242711378555536e-02,4.114479384786880883e-02,1.976377665996551514e-01
2.045176857175085572e-01,2.776896219297831925e-01,2.233819436817115756e-01,3.551767360636025328e-02,-3.714414888854850744e-02,1.913029523081959463e-02,1.155471429228782654e-01
2.158395664204509623e-01,2.508300531061806171e-01,2.353734333717566740e-01,1.045903204772898575e-02,-2.161031678245323162e-02,1.228224370132183739e-02,5.571497604250907898e-02
2.326263822284247995e-01,2.495055506632349596e-01,2.306780317745521780e-01,3.595140655981062146e-03,4.475316928136075824e-03,1.751205532019172622e-04,2.050710655748844147e-02
3.062895368823796982e-01,1.426747895479560657e-01,2.222862896394104670e-01,8.579784783480383023e-03,1.774995291170769138e-02,-9.130758350369862220e-02,2.150799930095672607e-01
2.536125314225118332e-01,2.446912814827323923e-01,2.400811496340854168e-01,2.926439081200628289e-02,-1.533944390734106808e-02,3.989474744229574987e-02,9.050884842872619629e-02
2.164266302908204043e-01,2.628789846244089512e-01,2.361901246122977971e-01,1.363201275809072278e-02,-2.252138406474407314e-02,9.340637293583248582e-03,6.301771104335784912e-02
2.497326040564480376e-01,2.303269216536777964e-01,2.281888811751435764e-01,1.544444600153907325e-03,1.296683210617104946e-04,8.232027678096526463e-04,2.078175172209739685e-02
2.512177202432137602e-01,2.257824468396310846e-01,2.288613418312077930e-01,4.888725677922580934e-04,-1.302737198307530091e-05,2.848156648104701108e-03,2.455959469079971313e-02
2.514693509178626551e-01,2.278311778901744578e-01,2.300308397345421363e-01,2.838017500038986967e-04,3.632109904268439869e-04,7.824529549848766551e-04,2.267332933843135834e-02
2.353022340231991083e-01,2.339060868628957957e-01,2.341272130756113790e-01,-4.087944732594797887e-06,9.376139130454522966e-05,-1.667140845584806771e-04,1.341343857347965240e-03
2.533033640888695537e-01,2.340764694717067385e-01,2.226501367289991928e-01,1.898599816034590975e-03,1.842000715694946662e-04,1.856281199271237088e-03,2.722463198006153107e-02
2.278818245044698931e-01,2.305560827671920276e-01,2.489709687236700275e-01,6.126057999703385685e-04,-4.255283427179883701e-04,1.321865698422313665e-03,2.006033249199390411e-02
2.312144928760167251e-01,2.314606350477638186e-01,2.444752876488113513e-01,6.253041020594257184e-04,-1.115438090285342633e-03,8.669364211100606763e-04,1.340916007757186890e-02
2.307317554129822701e-01,2.282518416574731424e-01,2.469256582517592169e-01,2.773449490708229572e-03,-1.341113343572852140e-03,8.371308041613258026e-04,1.841537840664386749e-02
2.342452839488334826e-01,2.427231792063323790e-01,2.322559871634842510e-01,3.359245124095217028e-03,2.185605186806028298e-03,-2.617424599359956337e-03,1.270566787570714951e-02
2.197613850160861637e-01,2.488642079732926449e-01,2.419826504834078629e-01,2.456064247762931255e-03,4.356456117694554493e-03,-1.754145218019750830e-03,2.789841033518314362e-02
2.319701185546346744e-01,2.437988354359448828e-01,2.320264173051121426e-01,3.135952044248183686e-03,2.894590947680770934e-03,-2.427160150328619599e-03,1.454536523669958115e-02
2.219889215338351762e-01,2.378137375283254362e-01,2.587432374628040876e-01,1.406137235203783024e-02,2.064766920425142351e-03,5.370877721437303590e-03,4.137837141752243042e-02
2.343343112661438743e-01,2.388230475457637780e-01,2.302187343120727092e-01,2.508563698520349747e-03,1.902107674213335872e-03,-1.189181973148402014e-03,9.462327696382999420e-03
2.342699956737988309e-01,2.412499517601041088e-01,2.293213024970688907e-01,2.709683137794206224e-03,1.608827329639512908e-03,-1.043966877894322246e-03,1.186645403504371643e-02
2.529414933003764077e-01,2.108172360417371882e-01,2.232070037261399409e-01,1.319602251403427604e-03,2.358173160746309793e-03,-8.039652597685518695e-03,4.027238115668296814e-02
2.326422284163443543e-01,2.502278661828104545e-01,2.309383721431594871e-01,3.389628902991950309e-03,4.678802179936871961e-03,-3.026550988953977117e-04,2.103659510612487793e-02
2.395820916497307107e-01,2.278961244427094857e-01,2.338498139462702186e-01,1.699685404448361128e-03,3.692303668992414495e-03,-9.488440472214183016e-04,1.243787165731191635e-02
2.279454101122178056e-01,2.472827024129186924e-01,2.303354173496829915e-01,1.517084230910434360e-03,2.735138952606982685e-03,-1.197444050399857664e-03,1.915922574698925018e-02
2.306678538963492231e-01,2.490610550757396402e-01,2.285528583790309709e-01,1.893498731958153779e-03,7.244958742021651065e-04,5.690302549200235583e-04,1.987427100539207458e-02
2.408135609695053470e-01,2.189099701461169889e-01,2.449104817900573106e-01,1.369322891313125984e-02,1.492069877887523821e-02,-9.463091111337676789e-03,4.566546902060508728e-02
2.482721630093636667e-01,2.189618626300837145e-01,2.415566144838221241e-01,8.816156469449087582e-03,7.359221956510708304e-03,-1.366554609873856137e-02,4.078292846679687500e-02
2.255458280808667615e-01,2.413030586306036951e-01,2.428022358335713005e-01,2.663858694509253344e-03,1.866581601517315094e-03,-2.438522482189382865e-03,1.799279637634754181e-02
2.696478085501009536e-01,1.967777684683795492e-01,2.227305858272721206e-01,2.847595187589836100e-03,6.757476899003322414e-03,-2.331694833595069835e-02,7.671222835779190063e-02
2.574866161956159694e-01,2.115086141571465017e-01,2.251337381216219624e-01,3.703903510372278003e-03,-1.075122777867774937e-03,-9.115551780270613261e-03,4.435165226459503174e-02
2.481054477347345300e-01,2.064157783693126025e-01,2.387863401543368624e-01,6.244383853793949654e-03,8.304804826025425843e-03,-7.816993301936523905e-03,4.408589750528335571e-02
2.258134764315468668e-01,2.363974494184998276e-01,2.418823101752612670e-01,1.524358888579321414e-03,2.083595327990744471e-04,4.574942226075924719e-03,1.643311791121959686e-02
2.533722678487591029e-01,1.985725962763315033e-01,2.399803636036017540e-01,1.282910231657493271e-03,5.414711557238215643e-03,-1.123207328716487909e-02,5.403562262654304504e-02
2.480693257476119518e-01,2.265846171518328955e-01,2.311812891373825063e-01,8.477658181614921781e-03,9.784057541935495261e-03,-1.699547909512491226e-02,4.187240451574325562e-02
2.570033317697009156e-01,2.057699830670813856e-01,2.347793990270164166e-01,1.564894374486608224e-03,3.840530263793133156e-03,-4.286973385603809646e-03,4.568241164088249207e-02
2.401354599106102217e-01,2.112400419141666486e-01,2.476374178093749268e-01,-2.419179258879877031e-02,1.544288231937744615e-02,2.178161256448473554e-02,7.072827965021133423e-02
2.394337968251595283e-01,2.185464271499555078e-01,2.579223719938127379e-01,-2.366294730940606689e-02,2.069222931531001369e-02,4.139532094891948399e-02,9.627728164196014404e-02
2.361413960535355405e-01,2.329326838143308265e-01,2.343291721620758550e-01,7.102865952768902492e-04,1.601445188099482773e-03,-9.350734122342649769e-04,4.426688887178897858e-03
2.624598005085696517e-01,2.342424919630206326e-01,2.297012661318527937e-01,-1.265437577251952083e-03,1.174048117600737240e-02,3.779328204519234735e-02,7.515515387058258057e-02
2.599380575810580907e-01,2.456933828382542873e-01,2.324876129613224207e-01,-1.108676076112460537e-02,3.271043569443041893e-02,4.473013926384364347e-02,1.007295250892639160e-01
2.353024593571193535e-01,2.342404645683269782e-01,2.338104710868082470e-01,1.575333007178128042e-04,-5.986404871474261590e-05,-1.588005203434060964e-04,1.389328041113913059e-03
2.937698921922975992e-01,7.419714184707754123e-02,2.775958325676641802e-01,-2.249132066131872415e-02,1.102694331604684580e-02,-6.385508580030990755e-02,2.429756820201873779e-01
2.488318303685800315e-01,2.030764524559874884e-01,2.487919885488967808e-01,-4.601612256075592738e-03,8.860734129049118932e-03,7.586927795525295198e-03,5.063081905245780945e-02
2.449719286496221671e-01,2.186052967248768020e-01,2.354990544770065586e-01,-1.616633165775851729e-03,5.499019215098911728e-03,5.938408903996237297e-03,2.719409950077533722e-02
2.444398073086758716e-01,2.045038264595784028e-01,2.467529388420193759e-01,-6.854220457547689251e-03,1.186206100489627796e-02,8.763980277915825109e-03,4.986079409718513489e-02
2.271877269250219822e-01,2.312912564439531804e-01,2.441919176762669952e-01,7.866602838424906154e-06,5.968183136562574785e-04,2.464839512542025234e-03,1.598434709012508392e-02
2.350035184226640927e-01,2.361768678412203282e-01,2.334656942725736317e-01,1.049497577246329225e-03,2.228548522679629947e-04,-3.163382392363387938e-04,3.049523802474141121e-03
2.270136101910896209e-01,2.488842297226878109e-01,2.292518448788582186e-01,2.214826701367073611e-04,3.316108157597558170e-03,1.563503883111610690e-03,2.179111354053020477e-02
2.305197218660458292e-01,2.486159663511771367e-01,2.269927729667576000e-01,-1.293107113312425135e-03,2.865104192655250522e-03,9.998497731626683569e-04,2.088970877230167389e-02
2.285163458603512165e-01,2.489335228392066113e-01,2.311611822460418186e-01,3.820094655604989466e-04,1.131754175849958299e-03,1.370018606242988076e-03,1.948762312531471252e-02
2.298187623147498471e-01,2.488048428894946706e-01,2.288511524259906893e-01,-4.374303545188302990e-04,6.677495757044782636e-04,4.183846851780220646e-04,1.955033279955387115e-02
2.588974188685576605e-01,1.684956335495543522e-01,2.619019256600175205e-01,-8.816306137278757948e-02,-5.486171740049772261e-02,-7.795225519478307663e-02,2.429616898298263550e-01
2.292754218525255849e-01,2.510783203393501806e-01,2.284409649812970677e-01,3.520975640911904792e-04,6.698087227480798442e-04,6.234607490120349553e-04,2.229664102196693420e-02
2.283426235919540637e-01,2.456710855704876684e-01,2.332108021574148260e-01,-1.397462954883546288e-03,1.871326566783326848e-03,3.702093125873289273e-03,1.723651587963104248e-02
2.316400925759814211e-01,2.387861021695796837e-01,2.331453303005196487e-01,-3.155943889377827057e-03,3.006303835008323003e-03,3.245367266271820001e-03,1.145275123417377472e-02
1.614295841396362896e-01,3.260782920308166188e-01,2.582053415457590817e-01,-3.588384771894993774e-02,6.886939486930185317e-02,7.354568824815356509e-02,2.342212200164794922e-01
2.279206096512040314e-01,2.419000080823462129e-01,2.323938733767320075e-01,-1.697096321662746070e-03,1.812433903202642031e-03,3.004292407866305387e-03,1.408803090453147888e-02
2.498550232297777896e-01,2.293566836702277401e-01,2.279408375097631556e-01,4.672927565593519615e-04,-3.295012757077880362e-04,7.021654740263690844e-04,2.129950560629367828e-02
2.319190482681859344e-01,2.395564591724031189e-01,2.324263306632863291e-01,-2.639251257517985678e-03,1.459637151456932890e-03,1.156001803001249946e-03,9.274192154407501221e-03
2.317719023884068086e-01,2.416968397473486796e-01,2.314607691991854843e-01,-2.138128773521503351e-03,9.803255686814818862e-04,1.364455476648098690e-03,1.112979277968406677e-02
2.093179475898584441e-01,2.592441399523953693e-01,2.226932125012084929e-01,1.136599347962416462e-02,3.166708003179469211e-02,-4.440281681537822621e-03,7.388412207365036011e-02
2.672757975113370099e-01,2.682383803544093337e-01,1.925993047047349360e-01,1.589536171055805358e-02,3.483480824209272964e-02,-1.495225680120782635e-02,1.035300791263580322e-01
2.359709850122405916e-01,2.300519668124879069e-01,2.419160044514900298e-01,2.048905600715209083e-03,-1.990434754414596458e-03,1.860779134555970871e-03,1.185047440230846405e-02
2.651499540680727351e-01,2.422868755995283008e-01,2.073614248366267010e-01,2.952403518035043306e-02,3.792506415161372296e-02,-3.587857274179577505e-02,1.154675856232643127e-01
2.688563606550289364e-01,2.427066911735332455e-01,1.919896641130501846e-01,1.939101818623357662e-02,2.346796725216073604e-02,-2.504564616026160387e-02,9.614770114421844482e-02
2.480369946992121988e-01,1.994024263179508261e-01,2.353739070632676622e-01,-2.908025347161020263e-03,-5.738149928392755582e-03,-5.899577091834355691e-03,4.624256864190101624e-02
2.606291520290791031e-01,2.644127478497728112e-01,1.685201711031387717e-01,4.112364236869024692e-03,-5.688612900754122341e-03,-1.342280098056180312e-03,9.486887603998184204e-02
2.239070451472529311e-01,2.506901332024644713e-01,2.347202072832216546e-01,2.443602537393912044e-04,1.757888574840474902e-03,-4.753208140413743435e-04,2.355368062853813171e-02
2.449507306826235187e-01,2.584089641107369384e-01,2.152176995089698230e-01,3.016375905604756769e-02,3.991848774360972490e-02,-2.351656396969718094e-02,1.031233817338943481e-01
2.289616635756930307e-01,2.371485288348232912e-01,2.403352308481871424e-01,1.270170495353281767e-03,-2.956097667101390843e-05,4.147902299816151259e-03,1.263830810785293579e-02
2.563729155472834198e-01,2.011310582160160121e-01,2.380229514710536787e-01,4.492137128892502787e-03,6.032514248495541090e-03,-1.757264052397720586e-02,5.891351774334907532e-02
2.684027567766720801e-01,2.445063029210662320e-01,1.893253634501226024e-01,1.453906132847341409e-02,2.611721501814518592e-02,-2.296557689275910419e-02,9.590275585651397705e-02
2.637512783341907641e-01,1.846357473325355714e-01,2.579487015380890202e-01,2.208304571856546314e-02,2.517139730186528437e-02,-2.881666989704406018e-02,1.081149652600288391e-01
2.016408280182461210e-01,2.344407454008097247e-01,2.543210822495456935e-01,-4.591832223164601066e-03,-1.855142532956606093e-03,-3.393469871834749445e-03,4.723623767495155334e-02
2.171396678076662479e-01,2.492099459803411576e-01,2.448247057658779202e-01,-2.041231619858857507e-03,2.623426807750464922e-03,6.611305034581937620e-03,3.273182362318038940e-02
2.574901204192964754e-01,1.758190571615912134e-01,2.607382715619697144e-01,1.362728489583464814e-03,4.108862876475037097e-03,-2.862521051021609930e-03,8.382597565650939941e-02
2.314286536903283342e-01,2.417349824045013362e-01,2.328581017688548804e-01,1.169180903178298125e-03,6.933547702599728588e-04,-1.482195655619371897e-03,1.027936115860939026e-02
2.587918190865846624e-01,1.849819538822002341e-01,2.597048585621749006e-01,7.596380108895097599e-03,4.007271267110924275e-03,-8.181694566374601504e-03,7.705991715192794800e-02
1.870490972463409451e-01,2.553352059812410424e-01,2.575253269598571926e-01,-3.112581420708389248e-03,1.448587001355078688e-03,3.145961045358711648e-03,6.987413763999938965e-02
2.445928294581535545e-01,2.481657008718991531e-01,2.136659202694504989e-01,5.823953630639893374e-03,2.666124490724028871e-03,-2.810062037365999073e-03,3.502151370048522949e-02
2.279970303306336488e-01,2.272713247600221531e-01,2.518282187772047931e-01,6.953558860945703059e-03,4.569190501896982191e-03,-3.873821306675560112e-04,2.817596867680549622e-02
2.338886307350660498e-01,2.534215423109103527e-01,2.236801737625712660e-01,5.419181647321223228e-04,2.194033085513218215e-03,6.276217467127044190e-05,2.646662667393684387e-02
2.361066985934780482e-01,2.435981363392852039e-01,2.266456664344631000e-01,4.028333843791318328e-03,1.380246069044368216e-03,-4.822430731909041132e-04,1.648043841123580933e-02
2.295440209253231389e-01,2.290121518398341716e-01,2.444870850766042436e-01,2.413544423501864759e-03,-1.589043286704013231e-03,1.216048894456892840e-03,1.615589298307895660e-02
2.302531741261594211e-01,2.374973081211547432e-01,2.368580961035761656e-01,1.380063998748807348e-03,1.301917664569794035e-03,-1.481255359150274739e-03,8.101641200482845306e-03
2.628777764478761325e-01,1.855481648176083853e-01,2.536448225680947854e-01,7.743068086260832331e-03,8.126746269093217123e-03,-1.655856679491990793e-02,8.094251900911331177e-02
2.504946291243526635e-01,2.001797379085791251e-01,2.582125829153179009e-01,1.347885458708261187e-02,8.259536871032637992e-03,-5.754025301593536021e-03,6.187493726611137390e-02
2.408716716720641360e-01,2.340792770283101620e-01,2.277613822058794091e-01,3.874283875303316874e-03,1.171817903110547411e-03,-1.492084332737520771e-03,1.359392143785953522e-02
2.559002236297250876e-01,1.950227961603848426e-01,2.617667852830391495e-01,1.010499606090216676e-02,3.774286383261249954e-03,-3.053805938746477835e-03,6.689293682575225830e-02
2.408997406454265744e-01,2.304897080155684508e-01,2.308304131820050065e-01,1.607912132457255474e-04,1.339736994170525860e-03,-4.701374607731756113e-04,1.053866371512413025e-02
2.606275298054106515e-01,2.928429332990286627e-01,2.551735960968618544e-01,8.653094970848364265e-02,1.030959626638252996e-01,-3.383585315727489357e-02,2.429547756910324097e-01
1.923941579832972315e-01,2.427971365030654749e-01,2.572215232553934361e-01,2.136070299513185070e-02,-5.446893073125994369e-03,1.117989130374606559e-02,7.285856455564498901e-02
2.260920063322517382e-01,2.344031468784815164e-01,2.483257484740697685e-01,3.411174539962903707e-03,1.998241372043357486e-03,-1.763026250205644617e-03,2.085278369486331940e-02
1.352497583782774071e-01,2.631735169977864053e-01,2.513569105502123091e-01,5.451281787913636601e-02,-7.247047781092615104e-02,2.543065808677504383e-02,2.039693742990493774e-01
1.429342473479341125e-01,2.895749451212689118e-01,3.324332747791332587e-01,6.559231119360522944e-02,-2.346143591185141392e-03,5.979206820728909244e-02,2.308114916086196899e-01
2.351329532632992492e-01,2.351480715779208919e-01,2.348572372699569144e-01,6.177174171345065643e-04,5.458739624378685469e-04,8.604197681272939941e-08,1.455704565159976482e-03
1.643236248918421016e-01,2.485478850840762144e-01,2.781645460349631005e-01,7.391507761030627344e-02,1.134301891082799447e-02,1.341249607224716256e-02,1.666772514581680298e-01
2.133320559586890930e-01,2.419539897135346562e-01,2.482768989163718354e-01,3.406269697114089508e-03,1.237937453628267914e-03,-3.293569120091969019e-03,3.334841132164001465e-02
2.203441235530504971e-01,2.849061924975781479e-01,3.285925000535719342e-01,1.059992548432549669e-01,-1.976745242983736842e-02,5.411917686631655122e-02,2.292676866054534912e-01
2.115094767611139792e-01,2.657729796905895503e-01,2.783600132536105387e-01,4.000495128433829983e-02,7.320560441632947488e-03,1.419303412769561124e-02,9.670710563659667969e-02
1.706918446199078843e-01,2.698352657081038997e-01,2.707219105839342443e-01,2.201650586821547739e-02,-2.197404598708939047e-02,1.264923446907679008e-02,1.153294146060943604e-01
1.727773315416401001e-01,2.630188869867223223e-01,2.612984737995338591e-01,2.247223804696264760e-02,-2.043188190269776272e-02,2.136363275633590408e-02,1.101265177130699158e-01
2.274891887091389231e-01,2.369785752051787597e-01,2.413680365038524400e-01,5.063491599790957394e-04,-1.431003513165903028e-04,4.586862804921351504e-03,1.466006971895694733e-02
2.149547498196007767e-01,2.571509195719379748e-01,2.321976013560290431e-01,-8.798407491328422451e-05,6.374931043960444139e-03,1.991272925321103254e-03,3.852386772632598877e-02
2.057869924302826448e-01,2.249948689212461217e-01,2.394025271100897745e-01,-1.663037392260029515e-02,-1.497004768362364402e-02,-1.188517113479702764e-02,5.271670222282409668e-02
1.917599660501177194e-01,2.526663466437680250e-01,2.494602946447898040e-01,-1.206988105483274357e-02,1.634675752731763396e-02,6.767170202087426957e-03,7.000482827425003052e-02
2.196495293179278330e-01,2.532415470572844662e-01,2.366257305268583411e-01,-6.346545816489925461e-04,1.123915041269085528e-02,1.852652141751939818e-03,3.516832366585731506e-02
2.134776999605860204e-01,2.766422390176389579e-01,2.481126492728904787e-01,-6.391836351903491288e-03,4.130384549415110074e-02,1.797838013005174582e-02,9.597861021757125854e-02
2.270292212841656665e-01,2.181139454065781635e-01,2.469432002736472453e-01,-6.131037717047237330e-03,5.771385993600924164e-03,3.056001299217602114e-03,2.990485355257987976e-02
2.257099810942837514e-01,2.591816485468937947e-01,2.300145071100313798e-01,5.135226108543248721e-03,1.642648179512871953e-02,-4.283742332966012506e-03,4.402786120772361755e-02
2.368420617688368202e-01,2.268017637356048721e-01,2.418825433965344496e-01,4.123741687031532571e-03,-3.337564329743461598e-03,2.270587649843309064e-03,1.663497649133205414e-02
2.189546643413643190e-01,2.521760751459847794e-01,2.366784735708266363e-01,-2.845390851050678873e-03,1.138971979045070443e-02,3.159560369062548810e-03,3.567071631550788879e-02
1.975971902936335955e-01,2.525335533657486753e-01,2.495399578287254838e-01,-2.076537473958263522e-03,8.999492711496854050e-03,6.781554221128111883e-03,5.706474930047988892e-02
2.472807363266834590e-01,2.270318781640110750e-01,2.289153769451047760e-01,-4.247156158655677333e-03,4.565965085907322009e-03,7.228994074983539214e-03,2.547271735966205597e-02
2.454622859750714980e-01,2.193844432269204670e-01,2.355925229967745504e-01,-3.967757113696351520e-03,5.395083405139230494e-03,4.765044220351654855e-03,2.688402868807315826e-02
2.469305960376923514e-01,2.257973957100140039e-01,2.366028286837551231e-01,-1.938646544561972967e-04,4.242239784615552296e-03,1.231054334349055042e-03,1.984099857509136200e-02
2.472917281247700994e-01,2.272468296086271600e-01,2.352938015874611599e-01,-2.993419069633012882e-04,5.817103640294364088e-03,5.600486240455778558e-03,2.238598279654979706e-02
2.150277750154231393e-01,2.386988284252795356e-01,2.550276984171742645e-01,-2.648134789855333820e-03,4.955360023554533774e-04,6.899492832433559708e-03,3.712217509746551514e-02
2.466247007017969839e-01,2.342528161926162034e-01,2.313709615608717518e-01,1.871815111739148774e-02,-1.132080364351367198e-02,1.035672045787430946e-02,4.420856013894081116e-02
2.479624439239177802e-01,2.100249527050880305e-01,2.427954635514918413e-01,-4.333108396162204182e-03,6.462029929163651612e-03,4.329781547159385936e-03,3.883002325892448425e-02
2.512551703595846120e-01,2.169052488776239407e-01,2.609871939824916498e-01,-1.182192395333010911e-02,1.898733614317954510e-02,3.748228352977982236e-02,8.558340370655059814e-02
2.418940208613622467e-01,2.075875571181955426e-01,2.477644107011778840e-01,-5.111262230128814539e-03,7.791648877742890500e-03,4.818368987390012591e-03,4.174855351448059082e-02
2.542105161440868510e-01,2.541571592711022176e-01,1.988881294905164576e-01,1.432450380218851672e-03,3.350851669362770249e-03,3.191812946946595390e-03,5.592871084809303284e-02
2.206709638637680826e-01,2.466605420944808225e-01,2.360225036609130966e-01,-9.391219249148034798e-03,1.766492798716903095e-02,1.585956290828201623e-02,4.967352747917175293e-02
2.333117033249350325e-01,2.379970450448438413e-01,2.282814776730638373e-01,3.925756722697921336e-03,-1.481286864616036814e-03,1.671678317487243102e-03,1.149020344018936157e-02
2.512767285028574826e-01,1.813452136148376859e-01,2.528265289515359004e-01,-6.714755045199673200e-03,-5.904257634574416012e-03,-6.125171411490458462e-03,7.316827028989791870e-02
2.444424266291737591e-01,2.376758549002263021e-01,2.189656876746220449e-01,6.605891625138551188e-03,-3.225935000259160402e-03,4.358426964765866468e-03,2.723199501633644104e-02
2.403244702847348591e-01,2.331657388840548129e-01,2.324663619128290171e-01,2.369612304425741233e-03,-1.877660221065152475e-03,1.907502271172911105e-03,9.750944562256336212e-03
2.283474325360853596e-01,2.306438847143038595e-01,2.507710735108756861e-01,6.220055560804363393e-03,-1.566636861548057228e-03,3.181937303376887547e-03,2.470633573830127716e-02
2.252606471216735684e-01,2.310871782191874779e-01,2.489513189462417564e-01,3.337569791350858840e-03,-9.247293222782193046e-04,2.421275827277148338e-03,2.259940654039382935e-02
2.243387922587776473e-01,2.311763723635012480e-01,2.507047235514003880e-01,3.300665790981368013e-03,-6.624378275363152846e-04,2.056330948962737260e-03,2.466415986418724060e-02
2.086602180173108834e-01,2.553772138742004816e-01,2.441280992777455083e-01,-9.261858597986046514e-04,3.678571564146559600e-03,4.498549564807488230e-03,4.344393312931060791e-02
1.946537464756287750e-01,2.491356511726641187e-01,2.572564887498253738e-01,-5.275770728158217689e-03,1.931340827470074805e-03,6.716545028024475950e-03,6.088260933756828308e-02
2.275166204116089996e-01,2.296521528982017335e-01,2.516236373193982967e-01,7.414414802867445300e-04,7.013101641353880261e-04,5.157981933932573922e-04,2.319806627929210663e-02
2.092247909772098347e-01,2.598824337812705165e-01,2.412308698771815640e-01,1.174255392445147129e-02,3.219752898630853094e-02,-9.374895631122367318e-03,7.587229460477828979e-02
2.339163334623590995e-01,2.348352443478285145e-01,2.386980567072853610e-01,2.179228883464811358e-03,-1.464988490519503238e-03,3.076571419097417961e-03,8.270239457488059998e-03
2.353716947582352725e-01,2.349032148731511060e-01,2.341713309732043058e-01,-5.554916661900501206e-06,-6.622371305778209987e-04,3.127395642892892612e-04,1.645352574996650219e-03
2.347464812329726203e-01,2.352814748939975054e-01,2.341681037877026972e-01,1.706987766549881221e-05,-2.420062631939861502e-04,-3.197152444270954505e-05,1.053474610671401024e-03
2.137363385520382464e-01,2.539646787142075812e-01,2.429304963195061950e-01,1.530183194587920710e-03,4.227578049261275679e-03,-1.150080855304754640e-04,3.683567419648170471e-02
2.339080092696237401e-01,2.538774522901236508e-01,1.985447292344141856e-01,-4.645649211089180816e-03,-5.121511788998904871e-03,-1.918802836332517397e-03,5.009996518492698669e-02
1.700244360949788869e-01,2.605163610243370620e-01,2.632062892945570831e-01,-3.913978783890544738e-03,-1.733484139406063279e-03,2.733818662418191318e-03,9.228669852018356323e-02
2.337433746834569059e-01,2.353474198768738257e-01,2.346178940384518463e-01,2.076942981241775195e-04,-1.974523955211812359e-05,7.841074129059070899e-04,1.977379666641354561e-03
2.258626254197409478e-01,2.348277123268849020e-01,2.465776085725959743e-01,1.269153591819882458e-03,-7.466074663601744796e-04,3.484183235387316481e-03,1.914927735924720764e-02
2.342491666517767246e-01,2.358283342656284920e-01,2.347329532815720377e-01,2.627592817616935085e-04,-2.402686100854986920e-04,-1.611130281528588252e-08,1.531062996946275234e-03
2.348999564581484845e-01,2.533583590284183562e-01,2.151216097562388685e-01,-2.499003652251584958e-04,7.948518235058474324e-03,6.104075952180148352e-04,3.588612750172615051e-02
2.338581643572501811e-01,2.360251095607932281e-01,2.331808155155621898e-01,6.629388222094008930e-04,-2.171679494555686803e-04,6.027920152664239736e-04,3.028573002666234970e-03
2.662791211275359893e-01,2.894402807163883318e-01,1.727520966768609501e-01,1.058630099877463406e-02,-3.184603606653366170e-02,1.235748815745168171e-02,1.236397176980972290e-01
2.612681084788066599e-01,2.654465330914934085e-01,1.578218310599528995e-01,4.448944943314625013e-03,-1.644107038127306727e-02,9.307090647951080445e-03,1.108196973800659180e-01
3.343746465292516401e-01,3.501471303687207492e-01,1.098370156662384911e-01,3.776816553055303838e-02,-5.037311304043332744e-02,1.771784923695097699e-02,2.589224874973297119e-01
2.263542932207874281e-01,2.955920623479155740e-01,1.321008385807401764e-01,1.039610745080770011e-02,-8.384960002617551644e-02,3.939322888432262963e-04,2.040109038352966309e-01
2.877856467321457945e-01,2.993252007319709418e-01,1.318227614792593649e-01,2.679382330515183222e-02,-7.692503909787659633e-02,9.011764597808370530e-04,2.148624509572982788e-01
2.709717562152502701e-01,2.827536274170380781e-01,1.290032263066462903e-01,3.963567132695850273e-03,-3.965109979071947816e-02,-2.441403448760737574e-02,1.688739955425262451e-01
2.653617159964876127e-01,2.645689595988728327e-01,1.284804493914674384e-01,-6.276158946422349776e-03,-3.505589224935160703e-02,-1.651539545240082382e-02,1.524853706359863281e-01
2.504260066737827861e-01,1.634580405651110957e-01,2.503760611553068061e-01,-8.893300462131729922e-02,-5.197348340781672571e-02,-5.657423684738321218e-02,2.213413268327713013e-01
2.612842538051960983e-01,2.917431861450957009e-01,1.583499431345221642e-01,1.172294239688438829e-02,-1.991728896178739799e-02,3.230038694411278659e-03,1.276407688856124878e-01
2.476657218273527750e-01,2.340425548974404690e-01,2.253164361959641149e-01,6.765682883785248403e-03,6.249681234331145620e-03,-7.728989635148753382e-03,2.853636257350444794e-02
2.647935838352942772e-01,2.608675707083438211e-01,1.513029628779554436e-01,-2.935075535204950334e-02,-6.103716816351656416e-02,-9.516963506110472093e-02,2.310470789670944214e-01
2.537448321352542280e-01,1.800976531976144490e-01,2.548174198406695234e-01,-1.897831961851277269e-02,-3.707207896766631997e-03,-1.683833491640129160e-02,8.646617084741592407e-02
2.514380943163253557e-01,2.504687382852441857e-01,1.688145219963684829e-01,-3.354454665675580399e-02,-4.970817323843953334e-02,-5.407096232065498193e-02,1.621941030025482178e-01
2.797786872746841347e-01,1.985028861038221348e-01,2.301895320382968124e-01,-2.187921917954484957e-02,-1.396846068819344172e-02,-5.540773840025724900e-02,1.275380253791809082e-01
2.662677201189194154e-01,2.035600892935531259e-01,2.391409705619975401e-01,8.632727669507286178e-03,1.002614984713907746e-02,-2.563813484606937421e-02,7.391981035470962524e-02
2.779041723039779033e-01,2.267841325273228514e-01,1.675416077251136726e-01,-2.475143951069529516e-03,-1.048339157628591992e-02,-4.300464603098980154e-02,1.226690560579299927e-01
2.524587800585774144e-01,1.894589099341965621e-01,1.818430496919436756e-01,-6.237809648634709547e-02,-5.522895606721354295e-02,-9.328300753945935331e-02,2.267944812774658203e-01
2.291476073534154945e-01,2.490634030346991490e-01,2.252234372857225830e-01,2.507985168814047712e-03,4.372669208808524326e-03,-5.386442777136326503e-05,2.379979752004146576e-02
2.278128585337069467e-01,2.509867009965696671e-01,2.299927780606739469e-01,1.756867003740555564e-04,8.707447389023548938e-04,6.631209535939382768e-05,2.221806161105632782e-02
2.293381686642556316e-01,2.531205397530694734e-01,2.312398764320070244e-01,1.551929237881723069e-03,6.048162238194793906e-03,1.986051214179506991e-04,2.531946077942848206e-02
2.440494841986650676e-01,2.285418702140994962e-01,2.308481098045886970e-01,7.478924294561152021e-04,2.482355472663937395e-03,6.728499045247824349e-04,1.521719526499509811e-02
2.487463970580332528e-01,2.208526270104158584e-01,2.178169383305167406e-01,-2.026244137952533473e-03,-4.275035398988284740e-04,-1.134369304046814941e-03,2.981074154376983643e-02
2.228963717644980580e-01,2.270870636375605378e-01,2.498684312959104092e-01,-5.575132242618881804e-04,6.477561777180009970e-04,2.215162045282707392e-03,2.547419071197509766e-02
2.369347161764134291e-01,2.341495203065737107e-01,2.347158145621230652e-01,-3.527969221311143613e-04,1.002645449030425831e-03,8.359879105226112510e-04,3.462178865447640419e-03
2.255941541444655973e-01,2.506916176064635238e-01,2.313916283449790057e-01,1.332228182121821230e-04,2.932788465918304346e-03,4.167779379377328092e-04,2.333172969520092010e-02
2.325673233404662033e-01,2.332395178482732645e-01,2.398961696566725144e-01,4.546221895588069229e-04,-1.046598639033491634e-03,6.163394770203268124e-04,7.367712911218404770e-03
2.324202196641357576e-01,2.349614232913122824e-01,2.351852165247974302e-01,1.819161009083962877e-03,-1.322765572552690640e-03,2.255225135050335523e-03,6.124686915427446365e-03
2.600002283427972349e-01,1.896105113579240609e-01,2.561783517446343250e-01,-2.050921558692356955e-03,3.762288530695269764e-03,2.818132499343226158e-03,6.913180649280548096e-02
2.349543280405830270e-01,2.351140191404061108e-01,2.351467376794473263e-01,2.514287651884751507e-03,-7.546556293197673225e-04,2.533958700716130302e-03,6.322031375020742416e-03
2.308413248249768512e-01,2.350254064901704520e-01,2.368238809189478211e-01,1.746316868126975832e-03,-1.117071688501998549e-03,2.595222680413069530e-03,7.833516225218772888e-03
2.137591543343771716e-01,2.254222727372570678e-01,2.532410072738125462e-01,-2.210419270324768138e-03,8.453286954213192525e-05,-1.938017923016079037e-04,3.534339368343353271e-02
2.298420935798631826e-01,2.295737886718508536e-01,2.537391513679456145e-01,5.347524245786529351e-03,2.811626682430590999e-03,6.777115613016040767e-05,2.621203102171421051e-02
2.148981371843055044e-01,2.359379795084970977e-01,2.507843540758489254e-01,-1.624676167292518625e-03,2.111093826786115783e-03,3.479744897877973253e-03,3.214140608906745911e-02
2.163805688274600125e-01,2.142805248556425568e-01,2.550153441726605297e-01,-1.095046741317825048e-02,9.785554046922969110e-04,7.476082130954116254e-04,4.407355561852455139e-02
2.251307075747242814e-01,2.287241838789909332e-01,2.515910827309378872e-01,3.489238667570018770e-03,5.779971653271058626e-04,7.574310189440856995e-04,2.563644945621490479e-02
2.256122694679125462e-01,2.289157341498738729e-01,2.510026152859697324e-01,3.798210298310841955e-03,3.233336763675862089e-04,6.708342318640271454e-04,2.483242563903331757e-02
2.291622416677231433e-01,2.296879222284270716e-01,2.491822010322764791e-01,8.226542356690967877e-04,8.797710814150016970e-04,-4.086629244239567741e-04,1.988477632403373718e-02
2.210767030345670292e-01,2.381468171908838749e-01,2.275065115851529762e-01,-1.215474491526433295e-03,-1.622427714247947315e-03,-5.344016258239418608e-03,1.791586354374885559e-02
2.535729503462262335e-01,2.292533304351056789e-01,2.311358062706608818e-01,1.222980054619571483e-03,2.345913986741254495e-03,5.860715864490357620e-03,2.594701200723648071e-02
2.515771817602510119e-01,2.292702614203174227e-01,2.304514468390411741e-01,7.697284520698349764e-05,3.475411234836777493e-03,6.467823147913426447e-03,2.518723346292972565e-02
2.672647266071178640e-01,2.964629168347966415e-01,2.754404184479819495e-01,9.908429650275840661e-02,-4.013728553028851620e-02,9.467645125028965880e-02,2.487119883298873901e-01
2.231588430554189706e-01,2.231124735486963717e-01,2.399439695598565847e-01,-1.981371072371114553e-07,-9.861763453467016060e-04,-7.829076402026336401e-04,1.694926060736179352e-02
2.494725310957161268e-01,2.302093064698917668e-01,2.313984131250141907e-01,-1.152375794129801385e-03,2.924190992019191308e-03,4.795553590118617308e-03,2.117093279957771301e-02
2.039731802550915352e-01,2.552374691955785480e-01,2.359060098576048203e-01,6.328979038908316007e-03,-2.710340780638698099e-02,1.375848727670704770e-02,7.001827657222747803e-02
2.531735637766137637e-01,1.839610882095594202e-01,2.610645379516832731e-01,-7.267594995289684487e-03,7.417080820690969550e-03,5.000169031966129884e-03,7.613991200923919678e-02
2.207378068062155474e-01,2.175452431530396358e-01,2.460485889741571564e-01,-2.961682628204304318e-03,-3.309362145956249845e-03,-2.064323003165305977e-03,2.834764681756496429e-02
2.508029032472610109e-01,2.292198308254615458e-01,2.255366978177457127e-01,3.709979160651655900e-04,5.449529679774859497e-04,4.129889833757075836e-03,2.472568675875663757e-02
2.479114023117360011e-01,2.247451710082189191e-01,2.252333126518417106e-01,-3.354409416103428659e-03,6.126311285391885207e-03,1.056069843824685578e-02,3.172602131962776184e-02
2.582617225397461080e-01,2.430962579422317194e-01,2.079557295463242694e-01,2.554159899100095447e-03,4.703655667683002799e-03,3.831843172061992833e-03,4.612769186496734619e-02
1.878504435574173681e-01,2.622856090267260409e-01,2.575812495079656261e-01,2.019909635108568021e-04,2.739969586117940725e-03,4.046132653264618642e-03,7.269328087568283081e-02
2.580560637927895029e-01,2.443316911459206264e-01,2.004412503433314063e-01,1.493943585534044608e-03,1.167126977345398289e-03,1.073359918971940156e-02,5.543925240635871887e-02
1.789536454928027931e-01,2.690003855381308817e-01,2.896134532622011148e-01,3.206582212621424816e-02,3.186549612192098990e-03,1.289176763769448071e-02,1.183349490165710449e-01
2.501734577663480286e-01,1.872554114816459558e-01,2.651897037694343484e-01,-8.658047097368740119e-02,-5.706070431323746750e-02,-8.588200906384461930e-02,2.439516931772232056e-01
2.534601984887461246e-01,2.331368306523415868e-01,2.171716882585932040e-01,1.684759112775617541e-04,1.129446036381969581e-03,6.355594502473224487e-03,3.342878073453903198e-02
2.540387237531350206e-01,2.330540647082341710e-01,2.162701731648267178e-01,8.563308926124654774e-04,1.459775186480533884e-03,5.764419106763666277e-03,3.438804298639297485e-02
2.524920193312475969e-01,2.365061628195019028e-01,2.321312662034381857e-01,-1.634316557911081116e-02,1.534403725532874907e-02,3.345702106839331530e-02,7.218279689550399780e-02
2.541700993648667306e-01,2.340533642642003698e-01,2.222947811550124442e-01,1.712317706701589485e-03,6.021792313985251197e-04,1.852689164569771250e-03,2.827848866581916809e-02
2.029679126906616948e-01,2.492294971999653996e-01,2.577830034296983985e-01,1.159128678233668601e-02,1.175709938102949097e-03,1.339530236856158402e-03,5.496907234191894531e-02
2.655919424209726154e-01,2.601695930063372963e-01,1.881337227449857707e-01,2.015484343250943840e-03,8.390242640757725537e-03,8.355938389369764116e-03,7.773037999868392944e-02
3.048072795631837084e-01,1.389995276555630876e-01,2.080994202596057607e-01,2.894970130223488425e-03,6.716240401791253103e-03,-9.769519436615910213e-02,2.227178215980529785e-01
2.354702774686082134e-01,2.240788275137572949e-01,2.469969907012388999e-01,1.150766202325864728e-03,3.429873436785047750e-03,-1.012857766048388822e-03,2.088728733360767365e-02
2.391729087778792229e-01,2.242190522572606315e-01,2.331073313842544070e-01,2.898012826676322606e-03,4.633155275520530782e-03,-3.274946393464637107e-03,1.707263663411140442e-02
2.714563216693944847e-01,1.341273888055243280e-01,2.016475666812924117e-01,-5.033986769099903225e-02,-2.625878515708000502e-02,-1.013071399338802414e-01,2.336793243885040283e-01
2.650486018658110288e-01,2.409850035349411224e-01,2.101621628426607880e-01,1.064820744487625370e-02,1.103631448086425833e-02,-1.686719484993196017e-02,6.188596785068511963e-02
2.427290119815578018e-01,2.158017719848599192e-01,2.532917820488806426e-01,2.892436935216557981e-02,2.864333366332722647e-02,-9.424320368418092828e-03,7.974150031805038452e-02
2.251688094555862329e-01,2.281753831728313142e-01,2.441446982171642521e-01,-2.704814693215607142e-03,6.745621106986130064e-04,2.621003307934213072e-03,1.886779256165027618e-02
2.304949468226691611e-01,2.307655702095180728e-01,2.464455420318129586e-01,1.007791892485576830e-03,1.208274048994346841e-03,-6.206283802900292522e-05,1.605043187737464905e-02
3.052328235931393019e-01,2.307335635387978423e-01,1.667046842905275383e-01,1.487790678463809385e-02,1.661198784939706824e-02,-4.236214129928506794e-02,1.459298580884933472e-01
2.232440951488044167e-01,2.350174320572746833e-01,2.507606493474279219e-01,2.311864424587227202e-03,-1.007363878641194576e-03,1.242440938356295481e-03,2.440327964723110199e-02
2.631786678603187379e-01,2.336805797812617491e-01,2.201330172500122473e-01,-1.544784041868891428e-02,2.857578077361011895e-02,2.423618416044046042e-02,7.988186180591583252e-02
3.020198172465213826e-01,2.738247203839135335e-01,1.719927679518982178e-01,1.400513272804193229e-02,1.461434072295913524e-02,-2.809263580961902235e-02,1.327879130840301514e-01
2.608161268412424461e-01,2.407224227449342169e-01,1.773242321897380291e-01,-7.247250227392530372e-03,-1.090504580792510218e-02,-3.453338441313582446e-02,9.893929213285446167e-02
2.805597435386837368e-01,2.304928152312531175e-01,1.683945045925011041e-01,1.289674445764519423e-02,1.282217215499330959e-02,-4.216443735023290423e-02,1.256888657808303833e-01
2.103242885538923468e-01,2.510900433052229430e-01,2.431674425907258130e-01,3.857372702058479465e-03,9.369890479382778775e-03,-2.160012455085613074e-03,4.151701927185058594e-02
2.142404611246600532e-01,2.396292600218435931e-01,2.468723933102695833e-01,2.281904972927865233e-02,1.206936962566508911e-02,-1.211652772667630266e-02,5.762391537427902222e-02
2.106128978300487731e-01,2.416956031018811790e-01,2.481649422938700389e-01,9.344978090166922852e-03,5.657287724323599790e-03,-8.051602234323263635e-03,4.197090491652488708e-02
2.246764289082515131e-01,2.435171207387451242e-01,2.444648232378947572e-01,7.780719148843670205e-03,4.959152025936744597e-03,9.067080867673253056e-04,2.513145282864570618e-02
2.434452911637057793e-01,2.554192478310687853e-01,2.170264847362835814e-01,7.341150078563484990e-03,9.817496072153973977e-03,-2.809677198982495853e-03,4.040020704269409180e-02
2.484104977022565108e-01,1.978030311684685905e-01,2.418044855921090419e-01,2.630534151019360903e-02,1.670094962957324736e-02,-2.014865947675872210e-02,8.000640571117401123e-02
2.008246946485254258e-01,2.527114769720820719e-01,2.499311433705212471e-01,1.489098119756787500e-03,1.151017361466587230e-02,3.022995953004698486e-04,5.440665781497955322e-02
3.063390496814453190e-01,2.517944287780381485e-01,9.167920046016980740e-02,2.781894295416728006e-03,-9.932644544120025967e-03,-7.062663207756310346e-02,2.294100672006607056e-01
2.014858796987115397e-01,2.358953469291401039e-01,2.593975845517988432e-01,-4.485995086889563686e-03,1.694983633026066086e-04,1.940224129654012728e-03,5.115484446287155151e-02
2.483759377466355778e-01,2.006825055572906691e-01,2.554179536000529827e-01,-4.057090612860862061e-03,5.238878614965703992e-03,1.974582729187047882e-03,5.294832959771156311e-02
2.271521102734734843e-01,2.519101913141292282e-01,2.409963573287183525e-01,1.469743958750602611e-02,1.774180968834545777e-02,-3.832230712289599536e-03,4.580705612897872925e-02
2.297269802024905494e-01,2.509692532412538535e-01,2.257129155685064226e-01,1.667279515395377607e-04,3.572702823136758056e-03,3.827801649105388288e-04,2.431933954358100891e-02
2.298921463735252302e-01,2.508933252189146645e-01,2.294303871449390742e-01,-5.010493480053440987e-04,6.798748331515086507e-03,2.690140493671702195e-03,2.474051155149936676e-02
2.303819884987402256e-01,2.492411180516951597e-01,2.297408031044490262e-01,-1.614229332530859196e-03,6.121037874059467344e-03,2.633493072700390184e-03,2.256533689796924591e-02
2.297459560981210958e-01,2.504800968277609563e-01,2.256247813746331821e-01,-2.065837285114649772e-04,3.765619057099059419e-03,5.842171399096455489e-04,2.400061115622520447e-02
2.365789402290578158e-01,2.352038415966788698e-01,2.342059931913068049e-01,-1.517442324070254062e-03,1.063514546637718376e-03,1.399590621609387913e-03,4.520661663264036179e-03
2.182838034840176022e-01,2.207222888061181054e-01,2.524062846351002865e-01,-1.103136418762166006e-03,-6.127073900912181036e-04,-4.529546766332919177e-04,3.305261209607124329e-02
2.355059255333759871e-01,1.963254255978792440e-01,2.570856194652670901e-01,-6.678213442752414276e-03,2.828310401962146406e-03,-1.713431887301168806e-03,5.488988012075424194e-02
9.127278488390275224e-02,2.687319614952268787e-01,2.921222197230677331e-01,-6.012968873452641250e-02,-2.829016829696891222e-02,3.642703750533264617e-03,2.224347740411758423e-01
2.336587901334492012e-01,2.243591675279903719e-01,2.102658525435645853e-01,-1.403843040420838656e-02,-1.187408775894658805e-02,-1.564554301618124518e-02,4.652666300535202026e-02
2.245244167037157290e-01,2.251243132933680446e-01,2.534087920291469564e-01,-4.176072354839440240e-03,2.619460200082752554e-03,3.337823887922853911e-03,3.039187379181385040e-02
2.014035918012129778e-01,2.351886824058331549e-01,2.558788823488268305e-01,-4.643446982449445440e-03,-6.352923687155721550e-04,-1.415406509827577745e-04,4.831658676266670227e-02
2.213386131582396887e-01,2.224913334395291764e-01,2.525796906567641109e-01,-5.443563564101573183e-04,9.998322582377573275e-04,1.466998211131502212e-03,3.084907867014408112e-02
2.269904272916317689e-01,2.261156045097773570e-01,2.473246910737360305e-01,-7.259213797076535888e-04,1.698310318226187990e-03,1.076995815876618081e-03,2.111279033124446869e-02
2.242190138924575749e-01,2.211932277670506097e-01,2.499556815494311801e-01,-3.666874799081157668e-03,1.678766409907549032e-03,3.719751365174344846e-04,2.825973927974700928e-02
2.491261193980011390e-01,2.259517928833441880e-01,2.238477588607163671e-01,2.862364330480007563e-03,1.729333574899285294e-03,-1.898867638682360734e-03,2.519135177135467529e-02
2.530948388659748916e-01,2.250735032071059516e-01,2.245933651027132161e-01,2.747371115705395973e-03,3.051479103075342703e-03,-3.151701446751350999e-03,2.965229004621505737e-02
2.609404347838023552e-01,1.734524051517756238e-01,2.648368216248169205e-01,-3.650532121212838113e-03,3.008954500431628744e-03,-7.022126780216777749e-04,8.988238871097564697e-02
2.498717921570406952e-01,2.251314715961485746e-01,2.213383861389713603e-01,2.196921320880979456e-03,4.146729920789988025e-04,-3.299171101821220774e-03,2.771212719380855560e-02
2.274424665683759395e-01,2.342876225985518479e-01,2.431590164155650879e-01,-1.652513616291392037e-03,1.528472252449107746e-03,3.834536629197177367e-03,1.567150093615055084e-02
1.649584306422612334e-01,2.628176268071699129e-01,2.618065375513793924e-01,1.328017628390866858e-02,-6.223033255910072857e-03,5.616239739903637791e-03,1.010860726237297058e-01
2.069777366975224797e-01,2.591592854102748866e-01,2.056882392960497352e-01,-9.152026279037005219e-02,-1.029948134294160350e-01,-8.817963858287759804e-02,2.882195115089416504e-01
2.464711154722935560e-01,2.274962852242495837e-01,2.248741535065150732e-01,1.755522620288484667e-03,9.434440829014429687e-04,-9.871300726556589585e-04,2.077290043234825134e-02
9.907503665251959912e-02,2.861082334609841848e-01,2.493906714631133892e-01,-2.861934159815667303e-02,-7.670377254510074572e-02,-8.212235842924107271e-03,2.230966687202453613e-01
2.487282004854954598e-01,2.955082219009271816e-01,2.802439645945371538e-01,9.605249565939227852e-02,-3.956025184868015854e-02,9.592290725851440603e-02,2.483630478382110596e-01
2.658749635205992501e-01,2.606263707647250571e-01,1.814517428770160423e-01,6.357600239235143558e-03,2.848032510285559375e-03,-6.456098044880923155e-03,8.356051146984100342e-02
2.533532719825601909e-01,2.649956661357571464e-01,1.991429478135508246e-01,4.811013078074455156e-03,9.947097010793964911e-03,2.530052178377644768e-03,6.396028399467468262e-02
2.562077176501157960e-01,2.647402076465632526e-01,1.862664920874635976e-01,4.433649666380223148e-03,2.692776904658310960e-03,7.683261338747371990e-04,7.512554526329040527e-02
2.688348474467335825e-01,2.639492904889612634e-01,1.721859513762278027e-01,7.308118203059760579e-03,1.471216675699381360e-02,-5.940334629359161379e-03,9.903598576784133911e-02
2.590262148860434932e-01,2.539321354189497670e-01,1.733048903872115576e-01,7.323980940407759377e-03,8.633840696162714545e-03,-2.040523867647048295e-02,9.258022159337997437e-02
2.650246604042705845e-01,2.650205014214261912e-01,1.767323428102089700e-01,7.864593832887034966e-03,8.290205295607377262e-03,-7.925311725389862097e-04,9.049192816019058228e-02
1.198339951922203633e-01,2.809750048402307465e-01,2.719788508598942611e-01,-1.046006247089164426e-02,4.818112807473083625e-02,1.538771299333809364e-02,1.805562376976013184e-01
2.350557407979158298e-01,2.571775150983400815e-01,1.973898654797056895e-01,-2.136578168040709040e-03,-5.197356913706840421e-03,-3.259102402200804178e-03,5.355300754308700562e-02
2.436488404393578333e-01,2.568788470193959506e-01,1.931716162562208128e-01,-7.325853176372645881e-03,-2.246873812554997865e-02,-1.170129436700755032e-02,7.400739938020706177e-02
1.894093263386828485e-01,2.574783036815318504e-01,2.601869379689536466e-01,6.455228900733973874e-03,9.153502427728620310e-04,6.543871165483275236e-03,7.128173857927322388e-02
1.824191747699029920e-01,2.670418295038597956e-01,2.111310892025992925e-01,3.916890904875248297e-02,-8.188040108419225582e-02,3.275865880250062451e-02,1.830051541328430176e-01
2.266132627758455642e-01,2.572237376236359285e-01,2.024967631475315666e-01,-2.661313796783974523e-03,-7.553835933583673973e-03,-2.683356152781927323e-03,4.970769211649894714e-02
2.255419564248596076e-01,2.511043511697622077e-01,2.062406061043168537e-01,-4.912392407535754076e-03,-6.280124895125903731e-03,-2.127221467590441947e-03,4.151694476604461670e-02
2.346712188666677246e-01,2.266481625749127982e-01,2.472961612298435474e-01,2.245948282579038943e-03,-1.716778665882934480e-03,1.209589282678872127e-03,1.879929192364215851e-02
2.230305539994973385e-01,2.567841571153535729e-01,2.129378903300748749e-01,-6.434356396072748834e-03,-2.750439913195798156e-02,-5.540053226802987493e-03,6.377763301134109497e-02
2.384902497246771391e-01,2.488598073817220313e-01,1.945604470295352884e-01,-7.719533779895402376e-03,-9.600169223541617919e-03,-7.688953283880767958e-03,5.590627342462539673e-02
2.366644382024095383e-01,2.334905685063469460e-01,2.341396208796975020e-01,8.636183203274726066e-05,8.290040741207873546e-04,-5.341305277410168589e-04,3.372642211616039276e-03
2.359655684086499339e-01,2.339045505413023807e-01,2.325877754481480986e-01,1.444826291626152013e-03,1.011433245871419095e-03,-8.903300565208929415e-04,4.517212975770235062e-03
2.365742981664658018e-01,2.342485482355672610e-01,2.331637674560214646e-01,5.523275579865935883e-04,3.290451460808304068e-04,-3.463211925163268480e-04,3.272402100265026093e-03
2.135715422626657811e-01,2.443279548518421940e-01,2.578280141465400521e-01,3.483614590872727811e-03,-8.507771629939551549e-05,3.605083443554690618e-03,4.023481532931327820e-02
2.410982040468133969e-01,2.316055813088763460e-01,2.299860425895970673e-01,1.222742080377547903e-03,4.727682392768865370e-04,-5.011519255123263097e-04,1.067781541496515274e-02
2.224477632859012399e-01,2.211289493390857508e-01,2.521750225815282409e-01,-1.067345780509021272e-03,-1.057387829998554740e-04,-9.040741862644137688e-05,3.046522103250026703e-02
2.189507707437012562e-01,2.295447829244492699e-01,2.499848168721183206e-01,3.462454920446890265e-04,2.086678934102007346e-03,3.291437288831105222e-03,2.815125323832035065e-02
2.266200868003492574e-01,2.149622411604577565e-01,2.608323888113034950e-01,-1.396231687809196091e-02,-5.206535815584526980e-04,-5.232499254457610846e-04,4.787172749638557434e-02
1.842333849537230728e-01,2.854345550798179088e-01,2.199550627046313322e-01,-1.418360535088759693e-02,6.543675517240475636e-02,3.355974020970143440e-02,1.572604179382324219e-01
2.289431527045445169e-01,2.252730217037098581e-01,2.514168228280429518e-01,3.516426183787631395e-03,5.043394689823747692e-04,5.056116090730190110e-04,2.529115974903106689e-02
2.166878639847499566e-01,2.276099540594868631e-01,2.464290681014591478e-01,-1.584145074871377021e-03,-1.399943526320882991e-03,-3.877360705017444432e-03,2.715704403817653656e-02
1.528050539534099861e-01,2.579060837521247596e-01,2.681504663578391234e-01,-1.911616467765676203e-02,2.913670032458571570e-03,4.715103135524875179e-03,1.158288270235061646e-01
2.214526408389728973e-01,2.484641798477898733e-01,2.162243200310503544e-01,-2.618770801829354514e-03,-3.033579369662186068e-03,-1.761578182403860434e-03,3.091398999094963074e-02
2.409533654374856337e-01,1.937451280793913988e-01,2.526404680508289591e-01,-1.002345284270514912e-02,-4.864320461578687700e-03,-5.378128905923770277e-03,5.810421705245971680e-02
2.732709930795955700e-01,2.676871937080813058e-01,1.893828045351521328e-01,5.076946935134074058e-03,2.564637210358979361e-02,2.912220812390293317e-02,1.058056578040122986e-01
2.017020526473795872e-01,2.351979932591717892e-01,2.568371476997767799e-01,-4.488977234822739276e-03,-1.514207895664936368e-03,-1.776789932493819547e-03,4.890661686658859253e-02
2.373147463655600753e-01,2.139898346478420754e-01,2.370090293291920447e-01,-2.117658028594753428e-03,-5.909217768752756360e-03,-2.416590335695462458e-03,2.593730576336383820e-02
2.550093637180800288e-01,2.522966654171169831e-01,2.057019996429599873e-01,-1.167876414932797653e-02,1.485106260736445208e-02,1.620350413208665463e-02,6.452380865812301636e-02
2.313976726792066341e-01,2.557481827920891626e-01,2.138811265056297928e-01,-6.321028027342191248e-03,2.226339966413716162e-02,9.006138065078198376e-03,5.636034160852432251e-02
2.182710864633374825e-01,2.205430492416112220e-01,2.516627596004561984e-01,-1.077718384644807837e-03,-4.988138549381251462e-04,-9.063683519886366492e-04,3.241907432675361633e-02
2.334493137993955136e-01,2.749496663304987765e-01,2.024347490821872264e-01,2.672778661578831868e-03,2.983585327666437442e-02,1.361009242559144475e-02,8.496450632810592651e-02
2.494209701067759966e-01,2.403597605551453242e-01,2.129685777550317238e-01,-8.012255755214544792e-03,1.702992345487084475e-02,1.572620137887688341e-02,5.371371656656265259e-02
2.397551268800250102e-01,2.774761808517081096e-01,2.214155621633279725e-01,6.322034682138901601e-03,5.027652675423064516e-02,2.499785009912665681e-02,1.096757724881172180e-01
2.517308483833607946e-01,2.745978300061381328e-01,1.881414477621633774e-01,3.258319258973896987e-03,2.557291582040932196e-02,1.593301727049855482e-02,9.368011355400085449e-02
1.743638858851702111e-01,2.536567505090309149e-01,2.616305939238259826e-01,-9.906196809439441614e-03,-2.780353812786452890e-03,-1.041859327255213611e-03,8.546376228332519531e-02
2.473812913985813933e-01,1.824658631707952727e-01,2.606323219367919219e-01,-6.767086738832918738e-03,-2.537676636195643470e-03,-4.736584335567638193e-03,7.398516684770584106e-02
2.202772960713110795e-01,2.231131810732197296e-01,2.460990633670028516e-01,-1.287861022553505675e-03,-1.022713387648336572e-03,-1.069320891204692198e-03,2.476130612194538116e-02
1.903125023015644068e-01,2.463346996469664152e-01,2.489325007971165682e-01,-8.667984310990620514e-03,-8.121678455555210105e-03,-6.409447196741721413e-03,6.194594129920005798e-02
2.353692492571692330e-01,1.899186725417258415e-01,2.619303631027734558e-01,-1.244726593476628944e-02,-3.634768708215991954e-03,-2.833980624969756768e-03,6.713417917490005493e-02
1.916996219099360577e-01,2.500081530058892998e-01,2.492602397814735193e-01,-6.238345415927596359e-03,-9.094052162609091161e-03,-7.610288119399392925e-03,6.241346150636672974e-02
2.541537368654236961e-01,2.560450076962172417e-01,1.949850358869054667e-01,-7.027595086269408653e-02,-9.263619989523448617e-02,-9.204972087402256420e-02,2.638112902641296387e-01
1.849189662127801448e-01,2.495147857482978293e-01,2.617266139738911312e-01,-5.122778768176457914e-03,-1.800968253039815243e-03,-5.105148173491388898e-04,7.210979610681533813e-02
1.550245043345460094e-01,2.529134109776520756e-01,2.617212956397177437e-01,-2.630744619721689381e-02,-1.366926366447683908e-02,-1.269699624216982358e-03,1.147329062223434448e-01
1.947384522735713941e-01,2.374187369398651215e-01,2.639650375574845165e-01,-2.060970255929201952e-02,-1.057565371779827998e-02,-5.619685547607375375e-03,7.323846220970153809e-02
1.841854406961299095e-01,2.489967921029226927e-01,2.485591451064903257e-01,-5.083570854178560278e-03,-3.511363169495990578e-03,-5.258530699839641075e-03,6.610455363988876343e-02
1.929262843059486032e-01,2.367239332795978979e-01,2.503040447876105357e-01,-2.161974688701688921e-02,-1.545982704808030600e-02,-8.584693849762872059e-03,7.097732275724411011e-02
1.937909322710062721e-01,2.373854856179574702e-01,2.495763785669051493e-01,-9.743534314504014721e-03,-6.228031386019157803e-03,-8.783471193986916101e-03,5.668493732810020447e-02
2.369342016059159117e-01,2.343561085376397457e-01,2.318493403278896470e-01,-2.171176973382900680e-03,1.742638958078260953e-03,1.777128419094926078e-03,7.219424471259117126e-03
1.822546583920474084e-01,2.626081663644993514e-01,2.606369254775949829e-01,9.178378115836740864e-04,-3.472160765364190171e-03,3.239035638794279109e-03,7.982696592807769775e-02
2.520580252687376621e-01,2.212166218148917118e-01,2.181839713200414421e-01,-3.926833211632965400e-04,-5.227013972589066330e-04,-1.113339823829291976e-03,3.254107013344764709e-02
2.386798085047824036e-01,2.312266179640627972e-01,2.363016968151544495e-01,-2.151233037265565858e-03,3.266658228160424990e-03,1.785686251932093547e-03,9.947037324309349060e-03
2.459150352670535222e-01,2.306260457752411508e-01,2.323036956368541017e-01,-3.248849232360381204e-03,3.215562543938513956e-03,-2.993278103732122217e-04,1.654906384646892548e-02
2.449791931367533426e-01,2.284423805480746417e-01,2.315764087840048724e-01,-1.117359889506117478e-03,3.816553754843998378e-03,1.949878480211374079e-03,1.703852228820323944e-02
2.533665091810767267e-01,1.610304291029807655e-01,2.673858579479871933e-01,-3.169008638353737473e-02,6.503154193124188222e-04,-1.266739560062657248e-02,1.162429675459861755e-01
2.366021004865706823e-01,1.933132043143489520e-01,2.963491704843290164e-01,-5.625135977559365258e-02,-5.750890532751921393e-03,-1.272266556298121826e-02,1.345640718936920166e-01
2.412084373866426878e-01,2.290031679210302595e-01,2.330958068120323468e-01,-1.338259799853641716e-03,2.612260334382276138e-03,1.388635048916906376e-03,1.214067451655864716e-02
2.351591642689207784e-01,2.554079377391301753e-01,2.428657631521143334e-01,4.447896379333506761e-02,-2.977001013488184827e-02,3.717245234570477896e-02,1.142480820417404175e-01
1.970768645085771709e-01,2.557444729131384542e-01,2.562667437050984431e-01,2.426478913333324477e-03,-2.246586770944816736e-03,3.710425151063686568e-03,5.955592542886734009e-02
2.269090824414191354e-01,2.471228549813212771e-01,2.256756863354451581e-01,2.038404864396432207e-03,-8.133903037067114622e-04,9.840485859975206442e-04,2.126980572938919067e-02
2.301365933453135004e-01,2.414140206134525457e-01,2.303793427389563830e-01,5.894065739780299283e-04,-1.410330259770900703e-04,1.669734961230724766e-03,1.157443784177303314e-02
2.281736617854079330e-01,2.437474604952298562e-01,2.258886634277441074e-01,2.846272420805091245e-03,-2.022511643475461991e-03,7.217747951805183332e-04,1.793011091649532318e-02
2.434295828442608056e-01,2.435771870655447646e-01,2.198622399215851841e-01,-3.246846126433262578e-03,1.117750613370144773e-02,1.101387694538244304e-02,3.645918890833854675e-02
2.440722190000693403e-01,2.350817464907304921e-01,2.305820758628382428e-01,-3.010863081032910758e-03,7.110426458315783314e-03,6.199607619731347177e-03,2.087356150150299072e-02
3.400727715765863302e-01,2.436613302287909677e-01,1.515006685097454731e-01,5.953928681649092725e-02,2.281152711795224330e-02,-9.925605640500392846e-02,2.615822255611419678e-01
2.062093444870446435e-01,2.492935461999644386e-01,2.239369319137785030e-01,-4.307167613874741605e-03,-9.242024919539843300e-03,-6.015332218018492119e-03,4.274563863873481750e-02
2.420583612637909054e-01,2.431166095569784191e-01,2.192707197931544616e-01,-4.083733664592460906e-03,2.283822263457664561e-03,3.234231037927020637e-03,2.532923966646194458e-02
2.424054994550829678e-01,2.427797134410626112e-01,2.118631987289817109e-01,-4.121695543675927068e-03,8.475669014648648525e-03,8.634172749196497229e-03,3.787511587142944336e-02
2.298279217583610035e-01,2.163764759524773595e-01,2.374233030974042258e-01,-3.542561348471611436e-03,-6.604758010624802757e-03,-2.762014905040892625e-03,2.306954562664031982e-02
2.211077035912875077e-01,2.228986719051371801e-01,2.390254194326475734e-01,-1.099594721392745415e-03,-2.551261026771149514e-03,-1.998240548413941949e-03,1.809129863977432251e-02
2.243760878026859473e-01,2.248902643270146162e-01,2.347568909422619032e-01,-1.632118740651526331e-03,-1.521423592406825247e-03,-3.381023421401107079e-03,1.232548058032989502e-02
2.051952547332714372e-01,2.518962609002163289e-01,2.362209643674388071e-01,5.648254453448170410e-04,-4.739951802592821256e-03,3.919801814180632303e-03,4.253351315855979919e-02
2.244659075262013803e-01,2.445703391277636585e-01,2.347759295942059565e-01,1.132138423760904169e-03,-1.621120868260073847e-03,4.368004334709585552e-03,1.929184421896934509e-02
2.009074034159753497e-01,2.253916501336015177e-01,2.508639183926067995e-01,-1.739383149479056812e-02,-1.148086448164167307e-02,-8.761105403517009671e-03,5.835513398051261902e-02
2.258025934181185079e-01,2.271181012895575058e-01,2.345723706170300960e-01,-1.786992627973915974e-03,-3.021674595443925304e-03,-2.525896320912472508e-03,1.110021956264972687e-02
2.217824861754181531e-01,2.312252548503137273e-01,2.348244868167636556e-01,-7.965293161413184927e-03,-5.320439025299341339e-03,-6.238251587431475204e-03,2.298071607947349548e-02
2.343255842368777986e-01,2.588394901288753047e-01,2.239857504265595767e-01,7.052714155676352743e-03,1.211325860886890843e-02,-3.120458774407123062e-03,3.974846750497817993e-02
2.336428630626123382e-01,2.343282680687719943e-01,2.349460247505916755e-01,9.007842722008161003e-04,-1.281649234767444356e-03,6.147242564059889752e-04,3.125793533399701118e-03
2.336375600705022371e-01,2.362833503861334061e-01,2.322444951991945727e-01,1.206755556306629779e-03,-1.027981173515341929e-03,7.790497484821248863e-04,4.688961897045373917e-03
2.470664394399187114e-01,2.260498283506732764e-01,2.146994209430326261e-01,-4.257340294552313179e-03,-1.304969040647118925e-03,-2.002073779782167270e-03,2.967465855181217194e-02
2.313287157068901478e-01,2.329586252535056912e-01,2.415740859863087231e-01,2.968649423475396964e-03,1.734848115266224289e-03,-1.208355572821689320e-03,1.143561489880084991e-02
2.352252176494002145e-01,2.343304196956310370e-01,2.337919855184676377e-01,7.399605094955697673e-04,-1.463927816246522046e-03,7.854168654507534238e-04,3.390410216525197029e-03
2.336057670612623482e-01,2.413174626398735534e-01,2.309450787798743576e-01,3.539987303325876217e-03,-4.232563636357557311e-04,3.241219320965041915e-03,1.251864247024059296e-02
2.166702942103757579e-01,2.258005420686184650e-01,2.469662374343385147e-01,-2.034946666122867086e-03,-1.264252047129268584e-03,-4.503275931235262673e-03,2.833112515509128571e-02
2.336316306785679309e-01,2.412906478088145124e-01,2.286784514039822414e-01,3.581223093506382890e-03,-1.738780597753754797e-03,1.321806628435074835e-03,1.318780053406953812e-02
2.073455917252905734e-01,2.366069366482138614e-01,2.469799039767374416e-01,-3.252193857202897651e-03,-2.351888537622426941e-03,-5.699761171188011920e-03,3.759172931313514709e-02
2.338814701595822443e-01,2.384042585985727269e-01,2.325547645532619334e-01,1.635218121618267888e-03,2.978661394546654640e-04,6.139605399637415627e-04,6.134737282991409302e-03
2.328784829912374510e-01,2.386347103991337260e-01,2.335873116004572037e-01,6.525744793829474583e-04,-5.487077107145176772e-04,2.331675473846874891e-04,5.648036487400531769e-03
2.309430858589933133e-01,2.414413790130572890e-01,2.301193223863104709e-01,1.702861930659371357e-03,-3.775461818478650878e-04,6.208761779179023310e-04,1.139404065907001495e-02
2.299544885759358948e-01,2.272553498287166740e-01,2.337242184641445675e-01,-2.476101785599068520e-03,-4.185135629928264482e-03,-2.465017774585192764e-03,1.099270209670066833e-02
2.270923161303438909e-01,2.289641947101195840e-01,2.327486545473803348e-01,-8.137339759854241754e-04,-1.118936597945718609e-03,-3.972192957389993496e-04,5.579068791121244431e-03
2.352738141955171003e-01,2.261804349497621158e-01,2.254998739450729262e-01,-1.851626071737943156e-03,7.106930723199584600e-05,-5.577506736994808367e-04,1.002872269600629807e-02
2.382643048620401716e-01,2.248525027445194557e-01,2.214900396590112064e-01,-3.296786072451944084e-03,-1.612700008863229709e-03,-2.536407546291156480e-03,1.720430701971054077e-02
2.278696213727056941e-01,2.284507432379599412e-01,2.298783224498303912e-01,-2.458344901095552669e-04,-1.713088124537631273e-04,-6.774481599224621911e-04,2.202597213909029961e-03
2.283237834134858035e-01,2.275105628718268880e-01,2.306758396021168778e-01,-8.889559808053176890e-04,-2.655723505636716983e-03,-1.663861997211931506e-03,6.319879554212093353e-03
1.863105097806209698e-01,2.599452254747145474e-01,2.482966876874090900e-01,-3.284512927271761827e-03,-5.439770230430825484e-03,-1.265386184517676817e-03,6.946916133165359497e-02
2.300969743080339969e-01,2.240260363197442428e-01,2.318564878648247118e-01,-5.133360447189583330e-04,-3.452460974571607954e-03,-4.298177654186860421e-04,9.366819635033607483e-03
2.300543436336726644e-01,2.283572629607766302e-01,2.272753274885850050e-01,-9.414229220229873921e-04,5.998310734994806144e-05,-3.358519089026105304e-04,2.982417354360222816e-03
2.279680454220810448e-01,2.292758068363092150e-01,2.283550508180372529e-01,-6.345782625004814295e-04,-4.523674515532412647e-04,-8.157667880369054740e-04,2.274270402267575264e-03
2.502481792047860365e-01,1.931761364433094985e-01,2.459437374158260359e-01,-1.310776718476881417e-02,-7.507723425693524702e-03,-1.601938213502153083e-02,6.696628779172897339e-02
2.291738566594336557e-01,2.284574111470238089e-01,2.292548496119488355e-01,2.448116043119916672e-05,2.579776810226112359e-05,-4.436054426124384732e-04,1.082604750990867615e-03
2.540897839429454574e-01,2.025949918658898619e-01,2.410097124139994051e-01,1.278788225600648075e-03,6.754664191100260250e-03,-6.703699942016640503e-03,4.925289377570152283e-02
2.604481529993810662e-01,1.693879389275682323e-01,2.612792794833637688e-01,-5.223278028397946790e-03,5.681901822201317715e-04,-4.819226830110862232e-03,9.230832755565643311e-02
2.298453617785872205e-01,2.292767807242230838e-01,2.282893074918142529e-01,3.372786584614674827e-08,-2.987427674062081398e-04,-4.444705473888302047e-04,1.649318146519362926e-03
2.307041273929194003e-01,2.157440581055394269e-01,2.376807794430991494e-01,-2.565429726703680451e-03,-5.912002339390194303e-03,-2.353842176615568178e-03,2.276114746928215027e-02
2.313443969123754329e-01,2.515048264147495827e-01,2.176856178409034559e-01,5.696970620299885227e-03,-4.724626623132453622e-03,3.694211951863919478e-03,3.276654332876205444e-02
1.828051684947578637e-01,2.620781192923055114e-01,2.312110111968294357e-01,-8.445140637861815736e-03,-3.289882307187220328e-02,1.750734223737952094e-03,9.088567644357681274e-02
1.895290963926545003e-01,2.625661715743783375e-01,2.472865806218566553e-01,8.597772252479001843e-05,-5.541249583329642230e-03,2.684486606490911996e-03,6.756968051195144653e-02
2.251471061504662363e-01,2.587796306490608989e-01,2.162659098932583623e-01,2.271993731429138973e-03,-1.050714668690869331e-02,2.108768126829022992e-03,4.322899878025054932e-02
2.018149149793599939e-01,2.617639192385249336e-01,2.368857586557334971e-01,-1.918001502519616538e-03,-1.983641576455369773e-02,3.243174037305761922e-03,6.280466169118881226e-02
2.203028628556692736e-01,2.512605037130772878e-01,2.231269675502184358e-01,1.224176731718725104e-03,-1.134062501670167998e-03,1.404450436667793517e-03,2.988636866211891174e-02
2.552294641666877917e-01,2.602006792407015601e-01,1.884301015299496285e-01,5.447518010126693906e-03,3.117020553101024476e-03,-2.840924314656824348e-03,7.043669372797012329e-02
2.173770759319169077e-01,2.535891290491142924e-01,2.232138816540680526e-01,1.915528177939710384e-03,-9.276634670014599973e-03,1.652625095297885482e-03,3.756843879818916321e-02
2.562383930630724449e-01,2.351538172813739946e-01,2.010841273997825418e-01,-2.431028502134553997e-03,-2.075021446208804524e-03,-4.791822246072939204e-03,4.922580346465110779e-02
2.070101718524762213e-01,2.468605905262894196e-01,2.363965324531228096e-01,-2.701167791093167514e-03,-3.648893663863091510e-03,-5.551582123886051809e-03,3.787938505411148071e-02
2.126680642980184333e-01,2.381671574344820519e-01,2.381156099089977718e-01,-2.318952664802465674e-03,-2.311271246859718589e-03,-5.360260111280694233e-03,2.769923582673072815e-02
2.216752314856562101e-01,2.475896566540309873e-01,2.248386231243165445e-01,4.498821576281065472e-03,-6.817561673252825645e-03,4.593374317684444617e-03,2.937754057347774506e-02
2.186912588056698636e-01,2.476215062453623605e-01,2.287803935377122344e-01,3.457011372101681350e-03,-4.880398458283178968e-03,6.678344795222200710e-03,2.979894727468490601e-02
2.231353406456652311e-01,2.463626394627267679e-01,2.192603555005106786e-01,-9.150589868435097477e-04,-1.493012633676302344e-03,-1.121884591400679806e-03,2.564183063805103302e-02
2.096386481903889099e-01,2.518800030852152982e-01,2.287411898364553053e-01,6.279552103792622160e-04,-9.047407747331053310e-03,3.781921710296435972e-03,4.039777815341949463e-02
2.274387011908003409e-01,2.282789341100423253e-01,2.273881383872950190e-01,-1.248431925335142427e-03,-1.631076074761789825e-03,-3.504434816784291092e-03,7.088807877153158188e-03
2.241075678168711893e-01,2.193140523126915764e-01,2.525541946632697266e-01,-3.173488857957743828e-03,1.621595098330486312e-03,1.177393637341955573e-03,3.179321065545082092e-02
2.199951962680819773e-01,2.214562191799908653e-01,2.547174926654051652e-01,-6.166278121139606022e-03,-1.307176609962180545e-03,1.462824028217186149e-05,3.572447597980499268e-02
2.164129019254769914e-01,2.205664773578551174e-01,2.532515013167532247e-01,-3.197636157769545052e-03,-9.542933803186118009e-05,-1.207874116365085810e-03,3.544575348496437073e-02
2.199164580274779179e-01,2.463500772552925933e-01,2.201118165021397899e-01,-1.038809635467170985e-03,-4.699682703234113034e-04,-1.007245675883008994e-03,2.646798081696033478e-02
2.207025495556570183e-01,2.162472089693047161e-01,2.535478027772444243e-01,-5.144242081030932223e-03,-3.202782684309812312e-04,-7.750929885919818343e-04,3.642110899090766907e-02
3.019067349429511160e-01,2.360454418723420267e-01,1.837388990164317559e-01,1.251424582801173579e-02,1.608559975187750374e-02,-5.293115650289199892e-02,1.420205682516098022e-01
2.132064275020029709e-01,2.536220530626286385e-01,2.282065939000799959e-01,2.651912511883458990e-03,-3.076981142082058258e-03,2.693862422488483427e-03,3.637937083840370178e-02
2.309196047890380854e-01,2.299394810354239427e-01,2.466296813401519239e-01,8.332844285376122965e-04,-5.121900999012357625e-04,8.255119285105972033e-04,1.637313328683376312e-02
2.535617607672914220e-01,2.378793110211814277e-01,2.176471154979060241e-01,-4.414853948053937271e-03,1.227505358044637084e-02,3.664263867195782787e-02,7.423694431781768799e-02
2.223203825860631810e-01,2.432597803356083277e-01,2.231952593299207088e-01,-6.416151545842835270e-04,-9.652974482736160870e-04,-2.088782779411330580e-03,2.092901989817619324e-02
2.537329853345635655e-01,2.437472644158802104e-01,2.116317574900358212e-01,1.136286934511429635e-03,6.436176284949049649e-03,8.811804832427775486e-03,4.257824644446372986e-02
2.711398288266810286e-01,2.616728101186865940e-01,2.213932558798769046e-01,6.519423861808878052e-04,3.029030229591809370e-02,2.934231866764556301e-02,8.619797974824905396e-02
2.757428209935707808e-01,2.395958756152622438e-01,1.948460015418141955e-01,7.423108173654080141e-03,1.046777785911678568e-02,2.022310607845896266e-02,8.153329044580459595e-02
2.312932635691541949e-01,2.321324663709551650e-01,2.397237573018234646e-01,1.820137955543166611e-03,-2.728379009955754064e-03,1.510336872030338057e-03,1.018905360251665115e-02
3.108257836176006039e-01,2.150352130223308067e-01,1.709015351526821935e-01,-2.477111039006257842e-02,2.572320286046719459e-02,9.277033173293214308e-02,2.121227979660034180e-01
2.305493506544858962e-01,2.317114860072757021e-01,2.420127790472003104e-01,6.949394400930984335e-05,-5.480845684858855421e-04,9.157781839021382139e-04,1.108468882739543915e-02
1.704409995829131996e-01,2.606823438531941095e-01,2.605847183570654257e-01,-4.588604898162085104e-03,-3.797178071686318351e-03,1.442135692093711972e-03,9.081497788429260254e-02
2.757450809364839772e-01,1.728832061489217198e-01,2.911032510903516224e-01,2.005306971837246197e-02,6.907965851497237589e-03,2.367138188414187258e-02,1.242044642567634583e-01
2.720207507498730859e-01,2.540332163780940622e-01,1.942879525577889677e-01,8.679786824541639925e-03,1.521426285696530004e-02,2.730818136452290920e-02,9.014081209897994995e-02
3.243694279144022641e-01,2.516091426845407653e-01,1.151706489530499727e-01,2.323747185584398856e-02,7.642256966613822367e-02,-6.928036711218610311e-02,2.595713734626770020e-01
2.305408613862209577e-01,2.443826283158185286e-01,2.032713109647160676e-01,-3.195940636766648330e-02,7.435036558586829991e-02,5.404801765212623871e-02,1.724076271057128906e-01
2.339329808281565004e-01,2.357500536446823780e-01,2.335032330153560820e-01,1.628564383384912021e-03,-1.892817674243510179e-03,1.828840627322819105e-03,5.745105445384979248e-03
2.335939000567739121e-01,2.350222619788019662e-01,2.355881582742334612e-01,2.546323873704855393e-04,-5.714693260588467110e-04,7.657398046937885809e-04,2.470238367095589638e-03
2.260463783439410068e-01,2.395550696921709688e-01,2.347326558181794254e-01,1.485325340087124274e-03,-1.819133323203634550e-03,3.981855730678528389e-03,1.430761162191629410e-02
2.377058580893783857e-01,2.334264450555028902e-01,2.393042763324623734e-01,8.273903017402339105e-03,-3.808267739212533795e-03,6.762641312935985076e-03,2.034182101488113403e-02
2.140276600415089714e-01,2.314228513068910531e-01,2.517827779293449475e-01,7.912661836001189802e-03,-3.155170644553907319e-03,7.613303456858276988e-03,3.824744746088981628e-02
2.229507077491302280e-01,2.260250214318234308e-01,2.391884447505625566e-01,-1.401294008882283558e-03,-1.167743071292522399e-03,-7.767226066695755594e-04,1.532929390668869019e-02
2.179195482199539902e-01,2.485807704414989827e-01,2.431523442593660767e-01,1.189378714780487019e-02,-7.867947830565666725e-03,9.464031009242715453e-03,4.101146385073661804e-02
2.287612869125015824e-01,2.327881960759084212e-01,2.413408889203873253e-01,5.282032046977821679e-03,-4.297302095825258558e-03,5.297707239030780869e-03,1.863068901002407074e-02
2.282233262666324147e-01,2.299529676240450182e-01,2.292874872667450548e-01,-1.721534469114454138e-03,-1.467667937648514144e-03,-1.551127260349832639e-03,4.985444713383913040e-03
2.300413801436606287e-01,2.328556384776995225e-01,2.414603484575290337e-01,1.658935200857352289e-03,-1.268547556094979821e-03,2.755158753917390062e-03,1.191778108477592468e-02
2.206869881699390079e-01,2.383986579770734637e-01,2.412111183335340914e-01,3.470650567475100801e-03,-2.345429944722739711e-03,6.880181542534566722e-03,2.379236556589603424e-02
1.977009637851428747e-01,2.597025315226459408e-01,2.332144996921992897e-01,2.741906830263232415e-03,-1.078392880870650966e-02,2.924595422076228346e-04,5.722936987876892090e-02
2.209686469993420443e-01,2.496690132577562282e-01,2.249984725842699984e-01,4.319853253772887704e-04,-3.154122210753454274e-03,2.432964666204600734e-03,2.779309824109077454e-02
2.265438192388153082e-01,2.470078833636370208e-01,2.251018820860888614e-01,3.061044215007648148e-03,-3.828670123624407749e-03,2.015759264165961455e-03,2.312230505049228668e-02
2.182321238135411234e-01,2.540593648215942468e-01,2.173307109267907655e-01,-1.219361353725473577e-03,-2.708678372228664512e-03,-1.391042332642017333e-03,3.672839701175689697e-02
2.374477473657702065e-01,2.314578148783699441e-01,2.135790751731679871e-01,-6.643323922869779317e-03,-2.868682436182090015e-03,-5.395141085281839749e-03,2.659009210765361786e-02
2.069983443465954198e-01,2.480681816689245811e-01,2.344825064398801950e-01,-2.427691227482195891e-03,-4.082554698035441472e-03,-5.900160930997287723e-03,3.854165598750114441e-02
2.240625197974841498e-01,2.491004685046405154e-01,2.233034242439016770e-01,1.811796975490037554e-04,-8.635375675597886322e-05,3.324197774242149865e-04,2.543489076197147369e-02
2.180866274760505374e-01,2.526069335735973698e-01,2.203844322891750918e-01,4.539370618292480619e-04,-4.247320330611128493e-03,-2.206610627552033684e-03,3.445221856236457825e-02
2.266606985875676272e-01,2.595677128989136717e-01,2.092625357982130785e-01,3.482740494498688753e-03,-1.746034963628654776e-02,4.611056506511516419e-03,5.452388897538185120e-02
2.238637357969498476e-01,2.385034456678036818e-01,2.230141915155070820e-01,-1.067369370008487044e-03,-8.277179025180192527e-04,-2.402116666680761525e-03,1.581972092390060425e-02
2.473510713583140508e-01,1.954234045473405290e-01,2.465301767570806379e-01,-4.978063462421760191e-03,-5.429364642343780488e-03,-4.887399216296369441e-03,5.374910682439804077e-02
2.467511562718256168e-01,2.297933712769440195e-01,2.308195459945409367e-01,9.520471326571323771e-04,-3.707991951987465421e-04,1.183834750138608709e-03,1.668993383646011353e-02
2.196072292662574199e-01,2.510944231634757440e-01,2.162209521512569177e-01,-2.953261304618384330e-03,-3.803996116500862369e-03,-9.942280247611688052e-04,3.438134118914604187e-02
2.247461158093421729e-01,2.596130960594180692e-01,2.070105001861763938e-01,3.925536245060539872e-03,-2.741347121662978531e-02,4.866117825210269573e-03,6.723397970199584961e-02
2.563312546439508455e-01,2.043039260058781004e-01,2.246712804424586263e-01,-7.606151217390640009e-04,-1.768045677353051351e-04,-7.799205253298323315e-03,4.739541187882423401e-02
2.218888563202909281e-01,2.582496245524146250e-01,2.110385514276196528e-01,5.642936758779518690e-03,-6.109802725634459752e-03,-7.470754173549040396e-04,4.520566016435623169e-02
2.243158589574840989e-01,2.538150837031911133e-01,2.166993959376531387e-01,5.114248613328059839e-04,-5.272701856089099214e-03,-8.138498764666973490e-04,3.520043194293975830e-02
2.650375018111396641e-01,2.580660510214259351e-01,1.866560903083469281e-01,4.545796103002903987e-02,7.696152451808342676e-02,-9.092149257482473601e-02,2.332691103219985962e-01
2.305297763697459756e-01,2.486112768592112221e-01,2.293503669192183680e-01,-1.328448670472001138e-03,4.186067228600215927e-03,1.583967758386341500e-03,2.037272229790687561e-02
2.343136216662990989e-01,2.466694494502387203e-01,2.272812503931954942e-01,-4.691166067308546843e-03,1.075036909060108140e-02,5.694593219232013150e-03,2.826710231602191925e-02
2.179982293143411798e-01,2.507985357064824727e-01,2.334697864831257741e-01,-2.378820089293825395e-04,5.153364723997464099e-03,4.622665258583227507e-03,3.084972873330116272e-02
2.274414694451986907e-01,2.503721563288568985e-01,2.345570332223005372e-01,-9.142440751961568475e-04,1.276418090812825876e-03,4.280901764023784493e-03,2.180955000221729279e-02
2.313331258246698607e-01,2.441616687415006370e-01,2.304277210004866405e-01,-9.540708175282497459e-04,8.353029786453018473e-04,8.155107218652393264e-04,1.355822291225194931e-02
2.299414676367118049e-01,2.444556292110587337e-01,2.324256610277085355e-01,-2.025192983747459347e-04,8.340236536627745499e-04,1.982917709072718349e-03,1.395642664283514023e-02
2.771029981211625692e-01,2.756431219536089050e-01,1.474631382848100025e-01,-2.748906702645239480e-03,-1.645768401907620393e-03,-9.623817191921664113e-03,1.301077008247375488e-01
2.912814839267637290e-01,2.936947338833172383e-01,1.539092152425027282e-01,1.548963979695746132e-02,1.215938768879015926e-02,-2.343171407456619889e-03,1.427875608205795288e-01
2.052908961832053958e-01,2.547318478634256755e-01,2.384615775498937496e-01,1.256574504796276063e-03,-4.193866991512958629e-03,6.409514936469116499e-03,4.566683620214462280e-02
3.065477033392620676e-01,2.688508264118909530e-01,1.279035308249554803e-01,1.658652077956825760e-02,2.030173580151831657e-03,-1.302840882604285044e-02,1.671747267246246338e-01
2.926570689603400499e-01,3.142237988754484901e-01,1.001804338412516926e-01,1.127422069000143766e-02,-9.128228100403590339e-03,-1.974271782512551296e-02,2.084804326295852661e-01
2.091435343999941687e-01,2.594375579396330234e-01,2.363438063159093161e-01,1.729250480248703970e-03,-2.310102260598555397e-03,3.347194670424102035e-03,4.427103325724601746e-02
2.272932693347954614e-01,2.110636483643392458e-01,2.466635365387191969e-01,-3.699186887273794508e-03,-5.889244186324314560e-03,-2.435135905405371500e-03,3.340465575456619263e-02
3.429912786239646127e-01,2.937934869131217930e-01,9.288458958506023988e-02,1.467831064809532260e-03,3.831700410379159510e-02,-7.867045718357982068e-03,2.393027245998382568e-01
2.358234102918508879e-01,2.339499598808856828e-01,2.343607734715941193e-01,1.415604298766215321e-03,1.415451539309641946e-03,-1.102912655850400627e-03,4.310511518269777298e-03
2.339840204117274725e-01,2.360107212662544418e-01,2.368862888232771691e-01,1.778156940554709124e-03,1.243528601552403847e-03,-1.524650427030745624e-03,5.267536733299493790e-03
2.351839101115205388e-01,2.361538820250789761e-01,2.333373444722961487e-01,2.211522040256195133e-03,2.053190162309433131e-03,-1.151566834053829175e-03,6.118769757449626923e-03
2.349947002689529441e-01,2.351329525410968124e-01,2.338180242750038385e-01,4.424094998372022801e-04,-5.778399072045546105e-05,-1.645206145888681367e-04,1.498250523582100868e-03
2.345477174254204378e-01,2.361371519766423954e-01,2.345076392394937759e-01,6.146371669530114375e-04,5.372266552609048038e-04,-6.930537166762570835e-04,2.455963054671883583e-03
2.217088805768507032e-01,2.463568057836700298e-01,2.176661053853078953e-01,-2.848340067790972041e-03,-2.373168033370222103e-03,-1.629703638457499250e-03,2.779771573841571808e-02
2.288977508482433199e-01,2.382778334305108991e-01,2.347493077757161206e-01,4.416515351110858034e-04,-5.314297918046825137e-04,2.513465486457111455e-03,9.366083890199661255e-03
2.197476457376667247e-01,2.251959984709745455e-01,2.410373608123788924e-01,-2.156375325139861521e-03,-2.166503021562076522e-03,-3.595029796987460856e-03,2.082658000290393829e-02
2.035198482718854618e-01,2.567412233858559767e-01,2.480678857703172979e-01,1.373782686502748353e-03,-4.112669630585093911e-03,6.166557866229114941e-03,5.115288868546485901e-02
2.220084000562438376e-01,2.257684225314384174e-01,2.385842404678150952e-01,-1.006506710930834061e-03,-1.521194727375457627e-03,-3.472840175068500970e-03,1.651465520262718201e-02
2.232545340327672656e-01,2.219702923294391284e-01,2.430417685725864141e-01,-7.206531531773758669e-04,-2.045807208949075671e-03,-8.189404036115396869e-04,2.084997668862342834e-02
1.965738996806684347e-01,2.777462209873642895e-01,2.094700827257963971e-01,4.165328899640537152e-02,9.536427993225400634e-02,-9.951809575985990503e-03,1.961978226900100708e-01
2.346419603895512351e-01,2.300319159883749687e-01,2.418932704312715953e-01,2.080819587720841423e-03,-2.649981062210893159e-03,1.862003901296256040e-03,1.231749448925256729e-02
2.505559084807029713e-01,2.639020802825410850e-01,1.707611612765264908e-01,6.703206699506671085e-03,1.948156783918824839e-02,-5.698534485118477398e-03,9.476861357688903809e-02
2.305839031194718280e-01,2.342417307049132202e-01,2.419101995983494735e-01,-4.134186661604293412e-05,-5.419907289988609581e-04,2.098336085208883043e-03,1.069254335016012192e-02
2.866703095400037760e-01,2.726180292205100941e-01,1.568605563754759125e-01,1.211791864896207861e-02,2.867912183074497207e-03,-2.770846528480435181e-02,1.341357529163360596e-01
2.342139004331649232e-01,2.342681534492865869e-01,2.373858035357742924e-01,8.528706920726639726e-04,-2.542497201448568446e-04,9.004364641759952850e-04,3.834094153717160225e-03
3.245241006311899712e-01,3.139860307390346383e-01,1.215425864848337367e-01,2.069013127374838903e-02,-3.549237152088348390e-02,-3.094020189590855618e-02,2.170455455780029297e-01
2.628066890300492786e-01,2.673535299795134490e-01,1.732337087463492742e-01,3.385646709217023619e-03,-1.540537466058773252e-04,-4.357789884241684147e-04,9.212109446525573730e-02
2.696135743793633410e-01,2.669748673363511182e-01,1.668161224650838714e-01,2.707343034033810134e-03,8.160406528918465706e-04,1.200980446343114091e-03,1.016432046890258789e-01
2.623430260475524967e-01,2.617587812262133218e-01,1.854901339652154924e-01,1.778549273636214310e-03,3.319295496760623840e-03,1.178815070892194183e-03,7.686689496040344238e-02
2.656068072614334863e-01,2.628758284781244070e-01,1.716727413175873074e-01,5.606391165732717112e-03,-6.106688087739794036e-04,-3.696134501655502953e-03,9.333238005638122559e-02
2.273567064176740260e-01,2.329546161910707736e-01,2.286691802318396582e-01,-9.105959396556837122e-04,-1.241125984236854385e-03,-3.989498179676318921e-04,5.770467221736907959e-03
2.694422376907417149e-01,2.720084085711068078e-01,1.788629263629872845e-01,4.923067832821359339e-03,1.238648513655091384e-02,1.190623812707112790e-03,9.476748853921890259e-02
2.239523902813812251e-01,2.321155591352596359e-01,2.319791106823597959e-01,-1.547080263713224157e-03,-1.874272193785544646e-03,-2.819316598730507110e-03,1.034924108535051346e-02
2.545275312552033875e-01,1.907552881316814941e-01,3.099266700720871848e-01,-8.708775333342681779e-03,4.955985350501563441e-02,1.210325203223660828e-01,2.494224756956100464e-01
2.403147954383925977e-01,1.819033043895971202e-01,2.866200527863404512e-01,-3.418952438551377260e-02,1.453260203699777153e-02,8.012987680875086408e-03,1.122222021222114563e-01
2.531454452808871158e-01,1.824348956941712341e-01,2.456947963369082999e-01,-1.455380566977124319e-02,8.413897341489820839e-03,1.804807648342645135e-02,7.970993965864181519e-02
2.282856692316675429e-01,2.289350748525176005e-01,2.286378078960932814e-01,-2.983662900756468210e-04,-3.064401997728873062e-04,-7.982619426678656208e-04,1.666583004407584667e-03
2.347632968341840098e-01,2.010059334509825546e-01,2.539582185316083818e-01,-4.794782091629280589e-03,-2.308109719197515806e-03,-2.161216552722417406e-03,4.748619720339775085e-02
2.796053191651041714e-01,1.960257735479936370e-01,2.524217324376258897e-01,5.279159197454986671e-03,1.688356752997736271e-02,2.792615953227297471e-02,9.343917667865753174e-02
2.515012449452399546e-01,1.718339167205434614e-01,2.636020096340108698e-01,-2.241887336614359003e-02,4.795367862059688423e-03,5.158266430919858717e-03,9.546714276075363159e-02
2.417830151945815353e-01,2.281050473068978457e-01,2.361816250844722131e-01,7.359760838826150814e-03,8.397481482287215415e-03,-6.387360416400177272e-03,2.526446431875228882e-02
2.341841077945857608e-01,2.342794562023306215e-01,2.351165978359874564e-01,4.318300738088508132e-04,-7.909340011226965268e-04,4.623841536147502569e-05,1.797857927158474922e-03
2.651452748476826327e-01,1.500104343482677738e-01,2.850597439985245174e-01,-4.297245561743443659e-02,1.358019000784942880e-03,-7.412559294963943016e-03,1.471588760614395142e-01
2.532131291276061846e-01,1.821427633620635866e-01,2.463430190357579763e-01,-1.553860149794656156e-02,9.592013385645813822e-03,1.795088533392289604e-02,8.109871298074722290e-02
2.370344617001685361e-01,2.335264652897702242e-01,2.349069812003458102e-01,8.320070921387096984e-04,-1.390797986621082833e-03,6.132750445488259310e-04,4.286840558052062988e-03
2.357773901235317437e-01,2.339637152111813112e-01,2.353730227190998781e-01,1.328534733097157554e-03,-1.747189056297344511e-03,1.358874511473334972e-03,4.765729885548353195e-03
2.211119204497297708e-01,2.385349683739566296e-01,2.299882064458404485e-01,-1.105086047405007136e-03,-8.915940539134507457e-04,-3.931562010391873550e-03,1.673675887286663055e-02
2.339455645269508111e-01,2.366585654568516550e-01,2.328609607062133713e-01,9.085944930986582409e-04,-3.263960229076247007e-04,4.517610316182510541e-04,3.858467331156134605e-03
2.340834946046831677e-01,2.353556269900256570e-01,2.336604893383593951e-01,1.976675436060134781e-04,-6.435175579469318357e-06,1.734829433546786377e-04,1.594679779373109341e-03
2.347354260481778476e-01,2.343166286827123579e-01,2.348525024607650280e-01,5.844352372317700465e-04,8.513917169579393454e-08,5.710374948415647932e-04,1.497021876275539398e-03
2.324801959801158502e-01,2.366809497411619390e-01,2.334655486540956892e-01,1.377933460531856379e-03,-1.482774371131118096e-03,1.610106813369438679e-03,5.877696909010410309e-03
2.362613117733848855e-01,2.299060727547989069e-01,2.484375438881925025e-01,2.379588231590872363e-02,3.433940002134679148e-02,-3.175136437312626320e-02,9.234064817428588867e-02
2.522098613522280042e-01,2.361051269459997770e-01,2.093710212608747290e-01,3.867592789738053156e-03,1.245762219732955006e-03,-3.815976086275230453e-03,3.870188817381858826e-02
2.383192814170656815e-01,2.308184419115528185e-01,2.304197336706715060e-01,1.165792231527135528e-02,9.789707967797623214e-03,-1.181115844963597124e-02,3.425141051411628723e-02
2.279150935750931806e-01,2.260774072178320104e-01,2.473141558215041780e-01,-3.861798552405379739e-03,2.576503442816178643e-03,2.700408902892909371e-03,2.240272983908653259e-02
2.129697475565368037e-01,2.523642551510335563e-01,2.254714323522588049e-01,-8.269347344728533939e-04,-2.493139924438223139e-03,-1.998871838593712855e-03,3.533279895782470703e-02
2.289636713931311462e-01,2.305321841680239847e-01,2.418886346285414324e-01,-3.276859643866623234e-03,3.398392109174668517e-03,2.979455500933187069e-03,1.557992398738861084e-02
2.309061518047074713e-01,2.303298275036554654e-01,2.410623051791179750e-01,-5.825839232789829054e-04,1.749632400168871010e-03,1.073514985266170538e-03,1.109017524868249893e-02
2.269583340988522990e-01,2.304725497693048686e-01,2.441615036100006353e-01,-7.707040746957336333e-04,1.019840759162800488e-03,3.097982074233033341e-03,1.677908748388290405e-02
2.226774001427303529e-01,2.475273218001746711e-01,2.350858193625196546e-01,3.345803581095337098e-02,4.232743602777126052e-02,-1.353633542700952500e-02,9.872179478406906128e-02
1.561624810635722782e-01,2.704358427160088452e-01,2.586015612880335213e-01,-2.293808318336102749e-03,-3.315967037578022858e-02,-1.655547978436293464e-04,1.231286600232124329e-01
2.262102079042190017e-01,2.470336342141122576e-01,2.237302940833934273e-01,2.932496273204178178e-03,-2.165163841330062806e-03,1.872300739270076932e-03,2.327626012265682220e-02
1.193858548057469826e-01,2.939881401492168145e-01,2.583570193591862574e-01,3.012211193060174846e-02,-4.874756997467612207e-02,1.498870342093231237e-02,1.898927241563796997e-01
2.088513803112549416e-01,2.536269128400870376e-01,2.256178995287889677e-01,3.641914291510348414e-04,-3.157581924910935183e-03,-1.527846066517627257e-04,3.956783562898635864e-02
2.601302968250571723e-01,2.360996624678588784e-01,2.000685608207651012e-01,2.805236584270917252e-03,-2.743018296339511260e-04,-5.014350198730224001e-03,5.329940840601921082e-02
1.157833815191312288e-01,3.002590284499349615e-01,2.869472631611562630e-01,2.950980872573834290e-02,-4.763628350312189980e-02,1.314013177048445075e-03,2.029238343238830566e-01
2.295724261222698848e-01,2.273037125675672343e-01,2.488553424432650707e-01,2.294919872574397151e-03,-1.536341185740339654e-03,1.094147206831004755e-03,2.114705182611942291e-02
2.098433478086507153e-01,2.472531281215842591e-01,2.453647673090772752e-01,1.510033768171980748e-02,-1.236451049073950328e-02,1.106383519810982992e-02,5.331363528966903687e-02
2.216185110696227423e-01,2.428079614672489506e-01,2.188950225641645153e-01,-3.703945694462523232e-03,-2.708914221874662506e-03,-1.225664691980550124e-03,2.412049844861030579e-02
1.156512671377744883e-01,2.672985395649567497e-01,2.576499153774136630e-01,4.076396950164395960e-02,-5.077901068896670256e-02,2.033095740758074366e-02,1.886464208364486694e-01
2.278832830801491016e-01,2.442294709558812393e-01,2.306239599046820410e-01,7.411565504341587323e-04,-7.456165822665646872e-05,2.218766694140808255e-03,1.569531671702861786e-02
2.201408450015278351e-01,2.699501332051657543e-01,2.070430271448967241e-01,-1.696901151890560250e-03,-3.957971853607545470e-02,1.345524781239438965e-02,9.250050038099288940e-02
2.583750962299148357e-01,2.133064428824978376e-01,2.416480221439977760e-01,3.750885243931887953e-04,2.788125460222285433e-03,5.289170187948020151e-03,4.080172628164291382e-02
1.812941901817821111e-01,2.771971615738729744e-01,2.545947133543811636e-01,8.675695009384651671e-03,-3.207829855807066421e-02,1.921449200783583583e-02,1.093666031956672668e-01
2.267918784825938838e-01,2.329304516945893411e-01,2.458282222254464244e-01,6.079608775941186538e-03,-3.455134735772193502e-03,6.389939540706916603e-03,2.350321784615516663e-02
2.185723583774346335e-01,2.529222359927124075e-01,2.215429973496181315e-01,5.423796823397613860e-05,-9.919845363771742381e-04,-2.303114496146142277e-04,3.301238641142845154e-02
2.179669130197325333e-01,2.179476632633581268e-01,2.437131786285806068e-01,-8.960834821800888611e-03,-5.962259702326377746e-03,-6.079735797784668362e-03,3.349315002560615540e-02
2.348182288748220381e-01,2.341347115440990667e-01,2.348022117295547329e-01,1.207831370101334701e-03,-9.508839172051189535e-04,4.765056371558620395e-04,2.868237672373652458e-03
2.362749222431384521e-01,2.350494566397145491e-01,2.316900748400399501e-01,2.209054363836507155e-03,-1.185018766404216271e-03,1.793378437123201337e-03,6.738338619470596313e-03
2.296538907813957808e-01,2.319332177227894920e-01,2.449239972487935457e-01,3.404957269285899257e-03,-1.425870802475082133e-03,3.232503416561954054e-03,1.660703681409358978e-02
2.633434822643508366e-01,2.485198247148928397e-01,1.841224878042375390e-01,2.613511184016867068e-03,3.214438648249396671e-04,-5.321227860656072006e-03,7.366891950368881226e-02
2.325746209831486000e-01,2.315822117389597090e-01,2.420339565404896753e-01,1.116850249423255665e-03,-4.436804787961893355e-04,1.031551041739987460e-03,1.036225631833076477e-02
2.316874129400627036e-01,2.342272298940887010e-01,2.397492749724151051e-01,4.778641991997019172e-04,-5.424574505506038518e-05,1.571188133339702182e-03,7.685598451644182205e-03
2.092499224899689592e-01,2.279715952006094448e-01,2.584776107891629815e-01,-7.104347119214079152e-03,8.522215634675717666e-04,3.554538110902014450e-03,4.520774260163307190e-02
2.340944655302110433e-01,2.350193072914767423e-01,2.348532914510790826e-01,1.925845051228130005e-04,1.076988040011017194e-05,5.907025018617015257e-04,1.373957027681171894e-03
2.130699318946632226e-01,2.295266912740070164e-01,2.536972527377603925e-01,-1.368088002760172762e-02,5.558872600514116157e-03,5.004078471731737351e-03,4.452117532491683960e-02
2.324556918632384450e-01,2.350237417338741364e-01,2.368420991737504866e-01,6.913411567962842558e-05,-3.609051268793708484e-04,9.972050015061425729e-04,4.237839952111244202e-03
2.186241526589906281e-01,2.211084906255961768e-01,2.523489385022703591e-01,-3.401830011985566404e-03,8.145043211039131731e-04,2.987749261210834910e-04,3.311683610081672668e-02
2.230288180659911468e-01,2.251587121614678222e-01,2.500598224660957047e-01,-3.913055917518627400e-03,2.585586891359135334e-03,2.759250156930377531e-03,2.768520638346672058e-02
2.165331819612018038e-01,2.269127984284065314e-01,2.536332246463875451e-01,-1.995225813999669962e-03,1.058520769940180482e-03,1.749033935284155343e-03,3.351934999227523804e-02
2.297975433567331083e-01,2.288966930810944211e-01,2.488535790090284083e-01,7.303003417335236650e-04,-6.496376510467136113e-04,6.505675311167774099e-04,1.962769590318202972e-02
2.131867793569843794e-01,2.328042048788134810e-01,2.504650935459746264e-01,-2.924424461642808736e-03,2.598462947078251494e-03,5.248068106238419801e-03,3.423084691166877747e-02
2.438703145604839695e-01,2.111808708635761200e-01,2.289868212960242677e-01,-2.946714116930900743e-03,-5.862757796702580335e-03,-4.898790049382718489e-03,3.169770538806915283e-02
2.271351019866660881e-01,2.343568620005779535e-01,1.976740062639734119e-01,-2.159793893647168547e-02,-2.692127370213216048e-02,-2.475212684926311399e-02,8.089840412139892578e-02
2.495934647032108933e-01,2.201080856831942045e-01,2.217563745813869447e-01,-2.405325061202491250e-03,-3.250845741848524921e-03,-4.938295721341485339e-03,3.075264394283294678e-02
2.497472887521091645e-01,2.281852090252205201e-01,2.124336319586869470e-01,-4.681705219383919432e-03,-4.870921952599607981e-03,-1.396770921221455498e-02,4.212950915098190308e-02
2.509000737530711622e-01,2.155916838447864692e-01,2.281188143910647670e-01,-6.437489482078691434e-03,-7.146973804401924452e-03,-1.204405306107399556e-02,4.091500490903854370e-02
2.461681715464364983e-01,2.181410640062310669e-01,2.219648706949779726e-01,-1.536468543012214005e-03,-3.283951788275748726e-03,-3.453252000278521968e-03,2.771606110036373138e-02
2.451138085604054884e-01,2.082253966547173429e-01,2.380688472494633667e-01,-1.603055153909471731e-02,-9.124339873388577146e-03,-2.317551523750603984e-02,6.150218844413757324e-02
1.266421018068862037e-01,3.389141594919419243e-01,3.212924239115937941e-01,4.659889203904240412e-02,4.801391723728665878e-02,5.192033218876952738e-02,2.512904405593872070e-01
2.391807641817065011e-01,1.933955877281772484e-01,2.510031336424041193e-01,-2.655452441798024713e-02,-1.274675104492734197e-02,-1.737296453567705942e-02,7.928220182657241821e-02
2.133522310611032646e-01,2.446174824217740296e-01,1.862241823243941663e-01,-5.732996695477731580e-02,-8.536686094105107314e-02,-6.507385596115432269e-02,2.167674154043197632e-01
2.196782026942465937e-01,2.199420136791258584e-01,2.546778843156236039e-01,-6.074814619565986618e-03,-1.254899869471576192e-03,-2.876810570133431829e-04,3.648968040943145752e-02
2.034751560565352113e-01,2.003269202844205066e-01,2.432279234153911784e-01,-8.688494471731099400e-02,-8.078018190331376358e-02,-8.714176594663232411e-02,2.583015561103820801e-01
1.847330496217816920e-01,2.373818730316772652e-01,2.788281235734373364e-01,-5.177379404475530161e-02,-2.484373317948083623e-02,-1.270971993129330589e-02,1.305741518735885620e-01
2.672514918644975368e-01,1.328982459970702024e-01,2.757566179631979475e-01,-1.612208386030585666e-02,-6.173891177364173623e-03,-2.315344463593003652e-02,1.475404500961303711e-01
2.697427950368264105e-01,1.834163322348035807e-01,2.682476416516225703e-01,5.412334164116118680e-03,4.008493791540631776e-03,2.405103511073963113e-03,8.648040145635604858e-02
2.654206279421603698e-01,1.689938262682826042e-01,2.673188500189557781e-01,-1.561731209636030120e-03,4.549280660343083980e-04,-7.192443372914675455e-03,9.822373837232589722e-02
2.186056405973192396e-01,2.536570905110867580e-01,2.231374207883166649e-01,-1.150432451153103489e-04,-1.357641227366124118e-03,9.116163729569002477e-04,3.314148634672164917e-02
2.686687161027530024e-01,1.800065684133602129e-01,2.714487620869542872e-01,9.308866371702216591e-04,6.473330913622633506e-03,6.901367562528968116e-03,9.157722443342208862e-02
2.282501455900194931e-01,2.411455445502395378e-01,2.178457726698466435e-01,-4.721114125464246844e-03,-1.539020171534972526e-03,-1.264323893676674903e-03,2.207892388105392456e-02
2.792446948521106753e-01,1.608674719507839912e-01,2.938426160769752049e-01,-2.312641598508381746e-02,1.095186071765769445e-02,1.189978479831144825e-02,1.354380548000335693e-01
2.611901564585021318e-01,1.647028906373762536e-01,2.671160191290977148e-01,-2.272714880578697964e-03,7.109481923342330506e-04,2.118991829266086112e-03,9.973545372486114502e-02
2.186265433227325972e-01,2.512596734100164819e-01,2.209937431815743591e-01,-4.983869445966930415e-04,-8.722991001983525358e-04,-7.818652198908235089e-04,3.159331530332565308e-02
2.655438456884283704e-01,1.718166279793901796e-01,2.691100792089825555e-01,-7.642294441844719663e-03,3.829931604824452634e-03,-1.731906921486899877e-03,9.674698859453201294e-02
2.239532129185893838e-01,2.497035694057390953e-01,2.268405388982806803e-01,2.968351963362069628e-04,-4.099573653974719015e-04,2.233706539563766295e-03,2.475489303469657898e-02
2.258326666337132083e-01,2.316733083976673657e-01,2.487077370386442665e-01,2.799854871226893638e-03,-6.983862213764008850e-04,3.206551719181408196e-03,2.189985290169715881e-02
2.682403152559425519e-01,1.724003017689698380e-01,2.663313923267888184e-01,-3.376750342904921449e-03,2.714189219000526145e-03,-7.103328279094249346e-03,9.598791599273681641e-02
2.511121858132150386e-01,2.192304720236760707e-01,2.366126104153795928e-01,2.080217857938497679e-03,3.133490250192530382e-03,1.724673832826679500e-03,2.856171876192092896e-02
2.377386015401118657e-01,2.303079989645551717e-01,2.334404597153230954e-01,-8.760441025570935448e-04,3.554455781480694160e-03,2.246313812406118288e-03,9.853562340140342712e-03
2.445233185147273336e-01,2.277961395946823397e-01,2.288970154776578947e-01,-4.233439641763209714e-03,5.532965372496319312e-03,7.753299329727882105e-03,2.425992488861083984e-02
2.477534678918683897e-01,2.302700940646709438e-01,2.323528572099605727e-01,-2.010842976082572071e-03,2.610173161022623541e-03,3.921314511966506045e-03,1.876944676041603088e-02
2.368059298361626375e-01,2.339363484402859072e-01,2.328619033760288837e-01,8.129049104838809246e-04,-4.622009925857917300e-04,9.402395591946778132e-08,3.885288955643773079e-03
2.394309213290077565e-01,2.227540849164161840e-01,2.402175209883790352e-01,-1.686217874723153123e-03,5.545434239019955865e-03,2.229381349750546998e-03,2.018785662949085236e-02
2.455314063337533936e-01,2.305871668120633711e-01,2.328999264327794583e-01,-2.159565693287224947e-03,3.240738907995365046e-03,4.474689053543485194e-03,1.731137186288833618e-02
2.085401464135348826e-01,2.254131355035252360e-01,2.500656970451499705e-01,-1.482056115474373464e-02,-6.007224954885626543e-03,-6.313848864645360895e-03,4.685307294130325317e-02
2.341743501970176278e-01,2.343030031794134660e-01,2.343290394465463167e-01,2.626242502075479160e-04,-5.285309472684339774e-04,2.713317593138905534e-04,1.134191872552037239e-03
2.291638162306935400e-01,2.303077065369384113e-01,2.466153730639701891e-01,2.022351620011008115e-04,-3.940662527181209977e-04,9.395353126337711077e-04,1.700409874320030212e-02
2.256914341160785042e-01,2.228295924014492280e-01,2.391834453727978149e-01,-1.793691902896218330e-03,-3.937049632529598768e-03,-1.522946490535982125e-03,1.708647608757019043e-02
2.302624120693454179e-01,2.274110289126317630e-01,2.311243709713405037e-01,-1.941244347334814078e-03,-1.732926289683911925e-03,-2.275246436566166763e-03,6.868461612612009048e-03
2.318079778894973075e-01,2.227823354855716087e-01,2.408461840199405679e-01,-7.496751647193709497e-03,-7.577835702219150663e-03,-6.810562756474266947e-03,2.692123502492904663e-02
2.278327664993250457e-01,2.443469253515879736e-01,2.268182247501545068e-01,7.096066434178471003e-04,7.250133723629483560e-04,4.195125189933078882e-04,1.714982651174068451e-02
2.487061499440155754e-01,2.444797039611522060e-01,2.151866081161582234e-01,6.142518912687676760e-03,-1.785965105684945205e-03,2.743780582987060887e-03,3.383931890130043030e-02
2.142198898185765366e-01,2.250235884544650733e-01,2.522748845915406268e-01,-2.245726873234201500e-03,-1.109999905978226436e-03,-3.233975167632813057e-03,3.469826653599739075e-02
2.174557264971836434e-01,2.209585156007635443e-01,2.464122407003036808e-01,-4.138839230697789057e-03,-2.208873364734829665e-03,-3.426610373909491983e-03,2.916458435356616974e-02
2.101317576021015932e-01,2.289196200788887470e-01,2.436491123659162705e-01,-7.375039685787799712e-03,-1.852423564588199286e-03,-8.060034874957867218e-03,3.485739603638648987e-02
2.318071292144370243e-01,2.386108492770877831e-01,2.305999907940505522e-01,5.115531797561587287e-04,6.604531597911702861e-04,3.444210772954466558e-04,7.642666809260845184e-03
2.303822444088168553e-01,2.390210587290960143e-01,2.202702094235182151e-01,-3.533599270217184247e-03,-1.239995155439202338e-03,-1.180150718962369059e-03,1.762067899107933044e-02
2.019648262717513298e-01,2.608006365848519748e-01,2.626236452192203252e-01,9.089318089994968819e-03,3.711819172821464487e-03,3.049509951647200873e-03,6.236435472965240479e-02
1.883313308233858230e-01,2.576437459131341590e-01,2.590194949474907138e-01,2.404177810687660628e-03,-1.717316869162704897e-03,4.117603828475579000e-03,7.055857032537460327e-02
1.555030783078718559e-01,2.803947219728577522e-01,2.834360746594815073e-01,7.869046317818692571e-03,1.802440843355090916e-02,1.883330286421767974e-02,1.349499672651290894e-01
2.339386119380288120e-01,2.353535107776352497e-01,2.336335576671197123e-01,1.664304911872873131e-04,1.372868393844051084e-04,2.336188663635990780e-04,1.682257861830294132e-03
1.642284100724761831e-01,2.695155109174282582e-01,2.709818965084694331e-01,-1.254445550355944928e-03,1.988570089071672615e-03,6.530854473384153924e-03,1.067073345184326172e-01
1.782047486117901425e-01,2.625335126540362385e-01,2.669837480918758610e-01,-6.451600435165602380e-04,2.705820295632789790e-03,1.101673972528925292e-03,8.679448068141937256e-02
1.787593338371590845e-01,2.664949333864679581e-01,2.640202606815285624e-01,-2.492329482886475756e-03,1.274003039709918628e-03,1.910842163141445067e-03,8.672370761632919312e-02
2.383584343665193228e-01,2.315927364326787197e-01,2.317902573124393795e-01,1.882176010606917687e-04,4.968072422758865701e-04,3.520326729404583553e-04,6.759868934750556946e-03
1.908518900804851981e-01,2.561774103837731187e-01,2.636656589221892388e-01,1.064360527614407548e-03,9.044090715887369639e-03,4.620137349483756893e-03,7.159255445003509521e-02
2.485040369559469442e-01,2.103018741326087293e-01,2.401505486616662688e-01,8.679006796440048854e-03,8.745200620923604048e-03,-1.473004507304433858e-02,4.812897741794586182e-02
2.915428233169968242e-01,1.883855394310743891e-01,1.795942550144708494e-01,2.786540112829074753e-03,6.406692437580389422e-05,-9.733381308920595332e-02,2.001762092113494873e-01
2.341410138452037770e-01,2.358727469955851919e-01,2.374666759370906155e-01,6.210046800248130230e-03,5.056150193420458176e-03,-2.677296982692175045e-03,1.490609068423509598e-02
2.525619202474612690e-01,2.196483964973896252e-01,2.211559916999252251e-01,2.457817686760055886e-04,-5.270903451856952639e-04,-7.881170498157909947e-04,3.223089501261711121e-02
2.658337077847393592e-01,2.006330133986449771e-01,2.257481939194110054e-01,1.017944928293037544e-02,7.242744007410116536e-03,-1.968092495486884960e-02,6.981853395700454712e-02
2.188800629114733276e-01,2.459251569297096207e-01,2.270190500450916804e-01,-7.719798846001204250e-05,-2.129525123447544455e-03,-5.245393178214828415e-03,2.595622278749942780e-02
2.652730023471411847e-01,1.739182601433737763e-01,2.395643536322048239e-01,-9.804369783917668904e-03,-2.680855479744132658e-03,-3.160793062625586597e-02,9.982553869485855103e-02
2.475906951763423292e-01,2.411970345366314106e-01,1.928679021958282502e-01,1.820614452525168986e-02,2.432208442040582896e-02,-2.418641132322753989e-02,8.490944653749465942e-02
2.634657358437160202e-01,1.754152237654136026e-01,2.546452879178747186e-01,-1.554522329867805835e-03,3.030253499480007055e-04,-9.119654000463214144e-03,8.550483733415603638e-02
2.211862909597348825e-01,2.511712948182879823e-01,2.191770006210937705e-01,-1.215472325796810096e-03,-7.211057126229000226e-04,-1.388420958982281028e-05,3.113485127687454224e-02
2.472460400617953191e-01,2.290643159825392905e-01,2.246399811582613648e-01,2.473402513135491976e-03,1.953755914315471152e-03,-3.015209934508269844e-03,2.208327315747737885e-02
2.379985983104187797e-01,2.321098963069147814e-01,2.334342642820218527e-01,8.010813131443287553e-04,2.093860863749705779e-03,1.209729799613620811e-05,6.611380260437726974e-03
2.694336057158684961e-01,2.495615245340877530e-01,1.927416649234383328e-01,1.192863385020458480e-02,2.438741105082927602e-02,-3.145566279235983975e-02,9.965949505567550659e-02
1.746117848902994374e-01,2.558038186956293480e-01,2.627793614316682458e-01,-2.544767725114146367e-02,5.376432182040225341e-03,8.386269738176455740e-03,9.719888120889663696e-02
2.463166274429254010e-01,2.214173537855639307e-01,2.207383503445545792e-01,-1.138701909385569661e-03,-1.849614821925931688e-03,-1.519926048340841315e-03,2.565979771316051483e-02
2.282945116415021902e-01,2.463874826650401806e-01,2.165354983867824878e-01,-3.382282562708976113e-03,-2.255867639713549002e-03,-1.405978771558972096e-03,2.709062770009040833e-02
2.446311774075817791e-01,2.206600272008467645e-01,2.401246812959637045e-01,1.795935051830787081e-03,5.679787280193746186e-03,-2.078479952057602723e-03,2.462346479296684265e-02
2.520365896587384857e-01,2.196709410214169045e-01,2.310550635288024790e-01,1.056512884153683763e-03,3.764852024121237081e-03,-2.057648676158237069e-03,2.944913692772388458e-02
1.396842112664556379e-01,2.112652181157587683e-01,3.699523836055453874e-01,-9.079290386681324043e-02,4.226867267743085466e-02,3.936549478786186690e-02,2.764115631580352783e-01
2.339337069480083020e-01,2.341123696376309626e-01,2.348755930148211379e-01,-1.142814099877137403e-03,6.338981774254375499e-04,5.125005237401051477e-04,2.581145614385604858e-03
2.226267079404160854e-01,2.305876928708611995e-01,2.507993873249398376e-01,-1.999901681244313240e-03,-1.625819901810977809e-04,4.157110881777018908e-03,2.639541029930114746e-02
2.288294447133667475e-01,2.295918912987892913e-01,2.505470190721380552e-01,8.985891042551012817e-04,7.307040806564012517e-04,4.729002047381683158e-04,2.145625650882720947e-02
2.225953985914383149e-01,2.342531608677734523e-01,2.451662235025537928e-01,-3.331536863299755860e-04,1.075187312464371235e-03,4.831177033424244142e-03,2.135514281690120697e-02
2.410376120982470893e-01,2.297564942226425766e-01,2.297810088161340025e-01,2.608150113798375722e-03,1.827937970639791597e-03,-1.490386889495008260e-03,1.280948240309953690e-02
2.302875482159884302e-01,2.412683252988383209e-01,2.354368634073099598e-01,1.155942329909257979e-03,1.216656080759419539e-03,-2.287900633951246796e-03,1.070991437882184982e-02
1.949733820071476720e-01,2.346735213998231984e-01,2.610659571863376271e-01,-4.213279891534509741e-02,3.470257104779743418e-02,7.588745737061694703e-03,1.114967986941337585e-01
1.573923028281017100e-01,2.977566461696369293e-01,3.247943775699804747e-01,8.047762528282435823e-02,5.448441149722178800e-02,4.398232344769044400e-02,2.415931522846221924e-01
1.990536682842274363e-01,2.164622928398011736e-01,2.409470150048027559e-01,-4.205167533314761036e-02,-3.520388037862387520e-02,-3.030271254480140786e-02,1.144837960600852966e-01
1.494438712850452988e-01,1.764003157809475031e-01,2.960179214026972261e-01,-1.119131666349748033e-01,-2.017255746059871263e-02,-1.876304533404616476e-02,2.410603910684585571e-01
2.247181953931802478e-01,2.243955441461331080e-01,2.470528480620129141e-01,-8.872623379509224015e-03,4.729785222166350660e-03,4.094341094053579634e-03,2.932099811732769012e-02
1.926129051196430741e-01,2.102823882626808361e-01,3.111251434652727577e-01,-1.137119146353178234e-01,-5.786457402314799936e-02,-5.943991028418842137e-02,2.677662074565887451e-01
2.008488376680248877e-01,2.208301943777257748e-01,2.701586912479380653e-01,-2.430741342245571618e-02,-2.216323203867067403e-03,-3.031649786721451957e-04,7.487168163061141968e-02
2.501066322849100354e-01,2.241748565547475036e-01,2.264071886907061959e-01,4.889533634520449147e-04,2.004741739885813629e-03,-5.469053439650446886e-04,2.516393177211284637e-02
2.353561388861545034e-01,2.350419196583837522e-01,2.334362740379206380e-01,8.016379133808454677e-04,2.844564049430288043e-04,-3.211932480794563367e-04,2.379383891820907593e-03
2.038709501769491450e-01,2.479830442660230783e-01,2.608543535531593904e-01,8.721894731122102964e-03,5.505596728215782568e-03,1.164178390262713293e-03,5.479546263813972473e-02
2.363902064300064665e-01,2.330407051591883993e-01,2.335990847888191890e-01,2.569350352806325146e-03,1.647373968097147305e-03,-1.946314828423907368e-03,6.997948512434959412e-03
2.383185898629777699e-01,2.340902376522387696e-01,2.313173998786024199e-01,2.441297938206828892e-03,6.813384973587465008e-04,-6.115712710409142302e-05,7.521689869463443756e-03
2.383268700345547442e-01,2.342544392989429625e-01,2.318251161658416715e-01,1.469852484780814024e-03,4.916508215867121260e-04,5.481895990131251594e-04,6.362990476191043854e-03
2.534177394962335850e-01,2.093760473003737355e-01,2.381382000431992996e-01,1.263712042569543762e-03,5.389841110630500670e-03,-3.868847847190322146e-03,4.046040400862693787e-02
2.222840587232793597e-01,2.350267756778831041e-01,2.522888562466190643e-01,2.796942157847999173e-03,7.892994138745225777e-04,1.142282211782825758e-03,2.663783356547355652e-02
2.357348432364704538e-01,2.341402505710106496e-01,2.346161899595947120e-01,2.424930258138665987e-04,-2.104748541338086635e-08,-3.401437936952351852e-04,1.591796637512743473e-03
2.395580793697225652e-01,2.326999278815307937e-01,2.330528364122887997e-01,2.474984194737703345e-03,2.718466265867879039e-03,-1.383665613903666469e-03,9.540906175971031189e-03
2.412357307521114103e-01,2.296586220513258947e-01,2.305762755542027642e-01,7.437851853454143175e-04,1.686590974024785488e-03,-3.483856110343020330e-04,1.161056850105524063e-02
2.385166769855179281e-01,2.311877998683092295e-01,2.333405055625432933e-01,6.221294903605834297e-04,1.856054192971032159e-03,-5.277324622788269210e-04,7.409528829157352448e-03
2.283346787799359623e-01,1.880675397691906059e-01,2.636384101346476161e-01,-3.445931545544286129e-02,-1.677374148619700800e-02,-2.118130401421027334e-02,1.002084240317344666e-01
2.182597315903994639e-01,2.275682181026059403e-01,2.411521601017863614e-01,-1.141813143891028419e-03,-1.708893322874539562e-03,-4.771225991454233414e-03,2.187654748558998108e-02
2.139575530064511955e-01,2.158016033950771462e-01,2.493604375869685474e-01,-1.139337937136160848e-02,-4.735423480538290472e-03,-4.728945098308784747e-03,4.141580313444137573e-02
1.968234243173082876e-01,2.447826102162940498e-01,2.561865727600333154e-01,3.522794194492087031e-03,-2.447134357609371050e-03,4.690747797766836417e-03,5.566204711794853210e-02
2.514031841276338497e-01,2.296040730258768758e-01,2.278894096409738446e-01,7.139007874596675195e-04,7.013257927649276359e-04,8.485625862680775669e-04,2.281850576400756836e-02
2.520327197359705229e-01,2.159495476679527126e-01,2.211034200286297047e-01,-9.778515539802838056e-04,-3.503801392243928816e-04,-2.395948287735691785e-03,3.410349413752555847e-02
2.528701992829103240e-01,2.306632137644550051e-01,2.294742866353410848e-01,1.979722752052499434e-03,7.955854222157644328e-04,5.972058424479730586e-03,2.533020824193954468e-02
2.495665714751381381e-01,2.241179406442971866e-01,2.228895716967465024e-01,5.966461017888410748e-04,2.189398266742268877e-05,1.794797090306013692e-04,2.610685862600803375e-02
2.198249652094923234e-01,2.511738182887287008e-01,2.429698069836344065e-01,2.080897637136625532e-03,4.196988873172254574e-03,-1.451951165076341692e-04,2.930474095046520233e-02
2.495897061803721284e-01,2.307542899000176173e-01,2.280267824988566061e-01,1.492678512892986215e-03,3.166264975266933740e-04,8.447750470488319275e-04,2.055995911359786987e-02
2.408807724955977503e-01,2.357277928008894019e-01,2.270841128456132785e-01,4.589923818338742349e-03,3.920230381600747771e-03,-5.959105447344567770e-03,1.901701278984546661e-02
2.747644738156162503e-01,1.359807271925195238e-01,2.843268197959539223e-01,-4.314121452105344062e-02,-2.133462139134742822e-02,-9.225576471610881513e-02,2.305684983730316162e-01
2.509074581093928558e-01,2.304938617061549067e-01,2.249297483605456338e-01,2.051146495442038743e-03,-1.479970027982665008e-04,3.731814147465082644e-03,2.481379546225070953e-02
2.330803781202590852e-01,2.358309437234455685e-01,2.389908368157531715e-01,2.200825156536234499e-03,1.851832238732256924e-03,-1.869413709262851900e-03,7.845055311918258667e-03
2.524009510615550789e-01,2.189527750778819115e-01,2.232946042913589446e-01,-4.764427564235224413e-04,5.302152595909677722e-05,-2.121394781565629026e-03,3.172689676284790039e-02
2.397396791782701875e-01,2.333357775707725623e-01,2.335839265944193444e-01,2.529921138746506985e-03,3.006999920838932232e-03,-1.835112122105335246e-03,9.793517179787158966e-03
2.334878832085449107e-01,2.287041489959127372e-01,2.366052794493737066e-01,3.403412227542904414e-03,3.871301357572447081e-03,-3.464627863827942408e-03,1.277640648186206818e-02
2.371566307502302462e-01,2.302399668818699008e-01,2.370339539878045243e-01,7.836226205682283010e-04,3.653676862061796746e-03,-1.075397664025864314e-03,9.610747918486595154e-03
2.353885950157772744e-01,2.327795918385295315e-01,2.360524103314234623e-01,1.329529854247353711e-03,2.338119482675201505e-03,-6.264790999932257120e-04,5.644486751407384872e-03
2.518482900757945675e-01,2.306569034726154710e-01,2.193772843972288389e-01,4.444563015253322376e-03,9.963227280903271844e-04,-1.128510881701385834e-03,2.968832105398178101e-02
2.303043366730877506e-01,2.417592999372560059e-01,2.360577654697942340e-01,9.815348890903708226e-04,9.955713553578234617e-04,-1.745538760061535232e-03,1.064975373446941376e-02
2.352558919675414861e-01,2.246101012053718926e-01,2.544875150398413499e-01,4.014085575511741610e-02,3.806593238891108760e-02,-1.861531451437949125e-02,1.044434010982513428e-01
2.256640707875427476e-01,3.008153161142831933e-01,1.982647223913378554e-01,-4.703564732277219253e-03,-5.927331258039703066e-02,-9.834830987185115905e-03,1.391188204288482666e-01
2.370202407888985507e-01,2.686610953927465739e-01,2.031260226773681510e-01,8.448055456380861375e-03,-2.512670413632488511e-02,9.822105377866326148e-03,7.496657967567443848e-02
2.341594240642606017e-01,2.683530941029387273e-01,1.963687567943550039e-01,9.470982291513403012e-03,-1.901152885886012167e-02,6.734536648310699564e-03,7.334179431200027466e-02
2.365620786295488109e-01,2.596334586221108465e-01,1.959558328202104516e-01,-4.787344389131489636e-04,-2.162827121399887170e-02,-6.670895602826024812e-03,6.823147833347320557e-02
2.407796528254844137e-01,2.642915760648601453e-01,1.790800876472137260e-01,5.571229519560991911e-03,-3.460061196664421940e-02,2.863771767069417731e-03,9.756869077682495117e-02
2.245756352480648976e-01,2.674096065686220047e-01,2.212981423596394048e-01,4.236111860323025363e-03,-2.508793034672726283e-02,8.336866330722381840e-03,6.431512534618377686e-02
2.314256717084475778e-01,2.757848365790674383e-01,1.874733654430478791e-01,1.599514534826755596e-02,-5.059724096185654052e-02,3.259252298175826720e-03,1.197032704949378967e-01
2.199861239227614007e-01,2.591126493588325475e-01,1.958420820590294764e-01,-4.861428784809248074e-03,-2.408407923859570351e-02,-6.743349064049278946e-03,7.075266540050506592e-02
2.932707580475417131e-01,2.921196581209828391e-01,7.331606932405265731e-02,1.799048828237807471e-02,3.291095175867899542e-02,-1.128620400514532447e-02,2.296316623687744141e-01
2.860020379852190597e-01,2.887574131796656340e-01,1.740118745443828552e-01,1.167922255255297512e-02,3.193399392737196474e-02,1.061841551307556378e-02,1.290920972824096680e-01
2.825429696138151425e-01,2.786909786584939042e-01,1.763316166556627707e-01,2.518780353461407343e-02,3.061012718370019481e-02,4.166847522585768494e-03,1.251114159822463989e-01
2.599574317446586846e-01,1.798702311548370791e-01,2.469438910940738585e-01,-4.641298574966886033e-03,-1.317038858934328153e-03,-6.873267578670097695e-03,7.584621012210845947e-02
2.696838048099276519e-01,2.734054233862005523e-01,1.888314525452827186e-01,2.044841208555598158e-02,2.728175075982326031e-02,-1.931656233330664510e-02,1.070445626974105835e-01
2.569536585808961937e-01,2.845666719565924097e-01,1.755516395087017845e-01,1.504340621434425984e-02,7.769243499085881632e-02,1.104521709681343528e-02,1.696754842996597290e-01
2.506286774190351618e-01,2.166522278731459195e-01,2.212602028594018999e-01,-1.646775271384754791e-03,-3.563012772065254560e-03,-3.480341615513186503e-03,3.319079801440238953e-02
3.426759837682813448e-01,3.169434557025735955e-01,1.404839409292542030e-01,5.652324836247177298e-02,9.432346893592279125e-02,-3.016086961673196398e-02,2.744909524917602539e-01
2.527756269915806819e-01,2.202688837224462126e-01,2.171312971589939578e-01,-5.491997348131000137e-04,-9.226445314794149734e-04,-1.864010233080008565e-03,3.438615798950195312e-02
2.480605067322454449e-01,2.153582792286791725e-01,2.264984371752346015e-01,-1.700928462599158187e-03,-3.706075716227812816e-03,-3.034603803863946628e-03,3.011215291917324066e-02
2.619182607792434059e-01,2.743650165632556259e-01,1.734626394653400738e-01,1.028110578489184641e-02,1.463804064446893802e-02,-2.661756498386003839e-02,1.102982684969902039e-01
2.922002263420253598e-01,2.708970854174047593e-01,1.721286959720810805e-01,8.558878782344589084e-03,1.358902298965572290e-02,-2.928202026746443837e-02,1.251365393400192261e-01
2.976967012666652534e-01,7.312729547194696256e-02,2.843975753524536909e-01,-2.514907031571347526e-02,5.654939538057743645e-03,-6.069384706356047154e-02,2.463053017854690552e-01
2.281422765570046696e-01,2.268633626106393575e-01,2.472783192459879487e-01,-3.778006777719522015e-03,3.447811559329870459e-03,3.434674375198288210e-03,2.249822765588760376e-02
2.697366432021853777e-01,1.612373247240213026e-01,2.542234512707403637e-01,9.335673825215981547e-03,1.069793769960113682e-02,-2.640350025187328947e-02,1.141307428479194641e-01
2.944064541762926313e-01,1.051506832198208508e-01,2.764616639516132013e-01,2.650552497872012483e-02,1.173280250408528270e-02,-5.616385569602135724e-02,2.114884108304977417e-01
2.987823143541884496e-01,6.481832020887273726e-02,2.876404133470205071e-01,5.138013404157378006e-02,2.798571497647410478e-02,-2.374655016187880718e-02,2.534117996692657471e-01
1.245426749059638100e-01,2.461436934572688029e-01,3.164536314473231915e-01,-9.496631064884737683e-02,6.483037582072812346e-03,-1.797497729785292597e-02,2.375526130199432373e-01
2.264648126493747082e-01,2.115596522524178513e-01,2.573621208086879220e-01,-1.336823649385482891e-02,-1.395050432756148517e-03,3.127827615798820914e-03,4.699632525444030762e-02
2.166802589586447336e-01,2.183125694191291322e-01,2.571024440619372742e-01,-2.668516164846406608e-02,2.257316389696630097e-03,7.906536685065052028e-03,6.252804398536682129e-02
2.213193801845017017e-01,2.179301949765467261e-01,2.520193302935601620e-01,-1.790329169140030983e-03,-4.239725648489666983e-04,-7.345150260848837482e-04,3.270772099494934082e-02
1.910677227173235848e-01,2.382174455318723238e-01,2.580204722340538326e-01,-9.099086044215333804e-03,-1.871376447090424694e-03,-9.010730135890407649e-04,6.172750890254974365e-02
2.386448710349869939e-01,2.238808186777056231e-01,2.231669326274564047e-01,-9.282456881245756183e-04,-2.151035516407910717e-03,-6.898462921078059697e-04,1.571369357407093048e-02
1.902863495667277971e-01,2.447389857258456258e-01,2.635087490914474473e-01,-2.010607399052266597e-02,1.800472635526930787e-03,5.212040960169323639e-03,7.512283325195312500e-02
2.275032073278604738e-01,2.318332901731743056e-01,2.465630513474536545e-01,2.143359741972828292e-03,-1.048294455715192757e-03,2.892140614659599769e-03,1.848428323864936829e-02
1.946808853636070591e-01,2.379462564607980890e-01,2.542224055782231762e-01,-1.010654262409162521e-02,4.466175294490427015e-03,8.148568986220768376e-03,5.836491659283638000e-02
2.125998050074425216e-01,2.187374666093793441e-01,2.810316125578146140e-01,-3.514739643368019334e-02,1.095958195071032419e-02,1.219209301132722321e-02,9.387688338756561279e-02
1.902491809895994757e-01,2.382237061687505764e-01,2.593801527072285285e-01,-9.656277702373391655e-03,-1.202572504318604298e-03,3.932266220777782791e-04,6.362903863191604614e-02
2.575196704708742068e-01,2.568541771864877865e-01,1.872893692498919793e-01,4.373772038627722278e-03,-1.712710748805325789e-03,3.057385417038693213e-03,7.057076692581176758e-02
2.303335305580830328e-01,2.300895308931772965e-01,2.241883460397540717e-01,-4.366020790855677791e-03,-1.316460962818224003e-03,-1.288416027952189735e-03,1.018278300762176514e-02
2.644353356636520713e-01,2.645975094864974064e-01,1.748874726967736826e-01,8.383039536596453151e-03,-5.328768005338400081e-03,1.497789255271290629e-02,9.488094598054885864e-02
2.388316362873958154e-01,2.262104820973192820e-01,2.246006131904260128e-01,-7.760015421744904289e-04,-9.907122774528954404e-04,-1.517746322999826260e-03,1.392355374991893768e-02
2.609181887309467984e-01,2.425532122116239309e-01,1.914400739426421194e-01,-6.050576180672175008e-02,-7.940904808403918824e-02,-9.019650852840320476e-02,2.412363588809967041e-01
2.684534011933079056e-01,2.765524688682270971e-01,1.143735260560005129e-01,1.958923056720889011e-02,-4.381749990922573224e-02,3.346873678614076253e-02,1.879513412714004517e-01
2.282450486276483559e-01,2.383208415268033287e-01,2.202346857802207070e-01,-4.930267593752855372e-03,-1.737942419619075080e-03,-1.341457347581531158e-03,1.826966740190982819e-02
2.860636531151386497e-01,2.620067699724336063e-01,1.707004091928619460e-01,1.381396721657911220e-02,-6.550845368246831051e-03,1.021251898479611821e-02,1.101191937923431396e-01
2.296354570352750202e-01,2.255085843466110296e-01,2.316054471827448669e-01,-4.213217085940686212e-04,-2.942728848887450274e-03,-1.615712031319579793e-03,7.961464114487171173e-03
2.327434348803921749e-01,2.270427468468280974e-01,2.288543637190670610e-01,-8.104019425191850761e-04,-5.443320113231694176e-04,-1.180514745560456167e-03,5.700204055756330490e-03
2.348425536984374562e-01,2.252153503369797305e-01,2.256852690472274103e-01,-5.691204064368232153e-04,-1.318482161907658882e-03,-8.466515421420676979e-05,9.725648909807205200e-03
2.896082290484539024e-01,2.894540011248457057e-01,1.429789483630759250e-01,1.507590004384751908e-02,-1.694225344017444637e-02,9.184453325141093277e-03,1.525568217039108276e-01
2.722740690578601686e-01,2.948045923947669733e-01,1.521189843799174990e-01,1.468408553755664800e-02,-2.861323646501776410e-03,-3.086239879792711509e-03,1.354696601629257202e-01
2.558482411061970274e-01,2.684333954251885146e-01,1.750908300015171781e-01,6.222465997304892473e-04,-8.529760558204660392e-03,-3.201034727603535319e-03,8.914405107498168945e-02
2.441819701317569924e-01,2.295561221435620525e-01,2.313626876060632942e-01,1.901836066220402490e-03,-2.126090577350262401e-03,2.014396675635112422e-03,1.507785357534885406e-02
2.394654218486311770e-01,2.393953906650446439e-01,2.287149207743244816e-01,5.206845880279964249e-03,-3.966483554109803862e-03,7.028602640487466996e-03,1.978792063891887665e-02
2.257820575267154017e-01,2.293871078641177286e-01,2.322031688333667243e-01,-5.905905476064050950e-04,-7.326316199416163522e-04,-3.464997509091028056e-03,8.351879194378852844e-03
2.370230434246604068e-01,2.331406595843397711e-01,2.348579662782399879e-01,1.956844054876437713e-03,-1.527217529684614730e-03,2.263167062070341011e-03,6.723501719534397125e-03
2.449552454420007297e-01,2.323625764276474603e-01,2.297240206713233035e-01,1.924734241111212153e-03,-4.633623256540005510e-04,5.773747510175024919e-04,1.454378757625818253e-02
2.410353627935154508e-01,2.331675065504692501e-01,2.289562085724088647e-01,2.887208143844853178e-03,-1.175208815718407386e-03,2.002463240674598639e-03,1.240777689963579178e-02
2.259813837064155173e-01,2.538072450074521647e-01,2.134151347588666425e-01,3.971837213308980160e-04,-2.329944139567941431e-03,-7.619143206419696102e-04,3.606045618653297424e-02
2.934374229820967961e-01,2.958178453036623967e-01,4.197159308036799152e-02,1.344306687546642509e-02,-7.352129917879103235e-03,1.068962329888048512e-02,2.547281682491302490e-01
2.298472737004316757e-01,2.285028573288209464e-01,2.292618618108305251e-01,-2.606729240225298650e-04,2.803144303308263226e-08,-4.233441973282447046e-04,1.450736774131655693e-03
2.494251114358267685e-01,2.784648097104532871e-01,9.659667812750856453e-02,-1.160635661056262993e-02,-7.936448750570661292e-02,-4.552852647369007300e-02,2.327160388231277466e-01
2.299074931403139177e-01,2.317397440402089448e-01,2.446715762189704546e-01,4.860498708826055132e-04,-5.124727136654863352e-04,1.718973277257096781e-03,1.430541928857564926e-02
2.704266188980519736e-01,2.825240378409027975e-01,1.616749815578701899e-01,-8.799077932372546124e-04,-3.087110082065385591e-02,-2.414028547250792259e-02,1.337854117155075073e-01
2.553169686068731958e-01,2.563671226516440749e-01,2.031211764398673514e-01,4.869835721882913131e-03,3.628069259270502896e-03,-9.232323836569533010e-03,5.609508976340293884e-02
3.241000185381820442e-01,1.472426929636505566e-01,2.513113263464658020e-01,-4.206979191569418242e-02,-2.096526891416613039e-02,-9.284726982920764315e-02,2.370518296957015991e-01
2.733716104190900276e-01,2.673864941779299231e-01,1.510214314952293413e-01,9.949215696183028729e-03,-1.174585259894765123e-02,-2.974972363971867262e-02,1.328122764825820923e-01
2.313854051733736372e-01,2.264645290376331166e-01,2.439848417797289559e-01,-2.000649251203688236e-03,4.235066548003653744e-03,8.851889399403006916e-04,1.769539341330528259e-02
2.416952679776479540e-01,2.246633715410459031e-01,2.258261235901206920e-01,-3.311366078692576809e-03,-2.434958789426341225e-03,-3.138404052188231621e-03,1.875806041061878204e-02
2.808155420490013876e-01,2.706963813849487255e-01,1.583129439638629732e-01,4.536947607878986238e-03,-2.863611958851120746e-03,-3.444533699200919702e-02,1.323459744453430176e-01
2.346602583295387123e-01,2.317569581821272706e-01,2.368414998946683225e-01,4.525112662663425839e-04,1.161795475894669130e-03,-1.121884886360353028e-03,5.287650506943464279e-03
1.985947814175305914e-01,2.480549434336935255e-01,2.388099809245045613e-01,-3.446694925931211625e-03,-6.997002054504383207e-03,-7.080959888970407221e-03,4.906580224633216858e-02
2.272951436351151044e-01,2.267692942986679894e-01,2.355569377243468265e-01,-1.204389351748057398e-02,-1.040958815670392501e-02,-1.184292119286677568e-02,3.541027009487152100e-02
2.054823545386624817e-01,2.496747596920977641e-01,2.275165848075794972e-01,-3.944014950311811041e-03,-6.286316292306524597e-03,-6.863828084794927793e-03,4.208664596080780029e-02
2.089877732123127108e-01,2.365617193513609717e-01,2.402561635591613509e-01,-2.687157835818253498e-03,-2.944249014462365678e-03,-7.045892756304951605e-03,3.274818882346153259e-02
2.927704572484438050e-01,2.044469501869419503e-01,1.718885335130042602e-01,-7.818895965647490107e-03,3.245455970703640253e-02,8.246270688348553146e-02,1.883623152971267700e-01
2.500911584522090281e-01,2.196036159344944283e-01,2.287802810500513262e-01,1.056980835574981717e-03,1.702631818733801048e-03,-2.060614475052701712e-03,2.754477038979530334e-02
2.233108702471250373e-01,2.349101343777974527e-01,2.545990736646243091e-01,2.308368649090980929e-03,-9.610950691011704503e-04,3.058160393660182882e-03,2.823806554079055786e-02
2.365319548234570413e-01,2.241169563219202188e-01,2.482197681368471520e-01,1.150073998062023156e-03,4.541977302580543947e-03,-1.012283166656266801e-03,2.246713638305664062e-02
2.292459338947753222e-01,2.253586171027556206e-01,2.509030597364863557e-01,3.850203429195073537e-03,1.267668404502651813e-04,6.139389019253458941e-04,2.477865293622016907e-02
2.588819114974135749e-01,2.362813984522301181e-01,2.247259038525434294e-01,2.206310082778724802e-03,4.014321313646739171e-03,1.340958437406098054e-02,3.883131965994834900e-02
2.646084341998447553e-01,2.211373057483991267e-01,2.274704556432410041e-01,2.217094061033097335e-02,-4.541130662631748943e-03,1.735100465276975118e-02,6.398615241050720215e-02
2.533296957314159492e-01,2.296557080389040606e-01,2.247956850319865751e-01,2.044639137635820714e-03,5.063073302342218068e-04,3.203723666356323319e-03,2.726235240697860718e-02
2.225238529095201201e-01,2.304958531327201410e-01,2.441422549497036798e-01,-1.539994364341028092e-03,7.560822922996176046e-04,2.498239893660340796e-03,1.964992471039295197e-02
2.535160253019476673e-01,2.257127331155556194e-01,2.309325347367812975e-01,7.451852265749357761e-04,2.286205586315136120e-03,3.680014234531622103e-03,2.670422010123729706e-02
2.551532487552560235e-01,2.145703561080238297e-01,2.287851424933303179e-01,1.152596302138099731e-04,2.114549822048419209e-03,-2.819235857753969211e-03,3.618635609745979309e-02
2.650536495463664544e-01,2.061436958524242302e-01,2.516397749660847505e-01,8.503581635804460803e-03,1.884624512567800812e-03,2.139438304730239757e-02,6.678960472345352173e-02
2.564179032307165040e-01,2.145104125993797517e-01,2.194523406226430717e-01,-3.727386204467002858e-03,1.028381865545902746e-02,2.874001282644206637e-02,6.641139090061187744e-02
2.514917995064329670e-01,2.342457891072209919e-01,2.154517814046202906e-01,6.357816041679038334e-04,1.090671448638729554e-03,7.193385787047591219e-03,3.368645161390304565e-02
2.536649468706750898e-01,2.145037060687388086e-01,2.261360051355889855e-01,1.334835466711956119e-04,8.655344113286111160e-05,-2.789379472150360726e-03,3.516810759902000427e-02
2.289917264541991293e-01,2.267781636460813877e-01,2.439174076216329146e-01,-3.744208766182510620e-04,2.869068601568889113e-03,8.779948554571472821e-04,1.697476394474506378e-02
2.223564961932978645e-01,2.386016603826645321e-01,2.402823758476303750e-01,4.327878832016529738e-03,-2.097289635140696124e-03,6.511630735343275876e-03,2.215006016194820404e-02
2.442007837931231273e-01,2.258867572737685570e-01,2.338844792016779306e-01,8.012795209239902605e-04,4.614394845156998166e-03,-4.867943855225308116e-04,1.787208952009677887e-02
2.515826810283197101e-01,2.346285494404299066e-01,2.256574854259829899e-01,-4.741937027582761918e-04,2.192314406201424822e-03,2.045172659175274743e-03,2.340215072035789490e-02
2.401338524287652543e-01,2.384450568891595124e-01,2.023239073908623953e-01,-6.911759295676981989e-03,-4.248809940108215326e-03,-5.949546879812273384e-03,4.089323058724403381e-02
2.436300529493325984e-01,2.148564972251398864e-01,2.482032220698328906e-01,2.746818445995364167e-03,5.869497143030484587e-03,-1.861372340798316243e-03,3.341855481266975403e-02
2.520612313862272691e-01,2.160285147445585030e-01,2.265544340816593449e-01,-1.191411713014543534e-03,-1.660779914585032522e-03,-1.949786869253280260e-03,3.246247395873069763e-02
2.510475143916451324e-01,2.421554959650431826e-01,2.283068890058668754e-01,-1.032772696069190511e-02,2.163405209096714785e-02,2.999350942397777803e-02,6.940394639968872070e-02
2.376108225193400703e-01,2.217130766326447511e-01,2.277362311883625035e-01,-1.913721983034914927e-03,-5.344995307867534372e-03,-2.244448623498233094e-03,1.746621541678905487e-02
2.593823486672264811e-01,1.922287418897956901e-01,2.470056712923983377e-01,1.471521595202645574e-03,9.821738844923359572e-04,-4.109396189794128733e-03,6.238350644707679749e-02
2.155246354557828203e-01,2.380848161060536983e-01,2.295107630157859069e-01,-2.653213650587090897e-03,-3.109941838359594601e-03,-6.414046380953305863e-03,2.371914312243461609e-02
2.542272081189836941e-01,2.160567590609821509e-01,2.261611914275535040e-01,-3.148650047208346190e-04,-7.895892143237232029e-04,-2.117916099766084786e-03,3.448211774230003357e-02
2.130452633818970820e-01,2.586819927198527047e-01,2.239904895221012104e-01,-3.500788823720260307e-03,-1.542423712668247390e-02,-3.821563686385055607e-03,4.997304826974868774e-02
2.226167394696020041e-01,2.407110083022144797e-01,2.198118804511536573e-01,-5.901105362451458843e-03,-7.764904848237155419e-03,-6.088829157037430398e-03,2.797487378120422363e-02
2.261820746551664041e-01,2.411900739142714412e-01,2.242133368846103425e-01,-3.278726990030317312e-03,-3.727625481446693312e-03,-3.791786194118670905e-03,1.938379369676113129e-02
2.171886813123240223e-01,2.462855379462228211e-01,2.211480630039052153e-01,-1.377258723957066732e-03,-3.735587498330769293e-03,-3.177293984488042608e-03,2.872173674404621124e-02
2.100360299837408795e-01,2.458783068390051618e-01,2.259098384621101019e-01,-2.105815075058729662e-03,-7.726139727593624162e-03,-7.662317754403598705e-03,3.655420243740081787e-02
2.327695116489564009e-01,2.338243159205138366e-01,2.368675215918369659e-01,-3.565417542082378421e-04,5.564372689728115922e-04,1.103630293287953361e-03,4.306730814278125763e-03
2.917708899743380879e-01,3.017502055102105341e-01,1.332380104547700173e-01,-1.720909527339136227e-02,-7.598022663448937564e-02,-7.367907143766010136e-02,2.476036548614501953e-01
1.789371858529491544e-01,2.476038756228034210e-01,2.597892731369270680e-01,-7.229517235380370985e-03,-8.218447455597355233e-03,-3.013335409538431178e-03,7.801920175552368164e-02
2.306053884912826479e-01,2.213426911243379647e-01,2.391256350479055715e-01,-1.427101844538110733e-03,-3.520630575924709686e-03,-1.713653297132006377e-03,1.701225526630878448e-02
2.537696765820016687e-01,2.069249521118738944e-01,2.773739461289250752e-01,3.906515824326571573e-02,9.023427318291209892e-03,6.914843661904090076e-03,9.393240511417388916e-02
2.608698261284176367e-01,1.731088793297268502e-01,2.840856552499250176e-01,7.160471458176054238e-02,3.802927411099303254e-03,2.499162305962642286e-02,1.660639494657516479e-01
2.482432027888483717e-01,1.963418171832481685e-01,2.457096156845964829e-01,2.683527913265028667e-02,1.641272215284920316e-02,-2.005990447105395272e-02,8.212432265281677246e-02
2.941849711124499556e-01,1.475813943367086933e-01,2.723281254671066631e-01,1.976971503770030836e-02,1.173247006296803188e-02,-2.578396689268355052e-02,1.494856327772140503e-01
2.778186951403866511e-01,1.573814301122308246e-01,2.704527311889091679e-01,2.122331107728972488e-02,-2.065750904904785747e-04,-3.638034335894674114e-03,1.227329447865486145e-01
2.615865129438936787e-01,1.739859272653841438e-01,2.623670436951660578e-01,1.962609239286451646e-02,9.086258094915325434e-03,-7.172978531187905286e-03,9.643875062465667725e-02
2.548606417907326449e-01,2.460534921181416201e-01,2.038098716454231352e-01,-3.611473749970750893e-03,9.226730678995655535e-03,1.937743992487852077e-02,6.045756116509437561e-02
2.488013464864207991e-01,2.298608243713664845e-01,2.297408953515213959e-01,-6.238235199632476092e-04,5.018838233869166512e-04,6.190663840785296532e-04,1.908146031200885773e-02
3.120310786455774976e-01,1.414820199537025480e-01,3.396924602295206541e-01,1.170557368378168511e-01,5.122859225887636120e-02,3.771836721275827892e-03,2.891222536563873291e-01
2.291731351056052191e-01,2.292709868799969741e-01,2.283666901016879747e-01,-4.180396358318471208e-05,-4.644456836430483021e-05,-4.070580875071476510e-04,1.116979634389281273e-03
1.650176900657625012e-01,2.862283299484900123e-01,2.572510471775634189e-01,3.841334066448547253e-03,1.300769398307205504e-02,-2.173438511824897761e-03,1.121846064925193787e-01
1.297669759201592887e-01,2.667991017089867412e-01,2.714983960157919540e-01,-9.662622691605129988e-03,3.305153702654845893e-04,5.340758606885243585e-03,1.407474279403686523e-01
2.692796191632057523e-01,2.363028787492102434e-01,1.694127971075534977e-01,-2.045842927127258098e-02,-1.827427006796448344e-02,-4.198586807210819699e-02,1.237476989626884460e-01
1.557870431350134588e-01,2.660056274932173226e-01,2.845894737900467319e-01,-9.460551463343774142e-03,1.894719985218662472e-02,6.194966336355360766e-03,1.265006214380264282e-01
1.615196684686692752e-01,2.661446362891964346e-01,2.649133435004434878e-01,-7.132380077454513086e-03,1.257671716836782951e-02,8.015026065581144429e-03,1.078838780522346497e-01
2.506643920428475170e-01,2.561850683693325803e-01,2.362399859957325099e-01,-1.643400689878392329e-02,3.502800359336601804e-02,3.846648360729588989e-02,9.616807103157043457e-02
2.636868446876666772e-01,2.500835665788878059e-01,2.050819597249884385e-01,-6.671843885220891598e-03,6.972152256712564090e-03,2.793858720129634848e-02,7.377960532903671265e-02
2.750322097639820162e-01,2.491700492650088528e-01,1.505810893980934484e-01,-2.225233317116969041e-03,3.722057815532676256e-02,5.810355213366259070e-02,1.650375574827194214e-01
2.695299653363533166e-01,2.792063477968698693e-01,1.932924055132077545e-01,8.968977382098026335e-03,4.142295888540896420e-02,1.261120988540959630e-02,1.118460595607757568e-01
2.469399050972106990e-01,2.655138878574909156e-01,1.977151114779189256e-01,-8.816483698078464784e-03,4.001582686489012913e-02,1.350764800688519264e-02,9.626387804746627808e-02
2.364994704411719773e-01,2.290933948006255161e-01,2.408966937024857591e-01,6.918176116525925684e-04,3.872697434123290733e-03,-6.674158998810680778e-04,1.243049558252096176e-02
2.371810663724956414e-01,2.290920799975834365e-01,2.401304463947164236e-01,6.916797195444632403e-04,3.832293727695334183e-03,-6.675782607899390661e-04,1.203410606831312180e-02
2.441927289641797061e-01,2.206198793150217219e-01,2.381505241541916618e-01,1.808454608605764014e-03,4.505198601225618091e-03,-2.024317960533572689e-03,2.308140136301517487e-02
2.279052846800084242e-01,2.317634086837817020e-01,2.449234429551079006e-01,2.239257382296291551e-03,-1.187305610197227860e-03,3.211644115464040716e-03,1.700177974998950958e-02
1.956169547821715315e-01,2.050271129970531181e-01,2.816465843039345218e-01,-1.099532492406239265e-01,-5.099348837018216618e-02,-2.966284059355340716e-02,2.310625612735748291e-01
3.418932452677839740e-01,1.906845052949343589e-01,2.061021439941801148e-01,-1.152319998725919586e-02,-6.803973270681226183e-03,-1.016062588971165387e-01,2.286465317010879517e-01
2.079707598390827528e-01,2.701518388293605022e-01,1.877665307769356695e-01,5.882973217032261282e-02,-6.934657709607444653e-02,5.591258243905407321e-02,1.992970705032348633e-01
2.519941069226632191e-01,2.092893057658652411e-01,2.347570694616702425e-01,1.357746511326638535e-03,3.038446299049928686e-03,-3.650571022748336225e-03,3.818269446492195129e-02
2.551264691331959211e-01,2.016608980609717050e-01,2.346125310537311437e-01,-5.246814777757869645e-04,2.339057152819966280e-04,-5.622547996644185891e-03,4.773288965225219727e-02
3.209727972114271299e-01,1.608950501174782888e-01,3.201794913787252561e-01,9.503253141055241493e-02,5.471220267075003335e-02,-3.168380796188684928e-02,2.541337013244628906e-01
1.918051752428029944e-01,2.349637947024435514e-01,2.928890473656059479e-01,-5.894025477227037013e-02,-2.487572293605368190e-02,-6.736023799965748862e-03,1.418885588645935059e-01
1.989089683944662013e-01,1.831723769648104239e-01,2.463618056455940952e-01,-8.701719887619516203e-02,-6.532117734392560437e-02,-7.254853567669759806e-02,2.335649281740188599e-01
2.291847804772520480e-01,2.317571239736039845e-01,2.465786694082127972e-01,5.375670808060562618e-04,-4.060788653151117572e-04,1.627760283690979359e-03,1.654483936727046967e-02
2.020592111560599036e-01,1.933979862144744599e-01,2.648343787934896998e-01,-9.949020179892642535e-02,-5.231850494854938666e-02,-8.677271634875827200e-02,2.550579011440277100e-01
2.980997162394277145e-01,1.552910563306169334e-01,2.696601456020879528e-01,1.770659823510482411e-03,1.662904217122933292e-02,3.236855193507922474e-02,1.453404873609542847e-01
2.541973398657633720e-01,1.994792004258867379e-01,2.333911780097283895e-01,-2.536536403043047980e-03,-3.624030140998599388e-03,-4.690912466510223020e-03,4.912446811795234680e-02
2.479429828327386620e-01,1.941313020964894609e-01,2.542666018522867777e-01,-3.852709218305464152e-03,4.792979400682727611e-03,9.588377534114267062e-04,5.824238806962966919e-02
2.534000055468554891e-01,1.921691016290496545e-01,2.504898633938165142e-01,1.419999381785625380e-03,5.033646015019994056e-03,-5.317612358201242312e-03,6.120780110359191895e-02
2.660418103776311383e-01,1.658237815550939465e-01,2.635072563454666783e-01,5.996017510044453908e-03,2.197293316000855593e-03,1.229671734603585490e-02,1.018432006239891052e-01
2.622375179434596193e-01,1.805960252968380475e-01,2.562598692645264853e-01,6.061681050220322879e-03,5.366297271154456434e-03,2.034473743547824190e-03,8.013789355754852295e-02
2.626284022197333812e-01,1.968873821829585369e-01,2.585757513479667313e-01,2.830888033684391260e-04,4.344033029271332502e-03,1.058548750664462836e-02,6.681983172893524170e-02
2.433047793984960960e-01,2.100183874188236155e-01,2.527347087454573926e-01,2.985208980894087354e-03,2.977938671026255681e-03,-7.322912922185269768e-04,3.956947475671768188e-02
2.460809897364707732e-01,2.294574289558812263e-01,2.320226825347166677e-01,-2.678031388215115207e-04,9.995413601162771340e-04,6.205126736813947790e-04,1.564120128750801086e-02
2.485754046132229722e-01,1.993802165598883014e-01,2.333417791359608529e-01,-3.087449677123236310e-03,-6.477479400414189181e-03,-5.246744233281267801e-03,4.625866562128067017e-02
2.657267030659642981e-01,1.696486070453788741e-01,2.652408678052612379e-01,-6.212596451225058970e-03,4.555595519598016480e-03,-5.460801790995878542e-03,9.722175449132919312e-02
1.991486421116949734e-01,2.502218851178847903e-01,2.563470740263866787e-01,1.172674345499837706e-02,3.533500211820631530e-03,9.681936688213767586e-04,5.840929597616195679e-02
2.460835730432253676e-01,2.310456129809279058e-01,2.306834188620575654e-01,-4.393137727988335930e-04,8.136862268037861352e-04,8.568532839561490439e-04,1.537809893488883972e-02
2.573866166659424803e-01,1.191235715573221443e-01,2.708966984461154137e-01,-6.897325818332029901e-02,-1.576011820766823335e-02,-5.998718424341334399e-02,2.167477756738662720e-01
2.800436154806598132e-01,6.844694751673285893e-02,2.920118553574619913e-01,6.841379822907418806e-02,2.036213796923464284e-02,-5.091881881989514767e-03,2.506228387355804443e-01
2.376299807528431396e-01,2.139885155879542311e-01,2.374653355498814733e-01,-2.893919462626264993e-03,-5.589458043023416700e-03,-3.245223328207176485e-03,2.656121924519538879e-02
2.956739993843673919e-01,1.414575339500401818e-01,2.889486729708464763e-01,2.078264381626651267e-02,1.864285834506695244e-02,-9.428515625300242300e-03,1.593609303236007690e-01
2.511692766302470736e-01,2.067817428929975554e-01,2.622887896701810440e-01,1.481143345160557123e-02,4.118298601031212917e-03,-1.243076179656561623e-03,5.745534971356391907e-02
2.487030331060819943e-01,1.858844556474598952e-01,2.566965802627951820e-01,-4.734831622728043719e-03,-2.665364117558957722e-03,-3.260844900850692809e-03,6.806380301713943481e-02
2.769085282410918558e-01,1.390448631445640459e-01,2.901283897915810650e-01,2.235338885548058836e-03,1.649953096199033992e-02,-6.644369544245109713e-03,1.482154875993728638e-01
2.253073466067352648e-01,2.159008833120426851e-01,2.469162106297957127e-01,-2.654317091159094383e-03,-4.609424923120803742e-03,-1.735546942648537273e-03,2.919932454824447632e-02
2.070064575516213090e-01,2.110039544042675574e-01,2.803444675684232390e-01,-1.077490774234176746e-01,-6.013364179459877029e-02,-6.784361491646563602e-02,2.541403174400329590e-01
2.486843899666057178e-01,1.928753242750676500e-01,2.482898368821222779e-01,-4.573583103628794770e-03,-4.994123838333945284e-03,-4.402612353000218658e-03,5.734556168317794800e-02
2.695342238355404318e-01,1.460800485457087183e-01,2.683739067891953156e-01,7.753373877704874961e-03,3.931683306140655414e-03,3.407787616150549214e-03,1.239378526806831360e-01
2.677509395026165806e-01,1.674441298421694979e-01,2.613919897988680741e-01,1.243848399635778335e-03,4.666992594968249596e-04,-1.884859501517288215e-03,9.736528992652893066e-02
2.629092220336433083e-01,1.718011262501271674e-01,2.641512259562918130e-01,-2.097539760941070398e-03,6.755389204212164204e-03,-5.358690702121531209e-03,9.301417320966720581e-02
2.632772096751507251e-01,1.807971612385018967e-01,2.625503865460523389e-01,6.714645998802346374e-03,6.718525425058311830e-03,-6.138515392797337829e-03,8.442308753728866577e-02
2.234541214206077209e-01,2.192848915412170807e-01,2.535742701506494834e-01,-1.329082472668233639e-03,9.769931745126547631e-04,-1.744067186766259383e-04,3.253364190459251404e-02
2.685710117210071690e-01,1.828331988812151587e-01,2.639097034571701861e-01,7.156494384284994674e-03,5.862770876535965126e-03,-8.266855925980023598e-03,8.622548729181289673e-02
2.038298112951890395e-01,2.392210549326271862e-01,2.399503705273672571e-01,-1.520875283745394893e-02,-1.487721103013338320e-02,-9.728617249875230050e-03,5.404381826519966125e-02
2.210340851196466450e-01,2.219972848289233081e-01,2.450750120094687956e-01,-1.643150512483524490e-03,-1.815697111894386349e-03,-2.578223767856978235e-03,2.436533384025096893e-02
2.038744473365962095e-01,2.489234931037356269e-01,2.368907766181229946e-01,-1.358472210079918890e-02,-1.581163732231280136e-02,-8.851501263936486716e-03,5.631025880575180054e-02
1.906426481190758304e-01,2.491615620201999837e-01,2.355114016720695480e-01,-9.068789435529935744e-03,-1.158355798662297903e-02,-9.532602313415796183e-03,6.110543757677078247e-02
2.023569072896313770e-01,2.401862302143389083e-01,2.406579999444529439e-01,-7.086419820835083982e-03,-6.687646629548064936e-03,-8.886316027645497009e-03,4.439428821206092834e-02
2.640520631916300487e-01,2.523334004820368959e-01,1.768755790355350799e-01,4.436225668168251868e-03,3.589199245040415424e-03,2.027461107818611524e-02,8.970139920711517334e-02
2.567888695762666762e-01,2.657975294536385480e-01,1.832406536960726751e-01,7.246711861099996294e-03,-4.231694693348891576e-03,5.802599351571293210e-03,8.040735870599746704e-02
2.144599049575972582e-01,2.271857607683614722e-01,2.468725781852262879e-01,-2.542261192123187238e-03,-1.935427390378050613e-03,-5.222240976289187903e-03,3.020748496055603027e-02
2.222424790060565092e-01,2.343794860891569853e-01,2.505303697126244344e-01,2.728830723584976890e-03,5.913185079911793601e-04,-3.154686213612544913e-05,2.505140565335750580e-02
2.261065350238940508e-01,2.368007794269059718e-01,2.468044097709664042e-01,2.951411066060016970e-03,2.291081806700193124e-03,-1.334584797992653064e-03,1.920009776949882507e-02
2.831408030229844996e-01,3.589798351901923312e-01,1.065871520392801253e-01,4.842702771186157412e-02,-5.888718927839743655e-02,6.267604299888008927e-03,2.605165839195251465e-01
2.766314856418595203e-01,2.719158713022076790e-01,1.823439530245214435e-01,-5.399791807980363744e-04,1.428778985082034859e-02,3.276635830671352501e-02,1.109141632914543152e-01
2.427694976202755539e-01,2.090075389793662752e-01,2.544179337782152550e-01,2.911146369008808191e-03,1.347221291691776211e-04,5.093021465814040211e-04,4.117143154144287109e-02
2.355397131978459180e-01,2.231667791346502450e-01,2.527800820340462273e-01,1.513914013561031523e-03,3.461300765532368453e-03,-4.404280063121344957e-04,2.659009769558906555e-02
2.284475058174007256e-01,2.295999298012331713e-01,2.514354946040394112e-01,8.201231593339373960e-04,9.343079536612858976e-04,6.381927026255468198e-04,2.256418019533157349e-02
2.783421868735183602e-01,2.627361291157833123e-01,1.794544146503030957e-01,1.594080797189322343e-02,-9.071029010043257443e-03,3.100595408194903313e-02,1.112311929464340210e-01
2.562305012875910060e-01,1.854294595311209159e-01,2.582763410861350084e-01,1.723019173787430089e-03,4.634606426816168662e-03,-3.666767704316087795e-04,7.235722988843917847e-02
2.483202924068965423e-01,2.707492062454950887e-01,1.670162771315678307e-01,2.750272149672344096e-02,-4.240428409956870093e-02,6.144312023155457103e-02,1.671116352081298828e-01
2.532838036840384111e-01,2.643266188745393430e-01,1.654985528562800956e-01,4.687484391397064507e-03,-2.183983584580826212e-02,2.895786887498184338e-03,1.015854328870773315e-01
2.478719427437778566e-01,2.344573471170908474e-01,2.076682853687391028e-01,-5.459969212231264961e-03,-2.587104375149807279e-03,-3.686694113407571437e-03,3.751343488693237305e-02
2.433635056105003525e-01,2.091034094681742672e-01,2.584158932751541293e-01,3.006262088243359665e-03,2.381073152844137564e-03,1.238998302022718736e-03,4.432551935315132141e-02
1.855871259776550319e-01,2.601466585988140845e-01,2.726586693607854772e-01,8.381596748716330092e-03,1.598859223353940595e-02,-1.969916868287107086e-03,8.739487826824188232e-02
2.161604192813892655e-01,2.442236915696091581e-01,2.445174824598345120e-01,2.011455084492401457e-03,-3.247387462959838451e-03,6.354932136787038929e-03,3.099690563976764679e-02
1.633638198660460894e-01,2.807992925487603486e-01,2.726984863423927985e-01,2.011957069810500071e-02,1.632757032052569932e-02,-1.648730293453700953e-03,1.221789941191673279e-01
2.575862526707874411e-01,1.798466671054890498e-01,2.482935889759037007e-01,-4.606436633018151129e-03,-1.826632887923030149e-03,-6.896103142830129450e-03,7.499150186777114868e-02
2.108443094552278907e-01,2.373252662243458544e-01,2.539599835210473167e-01,-3.499429815371757173e-03,-3.948530758927527710e-05,5.181358846559632782e-03,3.918852284550666809e-02
2.028680263115052174e-01,2.531805633398658828e-01,2.626026442784649140e-01,8.789249527138510640e-03,3.951855706428647995e-03,3.018771497364828964e-03,5.831053853034973145e-02
1.992055754795875044e-01,2.605901892911259288e-01,2.606206609280049546e-01,3.260699081303965186e-02,-2.708020047904369926e-03,-2.990715948221379147e-03,8.371632546186447144e-02
2.412482009627856527e-01,2.141187990003854125e-01,2.292230152904091711e-01,-2.603834151824016650e-03,-6.974178759028586659e-03,-3.400485990899486995e-03,2.748309820890426636e-02
2.560773873907995490e-01,1.854070032499530729e-01,2.575305041406473761e-01,1.792331149284392879e-03,4.192390210105673143e-03,-2.068950629744107985e-05,7.184340059757232666e-02
2.653865191235366128e-01,1.728294067264249945e-01,2.582795218365610546e-01,-2.965890093179038593e-04,3.573765881713907196e-03,-4.157977352329860800e-03,8.972162753343582153e-02
2.629206662904479130e-01,1.923952431834222432e-01,2.505691296330179174e-01,3.842148113747540774e-04,4.474058675521007562e-03,-5.183883309122405865e-03,6.630543619394302368e-02
2.144171152734609953e-01,2.424148465814829623e-01,2.531499515904859776e-01,4.224877945239740792e-03,4.631980741542177440e-03,-2.324550652924489529e-03,3.652121499180793762e-02
2.569890860202534988e-01,1.982521921673533749e-01,2.488971523618026538e-01,-5.539730726141460851e-03,7.979843327885680765e-03,8.028619460177679676e-03,5.930162593722343445e-02
2.024487158265725617e-01,2.488071550851769231e-01,2.531859372855333468e-01,9.468586061480863125e-03,4.907038810036598413e-03,-3.294820543260567128e-03,5.239311978220939636e-02
2.627662496788568114e-01,1.666737529514624727e-01,2.641887445694449665e-01,-3.933123621108200636e-03,2.739842849970169046e-03,-2.854111901235993273e-03,9.729259461164474487e-02
2.475914109258581797e-01,1.859415956300761730e-01,2.602678526450142860e-01,-4.968737081227942755e-03,-1.445936197498611528e-03,-2.507516666838946473e-03,6.958514451980590820e-02
2.105108329280191426e-01,2.613832912593569979e-01,2.692574836337898736e-01,3.485703089630727558e-02,1.554238865760366670e-02,1.869625148595088250e-03,8.620215207338333130e-02
2.210613697363758567e-01,2.172194045200390999e-01,2.520958944839001292e-01,-2.976288841739697585e-03,-1.833372017629141416e-03,-1.181019706876221351e-03,3.373394533991813660e-02
2.486189907217854211e-01,1.928636153671519360e-01,2.477901997085880104e-01,-4.589411970572369708e-03,-5.274213204347843152e-03,-4.521507739264893355e-03,5.719362944364547729e-02
2.334566254395603890e-01,2.393928260598222335e-01,2.136198958656279068e-01,-6.223094085654854932e-03,-6.389598482273413718e-03,-5.149528280893398390e-03,2.940584346652030945e-02
2.612043633013179100e-01,1.733711482285124617e-01,2.635544814125269086e-01,-5.007826103993293955e-03,3.662451953564482311e-03,-8.486808636883046717e-04,8.968975394964218140e-02
2.142113975771411105e-01,2.284107027328404482e-01,2.507957394218532921e-01,-1.041183695724376586e-02,-6.157757577279165256e-03,-5.661149079849019626e-03,3.944212198257446289e-02
2.211448375987111192e-01,2.215923397107111281e-01,2.513879132961955309e-01,-5.503385060010432782e-03,-2.462409956243404377e-03,-2.895249207004241786e-03,3.217933326959609985e-02
2.127418883622882451e-01,2.258446648162987236e-01,2.549241683359693145e-01,-1.174254292895932604e-02,-3.152794656605531227e-03,-4.810985355921691469e-04,4.292434081435203552e-02
2.476021989669195122e-01,1.853219777257063550e-01,2.609716507823827136e-01,-6.577044311433886264e-03,2.277634586956891246e-03,-1.599059500497484066e-03,7.101567834615707397e-02
1.982600723949437260e-01,2.012562366862179208e-01,2.643370758042531410e-01,-4.734388608955149985e-02,-8.478242603105467026e-03,-9.832563047922161792e-03,1.068044006824493408e-01
2.262989232684744223e-01,2.132864991888592798e-01,2.529540868249708363e-01,-1.385490455502493695e-02,-4.563334992168916089e-03,-3.915545076987907679e-03,4.371511191129684448e-02
2.351462399987395702e-01,2.021057462965070439e-01,2.537887590441010310e-01,-4.753560140492791436e-03,-2.989206050694869204e-03,-2.620461827950475251e-03,4.658724367618560791e-02
2.160863729554291512e-01,2.205122277997203784e-01,2.533057038556048024e-01,-3.009176627749460611e-03,-3.867053576202633095e-04,9.942741173367217612e-05,3.560594096779823303e-02
2.224570424886978259e-01,2.219279995886700441e-01,2.520527079163334405e-01,-4.643754557085041880e-04,8.724660441295491002e-04,5.113976998073956493e-04,2.992583811283111572e-02
2.159965205814723677e-01,2.211281316352060322e-01,2.532305951280494627e-01,-3.355191477412538745e-03,-2.957482188178070016e-04,5.577611406873620847e-04,3.544864803552627563e-02
2.000412869860909992e-01,2.562726048646130628e-01,2.520525994817026660e-01,4.608398245234926645e-03,6.932738966438500329e-03,-1.482681813883272425e-03,5.618691071867942810e-02
2.302141578676719647e-01,2.099220780405433584e-01,2.516917119754467635e-01,-6.502097420064916963e-03,3.463517262434295373e-03,6.595799530927627880e-04,3.837972134351730347e-02
1.805195168641010595e-01,2.674639693152719988e-01,2.662338241196507971e-01,7.502697084832482197e-03,-1.640141667643124071e-03,6.458408647344506676e-03,8.806799352169036865e-02
1.989562891250696575e-01,2.572506790906684548e-01,2.561485282016803255e-01,-4.016280123377582133e-03,9.878331890495120962e-03,6.701179018565958483e-03,6.173374131321907043e-02
1.871762711158702908e-01,2.580794397208830415e-01,2.649307718744299267e-01,4.398498610386469485e-03,5.738699108501992864e-03,3.049731163464063002e-03,7.579394429922103882e-02
2.349353894747283900e-01,2.203341645455611786e-01,2.527833507829169157e-01,1.078964887903623507e-02,2.962800491197637061e-03,1.384639325411055315e-03,3.425906226038932800e-02
2.193866092717110527e-01,1.851165855252578929e-01,3.683396956297323999e-01,-1.028046348641346586e-01,2.408653542684431950e-02,7.183639088225104649e-03,2.491340190172195435e-01
1.692357958980463262e-01,2.776870776293058340e-01,2.635499251692514644e-01,2.215178000266579059e-02,1.729141604468556123e-02,4.532804411699212568e-03,1.133978366851806641e-01
1.906555670784628731e-01,2.592900354509982686e-01,2.331151897109332849e-01,-1.650800287682785807e-03,-1.029355894496172819e-02,7.878356271538300296e-04,6.266757845878601074e-02
2.340791587851904776e-01,2.227188081626667315e-01,2.509233742661102218e-01,2.334083189445840343e-03,-4.464105184799107553e-04,3.297889904426353717e-04,2.492808364331722260e-02
2.359305580895493526e-01,2.328487168767161830e-01,2.361505727304377411e-01,9.447116982484586069e-04,-2.528830285623642066e-03,6.979190645996477581e-04,5.792051553726196289e-03
1.676904388231381660e-01,2.513747007933921362e-01,2.991318361666803205e-01,6.161995229318986689e-02,2.412485840834398265e-02,1.195920129443610140e-02,1.638489216566085815e-01
1.757502730128245594e-01,2.508045546064707754e-01,2.628359354957527927e-01,1.772983631423582368e-02,4.643525091345271534e-03,3.375121899401296085e-03,8.787950873374938965e-02
1.953424764342297781e-01,2.611638101555451286e-01,2.498270964338082933e-01,1.000871422796787216e-02,-1.861881832065060902e-02,7.784635895814115414e-03,7.236765325069427490e-02
1.628879645311055724e-01,2.596920928530971895e-01,2.643898935059599831e-01,1.034249448244190656e-02,-9.413484260413598412e-03,3.977959213926484695e-03,1.023820787668228149e-01
2.324000752831143213e-01,2.388897294617452205e-01,2.317765568082074401e-01,1.015071088056596071e-03,1.580191412204926329e-03,-1.646301085289500477e-03,8.078604936599731445e-03
2.629028031160188239e-01,1.728446864221244716e-01,2.613948268201792269e-01,2.874841583787769044e-04,3.880379041767771306e-03,-4.882030103570438560e-03,8.996585756540298462e-02
2.336076143111018022e-01,2.377337157918597565e-01,2.361789075206905120e-01,4.629649608781070264e-03,6.126430518162857657e-03,-3.677268983801094439e-03,1.518203504383563995e-02
2.359352519964206807e-01,2.510678878013348769e-01,2.097497682411296194e-01,3.390471745943232033e-03,-4.850346252491602450e-03,1.466912209090016580e-04,3.763056918978691101e-02
2.383891828139736435e-01,2.427857436293177906e-01,2.207998188489707636e-01,6.117242125511478112e-03,3.135490413791461057e-03,-2.149596435589192032e-03,2.369950152933597565e-02
2.516573541654992807e-01,2.714952865535381066e-01,1.728744079992402261e-01,-1.513376533002010887e-02,-5.687790199610119612e-02,-3.929162394035000394e-02,1.522729843854904175e-01
2.245510023846761793e-01,2.230448469096367736e-01,2.552813560292765405e-01,9.666944682406464900e-03,-1.132526704210802320e-03,4.637271423419894734e-03,3.662810474634170532e-02
2.391874567794758100e-01,2.440828623189355284e-01,2.198502565656511587e-01,5.109221184618081835e-03,4.345331437107312171e-03,-3.576838538891639364e-03,2.580494619905948639e-02
2.341028672744210337e-01,2.247902112117966533e-01,2.505966184160924315e-01,1.965626029678729358e-03,-8.290114916790385698e-04,1.226284006501249420e-03,2.303332835435867310e-02
2.366866959558719397e-01,2.427318044895553639e-01,2.256876141817439618e-01,4.626690027118211465e-03,1.485775343711520560e-03,-8.019310956067741015e-04,1.722743175923824310e-02
2.397032451843571776e-01,2.278816090158549690e-01,2.308536020788181653e-01,5.229853394277127893e-03,5.401191962080905892e-03,-4.626815112965445426e-03,1.863451115787029266e-02
2.382465906203973249e-01,2.359875404827020406e-01,2.237435192890125379e-01,5.241646287652956988e-03,3.384185204451066378e-03,-2.744793738139468097e-03,1.794612966477870941e-02
2.251903920841491491e-01,2.514430265668986531e-01,2.335496773881075572e-01,1.283553302219242898e-03,1.577061620998566416e-03,5.399591341895570475e-04,2.351390570402145386e-02
2.034603733135234849e-01,2.547873404292381183e-01,2.473299489451387112e-01,1.371920930188262567e-03,-4.116582013735564476e-03,4.848945881376736690e-03,4.933889955282211304e-02
2.561274757862507800e-01,1.855795110184121910e-01,2.642137288309171494e-01,1.824681183144254409e-03,4.081416852600513664e-03,-1.185539587043143257e-03,7.534620165824890137e-02
2.368088102895890834e-01,2.556747694913644731e-01,2.149936638142660172e-01,8.273460268709093013e-03,1.065134243041912336e-02,2.166548249386059674e-04,4.229933023452758789e-02
2.599811752656221997e-01,1.694490362146230944e-01,2.602813840821608937e-01,-5.307142883229819946e-03,-7.505493502258213118e-04,-4.534708277867682130e-03,9.149434417486190796e-02
2.776132264310650632e-01,2.005895540210788086e-01,2.673056687578161950e-01,2.298844770078596958e-02,2.515859074138755095e-03,3.578007697200396436e-02,1.033924669027328491e-01
1.355355869914092182e-01,1.973996618415774784e-01,2.826640969525751057e-01,-1.073302290556566729e-01,-3.254392544290263950e-02,-2.273846876318095719e-02,2.359232157468795776e-01
2.152256546129623360e-01,2.513889236748356182e-01,2.317091957933786195e-01,1.494507512145539906e-03,7.418333115059932981e-03,1.285377248745922822e-04,3.398875892162322998e-02
2.488698077814961718e-01,2.135250772199534242e-01,2.445943671237015837e-01,-1.845383125041618905e-03,5.753827923372253211e-03,3.690838048053687002e-03,3.559238463640213013e-02
2.346183433943437313e-01,2.021503920654110775e-01,2.566887239673023569e-01,-4.877530217705856527e-03,-1.816692929386336947e-03,-1.950016710591291700e-03,4.848225787281990051e-02
2.353757793700607392e-01,2.508831874768107650e-01,2.268177001088964584e-01,3.445208761549229607e-05,1.466809205326793930e-02,4.205742008848335420e-03,3.383727371692657471e-02
2.254575750117247812e-01,2.509807422839682722e-01,2.315527190006028135e-01,1.312526788713927993e-04,2.983394825322041068e-03,1.938838638362332578e-04,2.366182208061218262e-02
2.160185622240450576e-01,2.532426221403210054e-01,2.362663346222871885e-01,2.211287599739914672e-04,4.307769228436477554e-03,1.731168994858953841e-03,3.326720371842384338e-02
2.212226537768211265e-01,2.131291609367298723e-01,2.521957962053413826e-01,-5.343441390974017040e-03,-4.359551765250014969e-03,-3.437592289901389517e-03,3.812671452760696411e-02
2.532115499651479973e-01,1.930384941343065708e-01,2.554044900976144006e-01,-5.955132613708312601e-03,6.071155490315065413e-03,2.740148320492452865e-03,6.322225928306579590e-02
2.534033149100868298e-01,1.700010729754344585e-01,2.372104413181305438e-01,-8.820298713113097766e-02,-6.772577564506829240e-02,-7.445164349428169681e-02,2.441237568855285645e-01
1.932689861611302518e-01,1.718812486991516120e-01,2.378009831034364197e-01,-8.997843613409151065e-02,-6.855313681317851127e-02,-7.623767894716314275e-02,2.433443665504455566e-01
2.045925910720426955e-01,1.585822593709967365e-01,2.796924401861139442e-01,-8.544754861112636990e-02,-2.677137998281948691e-02,-3.572319945368111760e-02,1.977238506078720093e-01
2.449712964359759271e-01,1.491087214265556793e-01,2.859060597900065503e-01,-8.679901729959442480e-02,-4.482609823268106364e-02,-3.003836965128775516e-02,2.147711664438247681e-01
2.477467457364159464e-01,1.990548728150279278e-01,2.533987925804835339e-01,-4.947731384118830844e-02,-3.147252845412033817e-02,-5.179503768145197334e-02,1.450579315423965454e-01
2.477808956317912592e-01,2.299250926402440776e-01,2.147750094014748146e-01,-5.565189459323045644e-03,-6.278355578464875179e-03,-1.194309033412322210e-02,3.818312659859657288e-02
2.580374717906493420e-01,2.113986292391084598e-01,1.913000164996742081e-01,-2.137474638167292593e-02,-2.243590814202290132e-02,-4.753093271579025836e-02,1.147816628217697144e-01
2.384348664818908003e-01,2.372413832253640054e-01,2.164347473925208321e-01,-5.885654532949300723e-03,-6.381851921273311128e-03,-3.462020871203252883e-03,2.685584686696529388e-02
2.482048979694529145e-01,2.375890810266753916e-01,1.974480886752389697e-01,-8.949125537698564975e-03,-5.441322764355428082e-03,-7.207693968998945579e-03,5.133285000920295715e-02
2.474149600175186703e-01,2.286232795926816663e-01,2.055677932648976858e-01,-6.337094203407838897e-03,-4.253039350451644392e-03,-5.417146958954426571e-03,3.975816816091537476e-02
2.211108331967370777e-01,2.187910861242470251e-01,2.497414268278470018e-01,-1.029147241672699218e-03,-1.818095923776930859e-03,-6.834304436961073691e-04,3.009988181293010712e-02
2.369175378232392937e-01,2.404632995954656127e-01,2.078031767460529200e-01,-7.219839570444813379e-03,-3.348383747303445169e-03,-2.301837230092146011e-03,3.419589996337890625e-02
2.584198284121966283e-01,2.619001944238206203e-01,1.866137359843510202e-01,1.363955809728166274e-03,1.694183619891883458e-02,1.983502238281686231e-02,8.640071004629135132e-02
2.595690178493806344e-01,2.557700899369766967e-01,2.003407529620480076e-01,1.735800516849515676e-03,3.259422260873480470e-03,3.351705617748721496e-03,5.806916207075119019e-02
2.534174212269022508e-01,2.463647845803343672e-01,2.064885786162212467e-01,1.277649953227542748e-04,1.138641273145767942e-02,2.318075615467403428e-02,6.262688338756561279e-02
2.750146019350434567e-01,2.753817056466636437e-01,1.556162889896397505e-01,9.338128327027033285e-03,-2.466255202125970571e-04,1.623742131551333045e-03,1.207046732306480408e-01
2.653901657605056696e-01,2.669316745433700788e-01,1.822581206216661032e-01,8.130831710740553039e-03,-1.232667736713654065e-03,1.501641133412291718e-02,8.899904042482376099e-02
2.661354911168848369e-01,2.696979150224099731e-01,1.671219835696041711e-01,-6.440160883730738223e-03,-6.836977767776379958e-03,1.794344481956914109e-02,1.067691668868064880e-01
2.344470022319654345e-01,2.227877560133601775e-01,2.544617456761333885e-01,2.328746213701582933e-03,1.458388521350469655e-03,2.985674304577514370e-04,2.815674245357513428e-02
1.934639931397964807e-01,2.601559417187713219e-01,2.409322362390137195e-01,1.421536262362189636e-03,-2.057944935423560925e-02,-2.228105681424785711e-03,6.947515904903411865e-02
1.917325076496665115e-01,2.906804125431539099e-01,2.438978370203894463e-01,4.751938034495395945e-03,-5.095405212753182506e-02,6.538644465979905410e-03,1.238354146480560303e-01
2.297891248961826671e-01,2.299325568140235532e-01,2.472788976516733239e-01,8.218411778096629565e-04,-7.466463136100837637e-04,8.324324787838226214e-04,1.758356206119060516e-02
1.927144256039675096e-01,2.616981484687366244e-01,2.518693984745272174e-01,4.481910946976639006e-03,-9.257033111104585182e-03,7.228658456184693104e-03,6.820143759250640869e-02
3.223769423092222586e-01,3.458119449748191521e-01,8.842103517765304010e-02,1.921538422737980797e-02,-4.451357401989672335e-02,-4.422475878075606687e-02,2.714532613754272461e-01
1.738416371036160535e-01,2.750027122439755445e-01,2.478097801112140453e-01,1.497921175472497271e-02,-4.279920018986441838e-02,9.095712424287375353e-04,1.199711635708808899e-01
2.428430110698825417e-01,2.181445531423444328e-01,2.516972486065794379e-01,3.021310405260096022e-03,-5.805509107924750663e-04,1.174115806522847087e-03,3.065337054431438446e-02
2.495606624506421511e-01,2.289360601702029041e-01,2.261623994288669282e-01,-5.096401587667347913e-04,7.268268726177101562e-04,4.100369218639343151e-03,2.330399490892887115e-02
3.758942829609586145e-01,1.850420396256313438e-01,2.496849691589224374e-01,4.086753779368870049e-02,5.862382907757272832e-02,-9.470779945786417242e-02,2.655098140239715576e-01
1.691179490640229710e-01,2.708428019596591518e-01,2.259083749369256156e-01,-6.909507015093113887e-03,-4.281863333811975619e-02,-2.985697104691027379e-03,1.160447075963020325e-01
1.701337176571784959e-01,2.606985125200034781e-01,2.652415562338351074e-01,-3.841570151829615601e-03,-2.115422985828273230e-03,2.329262962761765188e-03,9.331685304641723633e-02
2.238929195941145034e-01,2.490982158345062536e-01,2.231442920737171653e-01,3.735383865151793736e-04,7.399773905925345597e-05,1.313905617958498315e-04,2.559733577072620392e-02
2.516127771696629600e-01,2.075180959489323074e-01,2.516865251088469813e-01,3.684681272681463761e-03,-1.529074322873771180e-03,3.158403770801631021e-03,4.500299692153930664e-02
1.944500327067011092e-01,3.606159522220231950e-01,1.912455998466887352e-01,2.641794146424883763e-02,-1.157347301340868884e-01,2.395773738586626234e-02,2.686132490634918213e-01
1.706284249193812941e-01,2.606588695621601670e-01,2.675195181351592844e-01,-3.446985960551994348e-03,-3.423646074661318602e-03,2.310048536678801861e-04,9.402757883071899414e-02
2.244149517810876404e-01,2.442069179673402590e-01,2.317262155284048886e-01,1.169139175261595196e-03,-1.289761672939687860e-03,2.705002295901514416e-03,1.820753887295722961e-02
1.820282249753865100e-01,2.605884680296242095e-01,2.664682074245837140e-01,-4.007766194673709724e-03,5.020512080785801204e-03,2.634294426711033393e-03,8.253979682922363281e-02
1.091961042077374683e-01,2.926368196283403167e-01,2.410743887134728369e-01,-1.465752869758950305e-02,-7.467339525908445186e-02,-2.879359306895985359e-03,2.103527486324310303e-01
2.490670035746395394e-01,2.177754667893351814e-01,2.425411052777011189e-01,2.043375214809643649e-03,-2.275611593539972246e-03,3.487875179315565524e-03,2.970015816390514374e-02
2.356388104695010532e-01,2.604270322994459708e-01,1.988952824107766415e-01,2.810382529333068421e-03,-4.748679237370442320e-03,-3.162627672454545492e-04,5.447012186050415039e-02
2.057456216213350841e-01,2.472326511253280235e-01,2.433787628737009712e-01,6.692128475030911620e-03,-6.954840506274805392e-03,9.228295064290306660e-03,4.594656825065612793e-02
3.751388376967942362e-01,2.677582033559512964e-01,1.215237889905322610e-01,2.351709800451650886e-02,-3.716532903875913174e-03,-6.765228281260314558e-02,2.530789375305175781e-01
1.715444401669820595e-01,1.961672920820267674e-01,2.781858456694359383e-01,8.432715311804375724e-02,9.387068428856509480e-03,7.331831094231676740e-03,1.763850450515747070e-01
1.766312974838517569e-01,2.574912480625153322e-01,2.655903049656763160e-01,-6.743716934880419900e-03,2.955428963130334887e-04,2.829340488254466438e-03,8.613666892051696777e-02
1.813254779843506692e-01,2.610299894729825598e-01,2.631028642889330915e-01,-1.069759935804723804e-02,9.485861493704637122e-05,4.827942131482539697e-04,8.286353945732116699e-02
9.119429898423947467e-02,3.325605020225749220e-01,3.019377192218531403e-01,-5.074981760224448607e-02,-8.335989088263905111e-02,2.088423524350603577e-03,2.835320532321929932e-01
2.346185414212900999e-01,2.018391677113426375e-01,2.564669884762609264e-01,-5.463747856698589374e-03,5.292951230532416890e-04,-6.489841635860810068e-04,4.857655987143516541e-02
1.025034934346292503e-01,3.053984021843361707e-01,3.337896516814124470e-01,-4.081665664560905904e-02,-7.212003397541995667e-03,4.292798899137633545e-02,2.416926175355911255e-01
1.662640027162501366e-01,2.917646836885233186e-01,2.838590351708472070e-01,1.590334983230401802e-02,7.323708757399027131e-03,1.052029644704079343e-02,1.267771422863006592e-01
2.594183549681564060e-01,1.733764940794347287e-01,2.655178511539598163e-01,-4.886802982670604596e-03,3.752444251778641951e-03,-9.837389214574303840e-04,8.989997953176498413e-02
2.460251558663947291e-01,2.291234688057548485e-01,2.299767889225829420e-01,-2.614641089524911803e-03,3.482493375558298136e-03,4.217927521700082227e-03,1.955090090632438660e-02
2.564360112286075410e-01,1.899282669814295332e-01,2.562726985378142586e-01,-2.891108036068488346e-03,4.573607684576364713e-03,2.861611393813446279e-03,6.726693361997604370e-02
2.269804699757420885e-01,2.495319281251159871e-01,2.216278147352976069e-01,1.246832443837006445e-03,-9.371866118979448653e-04,1.417069029628872457e-03,2.590853720903396606e-02
1.506739872039421502e-01,2.830469259891971179e-01,2.763647134156482776e-01,-1.449872853108380606e-02,2.361640425806923495e-03,2.168228055290146936e-03,1.316972970962524414e-01
1.661497898097926140e-01,2.839970567188727091e-01,2.856047982980898237e-01,1.524755953045468446e-02,6.843812377377791675e-03,1.438953318625762687e-02,1.246562674641609192e-01
2.319072753519868246e-01,2.435687144569335938e-01,2.274486963029269670e-01,3.122265091561261113e-03,2.827423757346874365e-03,-8.023792216090750405e-04,1.621793955564498901e-02
1.531465195596429796e-01,2.693161089057360402e-01,2.761191620556191495e-01,-4.253617498337147924e-03,-2.523555718807912740e-02,4.572839463019868524e-03,1.279041618108749390e-01
1.560614695017438214e-01,2.816249983831339287e-01,2.643651612850497212e-01,1.088657248518284937e-02,-7.010816376785534640e-03,7.637665725069710948e-03,1.207265704870223999e-01
2.167898483697295875e-01,2.920657505185071945e-01,1.941324892193031781e-01,-1.143117056831038751e-02,-4.828073833959665995e-02,-1.727785820277195558e-02,1.271457672119140625e-01
2.726987191415103928e-01,2.485023054969728307e-01,1.623551315735610456e-01,-1.097018011639151573e-02,-2.503709771588408586e-02,-2.402785931353174434e-02,1.185954138636589050e-01
2.363320760135071141e-01,2.019623470328207049e-01,2.609759216558278361e-01,-5.114886210788522833e-03,3.590520350808397779e-03,2.768416053614499339e-04,5.246895551681518555e-02
2.482624007134604793e-01,2.574611768390080990e-01,1.803640399131137273e-01,-7.097548425863790811e-03,-5.404664892877828093e-03,-8.536644940515772384e-03,7.600504159927368164e-02
2.611560234164087002e-01,2.462160747712398290e-01,1.804860744170226072e-01,-7.748166931582258291e-03,-7.683379107170852651e-03,-6.511008870321720494e-03,7.752433419227600098e-02
2.660551028336682333e-01,2.494451923830816042e-01,1.777871130237044794e-01,-4.165814136907460084e-04,-3.262478043850103641e-04,-7.002458700598488545e-03,8.215197175741195679e-02
2.588208643047390511e-01,2.465814076318011139e-01,1.575231251609603700e-01,-5.483642032514134991e-03,-1.736102394981960118e-02,-2.718111050268508591e-02,1.112747564911842346e-01
2.255960307556900413e-01,2.133407868501030202e-01,2.535571522110822706e-01,-3.064041142208462874e-03,-5.980879457090135633e-04,-6.496944484373462069e-04,3.612741455435752869e-02
2.338096799191870245e-01,2.242437624252038297e-01,2.473774515769392446e-01,-7.776793345911674898e-03,7.057576425242864659e-03,7.104776135683024858e-03,2.979390323162078857e-02
2.275019632723843943e-01,2.391446716998615607e-01,2.438738138322663618e-01,5.814442832654130068e-03,-4.848236776139494379e-03,6.153877254023797094e-03,2.232773043215274811e-02
2.191353575645512974e-01,2.394600384199843113e-01,2.400957044307659716e-01,1.076156353460055830e-02,-7.432891200195450992e-03,1.047815353470130974e-02,3.562258929014205933e-02
2.357406875949966396e-01,2.266017076158816645e-01,2.415956094399686060e-01,2.882388907477933561e-03,-3.805588178516426841e-03,2.201350186748819455e-03,1.594424434006214142e-02
2.138468344034913093e-01,2.381162492298805056e-01,2.355960778515313325e-01,-2.627297697911867846e-03,-2.547646326415167663e-03,-6.455855764164176308e-03,2.644629403948783875e-02
2.332157409853069796e-01,2.219803091186337285e-01,2.462377461105431098e-01,5.508923005183568623e-03,-3.508214098072122422e-03,2.570685906067321502e-03,2.428802289068698883e-02
2.341038320472960954e-01,2.266638086656430073e-01,2.488083262122976203e-01,2.343489818419579752e-03,-1.255816733394278777e-03,9.555914922442713781e-04,2.012273296713829041e-02
2.420307705707498425e-01,2.076437778201405404e-01,2.511074166017606135e-01,-5.250399392968998699e-03,9.403666492368649085e-03,4.711009266731410773e-03,4.462664201855659485e-02
2.868532328000148457e-01,9.955331894390263836e-02,2.636181960651163836e-01,-5.479904329185196488e-02,-1.088612410007467994e-02,-7.501036934544112744e-02,2.398190945386886597e-01
2.821396281394273897e-01,1.653129126718438369e-01,2.568127579935022275e-01,-2.468502447122256777e-03,7.905876845143768386e-03,-2.008571500080470404e-02,1.129033789038658142e-01
2.332259609939123512e-01,2.408209394687332028e-01,2.436497530028548797e-01,1.507158127167460351e-02,-1.014116382727784683e-02,1.500378859884441210e-02,4.186286032199859619e-02
2.548979695296290648e-01,2.076445154847543773e-01,2.538847355207017875e-01,2.994797502172681907e-03,1.152861219365516887e-03,2.699114941968565502e-03,4.731581360101699829e-02
2.932414777899658431e-01,1.413812291655292264e-01,2.685217832002551042e-01,-9.804456346882413006e-03,7.253690526953819259e-04,-1.687166239142163723e-02,1.451295316219329834e-01
2.705684096591172150e-01,1.400526322757710274e-01,2.682952551631214155e-01,-6.438564431055476822e-03,4.622100037801398810e-03,-1.757240613565921872e-02,1.336326301097869873e-01
2.817120543598384819e-01,7.695136818962577951e-02,2.900765235135959186e-01,-4.138921890731402792e-02,4.385266617889251560e-03,-1.862369778251285815e-02,2.234883457422256470e-01
2.423051152646295003e-01,2.246614807431500382e-01,2.425376664208511723e-01,2.414762636982150604e-03,-2.742239755514160830e-03,2.242141014097302765e-03,1.925070025026798248e-02
2.683768230883487038e-01,1.685778652111273312e-01,2.658910944808608456e-01,-1.420535035799213967e-03,1.001043119242686109e-03,-4.784823062736281996e-03,9.897313266992568970e-02
2.178117146259093695e-01,2.496708349839629193e-01,2.282088469268843123e-01,1.099602197023045536e-03,-2.200067103526984289e-03,1.525672922287654070e-03,2.858306653797626495e-02
2.628259751010560419e-01,1.926131531848065959e-01,2.563449267883521343e-01,-8.714106701495944341e-04,4.926808811364911424e-03,2.403351252649240689e-03,6.789122521877288818e-02
2.815029013138134473e-01,1.482404311923193052e-01,2.610925254340982771e-01,3.864556713363368270e-03,-2.428681713906423803e-03,-2.877937646961449894e-02,1.341744810342788696e-01
2.313009932120804468e-01,2.325348073039928409e-01,2.450092513906472480e-01,2.421867460602456206e-03,-2.325299005016141871e-03,3.666188770774018307e-03,1.570558547973632812e-02
1.876361634989394400e-01,2.571966587043931773e-01,2.512089449547006970e-01,1.825396385687900677e-02,-1.745329932301819403e-02,1.190075481981688402e-02,8.244007080793380737e-02
2.631849339014660227e-01,1.749778445963716955e-01,2.581874984897735703e-01,-1.818486364816117307e-02,-5.283718971406785488e-03,-1.945464954705036081e-02,9.785666316747665405e-02
2.649149535231610231e-01,1.688641279908458803e-01,2.658074661507917047e-01,-1.791131429255517259e-03,2.801823290949756202e-03,-5.201369154944106114e-03,9.709079563617706299e-02
2.362611162515680929e-01,2.342222625313268303e-01,2.307017387103984241e-01,1.764171322572021319e-03,-1.731506471480884993e-03,9.074789613395305241e-04,6.673128809779882431e-03
2.686972295088365659e-01,1.757315190142783312e-01,2.608028779341639014e-01,2.580281288859256634e-03,6.229547786943919960e-03,-3.080089855729597256e-03,9.019920229911804199e-02
2.496902921963430610e-01,2.277950425075549179e-01,2.304172298062274749e-01,1.812748286737003646e-04,1.216626531417959282e-03,9.359074135452886533e-04,2.088136225938796997e-02
2.594411921264787591e-01,1.900070298864516838e-01,2.564370850220283882e-01,-3.182961790595454331e-03,6.127271877144035463e-03,2.846751957441845653e-03,6.920170783996582031e-02
2.531487203461896263e-01,2.763540832706631312e-01,1.928679225913521034e-01,7.461072081166614245e-02,-8.188482040633010550e-02,5.026704360194952231e-02,2.235331684350967407e-01
2.670367315877212877e-01,1.755573468832777873e-01,2.563407660965985047e-01,-1.290870537410727633e-03,-2.556163355035530674e-03,-9.210552832074083568e-03,8.822428435087203979e-02
2.687789627568562545e-01,1.820178541400719330e-01,2.588053551416806264e-01,4.733978441540188757e-03,6.731492763510726375e-03,-5.990442430586851233e-03,8.409796655178070068e-02
2.563721055407112703e-01,2.360827418987895832e-01,2.251403918587190633e-01,2.797692123534603181e-03,2.336251696143324535e-03,1.363670462434910316e-02,3.675787150859832764e-02
2.092592051132849407e-01,2.437652137842215294e-01,2.554159203863103911e-01,1.432260134654795777e-02,-4.976595213598806501e-03,9.154481827073469510e-03,5.166765674948692322e-02
2.359712482981870529e-01,2.582921300291279310e-01,2.052487615397173559e-01,3.833454476062514958e-03,-5.032919671423109233e-03,3.748374871945882314e-03,4.785471782088279724e-02
2.623292480564953233e-01,2.594963972295786792e-01,1.975008368300444905e-01,3.492340231949933246e-03,1.477993044020030171e-03,1.066186379620343884e-02,6.641737371683120728e-02
2.610947876462713646e-01,2.488057152279056772e-01,1.881177628920326361e-01,6.507237783177558313e-03,-6.449452316774772695e-03,1.812055227040476960e-02,7.626748830080032349e-02
2.658361795114580484e-01,2.504417407377612648e-01,1.944728303671774960e-01,1.678041446877069978e-03,-1.265336125156397984e-02,2.168776150150190582e-02,7.830047607421875000e-02
2.583196362240809396e-01,1.924333554864805507e-01,2.537839663230796461e-01,1.672621549045222593e-04,1.459567829510189426e-03,2.991888022919378474e-03,6.400050967931747437e-02
2.200520374512012767e-01,2.530953237211152063e-01,2.189552332858068218e-01,-1.551921050144424688e-04,-9.129175589876741426e-04,2.338579617914883241e-04,3.364580869674682617e-02
2.267983650365138770e-01,2.473933090633607390e-01,2.356874181200656337e-01,-3.936095666485898287e-03,7.909431888883853429e-03,6.044117949714627146e-03,2.576523646712303162e-02
2.133189921219787177e-01,2.574995331269738785e-01,2.251015904354510266e-01,-1.773867735106405587e-03,-1.343432028727862756e-02,-2.922990664694054448e-03,4.633252322673797607e-02
2.167678878102143047e-01,2.546226714250563461e-01,2.234823278110721345e-01,-6.321812708830542660e-04,-5.127577594216919075e-03,3.085891799001657916e-04,3.611447662115097046e-02
2.507784397471755633e-01,2.220306413656198408e-01,2.358341354509602694e-01,-2.316085299697555355e-04,1.288661402712496353e-03,2.434261998651745997e-03,2.535886503756046295e-02
2.615486993059753518e-01,2.445585683157052992e-01,2.122853743768375878e-01,1.497535575561801877e-02,-1.491747059514309307e-04,2.695920923020600143e-02,6.878805905580520630e-02
2.162512922745150612e-01,2.175014531664148931e-01,2.533293529190534521e-01,-1.194084419735478089e-02,1.509037838964131639e-03,2.229375195469164312e-03,4.218394309282302856e-02
2.039568398478069089e-01,2.549973609173167843e-01,2.231373859705505225e-01,-2.494293798275194936e-03,-8.385510855414914783e-03,-3.042651804174067998e-03,4.744924977421760559e-02
2.204289824520495600e-01,2.231580853254175878e-01,2.464376453916225507e-01,-8.368788818890947291e-04,-1.286394411521469411e-03,-1.697319647453801161e-03,2.507242374122142792e-02
2.051811497246103788e-01,2.495287118031994655e-01,2.229536352898664753e-01,-2.809469041697586558e-03,-7.765357747508722097e-03,-4.772011780770448776e-03,4.203925654292106628e-02
2.403065603054579391e-01,2.193128961241860020e-01,2.528998668552228657e-01,1.617185101313147605e-02,6.440213604809082344e-03,-8.419481091515305243e-03,4.455763846635818481e-02
1.817147055473258277e-01,2.807854426227496258e-01,2.432403848879070019e-01,4.109775328640785652e-02,-7.591260629773032009e-02,5.351163047450617494e-02,1.960886418819427490e-01
2.233017458355964491e-01,2.224845228204448411e-01,2.501492536836114611e-01,-9.387845538560166212e-04,3.577933869766225885e-04,2.049569066843702232e-03,2.755044773221015930e-02
3.166724164413200482e-01,1.389452900229385113e-01,3.006244821426615754e-01,1.245005987461257624e-01,5.252008910806454933e-02,2.317282481001458130e-02,2.921977639198303223e-01
2.391457666419806727e-01,2.107009133972423953e-01,2.543057477388608878e-01,-3.952857772253778011e-03,5.876577496869444042e-03,1.003857052305772053e-03,4.029465466737747192e-02
2.309042160988613868e-01,2.030437866690565918e-01,2.754261022824344152e-01,2.591463092583931940e-02,2.742110635902257794e-03,3.710561604971027508e-03,7.795747369527816772e-02
2.527245303755250583e-01,1.987304940677258047e-01,2.623161478880047803e-01,2.950630039500446583e-02,2.469330749955645637e-02,-1.436364110127395614e-02,9.265706688165664673e-02
2.315800810141624977e-01,2.244650251054463030e-01,2.555998158229126904e-01,1.280235399406908642e-02,-2.621426854172249910e-03,3.829270462980905419e-03,3.680733218789100647e-02
2.305584461451703759e-01,2.000784047537094434e-01,2.753933935720293547e-01,7.649757887272110035e-02,3.775714480724999544e-02,-1.207529622535251888e-02,1.630204319953918457e-01
1.697527677990854356e-01,2.912633224665054366e-01,2.609357673452289972e-01,1.376474988150824634e-02,-2.733476704972133062e-02,7.079787992468825585e-03,1.223102658987045288e-01
2.067817698849797603e-01,2.484911677457999069e-01,2.521100668572373027e-01,1.257569463676077963e-02,-7.908755770770907120e-03,8.159511767776959565e-03,5.258835107088088989e-02
1.568335945856759173e-01,2.426580486528005232e-01,3.218690720951564721e-01,-8.182112665623120229e-02,3.936420302404411431e-02,6.804300533333122736e-02,2.430241405963897705e-01
1.630319362932979854e-01,3.322017048826881869e-01,2.287853550216242815e-01,9.467422618895084130e-02,-1.612402348782648528e-02,-1.096692684439407907e-02,2.232685238122940063e-01
1.571299591717161825e-01,2.897846444350318795e-01,2.591678747638719860e-01,-1.096697637228788956e-02,-3.860074193914110607e-02,6.537026616074741170e-03,1.393996626138687134e-01
2.188105650089510190e-01,2.381058502074432648e-01,2.295992907806769789e-01,-1.662468724291281527e-03,-1.162641635709916847e-03,-5.238005943913566671e-03,1.936981827020645142e-02
1.873532319228524978e-01,2.707311006090841743e-01,2.832676727658918758e-01,3.463251059296926226e-02,1.041947871206181514e-02,1.148424952672984917e-02,1.116866171360015869e-01
1.786700440699323100e-01,2.608584471810697636e-01,2.845256797119072312e-01,1.584606294409691973e-02,1.156271786059416724e-02,6.778434843415124915e-03,1.027252003550529480e-01
2.510230789126492446e-01,2.282817592475380464e-01,2.298469431346775727e-01,6.210883787732840054e-04,6.855772590253128487e-04,9.937726123214424365e-04,2.212584763765335083e-02
2.232184170060027839e-01,2.231722741003651089e-01,2.448475388597147195e-01,3.986833248469399404e-08,-2.143963249441887750e-03,-2.640631292050480642e-03,2.243942022323608398e-02
2.216071121033365843e-01,2.200771201864388515e-01,2.417311490903217841e-01,-4.128628766930807562e-03,-3.460920798132479954e-03,-5.520721661212015831e-03,2.483169548213481903e-02
2.308738527113418926e-01,2.315566743072869083e-01,2.418741212376985528e-01,6.667330655525052384e-04,-1.350911225938835995e-03,9.948676566282762482e-04,1.112378947436809540e-02
2.946363326073813682e-01,2.482787205872060698e-01,1.751257174883920631e-01,5.695554631997050638e-04,1.382878783408168560e-03,6.858598170943729089e-02,1.581467986106872559e-01
1.406089648341780907e-01,2.701046918111797979e-01,2.642962284514479565e-01,-2.767299540116872642e-03,-1.109997888637518845e-02,5.046733396541620148e-03,1.285290718078613281e-01
1.946024498525631696e-01,2.487814783019867138e-01,2.584968570708544022e-01,1.157347211427481315e-02,-7.176087432032884125e-04,7.456888215659689817e-03,6.423645466566085815e-02
2.423527783538897695e-01,2.614038468901601631e-01,2.300910876247369008e-01,5.158392804626499989e-02,-3.163290832085510762e-02,3.910167204858711054e-02,1.277432590723037720e-01
2.353366948669526892e-01,2.369056460070297354e-01,2.353673532924343836e-01,5.970374190226976178e-03,-6.926967670133972639e-03,4.744055952148938313e-03,1.791137643158435822e-02
2.436906786804078906e-01,2.101274855707699063e-01,2.576012831469691733e-01,2.942864483407047795e-03,5.539490254261012631e-03,-1.312985134669491507e-03,4.370455443859100342e-02
2.342347148428315928e-01,2.353461775239052145e-01,2.369460599305902027e-01,2.413347437040206690e-03,-2.096205452082735687e-03,3.333542125263739154e-03,8.340602740645408630e-03
2.346664172691818318e-01,2.282126334327738426e-01,2.454620771881370622e-01,1.891665814924886092e-03,-2.360679446030457870e-03,2.126495023335047817e-03,1.639786548912525177e-02
1.946467829301505859e-01,2.527350743534486077e-01,2.590257924555176561e-01,1.210159443422939921e-02,-1.522649437311383771e-03,4.738659424504085629e-03,6.552027165889739990e-02
2.624095419804362006e-01,2.903151913243918747e-01,1.524770839859361238e-01,-2.582544936312040473e-03,5.843115690701432274e-02,3.936473475743562656e-02,1.756216436624526978e-01
2.141605351090205001e-01,2.337895035503837482e-01,2.588716494634160092e-01,1.358964069576973702e-02,-2.393284884644113902e-03,3.180037986821168325e-03,4.591626673936843872e-02
2.982470376466683226e-01,1.609882303487943922e-01,2.943612300143702010e-01,8.287996021311956705e-04,1.739043042772329614e-02,1.787004088172302815e-02,1.420882642269134521e-01
2.210745150593679265e-01,2.195820895915137350e-01,2.460587142782251213e-01,-1.021503358037306394e-03,-1.806021770866066394e-03,-1.250549058039495190e-03,2.610233239829540253e-02
2.589301569646303425e-01,1.931546666780517840e-01,2.461335794991638126e-01,-6.103018372230772665e-04,3.611583996994681932e-03,2.254219444457675539e-02,7.220225781202316284e-02
2.474362750118433707e-01,2.270155916491780612e-01,2.348669884173707756e-01,1.108742922917722081e-03,-1.737368223252011264e-03,2.055230611154888754e-03,1.854003965854644775e-02
2.484624544214740771e-01,2.484997670160496996e-01,1.879772447419477133e-01,-4.284831711549574700e-03,-5.643441541209772219e-03,-4.591003052729461173e-03,6.224608793854713440e-02
2.612422779948460061e-01,1.718055829256523448e-01,2.614294048222811639e-01,9.061330560827666677e-03,-1.125225385118397339e-03,1.580518888141067835e-02,9.494855254888534546e-02
2.612602949134743557e-01,1.835067571142515730e-01,2.585960230458669296e-01,8.373891341241735883e-03,-1.290948810551953072e-04,8.532979810547170613e-03,7.921114563941955566e-02
1.646455821880422332e-01,2.901268080920059167e-01,2.506591712968919694e-01,7.698839233013826666e-02,7.110279730981321211e-02,-3.859177471602586590e-02,2.230856865644454956e-01
2.318432837433953841e-01,2.382996737436478829e-01,2.336702707172395865e-01,5.424239812871043016e-04,3.813196033179433735e-04,1.688892227232509282e-03,6.565292831510305405e-03
2.894663968117525132e-01,1.058044279471204302e-01,2.592106611126162030e-01,7.192350185908358284e-03,1.149270586820096834e-02,6.152502400673330596e-02,2.024789452552795410e-01
2.413795333898676732e-01,2.310068284855976706e-01,2.361987774032063281e-01,1.578419246775276388e-03,-2.411497740047809785e-03,1.411081560706649741e-03,1.056354213505983353e-02
2.802292184582370616e-01,1.941381554938969578e-01,1.853338452381527723e-01,-1.482163124366743003e-02,2.431158414580187471e-02,8.947982253918063122e-02,1.862774193286895752e-01
2.594698607741496854e-01,1.888598074321690135e-01,2.724125615662583155e-01,8.978698720101905423e-03,4.431376758322557417e-03,3.653965529320163386e-02,1.018497869372367859e-01
2.593477568182682713e-01,1.977948235358692464e-01,2.500368406231492369e-01,1.485528191292090306e-03,2.231739777053503519e-03,1.175261676860149020e-02,6.114144995808601379e-02
2.611360738360752332e-01,2.519112171599006134e-01,1.599610867441793316e-01,-2.678685823739975196e-03,-1.911674988228312042e-02,-2.688364088372816735e-02,1.125798299908638000e-01
2.192413274972120074e-01,2.373903968258091191e-01,2.444853085094655376e-01,5.081729561609214969e-03,-3.399900460430067307e-03,6.291916830375071483e-03,2.719204127788543701e-02
2.473988400789391695e-01,2.134971446934680328e-01,2.445956010884565712e-01,-1.579069317151649346e-03,5.038082694573163892e-03,3.688584321930563764e-03,3.444695472717285156e-02
2.956433095388231180e-01,2.925369835711143507e-01,4.505085902658811925e-02,1.079831162178281588e-02,-1.872039545541598349e-02,-7.540289020351103114e-03,2.521894872188568115e-01
2.665517885722314961e-01,2.538915790769839531e-01,1.590066946975006723e-01,4.862106711847054112e-03,-5.184721065734158559e-04,-2.442842026390280863e-02,1.105742007493972778e-01
2.535116562929637940e-01,2.132249917023338048e-01,2.425722149414327733e-01,1.427679915075103856e-03,8.667795435239899517e-04,5.081364958725546541e-03,3.725322335958480835e-02
2.649727343377081268e-01,2.560566535972762514e-01,1.763121444676759020e-01,1.307892555941629923e-03,-2.099195248535952116e-03,-8.980350103171346257e-03,8.608125895261764526e-02
2.534348487672501982e-01,3.186701780782492666e-01,1.122052435738016135e-01,7.881771416260804561e-03,-5.897285127512334746e-02,-3.259347972424439521e-02,2.173047959804534912e-01
1.715600163813442991e-01,2.627038649424612848e-01,2.465070759191581307e-01,-4.701829811503493127e-03,-1.453690380995305113e-02,-3.568478064936206513e-03,8.849738538265228271e-02
3.574711992527813131e-01,3.482682007669601343e-01,1.059581880219465089e-01,3.539599947739457270e-02,1.684164727234947756e-02,-3.219809655247369423e-02,2.621994018554687500e-01
2.525263526554563098e-01,2.225181880764902920e-01,2.208712152852379818e-01,2.983099355645283963e-03,1.946448701565714739e-03,-5.989539570463835345e-03,3.314078226685523987e-02
2.674632838768152832e-01,2.964859147737456402e-01,1.503531887797513178e-01,6.433085788508678335e-03,-3.608957308324495933e-02,-6.530710144169155464e-04,1.482859998941421509e-01
2.576436574112612177e-01,2.537442986620953023e-01,2.009966486187376167e-01,6.892900774667525855e-03,-3.833381450761603679e-03,8.112792469996799039e-03,5.820029601454734802e-02
2.639394967380884194e-01,2.545892190048386627e-01,1.928172375272612094e-01,4.754341715695657722e-03,4.855029299839513750e-03,9.457043818848711106e-03,6.991153210401535034e-02
2.564691967025891639e-01,2.519102362573467646e-01,1.982431410549859163e-01,5.237088498274368800e-03,-8.907117571524187554e-04,1.062247638006314637e-02,5.973926559090614319e-02
2.327088508795985833e-01,2.307476769093139146e-01,2.411195047163602334e-01,-2.472692201870502812e-03,2.163210297336763330e-03,2.691379431067670962e-03,1.204955112189054489e-02
2.651570234155616879e-01,2.691014291284071214e-01,1.739694088096989388e-01,6.932490669005754794e-03,1.825514979147781821e-03,1.325352616169582281e-03,9.407372772693634033e-02
2.260427034862212414e-01,2.416568000953422668e-01,2.374704057894548581e-01,-1.264459665157329068e-03,1.469851277756048296e-03,3.682076261988592551e-03,1.574516296386718750e-02
1.831001565517280938e-01,2.625685251259284314e-01,2.526712715911240692e-01,8.835482248891178038e-04,-6.086238022849237150e-03,3.484296568557493194e-03,7.600361108779907227e-02
2.105733497698437373e-01,1.770727131937341881e-01,2.805594519758370931e-01,8.317635821701825638e-02,1.682867464974591165e-02,4.208435675322288495e-03,1.732702851295471191e-01
2.037641007290745820e-01,2.543030618613335569e-01,2.683385498017766269e-01,2.684032556234329861e-02,1.889979692034059883e-02,7.961971954218773420e-03,8.296695351600646973e-02
2.284873023890252874e-01,2.217468103618708553e-01,2.614238465401357847e-01,8.189931604314679148e-03,5.565813166749715782e-03,-2.025446027223556499e-03,4.072745516896247864e-02
2.134444907262671165e-01,2.262249111715627370e-01,2.547377494103260642e-01,-2.195975618985756498e-03,-6.663940082230392775e-04,-3.453116744117637406e-04,3.683590516448020935e-02
1.669837985943452008e-01,2.463358305851565955e-01,2.737877447431653621e-01,6.483586505419247636e-02,2.838480994777909175e-02,1.551262976918408015e-04,1.557464301586151123e-01
2.369041649332874755e-01,2.369197558602707532e-01,2.328592998668051472e-01,-1.540650760037407755e-03,6.202535613265215859e-04,5.433519084264436293e-04,5.058151204138994217e-03
2.391320281836215866e-01,2.204348837065269184e-01,2.442498749622931398e-01,-1.899404205509129182e-03,5.202316089982885090e-03,1.207212748158922443e-03,2.382965013384819031e-02
1.895485785540138579e-01,2.387643710742989034e-01,2.879744787118539984e-01,8.161766915633585084e-02,1.181689605392245972e-03,2.380240832570103965e-02,1.701585352420806885e-01
2.298739936329479983e-01,2.227631563730474995e-01,2.682983987912024304e-01,3.585843154205324568e-02,-7.011607434943099328e-03,6.767251709020831799e-03,7.708816230297088623e-02
2.287438677482722393e-01,2.559722676947779330e-01,2.161923942934422527e-01,-2.536463635092869005e-03,-1.335187328064320507e-02,-2.507608339383727864e-03,4.258714243769645691e-02
2.309238548910501343e-01,2.286264780105295158e-01,2.440160119902595737e-01,-2.312850775962744230e-04,2.270257290640720609e-03,7.898133645201374856e-04,1.497512031346559525e-02
1.715433510195500666e-01,2.456475118649901479e-01,2.588252637486988528e-01,3.288892918896683948e-02,-1.644460643450378415e-02,1.404326018327082919e-02,1.062523648142814636e-01
2.199141911870461930e-01,2.758871395942157911e-01,2.551330861567369102e-01,-5.400205057856721953e-03,4.528404017802587639e-02,2.676657701680740242e-02,1.038787961006164551e-01
2.155108627240882313e-01,2.602971066960315105e-01,2.371918024896388089e-01,1.768046471462310278e-03,6.992392803507543539e-03,5.207158075059523626e-03,4.174044728279113770e-02
1.981983634613532497e-01,2.553343716948146547e-01,2.539429654327293173e-01,-2.899875511665879913e-03,1.107167852165728827e-02,4.671694075400568275e-03,6.037721782922744751e-02
2.535343739716813816e-01,2.227586048111181438e-01,2.358832648296869394e-01,-5.633866302767693906e-05,1.928305424779093360e-03,1.922425133929184324e-03,2.716127596795558929e-02
2.237818305145713171e-01,2.493924328853053263e-01,2.365005128104744614e-01,-5.130872817917973665e-03,1.463146787703892282e-02,5.119606956516030080e-03,3.594138100743293762e-02
1.922250808109012277e-01,2.738565222269500055e-01,2.612422521170862932e-01,3.894818646031973988e-03,2.882111283858540540e-02,2.161276338385465651e-02,9.865041077136993408e-02
2.609310716100884942e-01,2.630493802621253208e-01,1.702739172692797343e-01,2.861227869892810603e-03,-3.939839402949668092e-03,-3.052495766002310531e-04,9.212303161621093750e-02
2.416965503756634825e-01,2.323290133979156735e-01,2.305854209322899251e-01,9.962042451371433231e-04,-4.889946942217044019e-04,8.044071270274192481e-05,1.052796561270952225e-02
2.240765664328002171e-01,2.606789349801965638e-01,2.370982953146394123e-01,-2.264426277736777797e-04,1.353436962318783909e-02,2.670095469843211580e-03,4.004687443375587463e-02
1.994175781660377511e-01,2.529833170177176460e-01,2.498554596646822001e-01,-3.925387384950725610e-03,1.074830399344046429e-02,1.235969231766565445e-02,5.968765169382095337e-02
1.958368357643056334e-01,2.553623008882855983e-01,2.532813325055413012e-01,-1.834421590242084300e-03,9.571286289107425529e-03,5.817256372033490636e-03,6.172670423984527588e-02
1.901918165902702906e-01,2.584866014993223438e-01,2.361913272607848446e-01,-1.951787086377265550e-03,-1.226783688650607239e-02,-4.421629386330103162e-03,6.449950486421585083e-02
2.540955013545976859e-01,2.061612195534989200e-01,2.415124093238019687e-01,-1.341971922981843261e-03,2.155365268313166622e-03,4.570203294473104867e-03,4.398713260889053345e-02
1.466166819248927444e-01,2.635541327777732312e-01,2.637968045383921045e-01,4.913937299697391202e-03,-1.342876151060436000e-02,6.380112479808575099e-03,1.201597154140472412e-01
1.798413448732108511e-01,2.632469765224207392e-01,2.661498345150674627e-01,5.355454610542475027e-03,-2.197484669216392354e-03,5.770290903228845851e-03,8.606659621000289917e-02
2.474237711545149154e-01,2.249978512642499540e-01,2.360286347608195889e-01,-9.065041587114814909e-04,4.543589934715093308e-03,1.649812819889818214e-03,2.120820805430412292e-02
1.815986090208000503e-01,2.671324027982637239e-01,2.594021135377160281e-01,6.546005510458206660e-03,-4.059111724681429244e-03,4.889545610634675986e-03,8.345231413841247559e-02
2.688773927010900677e-01,2.758239933545945100e-01,1.622560852941257181e-01,8.609698638828234066e-04,1.919453770232329090e-02,3.511398421815456472e-03,1.153322085738182068e-01
2.484734051813178579e-01,2.567327692089027003e-01,1.791498736761225896e-01,-2.498659942680971774e-03,-6.286253356556048902e-03,-3.484096997268343755e-03,7.496822625398635864e-02
1.696241214386527973e-01,2.866059378037341676e-01,2.778236745247001926e-01,1.567085255234828070e-02,-2.254142104694295545e-02,1.520016451827656614e-02,1.252546161413192749e-01
1.732825380330949294e-01,2.623125523181253915e-01,2.361282005053900734e-01,1.529712383529088088e-02,-4.321264222672025618e-02,1.317063302714977131e-02,1.144778132438659668e-01
2.111659462765683448e-01,2.499321324829300583e-01,2.533930950044532837e-01,2.025671459985404696e-02,-5.744514631488012099e-03,1.160659462246529938e-02,5.816446244716644287e-02
1.819952434404423780e-01,2.562815274182041470e-01,2.625071658931855678e-01,-1.800760903209412797e-04,-8.852692894110441180e-04,1.085847626836920245e-02,7.984896749258041382e-02
1.930765330598495089e-01,2.630527772236326278e-01,2.463571541596067116e-01,8.084752546289824746e-03,-1.175428482497614495e-02,2.951309172749993180e-03,6.814566254615783691e-02
2.543450212012126621e-01,2.169090472841550821e-01,2.153901243829156598e-01,-5.523239097191785102e-03,-4.394472371172468590e-03,-1.371468671960898375e-02,4.662995040416717529e-02
2.497557560179203551e-01,2.275111679645447360e-01,2.298158393035493741e-01,-1.375317418088606845e-04,5.078769978026576514e-04,7.847521708856227069e-04,2.124958299100399017e-02
2.546924068097410343e-01,2.276647527254843928e-01,2.173970095286262283e-01,2.456161283398164419e-03,1.260760343191275187e-03,-2.098811626977580003e-03,3.390450403094291687e-02
2.448479241707820220e-01,2.282912962326602291e-01,2.332468953020820357e-01,-6.337866852467868373e-04,3.411653409972053002e-03,1.296579115319494149e-03,1.605610176920890808e-02
2.515255733982880160e-01,2.268929875457779410e-01,2.075449049773066268e-01,-6.671039010996160715e-03,-2.297697599681910053e-03,-5.527894400862484910e-03,4.121559485793113708e-02
2.308939764012930829e-01,2.318829953160035096e-01,2.386387359098852967e-01,2.901082318166193076e-04,3.277513859094336813e-04,5.396993154712871523e-04,7.399210706353187561e-03
2.546320997695306065e-01,2.227558238907357269e-01,2.066769097483924789e-01,1.571669343275382876e-03,3.758951347511133218e-04,-9.727075850291890674e-03,4.559437185525894165e-02
2.382273062660181795e-01,2.367466327839316265e-01,2.334498034457609672e-01,-3.776291377597364163e-03,5.941950647254373892e-03,5.999106986695318042e-03,1.657143048942089081e-02
2.556617182363890572e-01,2.159556110667361639e-01,2.176291573309496186e-01,-1.005996102233135689e-03,-5.825452914797233468e-04,-9.597088196166758331e-03,4.234728217124938965e-02
2.403580993534646382e-01,2.282254734351493730e-01,2.375708023113140555e-01,-5.366434171420759319e-04,4.289109278609894854e-03,7.532269474914894160e-04,1.337564177811145782e-02
2.546754048536857273e-01,2.225664092558131968e-01,2.195480675306373808e-01,1.681311650590078125e-03,1.651690330512795230e-03,-3.032943021940329512e-03,3.436967730522155762e-02
2.546849497088325975e-01,2.224845494153019909e-01,2.212735265056434419e-01,1.684127639670967560e-03,1.731496176787162503e-03,-4.950507609300447594e-03,3.418118506669998169e-02
2.217582635420150272e-01,2.388101279461624094e-01,2.442163374494630834e-01,-1.554487525170201610e-03,1.831670361146004681e-03,5.825458152545785404e-03,2.304997481405735016e-02
2.539809780848601983e-01,2.206633795112970531e-01,2.213009141777345645e-01,-2.896445362992756934e-04,8.547088060262470789e-04,-5.330469067198773461e-03,3.430616110563278198e-02
3.615923692966012126e-01,1.014452402309377055e-01,2.714910097265418876e-01,2.734034755752840634e-02,1.716796681039917463e-02,-5.129863880423803091e-02,2.517469525337219238e-01
2.819308578736714477e-01,9.484565636286038104e-02,3.350191388636092338e-01,-2.129569681266221814e-02,-1.270405667913425928e-02,-5.109366199019482746e-02,2.396406829357147217e-01
2.743081638219545537e-01,1.799154400455095781e-01,2.758988039969357264e-01,1.502622470229445645e-02,1.572816245280093950e-02,2.471611180815061135e-02,1.109720990061759949e-01
2.675191933153537316e-01,1.507610194292442196e-01,2.680351480562468969e-01,5.501335589690941469e-03,4.403576978757989778e-03,3.416858037386059574e-03,1.178005635738372803e-01
2.863218670541974875e-01,1.519307923420767370e-01,2.876166627989641955e-01,1.723862270914466172e-02,1.193875359528924658e-02,4.551847423641051092e-05,1.398419290781021118e-01
2.711045122513633387e-01,1.398013241984134569e-01,2.664630720702303446e-01,-1.833806867961571690e-02,3.479466351697373984e-03,-1.501062873148904103e-02,1.355498582124710083e-01
2.705996501459479453e-01,1.402292598022085723e-01,2.681840403327181432e-01,-1.798921482848213349e-02,3.377066647009212448e-03,-1.596781076097026492e-02,1.358576864004135132e-01
2.821070063139877182e-01,1.802246831163439866e-01,2.832634083997802588e-01,2.750655320348777827e-02,7.686665666918213874e-03,1.671301393630328716e-02,1.174062266945838928e-01
2.649252784801247040e-01,1.684210817013306327e-01,2.687304859027662141e-01,-1.986086166441140138e-03,6.172615863544985738e-03,-8.095793680960638788e-04,9.911035001277923584e-02
2.370190606279641288e-01,2.343205937854926646e-01,2.328699942700863390e-01,5.344090466887104190e-04,-9.293097797523637137e-04,6.364104127017611258e-04,4.238282795995473862e-03
2.673845843309144987e-01,1.887108744972080254e-01,2.619327336618735291e-01,9.793652588896063771e-03,6.275298694317719105e-03,2.146977787989533867e-03,7.880400866270065308e-02
2.668148189605754061e-01,1.497501678867002584e-01,2.636405996148974973e-01,-6.108228670356816332e-03,5.515385964947649815e-03,9.758466525539135142e-03,1.176073625683784485e-01
2.384155126493813504e-01,2.100980015479140539e-01,2.395594031776294153e-01,-1.213520665577955820e-02,-8.753321232360848983e-03,-1.049562041569231802e-02,4.286849498748779297e-02
2.631269472949879229e-01,1.892725224966880782e-01,2.545629766635351121e-01,-1.362632799540464774e-03,9.302849379938323178e-04,3.389336080169820173e-03,7.027062028646469116e-02
2.330099824647390849e-01,2.395063185157572661e-01,2.326181337846856545e-01,6.135538704752180285e-04,1.949468403831502083e-04,-9.020492887819937973e-04,6.970361806452274323e-03
2.331013482392557679e-01,2.411796997725655367e-01,2.302681241668793066e-01,2.540311573450401272e-03,1.432648485603685859e-03,-9.988527035888208287e-04,1.116623543202877045e-02
2.325606422948378049e-01,2.443633295072158429e-01,2.302646560049693980e-01,1.673398199598581789e-03,5.335997451400166904e-04,2.334866683535998747e-04,1.345705427229404449e-02
2.757872941609086914e-01,1.903898305134663627e-01,3.122764763969912982e-01,3.418250580398599081e-02,2.517209319256331207e-02,1.254072064720385404e-01,2.536284923553466797e-01
2.333436167982225751e-01,2.436200507634952162e-01,2.315961598713298653e-01,2.582130844799448901e-03,3.364479181699460680e-03,-2.309602410981128045e-03,1.402071584016084671e-02
2.487192966232159019e-01,2.620180446791268158e-01,1.821820396251314644e-01,3.343895167199815999e-03,-6.288167138881978722e-03,-1.641777676590317489e-03,7.516102492809295654e-02
2.499103182697943182e-01,2.295759181797084048e-01,2.275477781114323694e-01,4.593207743213098028e-04,-3.218797247976904385e-05,6.740802163818980465e-04,2.146721631288528442e-02
2.242421374287278946e-01,2.419445170237406739e-01,2.373928162208073234e-01,3.052400485272916287e-03,2.432464755631749079e-03,-4.075230313395658381e-03,1.868263632059097290e-02
3.431803649784618271e-01,6.765094842970553746e-02,2.889435609163402696e-01,-3.829642480331622162e-02,4.583248708635297847e-03,-5.431797382318651491e-04,2.614918947219848633e-01
3.291555471753190854e-01,1.128048546615584846e-01,3.302835900885195963e-01,4.405323680323409291e-02,5.541750241964732426e-02,4.401503902961803605e-02,2.605768144130706787e-01
2.507785138758208965e-01,2.275370051939862026e-01,2.304299355695492713e-01,1.793833221165210177e-05,1.305420011577486427e-03,8.753733289828849158e-04,2.210685051977634430e-02
2.800418580460867224e-01,1.639989799746763288e-01,2.699465719497947669e-01,9.488236331553144901e-03,1.806664537032500947e-02,2.937064463587898966e-02,1.274110376834869385e-01
2.610703019862027907e-01,2.045687976460541790e-01,2.502183596220391437e-01,6.485367594089040677e-03,2.079266272395193828e-03,1.043173980667684402e-02,5.623741820454597473e-02
2.752479747687839318e-01,1.487283275093165824e-01,2.766405996559548885e-01,6.207957230551332251e-02,-6.242911698201607067e-03,5.664048869672697051e-02,1.936190426349639893e-01
2.936050165448960136e-01,1.785149442380656870e-01,2.789108661656789501e-01,3.065132137339910551e-02,7.106496873352722080e-03,1.986808907037805605e-02,1.261932402849197388e-01
2.799015456483060493e-01,2.008384117787874179e-01,2.446577976086951323e-01,1.190518202591343833e-02,5.118299053213895729e-03,2.434511024307140295e-02,8.359703421592712402e-02
2.590217994876239938e-01,2.586282660631490371e-01,2.047567608814011841e-01,7.953922757131815999e-03,3.713306841461052471e-02,-7.056511780188920099e-03,8.601898699998855591e-02
2.467349759615287130e-01,2.279747812393850270e-01,2.322812145318993160e-01,-3.479900801823540904e-04,1.996001029927109253e-03,8.984476446659195228e-04,1.744814403355121613e-02
2.545276517121092819e-01,2.809603666038702485e-01,2.113823396330143101e-01,9.485997635619431573e-03,3.166181178912270272e-02,1.102502053902278643e-02,8.568938821554183960e-02
2.670045214219332053e-01,2.676398086727519998e-01,1.397267373448003447e-01,2.377689142227677743e-02,4.568001703737610553e-02,-3.376322861073923626e-02,1.663032621145248413e-01
2.855757803973270059e-01,2.923952108139015182e-01,1.541999046858654188e-01,1.820615463828023639e-02,1.576700600745332970e-02,-4.294495457603868596e-03,1.414126902818679810e-01
2.424625621550751120e-01,2.359878725043048353e-01,2.302088159441279258e-01,-1.942163678581670244e-03,1.472973266206160882e-03,1.564078390499432916e-03,1.174311153590679169e-02
2.760703282137553782e-01,2.017643824226701965e-01,2.325335082352140148e-01,-5.814541960544341442e-03,1.992969951070616003e-02,5.483324293807494837e-02,1.203945279121398926e-01
2.650890877496218101e-01,2.655429367213645309e-01,1.759056221728273472e-01,5.613727968212016417e-03,8.605057784299031259e-03,-1.532329564719249818e-02,9.494980424642562866e-02
2.555844314499194359e-01,2.744140563793548981e-01,1.766999216266069428e-01,1.523553932084805926e-02,1.900526786399761234e-02,-1.383951200994725482e-02,1.020649224519729614e-01
2.466250940418649451e-01,2.279445118553355687e-01,2.303742270060971931e-01,-3.508517593904959125e-04,1.013002237721406839e-03,8.376227877858429590e-04,1.774913631379604340e-02
2.422577653949782861e-01,2.343088323653677307e-01,2.301801962806542812e-01,-2.861255767573609755e-03,1.528440194313714692e-03,2.056311399345152335e-03,1.254206616431474686e-02
2.300238640208778496e-01,2.351455219365769511e-01,2.394897096115003177e-01,1.792622965426404844e-03,-1.004506240806963191e-03,3.097884205490343892e-03,1.043125335127115250e-02
2.345331283278046242e-01,2.342030825476174583e-01,2.350024882766982570e-01,-7.620679271802191642e-04,4.267817423590872261e-04,2.689768446022487432e-04,1.729119801893830299e-03
2.325412935090408473e-01,2.342410907189585445e-01,2.369792888334480152e-01,6.048119771645357225e-04,-1.267527580865823820e-03,8.435526773339183538e-04,4.805563017725944519e-03
2.465064745441404304e-01,2.027175841787377253e-01,2.471843170481146101e-01,-2.669780295992177453e-03,-5.292307758473208286e-03,-1.519858080945418136e-03,4.538663849234580994e-02
2.324517460395346957e-01,2.342059148294802773e-01,2.373633278947901160e-01,-1.955616428655534476e-05,-3.037106953639252447e-04,8.525366550556629083e-04,4.587300587445497513e-03
2.306191149005716312e-01,2.239882427103898066e-01,2.439687749056604626e-01,-1.414412229368260153e-03,2.864733653068909230e-03,7.792767715076717380e-04,1.852418296039104462e-02
2.393457983435528236e-01,2.315765213291346158e-01,2.283542241619661295e-01,4.620298166363773565e-03,-4.163658436337035716e-03,5.310133472838271876e-03,1.721690967679023743e-02
2.412327019175827258e-01,2.282146126187501456e-01,2.359881542839979141e-01,-7.402396680313957835e-04,3.943349982342202013e-03,1.117278780231558376e-03,1.344398595392704010e-02
2.296310927201230534e-01,2.496911293945394406e-01,2.283552816424000986e-01,3.043334663928438889e-04,8.392686322988399160e-04,-2.696745646096188986e-04,2.079025469720363617e-02
2.352733042946181519e-01,2.470325885564070012e-01,2.246543275549181262e-01,3.682684210946624188e-03,1.401777679657761596e-03,-9.763542697773530416e-04,2.062416635453701019e-02
2.278355676962146026e-01,2.438128368803476331e-01,2.119977476865292920e-01,-5.553454498601797205e-03,-5.848036786859296503e-03,-3.775502447418561426e-03,3.157592937350273132e-02
2.405141823986426119e-01,2.580190351059012954e-01,1.892853142806614208e-01,-4.583935032901160882e-03,-1.062726225828485027e-02,-2.690396832072641103e-03,6.520076096057891846e-02
2.276272919111151094e-01,2.574369435431459463e-01,2.118694152857398261e-01,-2.129150848518589385e-03,-1.117878274316050531e-02,-3.953130153613173409e-03,4.518893733620643616e-02
2.269754507405206401e-01,2.285706874279371248e-01,2.438791799475749089e-01,3.710016808693436335e-04,2.780328134668395130e-04,8.057545659366036755e-04,1.624524407088756561e-02
2.189030701608199181e-01,2.460478136968390905e-01,2.220651581562464727e-01,-1.796338570794918897e-03,-2.027856210373773279e-03,-3.361113428376180223e-03,2.677517943084239960e-02
2.169910168332397638e-01,2.496720928352593460e-01,2.246823096324282454e-01,-4.704452045255878498e-03,-1.255777872001832135e-02,-4.265864056437051501e-03,3.833967819809913635e-02
2.281748992325395020e-01,2.445500671188023945e-01,2.176513226488293595e-01,-3.760598516907336791e-03,-2.123008199543458159e-03,-1.696842468749596268e-03,2.481537312269210815e-02
2.215093516310390753e-01,2.496297771787592545e-01,2.218581356841884400e-01,-3.649507616707254459e-03,-4.372556989516316640e-03,-2.902186042101545516e-03,3.006084822118282318e-02
2.337741854521779850e-01,2.340526614477096423e-01,2.356836761091350430e-01,1.111924971321053267e-04,1.897969675479778233e-04,-2.408548644270947796e-05,1.827253843657672405e-03
2.183524737726536546e-01,2.773990322781449414e-01,2.307068741226277753e-01,-2.553447057761669935e-03,3.834757931394729841e-02,9.575499279607930028e-03,8.726903051137924194e-02
2.315821134005011106e-01,2.760413243672484307e-01,1.977307044930322888e-01,4.335416141201312024e-02,7.724989792074409001e-02,-1.407876651848444932e-02,1.695982664823532104e-01
1.956655204126012126e-01,2.465941564168488143e-01,2.449911270950177744e-01,1.332460351534868991e-02,-1.097601377397827878e-02,1.061237654736681309e-02,6.120928749442100525e-02
2.340912615197591196e-01,2.287471927962103080e-01,2.383593629633030675e-01,-6.333826756678433319e-04,2.463757665345968437e-03,5.471049718158480348e-04,9.481380693614482880e-03
2.497240661776726212e-01,2.152503986067016428e-01,2.137831772025703958e-01,-4.842385409039979237e-03,-5.062224995691722365e-03,-1.177318752475752309e-02,4.247605428099632263e-02
2.467124239415930953e-01,2.265743495602194346e-01,2.313499827830848843e-01,-8.950057679261698516e-04,3.307854318010806319e-03,2.722976555503749119e-03,1.973953470587730408e-02
2.453403254133620093e-01,2.283177454575484322e-01,2.336116695433326507e-01,-2.825281422412144559e-03,6.786898065743467504e-03,5.146656933693690393e-03,2.166274376213550568e-02
2.469401268404928240e-01,2.343334041396245571e-01,2.269971418864008272e-01,2.588932471376077446e-04,9.195812502250562143e-04,2.493546956661516628e-03,1.807284541428089142e-02
2.512242942007813506e-01,2.265249798455443719e-01,2.302351858578937371e-01,-1.274860845447874959e-03,2.012232125067961713e-03,3.183254071894701942e-03,2.407497912645339966e-02
2.512476068633793247e-01,2.290251514952247880e-01,2.300948328394772646e-01,-1.119777935454757895e-03,2.005772023527644960e-03,5.469090359793653440e-03,2.401613444089889526e-02
2.441838835082009995e-01,2.303347966920365752e-01,2.244517204527326504e-01,3.053666810267527138e-03,8.642959276123516818e-04,-1.257186286711797947e-03,1.851594634354114532e-02
2.353570562816974243e-01,2.346722079416222184e-01,2.338781306234248847e-01,3.672566497068947247e-04,8.171765973975237535e-05,6.474157146083788807e-05,1.442441949620842934e-03
2.449081811009091447e-01,2.291816208153030221e-01,2.308892391728901983e-01,-2.619847602135266362e-03,4.077934848968953370e-03,4.493698557902508009e-03,1.882671378552913666e-02
2.627012198516658903e-01,2.491138971863364471e-01,1.809198538046047355e-01,4.478889491886978852e-03,2.866066591285928652e-04,1.850707814410273988e-02,8.276219666004180908e-02
2.541679955621547471e-01,2.308643558100021143e-01,2.292637764713284787e-01,-7.117474077334593960e-03,1.684955981112005660e-02,2.659532829627857253e-02,6.089789420366287231e-02
2.593063236653837533e-01,2.249613390127275792e-01,2.375575834453839130e-01,8.189382254845086265e-04,4.806063603794537113e-03,1.645173624355780739e-02,4.229552298784255981e-02
2.169262380620387010e-01,2.453285209572021175e-01,2.421836208919416755e-01,7.280734456239163280e-03,3.307910070967369411e-03,-4.308316870577940001e-03,3.122173249721527100e-02
2.540774132650657213e-01,2.110227402533750574e-01,2.342107706052917182e-01,-1.153258296162878397e-03,2.568491676890916151e-03,8.382848871029984286e-03,4.034395143389701843e-02
2.339921674657762518e-01,2.366491357175804500e-01,2.341988482553668538e-01,6.802618234228445960e-04,2.290818067426602625e-04,-8.820053018958070147e-04,3.229946829378604889e-03
2.527698119439710789e-01,2.238377439899828236e-01,2.246430278857370622e-01,1.522217798603162520e-03,1.342085723256394034e-03,1.188570440419713277e-02,3.536353260278701782e-02
2.494039961587376508e-01,2.546370129408846439e-01,1.931613412831111876e-01,5.173865700574967544e-03,-4.619949445428048543e-03,1.101687878413888351e-03,6.027369946241378784e-02
2.534516732262783179e-01,2.157232267726227615e-01,2.330210587454717985e-01,1.313033017433149234e-03,5.641366593132873634e-04,6.729019332745011378e-03,3.481373935937881470e-02
2.442596414066408872e-01,2.405937812716308910e-01,2.199335240246022005e-01,6.045711305652797830e-03,1.713929087223953641e-03,-1.772196526453502074e-03,2.537536062300205231e-02
2.512629341903685476e-01,2.247806851276206441e-01,2.354520879294275948e-01,-2.639399082978233831e-03,3.530907160489213294e-03,1.286730604826118000e-02,3.297862038016319275e-02
2.258985298553926047e-01,2.229246654242885983e-01,2.515871700816008083e-01,1.089435955867497537e-02,3.790493683408091216e-03,-1.087504637185888025e-03,3.388004377484321594e-02
2.180673848099224377e-01,2.386544570247096653e-01,2.522852331999386744e-01,4.455944448722663938e-03,1.620101553701683988e-03,-2.494284717545259172e-05,3.094649873673915863e-02
2.383016511597055020e-01,2.338981713408865293e-01,2.300175733458151295e-01,2.444360611627547676e-03,6.517013421559843993e-04,-6.690032425869747506e-04,8.489955216646194458e-03
2.285537752519576360e-01,2.317548428747713829e-01,2.510583274869023773e-01,4.556121030369962403e-03,1.860905717800806145e-03,-1.445197252740264271e-04,2.274619601666927338e-02
2.386099391435712869e-01,2.311022497727399372e-01,2.321757175705505827e-01,3.407038023886502947e-04,4.492910860542910717e-04,3.920275652249139982e-04,7.132555823773145676e-03
2.152067097647520355e-01,2.327249115309030225e-01,2.537770378656591941e-01,8.076983758360658378e-03,5.478784848990716485e-04,1.711836645732711876e-03,3.639065101742744446e-02
2.291843874786581858e-01,2.295744276485551794e-01,2.512955804309469077e-01,4.646443787676421584e-03,2.687665671735261271e-03,1.284766877448970590e-03,2.391283214092254639e-02
2.296297000281368184e-01,2.256927501312013251e-01,2.479742471101111512e-01,2.378061954268748546e-03,1.151338132111396923e-03,-8.576903117649782365e-04,2.115166001021862030e-02
2.299480308909693793e-01,2.295570864903066499e-01,2.528222435891601116e-01,5.226074319763781249e-03,1.609455472532629865e-03,2.048821087121595081e-04,2.494308538734912872e-02
2.488156290844966145e-01,1.887805052867136402e-01,2.471307827083785436e-01,-9.070468132348973728e-03,-7.741645249606790222e-03,-3.751547533175172457e-03,6.304559111595153809e-02
2.321447815197641429e-01,2.298349625602872925e-01,2.497049542985360360e-01,4.506509470047553520e-03,3.153918551788484174e-03,-1.435675612177314889e-03,2.124162763357162476e-02
2.344228009290709458e-01,2.228889725234420582e-01,2.528019366260642609e-01,1.947117787754684779e-03,2.206297144399613653e-03,5.938113856090136570e-04,2.664279378950595856e-02
2.359813707904208913e-01,2.209593604067216221e-01,2.582629237618825901e-01,9.443813550092187634e-03,5.392229660853988839e-03,-9.411338989964001395e-04,3.760697692632675171e-02
2.366306166478066575e-01,2.150166059590609691e-01,2.573279690831231092e-01,5.071251841622439853e-03,1.655177269435258473e-03,-3.913807086923840029e-04,3.779854252934455872e-02
2.683721806695931189e-01,2.687414325075321297e-01,1.758748427277860571e-01,4.211152575659754364e-03,-6.052076006197347957e-04,2.908179311019084504e-03,9.311133623123168945e-02
2.546382834635869674e-01,2.376879522156777058e-01,2.255045446157678546e-01,-6.268337768988471552e-04,6.640135376850842333e-03,1.282649315184631808e-02,3.562683984637260437e-02
2.579844763319671386e-01,2.506769867713921629e-01,2.033861546122299746e-01,-1.808732287393301447e-04,2.080942121134720865e-03,5.662045164023040041e-03,5.238954722881317139e-02
2.375964855258538566e-01,1.958611131575250519e-01,2.658579546168263752e-01,-2.440445395881835414e-02,3.973574584173749855e-03,5.128161505604258118e-03,7.505363970994949341e-02
1.843621521847482181e-01,2.490401250227397001e-01,2.568431438859885563e-01,-5.480871867419583217e-03,-4.050540160484474711e-03,-2.220403011384525400e-03,7.002101093530654907e-02
2.443429193304397784e-01,2.388565502626213422e-01,2.199057031772807258e-01,5.241014762303869770e-03,1.717049362329941230e-03,-1.822665264624799726e-03,2.438077144324779510e-02
2.202538179131277585e-01,2.460479570683517248e-01,2.209472653883884918e-01,-1.040797828696447824e-03,-9.372352835537675099e-04,-1.828371290378973113e-03,2.576519735157489777e-02
2.489125941154435862e-01,2.347635651610856522e-01,2.201447674882379135e-01,7.433887084552183097e-03,7.705517421981864651e-03,-8.803234345250097667e-03,3.459985554218292236e-02
2.238993013668877097e-01,2.388012724094943362e-01,2.259522568394846387e-01,-1.075303960335146801e-03,-9.244291327099472474e-04,-8.126291184448578052e-04,1.427248865365982056e-02
2.281847557295081652e-01,2.123996930214776535e-01,2.521337333972722416e-01,-5.731056527538666394e-03,3.863893280094873699e-03,9.578264474835831207e-04,3.669923916459083557e-02
2.270539597200688098e-01,2.259907742235775230e-01,2.319516036917982083e-01,-6.501248273340629914e-04,-1.077585480833402653e-03,-2.248002487920595666e-03,7.087770383805036545e-03
2.019213621848103823e-01,2.189807652384227477e-01,2.715731442570319398e-01,-2.350919100879271875e-02,7.811964117009665212e-03,5.519266563385979464e-03,7.672476768493652344e-02
2.277795121152028923e-01,2.082438710530332415e-01,2.573424813782476672e-01,-7.048098321962417701e-03,4.151589376831787796e-03,1.892500302844395913e-03,4.521748423576354980e-02
2.178952328354147039e-01,2.250956238581448554e-01,2.533661703673503740e-01,-3.465475400520508231e-03,1.723554200548390800e-03,3.308715255011706897e-03,3.365132585167884827e-02
2.480689792856065612e-01,2.434534993801507619e-01,2.207796365124060634e-01,1.163010385437543252e-02,-2.059116097639929199e-02,3.003866538907783851e-02,7.088573276996612549e-02
2.186495416121878310e-01,2.523699475866458819e-01,2.215364675089369906e-01,-3.999708752799333109e-04,-8.254603195256531977e-04,2.977955701381481362e-05,3.241262957453727722e-02
2.525860490486775412e-01,2.289959809824445303e-01,2.351679560739232122e-01,5.594995064378058616e-03,-2.877208430360499863e-03,8.311109632691398089e-03,2.783806435763835907e-02
2.255655806534824503e-01,2.351579355548441552e-01,2.259300331823814734e-01,-8.181494918546541493e-05,-2.976734135653918739e-04,-1.435363504790507618e-03,9.752786718308925629e-03
2.496967895483799271e-01,2.208048860806175184e-01,2.267284804092240258e-01,7.098949632671952602e-04,1.390036539971555951e-04,-2.820312902327136353e-03,2.690946683287620544e-02
2.510570446369908004e-01,2.355972784999086633e-01,2.135908858041974112e-01,7.039250636367509403e-03,-2.709239761382393769e-03,7.117416606502890118e-03,3.723097220063209534e-02
2.495569769794068749e-01,2.262195476547324557e-01,2.291113960914333558e-01,8.526038139292550040e-04,-3.211341394262264156e-04,3.834153283709786433e-03,2.306734584271907806e-02
2.498622863303452957e-01,2.260359878980760795e-01,2.300017714554385695e-01,1.739747785483403836e-03,-8.605924843083676912e-04,2.770198317861863324e-03,2.287474647164344788e-02
2.453220193811082583e-01,2.370866276780442261e-01,2.279059369679146407e-01,5.892418280017421538e-03,-2.623198454309848184e-03,9.083392346402270612e-03,2.449576929211616516e-02
2.512056456352862455e-01,2.316195676920454471e-01,2.205043220946885374e-01,3.644446952012676995e-03,-1.833277716169720659e-03,9.004289665008546883e-03,3.190654516220092773e-02
2.396060564580214658e-01,2.393999006417634190e-01,2.006423083574204458e-01,-1.316796829928126855e-02,-1.583662366166582389e-02,-1.880199674060441251e-02,6.199444085359573364e-02
2.229113610005222512e-01,2.230552766287854372e-01,2.385715756156139011e-01,-7.886294650388819697e-04,-1.045290454990506794e-03,-2.539282917820290600e-03,1.635533198714256287e-02
2.490114788719513528e-01,2.201601072733564979e-01,2.345395424099304127e-01,1.976249799952581841e-03,-2.471789487931127637e-03,5.434614204896680290e-03,2.725718915462493896e-02
2.543827671372597687e-01,1.992655377782203974e-01,2.346940627211358266e-01,-2.500126992727190467e-03,-1.744056536939528551e-03,-4.990924370559540399e-03,4.942643269896507263e-02
2.452720880963064898e-01,2.312142446262842876e-01,2.295493539489211199e-01,3.616919557531009764e-03,-2.197704615861072620e-03,4.111442015531906365e-03,1.811760105192661285e-02
2.175064796803714839e-01,2.460718417390546919e-01,2.275565874616447548e-01,-1.613418356869453620e-03,-2.100747686272436913e-03,-3.699644920571441321e-03,2.630609273910522461e-02
2.565502190496253276e-01,2.152120551057030151e-01,2.159945419669653810e-01,-3.552756996037337935e-05,-3.337335209767486235e-03,-1.137578724409312250e-02,4.581214115023612976e-02
2.591007440837138631e-01,2.540369631769224257e-01,1.819477125191864275e-01,5.724249109745757017e-04,-9.248264029112419904e-03,-1.142937357107064525e-02,7.897475361824035645e-02
2.195390645301489585e-01,2.511856902754688869e-01,2.166689220616321021e-01,-2.591329567379359496e-03,-2.305232304560458825e-03,-1.353694901628136422e-03,3.379588201642036438e-02
2.130148948920514984e-01,2.550254340743691173e-01,2.256804996661555818e-01,-2.236693983879139015e-04,-2.451593121185005348e-03,-5.860927010056903161e-04,3.758225217461585999e-02
2.442232373915470545e-01,2.333082001117603721e-01,2.313539617306381579e-01,3.455272241851495112e-03,-2.176420014368021620e-03,2.879960029996990554e-03,1.480531319975852966e-02
2.441296075032382829e-01,2.211532919460756363e-01,2.343549577389707483e-01,2.366789788759727457e-03,-3.364546791183520985e-03,5.333079566980918930e-03,2.312920801341533661e-02
2.227445707554876475e-01,2.347054634633981285e-01,2.528883319131247642e-01,2.027228965645854787e-03,9.470930290346954179e-04,2.652307341716847108e-03,2.696826122701168060e-02
2.252054556108584737e-01,2.309452930185105224e-01,2.528879741889786814e-01,3.729331667236495014e-03,7.574524877991211215e-04,2.414054970448549324e-03,2.648211456835269928e-02
2.265883042923941271e-01,2.231456170074092304e-01,2.507065802128763399e-01,1.038794569189195258e-02,-1.749798978545055207e-03,3.310808974486340733e-03,3.228580206632614136e-02
2.153405298835296411e-01,2.364005164714366169e-01,2.494137482488476276e-01,5.129280260608073266e-03,-2.703774033178664177e-03,4.035173275021955268e-03,3.219678997993469238e-02
2.157082562048541763e-01,2.364508131910334487e-01,2.532636421673130633e-01,5.154112182001917633e-03,-2.098552494202128116e-04,4.575132466229058815e-03,3.470285609364509583e-02
2.470532377768746291e-01,2.272895876162695505e-01,2.099940634582592724e-01,-5.669917480786210336e-03,-2.494630701956388700e-03,-4.224217880026163649e-03,3.464397788047790527e-02
2.520850109101382963e-01,2.275856197411553206e-01,2.147457776832905341e-01,-6.084333369263638693e-03,-6.379437919486668183e-03,-1.089882619073732559e-02,4.085525870323181152e-02
2.464103017127430573e-01,2.278720632138914459e-01,2.164133953256577592e-01,-3.333368882917999744e-03,-1.625341677793273312e-03,-1.968115767453094012e-03,2.720791287720203400e-02
2.520634265352810766e-01,2.258498165297565252e-01,2.141922546997253318e-01,-2.197181454882006068e-03,-7.600482487155136094e-04,-2.690074066238831458e-03,3.415500372648239136e-02
2.513341880641258297e-01,2.209801054361082706e-01,2.181707246681812429e-01,-8.645215828018097811e-04,-4.205150484177027845e-04,-1.081840801206983499e-03,3.195032104849815369e-02
2.439347899327823366e-01,2.256797374142720247e-01,2.308618476967477240e-01,1.084823695992658855e-03,4.849251786764326166e-03,-2.235578113395982058e-03,1.883006095886230469e-02
2.126193886284110102e-01,2.365578504576977548e-01,2.363520889850412865e-01,-2.670542490404089440e-03,-2.696755268982392248e-03,-7.026000373421987903e-03,2.755854837596416473e-02
2.495980528635985962e-01,2.607423294542358660e-01,1.792665061835477802e-01,5.155548403533372276e-05,-6.478154405557799006e-03,-4.217819622546817304e-03,7.767749577760696411e-02
2.431041054057865303e-01,2.276352336068199200e-01,2.178076132532118514e-01,-4.331695900143609813e-03,-2.135373208642322475e-03,-1.510951943656290873e-03,2.376361563801765442e-02
2.292426942491561648e-01,2.287076932376515548e-01,2.285708406928427805e-01,-4.969053459756138266e-05,-4.251297646109204785e-04,-7.094462343217420198e-05,9.710220037959516048e-04
2.594918039015903788e-01,2.493888910839340556e-01,1.850792777352973928e-01,-8.737428869674368319e-04,-3.828406173713687875e-03,-6.100138615269617981e-03,7.103101164102554321e-02
2.349477996941948532e-01,2.259412755971940134e-01,2.255290967520760248e-01,-3.222648060275361357e-03,-3.891485754315312552e-03,-3.455945432908549483e-03,1.405054144561290741e-02
2.304758497428001096e-01,2.317636036838400249e-01,2.215892624368739627e-01,-8.127782802494114625e-03,-6.920234453217854673e-03,-7.787674714613855576e-03,2.481669932603836060e-02
2.304212227352765152e-01,2.335583957597857363e-01,2.251355791856169963e-01,-5.294462585394466188e-03,-4.888592056220034468e-03,-4.743665663725490575e-03,1.666307076811790466e-02
2.353081422073764750e-01,2.238642499841388966e-01,2.204509083253454460e-01,-6.551605550837528644e-03,-7.460104083826378518e-03,-6.616040937866328984e-03,2.467228285968303680e-02
2.166420842906049971e-01,2.239672687672788765e-01,2.642918864462984185e-01,-2.692682848730443279e-02,-8.205800663496999603e-03,-9.551826918731836508e-03,6.801468878984451294e-02
2.417274194217069738e-01,2.398329720123024700e-01,2.024769380322025969e-01,-8.378421389039261355e-03,-6.141897563701185017e-03,-4.038403555386661445e-03,4.292458295822143555e-02
2.231957193109055937e-01,2.196127135203229386e-01,2.464338909140418588e-01,-1.363821202656223704e-03,-5.791864782837210937e-04,-1.308669407371344275e-03,2.545264735817909241e-02
2.325271004364104221e-01,2.442525301761810097e-01,2.304421857590218115e-01,2.864852166974052837e-03,4.587978047089862760e-03,-2.000231896223203607e-03,1.631112024188041687e-02
2.214769584050954865e-01,2.487970454982797175e-01,2.336055376905974423e-01,2.165391785019515989e-03,5.311298013263325221e-03,-2.556635786150656536e-03,2.608527056872844696e-02
2.349594540822220745e-01,2.259066853790775431e-01,2.278134261872274413e-01,-3.790375176457229378e-03,-2.977225475342846258e-03,-3.384327804708298169e-03,1.312937401235103607e-02
2.460466736927618414e-01,2.205118091211119291e-01,2.209564517557348340e-01,-1.066673848281914734e-03,-9.895597504247135700e-04,-2.925244165212194315e-04,2.544564567506313324e-02
2.246278692051924541e-01,2.503341891422654619e-01,2.347251101993447220e-01,8.687121782021436879e-04,1.710510743534182079e-03,-5.701333388391001270e-04,2.269852347671985626e-02
2.204016858156289393e-01,2.209612597779322396e-01,2.464258610703676522e-01,-6.946040400491268084e-04,-1.286825889571053660e-03,-6.138623134401047753e-04,2.589505724608898163e-02
2.372606665621135591e-01,2.436586715400866632e-01,2.303609708658677369e-01,6.220499743669660568e-03,8.148071476960602744e-03,-2.913977798020022346e-03,2.175811119377613068e-02
2.215335462136915068e-01,2.449185762507919972e-01,2.439268871444136566e-01,8.363821570839305095e-03,1.568562616333321266e-02,-4.812644674039942387e-03,3.926976025104522705e-02
2.330703563948440526e-01,2.435747767958663101e-01,2.277139180045755773e-01,2.667128122756567011e-03,1.726920036907996468e-03,-1.162764587658887856e-03,1.515401247888803482e-02
2.235222109531087575e-01,2.498971321936254708e-01,2.348043255004956531e-01,6.943146981193111869e-03,1.126703297374181782e-02,-1.815552340039853271e-03,3.256848827004432678e-02
2.426188463046334842e-01,2.221585609901558789e-01,2.232896580196173653e-01,-6.990165206398355011e-04,-1.976679427939179168e-03,-7.506660988654624599e-04,2.028886973857879639e-02
2.265998670114662827e-01,2.498172955121442662e-01,2.241705521578336302e-01,6.266655856937981828e-03,1.094560773721979866e-02,-3.050910076536684536e-03,3.326423093676567078e-02
2.000085268732237909e-01,2.527382415190613796e-01,2.341177074402180369e-01,1.678303679320242506e-02,-1.817922371094894338e-02,1.371138792735616084e-02,6.742226332426071167e-02
2.239651782506159872e-01,2.377570049156312870e-01,2.101236821306551872e-01,-1.114621999431328510e-02,-1.535442902961089290e-02,-1.075822103870936741e-02,4.472034424543380737e-02
2.314035904098190877e-01,2.315069185955110631e-01,2.217863136639164900e-01,-3.864322965973209303e-03,-2.622095462303207936e-03,-1.726777831384618571e-03,1.295634359121322632e-02
2.240604345773648531e-01,2.513121921162487227e-01,2.207134260704687878e-01,2.109382494550169837e-03,-1.999449302235488304e-03,5.365063965964833722e-04,2.951741963624954224e-02
2.391266090941641387e-01,2.506597475921009677e-01,2.068652618200254589e-01,8.501044778808045099e-03,-8.281152479874574063e-03,5.313635062309825415e-03,4.531139135360717773e-02
2.284122200751606269e-01,2.286702339878958767e-01,2.284250999860775455e-01,-9.413350788285254796e-04,-2.709529664111931806e-04,-2.345320724638554695e-04,1.762671628966927528e-03
2.406511974973706558e-01,2.538889921683386008e-01,2.049934536857090650e-01,6.304413410704973533e-03,-5.558386995986296271e-03,1.333343565771100180e-03,4.621689021587371826e-02
2.262512854374533755e-01,2.520977205768296092e-01,2.162352876109010502e-01,2.294120181005270421e-03,-1.025343089511832409e-02,2.015614713671628946e-03,3.702177479863166809e-02
2.182769910343733410e-01,2.514599268989156089e-01,2.248765692406521910e-01,1.226753365358085280e-03,-2.596983202224466530e-03,2.154559079255219476e-03,3.105386346578598022e-02
2.327141411970948814e-01,2.580350307787577790e-01,2.124307721921320224e-01,2.698138784406397140e-03,-1.262082178379025053e-02,2.789479964842241783e-03,4.570770636200904846e-02
2.413384001619210406e-01,2.582013520808758567e-01,1.941403997000828163e-01,4.662486129217046325e-03,-9.658715736500490812e-03,1.338011684888636968e-03,6.048443913459777832e-02
1.953099769133603003e-01,2.594826700746130643e-01,2.635470060221364319e-01,1.358214745022431370e-02,1.489681253943791681e-02,3.071560182493273186e-03,7.511954009532928467e-02
1.827942147655478300e-01,2.638599371510336189e-01,2.497857719340368654e-01,1.107297988305103262e-03,-3.795287932856802708e-03,7.244552743536093395e-03,7.637501507997512817e-02
2.385949869622872588e-01,2.217352804238252595e-01,2.241942881554052636e-01,-1.645933336294971286e-03,-3.485597980723577002e-03,-3.111402703895832338e-03,1.795706525444984436e-02
2.299321201265535353e-01,2.273341942933420345e-01,2.291839240945645617e-01,-7.888506199926550999e-04,-1.459235209679300531e-03,-9.360067064896162355e-04,4.030948039144277573e-03
1.752192807715626799e-01,2.623821956303830638e-01,2.573455605393746848e-01,-1.026461923644606108e-03,-9.988818997966105590e-03,1.697578683103076642e-03,8.657291531562805176e-02
1.514693203604497995e-01,2.627218192911391359e-01,2.509170107998260901e-01,-1.693328024661916453e-02,-2.963128823219698255e-02,-3.641341540114614254e-03,1.213968023657798767e-01
1.657183519884955214e-01,2.612944746118934791e-01,2.710829618717022771e-01,-3.560836710696458490e-02,-4.363777249457324175e-02,-1.234302931559343001e-02,1.419149041175842285e-01
1.621235553806870400e-01,2.638929800710199669e-01,2.616982951638346933e-01,-4.986390039268919112e-03,-8.910377492015284992e-03,-5.335456335493201719e-04,1.022355705499649048e-01
2.264272439281601879e-01,2.324967620269952073e-01,2.265266186693362382e-01,-1.735934678403562885e-03,-5.113449516697855671e-04,-7.335249503279981991e-04,6.905416026711463928e-03
1.647806490693850545e-01,2.665501563975194999e-01,2.533886202638375718e-01,3.401370961187095542e-03,-2.380340330860515954e-02,3.554872744458940394e-03,1.047054976224899292e-01
2.291068027774240123e-01,2.432194327749265805e-01,2.123609793783857169e-01,-6.132472641172535127e-03,-4.012676845553698850e-03,-6.034184911966384082e-03,3.140505030751228333e-02
2.063684187816349214e-01,2.275530584824704827e-01,2.502572778812815479e-01,-4.848750141780347640e-03,-2.832202013583261062e-03,-6.328048554465626370e-03,4.074284061789512634e-02
2.218841151349754404e-01,2.221927097246838567e-01,2.494166652269887985e-01,-4.375669558299113103e-03,-3.759530879296316824e-03,-3.752681500638262516e-03,2.986184321343898773e-02
2.220157947820528832e-01,2.202100361296426001e-01,2.440519109879077664e-01,-2.709470965861072392e-03,-3.539882002112422488e-03,-1.782927245357638843e-03,2.444985881447792053e-02
2.102206453871187930e-01,2.274966230205132389e-01,2.469453704810521122e-01,-4.359285683155675328e-03,-2.390222214619336198e-03,-5.635000548533132363e-03,3.438195213675498962e-02
2.137452669452189202e-01,2.257963565443070753e-01,2.493928215373792390e-01,-1.911239458606145154e-03,-1.508196330697978826e-03,-4.380885670439706517e-03,3.258441388607025146e-02
2.063443426941042880e-01,2.260703059519985902e-01,2.493666182038672130e-01,-5.396570012060612764e-03,-2.280884889993017167e-03,-5.157477750411452316e-03,3.967554494738578796e-02
2.163282520616144622e-01,2.142552924569046113e-01,2.605500688549209354e-01,-1.130129181079920185e-02,1.248019598271455548e-03,-8.792983501106542638e-04,4.941342025995254517e-02
2.284145057122916045e-01,2.157219999527038301e-01,2.505620876649040651e-01,-1.081025221673895427e-02,-5.650009826652747230e-03,-6.645496571714529753e-03,3.887883573770523071e-02
2.219797302683923224e-01,2.226736237352038850e-01,2.439752720371373695e-01,-4.680920662292966002e-03,-3.615421202740023293e-03,-3.662457631318677062e-03,2.478326857089996338e-02
2.322201029742159695e-01,2.282331059414514640e-01,2.466322124274919203e-01,1.019235018605811833e-03,1.064545858832007755e-03,-2.354883909221300135e-04,1.696315780282020569e-02
2.493221637265503610e-01,1.578138770521201328e-01,2.690070514531976431e-01,-3.931198895457230225e-02,-2.237457471531872216e-02,-2.577021152570560178e-02,1.367225795984268188e-01
2.639048211301637803e-01,1.856807277836728387e-01,2.470045210200216002e-01,8.484988783427987145e-04,-2.181062450281486247e-03,-7.440299140884405749e-03,7.256116718053817749e-02
2.658716327183184847e-01,1.736133124925084981e-01,2.592006959898332519e-01,-4.480726589117246285e-03,-1.352863243580706325e-03,-8.808356799716242705e-03,9.076967090368270874e-02
2.519892711080951586e-01,1.921030543730995466e-01,2.420180489885404296e-01,-6.091944117443497814e-03,-6.093510106307289259e-03,-9.501005611449880178e-03,5.985132232308387756e-02
2.354851188709972953e-01,2.467453492501090195e-01,2.361677667420826743e-01,2.478547424499462012e-02,3.750307086440925891e-02,-1.033921910008823129e-02,8.063913881778717041e-02
2.289210366722177203e-01,2.463703214199857161e-01,2.343493961510213219e-01,1.471881356590515333e-03,1.561996238675355912e-03,-2.951835291686595326e-03,1.670875400304794312e-02
2.319411223425291713e-01,2.463569553281610147e-01,2.300899485774686448e-01,3.653508936811259399e-03,3.509061016158746167e-03,-2.038722119189823566e-03,1.809373870491981506e-02
2.366950149147262206e-01,2.412614077905125831e-01,2.278320263448357919e-01,3.850209643430718698e-03,7.092301031196316871e-04,-4.733738678228393290e-04,1.365759875625371933e-02
2.289594029272999653e-01,2.744072148416674684e-01,2.120788725282793385e-01,1.104496969247251333e-02,2.420074451721521830e-02,4.204625613695703659e-03,7.275766879320144653e-02
2.522342659041045265e-01,2.303756708586224833e-01,2.192068055015098382e-01,4.479769204758167651e-03,8.774773273514797868e-04,-1.397715947915322519e-03,3.024984523653984070e-02
2.144225382936038315e-01,2.539951659194118472e-01,2.317540509160994910e-01,1.312213903820513448e-03,6.989581365231378046e-03,8.276505107631905098e-04,3.652812913060188293e-02
2.770579323301695651e-01,2.647401444846967933e-01,1.666389370016212457e-01,-7.779165339841868617e-04,-1.188300635528668093e-03,-2.817197485365448284e-02,1.156330257654190063e-01
2.319127239095863657e-01,2.498312403250021185e-01,2.247425481507169809e-01,3.977086800256436107e-03,3.283389205871722720e-03,-8.717906898464769256e-04,2.414616383612155914e-02
2.469457495764312560e-01,2.015333027245453934e-01,2.238788414448390218e-01,-1.388855403228382059e-02,-1.312322017109749175e-02,-1.981354700414301659e-02,6.180542334914207458e-02
2.340005687206086482e-01,2.317543946419458600e-01,2.438265916809207179e-01,2.681516137024911057e-03,3.613865535324949259e-03,-2.559232471375110212e-03,1.428522542119026184e-02
1.936300775297917220e-01,2.574923677262292432e-01,2.575321538066960847e-01,2.185570198954437521e-03,4.054091486321075542e-03,4.135003061286354406e-03,6.477550417184829712e-02
2.557791395769582476e-01,2.240897590273842888e-01,2.122380130000856013e-01,1.181196677958524632e-03,-6.341772100234380769e-04,-5.331277666457103631e-03,4.013620689511299133e-02
2.469751470174068597e-01,2.355998906211201893e-01,2.092026362975595855e-01,-5.715330893325053056e-03,-2.268753852623732557e-03,-3.480327722149273613e-03,3.572480753064155579e-02
2.387977340674732885e-01,2.315645660031007413e-01,2.204823172348434057e-01,-3.332134326944047407e-03,-1.880740435598034742e-03,-1.904591361746504029e-03,1.760959997773170471e-02
2.314530201547521648e-01,2.293404501626699621e-01,2.486539410047330090e-01,3.620121983894403900e-03,3.246172851129512649e-03,-1.169385057121470530e-03,2.029048837721347809e-02
2.314085547447356506e-01,2.253222751818282632e-01,2.485915050546987082e-01,3.432767058956083701e-03,3.247095954102962190e-03,-7.541179783291993401e-04,2.248478308320045471e-02
2.318165664785971636e-01,2.271550447563903952e-01,2.443894573535019821e-01,3.006536168853763628e-03,3.235330390900333173e-03,-8.661618918726768975e-04,1.729701645672321320e-02
2.369504449463361861e-01,2.192197442370512062e-01,2.437291412289294135e-01,4.163982481565653773e-03,5.982176704446479955e-03,-2.537611140444048698e-03,2.567515335977077484e-02
2.052162345509659647e-01,2.444361944597175373e-01,2.537659831628496510e-01,2.054924674709986479e-02,1.054242652601463000e-02,-3.771393375303728687e-03,6.028330698609352112e-02
2.463762673491172173e-01,2.258051784395224693e-01,2.163842368254634829e-01,-4.367403941448297529e-03,-1.631289919736223773e-03,-2.381890996257842938e-03,2.807042934000492096e-02
2.403537667927960197e-01,2.204607786814638259e-01,2.445699864211508534e-01,-1.968408305530270404e-03,5.952959797478877060e-03,1.189330357546769263e-03,2.489098906517028809e-02
2.301342936412267282e-01,2.295900779856245300e-01,2.456528432168568754e-01,1.900565518789989593e-03,1.273679077058158899e-03,-1.860610265800175227e-03,1.660288684070110321e-02
2.145682894892910475e-01,2.301389552140698513e-01,2.514517029638095313e-01,9.877875394045720903e-03,1.160285411855654231e-03,3.512205355645550134e-05,3.640456497669219971e-02
2.281786211218655158e-01,2.290243392937650058e-01,2.515907352884377834e-01,3.249707150959895742e-03,2.095794979994655520e-03,4.861482805854865346e-04,2.397102676331996918e-02
2.547659893184697211e-01,2.576031269051918260e-01,1.872464805312978320e-01,5.397476957029364837e-04,3.049230100467175807e-03,-3.409794109487338529e-04,6.919257342815399170e-02
2.660782819239894126e-01,1.621879685724220144e-01,2.546295966634306573e-01,-1.053887505008205272e-02,2.120220152884259857e-03,-2.291801312858254142e-02,1.079687848687171936e-01
2.411184258054249463e-01,2.254072352118621780e-01,2.241321031824049792e-01,-3.795507095601369750e-03,-3.497736783687438282e-03,-3.506926624951627394e-03,1.962949335575103760e-02
2.464069434021519678e-01,2.372705671774405778e-01,2.092215550481533182e-01,-5.171620676333254195e-03,-2.524684079374166223e-03,-2.736866647831859897e-03,3.533153235912322998e-02
2.719869593226036941e-01,1.515534957418347983e-01,2.698874588611621106e-01,1.836934272127033283e-03,7.329283659110405816e-03,5.568076141145591020e-04,1.201165467500686646e-01
2.851152283231551121e-01,1.596307302164533537e-01,2.734455648856425891e-01,-1.923942197942818053e-02,-4.803970804717552431e-03,-4.063931926530847671e-02,1.433615833520889282e-01
2.351352624590971885e-01,2.081095266854298964e-01,2.477854223706604242e-01,-3.482753594268413015e-03,-5.634940856202738657e-03,-2.554286084494740861e-03,3.719564899802207947e-02
2.609519437074735992e-01,1.711923308430026713e-01,2.684440502294387909e-01,-3.684934950633736613e-03,3.050884466750371660e-03,-1.106912075439031801e-03,9.411558508872985840e-02
2.355803234726676354e-01,2.208482523940945852e-01,2.314691739291901973e-01,-5.799773682587590871e-03,-5.806156171893122817e-03,-7.583246106423321628e-03,2.340796962380409241e-02
2.565892175773235584e-01,1.812803330033529725e-01,2.561808677008183821e-01,-9.641166440461300738e-03,-2.694534320364252219e-03,-8.656017383959295139e-03,7.852553576231002808e-02
2.374576365070900086e-01,2.371762533168707832e-01,2.090808638227837080e-01,-6.379114589609444566e-03,-3.007519039433680878e-03,-2.843759344102876792e-03,3.115784563124179840e-02
2.292515799479592220e-01,2.297500742191213585e-01,2.284437289774300384e-01,5.948958911015015301e-08,-4.726744065552036409e-04,-4.954983323330003440e-04,1.646404503844678402e-03
2.280996252321524642e-01,2.299833635810291932e-01,2.268739018106880334e-01,-1.769044618550543466e-03,-9.728794820509061980e-04,-1.243372312418514637e-03,4.921968560665845871e-03
2.497633522602502598e-01,2.216741001399499256e-01,2.166701412636740653e-01,-3.827558804372493094e-03,-2.217271335664839065e-03,-4.313479548766167328e-03,3.269741684198379517e-02
2.229561153656581529e-01,2.384391998620118691e-01,2.243497247315756893e-01,-2.649765052566594413e-03,-1.251741913250254508e-03,-1.113853718874340199e-03,1.579800620675086975e-02
2.254731149596476136e-01,2.147390824513512875e-01,2.524999263566645724e-01,-1.970504562577012411e-03,-3.681523748304230126e-03,-5.719493002991617127e-04,3.448282927274703979e-02
2.304204689755831037e-01,2.315281090446212886e-01,2.252686438797137647e-01,-3.333005029934147604e-03,-1.057043540320755067e-03,-1.269173952666309080e-03,8.659430779516696930e-03
2.304264182565570751e-01,2.384530569979608772e-01,2.185749864112364882e-01,-3.388775109689959927e-03,-3.000945282567402290e-03,-2.425024519724802707e-03,1.947103440761566162e-02
2.287594289949458071e-01,2.233583812791610779e-01,2.340813049714000893e-01,-2.188572906511524873e-03,-3.680165682391215581e-03,-1.871160415717818427e-03,1.231834106147289276e-02
2.283016108120239918e-01,2.297506224003579012e-01,2.294499028077301439e-01,-4.980345258009344312e-04,-5.052092115127535541e-04,6.391338804443773324e-08,1.806694432161748409e-03
2.413078997284365257e-01,2.326135701921421550e-01,2.302252946476938400e-01,2.700464353248098383e-03,2.895185915081668199e-03,-1.893369644638372411e-03,1.264270767569541931e-02
2.250635376995064330e-01,2.260076740039832499e-01,2.355738300590239642e-01,-3.513020379065978963e-04,-6.380720684106006967e-04,-1.907438872884947064e-03,1.067432016134262085e-02
2.258407292167008140e-01,2.272902333811736286e-01,2.327227131103673241e-01,6.169108263362821972e-04,-8.676811099221140838e-04,-6.522187992090132955e-04,6.645586341619491577e-03
2.285123109310624456e-01,2.301815128597455573e-01,2.484071730520013011e-01,3.621631997988233875e-03,9.687435745614162309e-04,-2.227634493564886048e-03,2.055320702493190765e-02
2.367397366395338765e-01,2.477172537627672644e-01,2.246899996368993957e-01,4.729787754861174490e-03,1.429159681127795817e-03,-9.629724626321911098e-04,2.177154831588268280e-02
2.282553964473884589e-01,2.297995872524717098e-01,2.467527339628838023e-01,3.136286227029288012e-03,1.653934829717799808e-03,-1.312883151010372975e-03,1.894357241690158844e-02
1.937154419819731299e-01,2.625457463567225092e-01,2.558283737115674139e-01,2.297050274968883300e-03,4.093496457533240748e-03,2.483979723205955933e-03,6.637006253004074097e-02
2.251320162025556015e-01,2.332292889706995276e-01,2.277963122478440516e-01,-1.446454174175556152e-03,-1.638257354344248122e-03,-2.915716036537255047e-03,9.535372257232666016e-03
2.310499021892694071e-01,2.307335228076990707e-01,2.437157102684925913e-01,2.865182859123349148e-04,6.344857137629618827e-04,-1.059008776262252349e-03,1.301339641213417053e-02
2.321205575166400414e-01,2.258858602169585561e-01,2.496566613775744736e-01,3.063086184456900295e-03,3.148729881359254093e-03,-3.095410283376573445e-04,2.266929857432842255e-02
2.322342188014226427e-01,2.264609103064344764e-01,2.469879975943328199e-01,2.739381983134934508e-03,3.233298781695138641e-03,-1.111181481709426835e-03,1.984345354139804840e-02
2.367401096451186571e-01,2.557707758647094209e-01,2.774094849851375111e-01,-2.272889598890117865e-02,1.037161913825212362e-01,8.168759904832605112e-02,2.346950024366378784e-01
2.435344720850556866e-01,2.431529612590017375e-01,2.187958645062674512e-01,-3.462734935700240678e-03,2.055825994453855041e-03,2.783178576620429657e-03,2.597297355532646179e-02
1.500931622031125290e-01,1.818070502587678383e-01,2.970191006280014090e-01,-1.062842326819265076e-01,-1.496996664072515124e-02,-1.169987313373301203e-02,2.300117015838623047e-01
2.163371626445758089e-01,2.314675736246357418e-01,2.406860973963226569e-01,-1.118814483588514291e-02,1.025881623870134041e-02,9.021482826348686465e-03,3.726668283343315125e-02
2.005371036169325549e-01,2.545877089863829434e-01,2.512723683560241228e-01,2.932025259381033141e-03,-3.399590130227828164e-03,5.752119636533140415e-03,5.397208407521247864e-02
2.432592108804894071e-01,2.271019177475856188e-01,2.388960052240594045e-01,-4.879470461885479851e-03,6.303242335163142598e-03,7.107442551946451491e-03,2.348969131708145142e-02
2.282663868863489542e-01,2.433455150243646614e-01,2.406299624450596586e-01,-1.738050981460271226e-03,8.583403567734033263e-03,7.484282368417883094e-03,2.432974614202976227e-02
2.441565246401379286e-01,2.476663393298516036e-01,2.115720356577898142e-01,5.912597347001978705e-03,2.262612311265501438e-03,-1.471742316439107181e-03,3.626521676778793335e-02
2.359517038364477015e-01,2.476626997040059230e-01,2.236185656072650629e-01,-2.888945065839558166e-03,5.958536158201846976e-03,4.575209873566798979e-03,2.506062947213649750e-02
2.241226508603316459e-01,2.503290287668240577e-01,2.299912131203316890e-01,-9.720314347795647181e-04,4.558907986045852671e-03,1.920528982727046780e-03,2.537067793309688568e-02
2.104258490574189566e-01,2.428736305586300936e-01,2.580919718066686519e-01,4.191115023007147868e-03,1.234327683822227103e-04,4.857626545099652353e-03,4.360951110720634460e-02
1.026159033959442857e-01,3.465981603785363019e-01,3.523936012995773082e-01,4.564470559489405138e-02,3.966561176684652718e-02,3.563813832267105630e-02,2.752372622489929199e-01
2.307065645995147185e-01,2.460082327317255624e-01,2.292658891505524321e-01,-2.448090198799576615e-03,1.802500030447567059e-03,1.789045317951153211e-03,1.719272695481777191e-02
2.336194007708116971e-01,2.411199758019572370e-01,2.290871097368286924e-01,-3.406403538673545128e-03,2.602618377502851580e-03,2.517380152837738177e-03,1.359920203685760498e-02
2.334712690932937984e-01,2.473933753366865107e-01,2.287668642880112124e-01,-5.032595246217406223e-04,1.618800432491460063e-03,1.496041357181818231e-03,1.722752116620540619e-02
2.245603453288431139e-01,2.478169334165582494e-01,2.320197724140318218e-01,-2.142122376382602812e-03,3.259436993801564583e-03,3.203597530190763123e-03,2.234855853021144867e-02
2.410847653838427973e-01,2.294810221768912861e-01,2.122180221452497628e-01,-6.324177203289154010e-03,-3.661836132971291874e-03,-3.706655217688066897e-03,2.888605371117591858e-02
2.428368775821980463e-01,2.576574563462838419e-01,2.091423637012677361e-01,2.332637909136544077e-03,4.813984517845641686e-03,1.081388396949509905e-03,4.408738017082214355e-02
2.388249035824320243e-01,2.322021038311712360e-01,2.182871954691820437e-01,-7.726916454747004281e-03,-5.248332730092554639e-03,-7.258991133299289369e-03,2.737647481262683868e-02
2.510128291100467979e-01,2.226856152255662635e-01,2.343074078047193143e-01,5.660204109012305536e-04,-6.924912027652169373e-05,2.305130371197615467e-03,2.500401064753532410e-02
2.369599324671912421e-01,2.460557619162889731e-01,2.071891369770332281e-01,-5.937092699165363342e-03,-3.896760485859823708e-03,-2.712340063377712083e-03,3.759250417351722717e-02
2.625297132405484124e-01,2.495525550966570527e-01,1.847190803386974112e-01,3.029598880033352714e-03,-8.610480863563919809e-04,-6.148613162649704290e-03,7.318685948848724365e-02
2.387606511100246742e-01,2.253408595378992019e-01,2.218588093715982423e-01,-3.806628412310122077e-03,-1.653212053296120379e-03,-1.857140314635138002e-03,1.734823733568191528e-02
2.318068274050212874e-01,2.325342816757652031e-01,2.252954050491297322e-01,-2.157706220312550008e-03,-8.355044223322198029e-04,-1.108887127997050916e-03,8.210648782551288605e-03
2.414217100898627955e-01,2.278317878338068092e-01,2.178288464023033777e-01,-4.386977099269800083e-03,-1.610158709091139310e-03,-1.397258591430961244e-03,2.218232490122318268e-02
2.238443757424844194e-01,2.384234477077336878e-01,2.209255241947660764e-01,-3.770193160640593517e-03,-2.607355512001024046e-03,-2.176583271181787259e-03,1.846276596188545227e-02
2.354844840008769313e-01,2.257337986157538778e-01,2.249138368902428853e-01,-4.196857251959217397e-03,-3.838350050855842896e-03,-4.122805565255779035e-03,1.586743816733360291e-02
1.911701049967056698e-01,2.395027746008031033e-01,2.613790963306105164e-01,-9.753175997947545126e-03,-1.208408862742921166e-03,-3.207946420810017622e-03,6.475020200014114380e-02
2.281690708522908229e-01,2.459926288457083277e-01,2.155332361111964856e-01,-3.430798347477137002e-03,-2.447778604229306626e-03,-1.341449708231024157e-03,2.759064175188541412e-02
2.264279572445494770e-01,2.170863485930843162e-01,2.561153969914868322e-01,-1.287172001282053425e-02,-2.046642241183370143e-03,-1.034130773589680670e-03,4.193752631545066833e-02
2.274121873402641103e-01,2.191236780871311240e-01,2.388427573747802790e-01,-1.510271852323488576e-03,-4.058116529110913570e-03,-1.551238906504982112e-03,1.890942640602588654e-02
2.118260070565856634e-01,2.272457479294850702e-01,2.595988264183051730e-01,-1.346596740297261938e-02,-1.751212877004926617e-03,-1.654640092331979709e-03,4.842289537191390991e-02
2.253569687749785166e-01,2.167863641846257405e-01,2.501324404896594356e-01,-1.296313212742442695e-03,-1.875834476575998552e-03,-1.079077925241860974e-04,3.025314025580883026e-02
2.182786519403559500e-01,2.535912898964500228e-01,2.231992694181387515e-01,1.921197828318677893e-03,-3.309933013481213687e-03,1.903868891608740364e-03,3.394479304552078247e-02
2.067951399875692653e-01,2.271728796119544258e-01,2.548451991342517431e-01,-5.258993283923048268e-03,-5.324470404682177862e-05,6.134708981360883617e-04,4.276701435446739197e-02
2.043511705971891301e-01,2.256412746624036347e-01,2.549890304232422245e-01,-7.734626649641947529e-03,-2.334324296081678740e-03,-2.888268427801961649e-03,4.647819697856903076e-02
2.189222815924690424e-01,1.978733940978690264e-01,2.596672745025073725e-01,-2.566094474382955154e-02,1.717498664752335888e-03,2.270238514157307385e-03,7.043160498142242432e-02
2.276626796850973189e-01,2.116609836880700979e-01,2.582432477833427886e-01,-1.430470415316599520e-02,-1.786039572548314214e-03,-3.798989501318461581e-03,4.844901338219642639e-02
2.305847862564787409e-01,2.107700610523266793e-01,2.552432797025919742e-01,-8.089277205939606266e-03,6.952982767980770903e-03,-9.862840867769057888e-04,4.281968250870704651e-02
3.489402618691064273e-01,3.479332049398016213e-01,1.268119152644301140e-01,2.139270528951724495e-02,5.048367161882379162e-02,3.177006534176024521e-02,2.473157495260238647e-01
2.138868784295824277e-01,2.146861708136872660e-01,2.549388075402929665e-01,-1.166489923128716938e-02,-2.560854645582578710e-03,-2.035238883292744046e-03,4.575366154313087463e-02
2.160969246495908769e-01,2.222051831668738764e-01,2.493865351377931028e-01,-3.386826328104894715e-03,-1.856552476711858385e-03,-3.686045871802027911e-03,3.205745294690132141e-02
2.213045214832396745e-01,2.446432530463656663e-01,2.205264604071594803e-01,-3.703689900746412814e-03,-2.406067930124222015e-03,-2.282962421088704195e-03,2.525105699896812439e-02
2.376978561099351572e-01,2.392246833576346099e-01,2.106604854017302964e-01,-7.938475715250485967e-03,-9.860595954694868076e-03,-9.580721512810327564e-03,3.912486508488655090e-02
2.281089618205672520e-01,2.371731010118814376e-01,2.185320552228191548e-01,-5.161760794710559992e-03,-2.757855414517517995e-03,-2.292888390361829971e-03,1.947312988340854645e-02
2.513737894659084926e-01,2.423722171343735965e-01,2.176441695732762027e-01,-7.766776856347091954e-04,2.022099496831351526e-03,3.795963392510141865e-03,3.118333406746387482e-02
2.268004606022446523e-01,2.142581838838057140e-01,2.549832016330543238e-01,-4.850864555204687650e-03,1.534524363524721611e-03,3.101929419686022277e-04,3.718866780400276184e-02
2.096550881222498386e-01,2.257044785537704601e-01,2.540737057245543440e-01,-6.937067023849839524e-03,4.985724190195472191e-04,2.043334008811306288e-04,4.077921435236930847e-02
2.519616272454847650e-01,2.344873487170998361e-01,2.066323125720735676e-01,-4.843341558141803747e-03,-1.475366599972354658e-03,-3.157637540978785236e-03,4.092451557517051697e-02
2.050063211004401476e-01,2.262104421909561236e-01,2.543024855283700369e-01,-6.276297344792181911e-03,-1.976201285127886925e-03,-3.141806051206065455e-03,4.465366154909133911e-02
2.849885330575807063e-01,1.563758583985535577e-01,2.716465232323460044e-01,-6.794952077069652679e-03,1.716029191377438628e-03,3.205751113637449884e-03,1.232130527496337891e-01
2.239273393496992448e-01,2.401709691733532326e-01,2.257303560519402230e-01,-3.495196860639572523e-03,-3.260289137962881553e-03,-3.443940680227636740e-03,1.849158480763435364e-02
2.239294263397227647e-01,2.433863420623477991e-01,2.222349908818015418e-01,-3.316050437052469810e-03,-3.410976150573914473e-03,-3.613274143836752057e-03,2.283574454486370087e-02
2.264435003089260989e-01,2.351628583407614215e-01,2.254288446437154592e-01,-1.579091195924161358e-03,-3.709016052060656876e-04,-1.648715417592828080e-04,9.689102880656719208e-03
2.299969284588619378e-01,2.468856795776192548e-01,2.289368671043079118e-01,9.426944068650967325e-04,-1.017593878403062025e-04,-5.405375622012742551e-04,1.754509657621383667e-02
2.219376183618046727e-01,2.385047066252005132e-01,2.250827359562662111e-01,-1.544141254402309075e-03,-8.800932223299894660e-04,-2.909259598518931008e-03,1.634389534592628479e-02
2.238395172952429846e-01,2.369062093936614988e-01,2.255634246046447910e-01,-3.022067313310445105e-03,-3.178401143822152507e-03,-4.110338481973838283e-03,1.611131802201271057e-02
2.505999016897524356e-01,2.743907853499255589e-01,1.629855578578942310e-01,-1.359345533013819884e-02,-2.550009122550932206e-02,-2.019585546697631392e-02,1.185555979609489441e-01
2.223467376206288704e-01,2.532943423938962546e-01,2.349926180117600794e-01,9.885138825004688608e-04,1.563291160940827578e-03,9.232572730207132695e-04,2.718700282275676727e-02
2.570959249410036396e-01,2.362790753261194698e-01,1.889521290079528848e-01,-4.850693217377640733e-03,-4.403798554285191964e-03,-1.250681521328621260e-02,6.524115800857543945e-02
2.188744044869487537e-01,2.511940185142551019e-01,2.205063301693794275e-01,-2.169081122716977480e-04,-8.273903379583316805e-04,-6.235020090038218389e-04,3.158858418464660645e-02
2.196738488124165833e-01,2.510672487759755822e-01,2.201692126765624757e-01,-2.552617673000976602e-05,-5.217120369284466508e-04,-1.100789135653601654e-03,3.122008219361305237e-02
2.572290945851258281e-01,2.548026000594512674e-01,1.814229859582555393e-01,-1.930858308987285551e-03,-1.077961805673332586e-02,-1.146424427631730428e-02,7.951466739177703857e-02
2.371217431793391506e-01,2.515954384907566066e-01,2.086766976317561417e-01,-3.811841141416759220e-03,-1.056314540944710591e-02,-5.583429151695859863e-03,4.361385107040405273e-02
2.262753258882428398e-01,2.432988642154107206e-01,2.354644402436370798e-01,6.595677611770791454e-03,-5.780196453700223690e-03,8.300413455519578196e-03,2.559767477214336395e-02
2.298188545237364044e-01,2.727139648729068333e-01,1.392299804061046808e-01,2.812742192468370775e-02,-6.707648189768848634e-02,5.090118977130284744e-02,1.938457340002059937e-01
2.489992106472478928e-01,2.486462703508134919e-01,1.880528201675776834e-01,-7.639384869685824156e-03,-7.810056798554794455e-03,-6.291564474398423680e-03,6.457475572824478149e-02
2.561379551181848790e-01,2.570030964392823192e-01,1.838547175882937479e-01,3.601854601450625235e-03,1.929590714007315636e-03,-3.924343891989220609e-03,7.337875664234161377e-02
2.043355744953682662e-01,2.583284290331789301e-01,2.516270902255416386e-01,1.318334982298063202e-02,-9.128045469814891413e-03,7.910443985955311827e-03,5.964396893978118896e-02
2.097872695778069119e-01,3.249754746312322751e-01,1.752470811489396652e-01,1.124340032100883645e-02,-8.172494767873902943e-02,4.997059932153405382e-02,2.152842134237289429e-01
2.383933345591597586e-01,2.571085772692779936e-01,2.074854553644857880e-01,7.425446400821368760e-03,-3.864669549358579204e-02,2.899096166976677241e-02,9.513961523771286011e-02
2.531731449204883133e-01,3.458784380775384304e-01,1.799784695358307429e-01,5.026702389528983628e-02,-8.967697693858941999e-02,4.033301348614917042e-02,2.394237369298934937e-01
2.319553733828075004e-01,2.316358229572496041e-01,2.314689614187471489e-01,1.189966359977476934e-02,-1.044615085047636768e-02,1.143141498018876781e-02,3.382879123091697693e-02
2.259081554127919389e-01,2.364757164834583592e-01,2.477035819707531505e-01,1.444262151167567156e-03,-6.264129958815618055e-04,4.833811899184776474e-03,2.083078399300575256e-02
2.335526851788280178e-01,2.510811645144729320e-01,2.046009709432606849e-01,6.311876532132181319e-03,-1.089391342289455257e-02,6.007323328820539550e-03,4.729422926902770996e-02
2.357701732685885676e-01,2.467641768439695626e-01,2.071810349599038648e-01,-6.174727441195602268e-03,-4.172846940374072902e-03,-2.548021653636166600e-03,3.792905062437057495e-02
2.357881573761713145e-01,2.536305485860070874e-01,2.012308802678836051e-01,-3.264193192948321685e-03,-4.998458086471513871e-03,-1.999044496009205665e-03,4.741358384490013123e-02
2.551091893540550770e-01,2.057528531317621423e-01,2.265809745357129090e-01,-8.947768340106265240e-04,1.057067229795622277e-03,-8.361611241748181933e-03,4.535815864801406860e-02
1.811572167895344199e-01,2.481948953080074516e-01,2.508630196188629813e-01,-2.732288428199801736e-02,-2.574654983046062093e-02,-8.449738080620430511e-03,9.551179409027099609e-02
1.623252181060402255e-01,2.699095509120872372e-01,2.640872774573771453e-01,-1.409349735096696900e-02,-1.355230919979273120e-02,1.532331847847471108e-03,1.101627051830291748e-01
2.463218904918395569e-01,2.186065074551968579e-01,2.329474838440287188e-01,2.603107372494697317e-03,5.290012682993672222e-03,-2.296030286581563721e-03,2.639009058475494385e-02
2.441472346446042496e-01,2.337645528239114256e-01,2.216593888752088626e-01,5.186397693506933880e-03,1.376476812152683388e-03,-1.900924639332600766e-03,2.184582129120826721e-02
2.089115979380556654e-01,2.549262050054739714e-01,2.281732633847050606e-01,6.261034496217466867e-05,-3.744039492868372204e-03,1.742471214078875064e-03,4.065970703959465027e-02
2.413296659269814071e-01,2.321722560712405348e-01,2.307749362137100912e-01,1.199335556200632584e-03,-1.420087526943343776e-03,6.229915315154742513e-04,1.049457024782896042e-02
2.170766839180629515e-01,2.381384837665868615e-01,2.433968369868025061e-01,8.666969078253100242e-03,-8.195674081075297532e-03,6.229126029921735856e-03,3.354493156075477600e-02
1.713153244908394157e-01,2.604758704123102397e-01,2.605938325111739617e-01,-4.243540932477141148e-03,-6.122581572186460742e-03,-9.689888875778801709e-04,9.016336500644683838e-02
1.635410369271447784e-01,2.668511209887926006e-01,2.528251151857310863e-01,-1.716846175415882164e-02,-1.865753632468959006e-02,-4.356589001049847830e-03,1.067997813224792480e-01
2.206511245357699602e-01,2.459754227481444067e-01,2.201708401688917960e-01,-1.939836696148546265e-03,-8.860029402213987762e-04,-1.079480281812122099e-03,2.590083703398704529e-02
1.708199816311720409e-01,2.576302311764641639e-01,2.539853175868767576e-01,-7.670615153691794086e-03,-1.282198291247156272e-02,-5.428556910463072302e-03,8.939251303672790527e-02
2.504940566174637118e-01,2.479896508843807135e-01,2.441108461713327460e-01,3.225676753272480740e-02,-2.448826902157827390e-02,3.786965673942500887e-02,9.619712829589843750e-02
2.306171772818925991e-01,2.382794829828259464e-01,2.331589350860969745e-01,8.217566194571788952e-04,-6.900655974994935812e-04,2.111403693948611660e-03,7.907226681709289551e-03
2.255809236033175513e-01,2.511949070829498365e-01,2.149118447509963392e-01,-3.663383373769005420e-03,-1.928116886022998577e-03,-8.078434158988074014e-04,3.311426937580108643e-02
2.255278730492972228e-01,2.460327764891199198e-01,2.154981094300727762e-01,-4.711956511928209676e-03,-2.426756806014424006e-03,-1.343806557363968470e-03,2.857269719243049622e-02
2.255793281248122117e-01,2.523000709836816235e-01,2.133844140385814103e-01,-2.574599462154074456e-03,-3.131653190688037710e-03,-7.319442793011029678e-04,3.520633280277252197e-02
2.212877969734487194e-01,2.445402617380066923e-01,2.348358268725332931e-01,1.674037953245481863e-03,-3.784371074407683055e-03,5.128880957884241268e-03,2.322690188884735107e-02
2.463327362614609883e-01,2.216828304003486683e-01,2.310058879154862632e-01,1.707086934577959746e-03,4.397005169558206722e-03,-1.743982832711627774e-03,2.325064688920974731e-02
2.176994950020873509e-01,2.527693088375360109e-01,2.287352706029478489e-01,5.825702630100113889e-03,-8.409670515308905955e-03,3.542491826344730532e-03,3.628070279955863953e-02
2.346842199678639274e-01,2.427089537974489175e-01,2.342665459087253932e-01,7.713588824017694745e-03,-7.855015536678887009e-03,7.893220437129680814e-03,2.486832253634929657e-02
2.311395555562122950e-01,2.465320837728755543e-01,2.292143388052385322e-01,-5.072054754808021310e-04,1.127421568571357075e-03,4.961851813969822946e-04,1.660102233290672302e-02
2.028229925120787758e-01,2.353543187809140902e-01,2.607736957446874504e-01,-5.443939109204776368e-03,-1.600901181363408509e-03,9.357263493714840057e-04,5.128920823335647583e-02
2.256091845687524244e-01,2.471486179634314884e-01,2.268271161590882934e-01,6.249452623939162881e-04,-6.418553697755922938e-04,1.898214434010790479e-03,2.127003110945224762e-02
2.267099500027902337e-01,2.443490735502371614e-01,2.281830042898468358e-01,3.913965278249366625e-04,5.289893961935730662e-04,7.183257814219648051e-04,1.703444309532642365e-02
2.312773599832742555e-01,2.441555170991119850e-01,2.282430777619031403e-01,2.524027390202758427e-03,-2.352620803675047772e-04,7.573686997526680445e-04,1.533390954136848450e-02
2.525125448252778515e-01,2.725375715378689501e-01,1.901795479984519366e-01,2.062356424428173074e-02,-1.558243671487500800e-02,2.649556043558158602e-02,9.820947051048278809e-02
2.526184225999832944e-01,2.474874232320000145e-01,1.991147498749496758e-01,1.041707304992349828e-02,-2.138594254294053001e-03,1.091077178955954241e-02,5.753993988037109375e-02
2.667278333176594796e-01,2.668684150335906557e-01,9.253830193935030923e-02,2.165748026670222953e-02,-3.591630200832394287e-02,5.176752648604991680e-02,2.090052962303161621e-01
2.760319956488055393e-01,2.168298583471476304e-01,2.024700885910654669e-01,4.206795181187619748e-02,-2.223283527618697547e-02,6.203912651940664269e-02,1.513268649578094482e-01
2.780387490533053896e-01,2.389207399509944985e-01,2.107143239892645403e-01,1.595220338759244585e-02,3.665789855127911216e-03,5.307627842310180810e-02,1.126241758465766907e-01
2.371776546668790120e-01,2.342326651171758589e-01,2.345996983171685646e-01,-3.489720657253316091e-04,8.258386901737245576e-04,5.108283269279143826e-04,3.304690355435013771e-03
2.570171981044749310e-01,2.604873503296227799e-01,1.839660496315806693e-01,5.750114334306842372e-03,2.053093238334750999e-03,-3.414766412138336548e-03,7.582103461027145386e-02
2.519425913987398680e-01,2.429940061135996143e-01,2.036320036660708155e-01,7.328031959729848152e-03,1.059804016800154451e-02,-1.663274948695192892e-02,5.752981081604957581e-02
2.499393872495151714e-01,2.297449178598011676e-01,2.233880977768160914e-01,1.680988624142729787e-02,2.175722419471102023e-02,-2.261745530807905344e-02,6.617471575736999512e-02
2.605940258127775744e-01,2.559722075345641223e-01,2.065052710925749102e-01,3.317813188537145630e-02,3.771134546035790486e-02,-1.038137333606577867e-02,1.029032915830612183e-01
2.276404410476891294e-01,2.550485247736993810e-01,2.366872272994290649e-01,7.545047335402373448e-03,1.221200980262708222e-02,-1.839638252817944308e-03,3.483429178595542908e-02
2.541670552778372283e-01,2.220740663263223724e-01,2.348921026147825220e-01,-1.072534754078012043e-03,2.478208335870035316e-03,2.678420151169733782e-03,2.874526381492614746e-02
2.427930000375423947e-01,2.538090120321927490e-01,2.096063105789579550e-01,2.649355662377562894e-03,3.862564339479948247e-03,-1.784965936449964784e-03,4.078808054327964783e-02
2.231732127249038133e-01,2.375075727985500873e-01,2.497078600210037858e-01,9.187773424412678386e-03,-2.090184279668623468e-03,6.511276229572753038e-03,3.037674352526664734e-02
2.308993669437456597e-01,2.307287712715155037e-01,2.444884876219389214e-01,5.160462135689694065e-04,-1.091042507216203900e-03,9.791529030548913430e-04,1.393764000385999680e-02
2.250316592357126111e-01,2.289992578895876374e-01,2.486194124026214203e-01,7.164838408007627446e-03,-3.537299491212820678e-03,4.954427563828878514e-03,2.727120183408260345e-02
2.295734698670849894e-01,2.282786857027587490e-01,2.472606544580237820e-01,2.413221901817986723e-03,-1.593002053182609621e-03,1.279230260601664938e-03,1.916787028312683105e-02
2.356000885140880630e-01,2.208991679261854690e-01,2.487677601208492517e-01,4.861970120462463102e-03,-2.261191256921321092e-03,1.847816123324010681e-03,2.606875635683536530e-02
2.627709602114262077e-01,2.604726615625963526e-01,1.725710012526056603e-01,3.012608094235844341e-03,-1.857175747882292580e-04,-3.443851024022987102e-03,8.942549675703048706e-02
2.638380303407910632e-01,2.558925903503069255e-01,2.061514935035129448e-01,5.400240832861636156e-03,1.564569703690480915e-02,4.200369230883362580e-03,6.170333921909332275e-02
3.571765794251718917e-01,2.533548689968507239e-01,2.086640667610646371e-01,4.046461847622313812e-02,2.737895675569046450e-02,1.375307713007346833e-01,2.851687371730804443e-01
2.601382414168642576e-01,2.493936779493733935e-01,1.846571573705084457e-01,1.769481109296086336e-03,-1.357035793531328029e-03,-6.182316085542061482e-03,7.163385301828384399e-02
2.288272534722015084e-01,2.322893316406305642e-01,2.417302657172051839e-01,-1.261722521610545832e-03,1.124439161694634325e-03,2.827865623345562820e-03,1.289813406765460968e-02
2.302848187517821665e-01,2.300725839934009143e-01,2.418371989532337174e-01,-3.126643909660115051e-04,1.575985918421596169e-03,9.353475592892600884e-04,1.209642272442579269e-02
2.278397387628887383e-01,2.236047330369649311e-01,2.473423919777022195e-01,-2.275928466308199932e-03,3.559348298576738359e-03,1.911822840015471332e-03,2.335367724299430847e-02
2.266232138229909432e-01,2.254722727279996619e-01,2.475390496756474934e-01,-5.172569134410165198e-04,1.891996247243612258e-03,1.238673752520395421e-03,2.188639529049396515e-02
2.302743014810635092e-01,2.271199853078958442e-01,2.439232635168712138e-01,-1.551822334760382619e-03,3.377571239498047373e-04,5.139558875907325420e-04,1.573709584772586823e-02
2.521259405208133297e-01,1.907028687213904727e-01,2.388756218641503171e-01,-1.215612053178733928e-02,-5.391108201849665812e-03,-2.012453176734753379e-02,6.985689699649810791e-02
2.575423763629704488e-01,2.441337776484137634e-01,2.055093750260087171e-01,5.777471936237480940e-03,-1.222714593033387767e-03,3.926549182510961737e-03,4.837778583168983459e-02
2.600396259793605336e-01,2.568431523650987480e-01,1.822430526018655461e-01,3.605028461827639204e-03,4.900559492820452873e-05,1.685869110064918764e-03,7.655959576368331909e-02
2.350853260031424141e-01,2.567370411162525623e-01,2.012761032409052242e-01,-2.075979420491448450e-03,-5.140919403733361717e-03,-1.375836771176988226e-03,4.941440001130104065e-02
2.498855205150237180e-01,2.241287919511263105e-01,2.343107828476646004e-01,1.720429090754993680e-03,-8.968209734913977320e-04,1.891287338284696005e-03,2.295322716236114502e-02
2.195105025900155049e-01,2.522813401944301592e-01,2.151275605784020717e-01,-1.491008853191344661e-03,-3.530906347104924119e-03,-1.259697528609166365e-03,3.585529699921607971e-02
2.604415520175135668e-01,1.758191280766818743e-01,2.562254213043997919e-01,-3.839988013888050340e-03,-1.802969539901519945e-03,-8.826168653988657187e-03,8.431870490312576294e-02
2.504853843649000877e-01,1.925233761590201542e-01,2.407050519590298032e-01,-3.864248693442992946e-03,-5.892199364368732976e-03,-8.248348725289757905e-03,5.693345889449119568e-02
2.453441973088382744e-01,2.211687085444850598e-01,2.363222943087242289e-01,4.499262894866744474e-03,-4.921003060184110482e-03,3.214391703781117188e-03,2.474097721278667450e-02
2.472435103653176369e-01,1.776683793064203487e-01,2.516730954152909261e-01,-2.128617499708507915e-02,-9.233203163825375731e-03,-1.915840574405019980e-02,8.879584819078445435e-02
2.358273387103315133e-01,2.081068299392079823e-01,2.469364646974520627e-01,-3.320033517334351151e-03,-5.712900942092984276e-03,-2.753569338555978373e-03,3.679016232490539551e-02
2.200246517259054346e-01,2.353694874518080793e-01,2.520717565481768174e-01,1.273212040267533880e-02,-5.115551552773245012e-03,5.644984391598857967e-03,3.783052042126655579e-02
2.265110904099415234e-01,2.445841098704222005e-01,2.325052785911251030e-01,1.136291442800851058e-02,1.253738948449880514e-02,-1.217209672131495078e-02,3.946665674448013306e-02
2.398139347497373897e-01,2.355328513118252753e-01,2.319329661989393276e-01,8.010877599596018250e-03,5.698423160160261125e-03,-2.267501818745946366e-03,1.876330189406871796e-02
2.200342057839478616e-01,2.522957647075932397e-01,2.183991945105252519e-01,-5.938339184271063846e-04,-1.468180763260108464e-03,-4.800810588165860824e-04,3.323319926857948303e-02
2.235326585463247306e-01,2.444041767615791061e-01,2.341235991847827325e-01,3.096622779356003174e-03,3.938179620186596508e-03,-4.493778051644107749e-03,2.150851860642433167e-02
2.807419239977890224e-01,2.651914290206209834e-01,1.096196523580348775e-01,-2.089257211293817258e-03,-2.443836746150073597e-02,-5.341828900156384702e-02,1.929480582475662231e-01
2.218489657580592356e-01,2.445309511759795051e-01,2.419521877996612114e-01,3.179364384103742364e-03,3.262045316799322761e-03,-3.733204321256723864e-03,2.380523830652236938e-02
2.108142532798793767e-01,2.444337965021486647e-01,2.409197536449974864e-01,5.228791736051621557e-03,9.820681137194961496e-03,-6.076035232316274320e-03,3.881487250328063965e-02
2.240786130118049002e-01,2.538258103951593903e-01,2.194519853018840339e-01,2.154242654285566053e-03,-1.976780331899549974e-03,-1.496452592476587488e-04,3.270540013909339905e-02
2.347400497158780019e-01,2.308673448281993168e-01,2.428912667556426819e-01,7.216408869888443073e-03,5.117434099872125892e-03,-3.888421128608297167e-03,1.982828602194786072e-02
2.365829201265086668e-01,2.290053283661504235e-01,2.357863307026285549e-01,4.270716914600693713e-03,-4.472026569720085817e-03,3.432468873981152791e-03,1.421540975570678711e-02
2.251868918911907602e-01,2.362226093601427213e-01,2.509377124438000317e-01,7.029081038968153748e-03,6.902319355068395335e-03,7.445919278123848233e-04,2.816959843039512634e-02
2.259773626438557892e-01,2.536333346180899562e-01,2.134110345050017898e-01,-1.722300456203319221e-03,-3.148637474330303904e-03,-7.971619194061926785e-04,3.620561584830284119e-02
2.211569426459403798e-01,2.496660681755215883e-01,2.167473672993961709e-01,-2.761941728393925866e-03,-2.844668206717758212e-03,-1.695047190495732126e-03,3.183879330754280090e-02
2.245497274733541104e-01,2.338718024532204787e-01,2.277645943103789039e-01,-4.512585182031951525e-03,-3.162931439750200566e-03,-4.201009025005652403e-03,1.453668903559446335e-02
2.530593840390395477e-01,2.369054176091614505e-01,2.353250011880965165e-01,-4.798911865527830285e-03,1.092215079060180477e-02,1.893138849931605763e-02,4.232185706496238708e-02
2.359526504875855690e-01,2.259379991602046278e-01,2.446444322853311981e-01,2.159737158366299356e-02,2.608421848850190836e-02,-2.557492344537684939e-02,7.527027279138565063e-02
2.371581925792632939e-01,2.331834520559246393e-01,2.340847670904848410e-01,-3.646163981658999431e-04,8.107968907806376415e-04,-2.487563377956394841e-04,3.947795368731021881e-03
2.334429517885339977e-01,2.288823475749733327e-01,2.428521922109868614e-01,3.444780953225107939e-03,3.787841445551402321e-03,-4.250834568721371422e-03,1.688479445874691010e-02
2.314087273577329906e-01,2.309974535386403183e-01,2.444844339004745570e-01,7.398230770983692684e-04,8.455284052331170407e-04,-1.263099157200833246e-03,1.360492408275604248e-02
2.217816712962115411e-01,2.399934264613276247e-01,2.444332247977174244e-01,-1.308911207465491243e-03,1.788394116503008204e-03,5.138739135476984472e-03,2.293885499238967896e-02
2.342422990752021095e-01,2.295767656782797816e-01,2.414027214770003704e-01,1.410774277278684444e-03,3.236054279051038280e-03,-1.128036182310730761e-03,1.215114910155534744e-02
2.272944658146711094e-01,2.501431609675067169e-01,2.217366698433625438e-01,3.280447645020971668e-03,-3.888941836059178411e-03,3.650467828912217958e-04,2.753172256052494049e-02
2.306607541162487840e-01,2.187116207069421114e-01,2.521877687020755432e-01,-1.451152072789696403e-03,3.876122118613483693e-03,9.757948002129858151e-04,3.029307350516319275e-02
1.979888663857540254e-01,2.000862687858842026e-01,3.535979287792381798e-01,-1.110772733397592665e-01,4.333120526607660457e-03,1.261857844405330116e-02,2.478723526000976562e-01
2.235807307924185527e-01,2.471474716884151102e-01,2.283473420693274414e-01,4.032829253813785889e-03,-4.251113649787969032e-03,3.390248482484822714e-03,2.456148900091648102e-02
2.341088452276142151e-01,2.240438700543927741e-01,2.442351201788945381e-01,-5.522775798998989316e-04,4.695968624836912263e-03,8.367034711359489950e-04,1.936330273747444153e-02
2.157460694774565868e-01,2.208389726969121059e-01,2.514928249220805268e-01,-3.482324321435266608e-03,-1.153245078580333654e-03,-1.628286046837034958e-03,3.420580551028251648e-02
2.281487873583807058e-01,2.186362988380053385e-01,2.499650375928330892e-01,-2.066662071833436694e-03,1.560879090266026250e-03,4.283060137654923693e-04,2.818928286433219910e-02
2.181150980866783384e-01,2.573000792101737821e-01,2.308430124419570406e-01,3.858038652861192457e-03,-9.957835698202553015e-03,4.276474294513878290e-03,3.994637727737426758e-02
2.595056241260351726e-01,2.607634915765704164e-01,1.724823285116048044e-01,-1.695040242601795674e-04,-4.362246161068053171e-03,-4.984806429715594317e-03,8.840712159872055054e-02
2.140746338475661703e-01,2.514532025924371417e-01,2.294391355530456811e-01,1.180869031388236167e-03,-4.696750189900772594e-03,3.898878385024877151e-03,3.427663445472717285e-02
2.424681587059868138e-01,2.516482473869756098e-01,2.180791785051400533e-01,-7.774410541099539568e-04,4.798018852246736105e-03,7.890672779279049327e-04,3.123673237860202789e-02
2.182004839993377243e-01,2.496184286057396284e-01,2.302549788157843558e-01,5.315050772225804118e-03,-7.281337441711204644e-03,3.556331022840323632e-03,3.217788040637969971e-02
2.618294782389121167e-01,2.620389907877944680e-01,1.702701693005985173e-01,2.804329168913962181e-03,-4.209450055307040195e-03,-8.436137509550186027e-07,9.208194911479949951e-02
3.401572043217931385e-01,2.831204724762758640e-01,1.217222121740471341e-01,2.639870547728426914e-02,2.054063512971155206e-02,4.959790509742410813e-02,2.219110280275344849e-01
2.323551810605962165e-01,2.323429185116729079e-01,2.388210557117796118e-01,-1.951062213734372584e-03,2.700256319592275224e-03,2.892486202019330620e-03,1.001401431858539581e-02
2.543129227230992440e-01,2.423976038196427873e-01,2.166148138010185464e-01,-3.760315274180396129e-04,2.356699681424157845e-03,3.592490964510781405e-03,3.420148417353630066e-02
2.423866289928749695e-01,2.535936598674247144e-01,2.090495588594151744e-01,1.243123847595859388e-04,4.752785271999526023e-03,3.968865225508065478e-04,4.097381234169006348e-02
2.297685245823903322e-01,2.323274008287036230e-01,2.417413845144241180e-01,-2.196946210297583569e-03,2.795654519056397537e-03,2.804489800413118451e-03,1.344553474336862564e-02
2.319174534777949659e-01,2.321821151240421599e-01,2.368248796288834335e-01,-1.634953347341636760e-03,9.679324294667528659e-04,2.016118769111682665e-03,6.773342844098806381e-03
2.345124451248513098e-01,2.322137076800757927e-01,2.368556614138083716e-01,-1.561343792499710580e-03,1.671068656030151589e-03,2.005295023225900190e-03,6.626893300563097000e-03
2.561924830484209048e-01,2.617267096643071667e-01,1.873859172183268973e-01,3.272436928967855860e-03,3.273658028989777195e-03,3.360414262644545371e-04,7.218294590711593628e-02
2.302397744254296164e-01,2.322373944700714676e-01,2.384585928225277929e-01,-1.263128825992785968e-03,8.027575400765775068e-04,2.528680765819186875e-03,9.001322090625762939e-03
2.275097319944143492e-01,2.344082604979022821e-01,2.396445288586522837e-01,-6.200776139811925132e-04,1.340032713434051101e-03,3.569400691453366269e-03,1.248571835458278656e-02
2.271659762223424694e-01,2.463757016548181189e-01,2.362502799109858498e-01,5.176013995033870545e-03,1.166277057107437468e-02,-3.519829472287576595e-03,2.833077497780323029e-02
2.503452540531723725e-01,2.446533921759127261e-01,2.152630740214300231e-01,1.417208728637662715e-02,1.645737038307708983e-02,-8.907427997975178938e-03,5.212081968784332275e-02
2.170280568015985068e-01,2.748316167690709744e-01,2.459244861434129736e-01,1.191940552572455340e-02,3.391794068769626164e-02,1.375776661995826858e-03,7.993192970752716064e-02
2.410546547572068876e-01,2.364984183287172637e-01,2.272872975464579337e-01,3.832659023229486456e-03,-7.019901105297374818e-04,1.136501095475872698e-03,1.403542608022689819e-02
2.091296340921530716e-01,2.744233055471485550e-01,1.959302188888339680e-01,3.757892837307112710e-02,7.226343063869598848e-02,-1.562649012624937189e-02,1.610416918992996216e-01
2.350504165680131485e-01,2.568360411459934545e-01,1.963297634527520485e-01,8.733672508791383206e-04,-5.940231682778275568e-03,-1.122726800826833122e-03,5.412379279732704163e-02
2.872937204745065753e-01,1.964372281611370674e-01,2.380861430022507275e-01,3.618265519266294916e-02,-3.741671993726777140e-02,9.475474210536319331e-02,2.031463235616683960e-01
1.904901907877173395e-01,2.593720376381267734e-01,2.335181776105362539e-01,-1.207968586465127999e-03,-1.027961987489001139e-02,1.455059485187922908e-03,6.292860954999923706e-02
2.535739410534538774e-01,2.242341970738733203e-01,1.660860379463005576e-01,4.970858352576787431e-02,7.260758475321661687e-02,-6.958727364574547603e-02,2.090542018413543701e-01
3.018393547470313854e-01,2.738548826970702565e-01,1.385986696206745195e-01,2.411348248709323239e-02,5.905745802033719738e-02,-8.435514008824640531e-02,2.375237792730331421e-01
2.664245680129787575e-01,2.546627029799635733e-01,1.546688720274617956e-01,2.651640054770423860e-02,4.823929296584655857e-02,-4.295185996881624446e-02,1.610535830259323120e-01
2.723087241717725981e-01,2.359151403685552095e-01,2.388840814478144225e-01,7.113211930771791425e-02,1.078413239574931015e-01,-3.723060818622930118e-02,2.354829162359237671e-01
2.200551995507000203e-01,2.529188909706906463e-01,2.193825060712466524e-01,-2.600624962962728277e-04,-8.081796146533089514e-04,1.102972586854609961e-04,3.323824331164360046e-02
1.890971034175183141e-01,2.639373464473029340e-01,2.483470944195532437e-01,-4.922213746557671331e-05,-4.765447212475389625e-03,-4.847140478347681776e-04,6.889252364635467529e-02
1.963385815718304284e-01,2.981596965784929498e-01,2.291301437576986066e-01,4.452068229872541832e-02,7.320531634215626804e-02,-4.627084658070709094e-02,1.911812126636505127e-01
2.470582414343969746e-01,2.285258554811615828e-01,2.238179857155425112e-01,2.785456409609224967e-03,1.234436773897430945e-03,-1.456372313550309463e-03,2.206971496343612671e-02
2.490826384834785301e-01,2.288113740497259296e-01,2.145772468698741997e-01,4.515870383640953160e-03,1.960344738464196192e-03,-6.581432216258994994e-03,3.323750942945480347e-02
2.497926820287219019e-01,2.222777528687241710e-01,2.219525369209876531e-01,-3.358431115633636176e-03,-3.568940056294841231e-03,-4.327472146597833441e-03,2.990577928721904755e-02
2.438363810756042915e-01,2.223160896235810424e-01,2.222719263026910752e-01,-3.832014400409724381e-03,-3.413552706441335804e-03,-4.561994117730449293e-03,2.460733056068420410e-02
2.463917155428331784e-01,2.225496769562924915e-01,2.185360113564729090e-01,-3.228012760419224705e-03,-1.685264651673121184e-03,-2.528109668178608535e-03,2.718824893236160278e-02
2.269761074937181600e-01,2.568617086635091029e-01,2.134815149102143872e-01,2.384657474232134127e-03,-1.672305815888735494e-03,1.350154972085829260e-03,3.885184228420257568e-02
2.497469653830125536e-01,2.197961713182564059e-01,2.209944891383700261e-01,-3.521743396975139532e-04,-1.696366399859893827e-03,-7.780985772086228746e-04,2.955362573266029358e-02
2.546558010191100063e-01,2.440924459043002370e-01,2.023578983331618675e-01,5.748266621954649814e-04,4.715627035660001007e-03,1.129597909757416689e-02,5.239001661539077759e-02
2.087795069921454527e-01,2.545184372125369743e-01,2.280809551060272167e-01,1.434255212566796795e-03,-8.110191333814636624e-03,3.964227017181899855e-03,4.280666261911392212e-02
2.347290108215040194e-01,2.350264064629978000e-01,2.336394670970652065e-01,3.921456295385712773e-04,-2.031786255070698989e-04,3.780872420799959556e-04,1.616664580069482327e-03
2.650581684771307622e-01,1.691899372270489477e-01,2.684052903137372215e-01,-3.182818649834297502e-03,2.773399379203816961e-03,-1.522847501103537487e-03,9.789396077394485474e-02
2.387333892408463054e-01,2.306545963475986616e-01,2.331283821684351221e-01,-1.006100212682122354e-03,2.598445739486485075e-03,1.662135813411971157e-03,9.109438396990299225e-03
2.609138764359342222e-01,1.456269365268809679e-01,2.668108132344543248e-01,-3.757024803677588148e-02,-5.544219650776139111e-03,-1.330512938895845980e-02,1.373446732759475708e-01
2.531398825872095415e-01,1.720299824375570164e-01,2.563311011817380192e-01,-2.314940767466943522e-02,-1.055027740648994787e-02,-1.706604364150603181e-02,9.830157458782196045e-02
2.786094134330926453e-01,1.496743210952432013e-01,2.916346146597966760e-01,-1.025674189933092895e-02,1.707743913400326663e-02,-3.754799942589449923e-04,1.402293145656585693e-01
2.599964077603950097e-01,1.786723975263734276e-01,2.636452430803565283e-01,-3.299100445115640216e-03,5.122515281960064032e-03,5.211305555702922324e-03,8.435930311679840088e-02
2.544827866585993581e-01,1.750797472909504382e-01,2.685677394346748237e-01,-7.044992753763961758e-03,1.480082712777995883e-03,-2.021259906066881430e-04,8.818847686052322388e-02
2.111254706291886551e-01,2.411875651035494950e-01,2.291426643997306889e-01,-5.734284887354620421e-03,-4.540609879876859878e-03,-8.180284114628762551e-03,3.237225487828254700e-02
2.682125892094016084e-01,1.728840061512322279e-01,2.808960886211437913e-01,-2.657070847651295253e-02,1.410729488603608417e-02,-2.342271002530332434e-04,1.147725135087966919e-01
2.558812940577565032e-01,1.832049422375298386e-01,2.636296266974828550e-01,-7.440598962686235940e-03,4.801143850547801364e-03,5.223431715404774217e-03,7.888030260801315308e-02
1.303873128563279304e-01,2.143425868827590342e-01,3.621527593518109045e-01,-7.306068153708464297e-02,8.698777663646047389e-03,-2.288645655318323827e-02,2.431414127349853516e-01
1.911068584549352189e-01,2.452884235882339115e-01,2.813489697570537018e-01,-6.002443844763166725e-02,-2.761352445840718067e-02,-1.156061686284565702e-02,1.403106749057769775e-01
1.619337084032421159e-01,2.717268158192653327e-01,2.975812309806627476e-01,-3.925865157602676653e-02,-1.094158589740786350e-02,3.595667966179403284e-03,1.434687376022338867e-01
1.604918957050505135e-01,2.592840163485651828e-01,2.811528508458946418e-01,-3.734951543677944574e-02,-1.380852854263128586e-02,1.967678925786938912e-02,1.353407204151153564e-01
2.424685254668803025e-01,2.525974446770243853e-01,2.173385908136437894e-01,3.085946180914687204e-04,3.915556063634734359e-03,8.639683813081447871e-04,3.220508247613906860e-02
2.303177084731817259e-01,2.456386953432171949e-01,2.283986222151189460e-01,-1.686065193747247242e-03,6.372323546262925568e-03,4.274686809651547827e-03,2.128343656659126282e-02
2.248046347034661496e-01,2.315448442183082045e-01,2.574557146294617627e-01,-1.900111654321438165e-02,1.253621129297635348e-02,1.486460384776227064e-02,5.575764179229736328e-02
2.354277734558019863e-01,2.486842832135938708e-01,2.253333041456828667e-01,-5.684817553106573558e-04,1.973506689091487302e-03,1.123867577483515182e-03,2.068559266626834869e-02
1.796222638544537897e-01,2.306619636378338112e-01,2.910462821439577796e-01,-4.162972938370950587e-02,5.248823475553713279e-03,1.831079389247914843e-02,1.249836906790733337e-01
2.423852819776820822e-01,2.486761491618792175e-01,2.172610977649075126e-01,-1.647868202847031305e-03,3.926346553955902680e-03,1.588072354121561986e-03,2.984649874269962311e-02
2.073340417321444806e-01,2.554368237050492763e-01,2.281068667744791389e-01,-3.522934720066222929e-03,2.833268816059553163e-02,8.198925258629490356e-03,6.628183275461196899e-02
2.028273105122180842e-01,2.557162789812457704e-01,2.512422029459265294e-01,-1.612609207547307556e-03,2.203369703123249368e-02,8.044149118900697018e-03,6.510767340660095215e-02
2.299092313675434596e-01,2.526394607001802295e-01,2.249991419615597621e-01,-2.760462337395921408e-04,3.534302004730464301e-03,9.316510547477017349e-04,2.631893195211887360e-02
2.358838975085840173e-01,2.572937886615309089e-01,1.905567341631376199e-01,-5.838350195792370995e-03,-1.139328908132585839e-02,-3.747240247219771336e-03,6.338130682706832886e-02
2.564552181426218991e-01,2.062741962089683356e-01,2.446235800455645870e-01,-1.357371155850425242e-03,4.833939715668022878e-03,4.541485223528901605e-03,4.692443460226058960e-02
2.317640044132580346e-01,2.473298658768931235e-01,2.259895856802229541e-01,-2.369108252313245361e-03,2.756152388509265118e-03,2.573208607569783552e-03,2.061589434742927551e-02
2.267183024104056643e-01,2.505298778128443593e-01,2.340291995815933779e-01,-1.458560347771297241e-03,9.159907272732508571e-03,4.910948357559089157e-03,2.787117660045623779e-02
2.610389927375392771e-01,2.115831263548478836e-01,2.223775353872699811e-01,1.333513504481642631e-02,-6.533101591396640352e-03,3.260054649953082057e-02,7.667113840579986572e-02
2.262457785936896337e-01,2.521171542724470749e-01,2.305139673797318434e-01,-5.511293522565293942e-05,3.051813192275419986e-03,3.591533656705010627e-04,2.460606396198272705e-02
2.536785488027905044e-01,2.248412616646992268e-01,2.380036380499255255e-01,3.409298025909949376e-03,4.061588902325893348e-03,1.581300899630391776e-02,3.820711001753807068e-02
2.497150708740307479e-01,2.044460724831077547e-01,2.476343874643470722e-01,-2.848554829233280235e-03,9.357906613636703119e-03,6.975853890250505868e-03,4.891280829906463623e-02
2.514438678234425240e-01,2.292039761961683075e-01,2.249319672936836156e-01,6.827891757102196469e-04,9.701456839717008396e-04,3.950484477412774011e-03,2.566930092871189117e-02
2.533969647927107882e-01,2.127530623923886699e-01,2.336609029879013200e-01,-3.903835715537805470e-05,2.922129635156642431e-03,7.323315332555570267e-03,3.775979578495025635e-02
1.703865747826485977e-01,2.593616388789231064e-01,2.549307300924337771e-01,1.978528821006964381e-02,-2.511257815478142030e-02,1.491586338650853147e-02,1.061871051788330078e-01
2.514060199496133685e-01,2.279382839224846358e-01,2.298476710520326871e-01,7.470000016402994925e-04,7.351620706604972350e-04,9.601819502795512842e-04,2.270754612982273102e-02
2.485315776275368038e-01,2.422582330389105310e-01,2.175879032210937813e-01,-2.221475182599421359e-03,2.139760691904510782e-03,3.802940879406440343e-03,2.957487478852272034e-02
2.533931720060209059e-01,2.123540389668528428e-01,2.342490944166100986e-01,-5.029895946061989321e-04,3.392423580417587570e-03,7.240998232881581433e-03,3.817892819643020630e-02
2.515596267653918972e-01,2.293019804766473768e-01,2.286934602252393978e-01,8.842428174764797736e-05,2.475481605105000257e-03,3.796829563647776719e-03,2.389503270387649536e-02
2.445511762398083488e-01,2.540232570768096720e-01,2.029471913430924146e-01,7.226432203415204467e-03,3.519107937991754632e-03,-9.787012678341675681e-03,5.192168429493904114e-02
2.810677892785955478e-01,2.582421665947235434e-01,1.251148638293215765e-01,-5.087597906719727205e-03,-2.139917748756757498e-02,-6.196846327891661343e-02,1.850791722536087036e-01
2.321615344566579364e-01,2.410519358039156790e-01,2.294746932119845484e-01,2.300614091483705898e-03,-2.618629963635220586e-03,2.324470841052260310e-03,1.275950949639081955e-02
2.474879230569625721e-01,2.441204417527775561e-01,2.151565790667267775e-01,5.374432597552032329e-03,-1.609177819604657627e-03,2.795241684489265140e-03,3.264418244361877441e-02
2.514462123664684134e-01,2.293891056827400965e-01,2.284492015712171753e-01,5.517041091293817213e-04,6.935067859941952770e-04,7.864697060528212788e-04,2.263498492538928986e-02
2.766049842845466067e-01,2.252171753678304800e-01,1.781393875761068668e-01,-1.038673839532057268e-02,-1.543119264657991443e-02,-5.388309719271642401e-02,1.304777115583419800e-01
2.310917661038014437e-01,2.361966867566421824e-01,2.346173017766968183e-01,3.627376461566358783e-03,-4.267595972681359831e-03,5.413949993597072172e-03,1.423148997128009796e-02
2.351032635247047031e-01,2.030933622569482400e-01,2.486577623260239345e-01,-4.178037692927785360e-03,-6.540365904215595001e-03,-5.426651999186083916e-03,4.371817782521247864e-02
2.323248339754547531e-01,2.281588706176367609e-01,2.251970461584772432e-01,-2.321784974667601316e-03,-1.144384249161474682e-03,-4.371848023613809702e-04,7.690305821597576141e-03
2.810921999700061180e-01,2.655586219116068403e-01,1.676671570845959525e-01,-3.561251893517781552e-03,-1.633769391392119949e-02,-3.635200238134524836e-02,1.270741820335388184e-01
2.516161938367994511e-01,2.178261553627629243e-01,2.425998719561379968e-01,1.326855592769636159e-03,-1.001463687347739235e-03,3.477645031687321732e-03,3.103177994489669800e-02
2.267167834222302836e-01,2.495418269656299592e-01,2.233470405670391901e-01,1.694798959651278979e-03,-5.087086263424504210e-04,2.645177111753713346e-04,2.487680874764919281e-02
2.823745847262661979e-01,2.503163044856596131e-01,1.602071052995241995e-01,-8.421079838438892684e-03,-1.127773346597515589e-02,-2.568417830400934396e-02,1.208696961402893066e-01
2.522616285249237866e-01,2.453101053671474518e-01,2.241800307173232587e-01,-7.172793955902559589e-03,2.064338402445524759e-02,1.704635703129739679e-02,5.427908897399902344e-02
2.378702627946603088e-01,2.807006790166046151e-01,2.076637123997471801e-01,1.212596363998509445e-02,-3.753074574176094164e-02,1.507981874190832822e-02,9.690010547637939453e-02
2.311223816758082583e-01,2.511169875645684613e-01,2.217155446617447845e-01,4.041831500232508263e-03,-2.140262523465361749e-03,9.584386205151336751e-04,2.723721787333488464e-02
2.333141470793661520e-01,2.446520885769840892e-01,2.216483065576321798e-01,4.360263268146466475e-03,-1.269669825887379932e-03,9.768338689296162791e-04,2.148585207760334015e-02
2.265589329180286993e-01,2.112975519924837897e-01,2.419063770612888131e-01,-5.612179720151979842e-03,-6.901169634855094243e-03,-2.814675181167364953e-03,3.104532696306705475e-02
2.406796085181807376e-01,2.506781459656556299e-01,2.068260652529730625e-01,9.396712629962849020e-03,-1.551442733298762436e-02,5.298601491859743044e-03,5.153379216790199280e-02
2.325900054862078958e-01,2.368802482832381984e-01,2.340106916944174609e-01,-1.306661717306567203e-03,4.142241494533467627e-04,5.802462957743041109e-04,4.579993430525064468e-03
2.330751085578253723e-01,3.046475445270305782e-01,1.649902611340086644e-01,-3.198868258993122632e-02,1.018578197584991962e-01,3.043030962661709068e-02,2.271652370691299438e-01
2.068680181917594563e-01,1.835115019809736570e-01,3.659874547362319541e-01,-1.154978778972461095e-01,2.893445369229485920e-02,3.298871790258720710e-02,2.745480835437774658e-01
2.333462740301681659e-01,2.504861671948918067e-01,2.256219367764801531e-01,-3.546852904844115945e-03,1.451099915125026937e-02,9.391368646574966075e-03,3.768125176429748535e-02
2.362293407098767506e-01,2.726256779427816412e-01,2.073229495601880967e-01,8.952371368209802800e-06,3.474542225041231391e-02,4.087382831490837636e-03,8.297115564346313477e-02
2.326258674133842852e-01,2.415269348134204963e-01,2.319574795209763396e-01,-5.995558282498516123e-04,1.018502841259400589e-03,9.304819902054947862e-04,9.613165631890296936e-03
1.738381514208531542e-01,2.761204193642015081e-01,1.934279405717064249e-01,1.203173475420286041e-02,8.276365154518154632e-02,2.153159743770952789e-05,1.727005839347839355e-01
2.235866378171435520e-01,2.207591844696362438e-01,2.491313024931503806e-01,-6.874340524830956090e-03,4.150718366943600794e-03,4.791022706093151645e-03,3.154468908905982971e-02
2.258334510263932948e-01,2.445207046069484691e-01,2.346107423557249883e-01,-4.423040259793428568e-03,1.800223053686499791e-02,1.301118003750270993e-02,4.243859276175498962e-02
1.978866237999002964e-01,1.856972992213017093e-01,2.952616811087735993e-01,-1.172694077960219350e-01,-1.225272210869499069e-03,-1.544328108727627269e-02,2.297689020633697510e-01
1.901991720971830113e-01,1.779193407091239076e-01,2.635740233859761306e-01,-9.938636155173791176e-02,-4.206055851856153188e-02,-5.450888143229642296e-02,2.242533564567565918e-01
2.015673012472099512e-01,2.198216479153335678e-01,2.614787965874295628e-01,-3.734378772012954956e-02,-2.290975432898968364e-02,-9.002364101554185746e-03,9.396987408399581909e-02
2.751708817395024376e-01,2.780092492251606262e-01,2.908546901750518887e-01,-3.902500989368121176e-02,1.085563679090568862e-01,8.867446434646930609e-02,2.524307966232299805e-01
2.359888188931969499e-01,2.417402042568419784e-01,2.309567160170480915e-01,-2.060357720489639378e-03,1.453998558951166567e-03,1.400710638487157565e-03,1.059743296355009079e-02
2.362007458584666209e-01,2.458842243328603072e-01,2.218870373448519617e-01,-4.186928445972935148e-03,3.572477194177999318e-03,3.125722329528757195e-03,2.361033298075199127e-02
2.222691125329878947e-01,2.245169556370826547e-01,2.388936337461865511e-01,-2.549851346650588990e-03,-1.814469078950848874e-03,-3.348723530430895452e-03,1.752375997602939606e-02
2.347815770074025143e-01,2.420369642130792698e-01,2.309430429522520700e-01,-2.504300435809081633e-03,1.744549360264044044e-03,1.326584411811963880e-03,1.133355312049388885e-02
2.007968710024496950e-01,2.287289676926306248e-01,2.969701805450207788e-01,-5.686924591661708661e-02,-1.280580724519180024e-03,1.156681635639807615e-03,1.305926889181137085e-01
1.790485759173647273e-01,2.265917550294380689e-01,2.560879540457286496e-01,-5.361939869189799590e-02,-3.563086530702786608e-02,-2.415970649426948252e-02,1.368122547864913940e-01
1.867895954309033990e-01,2.414385473876997645e-01,2.629093069813685513e-01,-2.407759505695753269e-02,-1.233970365900414860e-02,-1.710693984093318446e-03,8.261737972497940063e-02
2.206535487140578178e-01,2.074741379809302289e-01,2.637461913470677266e-01,-2.656184284219690814e-02,-1.100634683450454031e-02,-1.057564185478262163e-02,7.358093559741973877e-02
1.684541897130257260e-01,2.596145028652517284e-01,2.525726161748618748e-01,-2.649970130191348430e-02,-2.292402262754100750e-02,-8.208414125855044083e-03,1.077182441949844360e-01
2.353021748051199458e-01,1.933175947357181346e-01,2.532488005985896740e-01,-2.078421586261330889e-02,-6.130729504454028589e-03,-1.229852247238481973e-02,6.856192648410797119e-02
2.504856310702431310e-01,2.281025562482952018e-01,2.291871564922871585e-01,1.585578257371361363e-02,1.901829116831771013e-02,-1.224150618555527176e-02,5.260008573532104492e-02
2.535293711793776827e-01,2.423756945509920324e-01,2.156820168294977524e-01,1.721670663525223604e-04,1.127769937860241111e-03,3.824477498273706755e-03,3.438711911439895630e-02
1.983656870019243623e-01,2.159718729632674472e-01,2.681747185576437986e-01,-2.912063273848274417e-02,-6.238170277757696530e-03,-9.060334034309178511e-03,8.283269405364990234e-02
2.761883847015170201e-01,1.896969382927638503e-01,2.158224628879400753e-01,4.740193927765703336e-02,-1.992235920672219204e-02,7.236573722751873938e-02,1.718883663415908813e-01
2.509121424543264145e-01,2.340009019876890251e-01,2.219152799724173897e-01,1.515290993378110539e-03,-4.299575943021987788e-04,1.777418150569311803e-03,2.556082420051097870e-02
2.343740718568294301e-01,2.321022513192070591e-01,2.366400468465105766e-01,3.327537590314750843e-03,3.466420047939392478e-03,-2.706904704335734695e-03,1.032915432006120682e-02
2.369481352316046285e-01,2.316284328604788501e-01,2.361483023136392856e-01,1.160873934449827829e-03,-2.998337018877117975e-03,1.120745548173315365e-03,7.711372338235378265e-03
2.356674962651279515e-01,2.338352201662119434e-01,2.366960883419736705e-01,1.825593127910945211e-03,2.307134974108439058e-03,-1.646725008897332448e-03,6.356256548315286636e-03
2.364657489564291892e-01,2.321894176194093384e-01,2.336590720041161195e-01,8.989819107805953422e-04,1.335974294782808162e-03,-1.152354912167929697e-03,5.091651808470487595e-03
2.358194312885767696e-01,2.321763736567842573e-01,2.349397964036799291e-01,1.339830556753323319e-03,1.628976525163217245e-03,-7.268712808218429121e-04,5.076635163277387619e-03
2.356159762685351711e-01,2.302262551915841282e-01,2.366688262554536570e-01,1.645078583527162909e-03,2.315285863733562363e-03,-1.222048460887347919e-03,8.031989447772502899e-03
2.358725563150526061e-01,2.352524974444597239e-01,2.349604046398965362e-01,1.771069343827795127e-03,1.636906419426207562e-03,-9.537760026644903025e-04,4.563816357403993607e-03
2.496092765360970744e-01,2.601175359039148427e-01,1.821572900262337924e-01,2.841947396252035140e-03,-6.472870878760098902e-03,-1.252870413510166108e-03,7.432112842798233032e-02
2.449982383466197122e-01,2.312528624854354176e-01,2.308145322599570726e-01,1.223867865887410178e-03,-1.225261814553645079e-03,5.240274670666453857e-04,1.431690156459808350e-02
2.452596799128756166e-01,2.312664297847729367e-01,2.282813776818345131e-01,3.601141117079440304e-03,-1.405721213046432459e-03,2.463475643169878160e-03,1.759349554777145386e-02
2.405898164510991699e-01,2.444368036157723856e-01,2.196779884955218087e-01,5.938574887599096068e-03,-1.817874687878032018e-03,1.987779828116127169e-03,2.569278515875339508e-02
2.357887196619736780e-01,2.341470423492943986e-01,2.345742061681588553e-01,2.067414778354140312e-03,1.937755376517846188e-03,-1.800326282868677796e-03,5.998927634209394455e-03
2.310363291304381450e-01,2.410274443930318644e-01,2.288795425319165855e-01,2.745859944818897398e-03,-1.588184315807431284e-03,1.649596557719119503e-03,1.282078586518764496e-02
2.357445967281566745e-01,2.315811492389384663e-01,2.364484655535308566e-01,1.096154571107093266e-03,1.818213314000662224e-03,-6.000502700669345033e-04,5.946662276983261108e-03
2.552382682580337514e-01,1.968749955469595025e-01,2.665580534260738044e-01,2.627704029313392142e-02,-3.707457699288083108e-03,2.211781125228767450e-02,8.817791938781738281e-02
2.092257795944690579e-01,2.309728619353586254e-01,2.584357090649985200e-01,2.510632864266294784e-02,-1.188719908445688223e-03,7.051356456118584685e-03,6.219941750168800354e-02
2.022734575264819867e-01,2.408078319000971634e-01,2.381708732071485535e-01,-6.798317329889684048e-03,-7.132381192011038283e-03,-8.096809378952544642e-03,4.333793744444847107e-02
2.427618674965184575e-01,2.478877408942738170e-01,2.069086787075726241e-01,8.740979332955077855e-03,-6.497070274496356823e-03,6.970743123855168040e-03,4.468924179673194885e-02
2.224668173339330035e-01,2.393075865345684061e-01,2.366784500036717698e-01,9.727341819678958848e-03,-9.768549632870583699e-03,1.146094567809526413e-02,3.479143977165222168e-02
2.276645105290054649e-01,2.265311084099979055e-01,2.569138087809847426e-01,1.571181192022893733e-02,-2.963400032697645955e-03,6.471636779235187889e-03,4.222004115581512451e-02
2.341871672238950153e-01,2.350194239297220267e-01,2.310703418126556774e-01,2.805898340780144107e-02,-2.255091445566191621e-02,2.458218988204153438e-02,7.558706402778625488e-02
2.129136031742882018e-01,2.527076124596404627e-01,2.364582281453435353e-01,2.220728207534030177e-02,-2.454169749357226413e-02,1.251839644731654426e-02,7.040939480066299438e-02
2.333389428651972131e-01,2.384036159694433166e-01,2.302314196670871838e-01,2.322837504266333890e-03,1.935067841865877633e-04,5.545116645000440101e-04,8.262427523732185364e-03
2.275754580568838115e-01,2.396851068042149535e-01,2.330727603454380847e-01,1.969426368355692986e-03,-2.098069897902188081e-03,3.695039193637138231e-03,1.327008195221424103e-02
2.347080457295798450e-01,2.340598872876873959e-01,2.353110462215659837e-01,1.148735650405312736e-04,4.631849688550574362e-04,-2.562149102266309558e-05,1.363721676170825958e-03
2.566685746245739308e-01,2.226313686976964523e-01,2.786994097108023150e-01,4.977335982056255159e-02,1.273216619928839791e-03,2.965797599245573180e-02,1.116672232747077942e-01
2.809764495099810189e-01,1.950564818700999403e-01,2.764239896909889693e-01,5.065550899890335773e-02,-2.124522390577017125e-02,5.417286387065347458e-02,1.576957106590270996e-01
2.036510467888791587e-01,2.085681915858812185e-01,2.820088569438585213e-01,6.919376975912303052e-02,-1.725425819953861975e-02,4.304231113835118444e-02,1.630742549896240234e-01
2.417465118394880597e-01,2.325672958927696432e-01,2.323853844462914486e-01,-4.889105602860373528e-04,1.029381778071490269e-03,7.454307520754732382e-04,9.566811844706535339e-03
2.236140478616008564e-01,2.261130857654461424e-01,2.472522496520312973e-01,-2.580718792982799291e-03,1.205010688940284444e-03,2.670032706252152381e-03,2.348745800554752350e-02
2.339816480765365136e-01,2.337969338453288470e-01,2.351423171392746370e-01,-1.430132106540410529e-04,3.581359399881431892e-05,8.189130594001462577e-04,1.916435780003666878e-03
2.340157513810026679e-01,2.356895560505954113e-01,2.349099837992791318e-01,-8.629346607147970983e-04,2.679617740435111359e-04,3.062793209215173467e-04,2.198932459577918053e-03
2.397606037728723938e-01,2.476233155965084087e-01,2.148235475962924634e-01,7.671982029973406503e-03,-1.031073320033692141e-02,7.597176436037909528e-03,3.934990242123603821e-02
2.327120204227939859e-01,2.441565194240241377e-01,2.209478817272049755e-01,5.365151507085075613e-03,-3.083337714133754098e-03,1.507108883714689375e-03,2.292805723845958710e-02
2.285440805336733661e-01,2.409472566297440332e-01,2.269953198836186792e-01,4.717889116644774852e-03,-5.011997893247832278e-03,4.314980812488379038e-03,1.932459510862827301e-02
2.269208013814722757e-01,2.546362026211363427e-01,2.132234958152055826e-01,8.767229210986908147e-03,-1.213304251937677609e-02,6.594038382345370625e-03,4.623910784721374512e-02
2.279711430954350360e-01,2.464378642621332660e-01,2.343356713847880579e-01,4.775187461339092977e-03,-5.270852415863691055e-03,4.641082847516315307e-03,2.191727422177791595e-02
2.368706547503771076e-01,2.325299307762367096e-01,2.345735298113688083e-01,-1.328330188796335298e-03,8.113155454201034572e-04,4.215068912628142962e-04,4.684929735958576202e-03
2.412397666679422237e-01,2.308378558329271524e-01,2.341080122133183394e-01,-4.706845440784319066e-04,1.728501279010229543e-03,-3.910081131884782986e-06,9.721400216221809387e-03
2.284909116300715415e-01,2.488510001262550786e-01,2.257989788749852622e-01,1.172193041511030483e-03,-4.921706540671452572e-03,3.978927563822103747e-03,2.451275102794170380e-02
2.333784573586795696e-01,2.568906211352969260e-01,2.133417064984593492e-01,5.012314513401395534e-03,-1.133322343774944424e-02,6.114193143704147945e-03,4.470175132155418396e-02
2.417251254275012973e-01,2.308184824584828265e-01,2.322501524158946951e-01,-4.547055961979726280e-04,1.059767711540066321e-03,-6.306927984142667195e-05,1.045903190970420837e-02
2.271593275765180775e-01,2.479761684971883706e-01,2.244203388412955025e-01,2.818764841685527777e-03,-3.110425883476241379e-03,2.731303860856500697e-03,2.393952012062072754e-02
2.234388686125005630e-01,2.293897286419666059e-01,2.347707696932394839e-01,-1.605970985362124761e-03,-9.353454749293174143e-04,-4.617706917347630217e-03,1.306605711579322815e-02
2.270359894576251258e-01,2.567814282448896424e-01,2.627985882149622143e-01,-2.160757377305946858e-02,3.502548118829543894e-02,2.843191550016319069e-02,9.276916086673736572e-02
2.315456251445006663e-01,2.442176844993805551e-01,2.242159152402166400e-01,-5.968215148605616333e-03,1.404885000678019434e-02,9.647074835214534960e-03,3.585185855627059937e-02
2.485526466606247931e-01,2.335889486558162531e-01,2.286217951403840265e-01,-1.150497737971001907e-03,6.066665355228594101e-04,9.217094750229588417e-04,1.818063668906688690e-02
2.467314957176666157e-01,2.249665747901744561e-01,2.348234991249526504e-01,-7.385443550227269779e-04,3.619733434975096718e-03,1.946216134827207303e-03,2.021490968763828278e-02
2.108950977226904666e-01,1.958512250426043544e-01,2.471036870058613000e-01,-6.486403759581906014e-02,5.621290609138848704e-02,6.764703814624109524e-02,1.947104632854461670e-01
2.528500935989035359e-01,2.222937737977639938e-01,2.358673633349364085e-01,5.022706941344030332e-04,1.375676249597427301e-03,2.476705868919045709e-03,2.698163315653800964e-02
1.956338128510787255e-01,2.240351291680406087e-01,2.755812133620336168e-01,-4.078140490901250442e-02,3.454022548216321986e-02,1.304537401384854751e-02,1.183495074510574341e-01
2.501201204219884455e-01,2.468976812192124060e-01,1.823126675233370797e-01,-2.019464783453875714e-02,6.135520903485647271e-02,7.553901676972013535e-02,1.844587028026580811e-01
2.513852769283442812e-01,2.303043953847524750e-01,2.251889372817562074e-01,1.797875514293095518e-03,2.101104124645608031e-04,3.622776411531870508e-03,2.505220286548137665e-02
1.625064487215140407e-01,2.495538348219230040e-01,2.364439067820542362e-01,-4.881957245707313486e-02,8.282722503722005081e-02,5.182305208788400702e-02,2.059026956558227539e-01
2.535166255728261708e-01,2.340544159301332083e-01,2.229790621781095605e-01,9.897347825508354732e-04,4.700828981666718177e-04,2.460653730981621733e-03,2.718010358512401581e-02
2.514346289845300619e-01,2.306587235868437502e-01,2.298383842644960429e-01,1.881028037865745562e-03,1.517600553975214685e-03,5.902209154326544874e-03,2.390369959175586700e-02
2.509345956650521070e-01,2.307682253922273552e-01,2.275827605356986749e-01,1.539223265900030013e-03,8.355277580060067020e-05,8.074657189430106425e-04,2.213941141963005066e-02
2.483347593278592003e-01,2.450537057163117705e-01,1.749834987452052459e-01,-1.154175363506264318e-02,-2.814426047476322953e-02,-3.341210200721932144e-02,1.061863601207733154e-01
2.271494697892748327e-01,2.323374938404640377e-01,2.251392707353273293e-01,-7.201714086992848374e-03,-6.975272413842683455e-03,-9.264750971857228790e-03,2.450407296419143677e-02
2.259667888976114036e-01,2.336324538358746372e-01,2.247343171624245073e-01,-3.516345087685444123e-03,-3.079387191351680864e-03,-2.479491710538946590e-03,1.239817216992378235e-02
2.544351142588047732e-01,2.354504959830200361e-01,2.220034106328562795e-01,3.937288210146060868e-03,-1.239143008860634507e-03,1.453984659013030523e-03,2.922298759222030640e-02
2.474926605865658824e-01,2.365363078493410154e-01,2.236691564113385544e-01,4.401093854789987943e-03,-7.510899896580728631e-04,1.822376889657041730e-03,2.227884158492088318e-02
2.228913899469018023e-01,2.300659786499555104e-01,2.354933510224215820e-01,-9.083670951905093230e-04,-2.326478872474268492e-03,-4.055175182401136134e-03,1.370826363563537598e-02
2.712984283917915795e-01,2.696774571246403074e-01,1.871072609629479966e-01,1.692178433182747396e-02,-1.356267282956457806e-02,3.300197789024805067e-02,1.078544333577156067e-01
2.405929764569856577e-01,2.375616327240776260e-01,2.272965565733402471e-01,4.126434382451345771e-03,-5.849320143583594750e-04,8.718979117842099325e-04,1.414451282471418381e-02
2.122745634573804108e-01,2.396572817600931549e-01,2.271523780343304988e-01,-3.221228075272111052e-03,-4.618385636810885299e-03,-7.678452081888406319e-03,2.890952862799167633e-02
2.468006334009233138e-01,2.353660813818616859e-01,2.236381192023254860e-01,3.493801233068328464e-03,-5.828502164817126472e-04,2.110495023206637559e-03,2.129318565130233765e-02
2.419361499392616854e-01,2.263350693030425909e-01,2.359066482633512818e-01,2.291074061481948587e-03,-3.646896830168692635e-03,3.499530986936102116e-03,1.667539030313491821e-02
2.354643765215109763e-01,2.353964211531568429e-01,2.348503378171845901e-01,2.106330320057360397e-03,-4.696525441802491298e-04,2.145058564958671893e-03,5.302392411977052689e-03
2.186748099711681437e-01,2.402960281690824096e-01,2.275045627923565350e-01,-1.293315178091190626e-03,-1.374820512114536012e-03,-5.102209758178586664e-03,2.105510979890823364e-02
2.030089093105869880e-01,2.268265343266336609e-01,2.558736629677819119e-01,2.789470482122730424e-02,7.857866251264163798e-03,-2.665454256733477186e-03,6.814502179622650146e-02
2.410618120613283732e-01,2.339628658544836148e-01,2.305994406739407532e-01,1.483154520222277131e-03,-5.080142462265598577e-04,1.281835887482616254e-04,9.644025005400180817e-03
2.364060527050215188e-01,2.307841437920575556e-01,2.773623627782606516e-01,3.762152466722761684e-02,5.589437976937235153e-03,1.036553656730448275e-02,8.124945312738418579e-02
2.393509758283521860e-01,2.375717629454666413e-01,2.293496714374311241e-01,3.918137355462160062e-03,-9.790974701751214461e-04,1.080538422545600534e-03,1.174015458673238754e-02
2.096874489147624865e-01,2.411376887633442379e-01,2.355899771291257161e-01,-5.191277066408941931e-03,-3.290836963050309313e-03,-7.701233022943879472e-03,3.371471166610717773e-02
2.368572694846238225e-01,2.339473280871178229e-01,2.336532247287056163e-01,6.744719915133613785e-04,-1.613334407586605214e-04,-1.987842560816469354e-04,3.312317654490470886e-03
1.937885079631198604e-01,2.534021406717353875e-01,2.577494345949828958e-01,3.092305506750014400e-03,1.064882417551612712e-03,1.110556997953310440e-03,6.219028308987617493e-02
2.782998017035055449e-01,1.843894834708800778e-01,2.723717307311156466e-01,2.446169858783692891e-02,1.909523796906695270e-02,-2.534765670557487596e-02,1.145168244838714600e-01
2.335152485134350253e-01,2.369936932746322944e-01,2.336745287793415005e-01,8.302375990971417414e-04,-2.705378873402378018e-04,9.870793059903993326e-04,4.096502438187599182e-03
2.369232103898603059e-01,2.143745680612730853e-01,2.544118514545612442e-01,5.334555329760842270e-03,8.095495395499574575e-04,9.359928786678445040e-04,3.603617101907730103e-02
2.362859063979257379e-01,2.328550628772123321e-01,2.365447363589104623e-01,5.668392344172452219e-03,-4.044453023559132013e-03,6.553221890476836932e-03,1.694180257618427277e-02
2.347496652543200613e-01,2.354585349483737933e-01,2.342352306013646968e-01,4.368760833094498838e-04,1.778111575523489026e-04,8.697996536024896880e-05,1.349790953099727631e-03
2.303835651359824044e-01,2.219661815232396307e-01,2.572491242486833474e-01,2.604828310940894218e-02,-1.999162549921822563e-03,1.043475807247298305e-02,5.824886262416839600e-02
2.371171556055034213e-01,2.155970528182610257e-01,2.527270563494031230e-01,4.418296314011616564e-03,3.425114806447189346e-03,-3.975438526397730068e-04,3.371858224272727966e-02
2.620818530148893988e-01,1.764058508012791848e-01,2.740649564221028234e-01,3.195093263219553337e-02,1.079705428797882519e-02,3.454746980391292313e-03,1.093561053276062012e-01
2.754587648589832405e-01,2.190430342357753135e-01,2.232143262610299383e-01,-4.811998892516072823e-03,2.233212932113737628e-02,5.048267865759518969e-02,1.103446781635284424e-01
2.512017270240460842e-01,2.296067183764448072e-01,2.282497583295877153e-01,2.805890748247438738e-04,5.533409224920764723e-04,1.189177104741642038e-03,2.242513000965118408e-02
2.496050657974807074e-01,2.299472329261884884e-01,2.284279657939305153e-01,-3.832086828947664048e-04,4.764749623164466407e-04,1.142489583427962413e-03,2.058255486190319061e-02
2.497639889240817757e-01,2.299468120106850366e-01,2.282322145384702572e-01,-2.544244620173319467e-04,3.887737210091797959e-04,1.230790803161072641e-03,2.085260115563869476e-02
2.511727781991535680e-01,2.289492567761803876e-01,2.257560787665599256e-01,-3.621644205416607370e-04,8.459644182641874385e-04,4.020772278239527486e-03,2.502169460058212280e-02
2.507493334904016824e-01,2.248411093923953219e-01,2.299427522965101223e-01,-9.745042147169620441e-05,1.556846572588416969e-03,3.836219179058551060e-03,2.483018115162849426e-02
2.452315036297779971e-01,2.330392601143135289e-01,2.366821196919399739e-01,6.993827539934606777e-03,-4.378812335237306820e-03,6.511973464763818470e-03,2.118930965662002563e-02
2.106694563622023009e-01,2.428429890531719759e-01,2.555632693787815435e-01,3.576277923886207657e-03,-8.281287657082086681e-04,4.165181143259598200e-03,4.121493548154830933e-02
2.270165563487687166e-01,2.320981771996050158e-01,2.445771501988527052e-01,3.384986257936168502e-03,-1.075475967946928338e-03,3.912178079495706555e-03,1.813066005706787109e-02
2.419304562592997643e-01,2.327074400116234398e-01,2.328080913785857131e-01,9.908817360454638245e-04,-1.380308318981449123e-03,3.573689393456807727e-04,9.653511457145214081e-03
2.316021715930345892e-01,2.389798821669447404e-01,2.368448836312073147e-01,4.895080519512787394e-03,-3.268317201639653943e-03,5.026293077022057389e-03,1.493182592093944550e-02
2.336641098794798310e-01,2.361659208070935323e-01,2.345160031174373938e-01,1.219291521839696840e-03,-1.029598499278041928e-03,6.015261789036368189e-04,3.685001982375979424e-03
2.378288814331777634e-01,2.277638483187297558e-01,2.351607524503108171e-01,2.181844776064485302e-03,-3.229473386971251116e-03,3.289764356674640487e-03,1.263354625552892685e-02
2.330308611025508070e-01,2.325871827607308429e-01,2.414520701674685021e-01,4.014449907172055261e-04,-1.329126428700874414e-03,1.056679897302798292e-03,9.164215065538883209e-03
2.378806516390293557e-01,2.318811966192016460e-01,2.355263917826654341e-01,1.242647576793194306e-03,-2.289245147221540596e-03,1.104072599026342848e-03,7.170990109443664551e-03
2.324721053303752116e-01,2.359525610288399911e-01,2.348789599081279322e-01,9.242045344203971263e-04,-3.958257333223873372e-04,1.616334891664674474e-03,4.516600631177425385e-03
2.393377750835199436e-01,2.373537881383398773e-01,2.291659112955773958e-01,3.816856473206000841e-03,-1.138785673137512541e-03,9.651304177221910630e-04,1.173082645982503891e-02
2.071981155036867195e-01,2.532906686640117311e-01,2.392079672309071203e-01,2.602155789088819726e-02,-2.289802775232140097e-02,1.472638855542703074e-02,7.699780166149139404e-02
2.283130799189266036e-01,2.412556254222607000e-01,2.296873988961505575e-01,1.284563218867356381e-03,-2.046526182914400541e-03,2.845412178550613819e-03,1.390738226473331451e-02
2.279604646589032946e-01,2.396775058881043530e-01,2.332845995290352969e-01,2.188463913311650133e-03,-1.340881159142694613e-03,2.843118948512730546e-03,1.213525235652923584e-02
2.324539893036130511e-01,2.361010763320849359e-01,2.333488638353198308e-01,2.912772343588437428e-04,-1.029590870518862873e-03,9.434014789954756237e-04,4.116197116672992706e-03
2.366001229545488527e-01,2.354626795086785240e-01,2.327092409093487468e-01,1.053571903592189678e-03,-1.793321576043636521e-04,-1.068712259006054189e-04,3.932921215891838074e-03
2.704860652092959672e-01,2.849328813780118153e-01,1.522503250851052758e-01,2.846689966688700779e-03,7.100340620353924603e-02,4.127984453674262560e-02,1.901509165763854980e-01
2.336830787480299876e-01,2.396807400491812456e-01,2.333738852768194316e-01,2.796968404105768316e-03,-1.624460226643471665e-03,2.808858552729444260e-03,9.642445482313632965e-03
2.365763387356795422e-01,2.349622156581107346e-01,2.312194758987194676e-01,1.998044076732651518e-03,-1.123143740547783960e-03,8.627814361477359473e-04,6.375641562044620514e-03
2.405849978447346660e-01,2.365373738546030224e-01,2.198325252746816949e-01,1.157859386170952132e-02,-1.006773204148476118e-02,1.508522944047766684e-02,4.185704141855239868e-02
2.389789421612962539e-01,2.323142354286390487e-01,2.298550949010699784e-01,4.182885834518815064e-03,-4.089355721456417424e-03,4.868198284767721352e-03,1.551165059208869934e-02
2.340601924540184897e-01,2.410856858477873899e-01,2.276898373746933102e-01,3.939073884378499653e-03,-1.162465488435229875e-03,8.714893959322650863e-04,1.369581092149019241e-02
2.369109595671554103e-01,2.338046690644912384e-01,2.355386008948807675e-01,7.780838060091645192e-04,-1.958624274053470844e-03,7.738029555017429152e-04,4.731875844299793243e-03
2.374112800659595179e-01,2.344404704170120479e-01,2.327692213925686149e-01,5.201641728902230144e-04,-5.019846915791434773e-04,3.109758612913026793e-05,4.260789137333631516e-03
2.395612604084640662e-01,2.318371953132714880e-01,2.367053899449700072e-01,3.176726748672251306e-03,3.595746157595507315e-03,-2.690713175699099759e-03,1.168507616966962814e-02
2.317358112144422555e-01,2.370807956523749427e-01,2.398586013279950802e-01,7.546568071160209695e-03,5.543174868627537624e-03,-3.259877947120014795e-03,1.860229112207889557e-02
2.395998416978794565e-01,2.375523265439130061e-01,2.295446983622807247e-01,6.635801219236080878e-03,6.415069939802909779e-03,-4.171271471594441282e-03,1.981084607541561127e-02
2.358806119098190990e-01,2.379132873141049931e-01,2.310993744656689997e-01,2.865210750245862376e-03,2.608711558243200900e-03,-3.241527173456694010e-03,1.064319629222154617e-02
2.370298531682992482e-01,2.178754642025268473e-01,2.475618968828360855e-01,4.471133934300427354e-03,5.153253288193716287e-03,-1.948681454278763762e-03,2.881983108818531036e-02
2.318145977151080672e-01,2.312945538682480151e-01,2.444576573113474982e-01,3.785085060057482090e-03,3.264617001426492644e-03,-2.074757981956685225e-03,1.595493592321872711e-02
2.446896296662607884e-01,2.121613598754713281e-01,2.436074036926857977e-01,5.079162193853218113e-03,-4.872453869016005537e-03,8.789378363984063844e-03,3.747575357556343079e-02
2.392601990925004030e-01,2.192704173057775097e-01,2.425349205456139856e-01,3.403072238642294335e-03,6.488597082170598912e-03,-3.242004645200737608e-03,2.585258707404136658e-02
2.334665500941356386e-01,2.327662142964553871e-01,2.385430946260857776e-01,5.352509699054696594e-04,6.494101498516176643e-04,-1.089571095692525200e-03,5.958459340035915375e-03
2.463553126012036076e-01,2.375899504103769488e-01,2.200667706603059715e-01,6.790836641795754310e-03,-2.016013109480859367e-03,4.250155558149852977e-03,2.724373713135719299e-02
2.420182123459370671e-01,2.323172758322288867e-01,2.310457766936824253e-01,1.011625468387530088e-03,-5.095862617760605956e-04,-1.945173806410314520e-04,1.058405917137861252e-02
2.387330780899779847e-01,2.226818355187032139e-01,2.401866700080992068e-01,2.968255499069682654e-03,5.035190277001352563e-03,-1.962056614229415810e-03,1.992805302143096924e-02
2.289305205991007119e-01,2.352753494917755872e-01,2.460549425390899936e-01,8.931968228399320489e-03,4.797237518371042474e-03,-2.664427746098644266e-03,2.354844659566879272e-02
2.303168770258639253e-01,2.254615634949060643e-01,2.504477273668931914e-01,2.940486734319917340e-03,1.834629327223915012e-03,-4.182759745079114486e-04,2.373033203184604645e-02
2.226361849259771708e-01,2.339985114901200758e-01,2.482563541660580686e-01,4.849229211206958212e-03,1.884388679005436808e-03,-2.448120342020359327e-03,2.436326257884502411e-02
2.260523913304459953e-01,2.350898984733459929e-01,2.423356017242201399e-01,3.147184479263934447e-03,2.279834508038066157e-03,-3.466400043888137605e-03,1.676349900662899017e-02
2.326560724464055152e-01,2.327999535706222201e-01,2.417749858122772988e-01,3.628014644808068420e-04,1.103196555305327843e-03,-1.344042808225685750e-03,9.556599892675876617e-03
2.472026663434266081e-01,2.287509374398528084e-01,2.310436556279008014e-01,8.741348927961326400e-04,-1.224634890372081238e-03,1.639943740609718995e-03,1.784034818410873413e-02
2.471436114391139249e-01,2.302905842419687987e-01,2.283391367649680870e-01,1.016201928996401938e-03,-4.523233724393617124e-04,5.164843722616250599e-04,1.803420484066009521e-02
2.333631884120116740e-01,2.374497934390574494e-01,2.365808234382445197e-01,4.912516175426069089e-03,8.394194329516496342e-03,-5.325765163687552761e-03,1.956480368971824646e-02
2.408960616687864931e-01,2.285365292765732248e-01,2.421351378187403813e-01,7.615675271790569786e-03,6.605252691577793121e-03,-4.056674048183100435e-03,2.288801409304141998e-02
2.326296367564329171e-01,2.309744267663970951e-01,2.416926234199894830e-01,8.470869617633983194e-05,1.113028817472983033e-03,-4.152728754790195793e-04,1.020460575819015503e-02
2.515847737927669470e-01,2.292560095182822610e-01,2.292559180748894865e-01,5.968336928821053790e-04,2.515046536664611245e-04,4.850207091525890642e-03,2.388320863246917725e-02
2.339522650195002273e-01,2.269571960611256878e-01,2.437731630092651314e-01,2.301173596653697476e-03,3.597113643806721349e-03,-1.545172774167471921e-03,1.661160588264465332e-02
1.794516308311131791e-01,2.677877094842874284e-01,2.650982827188224089e-01,-2.188251107428221265e-02,1.634444947571112375e-02,7.566856340504772224e-03,9.991321712732315063e-02
1.630200783170060730e-01,2.851615624254284498e-01,2.871495222617831966e-01,-2.128519481488527071e-02,1.444357025610371222e-02,1.292832209231866043e-02,1.328599303960800171e-01
1.160030255695923551e-01,2.649729569374261740e-01,2.748130015129598425e-01,-4.754593286055554258e-02,3.505205976836500703e-02,2.030376502560072086e-02,1.883062720298767090e-01
2.584601077354340970e-01,2.071449469674014610e-01,2.429347377655947660e-01,1.407450381675490452e-03,4.734508502906053292e-04,3.715112149033306978e-03,4.610441997647285461e-02
2.296432431441778887e-01,2.289214902807705510e-01,2.417799874396477089e-01,-1.623291615689806226e-03,2.904662004495630126e-03,1.595518156652836299e-03,1.405114494264125824e-02
2.271254698327855315e-01,2.270608031376953606e-01,2.438938059556549354e-01,8.295037796152317363e-06,5.975670879878189823e-04,2.549171084348369684e-04,1.683840900659561157e-02
1.653645129781267653e-01,2.653837633500781834e-01,2.807480612979770251e-01,-3.031902976673130079e-02,5.370254100324972635e-02,2.962449666772813683e-02,1.606831997632980347e-01
1.775300291050071477e-01,2.640224795661994528e-01,2.726839162170083819e-01,-3.152565623957725299e-03,3.733822232169352329e-02,1.261329855587081834e-02,1.139940544962882996e-01
1.610013619159570419e-01,2.646177993328557299e-01,2.618909857427482724e-01,-4.923215216332626175e-03,1.522243216260779630e-02,5.847988483390805826e-03,1.064506322145462036e-01
1.936161875130087417e-01,2.589627174530418907e-01,2.544342959891581213e-01,1.031871006239216612e-02,3.576661616491428296e-03,1.566333052143561002e-03,6.602972000837326050e-02
9.346688505442704575e-02,2.916599092702268359e-01,2.684436643128838007e-01,3.092077351022263706e-03,5.920454031663004851e-02,1.293298973553348025e-02,2.150910794734954834e-01
2.442958572651748594e-01,2.388214362906921628e-01,2.282803274450153075e-01,6.355905151292003466e-03,-4.570902659193463655e-03,7.593656409244224290e-03,2.357230708003044128e-02
2.515689833733862346e-01,2.512088230909532149e-01,1.987635250102453011e-01,-1.314163566670647609e-03,2.972825521971530355e-03,2.767970910568074306e-03,5.314326658844947815e-02
2.228327174184377146e-01,2.230962397865824398e-01,2.493386519229867371e-01,-1.725232443501529872e-04,6.972157683806060480e-04,4.987863536518482419e-06,2.640448510646820068e-02
2.426948734303923105e-01,2.538606097928098881e-01,2.119436980454814379e-01,-9.975304631239590488e-04,3.731452772490003941e-03,3.630296480193206249e-03,3.870350867509841919e-02
2.201450782001916351e-01,2.497597533261317337e-01,2.377101534890552759e-01,9.557999691026049932e-03,-8.523863053384723304e-03,7.528229977266938378e-03,3.643397241830825806e-02
2.325884820245000817e-01,2.364701048618042256e-01,2.350557077463812927e-01,-1.955563928807104097e-04,7.557749520562349465e-05,1.232754605000132859e-03,4.033394623547792435e-03
2.443782386416228636e-01,2.326532947116413119e-01,2.381837777780895504e-01,6.706793740588677145e-03,-4.495727526529389242e-03,7.772520356833415023e-03,2.190958894789218903e-02
2.392810624964270272e-01,2.331713725320504471e-01,2.309148575378466295e-01,3.151420221357079197e-03,-1.277378091213583365e-03,1.733089086033073184e-03,9.995348751544952393e-03
1.046901856434722666e-01,2.964800008176420865e-01,2.820282232287449342e-01,1.044310671968146260e-02,2.323162633987818290e-02,8.713737639897575077e-03,1.907736212015151978e-01
2.407284024052981641e-01,2.337734868237535957e-01,2.307352440451310716e-01,1.856684216378403848e-03,-1.066658414594072240e-03,1.166790904439478187e-03,9.827095083892345428e-03
2.493851707376537608e-01,2.247214708408509232e-01,2.311198011854212198e-01,-7.372780974690915654e-04,3.021194503099804488e-03,3.300395323388060926e-03,2.351853810250759125e-02
2.495879725021367956e-01,2.298571633992713970e-01,2.286806323436931798e-01,-1.517460124869254412e-04,3.296189470021071584e-04,1.071747468626327261e-03,2.043878473341464996e-02
2.449853377010486333e-01,2.332192245618666393e-01,2.281618592020528691e-01,3.078781434678213181e-03,-9.721103471806559568e-04,2.037788714753984310e-03,1.634788513183593750e-02
1.815359831991414097e-01,1.562851216240355445e-01,2.654551588772834925e-01,-1.037612290928768138e-01,-4.755096968688320158e-02,-5.789593758508554400e-02,2.427701503038406372e-01
2.469027697314463143e-01,2.294483346369125543e-01,2.305751484582278521e-01,-3.196267292578882269e-04,1.304287544661401378e-03,5.309581652745058809e-04,1.710306480526924133e-02
2.442141177298539079e-01,2.287115955604609452e-01,2.350383272580672256e-01,4.121381868430441624e-03,-3.153155488473202359e-03,8.246177831928803992e-03,2.161153219640254974e-02
2.309418062199935784e-01,2.437894388432501613e-01,2.276017597440030127e-01,2.292214823745013057e-03,1.775481252662262401e-04,3.954872243375802811e-04,1.534456945955753326e-02
2.474276260849338216e-01,2.362894121500847544e-01,2.166520983950007695e-01,5.290223979016695985e-03,-1.631266606075288837e-03,5.357216923260892799e-03,3.010731376707553864e-02
2.148707146083886355e-01,2.404303760695760683e-01,2.447062369726877018e-01,-1.807207396850488146e-03,1.701140205562121002e-03,6.461710820884292682e-03,3.040739335119724274e-02
2.467800821553060020e-01,2.308733273540849729e-01,2.260974749826555330e-01,2.932321048259470958e-03,-8.637912364224786376e-04,3.487023828084583662e-03,2.040377072989940643e-02
2.133150756710830154e-01,2.254326204494186137e-01,2.545231241806887867e-01,-2.077769558214830840e-03,2.632906324777479178e-04,-4.706944231909500733e-04,3.687033802270889282e-02
2.505698648141463925e-01,2.491778960370545082e-01,1.933646155734547456e-01,-3.382047872885581008e-02,-5.032716276866770061e-02,-4.654177961883371184e-02,1.439552158117294312e-01
2.574196704374741018e-01,2.639834480027225538e-01,1.759829298293920374e-01,-2.261432893454386195e-02,-5.193137431193977499e-02,-4.125745009100192234e-02,1.481246650218963623e-01
2.198298334954107702e-01,2.216118461254477090e-01,2.530096078065350307e-01,-5.515208265855194372e-03,-9.241781968740436521e-04,-4.923369718596016896e-05,3.374564275145530701e-02
2.772789577951688678e-01,2.800852735900822288e-01,1.629051983062770048e-01,9.551357380556150731e-04,-2.555163372798626570e-02,-2.568401471291411817e-02,1.317216902971267700e-01
1.850239516140824436e-01,2.495031633038636842e-01,2.594026354162285442e-01,-5.794481412041497907e-03,-1.484537563034951093e-03,1.037051920204696285e-03,7.074210047721862793e-02
2.505493405248949146e-01,2.485018721599802083e-01,1.622043637236441904e-01,-1.129277527597767096e-02,-2.500493474247936568e-02,-2.427745351207471688e-02,1.079567000269889832e-01
2.711638594748118081e-01,2.665825791217390495e-01,1.734225715648849420e-01,-1.011572190740711238e-02,-2.674036359173054961e-02,-3.803103408840027844e-02,1.261656433343887329e-01
2.091533586957633473e-01,2.535102351842347668e-01,2.545198760848043085e-01,3.204451505437858321e-03,3.947564628771868533e-03,1.106875296884926151e-03,4.576644301414489746e-02
2.201393255619886746e-01,2.183464119712897888e-01,2.516612250199488088e-01,-9.515265828197736267e-04,-5.945615212357117799e-04,-8.089703219723391996e-04,3.254382684826850891e-02
2.280270946010898303e-01,2.374120336122096664e-01,2.380834348313112525e-01,-4.199985118442114236e-04,1.401403418936555435e-03,3.583304423724033988e-03,1.182244159281253815e-02
2.556406207221035842e-01,1.976500038171984663e-01,2.580294698956997479e-01,-6.609917796797874084e-03,5.853175048025053076e-03,7.259350181294909124e-03,6.244273856282234192e-02
2.414705664577537214e-01,2.257209993362024603e-01,2.373801336208156698e-01,-1.686280186391587348e-03,3.642574240860152121e-03,1.627261430448656825e-03,1.601991057395935059e-02
2.595460044790897092e-01,1.847092642556427688e-01,2.495993794217461481e-01,-9.525068204514269485e-03,8.685028484669345475e-03,1.956454537612834638e-02,8.125197887420654297e-02
2.427394479210286116e-01,2.348842186581860114e-01,2.348746423030203256e-01,-9.373461319076934611e-03,8.616267334645953679e-03,1.768153889327301817e-02,3.854861855506896973e-02
2.279355885873304566e-01,2.202778399032378209e-01,2.439474911313297967e-01,-4.644619035178960964e-02,-2.871579176035387107e-02,-3.464821983974697428e-02,1.139502972364425659e-01
2.450677018762373038e-01,2.271260266648755244e-01,2.360245101743883578e-01,-7.950408733423950432e-04,4.683708391332689312e-03,1.512025033810824974e-03,1.777637004852294922e-02
2.732068089289901303e-01,2.187263337941600660e-01,2.563459689127241536e-01,-2.013236858223970902e-02,2.474360666841781548e-02,3.993961227274273051e-02,1.008564159274101257e-01
2.366647545167958611e-01,2.335972038938108064e-01,2.424322954374931172e-01,-6.188343898010206789e-03,1.558941013342783968e-02,1.630793021141025215e-02,4.125758633017539978e-02
2.414216469202694892e-01,2.328459575986276120e-01,2.320957540377367734e-01,-5.309430984585403407e-04,9.525589414402066586e-04,9.956959876247504278e-04,9.331709705293178558e-03
2.369118200205445890e-01,2.315677514568945938e-01,2.354490498923733077e-01,-6.904810489470060127e-04,7.823233640110018126e-04,5.783986678579402163e-04,5.210723262280225754e-03
2.332088862713939392e-01,2.338817813918329658e-01,2.354316085210963194e-01,-1.556541638078692033e-04,8.983386664805012578e-04,2.074609298468641882e-04,2.553520025685429573e-03
2.394461795480975208e-01,2.202587977366278482e-01,2.440044868081814311e-01,-2.166289219906732642e-03,4.756497082931147348e-03,1.316514677476768444e-03,2.373913675546646118e-02
2.628722344270832956e-01,2.112473692243598267e-01,2.262320115725025560e-01,-2.612799611604322268e-04,1.155947507784770185e-02,2.889096533817406276e-02,7.086055725812911987e-02
2.516340376377321220e-01,1.802048502865917223e-01,2.543425905166066814e-01,-1.816912428507972202e-02,9.818308077639455178e-03,1.633117887552745437e-02,8.592209219932556152e-02
2.198422892461923683e-01,2.747006799714012959e-01,2.194986387377135806e-01,7.014704000004261426e-03,2.568480889591434266e-02,8.500981724169057088e-04,7.181453704833984375e-02
2.291951528856455700e-01,2.515357005271223190e-01,2.308154467250108921e-01,2.748938851549302242e-03,5.431285063763479845e-03,9.802274316671143444e-04,2.407439053058624268e-02
2.302579887318561003e-01,2.317543312064448413e-01,2.381456415916888281e-01,-4.435108813119342254e-04,1.800140188346279965e-03,5.349060269529022898e-04,7.988833822309970856e-03
2.293372405686419646e-01,2.342496437182158830e-01,2.384711110464564077e-01,-7.605303934445629922e-04,9.716216237958871099e-04,2.168519934202525496e-03,9.020246565341949463e-03
2.307665024143272237e-01,2.194108857129815626e-01,2.554967936526755246e-01,-1.011772043649432004e-02,4.531667201131221560e-03,4.255938191434061220e-03,3.800548613071441650e-02
2.348603418081669225e-01,2.554153217216552085e-01,2.187537190935693321e-01,3.005376182330875365e-03,1.000687803276733429e-02,4.100750007202579039e-03,3.729557618498802185e-02
1.876684698453731925e-01,2.583926190109763210e-01,2.543866199754235558e-01,8.428648589323155986e-04,3.268347905937117864e-03,5.583115418128696637e-04,6.906334310770034790e-02
2.354493328174579736e-01,2.509389585856000027e-01,2.245288266713292014e-01,-1.020802442284953794e-03,2.209971745651755429e-03,1.326136531197230411e-03,2.348178997635841370e-02
2.211176508094866155e-01,2.183696397348793283e-01,2.523847123816018723e-01,-1.061616249205238512e-03,-1.429565353152158821e-03,-7.259395727980400004e-04,3.289674594998359680e-02
2.390438139243650228e-01,2.393638796671279656e-01,2.307159260611571505e-01,5.923028579780528595e-03,-3.558399681471192261e-03,7.145435666484850276e-03,1.919705234467983246e-02
2.298397187989536239e-01,2.533201592758547172e-01,2.307446537949287557e-01,1.022486085725467491e-03,6.075053402524670243e-03,8.184049084759068135e-04,2.543160133063793182e-02
2.396233175596007847e-01,2.560255741250428985e-01,2.136095481666329954e-01,-1.061726590875803613e-03,1.615450843961223695e-02,4.979845810909643358e-03,4.725587368011474609e-02
2.334324587076775648e-01,2.341549016045751663e-01,2.362786165333842503e-01,3.597059026513942624e-04,-3.951385635192512921e-04,1.571867870784798230e-03,3.851652378216385841e-03
2.273179421771334974e-01,2.349977513636913318e-01,2.396966874438771489e-01,3.676573460639450015e-03,2.798503048745162782e-03,-4.162609216830595420e-03,1.527006179094314575e-02
2.316908464095272513e-01,2.354766034343887537e-01,2.399689721568811218e-01,1.171170142133057734e-03,1.183964934608969666e-03,-2.583832020694303792e-03,8.936954662203788757e-03
2.363890257767535252e-01,2.339313464897387895e-01,2.330845190072116380e-01,1.036369383682054319e-03,5.530336315898448521e-04,-3.851246678689312008e-04,3.663771320134401321e-03
2.310553401362478720e-01,2.363218175162039858e-01,2.452674694056077853e-01,7.468705174860833240e-03,6.159598469883455565e-03,-3.518153775320985790e-03,2.175250276923179626e-02
2.352691719404770565e-01,2.335379491154344622e-01,2.348951843872875145e-01,1.823022245809482566e-04,8.342546130153079883e-04,-3.642989194570819106e-04,2.252849051728844643e-03
2.345489800057163343e-01,2.327627515752550835e-01,2.372114264166648168e-01,-2.317431877734087742e-05,6.008750147206534708e-04,-4.464166363698415232e-04,4.088715650141239166e-03
2.356644933248143170e-01,2.338051759715927269e-01,2.368223537363854658e-01,7.783777769554903062e-04,-1.976707721300364779e-03,7.734958699664848305e-04,4.720715340226888657e-03
2.105699329464500447e-01,2.142293500032144693e-01,2.995908970293312268e-01,7.933567576351074901e-02,1.645475493326217786e-02,-2.487727179901630739e-02,1.707738786935806274e-01
2.419291946393767045e-01,2.309539354455172888e-01,2.344326518648621460e-01,1.336335999370296063e-03,-2.044182717332905172e-03,9.004338305103856861e-04,1.070998329669237137e-02
2.340885538032608792e-01,2.316834038799376050e-01,2.385661559461263459e-01,3.158294391054268795e-04,1.553602322819773798e-03,-1.933547464137171763e-04,6.652474403381347656e-03
2.463832616716294110e-01,2.291153148439559750e-01,2.292118821392420958e-01,3.077268613192169107e-03,3.757820388796506532e-03,-2.405347724779217933e-03,1.961257867515087128e-02
2.579811322282594688e-01,2.541940975956322735e-01,1.989795858532254491e-01,7.605637747487967084e-04,2.690251169420159166e-03,3.424046881652896990e-03,5.771224573254585266e-02
2.448206513331631640e-01,2.330560865182443875e-01,2.348329879528432140e-01,6.723390418191123319e-03,-2.249535402753325038e-03,1.033083484771177805e-02,2.432343550026416779e-02
2.493536624471962559e-01,2.430192070171615648e-01,2.197353214634528706e-01,6.221526476609008129e-03,-1.681455275184887133e-03,2.040027671623652339e-03,2.944222465157508850e-02
2.345238402128489441e-01,2.260974996188585273e-01,2.491886205650612474e-01,1.443389313355847997e-03,-2.164015488460539847e-03,1.497843443395669577e-03,2.089638821780681610e-02
2.528450424175796574e-01,2.188029285826292025e-01,2.412067304652770749e-01,2.818534446213487310e-03,-1.720234418271026711e-03,4.109065122167543729e-03,3.132868185639381409e-02
2.491323079525877837e-01,2.260702611564482101e-01,2.245642133084452818e-01,2.844199010936149501e-03,2.285711448782000877e-03,-3.550827409574591580e-03,2.542883530259132385e-02
2.408422053386502781e-01,2.280404609370216273e-01,2.300701602953891534e-01,9.496388748226577189e-04,2.127806331339513867e-03,-2.047014774748525529e-03,1.307209115475416183e-02
2.490320425062361731e-01,2.187634314566808125e-01,2.429545746529755135e-01,2.646330809027179574e-03,-7.142174709304801141e-04,4.025883083250168110e-03,2.898845635354518890e-02
2.396726743809350635e-01,2.331458446079249791e-01,2.296427825978887283e-01,2.713742335941352318e-03,1.265834576819508143e-03,-9.791628159103579407e-04,1.036876626312732697e-02
2.512563713990865200e-01,2.242213989461470103e-01,2.344229180149036695e-01,1.241559883799738624e-03,1.495742003916512939e-03,2.593238190464369850e-03,2.430378086864948273e-02
2.440170082045833300e-01,2.267194945846914278e-01,2.293267655457553733e-01,1.002293294205086312e-03,2.738283849551370868e-03,-9.538666854716699225e-04,1.700413227081298828e-02
2.463261948784415678e-01,2.225608542823561686e-01,2.293054290221853142e-01,1.907316489277645355e-03,3.999301197040499613e-03,-2.212775636067398563e-03,2.288185991346836090e-02
2.479701526381165588e-01,2.213664908751896143e-01,2.311918409776945460e-01,6.073168664689659532e-03,6.203673085278364058e-03,-1.018815138320111613e-02,3.286950290203094482e-02
2.463458149502222305e-01,2.193333412411767880e-01,2.349570956776813047e-01,3.040878167956373966e-03,5.212066889322170167e-03,-8.057074811750258164e-03,2.925279922783374786e-02
2.347787162255808024e-01,2.446992567256624784e-01,2.280416427463254070e-01,-2.208748956210892980e-03,1.453303385797895557e-03,1.494308558593927371e-03,1.543734315782785416e-02
2.481714602116576462e-01,2.142025989774015704e-01,2.365174628169531001e-01,-2.041250095341022065e-03,3.564395312599182367e-03,2.084770729022968842e-03,3.094317018985748291e-02
2.365885030590556271e-01,2.372275596154628519e-01,2.329131754669358234e-01,-1.330701824374730478e-03,1.187944879779041091e-03,1.102183009748149622e-03,5.427294876426458359e-03
2.278457702140592178e-01,2.681970753254895867e-01,2.149560201647947588e-01,-3.307612848551524324e-03,2.739215661428066884e-02,4.912069580394508306e-03,6.834243983030319214e-02
2.197023678982936712e-01,2.231091721814688067e-01,2.532578524122235386e-01,-3.502159001116868123e-04,2.002233332684491573e-04,1.165751135317269569e-03,3.205971047282218933e-02
2.340037994856276060e-01,2.519073260951767423e-01,2.269349138038996294e-01,-3.282972741203062789e-03,9.485532722596154431e-03,6.382786040594291485e-03,3.035692684352397919e-02
2.445995515965380118e-01,1.994416490862134239e-01,2.628174503774210469e-01,-3.685621345861297277e-02,1.391109012520171453e-02,2.321470662374032490e-02,9.729478508234024048e-02
2.246327725358356342e-01,2.491624012513198871e-01,2.294790085143866287e-01,-9.528923793643740044e-04,4.427168705289750636e-03,2.698766846641393723e-03,2.428344823420047760e-02
2.346173206204842931e-01,2.447458778808425384e-01,2.286650143756766007e-01,-2.493491008533456951e-03,8.381200941625250103e-03,4.888089774722626304e-03,2.234663814306259155e-02
2.347355750779016592e-01,2.486249078655582145e-01,2.196876683638694649e-01,-1.236455788326932832e-03,5.132286572921953595e-03,1.771488172802666372e-03,2.685852721333503723e-02
2.324214712398985638e-01,2.536008359123110290e-01,2.255178950110700853e-01,-6.986346683619433680e-03,1.662933690382044707e-02,7.985003321227437945e-03,4.254116490483283997e-02
2.286656547769777004e-01,2.509983356916063446e-01,2.293012610044028732e-01,1.100907183954150017e-03,5.358513701913517405e-03,1.471740784943140028e-03,2.410877309739589691e-02
2.303859622429841048e-01,2.496401980726640768e-01,2.291892899118738447e-01,-1.455668631866185916e-03,6.277050266676215129e-03,2.577766525751544729e-03,2.323132008314132690e-02
2.257443895233998965e-01,2.472152159585765951e-01,2.354460083575862228e-01,-5.975521183767321370e-04,5.212484166646064003e-03,6.248413511105197632e-03,2.337787859141826630e-02
2.123060432320875157e-01,2.258187901640835993e-01,2.524047564789912990e-01,-2.985763099042856600e-03,-7.974934759415617993e-04,-2.227578476910743992e-03,3.594712913036346436e-02
2.313401128738798995e-01,2.460270970050909001e-01,2.289987045362932017e-01,-3.717984398494147643e-04,1.337646442223816004e-03,7.878083981940820673e-04,1.622413098812103271e-02
2.364305159437577186e-01,2.315997351229137913e-01,2.382155124441338312e-01,-4.458796380872897028e-04,2.075997925561271287e-03,3.601611504591683546e-04,7.004317361861467361e-03
2.306379303580545215e-01,2.903331950891546720e-01,2.175957441772926049e-01,2.331409060505627504e-02,-4.227027491454848213e-02,2.423483379794831583e-02,1.151743456721305847e-01
2.252741665649744263e-01,2.049958352528246930e-01,2.539400826992169735e-01,-8.109594739949353009e-03,-4.040801940413552701e-03,-1.479186408427252478e-03,4.546523094177246094e-02
2.138253088949032821e-01,2.269086054663707053e-01,2.558898478542823707e-01,-1.915652726398829869e-03,6.207879834428819575e-04,1.836319637610312958e-03,3.758373111486434937e-02
2.213022603391108234e-01,2.682258194181875166e-01,2.172943938997154434e-01,-2.927733945479264830e-03,-2.874450963708278031e-02,-5.398997243881122760e-03,7.069547474384307861e-02
9.524002499412795308e-02,2.865978985582167682e-01,2.558980982496875112e-01,4.074017714942718138e-02,-6.527583526496427702e-02,2.468549654479675406e-02,2.264417707920074463e-01
2.355361160886290661e-01,2.029140833037024472e-01,2.546242736644499516e-01,-4.945481640056362781e-03,4.211918912160716143e-03,2.767623264565215418e-04,4.666983336210250854e-02
1.879363186803006958e-01,2.890943013208241430e-01,2.692840403526456927e-01,3.279531820689003674e-02,-2.755238274868881954e-02,2.148822315080155254e-02,1.245417594909667969e-01
3.151493744225247196e-01,1.671884266797731833e-01,2.361570218800743970e-01,2.042203633094984497e-02,5.519290276111257776e-02,-9.401114984119053608e-02,2.309733480215072632e-01
1.991965462513287932e-01,2.566174865740422084e-01,2.356504293377468251e-01,-3.660670853569513556e-04,-4.595244888608851497e-03,2.098629200428529101e-03,5.108617618680000305e-02
2.345541839322705935e-01,2.241950414277530668e-01,2.510767748464586280e-01,1.962720296475951691e-03,-2.288052619069455909e-03,2.281375035329363116e-03,2.437917329370975494e-02
1.573787846747981833e-01,2.979361783555579679e-01,2.564526934082735909e-01,8.109767287148426929e-02,-7.622727679302974957e-02,2.221595560956564699e-02,2.330008298158645630e-01
1.695336041275582462e-01,3.434659639643015683e-01,1.871923413531929592e-01,4.971399042925601225e-02,-1.018123002127828414e-01,1.511573849585710026e-02,2.582440674304962158e-01
2.487958161774870280e-01,2.025018311298288076e-01,2.578187788016242377e-01,1.075733078265412798e-02,-9.712545305245914428e-05,6.210790938730851619e-03,5.572402104735374451e-02
2.396708605841732787e-01,2.571666318218486236e-01,2.123820290649812981e-01,6.407339543511574032e-03,-1.110374383446780140e-02,6.453492554999583526e-03,4.632715880870819092e-02
2.312355212819015016e-01,2.303806451043902415e-01,2.469527633115659038e-01,4.082405652844323086e-04,-1.436324603752510767e-03,8.809346126477812398e-04,1.643824763596057892e-02
2.311887732764207337e-01,2.325637890342023006e-01,2.416028245956549081e-01,2.034176326495552823e-04,-5.057650895947071214e-04,1.038449576404421905e-03,1.000751275569200516e-02
1.654655268758130904e-01,2.696529231139193072e-01,2.433495108611533897e-01,8.638656472915437479e-03,-2.847374315976357664e-02,7.105746851291581956e-03,1.077683418989181519e-01
1.276689820264988451e-01,2.914882798502718697e-01,2.015647517295106883e-01,-6.892523663002248597e-04,-1.038476708920366837e-01,2.131111445026643778e-03,2.292593717575073242e-01
2.078477862875142690e-01,2.390800338417951310e-01,2.390407105175577085e-01,-1.372014103546650987e-02,-1.341772082218377869e-02,-8.323323396710833114e-03,4.782146215438842773e-02
1.882102934319895560e-01,2.562729401578249799e-01,2.555162138382842674e-01,2.621697321430265307e-03,-1.620638623958757258e-03,7.556621558787370019e-03,6.914766132831573486e-02
2.130864158294802357e-01,2.019688951209192562e-01,2.797492052494814363e-01,-4.493865817696642700e-02,-2.337520238355770066e-02,-1.196124162965477196e-02,1.159116700291633606e-01
2.277216430358903199e-01,2.377618689355722736e-01,2.415389191140896175e-01,6.632019561167620250e-04,-7.864559358440986444e-04,3.662486658288611509e-03,1.401467621326446533e-02
2.345568236522688477e-01,2.203813044556391376e-01,2.547610463356843047e-01,4.111104791818736420e-03,1.995515698484567392e-04,1.667127786102560452e-03,3.089858032763004303e-02
2.231386061023790113e-01,2.336675934055876536e-01,2.546858806697306354e-01,2.662124869508721188e-03,1.637288552265110143e-03,3.206076140933471793e-04,2.834679000079631805e-02
2.215115879435078095e-01,2.444868871302904867e-01,2.217408846610814110e-01,-3.723791218276811289e-03,-4.498240517670544156e-03,-3.944550607347685825e-03,2.591581828892230988e-02
2.196684705796923542e-01,2.426824816448844846e-01,2.220908141885902798e-01,-1.161945267691246288e-03,-2.285195089255566761e-03,-3.890574905193132198e-03,2.334290184080600739e-02
2.195997546990435534e-01,2.401304674977931819e-01,2.251954257509212187e-01,-1.801698270720321609e-03,-1.761253711319200974e-03,-3.871403773048872135e-03,2.004859782755374908e-02
2.407067741008143136e-01,2.191873109109581941e-01,2.181219026793600746e-01,-6.026539992560217204e-03,-5.756226036751705549e-03,-9.513225341379773561e-03,3.109684400260448456e-02
2.414891676411235755e-01,2.253104864310685462e-01,2.416477785686058921e-01,2.221916026627956779e-03,-3.186491450940763092e-03,2.436172271714717470e-03,1.809468679130077362e-02
2.276618843638276712e-01,2.288830749270169829e-01,2.183392498147996574e-01,-1.033478639516970284e-02,-5.553923935939871284e-03,-4.065881390974628896e-03,2.371378056704998016e-02
2.512467993083470352e-01,2.280449316673128224e-01,2.297347305734771250e-01,7.424926349284909468e-04,-3.850927583398076350e-04,9.411344296573970550e-04,2.251069806516170502e-02
2.291093974455588600e-01,2.371643717205664248e-01,2.158687594979326885e-01,-6.620008223661078516e-03,-4.356763409215566422e-03,-3.284273217181193482e-03,2.382492646574974060e-02
2.482905119590367027e-01,2.143150781559701734e-01,2.428412984258304930e-01,-1.696786092617993827e-03,5.472099790352989018e-03,3.502162316536001040e-03,3.367712721228599548e-02
2.234901854854382530e-01,2.344616268097593215e-01,2.213661434408607520e-01,-5.805476600527224688e-03,-5.770488669454818670e-03,-6.531917948953028935e-03,2.184472605586051941e-02
2.601067285680065955e-01,2.003662750411839832e-01,2.454901890133391051e-01,1.217034042186928601e-02,3.108416802696656995e-05,2.467298781744152458e-02,7.197214663028717041e-02
2.296835172399478153e-01,2.217332237862827127e-01,2.328666816188728339e-01,-1.619378397740035835e-02,-1.231262798761460601e-02,-1.566323040358630694e-02,4.556506872177124023e-02
2.202494771556168240e-01,2.204999222943699044e-01,2.464079964045746418e-01,-8.900766909186311800e-04,-1.073334244627592495e-03,-2.201405637076956322e-03,2.642254717648029327e-02
2.299210944200557605e-01,2.279313234704531677e-01,2.285699364548998691e-01,-6.815543439965474071e-04,-1.196788913379729551e-03,-4.463092295986606528e-04,3.063389798626303673e-03
2.482448634717589475e-01,2.143419977824702893e-01,2.442833086992315106e-01,-1.712551002594767590e-03,4.787959649217217797e-03,3.091368801773076470e-03,3.371990472078323364e-02
2.554103766651262264e-01,2.644062069891028877e-01,1.738002392641358473e-01,3.389065894251612997e-03,-9.700185175883477978e-03,-9.785963517161091248e-04,8.828873932361602783e-02
2.231756224888166995e-01,2.349439939443493386e-01,2.256567230584862194e-01,-1.297708933227437232e-03,-1.768245077929248444e-03,-2.732831405243114041e-03,1.234055217355489731e-02
2.174114220358956406e-01,2.268747269964742075e-01,2.498300335828566865e-01,-2.052964815261350620e-03,1.799468281041850522e-04,1.925343038710132255e-03,2.928472869098186493e-02
2.297161425559754722e-01,2.298119990919041400e-01,2.488416973966592616e-01,3.847625841301239094e-03,-1.504885291377913844e-03,2.539315754513560459e-03,2.084499411284923553e-02
2.376681821180983700e-01,2.202332770465801060e-01,2.442276483347322058e-01,-2.394085937423840599e-03,5.520359758648015792e-03,1.286934383711295805e-03,2.397817373275756836e-02
2.287953837428801096e-01,2.457887348546198281e-01,2.324288347292878254e-01,-5.421857269127890904e-05,1.098971967719380343e-03,1.660970214726930141e-03,1.587891578674316406e-02
2.295259134344654617e-01,2.272395989978431285e-01,2.506100765985986301e-01,3.162032671056286444e-03,-2.761585749127027116e-04,1.613930771227724010e-03,2.315194718539714813e-02
2.231872677894514156e-01,2.352711234410962970e-01,2.538927540278027029e-01,1.340978563344090956e-02,1.061945532491276236e-03,1.953884086670181798e-03,3.566663712263107300e-02
2.288279152885145939e-01,2.458128378738291264e-01,2.345102107462363195e-01,-6.150573697598292174e-04,7.170272457746820370e-04,3.169065414661712508e-03,1.603337004780769348e-02
2.283077219650695433e-01,2.295780807345654817e-01,2.535843155073307376e-01,5.608454161419409653e-03,1.211523337327511567e-03,6.255981344247544184e-04,2.661487273871898651e-02
2.157768465192756169e-01,2.344818503197228787e-01,2.591524466426062268e-01,9.237032930821962098e-03,2.219325214938895098e-03,4.913610988527820911e-03,4.198992997407913208e-02
2.265949888495111808e-01,2.270707528680148690e-01,2.438990665001893599e-01,-6.466731699997429680e-04,2.149239975865244786e-03,5.174546854569724149e-04,1.753112487494945526e-02
2.131556344852036100e-01,2.339048409103201831e-01,2.545091738861922082e-01,8.009203327561203317e-03,-1.155512093746819150e-03,3.274835773645380210e-03,3.887432068586349487e-02
2.263392041798851784e-01,2.298771193640332666e-01,2.514891994857358370e-01,2.854596013620913034e-03,3.300903845995244884e-04,1.979929036029265139e-03,2.434325218200683594e-02
2.818004279247476873e-01,1.756361629056223395e-01,2.737801318115132276e-01,-1.240657283358813541e-02,4.860440151292536037e-02,8.182191617322302768e-02,1.952360570430755615e-01
2.287794768834880421e-01,2.460227230457292802e-01,2.311220725478588811e-01,-3.808281540106459316e-05,1.015524831880638881e-03,1.138135065378381716e-03,1.641364023089408875e-02
2.247856748939245919e-01,2.337636726684503286e-01,2.345033210858925299e-01,2.731761348614376167e-02,-2.164784697816616796e-02,1.626210540578024513e-02,6.727409362792968750e-02
2.279377166606168237e-01,2.420479590156911498e-01,2.480969002100656962e-01,1.661078459158159965e-02,1.459998810521821386e-02,-2.752028873499924415e-03,4.255578666925430298e-02
2.289916357596841201e-01,2.273356774484895371e-01,2.427614036974611034e-01,-4.477149932216616980e-03,3.763576119268534532e-03,3.535392545103347925e-03,1.884876564145088196e-02
2.213829206926496984e-01,2.231154940368688389e-01,2.520975477826267186e-01,-6.858955803855358059e-04,7.933414614839849567e-04,7.422910833604995590e-04,2.996877208352088928e-02
2.526446459739723482e-01,2.201358920023649413e-01,2.208163426367708293e-01,-2.324878906703544117e-03,-2.093496429873364147e-03,-4.979384239978323565e-03,3.374770656228065491e-02
2.495339841349501764e-01,2.260160677058224155e-01,2.064237059534353713e-01,-5.304717522728992496e-03,-2.329021622998929050e-03,-6.150449347642672135e-03,4.014849662780761719e-02
2.590493264486838920e-01,1.982881087500204531e-01,1.994762960383517358e-01,-1.826289365404232604e-02,-1.793498389541010873e-02,-5.017589200250717474e-02,1.146280616521835327e-01
1.507348671587360744e-01,3.264506556557035810e-01,2.019148567460798682e-01,-2.852674576972124426e-02,-1.022677386135245614e-01,1.949801218473317700e-03,2.415183186531066895e-01
2.256119954403352779e-01,2.692244188703303287e-01,2.020860703038595274e-01,5.838622867524363887e-03,-2.153450324278416081e-02,1.140710561709103003e-02,7.324871420860290527e-02
1.778408183529143205e-01,2.912367611312286497e-01,2.509320148921193594e-01,6.208535715716717064e-03,-4.772136990080456942e-02,8.585723985393001537e-03,1.306961625814437866e-01
2.293819104927845298e-01,2.284927735693984274e-01,2.513295394550460471e-01,1.151020582693813550e-03,-4.600391418140691458e-04,7.967902247719027163e-04,2.255033329129219055e-02
2.292276806421725821e-01,2.509437139769372660e-01,2.250491860680352563e-01,1.883706633714673367e-03,4.641109399594492077e-03,-2.958981110368995695e-04,2.559909410774707794e-02
2.170677946207713316e-01,2.610151276522225672e-01,2.326436191339066595e-01,5.735527911525592666e-03,3.686804376251406890e-02,7.065390047169949755e-03,7.626050710678100586e-02
2.307382739716809239e-01,2.305787028461484534e-01,2.461333719093860839e-01,2.359311299941658537e-03,-1.191908875326133177e-03,1.917692626935690349e-03,1.647679321467876434e-02
2.056937223416840932e-01,2.771174020312509589e-01,2.398410307594728286e-01,-2.711594285722930021e-03,2.721039513828679354e-02,1.823868760945488235e-02,8.408138155937194824e-02
2.375443439157734482e-01,2.363002952227545861e-01,2.300404305875772826e-01,3.244703811112363296e-03,4.574307946180837785e-04,-7.335263864723372837e-05,8.986062370240688324e-03
2.268045855135119582e-01,2.296275328900456159e-01,2.507123543743319805e-01,9.559383421521786949e-04,-8.710316980479020630e-05,7.885842811227437334e-04,2.273081429302692413e-02
2.353603985448584623e-01,2.530713137515399058e-01,2.225227088110945661e-01,1.099944418613315504e-03,2.391078523859594632e-03,9.710812359141657475e-04,2.700852602720260620e-02
2.375699939149896744e-01,2.406022609057179573e-01,2.278352565991387524e-01,3.955917195757004123e-03,7.090163168440388828e-04,-4.734662390592877428e-04,1.351319905370473862e-02
2.442492761803981838e-01,2.570776181823292705e-01,2.097046924258320344e-01,4.956567019165527069e-03,4.192942177155034415e-03,-1.010372261788261908e-03,4.393804445862770081e-02
2.327545729554280352e-01,2.586698513694767887e-01,2.050062507832049186e-01,6.687671892706596212e-03,2.156086049210110753e-02,-6.027996753592074035e-03,6.163175776600837708e-02
2.276900941571009529e-01,2.363899817119698710e-01,2.408386364947505409e-01,1.000608039185758207e-03,-9.565301383520493587e-04,4.675308522303689429e-03,1.433545909821987152e-02
2.049212663018131486e-01,2.565996204903748801e-01,2.236733532869669971e-01,-5.913060367374884784e-04,-8.715261043069440564e-03,6.551216042498600456e-04,4.778514429926872253e-02
2.589202196946323031e-01,1.172398339557184366e-01,3.509866550448929035e-01,-1.006206185231993816e-01,2.380697827329271779e-02,3.982739046834420787e-03,2.715050578117370605e-01
2.552980609266268242e-01,1.754246678206117238e-01,2.962818731125836935e-01,-3.931451731963241797e-02,7.383950639532079439e-04,-4.590629840419105552e-04,1.263808161020278931e-01
2.405960614358063354e-01,2.561411337741184013e-01,2.103156192774528477e-01,6.889811412942289763e-03,-1.155572994843327012e-02,4.561809072710304794e-03,4.727271571755409241e-02
1.711459561578633770e-01,2.875144114077043955e-01,2.685883635420784898e-01,-1.432366000975880205e-03,-3.294010902364978566e-02,7.211655757087402294e-03,1.229420527815818787e-01
2.281747262631038942e-01,2.584210918695859505e-01,2.119027867299907164e-01,-2.372006299613811913e-03,-1.267441773548013545e-02,-3.936105622541622925e-03,4.708573222160339355e-02
2.016550046457934731e-01,2.584561549706557715e-01,2.354797420821386766e-01,3.240555279768448206e-04,-5.043997852605214445e-03,-1.299929529577449182e-03,5.030814930796623230e-02
2.005439085368120877e-01,2.563133111431026845e-01,2.498475771834999803e-01,2.398815141123439645e-03,-3.842254680396155024e-03,5.607919538875674390e-03,5.428940802812576294e-02
2.184476796668390897e-01,2.465127120683492101e-01,2.208835311897044962e-01,-6.011658241251460234e-03,-1.352233930622832869e-02,-9.135551024616944335e-03,4.040511325001716614e-02
2.044336392594763574e-01,2.675438873229079584e-01,2.166571091651675884e-01,3.849315775338402277e-04,-2.541817406239004623e-02,-6.215145473826314167e-03,7.358987629413604736e-02
1.882665161283094968e-01,2.928485329023275963e-01,1.557725450329253414e-01,2.216945140700881528e-02,-9.442259751669050682e-02,2.454377578201994217e-02,2.131198346614837646e-01
2.528177527731823582e-01,2.252094604336498940e-01,2.295562754053279975e-01,2.455528370131127469e-04,8.620229762162996863e-04,3.887530183531304889e-03,2.662429958581924438e-02
2.546426918258039018e-01,2.775285547448508860e-01,1.771772199989137264e-01,1.180268350508424310e-02,-1.834186683743867924e-02,2.103843476635440871e-02,1.051311343908309937e-01
1.631535583024258385e-01,2.295028845363917824e-01,2.642392778060198011e-01,-4.573014828611878663e-02,-1.514524863177506286e-02,-6.158678429590122919e-03,1.224305927753448486e-01
1.814032122106581379e-01,2.566048357207978414e-01,3.050682860049073186e-01,-4.159573468578007388e-02,7.816351748514822201e-03,1.373265372555072458e-02,1.326204389333724976e-01
1.875792234179951001e-01,2.394940083544224441e-01,2.664178166088677080e-01,-2.669274964463399721e-02,-7.336767322932266980e-03,-9.728515452783821800e-04,8.437779545783996582e-02
1.899972996477013731e-01,2.348015279810589662e-01,2.600564325816296929e-01,-1.123596886046416415e-02,-3.694948324451085013e-04,3.769558307938084755e-04,6.446962058544158936e-02
2.482871238969499295e-01,2.006643486903668672e-01,2.546900575733505034e-01,-4.076926362190237685e-03,5.640700364723734948e-03,2.141584449297555953e-03,5.265859141945838928e-02
2.624747140834170489e-01,1.940272398233168494e-01,2.545973721900609554e-01,1.177793389931644594e-03,2.092167264710314677e-03,4.347831257867792142e-03,6.543645262718200684e-02
2.422640182015692867e-01,2.032132628171129385e-01,2.582687690719990270e-01,-1.860223679807410449e-02,7.581245839745223355e-03,5.602787017058506215e-03,6.091666594147682190e-02
1.791846378375724635e-01,2.476565599817727170e-01,2.672642760326295330e-01,-7.194856686002175546e-03,2.743094530781878693e-03,2.127781004852144324e-03,8.128283172845840454e-02
1.728966149933546248e-01,2.545937743323831715e-01,2.678594313813748018e-01,-1.326833930657932148e-02,2.603668031101984007e-04,4.196029278400585996e-03,9.227859973907470703e-02
1.525367994806564598e-01,2.607086529446213108e-01,2.684044991594262131e-01,-2.684284751089554416e-02,-2.009349799751875085e-03,-5.429797292385077617e-04,1.215214505791664124e-01
2.390869442195794337e-01,2.128241932310118156e-01,2.468693409367461455e-01,-3.609935825549396952e-03,7.341360449542571470e-03,4.820779510547763651e-03,3.500266000628471375e-02
2.609808187627309928e-01,1.829352513380659295e-01,2.860877915672149774e-01,-3.254409411213671222e-02,1.276413750874311887e-02,1.587721641073212495e-02,1.144698262214660645e-01
1.735533046963858017e-01,2.608048573023820649e-01,2.643573747977460697e-01,-1.126704278398678663e-02,-4.503294807160014741e-03,-8.157383961624438753e-04,9.153737127780914307e-02
2.303037871317736018e-01,2.564385638057617989e-01,2.261762257449203839e-01,-7.718025790902059008e-03,4.271209377263573276e-02,1.670198943271236289e-02,8.541942387819290161e-02
2.289998193432657703e-01,2.183232508647581505e-01,2.517323716758913532e-01,-2.952002457780208717e-03,3.487797507919450368e-03,6.850973419020709625e-04,3.061876818537712097e-02
2.309887134024664057e-01,2.406142458039784993e-01,2.291284671898261849e-01,-2.139459598779414745e-03,1.922275520410775002e-03,2.655591640500841281e-03,1.264875661581754684e-02
2.283565853061016448e-01,2.424923065412026568e-01,2.321932760034160215e-01,2.002608114228040994e-03,2.159966811818012263e-03,-2.176425199105110064e-03,1.416130643337965012e-02
2.266906418563562065e-01,2.503136678284028638e-01,2.305027983632619015e-01,9.179101295065798024e-04,2.738622277525849975e-03,-5.192157987759538637e-04,2.254687994718551636e-02
2.185554948995167002e-01,2.530206598540252760e-01,2.325820515799337795e-01,4.088571702193359060e-03,6.653327628129234068e-03,-1.283153786409877524e-03,3.300080820918083191e-02
2.266716751940458241e-01,2.490010348054330080e-01,2.306182061311478626e-01,7.865874901100731271e-04,2.871318361863113566e-03,6.485513895387354200e-05,2.127566933631896973e-02
2.520780525750014878e-01,2.096594215123032678e-01,2.446077633259880757e-01,-4.016961610352929972e-03,5.810804615100472435e-03,4.095148659265283701e-03,4.169269651174545288e-02
2.187257779673573987e-01,2.243400849346835479e-01,2.535539305053164383e-01,-3.007840211264710493e-03,1.054224065667000356e-03,2.232586847466598145e-03,3.308192268013954163e-02
2.313646384202529549e-01,2.183366796709774182e-01,2.502459956159950871e-01,-2.880183304801383921e-03,3.054855128170260847e-03,7.285555364103558917e-04,2.875228784978389740e-02
2.962550094362784714e-01,1.405221574109520311e-01,2.942712100129404873e-01,-6.688946724768708892e-03,7.550740539187519515e-03,-2.340713891356854554e-03,1.557864546775817871e-01
2.753502870430507010e-01,1.226448359313090930e-01,2.712448487417043475e-01,-3.455959848528532274e-02,1.454855723112562574e-02,4.631452279021867902e-02,1.826528757810592651e-01
2.333884744843976178e-01,2.416389522030813752e-01,2.286374597899129835e-01,-3.260647650020366290e-03,1.957379320736653792e-03,2.011120409092558795e-03,1.361484266817569733e-02
2.201974861736256117e-01,2.211115973157342651e-01,2.531438135691945202e-01,-1.337559423682445998e-03,5.228679720606951679e-04,-2.077125542546625443e-04,3.259595483541488647e-02
2.148687345696464746e-01,2.403564824913075326e-01,2.406234618439866968e-01,-1.161064954368474199e-02,1.114141918023305901e-02,1.113023705833787215e-02,4.248485714197158813e-02
2.347993112731085463e-01,1.963813224925995138e-01,2.605691380161418991e-01,-6.514721656309053338e-03,1.458204850302942911e-03,-9.527694475775900194e-04,5.715310946106910706e-02
2.625214033363938437e-01,1.932719618964128250e-01,2.476411617389986664e-01,-6.076420899974078896e-04,6.600029200033445849e-03,2.247853125924599918e-02,7.506064325571060181e-02
2.776193941590310299e-01,1.794769953447552524e-01,1.762270528376924106e-01,1.981790744571042956e-02,-1.859449795735638664e-02,9.611548387745971755e-02,1.997286230325698853e-01
2.290603598453819501e-01,2.284673168777374419e-01,2.500374147328800478e-01,1.105552379771137812e-03,3.265097906358659140e-04,9.945886593946428635e-04,2.144255116581916809e-02
3.020541473567672219e-01,1.019225804491461496e-01,3.569898276625921296e-01,-1.050079966157811337e-02,5.004810990314673830e-02,4.527726725326629981e-02,2.608836293220520020e-01
2.905811583023953926e-01,1.624129563315536429e-01,2.972041128753606376e-01,2.357275694189770593e-04,1.729146016478018758e-02,2.003733626957046945e-02,1.393608152866363525e-01
2.290803431160617354e-01,2.281697152935522332e-01,2.516217784099723520e-01,7.808301040951408627e-04,7.456908067589782235e-04,5.925693373428525838e-04,2.310893870890140533e-02
2.383280038368773557e-01,2.339454980656725802e-01,2.322095251721771336e-01,1.588470875030981730e-03,4.952898752090694910e-04,-2.608504012158839935e-05,6.175400223582983017e-03
2.635946741842538632e-01,1.115286137894496432e-01,3.319501374014203754e-01,-5.518365131178199628e-02,1.663459720496839869e-03,3.476016347693487718e-02,2.257430255413055420e-01
2.762134810560851750e-01,1.538989756622900773e-01,2.557662927415046417e-01,2.240992770376654813e-02,8.356318557986661816e-05,6.185478122466961381e-02,1.608185768127441406e-01
2.286347647295293439e-01,2.338077232656598226e-01,2.398849141873219959e-01,-1.268040144680689313e-03,1.848953908682569695e-03,3.293901125504788106e-03,1.194813102483749390e-02
2.156054321897534209e-01,2.346643583965647983e-01,2.490654042335884444e-01,-2.648114843399084102e-03,3.781643273771235179e-03,7.189529785039018225e-03,3.262068703770637512e-02
2.204621720411639174e-01,2.307362343824517770e-01,2.468261961026413098e-01,-9.621147213220599195e-03,3.281738642737060813e-03,3.759186286269037419e-03,2.970110811293125153e-02
2.575673189289247600e-01,1.931144014565174538e-01,2.578270358616688851e-01,4.352516853221475093e-03,3.343437488570621778e-03,1.956970734630928289e-03,6.536699086427688599e-02
2.283389294775471368e-01,2.300471338201195703e-01,2.468881476393771646e-01,-2.643757328759925151e-03,3.004951060618912297e-03,3.822304360757173593e-03,2.017902769148349762e-02
2.439267614030684039e-01,2.268954933233417737e-01,2.269610777260994139e-01,2.161041954988988109e-04,7.702628977248372494e-04,1.198060703556468162e-04,1.705621555447578430e-02
2.221501236442774418e-01,2.312015370931814751e-01,2.468432204273484643e-01,-1.079095658778243946e-03,1.698941291052163526e-03,3.959036053561544068e-03,2.296397462487220764e-02
2.248136208363047117e-01,2.343810133701609011e-01,2.390665080414057231e-01,-2.235146746790441039e-03,2.543292461659046443e-03,4.321764282382733156e-03,1.577156968414783478e-02
2.368236288738686524e-01,2.369639495930924433e-01,2.315613560115334091e-01,-3.238099600694883951e-03,5.339725591741323503e-03,4.418761135403293829e-03,1.428355090320110321e-02
2.368579798799606839e-01,2.370037809586430511e-01,2.295958478385308477e-01,-3.177540552021230775e-03,1.652341841623693143e-03,1.324389680012896288e-03,9.877330623567104340e-03
2.516461593086438686e-01,2.491764666247943960e-01,1.978173618940538003e-01,7.548129318431993223e-03,-1.250767842730384632e-02,1.511057968898728635e-02,6.399949640035629272e-02
2.287815212838957002e-01,2.416395214505855926e-01,2.332096761156387532e-01,-1.450311137164668213e-03,2.053955709727641778e-03,3.411048758702460958e-03,1.348598115146160126e-02
2.369159358463117926e-01,2.452978374794570482e-01,2.329706893742375107e-01,-3.636137534735173031e-03,6.851228244532955522e-03,6.814456521451251088e-03,2.094475738704204559e-02
2.321066363503035412e-01,2.447222146661620634e-01,2.276555440205618452e-01,-1.440456742245576098e-03,5.951294096014077967e-03,5.112720880789541414e-03,2.064016275107860565e-02
2.360971105098501055e-01,2.420037206648173456e-01,2.265870756737836111e-01,-3.420350551850217819e-03,3.307684303767339812e-03,2.214333414741220720e-03,1.625205948948860168e-02
2.314745220775715484e-01,2.446848151963520457e-01,2.292613677165762642e-01,-1.733886150102354395e-03,1.932194478855383223e-03,1.745019142931218074e-03,1.542727462947368622e-02
2.299806288707076651e-01,2.312348461917449471e-01,2.512146295526899720e-01,1.567728300211795531e-02,5.632753270201533782e-03,-8.346165013399064851e-04,3.550251945853233337e-02
2.208574542489363801e-01,2.270802239289808344e-01,2.679006931377197476e-01,4.053345475755606303e-02,3.116165821330232899e-02,-1.484045694258781002e-02,1.022829264402389526e-01
2.599764651030544993e-01,1.734062277244952099e-01,2.641548594305462849e-01,-3.874930074377806385e-03,3.825965159021779000e-03,-5.451432447993777037e-04,8.923810720443725586e-02
2.311095027071508323e-01,2.011665567840384694e-01,2.614314929109551322e-01,2.400975958098599747e-02,5.561605102923953929e-03,8.713454332165038348e-04,6.744190305471420288e-02
2.327693260016251986e-01,1.993413435576758264e-01,2.590461888954628811e-01,2.575602256990167441e-02,2.808798446970456678e-03,2.990835347238689906e-03,6.875251233577728271e-02
2.239178837152069612e-01,2.356133816686848403e-01,2.425011330093817252e-01,6.133125685609672022e-03,4.754958992795503894e-03,-3.856257919872459541e-03,2.213748544454574585e-02
2.148827310561176596e-01,2.280302275885811025e-01,2.583305307004764018e-01,-1.301006287078818741e-02,2.413310614398104115e-03,2.405894696468577256e-03,4.507727175951004028e-02
2.347783574096506676e-01,2.175887417759105047e-01,2.427604020184640776e-01,6.026764100035168076e-03,5.496396079881535161e-03,-2.437365805500242826e-03,2.671747095882892609e-02
2.313874759024683037e-01,2.197595783491130828e-01,2.512670917284616223e-01,1.618674475830684731e-02,1.197456692916739479e-02,-9.515635585712252723e-03,4.742794483900070190e-02
2.531314422704903366e-01,1.183520835550402051e-01,2.741787134703214113e-01,-7.413603742328452040e-02,-1.725697548919701008e-02,-5.993393936764762620e-02,2.227179855108261108e-01
2.364818035792242701e-01,2.257296635111384897e-01,2.428526789605572056e-01,1.224150439322188892e-03,4.405018980686768899e-03,-1.353787120341736318e-03,1.711442507803440094e-02
2.341230570771960506e-01,2.279154154097626783e-01,2.428490644301340429e-01,2.823209119784645012e-03,2.895924139095129753e-03,-2.107443036852313812e-03,1.520659588277339935e-02
2.180665469509935062e-01,2.139090724939174404e-01,2.547943557283097182e-01,-5.571597068052412671e-02,-1.219786589020995654e-02,-2.867105475340216147e-02,1.172355413436889648e-01
2.195631489886588072e-01,2.161463529552386242e-01,2.529546790947789225e-01,-3.478614926322523126e-03,-8.131123015720886481e-04,-4.631333878389191959e-04,3.577275574207305908e-02
2.255812399310571092e-01,2.389940398676388134e-01,2.213937814887775579e-01,-2.864665902842036121e-03,-1.319504306597896800e-03,-1.503696289999210522e-03,1.703611016273498535e-02
2.315397113490206271e-01,2.364688355160917688e-01,2.359593854124999168e-01,-7.717609747244423514e-04,1.020052764510695443e-03,2.499461080607553315e-03,6.759803742170333862e-03
2.289586454159945883e-01,2.285155937587079189e-01,2.429975650098024631e-01,-1.627375991027307659e-03,1.648846714951675155e-03,2.993412814369247367e-03,1.570000685751438141e-02
3.228854998236998508e-01,9.760823172660340608e-02,3.307050476727143029e-01,-1.361649079364573439e-02,5.069386496903378198e-02,1.337141096118736779e-02,2.477393299341201782e-01
2.162415741031629146e-01,2.200015498980645301e-01,2.545111513977861284e-01,-3.641579850134759287e-03,2.496614569229268837e-04,-3.892904937850586670e-04,3.708409518003463745e-02
2.322956777856182431e-01,2.288990550429144122e-01,2.387237578993383902e-01,-1.699858918039400630e-03,2.745662052572973594e-03,1.838871416760048082e-03,1.077589485794305801e-02
2.223171410600944808e-01,2.192325905582070966e-01,2.531446327073627600e-01,-1.529794197297500505e-03,1.219094367586709329e-03,3.894802672668801137e-04,3.266301006078720093e-02
2.342122494124251053e-01,2.276945577990786007e-01,2.386339464496418095e-01,-1.142640275086312775e-03,3.561390519762816769e-03,1.293961481858877174e-03,1.174058578908443451e-02
2.254208115177525340e-01,2.122928745455812671e-01,2.571023391648233347e-01,-3.010887602492482405e-03,1.156908483921504326e-03,-2.723349939646914223e-04,4.029155150055885315e-02
2.343395826102657176e-01,2.328817520407807651e-01,2.354331577433285971e-01,-9.482978441465036382e-04,1.169821399736744282e-03,3.359948375871413500e-04,3.472370095551013947e-03
2.348001231947192680e-01,2.256895988287221377e-01,2.403970780718038269e-01,-1.839754728266151679e-03,6.195191264189111625e-03,3.174060945828256243e-03,1.791195198893547058e-02
2.059188206453300973e-01,2.406450763601236109e-01,2.447838591402655695e-01,-2.609113119884940921e-02,-2.882266159574599015e-02,-1.572341090605315281e-02,8.150412887334823608e-02
2.254638479772763937e-01,2.122428926048589848e-01,2.539609656429242524e-01,-2.911256863841302830e-03,-3.035886757712994571e-03,-7.892793245513739925e-04,3.766408562660217285e-02
2.483647294639977354e-01,1.571949244932192014e-01,2.980988162378038209e-01,-9.933864415334413278e-02,-3.795085640928106546e-02,-6.633546760965855493e-02,2.498922646045684814e-01
2.212688030691528640e-01,2.404561754732771894e-01,2.409732439398781512e-01,-2.675691786629290792e-03,2.605334451930158175e-03,5.653240481740923543e-03,2.271700836718082428e-02
2.216928497895383487e-01,2.180935423612227753e-01,2.462233079857974460e-01,-3.610115438125749334e-03,-3.072921017809870491e-03,-1.556240897787298464e-03,2.788698673248291016e-02
2.307948443814481498e-01,2.335330449577384393e-01,2.388095946705280637e-01,-2.469830134204025179e-03,3.349500808952860474e-03,3.709322098218594856e-03,1.195921562612056732e-02
2.330356463670794909e-01,2.385350806018242953e-01,2.339396253596209840e-01,-2.197723670062688445e-03,3.167418765159241926e-03,4.132703443628627481e-03,1.104150712490081787e-02
2.281725408787880771e-01,2.296342349907221081e-01,2.498182166497733836e-01,8.886172058993139491e-04,9.586033307308965915e-04,3.261971948290371477e-04,2.108263224363327026e-02
2.337535574086280210e-01,2.395835241314321074e-01,2.343718573538298988e-01,-1.040966112394536326e-03,4.547667885131235696e-03,4.973956283052057351e-03,1.304919738322496414e-02
2.391524398334086698e-01,2.320162484336496522e-01,2.327076304261700979e-01,-1.867220775701495823e-03,1.846050908180262452e-03,2.009550317802650220e-03,8.903231471776962280e-03
2.376854265404254873e-01,2.323005262683710825e-01,2.337544681759517740e-01,-2.166201395886220051e-03,3.359742312743431610e-03,3.270187303809357800e-03,1.016390789300203323e-02
2.388676071708440152e-01,2.296979870357029885e-01,2.331942733198270612e-01,-3.351200936385879351e-03,5.236440903279385509e-03,5.024348997998552384e-03,1.599784940481185913e-02
2.070987243696784663e-01,2.441293140690500851e-01,2.553945815725554014e-01,-1.588203701242178398e-02,5.239913119196912446e-03,7.417220054631995518e-03,5.403205752372741699e-02
1.679657634555730139e-01,2.278232420387211465e-01,2.858099242863877398e-01,-6.352367240782430535e-02,5.323876340941217228e-02,4.228393128174068316e-02,1.907589286565780640e-01
1.693233446095232519e-01,2.467062534059850376e-01,3.073693907335497966e-01,-6.575627619108713462e-02,5.731480701507962044e-02,2.007936240549897805e-02,1.959555745124816895e-01
1.190214533160153937e-01,2.438244131942942650e-01,2.911238709334845742e-01,-7.070640739318398427e-02,1.557062820680908677e-02,1.841128111915650567e-02,2.011431753635406494e-01
2.607561349090309899e-01,1.811253532312221692e-01,2.488442094032747021e-01,-1.718473443534041835e-03,3.336857718993609372e-03,-6.808214477612077424e-03,7.560236752033233643e-02
2.027797888499029699e-01,2.402259630540380109e-01,2.641288693259661868e-01,-2.164366485047549901e-02,8.363051298123638441e-03,5.162541532204593421e-03,6.755559891462326050e-02
2.278619090344543296e-01,2.248867970487402335e-01,2.515821745089295014e-01,4.552095935422738326e-03,7.292684885182905289e-04,5.823373708616042758e-04,2.658665738999843597e-02
2.386845323068948199e-01,2.244171923870678376e-01,2.340619564140007658e-01,3.091993661500229938e-03,5.242724386585233265e-03,-2.682423309626728956e-03,1.707920618355274200e-02
2.321955090218516815e-01,2.416053846041920083e-01,2.311578941733311021e-01,1.012102198103223463e-03,-1.629254646772923748e-04,-4.067621367584172733e-04,1.015063002705574036e-02
1.508781485220323515e-01,1.950864823840537665e-01,3.554441566679579223e-01,-9.957349849138807940e-02,-7.264245751113911423e-03,1.622420747264739435e-02,2.558334171772003174e-01
2.429103555119280222e-01,2.053396368663371052e-01,2.529919608422261379e-01,4.638338060840320291e-03,5.072579517742386961e-03,3.194268863639141104e-04,4.510002955794334412e-02
3.724240379052443095e-01,1.633083343320544112e-01,2.400724972992723805e-01,3.700681712134307189e-02,4.172034536908929975e-02,-9.839468638421994262e-02,2.682244181632995605e-01
1.670130114505398167e-01,2.748359218231665735e-01,1.946606905134193322e-01,1.700254580842310362e-02,8.649704927051561631e-02,-3.049912748162891124e-03,1.809682399034500122e-01
1.828977902466117356e-01,2.508976518745821838e-01,2.646346173293460113e-01,-4.229918340944967270e-02,1.096329975177219238e-02,-7.277233291140907962e-04,1.071290373802185059e-01
2.360586350891476504e-01,2.422452180509134800e-01,2.306650790027826303e-01,-1.684011598403131098e-03,5.184392456419369003e-04,1.246747172475280024e-03,1.071023289114236832e-02
2.302650305639829809e-01,2.463396618329210530e-01,2.301530269368234627e-01,1.953279283289781863e-03,1.912184939796106754e-03,-1.993686130791049154e-03,1.716235280036926270e-02
2.261880845116524819e-01,2.413686585473992785e-01,2.350152566232291962e-01,2.240834094867941769e-03,3.155766985336568801e-03,-3.803355264367981950e-03,1.620815880596637726e-02
2.355275711448909237e-01,2.211718151947716648e-01,2.537248929991082758e-01,3.007963822204586316e-03,2.959868921771795659e-03,-7.283239537282119308e-06,2.918720245361328125e-02
2.276005363366085110e-01,2.373388201956660726e-01,2.353011538982288098e-01,2.528983057242511351e-03,3.969565473179300849e-03,-4.404289574244724288e-03,1.427570637315511703e-02
2.332802021322123442e-01,2.390409186861248703e-01,2.328730593297526907e-01,6.666687513666635836e-04,4.780748750313615954e-04,-1.122073507753160605e-03,6.441522389650344849e-03
2.649035711525056236e-01,1.721551715975634389e-01,2.613057802510562744e-01,-1.582083435744859436e-03,3.052662314868560302e-03,-5.180351049427509534e-03,9.163784235715866089e-02
2.641088095204742747e-01,2.392360976149235374e-01,1.942276891330674826e-01,3.226797784858980757e-03,3.193167890891540888e-03,-1.042831960727927561e-02,6.443574279546737671e-02
2.541320736521522905e-01,1.998822269344243119e-01,2.493270630659160381e-01,1.473814615556431288e-03,6.121017542011427358e-03,-3.692025601451624436e-03,5.352824553847312927e-02
2.338634200615961611e-01,2.394451597427463829e-01,2.343818543963153977e-01,5.287360095695287261e-03,6.016087809110113802e-03,-3.979579941654960186e-03,1.638567820191383362e-02
2.573400100026190240e-01,1.824184495291986119e-01,2.483268087211618624e-01,-4.473402737068629675e-03,-1.135174887940303178e-03,-6.321382200416870989e-03,7.213164865970611572e-02
2.649561770181628195e-01,2.578484542563631576e-01,2.196018525934851084e-01,2.988835058448384430e-02,4.480981221689426391e-02,-1.642598146091361205e-02,1.062934845685958862e-01
2.390975212893184654e-01,2.263619979976264074e-01,2.232171709931640990e-01,-8.826592355353832372e-04,-1.192333083488354966e-03,-1.313790343051221988e-03,1.496378518640995026e-02
2.425112994626860696e-01,2.440787247855567277e-01,2.163055252295223996e-01,1.212590155079877087e-02,1.247237588397493747e-02,-9.544063604509680360e-03,4.371882230043411255e-02
2.302166520609203459e-01,2.445377376950833570e-01,2.374680835093867515e-01,6.369921234252262296e-03,9.762740410470921795e-03,-4.375002859364790497e-03,2.487792819738388062e-02
2.488083525904673243e-01,1.824137095592884283e-01,2.567768929324317773e-01,-6.397932921490131868e-03,-1.341671657549394067e-03,-3.760035096034165976e-03,7.191264629364013672e-02
2.123298194768266367e-01,2.254187868010230633e-01,2.543203943769790087e-01,-3.089514925551726209e-03,-3.185627739634939244e-04,-1.480633946182557730e-03,3.768862783908843994e-02
2.354141006311179785e-01,2.148298265005486041e-01,2.490325598116955308e-01,6.932400647127497442e-03,-4.436979578323921487e-03,5.003722873133392354e-03,3.417378291487693787e-02
2.426824522072995038e-01,1.956810545389179035e-01,2.530711354628966125e-01,1.097490490483135801e-02,9.322652017934711724e-03,-6.088736296348450094e-03,5.948645249009132385e-02
2.348066433755485183e-01,2.161607805783324898e-01,2.481343346993239440e-01,5.861604557697215091e-03,5.477395377872956370e-03,-1.936480225529698621e-03,3.127511218190193176e-02
2.214925303645219334e-01,2.188574255185717909e-01,2.500141127914796702e-01,-5.626588019371231257e-03,-3.073089895905692284e-03,-2.797254785904982905e-03,3.228564560413360596e-02
2.346931484827094183e-01,2.156596240294111622e-01,2.495854674350785063e-01,5.583068659100216304e-03,5.391003301045085676e-03,-1.725519355076564516e-03,3.251372650265693665e-02
2.474188366827705099e-01,2.355466909051626700e-01,2.018203225938206558e-01,-6.221023265166548445e-03,-4.453695715990410760e-03,-4.196946480455025601e-03,4.367233440279960632e-02
2.094780521464759127e-01,2.254938487740338338e-01,2.481768204380110643e-01,-1.598167721682717396e-02,-1.154248224888770186e-02,-1.311628924055463323e-02,5.306928232312202454e-02
2.298735539840604802e-01,2.253114913818845266e-01,2.527790822562266948e-01,3.321735397104734651e-03,1.628188354068611050e-03,3.164785345769413898e-04,2.629310451447963715e-02
2.306441420150017463e-01,2.419419884928281916e-01,2.336721958017900780e-01,-2.093561408645303870e-04,-5.593733860636352560e-05,1.700497091696254355e-03,1.055537350475788116e-02
2.283550326206466308e-01,1.775390626930174742e-01,2.544549329820280370e-01,-4.572612630153985447e-02,-2.024833385689140883e-02,-2.909001314183755349e-02,1.209589466452598572e-01
2.375911174143183757e-01,2.229321073863281544e-01,2.400701044927344707e-01,3.494955566712723734e-03,5.372498763841816911e-03,-2.199735583224564101e-03,1.987770944833755493e-02
2.420288786677411152e-01,2.379091947384692207e-01,2.454477840736690730e-01,1.777761744392957269e-02,1.428843174182278623e-02,-1.186558057438586930e-02,4.500811547040939331e-02
2.254079088005253306e-01,2.155097451872352576e-01,2.462293342492946346e-01,-1.936470435599014790e-03,-3.614289793985483827e-03,-1.284887523041360839e-03,2.816009707748889923e-02
2.295808609287251223e-01,2.304434024123161173e-01,2.455601185348121052e-01,6.053794964578048873e-03,4.265016314640060480e-03,-2.930512473533710208e-03,2.079850994050502777e-02
1.753061733117236010e-01,2.625003476937401992e-01,2.639785139751521514e-01,1.139953067196146841e-03,-1.799724762904752443e-04,3.275532425780938988e-03,8.814805746078491211e-02
2.335604277103542070e-01,2.398277469792529371e-01,2.282824911543682722e-01,-5.525807093446344180e-03,4.431135165964857417e-03,3.535615513979453381e-03,1.697717979550361633e-02
2.380846452433389437e-01,2.365707123919834898e-01,2.306881702202771556e-01,-2.607069510990654791e-03,1.667977436542935439e-03,1.728823473178111702e-03,9.138131514191627502e-03
2.386470337417883614e-01,2.350737830202643264e-01,2.207387702511275640e-01,1.035821011101705630e-02,1.121835222774907742e-02,-9.362054241537756671e-03,3.509785234928131104e-02
2.182600758084422832e-01,2.301382160849841652e-01,2.403833347171109303e-01,-8.581771437561216617e-03,-6.611092577166568715e-03,-6.624314676375125249e-03,2.917962148785591125e-02
1.896152651053128468e-01,2.573309941965685743e-01,2.562552328000105017e-01,-2.477337512878611571e-03,2.210465175595571503e-03,6.551594590378071944e-03,6.837815046310424805e-02
2.415782463228234311e-01,2.320296732100347037e-01,2.304968638110183043e-01,-2.242406332363069098e-03,1.535590860397548435e-03,1.728314904087703248e-03,1.180175319314002991e-02
2.429808078520835912e-01,2.282277456494915258e-01,2.321061792741300478e-01,-4.302368740867684900e-03,7.121495804122776434e-03,6.425200258819037218e-03,2.251675352454185486e-02
2.414633293765600652e-01,2.199599977596616851e-01,2.207143182700537776e-01,-6.008659325057054586e-03,-5.768800099090003707e-03,-7.413721090503283540e-03,2.863181382417678833e-02
2.420159371675709159e-01,2.359372616613783225e-01,2.224473422212000229e-01,-3.686085534320768589e-03,2.429762504397940323e-03,6.592911433530627106e-03,2.213145792484283447e-02
2.437998067666370949e-01,2.323204266481410374e-01,2.334023353054109906e-01,-1.833476636494847396e-03,3.479518786125740046e-03,3.457204241726640620e-03,1.424043159931898117e-02
2.346312054853141038e-01,2.275794758944293117e-01,2.402138458228192663e-01,-5.388242518377761407e-03,6.390230246160774272e-03,6.199559586001263459e-03,2.109901048243045807e-02
1.630200582597305381e-01,2.667514061226772815e-01,2.713021561475021382e-01,-4.105465201889874592e-03,2.391632419558188845e-03,6.088215622784089176e-03,1.069199740886688232e-01
2.138933442074292812e-01,2.454733782300665967e-01,2.450798819816875640e-01,7.043501022293722179e-03,5.274140362422585077e-03,-4.975022109787357108e-03,3.593830391764640808e-02
2.548659110021793128e-01,2.343985152811535466e-01,2.125236622474431791e-01,-3.115108280737110321e-03,8.454178362241108330e-03,2.144510557241410126e-02,5.448259785771369934e-02
2.544680177853050895e-01,2.248256254151146660e-01,2.121083948048445023e-01,1.300771006791600314e-03,1.181623861676215324e-03,-4.149847785170216082e-03,3.844862803816795349e-02
2.596834425966160764e-01,1.933037118693597678e-01,2.367741873603154967e-01,1.152773202936782345e-03,2.534375495838547473e-03,-2.548711489673928174e-02,7.336502522230148315e-02
2.386351454583317822e-01,2.319585135856220837e-01,2.335169987686760706e-01,5.742218523372528364e-04,2.275405377502098467e-04,-6.924387080174725312e-04,6.259695626795291901e-03
2.380083131803183982e-01,2.277777963152255447e-01,2.446751327940138443e-01,6.062105566389091801e-03,6.582262833057161630e-03,-4.579702615447194675e-03,2.281363494694232941e-02
2.443091432232186166e-01,2.154677275559697680e-01,2.476107279811802786e-01,3.041930922411088898e-03,5.368520640789646060e-03,-1.855580360989722392e-03,3.259605169296264648e-02
2.364585790675992338e-01,2.331683032319540605e-01,2.335042163092806988e-01,7.221575596770914195e-04,9.330726142689560812e-04,-2.084912155563268502e-04,3.760361578315496445e-03
2.520654704699404336e-01,2.094459618992294825e-01,2.385508570446603083e-01,3.468039191056810147e-04,4.998576302861037698e-03,-3.678153976029181066e-03,3.922990709543228149e-02
2.095027497571455843e-01,1.800427688767843037e-01,2.779877011759336880e-01,8.366639503281450563e-02,1.449453737903458675e-02,2.388330631944816061e-03,1.709480285644531250e-01
2.527253622231898644e-01,1.887899526637609737e-01,2.544828858162698770e-01,1.666764725388882474e-03,9.836907703337791423e-04,3.395979383330534340e-03,6.518457084894180298e-02
2.344159345927625815e-01,2.387468456728556732e-01,2.319616826216424066e-01,2.550592181208021642e-03,2.555569515862785371e-03,-1.551227953653774513e-03,9.040883742272853851e-03
2.550507796569734253e-01,2.478182465884093688e-01,2.047196582621798600e-01,-3.038526292607817911e-03,4.489873403664208090e-03,7.883350151490811988e-03,4.996124655008316040e-02
2.363738999524983564e-01,2.363073845564971076e-01,2.318315673104497099e-01,2.335331198614805110e-03,7.593675127976603958e-04,-9.821671581122541281e-04,6.428083870559930801e-03
2.411741122560871475e-01,2.283450137521806367e-01,2.301766176567077993e-01,1.350989951186893712e-03,2.872744813091335139e-03,-1.751023784123578991e-03,1.356003247201442719e-02
2.463920248043386385e-01,2.209439801700087969e-01,2.203839066295639193e-01,-1.899122026814928799e-03,-1.070205075707642266e-03,-9.088737336448557327e-04,2.605577930808067322e-02
2.419767863229043692e-01,2.283285934350149649e-01,2.297201955256284178e-01,3.560981094467534011e-03,3.151040728683533135e-03,-3.278489714883365495e-03,1.641009747982025146e-02
2.501645021405254909e-01,2.430746337276864233e-01,1.892346908502192115e-01,-5.912676245847278689e-03,-1.805640787645594256e-02,-2.357443515714714027e-02,7.798055559396743774e-02
1.946336801932579408e-01,2.480830062243958301e-01,2.474746397395852504e-01,-3.775296100949231647e-03,-3.984717676618795314e-03,-6.274581075302864200e-03,5.507437884807586670e-02
2.621598027729209468e-01,1.140977030201861808e-01,3.459328220551358135e-01,-4.962395454688368207e-02,5.912171949190437106e-03,3.188488631534761725e-02,2.277856916189193726e-01
2.278205397718504610e-01,2.338682139911758828e-01,2.332354427704506350e-01,1.106308894428200719e-02,1.284546986959541996e-02,-9.457741321027489725e-03,3.411288186907768250e-02
2.440311983085174385e-01,2.184680203535122600e-01,2.272556565298003151e-01,-1.423573816452451679e-03,-4.414593924246044791e-03,-1.738544424533037700e-03,2.407637611031532288e-02
2.103712533282465214e-01,2.387801715264465108e-01,2.647457255547098209e-01,3.103946384724960011e-02,1.402298020332531751e-02,-7.843632278736151903e-03,7.670576870441436768e-02
2.239085023551740106e-01,2.300233460017634124e-01,2.299331956877231353e-01,-1.158893219297230798e-03,-1.495299513915746177e-03,-4.855421964728488457e-03,1.087705884128808975e-02
2.380016821311062014e-01,2.226840167123261272e-01,2.430114186723525416e-01,1.201803872964386267e-02,1.005175570084209692e-02,-1.670118807243327341e-02,4.369974881410598755e-02
2.218825564215548551e-01,2.230955686152274742e-01,2.431419336426433320e-01,-5.362339533735131650e-04,-9.337389610199829226e-04,-2.043822558792411041e-03,2.106310799717903137e-02
2.272874929984394221e-01,2.304633667322841528e-01,2.292118205484741655e-01,-5.679863402423461580e-04,-9.228744752332758688e-04,-1.531871006614492778e-03,4.270900506526231766e-03
2.664928799658737302e-01,2.455892921515168970e-01,2.288626578308150528e-01,1.073619524642911438e-01,6.841833011748518767e-02,-4.768251376032973249e-02,2.377187907695770264e-01
2.289677947253820900e-01,2.320607185507969350e-01,2.256956491383259045e-01,-2.334969115251566210e-03,-9.083807359561554742e-04,-1.111815814073393487e-03,7.275556679815053940e-03
2.274580316091794618e-01,2.155445271777846894e-01,2.466848683598215908e-01,-1.428695048240273113e-03,-4.843911891325469385e-03,-1.394809543973049440e-03,2.868819050490856171e-02
2.258505369615979308e-01,2.252782221689594577e-01,2.356709476468234199e-01,-4.087454550841212834e-04,-2.024599787067052781e-03,-4.908449269940870063e-04,1.076612249016761780e-02
2.241408235122832604e-01,2.408334425872931672e-01,2.537968429168355189e-01,2.346327161292769206e-02,1.819902500365273151e-02,-4.685785496320344669e-03,5.808738991618156433e-02
2.185211834744086590e-01,2.227290233872273872e-01,2.464112848835599556e-01,-2.247297345329613526e-03,-1.634455237680526671e-03,-3.413508273998192184e-03,2.713536657392978668e-02
2.288176168767504237e-01,2.296371393866938893e-01,2.497479461518183619e-01,9.133979773431237861e-04,5.285984162314021247e-04,1.056443265833280283e-04,2.061484940350055695e-02
2.212975641116814995e-01,2.426823204720370275e-01,2.539268008935404164e-01,4.244295308624691093e-02,3.293423156899427662e-02,-1.581906005746849808e-02,1.011589765548706055e-01
1.999474636440422004e-01,2.432835741742636892e-01,2.397350105855554636e-01,6.775566865781600112e-02,6.969937255343836013e-02,-3.119507641238922907e-02,1.816665232181549072e-01
2.525449427817617609e-01,1.630513928109010857e-01,2.287648740141869086e-01,8.141746816704385770e-02,5.513968350987572681e-02,-6.601451183340638351e-02,2.202901244163513184e-01
2.496012505894653621e-01,2.307565226998690433e-01,2.290564713609117842e-01,2.914205653533989086e-03,-3.987773485774599269e-04,5.350051322657472554e-03,2.240256592631340027e-02
2.442574619093666743e-01,2.201831473788334603e-01,2.385767201923245651e-01,1.378188540030581694e-03,5.926054230254052847e-03,-2.034948152672246338e-03,2.446546778082847595e-02
2.248545078840162303e-01,2.414368254064660213e-01,2.422246421220931589e-01,2.531247046119307082e-03,2.442753807496428429e-03,-2.975843018094671312e-03,1.877092011272907257e-02
2.509291487625510131e-01,2.305328336674764556e-01,2.258889913836773788e-01,2.109838992224099923e-03,-6.884695448218258219e-04,3.566876131895921342e-03,2.419165708124637604e-02
2.363803333130678197e-01,2.351257110780546888e-01,2.326943559954638974e-01,1.309860060219517021e-03,7.076036241551529170e-04,-5.111222566479363318e-04,4.238991066813468933e-03
2.439743787844569911e-01,2.202056808776569341e-01,2.402185488006215452e-01,1.409381165461923375e-03,5.258131597061861846e-03,-1.857835032026153819e-03,2.427022159099578857e-02
2.495872714127084502e-01,2.290884351789344575e-01,2.294752444157393823e-01,8.559988697422253557e-04,-3.304818861377267097e-04,7.136887257437665982e-04,2.040776051580905914e-02
2.586968457787314213e-01,2.317162581627819906e-01,2.120732927657466849e-01,9.164321380829223637e-03,-2.078273115770289461e-03,2.295207298034992668e-02,5.906845256686210632e-02
2.467357250734195373e-01,2.307172733342517656e-01,2.283887364814673748e-01,9.622176865117571844e-04,-3.612229100360366181e-04,4.806517052554053074e-04,1.741190813481807709e-02
2.364578048556904843e-01,2.352720666314563891e-01,2.337219458009179296e-01,1.219271175231823696e-03,1.334262938902903463e-03,-1.492425582958812865e-03,4.704203456640243530e-03
2.396378260643800551e-01,2.428936597361508742e-01,2.294818543156367519e-01,5.947668829131341414e-03,6.472185521484121601e-03,-2.794812206213845296e-03,2.005081437528133392e-02
2.417098035175617721e-01,2.486687567896919415e-01,2.148854612516981899e-01,8.812786366113252098e-03,-1.147063053506887191e-02,1.199257729545986743e-02,4.487570747733116150e-02
2.468173106912416315e-01,2.323709761758049053e-01,2.284148826668621068e-01,1.807738783415976762e-03,-3.538468618595405494e-04,6.686944715886434121e-04,1.711780205368995667e-02
2.413267663880913905e-01,2.209739414597803320e-01,2.253960652119510466e-01,-9.133786489316730005e-04,-2.795116158378110373e-03,-6.101315404137856377e-04,1.925740204751491547e-02
2.541037737347373593e-01,2.094458433279698106e-01,2.365340715780872571e-01,-1.095000989533596717e-04,4.992435446636009355e-03,-4.133184783789063850e-03,4.055191203951835632e-02
3.492610949970510470e-01,6.907724299348885766e-02,2.937995533159521444e-01,2.861767174658396556e-02,9.023708823924534578e-03,-1.666823216465940921e-02,2.637692689895629883e-01
2.443382089042767658e-01,2.339081241507850184e-01,2.245067596752615691e-01,4.870217462133976521e-03,8.935757162686805118e-04,-3.746338880304155082e-04,1.921465247869491577e-02
2.655312956180194695e-01,1.656981761290350907e-01,2.655293747134283011e-01,-7.322047812196544325e-03,1.927264245545795215e-03,-2.419116080792230779e-03,1.007769629359245300e-01
2.685871235542942048e-01,2.594152501696441737e-01,1.426191825222150322e-01,2.738593856985176503e-03,-5.069521698212282705e-03,-2.193948905360747562e-02,1.278292089700698853e-01
2.643139136056365524e-01,2.650278121798536612e-01,1.819269694148605288e-01,4.418880582520158008e-03,4.959814320030070042e-03,-5.982818784428398963e-03,8.418250828981399536e-02
2.669727659569014477e-01,2.599200172489989358e-01,1.712950067940325893e-01,3.832280097163005481e-03,-2.707822402717619155e-03,-3.748981825805886535e-03,9.293763339519500732e-02
2.630183275603070747e-01,2.566562651730674438e-01,1.656101680368734508e-01,1.033808525601280850e-02,1.559588411743810174e-02,-1.503174238478836508e-02,1.031372472643852234e-01
2.621170289650552321e-01,2.581731733784701222e-01,1.814941580095959517e-01,9.002421703817885951e-03,8.970402737908394694e-03,-9.888656364128421000e-03,8.351963013410568237e-02
2.528883367124287740e-01,2.247386737273766866e-01,2.195753376553114811e-01,1.745595276590797967e-03,1.796643953955540975e-03,-3.762965708029950701e-03,3.202677890658378601e-02
2.526180220085562644e-01,2.129948296934706664e-01,2.170782759801873629e-01,-3.691280040758330647e-03,-3.462506145325903398e-03,-1.029893757180550679e-02,4.266052693128585815e-02
2.607483731359216961e-01,2.485066425878265650e-01,1.831237652249579351e-01,6.827446784430659353e-03,1.346838231730925275e-02,-5.237211907233637470e-03,7.740477472543716431e-02
2.619020928034644924e-01,2.433513728803665122e-01,1.949562067696605783e-01,3.383754339026066003e-03,1.764982480027955328e-03,-1.102188220776285400e-02,6.318327784538269043e-02
2.722222568807087240e-01,2.568772698045945213e-01,1.544357464883482356e-01,6.377736121778915246e-03,-9.163181971189508432e-03,-1.868496376533440237e-02,1.171452105045318604e-01
2.573207101997678214e-01,2.265390475367983769e-01,2.044287581184708324e-01,-3.934791018018780895e-03,-1.548199901585828450e-03,-6.678394496353256063e-03,4.800425469875335693e-02
2.538014454644234030e-01,2.133271966729598790e-01,2.268695135117815842e-01,-7.587477552229048754e-04,1.630391058665848570e-03,-2.526868383998760129e-03,3.608740493655204773e-02
2.541538116405896441e-01,2.265603822259911748e-01,2.060093969009607617e-01,-3.678742034043779550e-03,-2.230169829809690741e-03,-6.298992004733318557e-03,4.387897998094558716e-02
2.563566500425708550e-01,2.006492616681785912e-01,2.364702264133483611e-01,-1.739963838530880985e-03,2.240281513559143345e-03,-5.454137410066975562e-03,5.004342272877693176e-02
2.499317529049731867e-01,2.209763753942341480e-01,2.193687560631274458e-01,-1.466637401807074611e-03,-6.565762928150778183e-04,-6.170474251398544354e-04,2.994054369628429413e-02
2.546887269957671673e-01,2.190408111415999559e-01,2.157289206663432768e-01,1.811481954977898665e-04,-2.988202790914347385e-04,-5.073375961024764735e-03,3.843680769205093384e-02
2.363145419746381370e-01,2.139855714513860807e-01,2.377096481207374157e-01,-2.126703532300194561e-03,-5.762300094827739992e-03,-2.422042976618726112e-03,2.573830448091030121e-02
2.412340906481639236e-01,2.500828709141278972e-01,2.090439789617344890e-01,-6.011648962778081730e-03,-1.399355135934989523e-02,-9.104767980855065293e-03,4.841400682926177979e-02
2.468859511082453218e-01,2.155539672172506194e-01,2.272554401734528384e-01,-1.545944248115690371e-03,-5.111712002893844912e-03,-1.001471583094380594e-03,2.899232320487499237e-02
2.468686173715307630e-01,2.025142587187320486e-01,2.355973134098957034e-01,-2.951434431527108059e-03,-5.624956236671798011e-03,-3.581686140755999028e-03,4.188029095530509949e-02
2.215736151629036366e-01,2.172542486571430453e-01,2.500059674427767553e-01,-3.229047049199583724e-03,-3.040667676674544458e-03,-1.161330937154690353e-03,3.182654082775115967e-02
2.268242452956338029e-01,2.275737607273334573e-01,2.300481296164348932e-01,-1.205859443357769865e-03,-1.094162186957941835e-03,-1.726870297789327192e-03,5.043704994022846222e-03
2.288417508807000789e-01,2.288038292904636672e-01,2.277288849501222789e-01,-2.564642915380097466e-03,-2.681430888897017462e-03,-2.322042778345387130e-03,7.660009898245334625e-03
2.461878797250894868e-01,2.205426192688907661e-01,2.233137081316702577e-01,-1.051427116588710652e-03,-2.215151123199653009e-03,-5.616537628938251094e-04,2.476442046463489532e-02
2.543055807740944307e-01,2.275138336475841516e-01,2.051614225972505090e-01,-3.239652323935629172e-03,2.303551476887371642e-03,-1.012858813494589734e-02,4.659890756011009216e-02
2.498813774833144319e-01,2.197349084013177078e-01,2.171348132384505747e-01,-2.537808021523045836e-03,-1.197661859648434506e-03,-3.211530648182856548e-03,3.238086029887199402e-02
2.264986407624803577e-01,2.320913833578785446e-01,2.278882457416489815e-01,-1.209463777600441750e-03,-9.107672216303675308e-04,-2.194796945393812006e-03,6.838594097644090652e-03
2.301071035555202760e-01,2.191429045849506707e-01,2.376989595332009986e-01,-1.032449904141719780e-03,-4.819519068658335501e-03,-1.346156956708609949e-03,1.842297799885272980e-02
2.288215015573590583e-01,2.263184148908320426e-01,2.318655415444783041e-01,-1.153737771191898484e-03,-2.597910689135938568e-03,-1.218930678522082717e-03,7.200642023235559464e-03
2.572336429786526990e-01,2.189849849323526887e-01,1.966847335613434167e-01,-4.984931018239999526e-03,-6.174172331363355498e-03,-2.655126384339903667e-02,7.153344899415969849e-02
2.513333588841735189e-01,2.190284201169969969e-01,2.199585079665523357e-01,-6.576366250899923173e-04,-6.501740557456231777e-04,-8.058331876707369636e-04,3.192086145281791687e-02
2.142904926711395597e-01,2.371128641843360252e-01,2.301923924930297238e-01,-8.006180070799472082e-03,-1.148634350082415947e-02,-1.057244924918828918e-02,3.652734681963920593e-02
2.530943702922978100e-01,2.212387433499122258e-01,2.188065587143410151e-01,-4.344704547282647058e-04,2.645287498253129908e-04,-1.147519639235495539e-03,3.320996835827827454e-02
2.162449248937275414e-01,2.153481223332897043e-01,2.547113181639502066e-01,-1.165530801393587293e-02,1.354220647994364276e-03,1.410467900036416374e-03,4.397695884108543396e-02
2.256304409942066214e-01,2.346572466931359513e-01,2.228921114155628103e-01,-2.416123096393540774e-03,-1.535783281074633170e-03,-4.372801076508078463e-03,1.398760359734296799e-02
2.595867698198469631e-01,1.945677326607014312e-01,2.564634941338069796e-01,-2.881495515224502188e-02,1.369568818546027661e-02,1.063275157739018879e-02,8.617971837520599365e-02
2.322815822857192403e-01,1.845902703121150290e-01,2.889079321776794052e-01,-3.288047933954715840e-02,1.843706907010446774e-02,1.966511288381693826e-02,1.166400164365768433e-01
2.070013750909865946e-01,2.101691013793395291e-01,2.707658167210932332e-01,7.693152910601472327e-02,4.075808724611158784e-02,-1.264494278943866824e-02,1.645985394716262817e-01
2.352898605227797535e-01,2.328196361870942255e-01,2.372212898678527915e-01,3.625862769008694492e-04,5.465591664711510556e-04,-5.001257713086533670e-04,4.079761914908885956e-03
2.385448679978921238e-01,2.304447163221652883e-01,2.364694616360707435e-01,5.287586106053686168e-04,2.043666560083927126e-03,-4.928793870271454616e-04,8.197922259569168091e-03
2.489150582342306295e-01,1.971221809975958750e-01,2.506799053716968761e-01,7.780326900838494680e-03,8.488246410013023172e-03,-6.514386968125159515e-03,5.746378377079963684e-02
2.058245669813484890e-01,2.554211027988769200e-01,2.362603220909015866e-01,-1.937809798387806360e-03,-4.319423659176265841e-03,4.690068440561611209e-04,4.409695044159889221e-02
2.071733809558199968e-01,2.695523667161785486e-01,2.298404967857332337e-01,4.872752967261916555e-03,-3.865736818402674968e-02,-1.783943937687183616e-03,8.691915124654769897e-02
2.352590691692583447e-01,2.341198701328860710e-01,2.335009439231652550e-01,1.526104363142435959e-04,7.755059655531631492e-04,-1.241219959298628980e-04,2.075148513540625572e-03
2.158749131881548267e-01,2.536421066497923649e-01,2.227211866920510153e-01,-3.270736874230104865e-04,-4.419811629133272440e-03,4.410361005880666409e-04,3.569560870528221130e-02
2.223119010464053025e-01,2.493734372255219656e-01,2.229810804757758613e-01,-1.068310317111586388e-02,-2.004701801848607357e-02,-1.037496017781198814e-02,5.084899067878723145e-02
2.384938193657329397e-01,2.319182645907166274e-01,2.305695841361051768e-01,5.638574752342433074e-04,1.735149825989802663e-03,-3.902607459011355286e-04,8.022975176572799683e-03
2.491101416580759897e-01,2.132147975702385345e-01,2.385606829717818456e-01,5.403302675577902232e-03,7.312680899294560916e-03,-2.891948682799431233e-03,3.597490116953849792e-02
1.804078902613175106e-01,2.831980835470261915e-01,2.317139604348068538e-01,-4.130696575402420696e-03,-3.942094578131746102e-02,-9.213817518870967907e-03,1.135441735386848450e-01
2.378178070656112031e-01,2.304086321369319401e-01,2.346209267876628868e-01,7.023121109683064505e-04,3.302006535848008018e-03,-9.447434000652685151e-04,8.848546072840690613e-03
2.442710976303362758e-01,2.257411703427057714e-01,2.346448378272243951e-01,1.008662393116079199e-03,2.830992392016548620e-03,-1.297758250781281576e-03,1.702343858778476715e-02
2.473445945758997178e-01,2.167669114078734915e-01,2.355502613689501312e-01,-1.526334039835167133e-03,5.174100705869040355e-03,5.889375989907249566e-03,3.008014149963855743e-02
2.511417972151862021e-01,2.122405222142824399e-01,2.335355206700970299e-01,-1.231473865378683932e-03,3.984082101713339909e-03,8.206924648947200654e-03,3.731772676110267639e-02
2.442091262781191097e-01,2.271217664148926507e-01,2.267359991853970802e-01,7.309908383996924913e-04,2.039475756449542557e-03,-8.625438624407404716e-04,1.774913445115089417e-02
2.498477353882329333e-01,2.207603732912370165e-01,2.232837066899637790e-01,7.794747696782332010e-04,1.753702841493733847e-03,-1.486082314515542848e-03,2.822621539235115051e-02
2.500676549385904557e-01,2.269304199081683959e-01,2.231826236007689590e-01,2.211745867998707402e-03,5.307849081995408193e-04,-1.051704177318899891e-03,2.559160254895687103e-02
1.907856277119694410e-01,2.629813611921594796e-01,2.381410865938118626e-01,-1.358218559265926117e-03,-1.047033024667136381e-02,-3.607809221155677988e-03,6.640306860208511353e-02
2.520138734863825447e-01,2.132902640465108024e-01,2.262977356524009664e-01,-2.605386938624145647e-04,-1.798599847929680147e-03,-2.656460917512449074e-03,3.458460420370101929e-02
2.529965002715310884e-01,2.228773827834522603e-01,2.202295668291756603e-01,1.609818109912854048e-03,2.637083354378416504e-03,-1.445131797044028107e-03,3.207529336214065552e-02
1.614626536874082252e-01,2.412015995601688167e-01,2.505967706172756437e-01,-5.999906349027194635e-02,6.738247292215847339e-02,4.715136207926141909e-02,1.956689506769180298e-01
2.667505941648011247e-01,2.873716576870701256e-01,1.793977205893769744e-01,2.115937150468479716e-02,3.571558982003515681e-02,-1.403899599451681988e-03,1.226089000701904297e-01
3.168778448755930066e-01,2.748403916467977437e-01,1.512323330498184792e-01,1.443121695567765525e-02,9.771851498666887792e-02,-7.230211391255522181e-03,2.273116856813430786e-01
2.595364464965819185e-01,2.099843391762314382e-01,2.279912509229723716e-01,1.665243280453275031e-03,2.822245618740234097e-03,-1.074149345726075830e-02,4.759971797466278076e-02
2.649581347154976729e-01,2.691991461262053242e-01,1.667058924865630898e-01,8.176591030672395594e-03,1.406209556167717714e-02,-4.647331314223401844e-03,1.046268045902252197e-01
2.515944668145173035e-01,2.647069370974721725e-01,1.833959731938069049e-01,2.137316207810165125e-03,2.329711837923057957e-02,4.753267240943340188e-03,8.617989718914031982e-02
2.532073141239394864e-01,2.189755704516394563e-01,2.199833385510118200e-01,-1.645548215748022597e-05,-3.503505178974743953e-04,-5.826945531950960969e-04,3.375970944762229919e-02
2.520153355648587779e-01,2.190518957967412805e-01,2.210152918741109807e-01,-5.883265272635684363e-04,-1.503093356038708115e-03,-9.114653525442225224e-04,3.218744322657585144e-02
2.563641872015845480e-01,2.133613083961269363e-01,2.263559592564847178e-01,-1.174042384982055202e-06,6.247276762579261197e-04,-2.365573574860115828e-03,3.843513876199722290e-02
2.450504568272109662e-01,2.172318523386066458e-01,2.445867203304852577e-01,-2.722280044528256181e-03,7.549261332205807820e-03,2.290759354163023846e-03,3.114704601466655731e-02
2.519973771691082498e-01,2.159417578206487276e-01,2.199882001014082933e-01,-4.889149636539897367e-04,-1.319414942257078876e-03,-4.016701632724333122e-03,3.499751165509223938e-02
2.486517002670907972e-01,2.738111087310194369e-01,1.758323276386016265e-01,5.279545626723769307e-03,7.358312484534294817e-02,7.666263248088132920e-03,1.557918936014175415e-01
2.760411377090216112e-01,2.750751196248077957e-01,1.734374131795742846e-01,-8.701198577565562482e-04,3.263378760255254002e-02,1.232490388498195394e-02,1.186685040593147278e-01
2.461703059320046738e-01,2.155126540788083189e-01,2.249714071785638980e-01,-1.355781952919897200e-03,-3.639872931893632299e-03,-1.618471315467313312e-03,2.815129235386848450e-02
2.179731694776477768e-01,2.398445959830197705e-01,2.279539009601054822e-01,-6.273983532528224112e-03,-9.759649304385617855e-03,-7.318454034127581248e-03,3.040068410336971283e-02
2.611744901768676685e-01,1.665556163876841245e-01,2.613671236321090663e-01,-2.206126778592931107e-03,3.865176764858392015e-04,-1.897629067712209173e-03,9.485170990228652954e-02
2.752865206991936819e-01,1.436794419592272165e-01,2.739062496101848376e-01,-6.494041763808116458e-03,1.018642357527361174e-02,-1.947695334137718517e-02,1.368083953857421875e-01
2.386233273844059477e-01,2.237760716711978681e-01,2.262333344916286904e-01,-1.090845990864978184e-03,-2.287099731874501010e-03,-4.930457848768937364e-04,1.449093222618103027e-02
2.374671997352627573e-01,2.278190503581591919e-01,2.204183571228159055e-01,-5.831707949427286132e-03,-2.198946013017156597e-03,-2.807486024946593932e-03,1.895886473357677460e-02
2.672264707041870357e-01,1.857647013213358789e-01,2.718077985783539097e-01,4.025492489273611516e-03,5.433444666297976809e-03,6.781886102858228869e-03,8.547148108482360840e-02
2.567421589383427905e-01,1.634956551039949135e-01,2.875664982831346861e-01,-1.908245409039715720e-02,1.630479029104158623e-02,1.536228637917644302e-02,1.229523122310638428e-01
2.413667819610209042e-01,2.231638947478130630e-01,2.214531804363679135e-01,-1.835884609870136030e-03,-2.161457288131613224e-04,-5.369733494576787742e-04,1.940433494746685028e-02
2.373594324429822433e-01,2.498745632028583352e-01,1.973228763345911130e-01,-7.682411773843473776e-03,-6.698221485181617835e-03,-4.580907747878610985e-03,5.133447423577308655e-02
2.373005886560448918e-01,2.196593634954404073e-01,2.298581062410950115e-01,-9.547365861599823970e-04,-4.965192176170450840e-03,-1.100545471505534785e-03,1.776615902781486511e-02
2.386013060110191430e-01,2.196426974711270796e-01,2.272102331455528867e-01,-1.245924379846771041e-03,-4.303957659485186694e-03,-1.688323677406026492e-03,1.849342882633209229e-02
2.284028647007026458e-01,2.273074689601618237e-01,2.318706930578016412e-01,-4.018544055533003081e-06,-1.705711191587993246e-03,-8.634048112437752972e-04,5.290479399263858795e-03
2.319297550569913158e-01,2.240237786527710939e-01,2.298478234190040048e-01,-9.342464981014102828e-04,-3.365891875627833457e-03,-8.912900824233829919e-04,9.453493170440196991e-03
2.375884671815892690e-01,2.165327212622848441e-01,2.294521472385396554e-01,-2.640807973803659028e-03,-6.175621642736306947e-03,-4.396985425471915468e-03,2.305568940937519073e-02
2.295082648682892912e-01,2.284404000240006505e-01,2.273001213528114961e-01,-2.468911366535079914e-03,-1.918436708168763140e-03,-2.277091517184740965e-03,6.967168767005205154e-03
2.327422481449999969e-01,2.286943445811097930e-01,2.265144576119805242e-01,-4.094178904834300768e-04,-9.913181578669479597e-04,-9.831115196059173750e-04,6.025938317179679871e-03
2.234385067086510634e-01,2.287007111054014108e-01,2.352513924924009292e-01,-9.814778329701187923e-04,-2.274835447373438433e-03,-4.633082516266223520e-03,1.370708364993333817e-02
2.305895097500545166e-01,2.277901987622469870e-01,2.504719231017508152e-01,4.631515073994709342e-04,1.126050438476194557e-03,-8.406274426104431020e-05,2.152376063168048859e-02
2.415071844012326163e-01,2.235874247171704965e-01,2.217753939164776311e-01,-4.106510004074108953e-03,-3.943419547742102634e-03,-5.159152776012255505e-03,2.310768142342567444e-02
2.412934876231696835e-01,2.178976960711565825e-01,2.277358291367747312e-01,-9.431307462602865621e-04,-5.137406331950774771e-03,-1.969296171663694264e-03,2.252693288028240204e-02
2.238185366365128548e-01,2.508281141136505799e-01,2.257512508933649520e-01,-1.688300127628914382e-03,1.150488088202058015e-02,3.836905381217451533e-03,3.362817689776420593e-02
1.980064153081177447e-01,2.547977090107454989e-01,2.476631349486776157e-01,-5.615392755553992067e-03,5.806235321181853551e-03,6.828550357156449452e-03,5.662679299712181091e-02
2.446619340152558497e-01,2.148817292296369419e-01,2.484842274643025983e-01,2.618762144952582228e-03,6.510050160224540965e-03,-1.894353765566350861e-03,3.426048532128334045e-02
2.440012651603439831e-01,2.275000883031366439e-01,2.277344081795031339e-01,2.752898626850087288e-04,7.520193756302833181e-04,4.928182158849867640e-04,1.646601781249046326e-02
2.305263263473762980e-01,2.473068475089749418e-01,2.301835374288023761e-01,9.273095956264308486e-04,9.308283034927496754e-04,-3.324126320115361791e-04,1.711625233292579651e-02
1.859331897512718768e-01,2.722068691661278517e-01,2.813696404860764333e-01,-2.661188843808208124e-02,2.304508431085909581e-02,1.784825739627775645e-02,1.139784902334213257e-01
1.549304745534170746e-01,2.481479623128234613e-01,2.635417745501630882e-01,-2.879331615054291776e-02,2.555793109276471766e-03,6.147647430618905992e-03,1.139367520809173584e-01
2.337801564106788688e-01,2.394768379234397115e-01,2.322315721921724974e-01,1.284381497286858848e-03,3.845714120279109232e-04,-2.137500363810564434e-04,7.014395669102668762e-03
3.763355569560923319e-01,2.695934600392762004e-01,1.345546838273490586e-01,2.958220410799342753e-02,1.949662523476340670e-02,-9.860760345374851299e-02,2.774522006511688232e-01
2.343918321183993958e-01,2.231061432311169934e-01,2.504641818001130948e-01,1.511958883834390536e-03,1.774589445859348818e-03,-4.477889613713159590e-04,2.416571602225303650e-02
2.006233413959249701e-01,2.373171308429058712e-01,2.931075790665803593e-01,-5.253188385561660678e-02,1.317654437151386838e-02,1.341226408838722996e-02,1.258789002895355225e-01
2.670470645621582095e-01,1.795057966991562282e-01,2.646536834991437548e-01,2.685081451719654165e-04,9.726926460236585276e-03,8.314345622654388882e-03,8.916907012462615967e-02
2.931688430188351124e-01,2.643499139404830167e-01,1.484906409878175293e-01,1.362556743619667068e-02,8.790651524687673538e-03,-1.574709191064390529e-02,1.382951587438583374e-01
2.441855119736598967e-01,2.385415654007708164e-01,2.207622598170067285e-01,4.957170355375318908e-03,1.458587120750788179e-03,-1.546730610085576092e-03,2.314267680048942566e-02
2.172220804076211986e-01,2.414365422131011796e-01,2.491233883994153353e-01,-1.095276114128329419e-02,1.159107561378644978e-02,7.809043226852843689e-03,4.215984046459197998e-02
2.593150381784232184e-01,1.969582617201167118e-01,2.452374203254248097e-01,1.228530266314802706e-03,4.015887370420572790e-03,1.098137174843542840e-02,6.019463017582893372e-02
2.586929198625510518e-01,2.498891088180920927e-01,1.840445130653812211e-01,9.889276760189971965e-04,-7.483769203662523186e-04,-5.003478171715695054e-03,7.122091948986053467e-02
2.397034432828166750e-01,2.280493131707139187e-01,2.334541100530115598e-01,2.015712122601630470e-03,3.175605659737215560e-03,-9.782927832596289945e-04,1.213903818279504776e-02
2.332710579315128430e-01,2.390411330744883212e-01,2.334997717493640101e-01,2.509620117633253999e-03,2.378933259715007922e-03,-1.798224788026328395e-03,8.809072896838188171e-03
2.278329144168775577e-01,2.506824636123128336e-01,2.300455346626645303e-01,6.943811938657298843e-04,9.348115547170290571e-04,5.323076227399846719e-04,2.193988114595413208e-02
2.601501596775414038e-01,1.963281717581601693e-01,2.470897191766044387e-01,3.351009870610814623e-03,7.105061819341014495e-03,2.698188074357422972e-02,7.602287083864212036e-02
2.239580078767029192e-01,2.539766080301403828e-01,2.343274490455492798e-01,-5.706727611565380132e-04,1.865944622166558747e-03,9.344291743736078595e-04,2.667221985757350922e-02
2.630933884225646890e-01,1.931074876274074537e-01,2.562336912391803834e-01,1.157912279521056348e-03,4.516579625514801147e-03,3.521402683013380962e-03,6.758269667625427246e-02
2.304542520983861309e-01,2.504483106883564347e-01,2.266247517219827368e-01,-6.861472736308232021e-04,2.550204767016725233e-03,1.066888962702079724e-03,2.270093560218811035e-02
2.632293529922353215e-01,1.826889983508720450e-01,2.637211186915047190e-01,2.532327645912834518e-04,6.089825000829448588e-03,6.104276796783047153e-03,8.215737342834472656e-02
2.782915731800863490e-01,2.160662867857657266e-01,2.567007909739058569e-01,8.375490060875468486e-05,1.737951556407150988e-02,4.197739599630107704e-02,9.584949165582656860e-02
2.535456483407957373e-01,1.709900506748869287e-01,2.606736224165467353e-01,-2.085276564696834228e-02,4.926902279879940769e-03,2.830683709048111962e-03,9.410665929317474365e-02
3.636038471225186974e-01,2.702712636829419091e-01,1.512602355430335277e-01,4.872561003971316584e-02,3.930776469786521898e-02,-9.078468845774825824e-02,2.654536366462707520e-01
2.699569870831942664e-01,1.657260082844404792e-01,2.638590020441415884e-01,-2.466102720610110002e-02,9.970157472091449591e-03,7.404515339496697650e-03,1.120396107435226440e-01
2.689878845582076572e-01,1.766959334750128896e-01,2.733547403764847172e-01,-2.338841008353519796e-02,1.355846381402872960e-02,1.933855149714490407e-02,1.106995344161987305e-01
2.536741223449841542e-01,2.196888400062909086e-01,2.228877892935017258e-01,-2.827393642582864887e-05,8.668148648508290123e-04,-1.210124470261567456e-03,3.260621428489685059e-02
2.896529761741802877e-01,1.097313233140885524e-01,2.973605190338325377e-01,-7.935392128305868154e-02,1.703440606794654963e-02,-1.949735766795178057e-02,2.339231669902801514e-01
2.273262676134203686e-01,2.234457504565008357e-01,2.421647173048689372e-01,-8.628576857362731806e-03,-6.463062072921622186e-03,-5.270301303034184356e-03,2.692243643105030060e-02
2.695773594139836415e-01,2.880647001186196765e-01,1.757080675301501693e-01,-4.503185552665632529e-02,-8.894258882471656191e-02,-6.519330325535377391e-02,2.312035411596298218e-01
2.282997642059642895e-01,2.144433493663526757e-01,2.495785364956633612e-01,-1.235558449520021695e-02,-5.190178721401533281e-03,-8.213375579480080430e-03,4.099765419960021973e-02
2.279905288051296275e-01,2.502861235825041830e-01,2.311736759566293264e-01,8.563468269665279063e-05,8.428736667381250564e-04,1.693090325200647187e-03,2.114258147776126862e-02
2.292684098083381250e-01,2.490910108583166138e-01,2.301918728733400588e-01,1.249151910675596125e-03,7.908846017679113790e-04,-1.279510469990677594e-04,1.954711228609085083e-02
2.349407137899224840e-01,2.533033748535517549e-01,2.212366943390998431e-01,3.666438114545706416e-03,2.340968921107770048e-03,-5.997421598203452227e-04,2.888732403516769409e-02
2.299557163454167830e-01,2.526014118971260936e-01,2.295540337017089594e-01,-3.194898828541517131e-04,4.443636749124158479e-03,2.354652419949873100e-03,2.445940300822257996e-02
2.215870958264123947e-01,2.121500082249442309e-01,2.499037262820244798e-01,-5.447370746229280615e-03,-3.517177440689535015e-03,-1.668609658424984607e-03,3.595278412103652954e-02
2.344643482799385614e-01,2.482490127787293499e-01,2.236011438563321463e-01,-5.736958242952931979e-04,1.963455388508106129e-03,1.162012542366133152e-03,2.178016304969787598e-02
2.182743221717156901e-01,2.468291290526928305e-01,2.357282635885815103e-01,-1.696453462671238021e-03,6.570310411850260705e-03,6.279995046615728660e-03,2.963239699602127075e-02
3.473849827625031805e-01,1.202095666305596222e-01,2.508782286576058396e-01,3.327245437686563584e-02,5.460443033863888844e-03,5.828479520086044668e-02,2.293474078178405762e-01
2.279554183079591512e-01,2.492034528746894240e-01,2.300246807531460547e-01,2.919429281223516083e-06,7.562803654378236814e-04,6.060846497676960348e-04,2.036199904978275299e-02
2.327539687858782291e-01,2.427789955837287850e-01,2.299999526300590125e-01,-5.848222158314159234e-04,1.337598240160647618e-03,9.629854358632877059e-04,1.203621365129947662e-02
2.245610530217966028e-01,2.056437758210999667e-01,2.515268113823748708e-01,-9.372112566772857964e-03,-5.854774278491950944e-03,-1.290869308544320183e-04,4.428914934396743774e-02
2.209953308214098744e-01,2.210244295242364543e-01,2.500565597497387826e-01,-3.882317471331901172e-03,-3.574112305448052217e-03,-1.724927455044282651e-03,3.059699945151805878e-02
2.178402614168028772e-01,2.299435001264012457e-01,2.347476907723112516e-01,-4.301961763684316285e-03,-2.884644497466269577e-03,-6.723911275076293291e-03,2.106732130050659180e-02
1.786310296447868873e-01,2.519153310356676556e-01,2.260225297007499579e-01,-2.725261427594255492e-02,-4.087405849264645619e-02,-2.159376933194088674e-02,1.130599156022071838e-01
2.313058596608509876e-01,2.427073958823016131e-01,2.336926391986241247e-01,-9.628093291507630862e-04,1.010778431529431700e-03,9.394007134626652065e-04,1.081537082791328430e-02
2.334593524355390581e-01,2.464390270673316174e-01,2.290374623585396119e-01,-2.010890128188050005e-03,3.182389586369664507e-04,1.250869322704642678e-03,1.620335318148136139e-02
2.414646286044724310e-01,2.307556958049770679e-01,2.319753049759255004e-01,-4.541227274999263489e-04,2.120030953488880477e-03,8.483688634831851880e-04,1.092563197016716003e-02
2.342438042863136394e-01,2.315575331247831936e-01,2.373617968888950269e-01,-1.146002497769679773e-03,3.560961653452769399e-03,6.265820141717285546e-04,8.274830877780914307e-03
2.725658101625236251e-01,2.377539055202289031e-01,2.451319469362493453e-01,2.972595174014960179e-02,-8.269556385840195686e-03,4.512747473423122518e-02,9.987482428550720215e-02
2.269159981737245979e-01,2.404832139806929725e-01,2.381069271584093650e-01,-1.079543483965885028e-03,1.056356966517324122e-03,3.977948823472922044e-03,1.455309707671403885e-02
2.148459007438682788e-01,2.385767733739888874e-01,2.451366261650166356e-01,-2.343705279540178078e-03,1.830233379978265119e-03,5.767498422980919630e-03,2.980230376124382019e-02
2.312212835034550273e-01,2.421871487112995103e-01,2.304188312098959246e-01,-1.590348966613775675e-03,1.427877053911624870e-03,1.230188459660617410e-03,1.216297410428524017e-02
2.335471721707103043e-01,2.357842529198147241e-01,2.360789506831122153e-01,-1.430527287592335594e-03,1.766994344789799172e-03,2.493496139166551107e-03,6.317376159131526947e-03
2.340783156090990857e-01,2.341171933048042941e-01,2.351184880291402324e-01,-7.335946071345495140e-04,3.602955107264509908e-04,3.084632907921222925e-04,1.825486542657017708e-03
2.363796966221872464e-01,2.315439625172406313e-01,2.341848002464225753e-01,-4.987680982744723468e-04,1.658921293800919407e-03,1.115568923482678697e-04,5.160199943929910660e-03
2.162209912470634543e-01,2.296326463679109753e-01,2.375528214761085666e-01,-3.562208776313787861e-03,-2.416772634440450020e-03,-6.716415983325153827e-03,2.323242090642452240e-02
2.365550114151758476e-01,2.328145286867503994e-01,2.346935897681453886e-01,-1.188310705083265358e-03,9.770711353036627342e-04,7.405321764536479346e-04,4.386217333376407623e-03
2.340919770337523409e-01,2.356542437047103866e-01,2.346399350476685575e-01,-7.517187594323085581e-04,3.682730857305384071e-04,5.290837039283002689e-04,2.196994610130786896e-03
2.164562273676970960e-01,2.423375220092566784e-01,2.447388033441502408e-01,-1.140753306327895470e-04,2.421553639743548834e-03,7.301240685146724585e-03,3.025410696864128113e-02
2.100640200628713927e-01,2.290427463462965108e-01,2.468639218394847457e-01,-7.928636757857395953e-03,-2.567148894520998939e-03,-6.893344261645044206e-03,3.697194531559944153e-02
2.256513308601464929e-01,2.412223015471507692e-01,2.188462350190569505e-01,-3.814153253092525918e-03,-2.144069666067221960e-03,-1.739008682838672762e-03,2.147634141147136688e-02
2.216529840559819386e-01,2.413425093222145157e-01,2.305555474170094821e-01,-7.519383712750019738e-03,-8.993090943241154045e-03,-7.765429014727244506e-03,2.974561974406242371e-02
2.258102554228923753e-01,2.371958276889360451e-01,2.238609932753791165e-01,-4.408470600085341931e-03,-3.418278369636506588e-03,-2.681909478082931432e-03,1.644870825111865997e-02
2.137693029659444577e-01,2.393701576059616143e-01,2.238256005795610237e-01,-1.194323247306336780e-02,-1.901390834909660876e-02,-1.533038891072123489e-02,5.212153121829032898e-02
2.349601703190696833e-01,2.244384903669614240e-01,2.249360916833968715e-01,-4.536137888314081996e-03,-5.144978025924196521e-03,-4.463630417727446065e-03,1.751090399920940399e-02
3.005418090759942040e-01,3.278856861810256484e-01,1.999186802799616802e-01,5.049695878863679627e-02,9.369328035459988102e-02,-5.628092432615559165e-03,2.184130847454071045e-01
2.395536656123603003e-01,2.272762138759510386e-01,2.346042884380273030e-01,1.419651121964845631e-03,3.383774160683087045e-03,-1.023094875212326874e-03,1.256990805268287659e-02
2.441742488147010115e-01,2.340776756856322860e-01,2.242093441181943203e-01,4.859673523681632898e-03,1.051910582121790526e-03,-5.070442509098675417e-04,1.933652535080909729e-02
1.433518252249978142e-01,2.581953377232817370e-01,2.667403090783910247e-01,-4.326165110329435043e-02,5.074094276491571132e-02,2.497538692920403536e-02,1.716197431087493896e-01
2.386737902993161520e-01,2.362838619097743509e-01,2.306054806847748773e-01,4.862159806745454740e-03,4.902959217483755967e-03,-4.306997843069411067e-03,1.581822335720062256e-02
2.378255409133890608e-01,2.289570546279351970e-01,2.367232193908163640e-01,8.775097890178824465e-04,3.481804006681302882e-03,-6.828223929724267643e-04,1.049604360014200211e-02
2.260983934687803010e-01,2.488509319415564414e-01,2.347250613773764483e-01,9.196903419073170459e-04,2.357929254337836743e-03,-1.197216933004474539e-03,2.047768980264663696e-02
2.439285625298444893e-01,2.217461821120342569e-01,2.340902305392127403e-01,1.439371263461551023e-03,5.202513245806868539e-03,-2.578144704993550612e-03,2.186246588826179504e-02
2.430179899583792269e-01,2.222330910359019696e-01,2.200258469633384339e-01,-3.570299267945645574e-03,-2.350299231377727012e-03,-2.244342656173958783e-03,2.350926026701927185e-02
2.350103050181913400e-01,2.516205738271964920e-01,2.123163821909311022e-01,4.511436952763825912e-03,6.824931957230826948e-03,-5.654583603411645872e-04,3.700844198465347290e-02
2.380005356117883830e-01,2.318658965106498437e-01,2.338785916224592476e-01,4.287767839707694491e-04,2.652292819306446576e-03,5.010738653263335421e-05,7.141472771763801575e-03
2.320954415841543217e-01,2.466290092196212480e-01,2.260388517972397315e-01,3.396911349545953668e-03,2.323788009930089112e-03,-1.060248087353310529e-03,1.975145749747753143e-02
2.485447760202679490e-01,2.283446137095143380e-01,2.255398967755704032e-01,1.389469376991586333e-03,3.382546770546142247e-03,-5.188578586880300547e-03,2.436081878840923309e-02
2.087200302963781728e-01,2.584514835878460315e-01,2.438516650761368976e-01,8.921019650573192841e-05,3.727318549516371073e-03,2.579267411415448255e-03,4.496623575687408447e-02
2.466592883731038577e-01,2.285618678739739507e-01,2.357932446407278171e-01,5.655996942780862000e-03,5.208147664880085660e-03,-6.228045241320963842e-03,2.329487353563308716e-02
2.349425301103282848e-01,2.517077117739279779e-01,2.231166114857227878e-01,4.499908001970986254e-03,1.511407396335045063e-03,-7.449543431968319931e-04,2.623838372528553009e-02
2.240134251877658189e-01,2.231104565176524612e-01,2.389242640892589586e-01,1.769027312172954751e-04,-1.120456853993729608e-03,-6.157884072633592470e-04,1.554381661117076874e-02
2.498751928945119050e-01,2.276236760482059918e-01,2.192983748645179198e-01,1.998166965245937003e-03,5.121171607485549594e-04,-1.873013997305360886e-03,2.780252881348133087e-02
2.419736255490215204e-01,2.281918903484776162e-01,2.294422461459647566e-01,3.607742440209301023e-03,1.698723819113889637e-03,-1.257843749938375097e-03,1.505717262625694275e-02
2.337098334011950829e-01,2.338256706504291682e-01,2.367369203420162660e-01,1.204047778053131878e-03,1.061397375053729992e-03,-1.705771749551071191e-03,5.028307903558015823e-03
2.426439349906633902e-01,2.533639145429118500e-01,2.077401479949845531e-01,-4.405584210004310965e-04,4.119704481621802410e-03,4.929885612059057252e-04,4.194743558764457703e-02
2.420197377352222012e-01,2.339242856994698250e-01,2.282073136590088980e-01,3.864559144063011570e-03,1.565393934475881434e-03,-1.378268714449616857e-03,1.422519888728857040e-02
2.338141203391404799e-01,2.506958941851145095e-01,2.211712224290156292e-01,1.846411601338765734e-03,2.587489881956011803e-03,-1.599202350768864645e-05,2.624091319739818573e-02
2.442999373472682922e-01,2.331818058177795305e-01,2.211447502338084459e-01,5.572750257540611679e-03,1.592668639282838030e-03,-2.365565168357003280e-03,2.280125580728054047e-02
2.494405424430755081e-01,2.290782156319566554e-01,2.142491684558054388e-01,4.748819890578005048e-03,1.856036802959322440e-03,-6.603407434574335225e-03,3.384201973676681519e-02
2.292681810519275054e-01,2.504556429720833921e-01,2.285970642748667292e-01,1.596374127392365225e-04,7.821020315222103119e-04,6.630813710236670199e-04,2.160575613379478455e-02
2.442640249660270879e-01,2.583868883895978907e-01,2.072163159200280103e-01,3.492945997215364008e-03,3.912561889490958483e-03,1.564017175488362351e-03,4.674476012587547302e-02
2.574376416713322069e-01,2.103195052312736846e-01,2.432227587594884000e-01,9.645899718044434121e-05,3.316664452840829055e-03,3.269716593267397216e-03,4.263220354914665222e-02
2.534666519486036274e-01,2.217088165534573385e-01,2.344188740685627936e-01,8.827004589254007353e-05,2.754112901102531968e-03,2.300306213076949539e-03,2.837454527616500854e-02
2.493833270377071032e-01,2.261021092946187971e-01,2.239645715310422669e-01,2.755067794130354290e-03,2.026906685866865232e-03,-2.011288667422926352e-03,2.536889351904392242e-02
2.390184325403962029e-01,2.350802223029245519e-01,2.308105514709674344e-01,2.534842199369083133e-03,-6.433799367974224253e-04,8.450155343863909995e-04,8.556558750569820404e-03
2.360127171594126883e-01,2.365716513648675468e-01,2.328961125421401546e-01,-1.931247844651505507e-03,1.237525215359467192e-03,1.158764132485993158e-03,5.619552452117204666e-03
1.682860429939241065e-01,2.704119171797960686e-01,2.651605421028700449e-01,3.366940152763401553e-04,-5.665011013083867501e-03,5.606155075270094663e-03,1.005578115582466125e-01
1.757062483812164011e-01,2.632328255309910880e-01,2.639272321481531680e-01,1.787278281134780983e-04,-4.918642673037584845e-03,2.552143469113558969e-03,8.839897066354751587e-02
2.532182159300404578e-01,1.996801609823083412e-01,2.505024457584372755e-01,-6.106499467180898609e-03,6.162528911224729802e-03,9.193901232554974393e-03,5.663641542196273804e-02
1.821914882595440377e-01,2.599432700447518729e-01,2.523067936603552996e-01,5.612286263701527812e-03,-1.001947911881632958e-02,9.061425261860862543e-03,7.843402773141860962e-02
2.360328547720595693e-01,2.392475988908221718e-01,2.317624834016593083e-01,-1.328491351091275630e-03,7.815442608551314511e-04,9.172357152779093536e-04,7.207625545561313629e-03
2.445344317258945910e-01,2.343981865561783895e-01,2.221214114283152075e-01,-3.645251901828857645e-03,3.742049004332078863e-03,5.355234294390707507e-03,2.336259931325912476e-02
2.306124031779827055e-01,2.296705487406428547e-01,2.501114507888134719e-01,-6.129201997123244197e-08,1.584304201605385301e-03,-8.135682707407763427e-04,2.022327668964862823e-02
1.728475770010324819e-01,2.710166039774475344e-01,2.485970896112515705e-01,5.442159120844304631e-04,-1.282711773150550447e-02,1.380449865327419484e-03,9.186457842588424683e-02
2.415838755734553422e-01,2.310002968826483649e-01,2.320726571378717296e-01,-1.351626483756508028e-03,9.706585109952761518e-04,8.209213496460351705e-04,1.058969460427761078e-02
2.297091996374163725e-01,2.277648433431448960e-01,2.497383577173423741e-01,4.603139610990590169e-04,3.396758234930254009e-04,-8.663004328475311703e-05,2.109255455434322357e-02
2.394205485998850969e-01,2.256778502899975669e-01,2.365040736563919221e-01,-1.353553339418939747e-03,5.075706483565041449e-03,1.489811329614818035e-03,1.570766232907772064e-02
2.432760831377024091e-01,2.431401706251424821e-01,2.179276545857914138e-01,-2.733848445551884977e-03,2.703161431562880850e-03,2.222369796908934755e-03,2.642491087317466736e-02
1.777118269729871802e-01,2.580241940911616738e-01,2.659801173440629052e-01,5.275462995460600095e-03,-2.217204690741568941e-03,4.084607395439900090e-03,8.544369041919708252e-02
1.995307600174563156e-01,2.610392451852636131e-01,2.725244291634452698e-01,2.760213544953476691e-02,1.695355835832330904e-02,2.510194856610071384e-03,8.825217187404632568e-02
1.977816126457496715e-01,2.579525069124553038e-01,2.464588961749150930e-01,1.187312045436669447e-02,1.995654726202805013e-02,1.349703167760057856e-03,6.844142079353332520e-02
3.527298493135308521e-01,3.372501440717322607e-01,1.005888774811553310e-01,2.939784604598586620e-02,-6.754103183163360363e-03,-3.952683098078801915e-02,2.594769597053527832e-01
2.337625388487085398e-01,2.376872438808537158e-01,2.326899687652172199e-01,9.074166206169045207e-04,1.924149971223596879e-04,-1.970494822844372164e-04,4.843656439334154129e-03
1.850692846840840400e-01,2.749012474106806714e-01,2.664977563163490881e-01,8.068113308882855078e-03,3.715416661800296366e-02,5.330034349855573318e-03,1.086614280939102173e-01
2.674209699336612678e-01,1.736585640552280596e-01,2.179336171116762200e-01,-9.388376318442383933e-03,-8.334449727644520009e-03,-4.985713188564663140e-02,1.205418929457664490e-01
2.950505517245674003e-01,2.479045093830376523e-01,1.328420959431491355e-01,-1.777699375653576941e-02,-7.473666902961836889e-02,-7.465489482691220480e-02,2.351843565702438354e-01
1.951241405439158028e-01,2.577518449717478566e-01,2.460259702235813861e-01,-7.796800510490660592e-04,2.297767391763642572e-02,1.158821942118149319e-03,7.010801136493682861e-02
1.995558679280438619e-01,2.636990340828591628e-01,2.616114495577801513e-01,8.024702678783680399e-04,1.289970694846712465e-02,6.541179604240680324e-03,6.792863458395004272e-02
2.441967100779731947e-01,2.532616268021267714e-01,2.063767980364842602e-01,3.868082644693712595e-03,4.102475322252231368e-03,-4.162779117229116845e-04,4.417295381426811218e-02
1.765273684817614819e-01,2.625032289926982898e-01,2.624729198845060507e-01,-1.134671407423965299e-03,1.132883491814181721e-02,6.572598682829716189e-03,8.892542123794555664e-02
3.204147294242513100e-01,1.935092142190201203e-01,1.983861065334158735e-01,-3.966865270123655363e-02,-3.922703203487283574e-02,-1.107230840513662024e-01,2.482454031705856323e-01
1.921112622944840254e-01,2.393371157296524665e-01,2.522134699901836252e-01,-1.865578614923772693e-02,-1.285021195710206454e-02,-6.356006226786228668e-03,6.829988211393356323e-02
3.740437134554611687e-01,2.020776193826569478e-01,1.885766301733027006e-01,4.197877067012514146e-02,5.364809425841173679e-02,-1.020961079407850663e-01,2.779715359210968018e-01
2.558303247042313933e-01,1.972547994553371098e-01,2.173290168138572731e-01,-9.599171732363834600e-03,-8.366288016402224567e-03,-2.418624783510699497e-02,6.999677419662475586e-02
2.540518952917494300e-01,2.260777002260036250e-01,2.057779714028687978e-01,-1.946406000215525432e-03,-1.441270988142067874e-03,-4.271528347950467180e-03,4.283501207828521729e-02
1.352862980293158823e-01,2.043878873507417038e-01,3.054070807379732910e-01,-9.665277390580101491e-02,4.527855025059993911e-03,4.437568591014692289e-03,2.238444834947586060e-01
1.736173397016501918e-01,1.843718389759191334e-01,2.926270797167276894e-01,-1.043037107073674502e-01,-5.894355583539687138e-02,-2.424408994185143010e-02,2.404646277427673340e-01
2.126530247422331876e-01,2.757006497611677043e-01,2.590019952594848074e-01,8.757715290555693338e-03,4.336983642641970699e-02,8.116998069602436930e-03,9.628922492265701294e-02
2.552058705587477161e-01,2.485298328652924271e-01,1.989630581386813424e-01,6.167384723333397233e-03,1.699250331001098515e-03,-4.469851647738189854e-03,5.490951985120773315e-02
1.774536919678681435e-01,2.650307610256099622e-01,2.626221591205397110e-01,-3.331243473305769975e-02,-3.672585531068035120e-02,-1.153046650557212026e-02,1.234462708234786987e-01
2.609527459068010091e-01,2.551366948090799669e-01,1.873312588518709632e-01,5.212868654936367134e-03,-2.406737492675825856e-03,3.410966835872635949e-03,7.183012366294860840e-02
1.755883926504610282e-01,2.645842518493174977e-01,2.867410992418494842e-01,-3.316005939899235172e-02,2.180579742025874537e-03,3.762479447376421496e-03,1.172115951776504517e-01
1.311002719179126808e-01,2.642495077199664699e-01,2.572921418734951393e-01,-5.555912278465447579e-02,-5.558906430210636129e-02,-2.473936297810055973e-02,1.929190158843994141e-01
1.134741222853050124e-01,3.441291267800667963e-01,3.412194988695934628e-01,-2.126254468649131299e-02,-1.456878711184860821e-02,2.500645136513809583e-02,2.375038564205169678e-01
2.577623789907764751e-01,2.362301628810495879e-01,2.135129390834645258e-01,4.851201526295750334e-03,1.024588836787178716e-03,7.655591067652747772e-03,4.145403206348419189e-02
1.485588686339633924e-01,2.810974938343628882e-01,2.722534228434019266e-01,-1.460356048039932082e-02,-2.285859652281661825e-02,-1.813425330311707693e-03,1.367103755474090576e-01
1.840369130674438525e-01,2.523847985974901342e-01,2.641908776758563615e-01,-2.176785772698106025e-02,-1.451247602551544724e-02,-4.926003351483095212e-03,8.799936622381210327e-02
2.582354155000433082e-01,2.766306178677428451e-01,1.915351386944347811e-01,1.570552701514634289e-02,-4.261594851917766685e-02,2.194702172700322210e-02,1.168231070041656494e-01
2.539382596796800340e-01,2.758391068688549885e-01,1.432468168416186627e-01,2.271492938181634766e-02,-6.048155566873349154e-02,3.456631315730976373e-02,1.768132597208023071e-01
1.305755790699403840e-01,2.669390591733331042e-01,2.710529139569698431e-01,-1.081661513884066110e-02,4.178117361608251986e-04,6.045614725503080725e-03,1.401216387748718262e-01
1.803220425927173909e-01,2.534412504775867547e-01,2.593200358784794046e-01,-8.615294046400255937e-03,-8.108781975843432771e-03,-1.840326326516367964e-03,7.899948209524154663e-02
1.565364131494050848e-01,2.652309195471255210e-01,2.712982170240408886e-01,-1.305711415448910714e-02,-2.066487700059768326e-02,3.569117223541940290e-03,1.197563409805297852e-01
1.530194988280006996e-01,2.484280920409667748e-01,2.679394104737846671e-01,-2.902100638252597467e-02,1.051086325851474830e-04,4.328957495357594817e-03,1.180167272686958313e-01
1.768983392219212192e-01,2.656913769575559581e-01,2.574860528753404321e-01,9.297478361153034207e-03,1.300336240617582092e-03,7.593460769085661269e-03,8.752336353063583374e-02
2.529100580691306943e-01,2.686354527888227262e-01,1.620495471818684807e-01,2.769303039328342426e-05,-2.595978840316098130e-02,-1.211225820357617403e-02,1.113265156745910645e-01
2.476042184495143017e-01,1.855217306231902730e-01,2.621701437637364851e-01,-5.386210505068806872e-03,-1.987894978837485057e-03,-2.065647790834700993e-03,7.129081338644027710e-02
1.783809287645111152e-01,2.680151438339266057e-01,2.640278816411729679e-01,4.517177015525203126e-04,1.081089260262307937e-03,4.697801129997227106e-03,8.810858428478240967e-02
2.359012900046374150e-01,2.600474367302641476e-01,1.932653097995643554e-01,1.944757662080466923e-03,-2.319792823368211840e-02,1.041938115791064953e-03,7.112940400838851929e-02
1.786284277066905180e-01,2.559519450966267762e-01,2.631449138544239563e-01,-1.042417002352906234e-02,-5.668206009348448517e-04,3.230645527929659928e-03,8.333735913038253784e-02
2.504540572970513357e-01,2.216946392769477969e-01,2.366357064659102005e-01,-6.917159079842312864e-04,3.144663380442578714e-03,1.721615016326882245e-03,2.570286393165588379e-02
2.504450080229361220e-01,2.276906955780308162e-01,2.300128668139980737e-01,-9.985624937163004933e-05,4.463384084061571000e-04,8.268295238156647339e-04,2.174833975732326508e-02
1.893517810722354089e-01,2.371900187041066643e-01,2.641667751335217695e-01,-1.304534624427095522e-02,3.309132077345554768e-04,-3.583179019742984729e-03,6.968609988689422607e-02
2.333587451620231235e-01,2.371916642886490179e-01,2.332707085077040388e-01,-1.597577519154885078e-03,6.006605634708886941e-04,9.485054907115207743e-04,5.145346280187368393e-03
2.307306348578307409e-01,2.336528392723293268e-01,2.337653160205717673e-01,-2.569168331545651322e-03,4.377727692184359837e-03,2.993186641294209253e-03,1.063266117125749588e-02
2.523910668886344966e-01,2.212338132869262897e-01,2.191686657032583530e-01,-5.043922565905072965e-04,7.936412028101157200e-05,-1.112407490366294381e-03,3.230910375714302063e-02
1.809340042929516446e-01,2.548330576236224609e-01,2.639668921520572642e-01,-1.053072603386624555e-02,6.655064657812411778e-03,7.905356621042193901e-03,8.290066570043563843e-02
1.737259671423693752e-01,2.608762001001732611e-01,2.684111868290520730e-01,-1.120009640779703712e-02,-3.965770996725101623e-04,1.747475683278256961e-03,9.324470162391662598e-02
2.314113427635616227e-01,2.308867950436560290e-01,2.438740660893020662e-01,-7.865752411229678075e-04,5.323677218690651275e-03,5.814042528881537691e-03,1.871955953538417816e-02
2.422759123015972849e-01,2.109412582522871560e-01,2.535510644120811397e-01,3.910093691121977258e-03,-1.611163087793678669e-03,6.066901106605126180e-03,4.032826051115989685e-02
2.446578534588015330e-01,2.105782883152957641e-01,2.525840191350632868e-01,7.297554162721755708e-03,-2.625622429366211187e-03,3.019201508353384130e-03,4.125715047121047974e-02
2.420592250435426029e-01,2.342152679692110218e-01,2.284609851782497536e-01,-2.801636478981759781e-03,1.908538078353929669e-03,2.056564883322847467e-03,1.367257162928581238e-02
2.411366218703034359e-01,2.010512590241426145e-01,2.760449168674942722e-01,-2.581415815238099695e-02,1.458701104540585311e-02,2.300651919922821337e-02,9.192438423633575439e-02
2.349604697290336719e-01,2.063320846007887788e-01,2.697256044871094716e-01,3.180033524755924990e-02,-9.656321454377095673e-03,1.144846352604041509e-02,8.203772455453872681e-02
2.643701694246821110e-01,1.923235257398402953e-01,2.328259245253873899e-01,4.974730786984293829e-02,-1.970146846023523857e-02,7.865057558871534071e-02,1.762375384569168091e-01
2.524993004730027857e-01,2.253110071666164782e-01,2.282625866163913719e-01,-2.042519581543698198e-03,6.468556483379652583e-03,9.973685477963697629e-03,3.322848677635192871e-02
2.396656691112100390e-01,2.422500815563792542e-01,2.225613068465219224e-01,1.250039478809653742e-02,-1.173314683603971474e-02,9.169243176259112005e-03,3.843758627772331238e-02
2.338553586125777517e-01,2.158880129536014936e-01,2.544610266630218942e-01,5.148722994344853525e-03,-8.973139591457257938e-04,3.696159537458199550e-03,3.522181883454322815e-02
2.359987926076796416e-01,2.223138694874166876e-01,2.570134945334846543e-01,1.480628615466572998e-02,-2.063617602259840752e-03,8.032926927346835735e-03,4.219617322087287903e-02
2.285771331843067244e-01,2.313582895144004059e-01,2.465435046761651205e-01,6.777354425791358959e-03,-3.126718993185902129e-03,5.610163638065770834e-03,2.328318171203136444e-02
2.868278922013091092e-01,2.368787686699279083e-01,1.907358518851142715e-01,-9.327562926402306609e-03,-2.192672926918679335e-02,-5.738179320823302842e-02,1.360523700714111328e-01
2.457756106892813042e-01,2.231901393283660939e-01,2.191824831319894307e-01,-1.039253129827934609e-03,-1.075431447199052268e-03,-1.286899070679327611e-03,2.506706491112709045e-02
2.371239851357445361e-01,2.324899833835792629e-01,2.447480120042561658e-01,8.060367323989027152e-03,-4.062458219481303485e-03,7.564690232156476984e-03,2.304392307996749878e-02
2.567340833460368676e-01,2.565269120601573194e-01,1.883777721970850416e-01,4.387370101379872191e-03,2.728919715793794686e-03,-1.913897043785814725e-03,6.891693174839019775e-02
2.680986135007641380e-01,2.650860785670810515e-01,1.695980882679853918e-01,3.311093609355285610e-03,-1.800878103408978543e-03,-1.758589896758638990e-03,9.729640185832977295e-02
2.536583654508285379e-01,2.385507743559960869e-01,2.112158061104500995e-01,6.060248319952428117e-03,1.180653478451155688e-03,-3.545755939465343887e-03,3.924900293350219727e-02
2.375991200608182918e-01,2.275974318562101195e-01,2.196756280949396234e-01,-5.372689433469383588e-03,-1.353021276734599253e-03,-1.994489157514574632e-03,1.860224455595016479e-02
2.565972631324763276e-01,2.276397623894619859e-01,2.134601675347944649e-01,2.254121314983663707e-03,2.709141132723564757e-04,-2.303719757433546084e-03,3.849140182137489319e-02
2.537862993510756060e-01,2.160019354218763177e-01,2.207429594509803250e-01,-2.886108994560641168e-04,6.458342571952756803e-04,-3.953451788126704711e-03,3.632340207695960999e-02
2.478528231153937778e-01,2.264019705003555150e-01,2.136678152331673020e-01,8.578553306196501360e-03,8.606534142519960129e-03,-1.621443109020901871e-02,4.612126946449279785e-02
2.382732270396100416e-01,2.231636941134807484e-01,2.245608394915324102e-01,-2.546278859527145114e-03,-9.794401456773825249e-04,-1.446682396409991337e-03,1.541904546320438385e-02
2.516658524352873294e-01,2.426243278645850987e-01,2.191112289433636839e-01,-4.207503057016379489e-04,1.918696963141796902e-03,3.217138106576996823e-03,2.983009256422519684e-02
2.442797998726119746e-01,2.514717876373670502e-01,2.027680333950044600e-01,-5.695293938948219233e-03,2.152974543211136696e-02,1.452033699043643600e-02,6.476050615310668945e-02
2.472118558438950175e-01,2.606413632161762028e-01,1.617546254822190832e-01,-6.801971669557765540e-03,-2.863951252675496842e-02,-1.480692367492407110e-02,1.090327426791191101e-01
2.537949378661388811e-01,2.189277251810539393e-01,2.199924612940704072e-01,-1.167448086473255660e-04,9.894562268781624103e-04,-1.285066057310372883e-03,3.446250036358833313e-02
2.491533401752521470e-01,2.306622795863380593e-01,2.226028707998574108e-01,3.806112844154016170e-03,1.253619515473105260e-03,-1.766418651687473801e-03,2.476762607693672180e-02
2.494599112005429498e-01,2.641663681067284997e-01,1.895314750743971322e-01,5.643172170081661547e-03,-4.817140866055133995e-03,3.156156950654639883e-03,6.988610327243804932e-02
3.013353182487897297e-01,2.575688223177182712e-01,1.253980020839728371e-01,-1.278632505279893826e-02,-4.133429559412002061e-03,-9.534722167493307754e-02,2.301831692457199097e-01
3.297372851473540090e-01,2.920438867933655147e-01,1.866305043064077629e-01,5.571894580654460083e-02,-2.247346482956334365e-02,9.750384483674141844e-02,2.363390177488327026e-01
2.534457980737314098e-01,2.102295112443445524e-01,2.428558981479030654e-01,-3.180374626743878881e-05,5.457012215740380222e-03,3.283695635900003330e-03,4.054411500692367554e-02
2.648301994041735719e-01,2.385746325523104838e-01,1.897921544717789399e-01,-3.104817206581419239e-04,-2.203596002998770009e-03,-1.115812554672455763e-02,6.883504986763000488e-02
2.633780180028429396e-01,2.532584800481308407e-01,1.604016147053597408e-01,-1.634009401742552488e-03,-9.350550537893329711e-03,-2.435870771288337067e-02,1.082350164651870728e-01
2.595090865833901694e-01,2.585110413823644704e-01,1.726285016876288880e-01,-1.507804161686794500e-05,-4.989218990439864797e-03,-6.443044086753690371e-03,8.753135055303573608e-02
2.648173336176096182e-01,2.494269782406382807e-01,1.849745026601181674e-01,2.478540506345483551e-04,-2.619992253158584614e-03,-5.491756783171903612e-03,7.412277907133102417e-02
2.567802603539774964e-01,2.628760546863351255e-01,1.877808174527809681e-01,4.412045759486358208e-03,3.542723169859995219e-03,7.531855636715366039e-04,7.291392982006072998e-02
2.297296742934723246e-01,2.247270462357267018e-01,2.537144903510274996e-01,4.034305517843589373e-03,2.771685600438626631e-03,2.786914761033786373e-04,2.814944833517074585e-02
2.352893018967936178e-01,2.281794471714196915e-01,2.242803985635216102e-01,-2.307311540972539592e-03,-3.026820356481820786e-04,-4.265948578059987339e-04,1.050076819956302643e-02
2.561102643476778629e-01,2.699360222089745021e-01,1.631971159225920620e-01,-1.401806888046280841e-02,-2.822256957584148157e-02,-2.338828843777924354e-02,1.213618367910385132e-01
2.586153685581478734e-01,2.607665110357813565e-01,1.750533677332926918e-01,-1.020957763628639343e-03,-8.628542438795547970e-03,-4.738567402431723315e-03,8.637611567974090576e-02
2.501560302851827400e-01,2.193002739918097077e-01,2.330931027983229320e-01,2.582057592864690516e-03,-2.625666790427954450e-03,5.402979701421289568e-03,2.906874008476734161e-02
2.535237427541340849e-01,2.229970527401070046e-01,2.344376121921082634e-01,7.332068786102393862e-04,2.273402110236942292e-03,1.812285143803466815e-03,2.721201442182064056e-02
2.377559047833240624e-01,2.259018443304393609e-01,2.386237145818444205e-01,-8.735706694152848683e-04,4.323595374939760184e-03,1.950828061518597011e-03,1.487769838422536850e-02
2.488602873104944491e-01,2.286635311682869431e-01,2.305929365881408399e-01,-4.428310332478667020e-05,1.155812075693231399e-03,4.122960585183549137e-04,1.942131295800209045e-02
2.847752291153997639e-01,2.393974010013366349e-01,2.255490983968795604e-01,1.417097953815296685e-02,4.205003214326775637e-03,3.762374355377971769e-02,8.821260184049606323e-02
2.584176945055715047e-01,2.006708967023708434e-01,2.269108165827654344e-01,6.271482610004793304e-03,5.300467402370525900e-04,3.087196406154276568e-02,7.406771928071975708e-02
2.544563188616689731e-01,2.070643617627914712e-01,2.431529133913462593e-01,2.260245110139239445e-03,2.332686589191194145e-03,3.773581911292384246e-03,4.373150318861007690e-02
2.579563833817343221e-01,2.436433121713589001e-01,2.075223591959232394e-01,2.450718522392508758e-03,4.410299678578752337e-04,4.477398599519225551e-03,4.588389769196510315e-02
2.509702179260517863e-01,2.303427977991235887e-01,2.279738709384073192e-01,1.490927721722049275e-03,-1.469353426405695107e-04,8.607473922621318788e-04,2.211160585284233093e-02
2.466515545109458640e-01,2.298420845009925273e-01,2.306742946779620218e-01,-7.489403313665290735e-04,8.761514816736249572e-04,7.276938823257454118e-04,1.657818257808685303e-02
2.481787983093864669e-01,2.346002489750490527e-01,2.272043352367211777e-01,-4.056550291515854880e-04,1.461980138903872656e-03,2.012677896638157861e-03,1.893570087850093842e-02
2.504323010978599662e-01,2.246891049552739716e-01,2.315020527636517667e-01,-1.057734081259592432e-03,2.406952337854649602e-03,3.503266880448197961e-03,2.431659214198589325e-02
2.504407758138967321e-01,2.048396425744977711e-01,2.271895778534872012e-01,-4.273046145126732642e-03,-8.042131992953645628e-03,-6.277719765622334809e-03,4.389572143554687500e-02
2.574960271968197434e-01,2.003258203672405591e-01,2.347326885336745717e-01,-5.103316078805320878e-04,-1.413390795442727140e-03,-4.672929199390116542e-03,5.057173594832420349e-02
2.490654188724125140e-01,2.294409039895215774e-01,2.280854926248387093e-01,-1.657272960485833011e-03,9.870880019992706554e-04,2.051067401765965283e-03,2.091270685195922852e-02
2.691476698685447144e-01,1.911522627076886749e-01,2.112555360977798891e-01,-7.685964561440050691e-02,-6.724060327316282171e-02,-1.014370597377454580e-01,2.589865028858184814e-01
2.687698957077668815e-01,1.761489494984523896e-01,2.399086835263228856e-01,-6.729150671767143363e-03,-3.770143414129122593e-03,-3.237919513843302149e-02,1.003104150295257568e-01
2.503519881149079418e-01,1.805741752710001147e-01,2.581435204686836626e-01,-8.985686037946749583e-03,-4.868598967282596057e-03,-9.094359386432696382e-03,7.768388837575912476e-02
2.488201119639061043e-01,1.941977954904735848e-01,2.563843973282158850e-01,-3.672602509005347057e-03,6.265423043095439543e-03,1.394614664806823924e-03,6.015031412243843079e-02
2.641518821818139573e-01,2.356994972441679437e-01,1.813303985773165872e-01,-2.985609819435576431e-03,-5.142034737119247773e-03,-3.088099730371483137e-02,9.099142253398895264e-02
2.532828000676943803e-01,2.261501774541115894e-01,2.133814519198476145e-01,-1.042885923701935348e-04,-5.546476906023694708e-04,-2.664994025610328918e-03,3.560801595449447632e-02
2.518806098751270039e-01,2.212446197204517850e-01,2.228837203590159632e-01,1.061093559838795263e-03,1.287798197432799647e-03,-9.970605627007242573e-04,3.003948181867599487e-02
2.505869568929146585e-01,2.245698109098822337e-01,2.290720612018340707e-01,-3.516157983221772365e-02,-3.622425365848707529e-02,-5.043707384988472403e-02,1.259258538484573364e-01
2.527414112626212850e-01,2.151437691091119819e-01,2.151713605038642618e-01,-2.846805293944242206e-03,-5.063148947405099638e-03,-1.206680730922980206e-02,4.416547343134880066e-02
2.635112981965023193e-01,1.816949122597925348e-01,2.483596730814093267e-01,-2.166531421845301932e-03,-2.471435642885957376e-04,-5.509834398602134718e-03,7.608667016029357910e-02
2.645143691313202594e-01,2.601740391942324870e-01,1.700221607620737985e-01,2.816108075008781630e-03,-1.020217904815250631e-03,-2.652078550276798941e-03,9.265799075365066528e-02
2.629034078117500894e-01,1.590451698365956124e-01,2.815565147737466023e-01,-4.246445589799449638e-02,-7.589032371574754368e-03,-2.256243684725846646e-02,1.420612931251525879e-01
2.599309122399022787e-01,2.175490254839632653e-01,2.214494246306169811e-01,6.193594416913500433e-04,3.025170649130450224e-04,-2.596160706144078414e-02,6.057699024677276611e-02
2.565773670867795841e-01,2.347637996341455924e-01,2.004036382196197064e-01,1.540090713303730787e-03,-9.112400407278080719e-04,-6.519864383797124505e-03,5.042918398976325989e-02
2.464562325506756690e-01,2.276402757043177738e-01,2.147127319947849111e-01,-3.774930368020451912e-03,-1.333297043575765606e-03,-1.926788149494327966e-03,2.869889512658119202e-02
2.634240169787848140e-01,1.916510568921293844e-01,2.399387428518559573e-01,-2.878891614593097510e-03,-1.090822777519658655e-03,-1.108107781551514147e-02,6.643878668546676636e-02
2.578207680670812074e-01,1.927954432908647875e-01,2.401754201679312806e-01,-1.145900504644584844e-03,-3.479054903087891882e-03,-8.834586453811708873e-03,6.055292859673500061e-02
2.785550414463651148e-01,1.561057597179245637e-01,2.540451529235791539e-01,-2.897254424397772629e-02,-1.617324332931322980e-02,-5.833615078161807216e-02,1.615723073482513428e-01
3.440616925709525376e-01,1.008878406932503524e-01,3.451210349617150897e-01,-4.628317168082839161e-02,1.796730910758155900e-02,-3.965331252142100665e-02,2.674028277397155762e-01
2.410244608942608280e-01,1.836725996688516049e-01,2.608738880531877857e-01,-3.200228465286186763e-02,4.502708607194007978e-03,4.680182431348114958e-03,8.955786377191543579e-02
2.418150639157443660e-01,1.976640693955188099e-01,2.595583652641280104e-01,-2.105600940671338225e-02,3.360537774366388532e-03,1.947065186218337619e-03,6.650442630052566528e-02
2.594896430472594107e-01,2.498473705945400136e-01,1.724216944627822157e-01,-1.285175517743228227e-03,-4.428978233131955662e-03,-4.521405818728346446e-03,8.342301845550537109e-02
2.422260368093570870e-01,1.939456616692860624e-01,2.608397046438705180e-01,-8.278349052999957672e-03,6.529199428135883804e-03,5.299575337017843266e-03,6.319714337587356567e-02
2.438564268965047188e-01,1.919712474691311344e-01,2.605863395345917044e-01,-1.053352908235431415e-02,3.321784168634841269e-03,-2.151413678731583330e-04,6.485448032617568970e-02
2.671081148118120141e-01,1.612713955155997969e-01,2.956631719450247275e-01,-2.849718218739989359e-02,9.610300636066968633e-03,6.718132734294027415e-03,1.337449699640274048e-01
2.517253231818455950e-01,1.726322385041000329e-01,2.775779139803866702e-01,-2.265463781672493945e-02,6.283415178836399342e-03,2.604747190517158612e-03,1.031858995556831360e-01
2.633548046955513366e-01,2.598943596862558492e-01,1.699827542249444656e-01,2.102214925302111660e-03,-6.125685076372251910e-04,-2.556757769781732928e-03,9.187600761651992798e-02
2.286493381298044802e-01,2.307405783162214397e-01,2.410897452844096289e-01,-1.483577991768483557e-03,1.533912749956637279e-03,2.668590360906724843e-03,1.296714786440134048e-02
3.272029304536578920e-01,2.576804477523828019e-01,1.539889763617352803e-01,-8.952304962823487075e-03,-3.270772768866007929e-02,-1.002472375063812315e-01,2.374711185693740845e-01
2.775203910776198879e-01,2.791965259251709131e-01,1.852095878544506025e-01,1.519024348996485599e-02,-1.532523924202182711e-02,1.150917387673569270e-01,2.231904268264770508e-01
2.337752923054823018e-01,2.332719326262104875e-01,2.365340414709907191e-01,-3.510902525858628984e-04,1.127730493393608703e-03,5.594135164810401517e-04,3.791657043620944023e-03
2.327616552580924481e-01,2.338662119642818671e-01,2.398956307979337177e-01,-2.131697769821265433e-03,2.351936513653875727e-03,3.316766872631597262e-03,1.036647614091634750e-02
2.326369582929070368e-01,2.305440400341860208e-01,2.383633183386983934e-01,-1.652895039542449322e-03,2.087824560681377038e-03,7.774253271994330120e-04,8.499570190906524658e-03
2.558753328591932830e-01,2.104912450372428967e-01,2.251732500509055768e-01,2.170130920065696956e-03,-3.871215169824338410e-04,-1.006001700442234713e-02,4.389917105436325073e-02
2.666526926981462320e-01,2.227609522379535578e-01,1.991591407000610214e-01,9.329287772453195068e-04,-3.023750794040950792e-04,-2.073568502518061477e-02,6.937035918235778809e-02
2.509581136144114488e-01,2.812954176576147880e-01,1.859006767259805404e-01,8.362399684057168076e-03,2.074571344582442148e-02,1.074558186498861777e-02,9.473032504320144653e-02
2.596656614759385029e-01,1.937116525750972318e-01,2.388798559122461973e-01,1.294642174122513211e-03,1.881493087306261320e-03,-1.281179132246951929e-02,6.260310113430023193e-02
2.433667978215360295e-01,2.277656432839995915e-01,2.205410122265884509e-01,-5.702515643562637224e-03,-5.356677654694884036e-03,-8.188125402864081595e-03,2.816164307296276093e-02
3.459721946587640540e-01,1.603405357464833814e-01,1.945180047785415867e-01,3.777948720551911610e-02,-1.915258318420157840e-03,-9.924415879787477912e-02,2.512446641921997070e-01
2.508334496498165200e-01,2.293833841894498959e-01,2.286929571235822856e-01,2.243467442185457269e-04,6.164092102803741136e-04,9.589134588757512387e-04,2.189614437520503998e-02
2.762538378582742871e-01,2.583472735096306039e-01,1.930671090905245191e-01,1.924297309369783771e-02,9.320377236337181945e-04,2.222944755905163425e-02,9.136199951171875000e-02
2.397064317406082112e-01,2.547229392492544320e-01,2.084726710866125488e-01,5.186684792183509328e-03,-7.701489554027558804e-03,6.641964698395234207e-03,4.539885744452476501e-02
2.650238789694160935e-01,1.733221653175999466e-01,2.466228186203547890e-01,9.757977447539492588e-03,6.967391149721513695e-03,-2.880115448694528860e-02,9.990096092224121094e-02
2.564638169704535620e-01,2.441726175354357320e-01,2.063644973676351246e-01,5.271726093819826924e-03,-9.145114154294876983e-04,3.937865073021414898e-03,4.666516184806823730e-02
2.599559095295624900e-01,2.374808895126649666e-01,2.009976286719674099e-01,1.607461595241761829e-03,7.894107049963371798e-04,-2.036216280007752122e-02,6.252672523260116577e-02
2.086007654034860159e-01,2.528400992246530032e-01,2.437834012387971039e-01,-1.548215576288125377e-04,3.777179559484732281e-03,3.091837013634926145e-03,4.135252907872200012e-02
2.435865076182712752e-01,2.017909876897603094e-01,2.546609875095252051e-01,-4.341299922404629093e-03,6.907642541832865329e-03,1.572136269844092186e-03,5.039320513606071472e-02
2.953076127554418173e-01,1.834203839983343520e-01,2.444332825005886278e-01,1.122034274959427501e-02,8.511375836747612014e-03,-5.228344781673428809e-02,1.349461227655410767e-01
2.537712228074460175e-01,2.340822004668657863e-01,2.224705523433284371e-01,9.888796723375916503e-04,2.524486953709673565e-04,2.311205802753698788e-03,2.775355614721775055e-02
2.515222877117230804e-01,2.259772942026824494e-01,2.288793716992080785e-01,2.464586014974476250e-04,1.264487723980740820e-04,2.712907251598563243e-03,2.468086220324039459e-02
2.914476866145052636e-01,2.947881896868760898e-01,4.885434320723550106e-02,1.222274310053489237e-02,-2.122297299655313135e-02,-2.836131044651064512e-03,2.479851543903350830e-01
2.545217623030139875e-01,2.242762548861705896e-01,2.342490291375724509e-01,1.240539211345320940e-03,-1.225459589550026993e-05,2.591932844239331572e-03,2.715487033128738403e-02
2.493553731690767716e-01,2.258800067146170543e-01,2.341939048777045840e-01,1.623986018577609942e-03,-1.230507237850285299e-03,1.985532609619055245e-03,2.119725011289119720e-02
2.688851414722406297e-01,2.636349297240108691e-01,1.872201515369595337e-01,6.374100382876753471e-03,6.371912401186941716e-03,3.257853567714188818e-03,8.089195936918258667e-02
2.245996171478451819e-01,1.912531494153363876e-01,2.592287061959085981e-01,-4.430208283091296995e-02,-3.352002756665954653e-02,-3.873054666157371012e-02,1.312436014413833618e-01
2.628245835557745380e-01,2.631035643029493998e-01,1.824866608681771085e-01,3.618012874782822880e-03,-5.527902080756656907e-04,4.400361636030754634e-04,8.073066174983978271e-02
2.522061200061449515e-01,2.583939949699355920e-01,1.745980821515401293e-01,7.772320431582152925e-03,2.269928874051517151e-02,-7.492093118874672275e-03,9.185270965099334717e-02
2.536532942960495474e-01,2.171415124704239863e-01,2.212331010647645146e-01,-1.366126831795978400e-04,6.329163096358915485e-04,-4.265216738458693126e-03,3.544423729181289673e-02
3.508790372930390977e-01,1.240455642338464393e-01,3.446114501364773153e-01,3.013621893887363790e-02,3.243378636013873051e-02,5.941418381437138518e-02,2.579565346240997314e-01
2.740720654574144155e-01,2.709252986674565711e-01,1.900005622012715112e-01,1.867603204925213228e-02,-2.034143739129512865e-02,2.869040408766301842e-02,1.075662076473236084e-01
2.321756528237657047e-01,2.216953707051086131e-01,2.315946304863270022e-01,-1.452081579644020314e-03,-2.959654217165963962e-03,-1.586936381397013309e-03,1.201016269624233246e-02
2.707059278860249885e-01,2.937564454690132498e-01,1.487524159313060590e-01,6.646192342258325399e-03,-2.450161365108753306e-02,8.713104119300674535e-03,1.427457034587860107e-01
2.531584540308197129e-01,2.210141246325215136e-01,2.233324225179303957e-01,8.923664148992622048e-04,5.880292634453218766e-04,-1.575018466545713381e-03,3.122467920184135437e-02
2.493153382232412563e-01,2.186457720619126854e-01,2.207424192702152621e-01,-1.676103561953854728e-03,-1.730710134137056818e-03,-1.423640023339880697e-03,3.007007203996181488e-02
2.614827081548266596e-01,2.649519662034440781e-01,1.825798241316117509e-01,5.233691204591953139e-03,-8.312534550299944397e-03,7.330789582040947439e-03,8.343935757875442505e-02
2.571935501184443584e-01,2.585150081166009972e-01,1.785779643026076668e-01,-2.799733217025938449e-03,-1.075767762614634505e-02,-5.148298684071105254e-03,8.207470178604125977e-02
2.580893882899184533e-01,2.348265866917228217e-01,2.060006923213319741e-01,-8.733706861664062952e-04,-1.065542001609748004e-04,-4.122420358404288790e-03,4.578172788023948669e-02
2.080068333259900426e-01,2.361873056292008999e-01,2.405942059420963508e-01,-3.369189203799594686e-03,-6.204234321523817430e-03,-7.722527277851328614e-03,3.558359667658805847e-02
2.662062671421068782e-01,2.620142895690740770e-01,1.748446301109821133e-01,8.936056662899904621e-03,-3.095938770639088816e-02,1.544801305603092645e-02,1.086851805448532104e-01
2.890799795344496936e-01,2.670918430743751681e-01,1.665000645488337871e-01,1.106556463533742672e-02,8.451268534127153592e-03,1.369956710879623868e-02,1.181467548012733459e-01
2.490200107631521387e-01,2.877994394747487306e-01,1.969549849941381880e-01,2.480054602318666410e-02,-4.133573645134456381e-02,3.107004800890433849e-02,1.268890798091888428e-01
2.459688541939741846e-01,2.076387521547604642e-01,1.574599219872952760e-01,-4.531941933359041191e-02,-6.151450523284252014e-02,-9.043381786940037081e-02,2.189953178167343140e-01
2.531885293305894957e-01,2.215706201051440838e-01,2.191500528444806639e-01,5.240604284331439223e-05,-9.263506261096194922e-04,-2.122802911623054845e-03,3.313888981938362122e-02
2.321590011720319757e-01,2.238992883038617709e-01,2.274158760952272595e-01,-1.383888210145243873e-03,-3.073720787406966290e-03,-2.085058105618004670e-03,9.933496825397014618e-03
2.554514704081968235e-01,2.331348142386918398e-01,2.378567039220949864e-01,2.361122273532147153e-02,-1.129767365870027254e-02,3.183078533060258036e-02,7.422891259193420410e-02
2.482044393966503781e-01,2.486690048258569652e-01,1.961449396983758198e-01,-4.548716631404894038e-03,-3.733415314816012145e-03,-3.527846559464113772e-03,5.362664535641670227e-02
2.357744442195372492e-01,2.139339400265133917e-01,2.353743234448043009e-01,-3.017442135500558644e-03,-7.538351689153000718e-03,-3.384383255476136262e-03,2.646858803927898407e-02
2.388373590470323216e-01,2.575520099575775435e-01,2.054326818707827573e-01,1.284899221440304225e-02,-1.396022081151959172e-02,1.628362909192803895e-02,6.298166513442993164e-02
2.504103285223664987e-01,2.540767309836995946e-01,2.069874353359893449e-01,1.445187708438606076e-02,-3.546226813411935269e-02,2.668340124644341324e-02,9.270110726356506348e-02
1.816094431041658519e-01,2.623658994896816976e-01,2.489373890865947403e-01,-1.137732803403303542e-03,-6.417135247698764304e-03,1.515884385578835898e-03,7.584066689014434814e-02
2.280357483606406110e-01,2.422327789555019650e-01,2.105149288568206045e-01,2.489975349340276325e-02,-3.076719362742916936e-02,2.617795782776219729e-02,8.667749911546707153e-02
2.497758450011896003e-01,2.336709013810554236e-01,2.349183510484842974e-01,4.546957200698785624e-03,-2.294429267879173010e-03,1.037501932606801902e-02,2.532934956252574921e-02
2.883425262279720735e-01,1.009874307462486492e-01,2.638107319658991035e-01,-2.918477327019145320e-02,-9.420946409449140746e-03,-6.260474834539965505e-02,2.137455642223358154e-01
2.603693534922107977e-01,2.385866374130577727e-01,2.042102611698103920e-01,9.362149497942392345e-03,-1.792492481127935453e-02,3.362653961308847278e-02,8.381004631519317627e-02
1.946761873284827415e-01,2.470158016159335057e-01,2.490772595027923864e-01,-4.467197047960923435e-03,-4.721485941291834500e-03,-4.706582361938683838e-03,5.517953634262084961e-02
2.424211905766050223e-01,2.294022787999886459e-01,2.319437316339252875e-01,1.081252129864963656e-02,-7.777293830593383361e-03,1.380770932032851679e-02,3.531307727098464966e-02
2.482153255717146900e-01,2.573156474234687963e-01,1.857295682848101315e-01,-2.642299520442813274e-03,-7.047420323176265683e-03,-4.939337925067606092e-03,6.927525252103805542e-02
2.168102419175078621e-01,2.635774424271444261e-01,2.178935290816112758e-01,1.014158471334654713e-02,-2.030945821938543588e-02,4.537329460689625872e-03,6.119985133409500122e-02
2.456583820183535771e-01,2.322859809716078527e-01,2.255757267924246856e-01,3.773114626669291267e-03,-4.186228001242958165e-03,6.624774420112274770e-03,2.324922382831573486e-02
2.459541632754425888e-01,2.460572238095913578e-01,2.111153811392093571e-01,-5.572543232573370399e-03,4.257670207129289272e-03,7.927327923416108840e-03,3.941335529088973999e-02
2.250423177491166493e-01,2.442619896017963199e-01,2.342215519565083726e-01,8.195222933629371783e-04,-1.155432263270688743e-03,2.914104826081704604e-03,1.757066324353218079e-02
2.259254216315831898e-01,2.549639447627553568e-01,2.078370549687476865e-01,3.654007857614838435e-03,-8.469433939379522255e-03,4.006330818610070142e-03,4.471113532781600952e-02
2.556262593682044337e-01,2.641507479881546328e-01,1.806061825495435536e-01,5.887676563681765868e-03,-7.288057166873252758e-03,2.585586319914992895e-03,8.138540387153625488e-02
2.972658393118208231e-01,3.478195119612574882e-01,1.294461046181709651e-01,4.276098443109425939e-02,7.479543932332824441e-02,4.820900324513054808e-02,2.616179287433624268e-01
2.651842372625321520e-01,2.607148017317936217e-01,1.869783325879123270e-01,1.325544490739061481e-03,8.527745375716584350e-03,7.165807378999844261e-03,7.851170748472213745e-02
2.535251334294169046e-01,2.353168524013412310e-01,2.230241387777425199e-01,3.839867283170231467e-03,-6.156608188762175641e-04,1.968877707514120595e-03,2.763117477297782898e-02
2.534454369681345409e-01,2.307758078210130348e-01,2.396344558337038244e-01,3.279811160842342060e-02,-2.079767492841230053e-02,3.816467462927877058e-02,9.636374562978744507e-02
2.661113956427578198e-01,2.629292326718674078e-01,1.848110824558635568e-01,2.787570400991457118e-03,5.647316626355286528e-03,1.394941410588724715e-03,8.053559809923171997e-02
2.889254351980887758e-01,2.827590927294775791e-01,1.006429542733657534e-01,-2.553783601123893812e-02,-6.747801763418828647e-02,-4.903410381925213390e-02,2.390747219324111938e-01
2.471520871543740339e-01,2.339322684542532726e-01,2.267269892224043626e-01,3.789301544554917779e-03,-9.765850955715433841e-04,3.341138381012122901e-03,2.003395371139049530e-02
2.664783276658052591e-01,2.669482879057288871e-01,1.792574266374041547e-01,8.672235903808687973e-03,6.019417887614540025e-03,1.328004580275325870e-03,8.937735110521316528e-02
3.062482096462715297e-01,2.950838441855495597e-01,8.305658237658494758e-02,7.497350327799755070e-03,-5.214600206386679065e-02,4.325132274755390249e-02,2.477612346410751343e-01
2.273770794318405175e-01,2.212817245133587019e-01,2.374386262867794195e-01,-2.213246525944160062e-03,-5.939950724986615277e-03,-2.123563175655326409e-03,1.826991327106952667e-02
2.268199819401462980e-01,2.298358107418788099e-01,2.279803310128682980e-01,-9.811844587099170182e-04,-1.317160954192282424e-03,-1.521511161404095949e-03,4.688295535743236542e-03
2.300683735070943314e-01,2.293769901298064462e-01,2.267166190050281527e-01,-1.321394914883808726e-03,-2.630749092041932387e-04,-2.127251673789827785e-04,3.869955660775303841e-03
2.286591727782297523e-01,2.283534184902139552e-01,2.282687104116527255e-01,-1.034840433922277212e-03,-2.957869738082185554e-04,-4.423230876076550714e-04,2.046622568741440773e-03
2.297493120495677776e-01,2.234317905278981331e-01,2.335649898547111913e-01,-1.658561747958309240e-03,-4.331431223842958228e-03,-1.773687403113440985e-03,1.235112827271223068e-02
2.483879599399262672e-01,2.584956270015684177e-01,1.857612543225393431e-01,-1.971966577773211562e-03,-7.008520079241807414e-03,-4.682681515133291228e-03,6.987192481756210327e-02
2.444395916913370548e-01,1.875263288616078605e-01,2.709477139747157870e-01,2.372223134186282612e-02,1.365747646436589642e-02,-2.066080780173417536e-02,9.475696831941604614e-02
2.470880419238394854e-01,2.360524076316672659e-01,2.076817246016316731e-01,-5.059828561735511994e-03,-2.752332284727630925e-03,-3.350667613478281511e-03,3.705377131700515747e-02
2.301904941143764760e-01,2.277410379837245535e-01,2.288353924307583720e-01,1.094238199838853800e-05,-1.029433269335201448e-03,-7.225024143114304074e-04,3.043429227545857430e-03
2.327337930421067846e-01,2.283758806621024040e-01,2.264576697219713719e-01,-5.820735385259403214e-04,-7.753202550905650145e-04,-6.784581863810855342e-04,5.935573950409889221e-03
2.323182004264180422e-01,2.261594908239578094e-01,2.264309094168661662e-01,-1.874245443225871881e-03,-7.579874739545491152e-04,-5.782241485839118966e-04,7.042502053081989288e-03
1.994306955867688746e-01,2.550030282531149384e-01,2.401979320548969787e-01,-1.557690686808843594e-02,-2.330461730796829292e-02,-1.006626926618981420e-02,7.173524796962738037e-02
2.424938473679775497e-01,2.622965555126290926e-01,1.962769137104823924e-01,-4.500006671713662094e-03,-2.068614965158253882e-02,-7.269200500443223287e-03,7.033062726259231567e-02
2.494116676194094162e-01,2.644005121262577584e-01,1.820289380693591308e-01,3.457775831201017908e-03,-6.740924240992779252e-03,-9.307550833602229283e-04,7.713542878627777100e-02
2.376508888059976621e-01,2.383583100136196786e-01,2.151798048879369762e-01,-5.253695814917530224e-03,-2.518663696459106944e-03,-2.769131309636970774e-03,2.542018517851829529e-02
1.986550954516717316e-01,2.406061290248433515e-01,2.479039250440024933e-01,-7.104470446364950960e-03,-3.694804279651956423e-03,-6.918697092106491399e-03,4.955075681209564209e-02
2.346408948797805705e-01,2.019787691134082297e-01,2.589647690826666904e-01,-4.750008004719957072e-03,-1.657939120300079561e-03,-1.189836932926537777e-03,5.033006891608238220e-02
2.303526589580283668e-01,2.115920942545722050e-01,2.409731638980515123e-01,-3.424971506190554495e-03,-8.069785258858342206e-03,-4.645544323389540556e-03,3.097255900502204895e-02
2.178264408782963624e-01,2.337644825420829575e-01,2.298647981761082204e-01,-3.203312706275636326e-03,-4.057860002363690780e-03,-6.468754528928221705e-03,2.031728439033031464e-02
2.273502056836230190e-01,2.246408604653991337e-01,2.254979034060314025e-01,-5.624300021129732124e-03,-3.909385656150488574e-03,-4.884225182941679885e-03,1.476713083684444427e-02
2.291510048909057295e-01,2.337671443644871172e-01,2.278524454408262512e-01,-3.122672601272439771e-03,-1.821357293014701055e-03,-2.840721523042652637e-03,9.612685069441795349e-03
2.492511585670366125e-01,2.563006744788439706e-01,1.931949357438803305e-01,5.917640190220106212e-03,-4.656491879376552061e-03,1.481396303587661795e-03,6.135024502873420715e-02
1.775316460198756163e-01,2.472654730023540748e-01,2.120385456160461812e-01,-4.912931473088421458e-02,-8.677715656170162384e-02,-4.952426737461629314e-02,2.020818889141082764e-01
2.085925944442375279e-01,2.614683020362716936e-01,2.164364396423499592e-01,-3.690465466560357427e-02,-6.189876735243296513e-02,-3.698176370865477458e-02,1.487474441528320312e-01
1.771039665566336296e-01,2.664563338052464703e-01,2.700949178769946335e-01,-4.346514994353217060e-02,-4.030779116480145974e-02,-1.336142267868163647e-02,1.392824351787567139e-01
1.949459028961458285e-01,2.372377111479693490e-01,2.422150755843383574e-01,-2.487031991854277146e-02,-2.187605538918876991e-02,-1.502323371004221642e-02,7.740961760282516479e-02
2.164939635069138557e-01,2.519497261898862028e-01,2.200060801763856766e-01,-1.274581196058957588e-03,-2.982413487456012351e-03,-2.354522102070549881e-03,3.454143553972244263e-02
1.991924771672421435e-01,2.444363722853068188e-01,2.431642403870878655e-01,-4.668514233030118810e-02,-2.922695568105651912e-02,-2.348850818562821241e-02,1.129041835665702820e-01
1.467776681957237983e-01,3.162370028435755875e-01,2.509878377828774765e-01,-4.008681456593791992e-02,-1.001094231143791341e-01,-1.865947566167762417e-02,2.405159324407577515e-01
2.572978584781869249e-01,1.983359260148794823e-01,2.485923561523959435e-01,-3.836420630100847474e-03,4.728518747677662969e-03,1.091694307022011978e-02,5.922644585371017456e-02
2.421246200567145346e-01,2.253127314158378247e-01,2.411447074217233644e-01,2.201524098081841969e-03,-3.250950325014717243e-03,2.420635473394834158e-03,1.819203794002532959e-02
2.653044114207991355e-01,1.570282729227744922e-01,2.661875661244211266e-01,1.307242573802401119e-03,6.694505891603371762e-03,1.056301881311224634e-02,1.108802706003189087e-01
2.494513359438847999e-01,2.228107484070251665e-01,2.253918404599142278e-01,3.280084463184422192e-03,3.175801989139453736e-03,-4.521702169672322906e-03,2.777575328946113586e-02
2.749628716234050474e-01,2.094427396987443291e-01,2.204214051340473157e-01,-4.471159513825237290e-03,6.459287026670543566e-03,2.837706680492654496e-02,7.934109866619110107e-02
2.483582745342867715e-01,2.360976043253182610e-01,2.141460874505838885e-01,4.779376461074548443e-03,-2.656939069972366965e-03,7.420603467996056413e-03,3.400345146656036377e-02
2.544615687363739331e-01,2.147275170896423002e-01,2.368551251783685696e-01,7.599651589120045734e-04,4.683607387472045989e-04,5.961921755422739354e-03,3.603096678853034973e-02
2.472383771416595266e-01,2.369852598536044685e-01,2.195900866434450371e-01,4.733891544287019588e-03,-9.421051616435470108e-04,2.116294033483780319e-03,2.587278932332992554e-02
2.575204591795775544e-01,2.122826242141243047e-01,2.334772988232423074e-01,-1.818416768261651127e-03,2.570082637487053172e-03,8.233152866580337528e-03,4.207095131278038025e-02
2.576791656332500513e-01,2.104249554026589031e-01,2.429144431856484765e-01,-1.681726478493141518e-03,4.195268969378889920e-03,4.224400318527940686e-03,4.322133958339691162e-02
2.395389603526664191e-01,2.282805078853527014e-01,2.330315298716526262e-01,1.716706189571557371e-03,2.766815549311117586e-03,-1.654583874806807341e-03,1.165571901947259903e-02
2.145075461256770455e-01,2.256211557294540149e-01,2.630065899728721845e-01,4.842435642602328782e-02,-2.060678723620880046e-02,2.825185268178927525e-02,1.124270707368850708e-01
2.471513970914383518e-01,2.323528046551987247e-01,2.283703415585319751e-01,2.024661884644994060e-03,-4.542053260999782439e-04,8.039882078460103146e-04,1.756841130554676056e-02
2.345179082960552608e-01,2.287976804637478767e-01,2.461426672799184312e-01,1.466637913101507401e-03,-2.141809334078789533e-03,1.426801008821879102e-03,1.614542305469512939e-02
2.369018897009298741e-01,2.344523327253917599e-01,2.341856089137400176e-01,5.201304609540161094e-04,-9.435763650517930545e-04,3.114844974121441085e-05,3.195364261046051979e-03
2.521997913709584371e-01,2.186998233701087091e-01,2.203960746907874246e-01,1.485624704158098643e-03,2.365732005939063208e-03,-4.699498981550418071e-03,3.402892872691154480e-02
2.362999879405576487e-01,2.255023179295563840e-01,2.464777584505135899e-01,2.705367559470649511e-02,-1.084068950912906240e-02,1.523666808225847616e-02,5.978968739509582520e-02
2.393899193221716848e-01,2.380718479445776692e-01,2.229363900658281328e-01,5.566343901089228045e-03,-2.567523172897998376e-03,3.860513436046385076e-03,2.020417712628841400e-02
2.277856943020266089e-01,2.408632968962249044e-01,2.293906266366794455e-01,1.252972928445269000e-03,-2.301390878016841470e-03,2.403488366639108028e-03,1.380362734198570251e-02
2.249972173782071316e-01,2.445951275306481598e-01,2.308642977247691297e-01,7.263079472146340230e-04,-2.024647529504343662e-03,4.396879364638029211e-03,1.937513798475265503e-02
2.457818381918044359e-01,2.383220665405044181e-01,2.255353787115693676e-01,6.397235476176759729e-03,-3.924749575444463727e-03,6.243159966033641831e-03,2.450406737625598907e-02
2.196078483163079187e-01,2.546565844534084966e-01,2.317394686650439128e-01,3.946156343185633700e-03,-1.108063247295428162e-02,5.979625501743410405e-03,3.837600350379943848e-02
2.877688115118786083e-01,2.716694560819230553e-01,1.450025923344850087e-01,2.501380803618059520e-02,1.474620215584380480e-02,-5.672722162305907784e-02,1.747177541255950928e-01
2.382894321024772166e-01,2.301240792092889009e-01,2.197141681179210770e-01,-3.788024429145753734e-03,-1.362955114803400189e-03,-2.036670066630228218e-03,1.791938208043575287e-02
2.513554636049294966e-01,2.473991664334184715e-01,2.101298308316554009e-01,-2.880691551271372629e-03,3.410770701863083745e-03,7.780350737622258525e-03,4.234974831342697144e-02
2.187856527294890219e-01,2.387365148355724831e-01,2.269404797159810527e-01,-1.781427902525642036e-03,-1.650525511598163698e-03,-4.242720884324828814e-03,1.932711713016033173e-02
2.564229587588257031e-01,2.279596296598024041e-01,2.059278511010474433e-01,6.013491466990341511e-03,4.277089125982101031e-03,-7.846983590298483788e-03,4.765238985419273376e-02
2.488154691444022792e-01,2.759732552589381216e-01,1.376438059356739074e-01,1.478729338030100940e-02,5.424811584657361629e-02,-1.051110718803622765e-02,1.610337793827056885e-01
2.721374056410635900e-01,2.746567978495681461e-01,1.771010833522094763e-01,1.352553924005918222e-02,1.074736689376353145e-02,-1.268784980165621815e-02,1.032277420163154602e-01
2.142151787346683878e-01,2.519606045300419317e-01,2.248506891014679376e-01,-1.767796216497567350e-03,-2.309331706738795061e-03,-1.485043254187212638e-03,3.418157249689102173e-02
2.590946594851200602e-01,2.758851250772598185e-01,1.791030119628624906e-01,1.002807426926289984e-02,2.372164539463852279e-02,4.685697065254119768e-03,1.003961339592933655e-01
2.642751664730984551e-01,2.561904354206814283e-01,1.834577919011747549e-01,2.548753047913915413e-03,3.763536145137330591e-03,-7.977177600974780583e-03,7.871665060520172119e-02
2.558153983061561831e-01,2.273222976496372671e-01,2.166153590707493859e-01,1.889075955327452171e-03,6.319906678274723848e-04,-1.337186746886616547e-03,3.533889353275299072e-02
2.206182698351055183e-01,2.446514000547183598e-01,2.408561433644984540e-01,1.227225187758538942e-03,-2.156719458339288915e-03,5.354767585294640739e-03,2.460237033665180206e-02
2.655692484747976256e-01,2.579513350974622643e-01,1.827427567130923136e-01,4.166532812249536429e-03,3.484612577161243490e-03,-7.814740904985411837e-03,8.098773658275604248e-02
2.364180265214951560e-01,2.466806862114101773e-01,2.049865922996308154e-01,-5.238060289627162643e-03,-4.450504690716694002e-03,-3.178614557995482898e-03,3.984809666872024536e-02
2.240643539770642567e-01,2.392324805463189041e-01,2.231682262453353605e-01,-1.013260493272195211e-03,-1.195990049356294245e-04,-9.817746424744719889e-04,1.582663320004940033e-02
2.901051433663037749e-01,2.922888116068578235e-01,1.082759204701191635e-01,1.647432811089495283e-02,3.906855490067001613e-02,-1.068325301913756759e-03,1.971303671598434448e-01
2.800580003819810870e-01,2.803135809417234836e-01,1.612146735958074339e-01,3.258906247298226817e-03,-7.774377276136362758e-03,-2.152538506652432529e-02,1.255284249782562256e-01
1.081485051729537128e-01,2.871108682886437391e-01,2.528570314856571910e-01,5.358672124347498011e-02,-6.414491078951031766e-02,3.178783614778862843e-02,2.259655296802520752e-01
1.927523617586216487e-01,2.614348427833485533e-01,2.458286709359494282e-01,4.862063056744873359e-03,-1.967916031296754881e-02,3.617177338389324440e-03,7.183971256017684937e-02
2.596951754835975512e-01,2.650502802883318298e-01,1.685113686127504007e-01,3.965739801614392296e-03,-5.885672408199428898e-03,-1.208980053875236211e-03,9.479953348636627197e-02
2.760519328281831886e-01,1.212843906251875742e-01,2.811593817530265715e-01,-4.190949218076618632e-02,1.874041395886076600e-02,3.666376418690413946e-02,1.874168217182159424e-01
2.275462483397240609e-01,2.466879385614856313e-01,2.165291193395656455e-01,-3.602329610651941807e-03,-2.462253626517227605e-03,-1.322303722255543284e-03,2.758680470287799835e-02
2.660754894583213237e-01,1.794661498591587634e-01,2.692406645151043665e-01,1.474361226155226218e-02,3.586523973549615371e-03,-1.092221821791572066e-03,9.208485484123229980e-02
1.520588446632493151e-01,2.537607296397783596e-01,2.580175465683496316e-01,6.563026341692174137e-02,-6.145110936500072785e-02,3.496246036044113603e-02,1.967540383338928223e-01
2.366459458404723271e-01,2.604185721755173377e-01,1.891607454123879484e-01,5.618458324713702110e-04,-1.281578909668964344e-02,-1.598785548536796417e-03,6.670965999364852905e-02
2.473166431648898822e-01,2.442094186259645971e-01,2.197200452356236344e-01,5.813121887864339428e-03,-1.072460033361447409e-03,1.677411253397043762e-03,2.826211228966712952e-02
2.047337759311362582e-01,2.545315529359620244e-01,2.204710814485493775e-01,-1.398327922577229966e-02,-2.440582049079370597e-02,-1.466453656920540388e-02,7.044482231140136719e-02
2.594349697113503828e-01,1.770955818317808961e-01,2.651007926331771514e-01,-4.034928447289949129e-03,7.107160397387441916e-03,6.172902756200012407e-03,8.713832497596740723e-02
2.534911632022872618e-01,2.248604970780235246e-01,2.165388804978013726e-01,-4.563872160393147399e-04,-8.917700908438417145e-06,-2.008053518210528403e-03,3.376299142837524414e-02
2.423182159970054261e-01,2.193275674139134046e-01,2.492031993152194480e-01,3.339468521729497229e-03,-8.926637878330513209e-04,2.625440467691913127e-03,2.812096476554870605e-02
2.534796433153490569e-01,2.228350701058908201e-01,2.165090172834976678e-01,8.388775479302347385e-04,-1.051554294104664459e-04,-1.935391229250032000e-03,3.444342687726020813e-02
2.382975749340568439e-01,2.332633624727079857e-01,2.327653942613694127e-01,6.619262533754229289e-04,-1.015228314431654722e-03,5.443754274418947502e-04,5.778726655989885330e-03
2.421237231002620338e-01,2.309737231259308410e-01,2.355711530688511246e-01,1.335984123865597596e-03,-2.692614083927642038e-03,9.000821547038807477e-04,1.112353522330522537e-02
2.528822758216821565e-01,1.823609712841628427e-01,2.654013308478777589e-01,-8.940345715507213090e-03,6.349078609153120493e-03,7.497777514557407708e-03,8.088394999504089355e-02
2.567261211319215586e-01,1.748478285410342281e-01,2.650036084803275571e-01,-3.853987892662415898e-02,1.587615676249156185e-03,3.247330205488010817e-03,1.092953905463218689e-01
2.710463299626216793e-01,1.539032518485523304e-01,2.845389691139874055e-01,-4.082407782486589115e-02,3.413533955189985980e-03,-1.203770856219549615e-02,1.447570770978927612e-01
2.314127537229229148e-01,2.384371709867036948e-01,2.363076216650815964e-01,4.567967561303626226e-04,-4.972319705617276632e-04,2.176007135768732829e-03,7.381822448223829269e-03
2.520484390001071495e-01,1.569599151728278685e-01,2.697161922896293973e-01,-2.626289984153168389e-02,8.391265915327621064e-05,-2.670949685767282089e-03,1.145627349615097046e-01
2.728716236110968474e-01,1.579800707665936499e-01,2.833885976230334225e-01,-3.760123238604859419e-02,-6.471267716656866828e-06,-2.159216592973645446e-02,1.419831365346908569e-01
2.800548367992827803e-01,2.672463613367712099e-01,1.728715456398320915e-01,1.225994796061230172e-02,2.040559111761094599e-02,1.936305566659639321e-02,1.144741326570510864e-01
2.336138122701296449e-01,2.383920743436354073e-01,2.318134460103868089e-01,2.179975771924815096e-03,-5.008093810076972435e-04,8.835119551193179642e-04,7.212962023913860321e-03
2.414164119031209643e-01,2.373460696801014680e-01,2.264294955986255464e-01,3.836401225489973615e-03,-8.195940425899567216e-04,9.444965154537321786e-04,1.513336785137653351e-02
2.742617492998042916e-01,2.725353827472736246e-01,1.649495058217607668e-01,7.746947044389086712e-03,5.008348819432208426e-04,1.102022185690466720e-03,1.093063354492187500e-01
2.378599135448176694e-01,2.320770774090683553e-01,2.336173806169396516e-01,1.495543303344820836e-03,-1.785250834820724213e-03,8.523113740957504901e-04,6.734762340784072876e-03
2.565851784910516686e-01,2.242656472768652653e-01,2.249886251315903474e-01,-2.331296264204829193e-04,-1.202991038493003749e-03,1.386460210948399149e-02,4.003616794943809509e-02
2.575358027502849256e-01,2.516444827019025388e-01,1.959019374118943779e-01,5.562919751250549119e-03,-1.089440317833516780e-03,9.889976237455794586e-03,6.213026493787765503e-02
2.540114387549967656e-01,2.345362268890690827e-01,2.177964967556918485e-01,7.515453790058778446e-04,2.399233953677405457e-03,1.308195286580567801e-02,3.896008431911468506e-02
2.351773809613301180e-01,2.350108634935646756e-01,2.321130806132533086e-01,1.683277904314993932e-03,-9.639460237478012818e-04,1.238304858081100716e-03,4.979503341019153595e-03
2.787029199107434185e-01,2.481634146699596422e-01,2.021033625777932385e-01,7.606334102352290891e-03,1.818523954081426725e-02,2.283518356690109052e-02,8.479890972375869751e-02
2.180002113193792723e-01,2.490412614276951708e-01,2.245395364645154934e-01,-6.956963260567776593e-03,-1.442160625346342734e-02,-6.104783085227862872e-03,4.103989899158477783e-02
2.532183025351080197e-01,2.159625618742129216e-01,2.189690917970453232e-01,-2.165187911786566500e-04,-8.656477943130379661e-04,-3.687380483282704305e-03,3.644445165991783142e-02
2.807471680954027327e-01,2.493087075498495453e-01,2.108176772578452818e-01,-2.653457580467544555e-02,4.633863478171541816e-02,8.809461895783901597e-02,1.884571015834808350e-01
2.844472849370980327e-01,2.112868216108307329e-01,1.647162836167047895e-01,-2.856424252884474306e-04,1.452967586436278505e-02,9.356884127696350750e-02,1.944925487041473389e-01
2.046617946546050171e-01,2.447975634515447696e-01,2.510506942720484025e-01,2.753626491278503893e-03,-7.267450526489150839e-03,5.964428346993929167e-03,4.678540304303169250e-02
2.344566739335359196e-01,2.249396109634580199e-01,2.240618856723816943e-01,-4.138541836825171578e-03,-1.206636985045570799e-03,-1.581137151505319178e-03,1.276513747870922089e-02
2.221663154442844179e-01,2.337215508377518403e-01,2.295891158112144392e-01,-1.672143697117271744e-03,-1.697195648863320363e-03,-4.630902657060243996e-03,1.357256807386875153e-02
2.122014625609228711e-01,2.285259918944026747e-01,2.405282101220724833e-01,-1.498286334671483297e-02,-1.176667733205312254e-02,-1.210205987910998975e-02,4.620255902409553528e-02
2.240928901375590643e-01,2.387677364789671519e-01,2.261962079886765675e-01,-1.030278780997925109e-03,-2.281268864891910185e-04,-2.238336816325696334e-03,1.439722906798124313e-02
2.780851479672766247e-01,2.069938093744156382e-01,1.400442274303744239e-01,-2.985136122131667666e-02,-5.444186331154660108e-02,-9.913072026071845233e-02,2.352477908134460449e-01
2.214359592923745845e-01,2.305858360027022436e-01,2.403957379520566817e-01,-8.655281195916020298e-03,-7.838213967340345104e-03,-7.261062647611792736e-03,2.892987057566642761e-02
2.273936834811505214e-01,2.184246648954600856e-01,2.418647828239334774e-01,-1.511735842822705018e-03,-5.240159753251212582e-03,-1.342187097760554103e-03,2.267787046730518341e-02
2.389397792259865816e-01,1.910156497226382089e-01,2.247346941344378068e-01,-3.900158242310406559e-02,-2.955952524172244383e-02,-4.371727232504917654e-02,1.213919520378112793e-01
2.375564506225006645e-01,1.949725087101228105e-01,2.493386431234616840e-01,-9.371592541712105498e-03,-8.193301195878025661e-03,-4.728554456856641323e-03,5.464332550764083862e-02
2.378439000049833996e-01,2.017140077598469916e-01,2.406257165823993960e-01,-7.674109724902048249e-03,-7.694092670310077875e-03,-6.823173436921842541e-03,4.367556050419807434e-02
2.267486251038587364e-01,2.099407873258354873e-01,2.468981947466609428e-01,-5.182310483510817190e-03,-5.726150589558401394e-03,-2.757536101627722832e-03,3.505605086684226990e-02
2.217730893953676341e-01,2.434466967376530677e-01,2.241765152299095010e-01,-3.460344184460065458e-03,-3.969466433632403909e-03,-3.854319126956440300e-03,2.347743697464466095e-02
2.262117847760795331e-01,2.055260686528219138e-01,2.486450018636748027e-01,-6.685160401477520387e-03,-6.667951422915129218e-03,-5.254552284273295883e-03,4.177900403738021851e-02
2.306736023462857277e-01,2.287844208658883216e-01,2.449805815716758206e-01,5.960835544767831805e-03,5.690925570190657166e-03,-5.329808376333001335e-03,2.289677411317825317e-02
2.287416716508577919e-01,2.284876960208962471e-01,2.288285460587533571e-01,-3.277212837039400082e-04,-7.547371429386088735e-04,-4.492349745618122881e-04,1.652464619837701321e-03
8.222763358273899037e-02,2.906902394914940846e-01,2.997931106238815313e-01,-2.965937271146344614e-03,2.545198070669783211e-03,1.688150425767092483e-02,2.152624130249023438e-01
2.310347921475769117e-01,2.516776019905206385e-01,2.109257056627115157e-01,4.329730743938166662e-03,-3.105110760884295575e-03,6.416044497216480966e-04,3.649669513106346130e-02
1.481606341351914824e-01,2.540710135586770613e-01,2.693600164442513378e-01,5.266169193484005612e-02,5.209140089175474247e-02,-3.971808696213371091e-03,1.719815582036972046e-01
2.118858333092686341e-01,2.503158445987309633e-01,2.650735152467819100e-01,1.779533463181033962e-02,-3.380152696972294423e-04,8.665339149339642416e-03,5.862952396273612976e-02
2.285741939123821231e-01,2.335168821999593913e-01,2.645129380815210429e-01,1.590294731490623018e-02,6.403808613912472490e-03,4.404536433261302397e-03,4.558866843581199646e-02
2.286611055709421858e-01,2.294416974100920992e-01,2.273816019925346543e-01,-1.121585907352283399e-03,-3.730039137616725079e-04,-4.573642339002111914e-04,2.839723601937294006e-03
1.810317723335727602e-01,2.596690959336896420e-01,2.617062206378324984e-01,4.624796761838312516e-03,-3.572113995863792930e-03,1.756061476082705110e-03,8.037331700325012207e-02
2.188804150904401502e-01,2.519585933418433399e-01,2.201712725808208648e-01,-3.966206844859395341e-04,-9.078270647141248404e-04,-8.340485315219233657e-04,3.252943605184555054e-02
2.133993125639627453e-01,2.475879809350564342e-01,2.520949159973006060e-01,7.740862510413237113e-03,6.265044344904676862e-03,-1.197628431453688809e-03,4.055960848927497864e-02
2.685003838169343626e-01,2.135030855561413921e-01,2.609061118365584853e-01,4.459330558496930885e-02,2.936326383867501194e-02,-2.425901841089451658e-02,1.139407902956008911e-01
2.209527788896604172e-01,2.271666410085248777e-01,2.389029775377074227e-01,-1.692507890573254027e-03,-1.222101325805437276e-03,-4.643375918928184347e-03,1.808421500027179718e-02
1.992435432231081383e-01,2.592202727545697138e-01,2.354670238831306772e-01,-6.283355947547267445e-04,-4.613831031838683261e-03,9.075384664816903493e-04,5.295564606785774231e-02
2.411120542934379329e-01,2.494229527540511582e-01,2.447103674605282664e-01,3.462180240535557563e-02,-2.223883980975272304e-02,3.512590842864498492e-02,9.398567676544189453e-02
2.061621947783368047e-01,2.579985094953045066e-01,2.235872695606687111e-01,5.147826163660025947e-04,-1.058169939424690072e-02,-4.369135034675197295e-03,4.981330409646034241e-02
1.953766292128496507e-01,2.615344703668667226e-01,2.409988301296578095e-01,5.474678088977696054e-03,-9.463637492080363006e-03,4.965745968091084435e-03,6.222983449697494507e-02
1.823339165218233471e-01,2.642551474788058519e-01,2.593917484296473508e-01,3.616355454536705066e-03,-4.519375411470003857e-03,8.460916734996838315e-03,8.155731111764907837e-02
2.142352335351848103e-01,2.451969612748414462e-01,2.546215848787667935e-01,1.114815829550409865e-02,-7.004763772866430148e-04,5.398266233972507690e-03,4.243813082575798035e-02
2.179502097627293022e-01,2.271660944297115847e-01,2.417395718176998665e-01,-2.229444259114332551e-03,-3.861898314299593189e-03,-5.818007668770283115e-03,2.434805780649185181e-02
2.340632108820982493e-01,2.442039776919587291e-01,2.247104920145085449e-01,4.600682954566745995e-03,-5.346831825237467577e-04,7.810024864838360044e-04,1.874402910470962524e-02
2.357164843681193722e-01,2.215088714200499076e-01,2.524746108279400936e-01,9.343300545993339645e-03,4.277165358485800380e-03,-7.297946798750852386e-04,3.223594278097152710e-02
2.166312387198552625e-01,1.809320418952010123e-01,2.642566767978449249e-01,-4.032946115553801697e-02,-1.554618677060173176e-02,-1.457705046389914418e-02,1.071668043732643127e-01
2.392470775511644498e-01,2.343983442223110947e-01,2.323801427865460345e-01,2.705197538024468190e-03,-2.545678492211492054e-03,2.628830500475424527e-03,9.974820539355278015e-03
2.543152355591473679e-01,2.521571627168978647e-01,1.967120418890770661e-01,-7.485383450935819902e-03,-1.647928728266845680e-02,-1.656601023151272126e-02,7.074294984340667725e-02
2.337566143620227743e-01,2.360010051367870121e-01,2.350819802372137168e-01,1.447823825959682368e-03,-1.168975270275118741e-03,1.528204390383835955e-03,4.605818539857864380e-03
2.338689227519019642e-01,2.358172023628842540e-01,2.342284798587045969e-01,1.825951244580166965e-04,1.891584066364608390e-04,8.228740812275163810e-05,1.858019502833485603e-03
2.544373533494738160e-01,2.521422619742971771e-01,1.859642293836562266e-01,-7.397168994023029659e-03,-1.461735227257458108e-02,-1.476155871469024203e-02,7.743094116449356079e-02
2.409609122725253072e-01,2.467846587867043584e-01,1.910008213987374748e-01,-9.501503460952043581e-03,-1.027352485082496519e-02,-8.889254057825033903e-03,6.037722900509834290e-02
2.532983775713433250e-01,2.381739863585351502e-01,2.061679861253454260e-01,-6.411184301958633772e-03,-1.701293182320482572e-02,-1.749331759745913553e-02,6.038940697908401489e-02
2.340598925238286665e-01,2.383816633175237787e-01,2.304926678334161816e-01,2.600711392221167345e-03,3.151599503998306622e-05,5.095165601961511911e-04,8.239685557782649994e-03
2.334105687638464710e-01,2.360568453514587384e-01,2.335603519972202224e-01,4.265220280448605216e-04,-1.955454044259428612e-04,8.589594298284081771e-04,3.082654438912868500e-03
2.486056428805471230e-01,2.382473189605575081e-01,1.906168393386386550e-01,-9.628824270477032501e-03,-8.189745774289852731e-03,-9.265959713340727461e-03,6.005216017365455627e-02
1.641633172120531281e-01,2.020798422729945532e-01,2.507442131573280331e-01,-9.640295903721522730e-02,-6.082497412693252392e-02,-5.638659703422646552e-02,2.327424287796020508e-01
2.216566643276868254e-01,2.213474867252495926e-01,2.424998371048313062e-01,-5.520167675492433125e-03,-4.970295304489322219e-03,-4.492501794261658486e-03,2.582738175988197327e-02
2.120237163670176395e-01,2.549860193253239427e-01,2.209917069587991889e-01,-3.427875839383273671e-02,-3.808548152228843214e-02,-2.569535770851073472e-02,1.067626550793647766e-01
1.999443672883457201e-01,2.355476466939771252e-01,2.513317026113979225e-01,-5.952992025425814238e-02,-4.255948195960389258e-02,-3.391113723567882460e-02,1.469488143920898438e-01
2.530807706999627094e-01,2.237840425153906632e-01,2.211073244496699064e-01,2.665736969944841606e-03,-3.629364119085011324e-04,1.189595300937809630e-02,3.728453814983367920e-02
2.321793319139804912e-01,2.073889855927635306e-01,2.564366268900387102e-01,2.108024610028281023e-02,-7.798202283836704746e-03,1.559634458226443962e-02,6.363669037818908691e-02
2.230898941346104447e-01,2.389868836006215358e-01,2.228412232886940181e-01,-2.395197160949432118e-03,-8.434687144495370704e-04,-1.222710612710444997e-03,1.674991101026535034e-02
2.273159759800606194e-01,2.327607345514721426e-01,2.261656999702509885e-01,-7.079855200420367284e-04,2.332509707028127856e-04,-7.421429582894681744e-04,6.367949768900871277e-03
1.852863323120465255e-01,2.359032182123000088e-01,2.858983004204842526e-01,-5.981933060303144811e-02,-1.711615783395029067e-02,-7.768773120152732900e-03,1.392378509044647217e-01
2.260412967634342352e-01,2.320442458529759500e-01,2.267146428424493820e-01,-2.110004305574226472e-03,-6.126156501378950733e-04,-9.982710787763220649e-04,7.065310608595609665e-03
3.299568826330276927e-01,1.433865412745508883e-01,3.066040012914933444e-01,6.662559608379632625e-02,4.166605110237750487e-02,4.380290102113094247e-02,2.351128756999969482e-01
2.275739616846563784e-01,2.517942697381818640e-01,2.134205191067147789e-01,-2.276547005865204882e-03,-3.275163792172465851e-03,-1.200475734025166713e-03,3.437725454568862915e-02
2.657893973820110167e-01,1.859733533565959551e-01,2.451043782056089027e-01,-7.636285592687469884e-03,6.396184893774101675e-03,1.615809313830530655e-02,7.892020046710968018e-02
2.534514331024677047e-01,2.361750901023588756e-01,2.132512823251420109e-01,4.375294355651719071e-03,-1.062137466115555115e-03,7.206681731772848418e-03,3.790297359228134155e-02
2.744219381314949580e-01,2.274073547119737082e-01,2.338751947917694085e-01,2.526175318574231179e-02,4.783505410571825631e-05,4.072475854392667433e-02,9.401124715805053711e-02
2.535488740464585389e-01,2.049919063014416509e-01,2.427129678039129101e-01,1.074672405856092958e-02,-3.595554975248737174e-03,2.087170942757419004e-02,6.034221127629280090e-02
2.550135666226316378e-01,2.177078306756630721e-01,2.370653930092167516e-01,4.229413702383474742e-03,1.692480507009332851e-03,6.704352116463676604e-03,3.523332625627517700e-02
2.211824556118832663e-01,2.511971734115527877e-01,2.188199097275893013e-01,-9.086945156250045372e-04,-1.176498621777058006e-03,8.453615372495136614e-05,3.136920556426048279e-02
2.273595972769288653e-01,2.438967870024591200e-01,2.303763917234161740e-01,4.119535615751135642e-04,-1.456347453347794181e-03,3.374567118450272894e-04,1.548883412033319473e-02
2.493651569029604886e-01,2.548437880007097811e-01,2.077443583160888951e-01,7.114362188254865632e-03,-3.514730352532083584e-03,8.453697492785430118e-03,4.892472550272941589e-02
2.574214449973583063e-01,2.563487848085283516e-01,1.917803017634594764e-01,6.866913211183673510e-03,-1.820813093610635204e-03,2.354527946287935953e-03,6.638930737972259521e-02
2.531554857576199247e-01,2.444691276955205661e-01,2.031701312053854902e-01,1.025436064654867453e-02,-4.059849493858804469e-03,7.422102906351686277e-03,5.167169123888015747e-02
2.575903885300286911e-01,2.657463041582953656e-01,1.652969586029376936e-01,7.564909343830725913e-03,-1.821708728055686927e-02,6.633997071689371437e-03,1.031340584158897400e-01
2.317786399129418140e-01,2.466961459875807172e-01,2.126667726802088099e-01,-5.622262781113987126e-03,-7.942298566334458909e-03,-2.891046206395475344e-03,3.438082337379455566e-02
2.012535762757986790e-01,2.586978677130977178e-01,2.708287762571260360e-01,4.168240369013628127e-02,-2.236948175144489251e-02,2.665582351721189694e-02,1.139688789844512939e-01
2.275458184561751085e-01,2.486028989450106974e-01,2.144704878425748307e-01,-3.700777354650226433e-03,-2.556738203749916050e-03,-1.462642102675594915e-03,3.093233145773410797e-02
2.730541807521285613e-01,2.630044853977656638e-01,1.754749178785341146e-01,5.951990641013924985e-03,3.045743867122654991e-02,1.356842598737212705e-02,1.099255159497261047e-01
1.852123501084595725e-01,2.629665772516582289e-01,2.589823991003998849e-01,3.045493306528985339e-02,-3.695072066525256077e-02,1.111955759109608047e-02,1.140233129262924194e-01
2.372721385298557917e-01,2.580672639702918381e-01,1.889629904566813290e-01,-1.706642948443482573e-03,-1.217536112465444041e-02,-9.858146636496007732e-04,6.501674652099609375e-02
2.573272596052172956e-01,2.522050889384115369e-01,1.806787903253859739e-01,8.918189555085857465e-03,-1.487047411106914505e-02,1.386554740411652213e-02,8.359050750732421875e-02
2.310594261322208298e-01,2.230026069337237016e-01,2.503804253613574060e-01,1.017827862349074408e-02,4.680792473593214584e-03,-3.565672142772318906e-03,3.175756335258483887e-02
2.227462974101723225e-01,2.507929399262900927e-01,2.226477559594066680e-01,1.341627486322772981e-04,1.184163941918865192e-07,4.011584702271795517e-04,2.810559421777725220e-02
2.421563700649284612e-01,2.063127925408313190e-01,2.594935140587268374e-01,3.972325115487163744e-03,2.273696981142136683e-03,7.588034483165905083e-04,4.765856266021728516e-02
2.257227307853400811e-01,2.224964698294991661e-01,2.535404671850411962e-01,1.087451349472277375e-02,1.010594744306376590e-03,1.842374083016038843e-03,3.524194285273551941e-02
2.300534393342112960e-01,1.979296860803415881e-01,2.696166792892115138e-01,7.950388498779424606e-02,-1.476091879076933157e-02,3.868545877319085058e-02,1.672544628381729126e-01
2.459821201758531639e-01,1.946359408357540288e-01,2.724807051152217663e-01,3.199071673567811802e-02,1.935232901814582310e-02,3.546468140211349145e-03,9.450235217809677124e-02
2.473634177194552475e-01,2.282016810867568968e-01,2.239501647896199876e-01,3.034533753322508388e-03,1.854957282099652625e-03,-1.986390139500947023e-03,2.272661402821540833e-02
2.458844743729599325e-01,2.162696272331385283e-01,2.592345072221494684e-01,1.111251853377498086e-02,3.838622794223952965e-03,1.663394858606835050e-03,4.328500479459762573e-02
2.968362258050173397e-01,2.332827862113646677e-01,1.846323564850907983e-01,2.121086501276556874e-02,2.419365621939101318e-02,-5.839972192667991502e-02,1.511128395795822144e-01
2.257290238505355873e-01,2.450008765786849396e-01,2.353279442714230341e-01,1.079052905462470936e-02,1.300737312554652719e-02,-8.854472750449779092e-03,3.702217712998390198e-02
2.342633675285780703e-01,2.352824241787705162e-01,2.347260853531168145e-01,1.083127668268354952e-05,-2.784641362961348828e-04,-3.914474806546642036e-05,1.009269151836633682e-03
2.330109040705715118e-01,2.537209378124462011e-01,2.079195622073932992e-01,1.519683492022493379e-02,2.274551823830005953e-02,-1.025656329522904586e-02,6.433212012052536011e-02
1.952727730652991933e-01,2.574690629852159351e-01,2.557929049300879387e-01,3.358084020335978890e-03,3.384625192816442547e-03,6.985672858806559350e-04,6.194028258323669434e-02
2.420815575159152022e-01,2.301069702311104581e-01,2.300927148804818856e-01,-2.574274291624811199e-03,3.308923474388485164e-03,4.632240304584782885e-03,1.614503562450408936e-02
1.649263574502214946e-01,2.768317373591466235e-01,2.745574437062357487e-01,1.431354516001509883e-02,7.609441449899360943e-02,1.111361800677186651e-02,1.750135123729705811e-01
2.257868965281806251e-01,2.251091790050271380e-01,2.347959588820013876e-01,-2.328116426435591566e-03,-3.400003180729972187e-03,-3.046027605779477558e-03,1.290361955761909485e-02
2.074106519711489405e-01,2.525934989716488999e-01,2.520827981153065944e-01,2.266890142987676524e-03,6.447359107617613334e-03,-9.511117479472496351e-04,4.649205505847930908e-02
2.489556052032955713e-01,2.270956376658942732e-01,2.091297035508748459e-01,8.834315948768486221e-03,8.297209283560523854e-03,-1.972544902923687934e-02,5.292744189500808716e-02
2.499017614119694863e-01,2.208722135629127281e-01,2.308768770056957020e-01,6.802686147312747133e-04,2.777230632981973583e-03,-1.836942210823491739e-03,2.621120959520339966e-02
2.698054071934625764e-01,1.658861072112519097e-01,2.668962841170372524e-01,9.799085431248685113e-03,1.161652394170611773e-02,-1.647570789893314236e-02,1.096020713448524475e-01
2.520332359744978379e-01,2.162568639239338120e-01,2.268866267765567990e-01,-4.360748560536565634e-05,3.653726818592161439e-03,-3.361397815083190521e-03,3.296358883380889893e-02
2.257607080753918360e-01,2.065211871668625188e-01,2.589110129847102537e-01,-1.076582612011616098e-02,-2.774330005694641138e-03,-1.000371627424359979e-03,4.980662465095520020e-02
2.266721386927373627e-01,2.223860194855288297e-01,2.495890400446098834e-01,1.083717475100845137e-02,3.850987557572215988e-03,-2.107120928036802874e-03,3.243336454033851624e-02
2.199062726943666890e-01,2.436337339663662838e-01,2.239724546779358616e-01,-1.541731775937248876e-03,-2.689129275931834411e-03,-3.943136970297607749e-03,2.363294549286365509e-02
2.599207864674935031e-01,2.221913823366903074e-01,2.626073891194354304e-01,4.309955145489375444e-02,2.408835310520587511e-02,-1.429884995306239005e-02,9.725698828697204590e-02
2.426626366832430048e-01,1.753040366726761889e-01,2.819051411653368255e-01,7.490452116839996233e-02,1.007253330535077748e-02,2.394142126561884382e-02,1.660616695880889893e-01
3.764201061403137927e-01,2.426559172448252977e-01,1.467998623544121417e-01,3.058833533406376398e-02,1.930512405039311666e-02,-1.083320075856852166e-01,2.811331152915954590e-01
2.198019359972803455e-01,2.509616811221372368e-01,2.203742827925687653e-01,-2.934244813693398166e-03,-5.529341192150457988e-03,-2.796526286075758268e-03,3.308224678039550781e-02
2.375954617114136025e-01,2.299524947097982552e-01,2.165853424633115420e-01,-6.187647627668381792e-03,-2.107995877364336659e-03,-2.558982421812765282e-03,2.207028493285179138e-02
2.240493339522848792e-01,2.263371630973632642e-01,2.389193326521421024e-01,-5.588916745736513319e-04,-1.126214660131194664e-03,-2.194979117246679060e-03,1.454396639019250870e-02
2.527592444651487469e-01,2.260262765885187597e-01,2.057571843165467707e-01,-2.611188590444616341e-03,-1.075632754761593696e-03,-4.262677450542777004e-03,4.178250581026077271e-02
2.457003980314181046e-01,2.071992828489981620e-01,2.498511605563513149e-01,7.830029255764788323e-03,9.996188069037502746e-03,-9.538419507966872796e-03,4.915300011634826660e-02
2.189097799027961977e-01,2.536769409022616717e-01,2.205412086496024993e-01,-8.455571079901733446e-05,-7.163610658587020582e-04,4.110952722337808674e-04,3.401124477386474609e-02
2.561001475173426689e-01,2.070506872711357915e-01,2.502419249028959847e-01,6.716628581813654207e-03,8.256593610543525030e-03,-9.309951419545851523e-03,5.246622487902641296e-02
2.297338135166086259e-01,2.281639088513237879e-01,2.509332991591223250e-01,1.037584906129307471e-03,2.977897142662029508e-04,5.260628555430050309e-04,2.212442085146903992e-02
2.284326011575523729e-01,2.562079882195393288e-01,2.148491711104374424e-01,2.596444474389998907e-03,-2.356200998026981939e-03,5.780794547029793765e-04,3.702902793884277344e-02
2.436812328792369309e-01,2.129156799305606529e-01,2.543084552110184138e-01,2.696647271566292824e-03,5.794791568942846485e-03,-1.103389577519838785e-03,3.889236971735954285e-02
2.098903136286652260e-01,2.249598029456419401e-01,2.487348426359899944e-01,-1.849448583015711814e-02,6.108081308381518686e-03,7.239754280374108633e-03,4.945630207657814026e-02
2.980069543606604365e-01,1.953604821705225425e-01,2.275832495408892653e-01,1.285904950665977230e-02,-2.044173035243521466e-02,9.028402714624317316e-02,1.856618672609329224e-01
2.171670645480793249e-01,2.283039242706100813e-01,2.508236314432493730e-01,-9.719493876987740297e-03,-7.377940999621510065e-03,-6.334766356506436706e-03,3.806653618812561035e-02
2.385273076568575346e-01,1.901791564103024190e-01,2.594978217774759899e-01,-1.239329872483106200e-02,-6.355960569817329514e-03,-9.938004216222470766e-04,6.615233421325683594e-02
2.273103133113824059e-01,2.442099092439286856e-01,2.263616579376075133e-01,4.849315455418943968e-04,-6.356893515712106662e-04,2.148012656726145178e-03,1.784062385559082031e-02
2.347688186163152391e-01,1.972002133620092135e-01,2.577272745062312853e-01,-5.675134884349727210e-03,-3.462394748542680679e-03,-3.209628823890243749e-03,5.444721505045890808e-02
2.146868980224117818e-01,2.387905110484508653e-01,2.490753214827019224e-01,-2.480378229794479115e-03,3.945951973828300610e-03,6.933437395670767611e-03,3.382378816604614258e-02
2.303606117245182994e-01,2.121050591999482371e-01,2.390356302564652091e-01,-3.880321799806771103e-03,-7.387415223804578643e-03,-4.605171431283331882e-03,2.897246368229389191e-02
2.327813969616289169e-01,1.920898870083714849e-01,2.501036147310590207e-01,-1.202826948521698754e-02,-8.936412716192151939e-03,-6.418881969667331218e-03,5.880431830883026123e-02
2.211083995046278228e-01,2.517862292378721945e-01,2.188271342740543968e-01,-6.555046322905195341e-04,-1.139375988118666947e-03,-1.836050182846691496e-04,3.196251392364501953e-02
2.293538084977311819e-01,2.201662102746846650e-01,2.263864337219322898e-01,-1.685723386383601585e-02,-1.689024325626141410e-02,-2.024571629634529593e-02,5.480840429663658142e-02
2.288254002868407855e-01,2.290765818024141920e-01,2.340441233026793189e-01,-2.503960797764538844e-03,-3.655342679796259875e-03,-3.825303376148340290e-03,1.134813670068979263e-02
2.252108260726073397e-01,2.039687966886251647e-01,2.578623499825494769e-01,-8.944848513858880829e-03,-2.687878015601024261e-03,-1.659152862262652014e-03,4.980857297778129578e-02
2.370782195792466018e-01,1.920290445267708868e-01,2.495708876765317108e-01,-1.033817165153748559e-02,-1.021723250893085203e-02,-7.770933100060871748e-03,5.969296768307685852e-02
2.378737258757668838e-01,2.338140485494760445e-01,2.329757043701013164e-01,3.506027626458259067e-03,-2.599225031973283542e-03,2.594663691432303430e-03,9.895890019834041595e-03
2.256931241712286651e-01,2.287997162304091225e-01,2.345723594442074289e-01,-1.533090687267838316e-03,-3.376833012998284832e-03,-4.100466597565925221e-03,1.235350780189037323e-02
2.354616609951086237e-01,2.242048906495915095e-01,2.246805243934871521e-01,-1.937470343022837729e-03,-3.959042624899104107e-03,-1.972185000883257874e-03,1.383976079523563385e-02
2.298021123956820733e-01,2.281481969225568063e-01,2.498749635315552775e-01,1.044849408320595256e-03,-1.847885479754240632e-04,4.392670506530138141e-04,2.104305103421211243e-02
2.297378457360280124e-01,2.279300384270162017e-01,2.514335799201215527e-01,6.567102515058982669e-04,7.488033814411268734e-04,4.571820630136305425e-04,2.273318544030189514e-02
1.966078444663026947e-01,1.994661622215279373e-01,2.894835705538773007e-01,-5.364113924904535119e-02,1.444604445476599776e-03,6.982462299163563757e-03,1.309703886508941650e-01
2.283147673545884160e-01,2.504606760635545992e-01,2.108649529927815458e-01,2.399186324939596264e-03,-1.654801545578947269e-03,1.292552985698431928e-03,3.481199219822883606e-02
2.192882091351158469e-01,2.514733249917328606e-01,2.274460720383616741e-01,6.590273055524148221e-04,-2.990907652571808337e-03,3.358115191351919611e-03,3.003066778182983398e-02
1.991579163336369418e-01,2.544840460177157371e-01,2.356332250277298757e-01,-6.747650419952895377e-04,-3.905873807303487759e-03,4.459990499148624825e-03,4.980159923434257507e-02
2.202509590044965104e-01,2.530448261788818543e-01,2.175106342782730795e-01,6.286601802457125222e-04,-3.749231784373042650e-03,5.235627994472098062e-04,3.488539904356002808e-02
2.348810076613868369e-01,2.241280080715172818e-01,2.275619518610375869e-01,-1.445809841494891069e-03,-3.151990849104694022e-03,-1.538913243420719388e-03,1.156178116798400879e-02
2.319212802174191457e-01,2.253535123187012934e-01,2.275382346843411174e-01,-1.208004191993815313e-03,-2.778194271548834089e-03,-1.798873168180728770e-03,8.414308540523052216e-03
2.342278067810275310e-01,2.353402969466397154e-01,2.335616038292681607e-01,2.279110879375780300e-04,-1.542471845899006722e-04,8.087623453697410317e-04,2.147580496966838837e-03
2.231310370692771716e-01,2.357654855565869401e-01,2.274458306191340651e-01,-2.237397263181772726e-03,-5.546497198379249935e-04,-3.930868639770987612e-03,1.363919489085674286e-02
2.351750343442484126e-01,2.349799995017594623e-01,2.340071086052679938e-01,1.578926856124142960e-03,-1.318329612612550994e-03,1.377245194705318957e-03,4.422411788254976273e-03
2.329990741709732638e-01,2.346620007457936308e-01,2.370897434523391578e-01,-2.447365486516779186e-04,-4.215351615728923354e-04,5.140013894880464569e-04,3.768523922190070152e-03
2.342829166174688338e-01,2.346752093834903186e-01,2.368156567299791737e-01,8.756243710477445356e-05,-9.130841019110225772e-04,5.888722557124290375e-04,3.023172495886683464e-03
2.315048550934975524e-01,2.277334168216864907e-01,2.271367234820294845e-01,-2.974770481418037658e-03,-3.423656933714073255e-03,-3.003647791060123137e-03,1.027657277882099152e-02
2.257833729499808262e-01,2.321004953303222040e-01,2.296074386656400124e-01,-5.154970320076668767e-04,-6.617168200886951049e-04,-3.522641256686096824e-03,8.349265903234481812e-03
2.655821115843597369e-01,1.840548863821195036e-01,2.658709592071487604e-01,3.945146874458828334e-03,6.464014004873048710e-03,1.036185013240298151e-02,8.464317768812179565e-02
2.881803688500620408e-01,1.489973400189052166e-01,2.501805302051328672e-01,-9.651756560066998905e-03,1.264463471536263726e-02,-5.245817705163318551e-02,1.566578447818756104e-01
2.661697687903317733e-01,1.718676328288918642e-01,2.515937726211170955e-01,-2.222835203924670381e-03,4.886329831233954951e-03,-1.706643089289154244e-02,9.322577714920043945e-02
3.036659653872055831e-01,1.615359608378895140e-01,2.088962505078906795e-01,3.793108541330230538e-02,1.521159671065553526e-02,-8.025002363123946714e-02,2.001082152128219604e-01
2.506732708388594300e-01,1.769350173018757744e-01,2.581046813423618635e-01,-2.151266877822870585e-02,-4.546242290310218391e-03,-1.940594948862706462e-02,9.284771233797073364e-02
2.308838965232172524e-01,2.324029054344892709e-01,2.463861058003692373e-01,5.252551543118548667e-03,-1.009430676825722600e-03,4.404117786726197137e-03,1.905495673418045044e-02
2.350960742494624389e-01,2.561745896597604766e-01,1.988010979856721927e-01,4.453665287390711804e-04,-4.846222024748563298e-03,-1.096694425281676466e-03,5.100327730178833008e-02
2.316722213012964715e-01,2.345760726684975594e-01,2.387383331166131328e-01,2.987969937680203057e-03,-1.998617824717345472e-03,3.388930862143155111e-03,1.053874846547842026e-02
2.319652501480953255e-01,2.341642165360607597e-01,2.384521853384598822e-01,3.383113749909984788e-04,-8.994448134480432480e-05,1.549678508450907325e-03,6.342189852148294449e-03
2.141372873984526415e-01,2.462894455562641416e-01,2.249689991947249890e-01,-6.467504443430065891e-04,-2.122465822300224035e-03,-4.462253903399643513e-03,2.961973845958709717e-02
2.240765221302348509e-01,2.386550461190915517e-01,2.367876357679969956e-01,2.670948855936327703e-03,-2.445996811370246358e-03,5.048062777261707983e-03,1.745267584919929504e-02
2.425736507723080804e-01,2.210542441548863646e-01,2.092348040603932424e-01,-1.586012017444357602e-02,-1.375184584962999002e-02,-1.843586811084891447e-02,5.655745044350624084e-02
2.306782742360757588e-01,2.325888897825387214e-01,2.500996923736384381e-01,5.243553746114692354e-03,-1.256844034993872183e-03,3.684884370652297299e-03,2.171851135790348053e-02
2.292703343317623321e-01,2.345484560028524013e-01,2.415192150379840696e-01,1.438295241839189541e-03,-1.059867784346733973e-03,3.117461909749813867e-03,1.232778560370206833e-02
2.356644199787299998e-01,2.517083818411806062e-01,2.110027323848313041e-01,3.688759180316769984e-03,-3.810961866151918280e-03,8.380839010394286080e-04,3.671208396553993225e-02
2.255977965952388475e-01,2.132936811907465979e-01,2.537879504765571115e-01,-3.335761370444769065e-03,-1.421681113372461319e-03,-1.462559971055798266e-03,3.658952936530113220e-02
2.499440784056360110e-01,2.316026155464321057e-01,2.272723289005848246e-01,2.959723037554522467e-03,-4.238991652076010488e-03,9.443378124033386528e-03,2.796969190239906311e-02
2.263481152380557304e-01,2.338642816879753228e-01,2.246259601972126208e-01,-5.245054317703503124e-03,-4.033888568677466459e-03,-5.165747699430533503e-03,1.684654131531715393e-02
2.565539428017949986e-01,2.442080933100372331e-01,2.128450495760810801e-01,5.295162226899893798e-03,-4.578118676916953858e-03,4.370837303733402825e-03,4.156405106186866760e-02
2.034711301911073522e-01,2.362139334200682450e-01,2.479010953562832964e-01,-4.059711624060456658e-03,-3.351914748088732129e-03,-6.301260572897738298e-03,4.235113784670829773e-02
2.700425216330593070e-01,2.702217371153893821e-01,1.576276649187935974e-01,6.009489960307340395e-03,8.035880229519749146e-03,6.289213065844889532e-03,1.143591254949569702e-01
2.510796387961025666e-01,2.441301584635782729e-01,2.122040773533811486e-01,7.210203388056269508e-03,-2.438172015994231716e-03,4.094284193381955532e-03,3.890403732657432556e-02
2.431310462556367791e-01,2.155286432704332511e-01,2.166124234348953126e-01,-8.274411178438198858e-03,-8.479896254460949495e-03,-1.090238037187289157e-02,3.886980190873146057e-02
2.142583208441318776e-01,2.545135121773510756e-01,2.250700591337142231e-01,-1.227085837511099039e-03,-2.347350242948861333e-03,-2.844395176525729794e-03,3.670782968401908875e-02
2.629342155908239720e-01,2.567300080373006721e-01,1.810666240969017460e-01,3.158543653551663943e-03,2.548630077796428450e-04,1.844098878796626359e-02,8.534169942140579224e-02
2.506236282588792941e-01,2.628115093067112107e-01,1.841798016517058045e-01,1.001857531063405499e-02,-7.603037437284691086e-03,7.262927406384720765e-03,7.749787718057632446e-02
2.230000268365747995e-01,2.246118496140011300e-01,2.535551865124964221e-01,-4.140760016998453266e-03,2.588570786735024890e-03,2.055075961700296178e-03,3.116369806230068207e-02
1.648479037779621292e-01,2.651174554974763398e-01,2.835335573975164003e-01,-8.554607267741362597e-02,-7.939176014152204974e-02,-3.858437896013166418e-02,2.399364858865737915e-01
2.247282853822091531e-01,2.246870202310668752e-01,2.501106264949398694e-01,-3.602901967727214268e-03,2.849939132217038217e-03,2.794916995763977070e-03,2.705653756856918335e-02
2.782203733559633352e-01,1.868504359378320157e-01,1.978638816964486402e-01,2.743769248065004804e-04,1.757379379887583082e-02,8.398933605579997352e-02,1.719093620777130127e-01
2.595362323724559328e-01,1.555610605455833850e-01,2.898422627977140786e-01,-8.189464384162883914e-02,4.866491932522117730e-02,2.782968791730876246e-02,2.107815444469451904e-01
2.455015091419845141e-01,1.423669578040586137e-01,2.746090731850460709e-01,-5.927942489494767569e-02,2.446939656809169264e-02,4.177980443398542076e-02,1.790559738874435425e-01
2.431842483528287024e-01,1.999770389414083915e-01,2.609489722451615590e-01,-1.788500863185080517e-02,4.750846758853796183e-03,6.030424411522611501e-03,6.392528861761093140e-02
2.236156392852158559e-01,2.469749192149259809e-01,2.281643652035957315e-01,1.169615139711983887e-03,-2.561420107816896052e-03,3.591614608965643454e-03,2.285995706915855408e-02
2.345195303490035521e-01,2.260607994725693237e-01,2.469423416712407948e-01,1.437141025848740102e-03,-1.067808232485959472e-03,9.695144683441259473e-04,1.853089965879917145e-02
1.823128761022836664e-01,2.534691311338866937e-01,2.534795776613482099e-01,-2.259148315588899864e-02,-1.880025735797520581e-02,-5.547978960650540303e-03,8.802141994237899780e-02
2.125585742230857722e-01,1.541050485071843168e-01,2.841560949119965596e-01,-8.234157753266660440e-02,2.504518213058002166e-02,2.847655777863456264e-02,1.933470517396926880e-01
2.037860181531342685e-01,1.720411926821549808e-01,2.978812525216061879e-01,-1.172062482577368031e-01,-7.010943074102923833e-03,-2.149453419160981746e-02,2.357840240001678467e-01
2.322803955676016885e-01,2.395202244343624942e-01,2.332952404190686557e-01,3.831325859946626937e-03,-2.678658282810887983e-03,4.284739349312591088e-03,1.291268784552812576e-02
2.272305255427451431e-01,2.396838246894490709e-01,2.341911325772974561e-01,1.860111648357568384e-03,-8.684444535024186777e-04,3.482421589083514908e-03,1.287930924445390701e-02
2.310942256018433671e-01,2.437625956706996611e-01,2.246599355411188770e-01,2.938362806980735625e-03,-1.269872343797487889e-03,6.787883514195831511e-04,1.776292733848094940e-02
2.070191421169326751e-01,3.416093465521775618e-01,2.003504519793501970e-01,1.094776878492023696e-03,-1.048489281420665886e-01,-5.381170870152621405e-04,2.281247228384017944e-01
2.197477976310469316e-01,1.961929349124214572e-01,2.792112235862158620e-01,-4.540978736625272960e-02,2.053670519300681771e-02,1.469312214125079522e-02,1.165781393647193909e-01
1.948271089857364080e-01,2.783114355594043521e-01,2.497194574407693435e-01,-3.573342437753020216e-03,1.921767137024626287e-02,1.314739861005841982e-02,8.405341953039169312e-02
2.344707342809366768e-01,2.301444472637755867e-01,2.414405325144268755e-01,1.475898426117855855e-03,-2.159467971479536990e-03,1.196326551097793211e-03,1.105741970241069794e-02
2.596026424762859497e-01,2.427136020382359705e-01,2.374550067577832768e-01,3.364384710625353131e-02,-2.216957187948718697e-02,4.227607237746620200e-02,1.031198278069496155e-01
1.682778991386940370e-01,2.169683886588761323e-01,2.796582553747714583e-01,8.254876118737770885e-02,8.483952713284866401e-03,1.330173823819782303e-02,1.747650355100631714e-01
2.201094396481420024e-01,2.052594772478776863e-01,2.502798260360544202e-01,-2.100056351189258722e-02,-1.161361071449140865e-02,-1.147389865621914820e-02,6.083956360816955566e-02
2.437405117704910806e-01,2.276742329120664543e-01,2.329038414074121044e-01,-1.446388471847847310e-03,3.547455652251198504e-03,1.733926749253594714e-03,1.595314219594001770e-02
2.335015910567984909e-01,2.356589603836853897e-01,2.341591568402634493e-01,-1.474173854323809242e-03,9.844531212168333798e-04,8.813997261055295934e-04,3.927547484636306763e-03
2.240471092688670895e-01,2.395798868546465954e-01,2.337818334479878635e-01,2.494928760216150003e-03,-2.624462764708060045e-03,4.033485445268398389e-03,1.652177795767784119e-02
2.376524773935930757e-01,2.122050181573415240e-01,2.501429800646200463e-01,-3.403972811767316461e-03,6.819924353739232996e-03,4.048318074668999685e-03,3.667286783456802368e-02
2.254454105997767410e-01,2.487486818064485738e-01,2.260587034468139744e-01,2.357053334012606648e-03,-5.843405179707937200e-03,4.817735623747547609e-03,2.679294347763061523e-02
2.428214832748636920e-01,2.166718656128814868e-01,2.442446196651081314e-01,-2.242650567108074155e-03,6.484981683037287226e-03,2.125385660629309538e-03,2.962849102914333344e-02
2.335129507302889929e-01,2.385142845228974406e-01,2.300983603180234704e-01,-2.711573847425299746e-03,3.092911584921595805e-03,1.977576006205350456e-03,1.078141480684280396e-02
1.688119172797852563e-01,2.291656535911747450e-01,2.456521051874041017e-01,-6.244218069135676341e-02,7.087614500976345544e-02,5.168069509206476425e-02,1.992220878601074219e-01
2.263598586254994272e-01,2.339393863358425751e-01,2.419172150247440867e-01,2.729637813921366538e-03,-2.593048034469162474e-03,3.921638503328691086e-03,1.643853262066841125e-02
2.514595686855681245e-01,2.050056500782781455e-01,2.383239408254883007e-01,6.544600735211648923e-02,-3.095406287455350347e-02,5.523237101333894339e-02,1.630832850933074951e-01
2.313737295781481407e-01,2.377161449489364198e-01,2.342177197253537679e-01,6.032539876801974949e-04,-9.341615138679147754e-04,3.549043218412091787e-03,8.471929468214511871e-03
2.362984736849090828e-01,2.350466282714808730e-01,2.336603222462791118e-01,9.377562143048753709e-04,-3.912657901765308308e-04,2.453117858310271049e-04,2.915881108492612839e-03
2.229152487163862939e-01,2.392102727632592074e-01,2.348829938671073980e-01,2.518292424842845465e-03,-4.178477187504575120e-03,5.026790120056985785e-03,1.899869181215763092e-02
2.206518434869962075e-01,2.476370330750418125e-01,2.317259808622713080e-01,1.577046189548083743e-03,-2.519917888563207812e-03,4.024543378511378708e-03,2.504199184477329254e-02
2.362888591545241612e-01,2.375454955099647603e-01,2.302598850143358633e-01,3.340022465584019471e-03,-6.601690302386971267e-04,8.124079904747161501e-04,9.069654159247875214e-03
2.136219096198661849e-01,2.250533244105655806e-01,2.550151930555937252e-01,-2.917645743983562218e-03,-1.973116764659969477e-03,-2.475581008744666151e-03,3.776904195547103882e-02
2.130876106239323331e-01,2.262389255666875654e-01,2.559368291322438593e-01,-3.215972350398227462e-03,-1.078267752753172886e-03,6.755659290649168374e-04,3.848861530423164368e-02
2.682782238428257360e-01,1.872852575431296074e-01,2.435525469462983539e-01,-7.904814355302876294e-02,-5.595854398072894198e-02,-9.365043986962293121e-02,2.441715151071548462e-01
1.993597081746217858e-01,2.545001122094021628e-01,2.354199652408108245e-01,-2.653457553254112353e-03,-5.137555660136567184e-03,-1.397129306550369933e-03,4.958418011665344238e-02
2.295594694731461494e-01,2.407123972038417714e-01,2.305985632927887441e-01,9.529094229611030382e-04,-4.401668683400355368e-04,1.647451008450822370e-03,1.119491923600435257e-02
2.312489487345733008e-01,2.386178552918128692e-01,2.317950541021369104e-01,2.747118278027928587e-04,2.545609970674624230e-04,5.571437045404690038e-04,7.206028327345848083e-03
2.339555029198799596e-01,2.384295138042514250e-01,2.318283671098431420e-01,1.501777839388971671e-03,1.691003085135248845e-04,5.636445695447072669e-04,6.470176856964826584e-03
1.994201617318823172e-01,2.577347779770826630e-01,2.353529782813640892e-01,-2.432444754657945695e-03,-5.128093014522674964e-03,-2.956070620435423835e-03,5.214605107903480530e-02
2.234689770822313459e-01,2.214152433771446882e-01,2.525663549878736647e-01,-1.056722809952324567e-03,1.378993863002932153e-03,1.048323331660086640e-03,3.038067370653152466e-02
2.518501171502824376e-01,2.159423083529673215e-01,2.207426950705402846e-01,-9.229225660853158410e-04,-6.174340674314685419e-04,-2.288123138919019063e-03,3.405067697167396545e-02
2.453188622534462071e-01,2.446497976807658903e-01,2.014840676057773061e-01,-7.310270244133556042e-03,2.714422330122461327e-02,2.336657172745952582e-02,7.682021707296371460e-02
2.419098668296994770e-01,2.578445656500134575e-01,2.015136395838618977e-01,-2.222859086926907719e-03,1.549019245673568732e-02,6.357111719459176621e-03,5.818394571542739868e-02
2.500850332345559424e-01,2.260350430802410271e-01,2.099420126482040017e-01,-5.316314709188813513e-03,-3.898949394345116101e-03,-2.698721131655448975e-03,3.710349276661872864e-02
2.074610987733535306e-01,2.469985349894533722e-01,2.356236401508721434e-01,-2.671259771764336512e-03,-3.745271196452673243e-03,-6.294118305401937702e-03,3.775180503726005554e-02
2.561461483729918220e-01,2.220476206997991642e-01,2.041385179728696930e-01,-9.350460737268231817e-04,-1.869067812384275599e-03,-9.100011633335139405e-03,4.853507503867149353e-02
2.493227943762218457e-01,2.226616657469680793e-01,2.162905461341427249e-01,-3.790404323494545209e-03,-8.369430363941833886e-04,-2.454889761342453954e-03,3.137755021452903748e-02
1.464807995190883227e-01,2.470328096160298303e-01,3.269706799024826305e-01,-1.042497199792973422e-01,-5.304009002036194631e-02,-2.909559077283841583e-02,2.610021233558654785e-01
2.538272260986947915e-01,2.202941431274912931e-01,2.180008655017322550e-01,6.934920213015941491e-04,1.647048765608149275e-04,-1.223758906578262251e-03,3.482304513454437256e-02
2.585441457496862050e-01,2.078448914441832496e-01,2.275429893563658823e-01,-3.550898864259189637e-03,2.869840412635071315e-03,-9.679406282034605513e-03,4.799330979585647583e-02
2.501286976407511298e-01,2.101077763640753771e-01,2.206989161381217590e-01,-2.968875270680215381e-03,-4.147135278257626720e-03,-7.600675179860702166e-03,3.925976157188415527e-02
2.302071449998323582e-01,2.495004521864888913e-01,2.281285321100874897e-01,-1.944719580366792466e-04,1.273377000388009302e-03,2.338693613384670075e-04,2.053771354258060455e-02
2.129135450039551514e-01,2.523876497578906863e-01,2.441525675961089270e-01,-1.280715969393160557e-03,3.354510864579880562e-03,5.077466561403520123e-03,3.764266148209571838e-02
2.511899467835099764e-01,2.156568045840654702e-01,2.265389516216006482e-01,-6.290859845531158318e-04,-1.679142344803087562e-03,-1.936665618653005735e-03,3.186292946338653564e-02
2.296405119361129288e-01,2.505023468255069274e-01,2.281356466943384453e-01,1.781729786496825813e-05,1.132092775411055801e-03,4.795405274367860659e-04,2.175800502300262451e-02
2.142903735910253182e-01,2.279486989386829143e-01,2.533661150640988957e-01,-1.149329626570973553e-02,1.111839440970361238e-03,3.178124122315464668e-03,4.012545198202133179e-02
2.539792014523256092e-01,2.159104940983114507e-01,2.212145658666473946e-01,3.300933661849448329e-04,8.595860505577940279e-04,-4.498661850909880904e-03,3.658822178840637207e-02
9.696730196836994553e-02,3.600130811410120479e-01,2.734832004199326816e-01,-6.887301379932589916e-04,-5.346473259668973327e-02,4.378735146381317056e-02,2.612432539463043213e-01
1.904145742194917612e-01,2.774532454043369678e-01,1.976251432432422628e-01,-7.749629629879146997e-02,-1.150764935940524758e-01,-7.141997461475715903e-02,2.829264700412750244e-01
1.858796482791842675e-01,2.385785590664289135e-01,2.613444622161600339e-01,-1.060514987022801933e-02,-4.865822859959602342e-03,-3.887828458554399604e-03,7.034900039434432983e-02
2.324038584729055945e-01,2.346237559231832692e-01,2.366126602617084351e-01,-7.454956287573002299e-04,1.013440634222802315e-03,1.871266915900573168e-03,5.343430209904909134e-03
2.327531377356277242e-01,2.342763592929488214e-01,2.360225102473085812e-01,-2.270082017929575015e-03,2.410577023850564871e-03,2.744507738074795488e-03,7.969846017658710480e-03
2.327152478576016981e-01,2.344738022733193206e-01,2.362433348774017339e-01,-1.999083140738580535e-03,2.226090547988717784e-03,2.522888212081644821e-03,7.435449399054050446e-03
2.345400069709469848e-01,2.346318004462322748e-01,2.340787020827254650e-01,-9.698436222645035604e-04,4.970623055777167142e-04,1.081507301434457254e-03,2.708422020077705383e-03
2.340021682807160719e-01,2.342007789944716423e-01,2.353537157246355094e-01,-7.034475301502660831e-04,1.859810223415825435e-04,2.408159783501857680e-04,1.833017682656645775e-03
2.347200032019736426e-01,2.349269157278072728e-01,2.353719523973674677e-01,3.690251316313510779e-08,3.529599215373430913e-04,4.097767128989538874e-04,1.100203255191445351e-03
2.330896297271166928e-01,2.338036200957643862e-01,2.365474569545913397e-01,-2.595368498097824295e-04,6.460013436356018502e-04,1.063786147364677694e-03,3.853109199553728104e-03
2.340032625887969731e-01,2.349218640489178223e-01,2.356974399649550966e-01,-4.130181684626502104e-04,1.664815918061097674e-04,-1.754725601613832727e-08,1.659123925492167473e-03
2.205814501044506826e-01,2.453912587274731660e-01,2.379587336687560839e-01,1.054256138863209503e-03,-2.817898416470916018e-03,6.415813958090031167e-03,2.523912675678730011e-02
1.773437781013653680e-01,2.800840862731199810e-01,2.878604154086951694e-01,2.635431937873858321e-02,-1.095982274413643431e-04,1.347131242283141489e-02,1.185035854578018188e-01
2.421217857384443117e-01,2.082041171525904621e-01,2.547279485372933583e-01,4.370184145056923986e-03,1.886052454284621246e-03,2.162008753319851363e-03,4.264838993549346924e-02
2.615572216194602118e-01,2.538278811663761125e-01,1.977198314098125853e-01,1.954919497963854020e-03,-5.706513877086562313e-04,9.658270128467292409e-03,6.272019445896148682e-02
2.299559600162069117e-01,2.320649655447810933e-01,2.445176138559554402e-01,3.063613745604483614e-04,-1.700657477366449867e-04,1.836843579694614689e-03,1.400961726903915405e-02
2.568082989818999406e-01,2.657033051197829066e-01,1.883580861315970190e-01,5.158621822239859052e-03,3.010089074869116196e-03,-5.813273719824024266e-04,7.403679937124252319e-02
2.683450806024740842e-01,2.690736668373130969e-01,1.790008213441557916e-01,6.554261825100622836e-03,6.404041929528708418e-03,1.261604731139485697e-03,9.113016724586486816e-02
2.173503034813915324e-01,2.436128586794530648e-01,2.483732587296477445e-01,5.068130987614486403e-03,-2.340923923624236517e-03,6.380404496518650957e-03,3.245041891932487488e-02
2.355017173329182756e-01,2.225824850020890200e-01,2.446600299261283973e-01,3.896803869888818862e-03,-4.790466375390404694e-03,4.619043593102783660e-03,2.339887246489524841e-02
2.158105250580173717e-01,2.435654808083971556e-01,2.518385525357703103e-01,6.667975035283620240e-03,-1.720345715437151873e-03,8.143111820832637723e-03,3.754457831382751465e-02
1.611152364715766061e-01,2.875243119462277397e-01,2.769998151731816183e-01,1.427668055183000089e-03,-2.518091813396965487e-02,8.912641589317548546e-03,1.300241649150848389e-01
2.106560195163057481e-01,2.455046995733198845e-01,2.522357012162997902e-01,2.961119154127714835e-03,-1.592980182754827247e-03,4.493268303942974003e-03,3.985961899161338806e-02
2.220190244292472859e-01,2.355439573461920455e-01,2.483311666304945653e-01,1.962131465861977238e-03,-1.020787605503202695e-03,3.576571066424044827e-03,2.392559684813022614e-02
2.352340685931434416e-01,2.320514202490101541e-01,2.572777155250591807e-01,2.026021954011397036e-02,-2.783163477333847752e-03,6.773536679696212648e-03,4.425515606999397278e-02
2.640311595454112314e-01,1.846946905885481216e-01,2.660830159216990287e-01,3.689428236422394314e-02,9.507347514341492334e-03,1.308031228797989533e-02,1.064391359686851501e-01
1.820121657126655412e-01,2.256857782251644740e-01,2.644327372276696342e-01,-3.961543098336390428e-02,9.861949425564143015e-03,7.207221515043972515e-03,1.012752875685691833e-01
2.059702954544869180e-01,2.272631147479692859e-01,2.559130057977223038e-01,-6.184004701687984516e-03,-1.297313441801852560e-04,1.622429131372848683e-03,4.479855298995971680e-02
2.648350822529159099e-01,1.821536365048057604e-01,2.774078549207521505e-01,3.649004829443851933e-02,6.140898351116038691e-03,1.087226690111415921e-02,1.117861941456794739e-01
2.378188315204554093e-01,1.978186735299913845e-01,2.477570344638818645e-01,-8.138827338131019232e-03,-7.042966846700042007e-03,-3.769773509062184468e-03,4.986457154154777527e-02
2.203058192592813880e-01,2.463252915415843347e-01,2.255278814902465234e-01,-5.630574669567894354e-03,-8.924604651623159121e-03,-6.703672773310780791e-03,3.220684826374053955e-02
2.586175741770849190e-01,1.138523183639673642e-01,2.802752348633806845e-01,5.809892699880733063e-02,9.482260223072622174e-03,-5.370246997394838989e-03,1.872004866600036621e-01
1.989522974841727021e-01,2.355918958440383348e-01,2.579913688303561159e-01,-5.182766714499983593e-03,-2.966701514878239410e-03,-3.080969375289434754e-03,5.291850864887237549e-02
2.281703273408199339e-01,2.134310908585560773e-01,2.564836890998069552e-01,-2.405995409054248121e-03,2.101612589765836960e-03,1.084609191190339490e-04,3.829962015151977539e-02
2.475014971543305908e-01,2.467958781965777781e-01,2.218130705760717747e-01,-4.445767601318387219e-03,1.082301621660027892e-02,1.552208648810579281e-02,4.214000329375267029e-02
1.833000617263082499e-01,2.593148573466930729e-01,2.491044130712531113e-01,-4.516626332683440839e-03,-6.924236574904726535e-03,-2.011420904793266226e-03,7.296252250671386719e-02
2.034423369826601491e-01,2.355219271983424179e-01,2.468654380383281111e-01,-4.033633052628015671e-03,-3.395585216773997200e-03,-5.451846703968651377e-03,4.116113483905792236e-02
2.300509798386875249e-01,2.509814593716692133e-01,2.283822598444038843e-01,1.137414302142173914e-03,9.372142454620935922e-04,4.865221286969155393e-05,2.196178585290908813e-02
1.988886796540390300e-01,2.352517242608231640e-01,2.550030145448946572e-01,-5.171402945649216341e-03,-3.111925218976633895e-03,-1.442745524613513490e-03,5.045917630195617676e-02
2.204287156347531085e-01,2.206668207903825785e-01,2.532298721944470365e-01,-5.352611053208142060e-03,-8.641623675825116542e-04,-1.251065892440757351e-03,3.407417610287666321e-02
2.495693963007875049e-01,2.307972377209472070e-01,2.257854528344813982e-01,2.915020984092119363e-03,-3.284922721545537202e-04,3.258872228510522467e-03,2.300587855279445648e-02
2.234509038169314732e-01,2.235441345692328885e-01,2.492955970909470076e-01,-7.348113504004190300e-05,-5.568476644334729661e-05,6.024937946905196138e-04,2.581979520618915558e-02
2.627236895824945351e-01,1.980263439729663677e-01,2.530978793055644327e-01,9.061917984218932545e-04,5.694117283290078303e-03,1.126366592573395560e-02,6.431159377098083496e-02
2.777036560207727378e-01,2.423965613968075972e-01,2.169677103052775613e-01,1.037379765145214801e-02,1.240486604289832082e-02,2.987678499582085978e-02,7.907839119434356689e-02
2.315574281752590668e-01,2.365784832030905227e-01,2.454376524665763115e-01,7.923478125289424093e-03,5.643509709710998849e-03,-3.733006001968639312e-03,2.176870219409465790e-02
2.818952156754011562e-01,2.278411913399703559e-01,2.334300925793693637e-01,5.686891205035316324e-03,6.373807857684640754e-03,3.485872985461185847e-02,8.071717619895935059e-02
2.574098403248706868e-01,2.483151431765298067e-01,1.992439064462650788e-01,7.959451129170649203e-03,-4.534482851904043238e-03,1.136722740682700669e-02,5.980278179049491882e-02
2.525967924384195373e-01,2.078806324954258766e-01,2.454897142881090344e-01,4.102490503517114591e-03,-4.395089596032576186e-03,7.328701879734791924e-03,4.474165290594100952e-02
2.587179093683670272e-01,2.016310804794491651e-01,2.359524506623157103e-01,-1.787093770325015596e-04,5.922008982485454411e-03,2.994560462744198792e-02,7.261603325605392456e-02
2.261416987450803051e-01,2.548233422047080921e-01,2.046044303038610790e-01,-1.338301518026614300e-03,-6.686540015015994022e-03,-5.814469082108732634e-04,4.521870985627174377e-02
2.667636269483248945e-01,1.955038685415123323e-01,2.474172370267957721e-01,1.443869875373654695e-02,8.727154127945144918e-03,-2.232563892441437325e-02,8.014260232448577881e-02
1.753703777856158164e-01,2.600416154856554640e-01,2.631514827008963886e-01,-4.528299826655323573e-03,-6.484688572420414842e-04,3.533661551772937677e-03,8.684724569320678711e-02
2.651742494945894535e-01,1.763930866778313789e-01,2.424926163985093863e-01,-1.618691906868687316e-02,-7.512122537175905737e-03,-3.056979724362509504e-02,1.007061675190925598e-01
1.758362499917364985e-01,2.653220360885806262e-01,2.572067583605877616e-01,-2.271478834052424300e-03,-9.431055625508775672e-03,4.987161910569053907e-04,8.735228329896926880e-02
2.321812602581687923e-01,2.307894740398951094e-01,2.413924026874238182e-01,5.282408132036936444e-04,2.020955709333395033e-03,-5.764255455775116463e-04,1.066249795258045197e-02
2.846694999862685038e-01,1.653845700260880847e-01,2.618772517668160327e-01,2.029857130367096821e-03,-2.966570454828727332e-05,-2.087110170301058679e-02,1.155369281768798828e-01
1.165746980240354169e-01,3.099858187235828844e-01,3.578154497141163848e-01,-6.519955889562768780e-02,-7.867432996152440641e-03,1.692210053042059875e-02,2.504875659942626953e-01
3.292507822416075314e-01,1.390210743204925992e-01,2.450560250662807971e-01,4.866522675606195850e-03,-1.236931760098547786e-02,-7.617020666893552228e-02,2.125923484563827515e-01
2.216755206623420293e-01,2.346808939977205744e-01,2.522302301036510874e-01,1.916037849605665977e-03,1.072325063393875656e-04,2.541526711374168454e-03,2.712527848780155182e-02
2.246421609360944316e-01,2.611265766132910837e-01,2.583820205300665362e-01,-2.112422549515465334e-02,3.843367067377247148e-02,2.926122392379418985e-02,9.786372631788253784e-02
1.968629844514725447e-01,2.573289727911721170e-01,2.495758037363046689e-01,-2.319477674751672415e-03,8.931837090664064560e-03,6.894072230184179230e-03,6.037799268960952759e-02
2.367783587687747604e-01,2.223264455489630254e-01,2.507920618881057662e-01,2.733483174406477634e-03,3.473872336015939710e-03,-2.675287504456858490e-04,2.581860497593879700e-02
1.971752460849643673e-01,2.732164938681412858e-01,2.465255566407184573e-01,6.448456537908773926e-03,2.186651725211367220e-02,-9.902967466563327836e-04,7.763497531414031982e-02
2.029336978886430165e-01,2.477705567209656512e-01,2.619120281394961003e-01,2.016806250256822711e-02,9.482578566802615447e-03,-9.172340750584198274e-03,6.772584468126296997e-02
2.404034162188177226e-01,2.517593050194264492e-01,2.157467806833627821e-01,1.058962279554453816e-02,1.364188046835765333e-02,-8.783154625695021450e-03,4.629317671060562134e-02
2.894382867444691976e-01,1.309890361070707721e-01,2.615467026706224107e-01,5.542596478019173184e-02,9.423321102572355251e-03,-7.618856933129679321e-02,2.199120521545410156e-01
2.277214485564793833e-01,2.295646467517278022e-01,2.498685637155259043e-01,7.060445433096444170e-04,-1.234143616702281844e-04,5.014848681885788204e-04,2.133931219577789307e-02
2.218021706185363817e-01,2.355678672179868094e-01,2.503084090860386857e-01,1.557410147311040277e-03,-3.084342586745872925e-04,3.111361250547863260e-03,2.542234212160110474e-02
2.308648721193942155e-01,2.311024991620246605e-01,2.490077568655326701e-01,4.869984339211929324e-03,-1.495591972195394609e-03,2.430006306706622519e-03,2.050572820007801056e-02
2.298530934281478588e-01,2.252845414061795115e-01,2.507530744091744368e-01,3.638150499316051764e-03,2.716450243898424922e-03,-6.812353906422182045e-04,2.482743375003337860e-02
2.002824961329175424e-01,2.453152889140340354e-01,2.482485231910765977e-01,1.592733390821769951e-03,-2.596561648531395088e-03,6.257689660179768798e-03,4.810364544391632080e-02
2.279109016682868971e-01,2.289551310338946155e-01,2.491563395458804564e-01,2.315703432225689386e-03,1.121546474286983126e-03,-9.179606799169135693e-04,2.127587608993053436e-02
2.227233542506699970e-01,2.557932575951119003e-01,2.392463509716345749e-01,2.408046495656314401e-02,2.354351769548451365e-02,-4.311738809101290162e-03,6.541012972593307495e-02
2.277477565176281304e-01,2.303492347660125728e-01,2.507581029107143200e-01,8.270764967915170433e-04,1.619979615292948727e-05,1.317144712554428132e-03,2.199182473123073578e-02
2.354982517838637990e-01,2.674511945440390392e-01,2.362896398366920725e-01,2.067490279232969685e-02,3.769100500936826276e-02,-3.413983826899252404e-03,8.108936995267868042e-02
2.712869786228392921e-01,3.231518999956460858e-01,1.430188795677360125e-01,4.023776040270424931e-02,5.059770744320563063e-02,-2.014985421477535205e-02,1.988742202520370483e-01
1.836956612969709024e-01,3.185600000603338033e-01,2.948583741827678351e-01,5.221948010519618724e-03,8.602556983188142103e-02,6.384314526810716539e-02,2.237509638071060181e-01
2.220148833959117440e-01,2.364028464346040748e-01,2.472332878502031539e-01,1.909089180012335431e-03,-1.088288117763240755e-03,3.694534353894186711e-03,2.314250729978084564e-02
2.308196872038161263e-01,2.416442879307633962e-01,2.316956487643793416e-01,-6.874553477412537715e-04,4.088471567326473657e-04,1.888159326495972117e-03,1.100327447056770325e-02
5.842623779062466882e-02,2.836728432188722615e-01,2.831035266748946899e-01,4.125587346918425935e-02,-2.606253737898126324e-02,1.722827979774876894e-02,2.421620786190032959e-01
1.621057157451048503e-01,2.688346932522095445e-01,2.767194822703689105e-01,3.615378955324285645e-03,-2.591497964058541922e-02,1.109665785040945228e-02,1.213184222579002380e-01
2.140490459360524511e-01,2.316680504137575147e-01,2.582334893411369348e-01,8.009727717793610480e-03,-7.983509287888157935e-04,4.560348535479736599e-03,4.172502830624580383e-02
2.203623336191755933e-01,2.157939793369299253e-01,2.531841743504191222e-01,-4.722464101447297613e-03,-8.746276547576094587e-04,-3.117140644642867639e-04,3.629843518137931824e-02
2.301875853450178477e-01,2.471535999209227841e-01,2.292096898663387450e-01,-6.681473157411445046e-04,9.115694997156966514e-04,6.388661645453921553e-04,1.761957816779613495e-02
2.562558538703796907e-01,2.111094161333089969e-01,2.274711407841769339e-01,1.358673483593629376e-02,8.895836989513303608e-03,-1.713054020852794804e-02,5.691050365567207336e-02
2.264367120161381308e-01,2.348514943048585213e-01,2.534467369796910563e-01,1.063610695484809229e-02,7.439064178935934218e-03,-1.867656541209052057e-03,3.299894556403160095e-02
2.261834036362050104e-01,2.271589595802090689e-01,2.321869887422872702e-01,-5.245897361722115168e-04,-1.257421831011911514e-03,-2.343907178303003113e-03,7.293046452105045319e-03
1.489602335917140086e-01,2.608552648859477907e-01,2.970141416029755121e-01,-2.766712887581604385e-02,-8.092578291633126947e-03,1.128135486154627134e-03,1.427258104085922241e-01
2.478519198217020991e-01,2.746409326837497278e-01,1.078953137155849590e-01,-1.752175400006393546e-02,-6.375586169714501927e-02,-4.739535543761273090e-02,2.095452845096588135e-01
2.496496528856659847e-01,2.912162606232221451e-01,1.659592172306316726e-01,4.089898597001146233e-03,-4.031530581682574166e-02,-9.220535960374106818e-03,1.318780034780502319e-01
1.946706034920187567e-01,2.479043826562555564e-01,2.479271854592350888e-01,-4.517281461232256976e-03,-4.789360296525840659e-03,-4.577531726017488450e-03,5.502674356102943420e-02
2.283189333321231085e-01,2.303278101046876136e-01,2.488010431825319058e-01,7.238842455181215092e-04,2.256025677665531590e-04,1.472372488437726900e-03,1.976448111236095428e-02
1.494372069393009872e-01,2.017928430542494656e-01,2.847000499905782411e-01,-9.905278657714307322e-02,-4.824500172675718485e-02,-3.201554644771358038e-02,2.311870753765106201e-01
2.633357860080897117e-01,3.376595912669753674e-01,1.023346463388200012e-01,-1.580712349934427358e-02,-6.892630313109486540e-02,-3.629012579252857001e-02,2.497291266918182373e-01
2.902878340989810124e-01,3.222804726758029537e-01,1.273907854051636312e-01,2.871581084533048056e-02,3.226457560143435738e-02,-2.522611764332453183e-02,2.006897032260894775e-01
1.694798088929843349e-01,2.613864155152872959e-01,2.600112105052351241e-01,-4.489426189794834716e-03,-4.818375191377294829e-03,5.070396387204736824e-04,9.194134920835494995e-02
2.603817431089727186e-01,2.833149312471689996e-01,1.686693029638580699e-01,5.613039697165302273e-03,2.479903482949443252e-02,1.040549594457935469e-02,1.153459101915359497e-01
2.601577802851798848e-01,2.649949940656625702e-01,1.760022666930466662e-01,3.847943627829741690e-03,-7.612755831859208816e-03,-1.351024609006512252e-03,8.795672655105590820e-02
2.210160865079484338e-01,2.364325886324172565e-01,2.539538714147362430e-01,2.854859358767998512e-02,1.231790638972940326e-02,-1.800571620578639200e-03,6.103086099028587341e-02
2.367606616790361163e-01,2.238506632337601276e-01,2.471646901114984141e-01,1.693035967778553762e-03,3.751725477633670487e-03,-4.493582997639418214e-04,2.146296948194503784e-02
2.554832525527456211e-01,2.724249106234645779e-01,1.752359234225538409e-01,2.945613764253983587e-03,-1.211742056582314382e-02,2.944673145887611535e-03,9.262135624885559082e-02
2.108339896424575866e-01,2.387801892236353640e-01,2.519376640794368516e-01,-3.161129622129190981e-03,4.256286526477740385e-04,5.456947757904545733e-03,3.796929121017456055e-02
2.342403087528512617e-01,2.446306174000360545e-01,2.216472834355592836e-01,-2.645247803142057076e-03,4.918756057196885072e-03,1.915043712695014937e-03,2.240457385778427124e-02
2.405375357001906245e-01,2.184900410360063328e-01,2.479392298822569451e-01,-1.382627153161138100e-02,7.729028639639765400e-03,1.068996255939481423e-02,4.242172464728355408e-02
1.284523148235104661e-01,3.575346279003265293e-01,3.563464415873148217e-01,4.312534890022424322e-02,5.597540804259695107e-02,2.395652912837297963e-02,2.625048458576202393e-01
2.234874971665013754e-01,1.849583926189664329e-01,2.575174785256671428e-01,-6.515899040569132772e-02,5.738711495348886027e-02,6.130552167529923491e-02,1.945397257804870605e-01
2.421208585461092355e-01,2.054113926999612816e-01,2.572620847277981571e-01,4.438082557682910580e-03,3.357188884318255441e-03,-6.907134071183006858e-04,4.719111323356628418e-02
2.086940434874698380e-01,2.164156653497332772e-01,2.609017149836118099e-01,3.304525580424390319e-02,9.034505653975516068e-03,-7.976639236362761823e-04,7.684320956468582153e-02
2.186126204775634962e-01,2.012517226000314907e-01,2.702393576169712652e-01,-2.478364267110446176e-02,3.223233005396842956e-03,1.311381870831474341e-03,7.577612251043319702e-02
1.700453814668242136e-01,2.634459816977071656e-01,2.609130350239160512e-01,-2.188776762734123173e-03,-4.530170633186060905e-03,3.034591957798286107e-03,9.272041171789169312e-02
9.749798161016531850e-02,2.900758582887307258e-01,2.941656020078390887e-01,4.271265337437246679e-02,-6.949097199763999699e-02,6.770872554510413109e-03,2.408073693513870239e-01
2.393523284391516071e-01,2.492925824353112718e-01,2.136283536778507131e-01,8.205389470661472034e-03,6.348582663875866790e-03,-3.005468806854086437e-03,3.696257248520851135e-02
2.290619686062707050e-01,2.278269974984907242e-01,2.507684734648328306e-01,1.053365073565221957e-03,1.092436072667076364e-03,5.597091372684907405e-05,2.250383980572223663e-02
2.138640385594741677e-01,2.363818910853857092e-01,2.521825649699803717e-01,4.885859360814656140e-03,-1.668581652030166548e-03,4.323841770336667861e-03,3.533506020903587341e-02
2.942595539360238766e-01,3.283030626921834561e-01,9.584523277432521748e-02,2.708418156414766492e-02,2.529435260859613441e-02,-3.789081971709457042e-02,2.360278367996215820e-01
2.241389987736760181e-01,3.347957353368741784e-01,1.959815613965183168e-01,5.639874963470997704e-02,8.013534039270690801e-02,-4.825021087284841331e-03,2.122048139572143555e-01
2.306034319664274357e-01,2.278357998054176270e-01,2.498243379497897543e-01,1.229980821084126347e-03,8.015354782024059800e-04,1.660126468783128468e-04,2.090090885758399963e-02
2.110979474096949526e-01,2.574988516249726023e-01,2.429206340970989642e-01,1.822194093641193828e-03,4.409129443675321655e-03,4.847459327205416117e-04,4.192985966801643372e-02
2.305686144486262246e-01,2.282162263261639235e-01,2.471440869395126194e-01,7.672551033297024320e-04,1.620150274859943288e-03,-3.166217801021278637e-04,1.814423874020576477e-02
2.608152850975244963e-01,2.848896298885887912e-01,1.965402188063187783e-01,-1.491353002177141576e-02,5.759824799496667674e-02,3.732239995046200687e-02,1.451104283332824707e-01
2.341196247602906622e-01,2.308212714346548067e-01,2.417078899526846070e-01,7.479818367446887210e-04,9.216905405599327191e-04,-6.093560192396562259e-04,9.941358119249343872e-03
2.045797077982341450e-01,2.607168996219721979e-01,2.314180214094321009e-01,2.493142121887484430e-04,2.632052560590824805e-02,3.191438903595129710e-03,6.688874959945678711e-02
2.192910212313979035e-01,2.205378670468595703e-01,2.536697212297842063e-01,-1.408555920550596825e-03,-3.170573095645390794e-04,3.300453980161113907e-04,3.386982530355453491e-02
2.638281466639342265e-01,2.604899828115215255e-01,1.756321964086865473e-01,5.074097054666470638e-03,6.635095923189801223e-03,-2.985197805232996365e-03,8.792783319950103760e-02
2.130762850493199689e-01,2.277921738124042139e-01,2.536755992594280640e-01,-2.823736411133002076e-03,-5.143176102842203241e-04,1.020825274342066370e-03,3.598954156041145325e-02
1.600563482539754112e-01,2.892197180732007933e-01,2.866317067380342309e-01,1.629438533130053539e-03,2.142751667556017786e-02,1.323247010896508313e-02,1.351527720689773560e-01
2.323375645530247890e-01,2.594592360308222156e-01,2.280232846780116118e-01,1.240609491602475030e-02,4.203275063464887579e-02,-3.805873146644310392e-03,8.171078562736511230e-02
2.276948435629368439e-01,2.494916622559968655e-01,2.297306754435932685e-01,1.282933190037471372e-04,7.916944728807527977e-04,5.633338801259512403e-04,2.092254720628261566e-02
2.015659693215685055e-01,2.476499245177777031e-01,2.562634214272527799e-01,-4.296448523864404567e-03,1.912931415158527441e-03,5.168496859810516909e-03,5.235803499817848206e-02
2.027666877918945787e-01,2.372636243263675782e-01,2.559430170032105933e-01,-4.992897101812431362e-03,-4.843718248192713021e-04,2.366684871291541061e-03,4.770361259579658508e-02
2.354215304374628892e-01,2.505087871750911188e-01,2.229479973074459664e-01,-6.922730826929021988e-04,2.532461766684874615e-03,3.352473495935900222e-04,2.433969452977180481e-02
2.344220472931459465e-01,2.486450618876799024e-01,2.285775482184591589e-01,-2.760191963068390694e-02,3.951692708008615329e-02,2.689184478471410428e-02,9.725972265005111694e-02
1.480986947656693364e-01,3.273331114810351661e-01,3.086166832355422551e-01,4.815992153339982568e-02,1.009979020411711087e-01,5.121996958286056945e-02,2.730402350425720215e-01
2.533268417935867212e-01,2.548214454301753751e-01,2.020639702499606449e-01,4.056874467507101635e-04,1.970451285541656786e-02,1.435557483286943777e-02,6.700953841209411621e-02
2.239586239815946622e-01,2.348167867512222506e-01,2.254516116194144049e-01,-3.854816119029113447e-03,-1.431312296048136215e-03,-2.097781345788199241e-03,1.295547932386398315e-02
2.367247791835629667e-01,2.282265249018496367e-01,2.402240653454588426e-01,1.244116790847708039e-03,4.456240877262558804e-03,-1.388905921948823015e-03,1.357232686132192612e-02
2.299854740079318449e-01,2.288989201562285913e-01,2.268790082349090020e-01,-2.007768490471831604e-03,-1.055248359810654095e-03,-1.147723689802449985e-03,5.180853884667158127e-03
2.115281217423128357e-01,2.530474228694587491e-01,2.441466664861164648e-01,1.534398253238374968e-05,3.665309524882337522e-03,4.416336503844972561e-03,3.914510086178779602e-02
2.126620846940437126e-01,2.515014664714171899e-01,2.379397498623086749e-01,8.963221934816798572e-04,-3.199735631666784409e-03,4.870549398012373118e-03,3.563679009675979614e-02
2.278855253994903629e-01,2.325025153276452372e-01,2.257246162867607708e-01,-2.182518337403585584e-03,-4.104789678590145953e-04,-1.099252149044487687e-03,7.374532055109739304e-03
1.872283177204318305e-01,2.475812402362264075e-01,2.607683985585703690e-01,-6.856892557696549380e-03,-1.170659254259459516e-03,2.804334806101245123e-03,6.914488226175308228e-02
2.280262654577822623e-01,2.332219530014412456e-01,2.250823128652021943e-01,-3.097565284047400225e-03,-1.119666615461232823e-03,-1.187059218671258692e-03,9.366477839648723602e-03
2.290500373330351114e-01,2.364895680758873631e-01,2.209153952870282767e-01,-9.486200304518053322e-03,-7.956612017191173891e-03,-5.887769958824731580e-03,2.731156349182128906e-02
2.559632329466673961e-01,1.999140542585325642e-01,2.489268944227140956e-01,9.690433797665148376e-04,5.418355332733680585e-03,-3.805413395383850338e-03,5.413848906755447388e-02
1.918552755311946356e-01,2.499595033763191976e-01,2.375233280775118916e-01,-4.449779792058100591e-03,-9.197065521100238408e-03,-6.895686599435331930e-03,5.713122338056564331e-02
2.577088971491707237e-01,2.468637295743089655e-01,2.027531579580881260e-01,-2.279501332823837250e-03,5.813061896984673613e-03,1.020530330616988002e-02,5.450829863548278809e-02
2.577803941734788662e-01,2.466867216313850253e-01,1.867693812388397934e-01,-2.271652969760265019e-03,1.736703517124109364e-02,1.966560616339749212e-02,8.036412298679351807e-02
1.750947235228352827e-01,2.560756366466607759e-01,2.626125991307241003e-01,-2.289511158285499550e-04,-6.464593235414950803e-04,3.067315779556666760e-03,8.461468666791915894e-02
1.264953128307602925e-01,3.202634747527421388e-01,3.168560221116366038e-01,9.284175313073114721e-02,2.074897424990513467e-02,5.400326176332689854e-02,2.698089182376861572e-01
2.230927220109325815e-01,2.346846026268370189e-01,2.510338118631384452e-01,2.407147891389895163e-03,7.618291093081935731e-04,1.606302331997760437e-03,2.486063726246356964e-02
2.321758210381384968e-01,2.313585080663687343e-01,2.408715495927926664e-01,8.895893608567088636e-04,2.190590729983468276e-03,-9.091029398109495060e-04,1.013115979731082916e-02
2.102515587943843134e-01,2.424431513011481854e-01,2.590508419965927844e-01,5.557582689403173584e-03,1.659740607933511301e-03,4.644759888700292650e-04,4.413970559835433960e-02
2.442625820787781288e-01,2.488343817059344987e-01,2.115965812381869482e-01,6.534089716381018612e-03,2.280633700005328668e-03,-1.239125573985065199e-03,3.722370788455009460e-02
2.428470484122982886e-01,2.522144408429848328e-01,2.065881181062434180e-01,-3.482730062978793908e-03,1.139498518539109641e-02,2.186568436758593113e-03,4.671593010425567627e-02
2.525993700720460255e-01,2.616011158761963884e-01,1.976448819967059345e-01,8.693096919555477753e-03,1.557236636036499200e-02,1.342061550021473107e-03,6.749312579631805420e-02
2.560677533157578734e-01,1.845432952330057219e-01,2.897258272392833622e-01,-3.607985208803204946e-02,1.225544381768604689e-02,1.941302575990137141e-02,1.189219951629638672e-01
2.576833170863194189e-01,2.599004472028750290e-01,1.883698521881576604e-01,1.415347882463657662e-04,7.899906782941595179e-03,7.908960678162810232e-03,7.306086272001266479e-02
1.660233862936648652e-01,2.681975447866497553e-01,2.633350120039141262e-01,5.323946936233967496e-03,1.598125837081720846e-02,3.320902495603212691e-03,1.041666865348815918e-01
2.805397694816051946e-01,2.776323556858008024e-01,1.953429451491052182e-01,8.454603470319840136e-03,1.355747867339401891e-02,3.412631301204375328e-02,1.062022671103477478e-01
2.318297137882740500e-01,2.260908863210663589e-01,2.471364121961839577e-01,2.753531985304873315e-03,2.865729364935083474e-03,-8.929849549290379577e-04,2.012080885469913483e-02
2.640770968616886760e-01,2.597977824556074733e-01,1.595581361137162757e-01,-2.159532620868025860e-03,-7.600607833228523180e-03,-1.155088249844102126e-02,1.052749902009963989e-01
2.474986775354642843e-01,1.430429132615910204e-01,2.857263344977588049e-01,-5.670916561230439357e-02,2.289628128505220503e-02,3.628273527790363412e-02,1.775817424058914185e-01
2.070407805684226221e-01,2.441606780011588984e-01,2.878028598638311397e-01,7.534219355447115130e-02,4.004168358118800203e-02,-3.618632289530479551e-02,1.751291453838348389e-01
2.255266727323360920e-01,2.268520506891944788e-01,2.472825870867552123e-01,-3.729799610740757994e-04,8.438422823678814935e-04,1.908485230002443869e-03,2.144113183021545410e-02
2.328459153454713604e-01,2.143352739209617441e-01,2.469853096435156992e-01,-4.751818714285889651e-03,7.613635833662368846e-03,5.415320876763931798e-03,3.367364406585693359e-02
2.548102308288837103e-01,2.624093041459876763e-01,1.879822615675986464e-01,2.111437215299356331e-03,4.453850985838760969e-03,2.131908654422666732e-03,7.154071331024169922e-02
2.593133631079689860e-01,2.583594119093267638e-01,2.015820245941178090e-01,7.648754912966826284e-04,1.343894872892437836e-02,6.281490938573627489e-03,6.277488917112350464e-02
2.648588010245395696e-01,2.692677167284378004e-01,1.763270639290203667e-01,6.422701204287142168e-03,5.891093817815279063e-03,2.257093671982509080e-03,9.214547276496887207e-02
2.201895253371618233e-01,2.278611818985417370e-01,2.519255956391268647e-01,-2.350683151878641287e-03,1.408977091351163130e-04,3.892359609732497748e-03,2.974310517311096191e-02
2.502306581886419301e-01,2.686155984634046034e-01,1.976900889296012154e-01,2.516223070647259988e-02,-1.986050236058817600e-02,2.610729244763860396e-02,9.587480127811431885e-02
2.260773195076312969e-01,2.312204934168510806e-01,2.443866355614361108e-01,-1.672906635491114638e-03,9.802767006941276971e-04,4.548741727220078669e-03,1.846258714795112610e-02
2.276199587500630783e-01,2.496885028722782285e-01,1.664029539249826106e-01,4.688113768914584784e-02,-5.969952720988431355e-02,7.236690483817292963e-02,1.964231282472610474e-01
2.154065206047689196e-01,2.482091611870824166e-01,2.442558651467459374e-01,-1.544067420431587860e-03,3.384501412498804040e-03,5.345105130714698782e-03,3.300288692116737366e-02
2.550013276248314087e-01,2.852171349653782606e-01,1.763343081557218750e-01,3.758467423625127743e-03,-3.512577025941623216e-02,9.950101978946294945e-03,1.162726655602455139e-01
1.897174094081367501e-01,2.600735635297090065e-01,2.575215171624443689e-01,-1.870144528828247485e-03,1.932726144490745385e-03,4.570225767745848475e-03,6.972308456897735596e-02
2.115764784747095062e-01,2.573701890280647442e-01,2.422081063174487958e-01,9.232954645166779190e-04,4.080606440281762948e-03,3.245762326466377495e-03,4.143357276916503906e-02
2.537268515696674553e-01,2.618024311166774476e-01,1.767413107938246852e-01,1.131372785529183821e-02,-1.987344564444680148e-02,1.146720375748020403e-02,9.261233359575271606e-02
2.234817551624481147e-01,2.532103577292366126e-01,2.268121474603975174e-01,-3.066202835423035298e-04,1.104097767351559616e-02,2.095285734161148657e-03,3.427879512310028076e-02
2.548796197670518682e-01,2.557545554518853570e-01,2.040229355267318689e-01,2.254683116059928542e-03,3.665412411025364622e-03,2.848489746228142702e-03,5.207266286015510559e-02
1.458051492437262286e-01,2.506831788990011023e-01,3.545211396660459813e-01,-1.044755159898749647e-01,-5.640049340175016905e-03,1.813143261159106193e-02,2.578742206096649170e-01
2.904140651869747680e-01,1.538958715901621588e-01,2.621371368423104364e-01,2.759104546874904459e-02,1.018899448445436014e-02,6.692670955166785118e-02,1.777900010347366333e-01
2.015389236094613512e-01,2.487043205124671308e-01,2.539826534364705846e-01,-4.063062382172464779e-03,2.412320877026314769e-03,5.768339318002100279e-03,5.165456980466842651e-02
2.696686089552970955e-01,1.131780770549006276e-01,2.950341619429726059e-01,-9.893158430624202082e-02,3.825164192070251018e-02,-6.518845824874360331e-03,2.509613335132598877e-01
3.559552555352949454e-01,1.271416812580296318e-01,2.615487276419232177e-01,5.274818661986550340e-03,1.332673761151744601e-02,5.845276672760636727e-02,2.247959226369857788e-01
2.740479400304162150e-01,2.379919437431655127e-01,2.256309472364387558e-01,1.340628965867466478e-03,8.357015405753715973e-03,3.944765815277011950e-02,8.235157281160354614e-02
1.989732402449576887e-01,2.525565053243395419e-01,2.557792893269832391e-01,3.524668942291522920e-03,3.646391034758652248e-03,4.176970274315350935e-04,5.596357583999633789e-02
2.261989316371905701e-01,2.474033110364919630e-01,2.335057781124303400e-01,1.229050362735240043e-03,2.292117002815605153e-03,-8.854148055454807466e-04,1.925418153405189514e-02
2.615921894641816681e-01,2.606741013758436809e-01,2.084190090236321125e-01,2.660365482708060281e-02,-7.075074978635529158e-03,3.706767778899262844e-02,9.578561782836914062e-02
2.306665970007721889e-01,2.222692928873698515e-01,2.491987743888415263e-01,-1.762615577893941830e-03,3.564137268238466369e-03,1.251123960433469986e-03,2.493395842611789703e-02
2.784360983067404871e-01,1.820763183714607658e-01,2.772345900283754716e-01,8.866995378760192392e-04,1.965251101180078355e-02,4.142590682494418086e-02,1.244195029139518738e-01
3.139416820899442184e-01,2.154984444322016190e-01,2.998773284002100303e-01,-2.376285476695216142e-02,6.587575292280054007e-02,1.111314495111480755e-01,2.454950064420700073e-01
2.230159317710280198e-01,2.343300788639746113e-01,2.443870820119850851e-01,-1.649149953793578550e-03,1.728565556091164702e-03,5.295488284113875760e-03,2.107579447329044342e-02
2.746384938593101621e-01,1.886457868177365826e-01,2.231328588337098406e-01,2.927639603709083355e-02,-7.597960820568249590e-03,7.775360088669311387e-02,1.627877205610275269e-01
2.241757750295143847e-01,2.317695217562813215e-01,2.452613055360589878e-01,9.664565972522807039e-03,-7.384154043791269634e-03,5.790362278513521560e-03,2.977448515594005585e-02
2.135324465246185854e-01,1.722634292190969862e-01,2.479476757321322222e-01,-7.147918526953615792e-02,5.373188159765283217e-02,6.537793209012572604e-02,2.027802020311355591e-01
2.351892877969428974e-01,2.342395159271168370e-01,2.346104237039272900e-01,5.846075274963506447e-05,1.438384879410005120e-04,-2.109522682573309086e-04,9.450849029235541821e-04
2.378757438397980650e-01,2.282624703920927978e-01,2.414299763524017928e-01,9.624342641005416421e-04,3.304391574127659749e-03,-1.092583753943054958e-03,1.335411798208951950e-02
2.221561264057988205e-01,2.382460528204922434e-01,2.449867835884764478e-01,-8.513609869759680704e-02,6.411823289896832756e-02,5.171469636519815394e-02,2.061890363693237305e-01
2.929985447988613378e-01,2.092084355971126908e-01,2.778079335615472600e-01,-1.336044523795566416e-02,8.955699736777839037e-02,1.030542293297770778e-01,2.498721778392791748e-01
2.322059564594075032e-01,2.295068210248147056e-01,2.444333142412476734e-01,4.038693509231874325e-04,1.861962070816402214e-03,-2.228229563563131140e-04,1.417165808379650116e-02
2.430750904313987160e-01,2.152474618485844537e-01,2.573063142210647580e-01,4.455805428951939255e-03,5.238554429292895803e-03,-6.792599267875940039e-03,4.065997898578643799e-02
2.273041195799543335e-01,2.346188325784156203e-01,2.483086669397636392e-01,2.093101237282011737e-03,1.489789544817730037e-03,-2.016388951011036882e-03,1.931457780301570892e-02
2.284923237468189650e-01,2.264593367727031903e-01,2.459631416930495029e-01,7.280300618907224047e-03,4.679818224108598518e-03,-3.205171750320851606e-03,2.450327016413211823e-02
2.546113925335272143e-01,2.471571284230797139e-01,2.201924462277313199e-01,-1.186510019090231648e-02,1.309859857559276045e-02,3.106839248450329188e-02,6.940071284770965576e-02
2.328623129753151499e-01,2.337785231624932847e-01,2.385809886201580299e-01,9.354255293470665426e-04,1.030337086491119481e-03,-1.925135806263942890e-03,6.725434679538011551e-03
2.295696565264171152e-01,2.345574269472487094e-01,2.417597462172003941e-01,1.460376619925686081e-03,1.185377979932082356e-03,-1.769341478484807778e-03,1.151867769658565521e-02
2.802847725124883449e-01,2.003883644420831056e-01,2.064902807399147111e-01,-2.233140298554743206e-02,4.795873444090607146e-02,7.636319190994259043e-02,1.783910095691680908e-01
2.668586990560820049e-01,2.684134147072614884e-01,1.703138609745655230e-01,1.472808931939569065e-03,-1.751641014499495099e-03,-3.640641771085110709e-03,9.761607646942138672e-02
2.320381779551192736e-01,2.395591515575500319e-01,2.348733405786430639e-01,-2.579987811019040719e-03,2.164420478704767031e-03,2.121986555003577569e-03,9.529514238238334656e-03
2.628543659739863148e-01,2.504470872090344136e-01,1.748322927162974383e-01,8.870368468455158348e-03,1.321670576019670813e-02,-2.249644447034173170e-02,9.533140063285827637e-02
2.277207428710563974e-01,2.469983589370655652e-01,2.331777282227062986e-01,-1.029897452923713179e-03,1.175068418458221449e-03,3.052614545925150941e-03,1.820679195225238800e-02
2.234746522607733710e-01,2.300053092383106956e-01,2.468442982617594650e-01,-2.102463423357789525e-03,1.778202979372047431e-03,3.801478444056931479e-03,2.241141349077224731e-02
2.290387156734497165e-01,2.291948166823203348e-01,2.419489363461524711e-01,-1.718270161525645764e-03,3.317422764033266334e-03,1.772959977683325741e-03,1.469647139310836792e-02
2.154142183080084982e-01,2.487295616208484161e-01,2.441372421782984359e-01,-1.414947963221913421e-03,3.414841441267228543e-03,5.147651266033266212e-03,3.314349800348281860e-02
2.260032362546629259e-01,2.399489303112486982e-01,2.365196166857465865e-01,-8.822270259159038308e-04,1.261630374226966602e-03,4.983695446911476368e-03,1.549322996288537979e-02
2.808077583624528084e-01,2.572706902953177943e-01,1.403646127800962096e-01,-1.355609636438605096e-02,-5.780887032256164237e-02,-1.049315072184865555e-01,2.461329251527786255e-01
2.301295858049128562e-01,2.344129226668403010e-01,2.374314281253473713e-01,-7.006028453120015332e-04,9.202226669691739545e-04,3.656004238671817577e-03,9.192370809614658356e-03
2.419456885636067367e-01,2.314078953117024717e-01,2.326761465821405861e-01,-2.107169356833912127e-03,1.012223915877798978e-03,1.721401484619541986e-03,1.116122398525476456e-02
3.590316786855021203e-01,2.631665883371321346e-01,9.030412586890534943e-02,3.390945790061494075e-02,-5.263061595878981008e-03,-6.686812548547481361e-02,2.694247961044311523e-01
2.314256671485163952e-01,2.234781832558231929e-01,2.569896319997003187e-01,-3.964663358975917956e-02,1.883879384204547799e-02,2.048982494210974462e-02,8.921667188405990601e-02
2.940222057734385164e-01,2.508734431980119695e-01,8.428629174574381322e-02,-3.811030616533223319e-03,-2.267612838608417183e-02,-7.389435336621461015e-02,2.340265810489654541e-01
2.207047641701816720e-01,2.530405081967040948e-01,2.349662419213988662e-01,2.254313711594475880e-05,2.571712480916334403e-03,1.994804459693397258e-03,2.862891927361488342e-02
2.115038322930180847e-01,2.496536704898724146e-01,2.428318496873155818e-01,3.465172612771170047e-03,4.409113815627789361e-03,-1.045283842789419132e-03,3.659668192267417908e-02
2.446670603036232849e-01,2.415480567349353735e-01,2.126317406905650631e-01,1.835946280272049078e-02,2.498367155386943886e-02,-2.000465789538893521e-02,7.085472345352172852e-02
2.293110707687805727e-01,2.530487995341549889e-01,2.260440572451874741e-01,1.556238792811363370e-03,4.352653336662896943e-03,1.212755312888813639e-03,2.683690376579761505e-02
2.740393636783915454e-01,2.479478578784504172e-01,2.054012853579490760e-01,3.719451333712429919e-02,4.281861259878808751e-02,-3.403687842221259779e-02,1.293336898088455200e-01
2.183524807220122710e-01,1.754405753667531154e-01,2.703632396136773086e-01,-4.680524700031458984e-02,3.903950866205493399e-03,1.080618065621892672e-03,1.157577261328697205e-01
2.528391996001784214e-01,1.819932466062337273e-01,2.654656810858000981e-01,-1.014370504243846186e-02,6.321549246682840913e-03,4.946074689633365128e-03,8.108682930469512939e-02
2.520448041777519355e-01,1.799218442132735074e-01,2.659720644035326043e-01,-1.859719100770092573e-02,6.388280359516137867e-03,1.582539045922728288e-02,9.116738289594650269e-02
2.206793463804332389e-01,2.503558593756172179e-01,2.362158950909686306e-01,-6.099324309191539711e-04,2.271721397504049191e-03,2.698315650036800170e-03,2.644711919128894806e-02
2.302131888244256519e-01,2.492144135626026547e-01,2.288429294562777383e-01,-6.067592247496325425e-04,8.785110703879566449e-04,4.644859279868064801e-04,1.982492953538894653e-02
2.407515998424620551e-01,2.562266411117156695e-01,2.000626226747718450e-01,2.090034461552393581e-05,1.674652636081719326e-02,4.016450585573770431e-03,5.843345448374748230e-02
2.231043343403332491e-01,2.540774681345164265e-01,2.335590479044176160e-01,1.521858603283654434e-03,1.633549029929279089e-03,5.988291168473568182e-04,2.758351340889930725e-02
2.353296432937313221e-01,2.538436766156467739e-01,2.215500424547391933e-01,2.754482276472792080e-03,2.645123293022102334e-03,-4.994433724714672116e-04,2.884896285831928253e-02
2.507505270817674825e-01,1.803591544275763292e-01,2.536143001216681903e-01,-1.861643133831075020e-02,7.095582791250232453e-03,1.317941124921416345e-02,8.292514085769653320e-02
2.262504751081263477e-01,2.497067388538749544e-01,2.343606551335644106e-01,1.795489339548309547e-03,2.088081391060546237e-03,-2.423579349091905047e-03,2.158957161009311676e-02
2.110110672465266568e-01,2.540509074292462977e-01,2.421608677947708621e-01,1.972370866574005028e-03,4.382783940957571747e-03,2.545616769760347588e-03,3.963323310017585754e-02
2.520371161781433389e-01,2.131365345349657270e-01,2.355413523917627427e-01,-3.833268279857682086e-03,5.746550031200797597e-03,6.276261844024823115e-03,3.748326748609542847e-02
2.321991862015372332e-01,2.433272819309369728e-01,2.296947248889011362e-01,1.808175005553189392e-03,6.068601136373001723e-04,-3.351082234032530137e-04,1.300872582942247391e-02
2.382173666959096214e-01,2.405520543368259156e-01,2.223378327703453838e-01,5.507657862199721345e-03,3.072925379305566779e-03,-2.018332529388263546e-03,2.064549922943115234e-02
2.315593127378825500e-01,2.310001515049968646e-01,2.415541832255355958e-01,7.604368418818847029e-04,1.770866664341762221e-03,-1.849616851679308348e-03,1.127851009368896484e-02
2.609942403171297554e-01,2.106894528265539079e-01,2.038600592008801282e-01,-7.959092300046950036e-04,-1.536957894574832000e-03,-2.713841558876428986e-02,7.168843597173690796e-02
2.227456501452185211e-01,2.776326921138630999e-01,2.266802426321034014e-01,3.072236969856798755e-02,4.398810622624116373e-02,-8.109246062421493831e-03,1.079159006476402283e-01
2.340753380069115763e-01,2.327930560934346471e-01,2.364426882696941401e-01,2.852100272831410667e-04,1.518487430848374561e-03,-4.512146298864041236e-04,4.249286372214555740e-03
2.575762934724536435e-01,2.639316426726637244e-01,1.737373724025857435e-01,-8.017381923974099345e-04,-9.581860371986253636e-03,-5.604210791014960225e-03,8.929595351219177246e-02
2.436494227304329963e-01,2.652791071188855820e-01,1.749500564822781823e-01,-1.599335077942529854e-02,-3.367694726757803486e-02,-3.983611618500710466e-02,1.249156221747398376e-01
2.283282245298079993e-01,3.047947955927914343e-01,1.324516144735205514e-01,-3.864993183516606673e-02,-9.109341994016728616e-02,-7.290065242640828003e-02,2.601726651191711426e-01
2.302041069189332545e-01,2.414093940735494437e-01,2.342973456128000509e-01,1.364456475238433894e-03,1.189236026919815968e-03,-2.206093361063559376e-03,1.099435146898031235e-02
2.295926826652333053e-01,2.354812353565354510e-01,2.423778870176223621e-01,1.233932619575283307e-03,1.335025701248910819e-03,-2.520076270551531699e-03,1.232141070067882538e-02
2.382995099158347341e-01,2.326252205017995400e-01,2.310910055240460170e-01,2.170515123354725771e-03,7.891322647194339880e-04,-1.427517954338096071e-03,8.085293695330619812e-03
2.634890350513975910e-01,2.789904526837359011e-01,1.113967298620015811e-01,-1.269425465157380216e-02,-5.267089889126005953e-02,-4.947998739679446145e-02,2.046482861042022705e-01
2.917741822636673032e-01,2.914680799399266276e-01,3.054425366228727401e-02,1.675189271627804469e-02,-1.645885578864376628e-02,2.614103258647763189e-02,2.680780291557312012e-01
2.495612431986348190e-01,2.309502712769493926e-01,2.193103994932210643e-01,4.193988427508435826e-03,4.067137362509856517e-03,-1.119002399084502615e-02,3.430054709315299988e-02
2.636577298607326592e-01,2.582331492602357725e-01,1.314293553060387199e-01,-1.850920633603848897e-02,-4.873428631963337698e-02,-5.958712914118338699e-02,1.886828690767288208e-01
2.327156734623195000e-01,2.354474053116194510e-01,2.367446776586842883e-01,8.348635765745817316e-04,9.373016767932548787e-04,-1.914580724386303907e-03,5.330340471118688583e-03
2.301744261529766189e-01,2.367702883304908523e-01,2.383154451533446849e-01,-7.333379533064516035e-04,9.313703434940822940e-04,2.071859681534178599e-03,8.554417639970779419e-03
2.302297487819673916e-01,2.492261259802305839e-01,2.268778334408101671e-01,-1.629929303335524464e-03,2.892500939840723147e-03,9.239567687025942826e-04,2.171180956065654755e-02
2.325395173393995374e-01,2.367442043228369930e-01,2.338713997031207081e-01,-3.676959200313113579e-04,2.671697249421869447e-04,1.501834879458277972e-03,4.608624149113893509e-03
2.313452024846394672e-01,2.367413596704311396e-01,2.347992229357421801e-01,-6.970249187465045199e-04,1.187577205761944366e-03,2.143624070946699694e-03,6.471804808825254440e-03
2.297321228834664497e-01,2.309032640633157940e-01,2.410871557313261360e-01,-2.904014338276948780e-04,1.111958633901813766e-03,1.731910302728663668e-03,1.140047796070575714e-02
2.282766508405319195e-01,2.263628517817479202e-01,2.439693046688913569e-01,-3.202718243675584282e-03,2.569141800130706962e-03,9.285629974184507474e-04,1.825143769383430481e-02
2.340270487752638406e-01,2.373993857324516454e-01,2.340360571564322756e-01,-3.531713677061137100e-04,7.745134490632715968e-04,7.063560639248887092e-04,3.874658374115824699e-03
2.673332215373999676e-01,1.751896563591700540e-01,3.571246311098656978e-01,-7.506990440719386870e-02,4.830730238141098948e-02,5.893522081334515161e-02,2.432159036397933960e-01
2.696873875123346198e-01,2.805211909057933606e-01,1.575653046695442705e-01,8.758761993974592791e-05,1.462198077298157602e-02,-6.166972613617921614e-04,1.206068471074104309e-01
2.646015843905005216e-01,2.602060238695884098e-01,1.782149781723241511e-01,4.176445439884944426e-03,4.848002887714702655e-03,-1.714231883038415914e-03,8.505234867334365845e-02
2.822126668165965691e-01,2.793491971782035566e-01,1.549961467707544061e-01,-4.440896455907168954e-04,-1.700223464512762642e-02,-2.309864661575445482e-02,1.352642774581909180e-01
2.301994211539405977e-01,2.453734577053267307e-01,2.291043643438068489e-01,-1.898941163606227868e-03,2.758820223339748974e-03,1.321954556112165833e-03,1.693991944193840027e-02
1.468131548990327939e-01,1.940609007787772455e-01,2.936870309200219076e-01,-1.016570148899686998e-01,1.916358136812492188e-02,1.926212372968425304e-02,2.237902730703353882e-01
2.302110564966411144e-01,2.456159247448356509e-01,2.317434688801301435e-01,-4.719694100100565396e-04,3.495507244779296461e-04,1.760566958970753151e-03,1.504610385745763779e-02
1.962139097355391770e-01,1.976814111976903932e-01,2.716208656469376592e-01,-5.014971018970999089e-02,6.308617064830413478e-03,4.848260519804965633e-03,1.153802201151847839e-01
1.705617326298947412e-01,2.597771397891037171e-01,2.852029580448999790e-01,-1.028637960849832986e-02,2.395131313389734645e-02,2.215467075897952637e-02,1.199381053447723389e-01
2.288371059100051119e-01,2.469737444338392096e-01,2.297097712144038628e-01,-3.165349735923960362e-04,8.002329491381395075e-04,1.566694460801035336e-03,1.798491738736629486e-02
2.349479563013672778e-01,2.346668037934243334e-01,2.366488423617282844e-01,-1.110975799535504150e-03,1.149351272366751176e-03,1.862817453110259501e-03,4.639651160687208176e-03
2.152615821738558255e-01,2.481308785338176282e-01,2.361212568399534417e-01,-2.046795697604215404e-03,1.900167366627360330e-03,4.009584845440117284e-03,3.002505935728549957e-02
1.451457075161135535e-01,2.549164615284925661e-01,2.908010682058286278e-01,-9.850810559134191846e-02,1.620976117393392937e-02,1.660673823462367749e-02,2.190971523523330688e-01
2.299698306161120365e-01,2.169930038967293195e-01,2.574000145848685528e-01,-1.168799805492076217e-02,3.748865967157424123e-03,3.171507935762173103e-03,4.193966090679168701e-02
1.770355080356403599e-01,2.331588306652163933e-01,2.746050482077629917e-01,-5.335297254654088744e-02,-3.262792443663912068e-03,-1.314034189545088688e-02,1.276059448719024658e-01
2.308490413684984033e-01,2.415290165349739671e-01,2.339130163265426832e-01,-6.586891379381023008e-04,8.524059708886496224e-04,8.628822243801401561e-04,9.820475243031978607e-03
2.007247571050959634e-01,2.353168868531491376e-01,2.599065892959134261e-01,-4.280199115709704995e-03,-1.118182099699284400e-04,-3.093729701057689688e-04,5.203041434288024902e-02
2.277123655706599636e-01,2.503598799435689526e-01,2.299815969636688773e-01,-7.042765142374764848e-05,8.456477336292294580e-04,1.746337723467144361e-05,2.165243774652481079e-02
1.874908774889094132e-01,2.494275527791997293e-01,2.651032531379995394e-01,-1.756781284853679154e-02,1.540360157173403452e-02,7.891293572001275083e-03,8.292945474386215210e-02
2.230701571129999339e-01,2.507027059205866881e-01,2.349643553812557073e-01,7.044163420757424332e-04,1.283227776410810926e-03,1.559855572566440840e-03,2.429178357124328613e-02
2.354233438094164022e-01,2.497124125102960779e-01,2.141348101855693464e-01,5.602973738710489288e-03,6.072958605361594882e-03,-2.068920948222325445e-03,3.434000909328460693e-02
2.384473605837359733e-01,2.533969227863649976e-01,2.396315597129844432e-01,3.231872290209028553e-02,3.414442749474164845e-02,-2.241486710320331546e-02,9.135366976261138916e-02
2.279732009245738489e-01,2.506991905783900743e-01,2.298226406875466532e-01,4.597729125839245543e-04,7.648972592727514399e-04,-2.828864254795190642e-04,2.192008495330810547e-02
2.049716174002348401e-01,2.536911480365980909e-01,2.437341893257480019e-01,-6.663065335004493030e-03,2.526883345965460007e-02,1.432043219117608637e-02,6.820257008075714111e-02
2.302438167707662187e-01,2.474208659447072189e-01,2.311951799840798738e-01,9.910683748590451772e-04,7.572163651679310586e-04,-1.301688878170632196e-03,1.701071672141551971e-02
2.302151022189524998e-01,2.468966755725768292e-01,2.297979822900979296e-01,1.115703311167547682e-03,4.204602638553968917e-04,-3.661542451444951894e-04,1.703155972063541412e-02
8.209506020387744019e-02,2.945246879748557589e-01,2.951848204571547729e-01,-6.581982632422829493e-03,4.579373055833407639e-03,2.009849524069095769e-02,2.160364389419555664e-01
2.501191111942244749e-01,2.312027375508811933e-01,2.232686984129459706e-01,-1.615937312803941619e-03,2.760775818206651772e-03,3.955532731997233112e-03,2.546565420925617218e-02
2.381768944242788622e-01,2.285068599455068183e-01,2.375475063881437032e-01,2.757977498624948403e-04,3.968143899041649651e-03,1.048410725759824037e-03,1.177215669304132462e-02
2.302259360128761645e-01,2.414211203832496155e-01,2.357578629209435284e-01,1.362753822822856693e-03,8.283996205724413701e-04,-2.922818260712499103e-03,1.128104887902736664e-02
2.342159378391031055e-01,2.426633989853699547e-01,2.272841941776411467e-01,3.435178849227682636e-03,2.376624548703058608e-03,-1.373452433830652658e-03,1.536130905151367188e-02
2.356801632729382534e-01,2.570821443815873297e-01,2.139607650143398043e-01,-2.083204457234524940e-03,8.324275205602660668e-03,-2.368851010815909526e-04,4.019556567072868347e-02
2.403135980821729523e-01,2.226447702125743111e-01,2.389142212611633231e-01,-2.031685276792510441e-03,5.802083814954942485e-03,2.844730547416873291e-03,2.066575922071933746e-02
2.325512880947870620e-01,2.414199537959450248e-01,2.328960318888800840e-01,8.347305681468738386e-04,3.115205528314660697e-04,-1.381281694726445471e-03,9.155322797596454620e-03
2.383837048151876414e-01,2.316979444534434107e-01,2.335048684225532745e-01,-2.163853247435961347e-03,2.291847909927455500e-03,2.398086384264350168e-03,9.107175283133983612e-03
2.345624773887604597e-01,2.342594948813135070e-01,2.367528481129660134e-01,2.544300104230926615e-04,6.890876021505662908e-04,-9.517644017664483608e-04,3.144751535728573799e-03
2.364424192109524092e-01,2.330772675929382032e-01,2.328325177223207199e-01,2.488207812037144650e-03,1.071939775161431189e-03,-5.301161257970979628e-04,5.922122858464717865e-03
2.372792610794922374e-01,2.284004387858246665e-01,2.399380998921341046e-01,-4.180938166673261493e-03,5.314551865128401900e-03,6.191893727407652738e-03,1.901849173009395599e-02
2.319153092069529687e-01,2.307153424576108558e-01,2.415549235966405195e-01,6.622431757381940388e-04,1.402979049631477041e-03,-1.402559035082922949e-03,1.091107539832592010e-02
2.449885230568150107e-01,2.278537788044193435e-01,2.357765897684511169e-01,-2.837134544702475236e-03,5.378472303597708198e-03,7.196239593008866078e-03,2.206591330468654633e-02
2.344858062723434444e-01,2.351299127155359325e-01,2.348222677377559409e-01,5.689925615167743108e-04,5.051110389391986902e-04,-1.064071584761782166e-03,2.333404496312141418e-03
2.347624575451514595e-01,2.350603829824405300e-01,2.341881446358000940e-01,4.221839012314639885e-04,3.924974737990635744e-04,-6.977389189752376429e-04,1.745593501254916191e-03
2.570021153334205444e-01,2.488217646910027003e-01,1.956948551260108415e-01,6.316845177039644849e-03,1.348395164305347168e-03,-3.696753724928201340e-03,5.907743796706199646e-02
2.543243074003348481e-01,2.495581352985953294e-01,1.956503710191966339e-01,5.359980581612638559e-03,1.799520681179198316e-03,-3.824270231898703638e-03,5.766693502664566040e-02
1.684718962339810666e-01,2.729287353654769044e-01,2.823502182394594939e-01,1.847935777587562944e-02,6.545964050208591227e-03,1.981650694018355710e-02,1.196462512016296387e-01
2.815935443049777387e-01,2.406170195378011800e-01,1.753270502836109523e-01,2.398602631164155341e-02,2.701263133260352334e-02,-4.820913758293044610e-02,1.396588981151580811e-01
2.625445182237817199e-01,2.620567652581027862e-01,1.708909991282369645e-01,3.690029676168282008e-03,-2.026504916737812984e-03,-4.558842557699699372e-03,9.204031527042388916e-02
2.359408891600218161e-01,1.812840274852811073e-01,2.519848002369865503e-01,-3.440710967102952184e-02,-2.027105521571801253e-02,-2.052824256421007659e-02,1.008474603295326233e-01
3.021121575443841967e-01,2.605002688766148711e-01,1.477847810501500547e-01,-3.148741819021253635e-02,-5.730408697498286935e-02,-9.637766448312591605e-02,2.445776909589767456e-01
2.600693434037851803e-01,2.617250918539402171e-01,1.823724883877829439e-01,1.582801210087607250e-03,6.053064899450999068e-04,1.014567738168134546e-03,7.861229032278060913e-02
2.473405708412576010e-01,2.329319736237605576e-01,2.204297437772596846e-01,-4.560454812714780266e-03,1.083588491656251387e-02,1.166767068148762652e-02,3.697430342435836792e-02
2.324170211662263674e-01,2.316585237548956511e-01,2.414096251077507138e-01,1.397735635462814903e-04,9.828211498987900370e-04,-3.551560190099347118e-04,9.570681490004062653e-03
2.101679315820518257e-01,2.428318280199130430e-01,2.546567846082145037e-01,5.516677808797682686e-03,1.213513354839474041e-03,2.425515903939424230e-03,4.130832105875015259e-02
2.300244467713278007e-01,2.491022840090086343e-01,2.285650082006138450e-01,1.716594997106015916e-03,6.453211415906332307e-04,3.117877218232215303e-04,2.010765485465526581e-02
2.088828644491257103e-01,2.816092006829237215e-01,1.337843681398976359e-01,3.964604282397208093e-03,-9.922058616502871242e-02,3.476517695401082353e-03,2.144950628280639648e-01
3.030181649144919609e-01,2.613138769749221435e-01,2.395024783050865858e-01,9.874278209310516363e-02,8.597312922863342699e-02,-6.438653410923027287e-02,2.588165998458862305e-01
1.820784271277751942e-01,2.566954559218133092e-01,2.599251742919918007e-01,1.445800791157934428e-03,-3.916823811380538110e-03,6.081783639918223773e-03,7.734587043523788452e-02
3.528210066612338380e-01,2.196220570616059520e-01,2.785326384691331758e-01,1.458945121852789351e-02,5.073262032030258217e-02,1.253765243850244737e-01,2.624563872814178467e-01
2.213518076246242805e-01,2.424355842735851363e-01,2.483320361235797080e-01,3.505032940731463154e-03,2.171159598110956358e-03,-1.405742359210953923e-03,2.570095658302307129e-02
2.548874024844083319e-01,2.349715546965613910e-01,2.164443192258213300e-01,-1.206374369074828933e-03,2.926342130782100606e-03,5.984190678973793330e-03,3.530400991439819336e-02
1.733325095858313514e-01,2.634852688740306204e-01,2.675124093620649401e-01,-2.147763019079307486e-04,-6.132523064434149240e-06,5.455500700821741197e-03,9.271581470966339111e-02
2.367535894940577534e-01,2.238580888020682280e-01,2.476125510984377442e-01,1.696076978147236305e-03,3.535973260015960132e-03,-3.382426982404562223e-04,2.169620431959629059e-02
2.640624230485539292e-01,2.460688834549161486e-01,1.813766608944145375e-01,-3.992928718962257539e-03,-5.272404137509749747e-03,-3.147124571749261579e-02,9.367729723453521729e-02
2.248556663139849587e-01,2.413373078838641217e-01,2.423933586928020689e-01,2.530927339999141778e-03,2.441978888273711127e-03,-3.009520142293922208e-03,1.882666721940040588e-02
1.224449678850139944e-01,3.278141113512553217e-01,3.566871638814165246e-01,-2.546658803628451193e-02,4.906099091287977054e-02,2.909708731370577034e-02,2.462646514177322388e-01
1.754323142321696505e-01,2.614179039109683078e-01,2.639745689186401290e-01,-3.993896140052867125e-03,-9.646487597365384619e-04,2.442866440812618747e-03,8.768376708030700684e-02
2.562461743621063937e-01,2.485336688342069944e-01,1.849840573092732809e-01,-2.905695034768600998e-03,-4.185902536740453324e-03,-6.199385251410127924e-03,6.914734095335006714e-02
2.318491436288488694e-01,2.848790568418279046e-01,1.904628869876001107e-01,-5.803056494861232734e-02,-9.671370940061461974e-02,-6.631907389869363956e-02,2.409930080175399780e-01
2.584208035360703315e-01,2.263150757380157641e-01,2.368100396333741031e-01,1.369210069757533345e-03,4.069029417149729738e-03,1.473953430128715353e-02,3.887197375297546387e-02
2.565532084888300646e-01,2.228182552791172499e-01,2.034216248457046128e-01,1.194324080842495538e-03,-7.952026765279431031e-04,-9.556340294023983953e-03,4.948502779006958008e-02
1.618289582004105998e-01,3.263702686177265000e-01,3.385652758082622338e-01,9.045498153827417898e-02,-1.808015641200813942e-02,4.972331761923475674e-02,2.493458539247512817e-01
2.596664301362359706e-01,2.102932991116959194e-01,2.540400685023014304e-01,-6.591822256815246805e-03,2.615343253252093089e-02,4.205958142872942562e-02,9.839186072349548340e-02
2.408598416180538215e-01,2.312450907802277855e-01,2.293633492774048155e-01,2.285273785167902475e-03,1.968206426134629441e-03,-2.407726388592209416e-03,1.259989012032747269e-02
1.694475560098299416e-01,2.593272851379444521e-01,2.608993967948284309e-01,-4.732296886063919704e-03,-4.921482030814222294e-03,1.090275175691098096e-03,9.146338701248168945e-02
2.297380161382306107e-01,1.973106657570033728e-01,2.568002581544986396e-01,-3.029184646366294559e-02,1.979966208687668552e-02,1.922804232861074006e-02,8.774665743112564087e-02
2.321498328506475251e-01,2.303392434320019055e-01,2.446877960511477379e-01,6.145811469721125433e-04,2.300968206203805790e-03,-1.087873569474237133e-03,1.427398901432752609e-02
2.380763796650521291e-01,2.446788551932872202e-01,2.196400148751858628e-01,4.833235961216993115e-03,-1.784500380499166525e-03,1.984412356868498362e-03,2.442673593759536743e-02
2.285322845753763321e-01,2.138627742362282924e-01,2.491249815053963590e-01,-6.902885070080782420e-03,4.432001026760737372e-03,2.116294612598183019e-03,3.400958701968193054e-02
2.363194612501023362e-01,2.106085110544912431e-01,2.521735716043936315e-01,-3.862660252196049165e-03,3.452033655097441756e-03,1.077015733521868423e-03,3.747025504708290100e-02
2.277723039327097243e-01,2.309155201658442680e-01,2.439090905857926594e-01,-1.169963412134003783e-03,6.395173496795686493e-04,4.492346979174543673e-04,1.501642819494009018e-02
2.544317290108683571e-01,1.918988662950475987e-01,2.564079916377504653e-01,-3.680992029222140451e-03,7.429605464846240209e-03,2.156331891239470725e-03,6.525366753339767456e-02
2.742179165903940730e-01,1.460353899875547201e-01,2.506780001243950617e-01,4.527439348035484923e-02,-6.415181886744999312e-03,6.877304351546618955e-02,1.855517476797103882e-01
2.056866551724994274e-01,2.260681032558997106e-01,2.598128340316866458e-01,-6.902907243720475886e-03,2.048340459339471952e-04,-1.481861255081590731e-03,4.890338331460952759e-02
2.518412406362319778e-01,2.246660079439514734e-01,2.212832212995112235e-01,2.100169581623861741e-03,1.044466533710275381e-03,-4.201520780997192520e-03,3.018820472061634064e-02
2.581645255464153910e-01,2.431922487975252400e-01,2.157959881177631545e-01,2.828556997586438668e-03,-1.446617875412057545e-04,3.612529665039994602e-03,3.805423155426979065e-02
2.935372281228139091e-01,6.851961796383906900e-02,2.952101485545379211e-01,-4.691525745576492074e-02,1.561023307118730719e-02,-4.586865725427409848e-03,2.416804581880569458e-01
2.692425007731622522e-01,1.754735780875158746e-01,2.642506332537271629e-01,3.479853442039302931e-03,2.381076020285204705e-03,-3.302278328831498126e-03,9.184497594833374023e-02
2.846507033537419851e-01,2.672378940326888275e-01,1.612360062020393170e-01,-1.542174414401733043e-02,2.522920637707963543e-02,7.496477524523191549e-02,1.812941730022430420e-01
2.517923479406778409e-01,2.281535982659745887e-01,2.130400059771167809e-01,4.447648386214825972e-03,9.926599677699031801e-04,-5.433664126501053931e-03,3.599100559949874878e-02
2.504265490749540413e-01,2.472633236386944655e-01,1.900406097178483356e-01,-9.280098925146113009e-03,-1.898990635014355041e-02,-2.169433439540253278e-02,7.885173708200454712e-02
2.529727925492701868e-01,2.185072900330762014e-01,2.244405326965561165e-01,1.017103951347684328e-03,2.972891108609436624e-03,-4.009014270881156028e-03,3.311217948794364929e-02
3.319710296892591228e-01,1.229981183545201806e-01,3.497761207326715027e-01,-3.391737294772458056e-02,4.824041968856052770e-02,4.804390117179322545e-02,2.550778388977050781e-01
2.170820790801830935e-01,2.468982581496979856e-01,2.441190457159267968e-01,-1.861042151422672396e-03,2.678655797187623044e-03,5.143548154224574474e-03,3.041623532772064209e-02
2.576346627263713662e-01,2.297046476583133878e-01,2.198616219786914960e-01,5.044321713267337602e-03,3.930292468896616140e-03,-1.166744577671560354e-02,4.102379456162452698e-02
2.628223834663280800e-01,1.822972182193029200e-01,2.562750704463505613e-01,-6.159891602436923935e-03,3.563701498854403814e-03,2.163377457975135428e-03,7.852336764335632324e-02
2.842082008938520143e-01,2.798041467476938271e-01,1.698511315672021627e-01,5.133312507820274664e-03,2.236735632049891703e-02,1.574777765717471148e-02,1.221361011266708374e-01
2.359047967753360175e-01,2.601046858348807223e-01,1.964110672641434241e-01,2.908700996541075529e-03,-5.820926814103006067e-03,-6.732359768741500404e-04,5.682890117168426514e-02
2.427870243391876404e-01,2.007819870469275125e-01,2.542698314737086851e-01,-9.271861214747319918e-03,5.410060399870695973e-03,6.622846211641115382e-04,5.220764502882957458e-02
2.972646273949168805e-01,9.599785264349042224e-02,2.661215961670111430e-01,-7.339119681736818758e-03,2.039183102472079401e-02,5.584974143528825818e-02,2.144220024347305298e-01
2.289100771302465809e-01,2.371052616498525167e-01,2.368260824463109537e-01,6.604881682993809242e-04,-9.123470216454892048e-04,2.952699787934022317e-03,9.742291644215583801e-03
2.321699888558595992e-01,2.595744321539790733e-01,1.973966944085703279e-01,1.205538906895114136e-02,-2.949127537880526922e-02,1.692187388935401451e-02,8.256743103265762329e-02
2.479635808088290483e-01,1.853926444339650814e-01,2.635330464143645357e-01,-6.492203429343236520e-03,3.721362533326601392e-03,-1.001269911437922258e-03,7.281981408596038818e-02
2.339817709261758916e-01,2.316732709804402157e-01,2.408956697516567158e-01,-6.736248345302332482e-05,1.494729349374929140e-03,-2.848358691524394658e-04,8.720754645764827728e-03
2.490715047201925436e-01,2.214455470243252289e-01,2.200181734894396668e-01,3.822469997012995814e-03,3.263184824948678082e-03,-8.029486081870516184e-03,3.276981040835380554e-02
3.565351728007762899e-01,1.843140810274385977e-01,2.538906917321221424e-01,9.259106417468986050e-03,5.879465989361339073e-02,8.113720843709046338e-02,2.299909144639968872e-01
1.911923356148922393e-01,3.322929030509756965e-01,3.091739617794447281e-01,-3.400384993762915926e-03,9.410927841499878987e-02,4.976992140273428511e-02,2.263122946023941040e-01
1.988946549305445621e-01,2.575207992094761256e-01,2.613714086691990013e-01,-3.426184273444431248e-03,1.068505793834281792e-02,8.348130436604052004e-03,6.530237197875976562e-02
2.429631579940317865e-01,2.141826100175975023e-01,2.497381787695277799e-01,4.359980101649979511e-03,6.276621360190925286e-03,-1.973243201578512521e-03,3.544159978628158569e-02
2.750443649799512724e-01,1.597113247224433707e-01,2.876126525769301390e-01,-2.632615535023819994e-02,1.616166544190701659e-02,1.513480555097414942e-02,1.358646154403686523e-01
1.806720864929123038e-01,2.524144395801432017e-01,2.572278212934662189e-01,-1.461506045598958206e-02,1.099569918044965787e-04,3.947373531658715864e-03,7.875937223434448242e-02
1.883707062699092882e-01,2.819177801576568387e-01,2.180031627397980565e-01,-6.719577726687082919e-03,-5.856593444163511047e-02,-6.300411963770381329e-04,1.314673423767089844e-01
1.762292716385437663e-01,2.563829564354103696e-01,2.671592152542816012e-01,-5.888698588233934154e-03,8.745229397082142104e-04,3.080277499088617302e-04,8.666664361953735352e-02
1.206201487520190685e-01,3.558537984817469746e-01,3.206982320832097444e-01,3.773158564832595346e-02,1.006100612758709240e-01,3.156968806550145001e-02,2.931366860866546631e-01
2.313324655729487034e-01,2.339115444429034352e-01,2.189037832894900060e-01,-5.062739021530447692e-03,-3.679563823032005673e-03,-2.494984137018600463e-03,1.814840920269489288e-02
2.597594301856453458e-01,1.693688459892714882e-01,2.675694471216456538e-01,-7.373690303295937776e-02,2.650093444068561677e-02,7.358419099411793451e-02,2.088051587343215942e-01
2.324376178558296702e-01,2.303074321030654514e-01,2.442164501134702626e-01,5.334397945586455761e-04,1.606489141689534461e-03,-5.641692989322935224e-04,1.333868969231843948e-02
1.688589722124110848e-01,2.638065616286894288e-01,2.721318524679873230e-01,-3.110816889886450914e-02,1.182470913946115712e-02,-2.096891825223434216e-04,1.148807182908058167e-01
9.306795823358596231e-02,2.836174196929183156e-01,2.902328517210741032e-01,-3.396214647410222831e-02,-4.880358524164227652e-04,8.731167844428984817e-03,2.032317072153091431e-01
2.183766866055261990e-01,2.175407356184199115e-01,2.431169918525110107e-01,-1.141966092736035332e-02,-8.343827844591587481e-03,-8.249362275826271212e-03,3.791705891489982605e-02
2.138715868514181051e-01,2.198061318685475829e-01,2.608752145951936940e-01,-3.269186601570873291e-02,-6.167055102677361685e-03,-3.286623354376941655e-03,7.292731106281280518e-02
1.964613660566798536e-01,2.502764153612758724e-01,2.635382524559759521e-01,-1.229654797548141061e-02,1.461532105592867762e-03,5.902463218685443172e-03,6.595576554536819458e-02
3.283915932120214376e-01,3.483686444233204949e-01,1.030936828530479299e-01,1.446988536326910754e-02,-5.875569345853251524e-02,-2.762640640321844393e-02,2.625519037246704102e-01
2.595428048350484351e-01,1.933390960430564076e-01,2.624134298925626108e-01,5.730129416658459075e-03,1.173406374659849037e-04,5.453835263417481597e-04,6.841530650854110718e-02
1.815657649048272315e-01,2.493903936719705505e-01,2.652901350897979849e-01,-4.230420498795005660e-03,-1.924973333607847038e-03,4.693646343467645053e-03,7.786060124635696411e-02
2.515983957608833310e-01,2.364703802189550841e-01,2.247557609381051480e-01,1.336307014270933947e-03,5.153219597858196659e-03,1.394099969724722082e-02,3.480498120188713074e-02
1.687310344002953821e-01,2.692649433105262502e-01,2.424038492305410908e-01,8.961099113834981519e-03,-3.251380578335424237e-02,8.279968474586727953e-03,1.083796769380569458e-01
2.276275996178104000e-01,2.497105669983348264e-01,2.148215869878297157e-01,-5.464268106825714497e-03,-1.012545443085256271e-02,-5.090249615787747865e-03,3.754100576043128967e-02
1.879439120508789030e-01,2.684131529926908621e-01,2.649351376135893887e-01,6.835752066465122963e-03,5.479078557843214403e-03,2.530813093982083213e-03,8.035533875226974487e-02
1.841407719425354750e-01,2.427591137402486943e-01,2.566933690358887410e-01,3.918701839662824815e-02,-1.048811022678079741e-02,9.818832503588132560e-03,9.835229068994522095e-02
2.270712288204726759e-01,2.556745909364245284e-01,2.216748774233843200e-01,2.751662932461525733e-03,-9.715302823372841574e-04,2.342944791535517702e-03,3.230544179677963257e-02
2.555569879723573190e-01,2.039969852753556190e-01,2.449034540809583438e-01,5.369037037036218825e-03,-1.059959193090173266e-03,9.965240429469477551e-03,5.109211057424545288e-02
1.916190929380802710e-01,2.631461609659630496e-01,2.527130734802239820e-01,9.196060857514991999e-03,-1.277921582964876464e-02,6.135415088930296253e-03,7.304300367832183838e-02
2.217271815506731136e-01,1.995462014078273061e-01,3.007019090072878820e-01,5.404284948512788622e-02,-2.120795672053510383e-02,5.760747928149310970e-02,1.689610183238983154e-01
2.634664012795374100e-01,1.593591517601469776e-01,2.603643866602151635e-01,5.289371573069642785e-02,-5.585045835636508194e-03,4.655721491052925570e-02,1.597326993942260742e-01
2.291679716233053221e-01,2.490950028982656106e-01,2.285997925545351361e-01,2.526582806384820336e-03,5.187499729379064888e-03,-1.295402628783022363e-03,2.266378328204154968e-02
2.484144026450030296e-01,1.982348466600547532e-01,2.595832593225079754e-01,1.108456761489227602e-02,1.000363550416413392e-03,9.438649874914698760e-04,5.981184914708137512e-02
2.423896382231794377e-01,2.422626648785324854e-01,2.245332153659998220e-01,-2.780041685285023195e-03,2.527410704081038163e-03,2.403703194093527798e-03,1.939802430570125580e-02
1.937896593686835311e-01,2.477083207835840684e-01,2.554917204908839223e-01,1.073405185979797900e-02,-2.179729081945440058e-03,5.698029005252463683e-03,6.200636923313140869e-02
2.213856418533544923e-01,2.414100497360509023e-01,2.511461788278447349e-01,3.514227905630169790e-03,2.193404880318168982e-03,-2.276798974450407100e-03,2.752749994397163391e-02
1.989509073037384612e-01,2.561301254536910710e-01,2.510835276003338112e-01,2.693492640295767817e-03,2.569264174699998314e-03,9.659659552172939877e-04,5.523348599672317505e-02
2.327184265502827143e-01,2.366523912593428147e-01,2.357276605606913322e-01,5.974018863819467989e-04,7.365060877863753358e-04,-2.006182362309695717e-03,5.240767262876033783e-03
1.857585394877606655e-01,2.863331205851101235e-01,2.719926204522296609e-01,1.035139742547542228e-02,3.840854170949811047e-02,1.305752047926626858e-02,1.188999786972999573e-01
2.483845035781660771e-01,2.604334459933413393e-01,1.819063394371740472e-01,9.868433354486712793e-04,-6.967487935326189402e-03,-1.794414801708220895e-03,7.432182878255844116e-02
2.524031907321991897e-01,2.012180775506039743e-01,2.746992349905744146e-01,2.239450463709687089e-02,-2.271808204351048396e-04,8.077811331922337551e-03,7.719264179468154907e-02
2.074381608087832174e-01,2.459112334638786923e-01,2.353039474105381723e-01,-2.635689253796676471e-03,-3.756842383416578689e-03,-5.603706582841452150e-03,3.663309663534164429e-02
9.726586334323472638e-02,3.482848501391954676e-01,3.332293474916931952e-01,-1.277675613532119024e-02,-3.827391005935388418e-02,3.153033181947503122e-02,2.594703733921051025e-01
1.190056065862702683e-01,3.554371013086597975e-01,2.948210928609854564e-01,4.166868703983901343e-03,-7.970550766987474778e-02,2.862604766193725669e-02,2.584801018238067627e-01
9.388916817390355329e-02,2.855887676184349910e-01,2.805338840859013527e-01,-2.763751393052737981e-02,-5.787331346164139440e-02,-5.476349725587522504e-04,2.194211184978485107e-01
2.351015851935144840e-01,2.572964649092487899e-01,1.986302040609497221e-01,-2.363097106131740316e-03,-5.028565539640017165e-03,-1.663172746857635286e-03,5.227965861558914185e-02
1.954119220585355254e-01,2.563600944890477851e-01,2.527556086201081520e-01,-8.691108068486419480e-02,-8.233281132583673834e-02,-5.588155606192061337e-02,2.363745123147964478e-01
2.170601189734228664e-01,2.508938539009475388e-01,2.193489654575894454e-01,-1.226632694457675246e-03,-3.179637996194342644e-03,-3.236447092230122346e-03,3.374593704938888550e-02
2.241580130764900258e-01,1.995429413480906689e-01,3.119156516402925572e-01,8.780722435843468787e-02,-2.823709321713929743e-02,2.678169973140315588e-02,1.952986717224121094e-01
2.321024088708372457e-01,2.427143102672311703e-01,2.291097692881676751e-01,4.185586505733882544e-03,4.754970506928708936e-03,-3.440485404788819288e-03,1.758474856615066528e-02
1.772514229785927264e-01,2.661760883382555676e-01,2.630852402411479329e-01,-1.367881383292258654e-03,7.919366939763432603e-03,8.897173965379272589e-03,8.985286951065063477e-02
9.689124822046496499e-02,2.921949662789786739e-01,3.574292548752377452e-01,3.100022868315907044e-03,5.440995857298588922e-02,2.124029252451661159e-02,2.557404339313507080e-01
1.274996464384662853e-01,2.658046219661492349e-01,3.518898974301655214e-01,-1.025297431154614941e-01,-2.799519907321016202e-02,1.692913016168192102e-03,2.689643204212188721e-01
2.569516607065813751e-01,1.809039522049144255e-01,2.578914240448261230e-01,1.530220613772920527e-02,-3.664691011996499583e-03,1.411424813792436402e-02,8.482925593852996826e-02
2.639397236168711247e-01,2.033442380533741489e-01,2.500582665927085224e-01,5.352232999225447346e-03,-5.690062728782116106e-04,8.730230619741359208e-03,5.778335034847259521e-02
1.887773017520894270e-01,2.476341594538282176e-01,2.580072521260817209e-01,-5.207990871182316406e-03,-3.990493430188718320e-03,-8.939804814174217174e-04,6.567950546741485596e-02
1.888308689596869816e-01,2.479577854366076806e-01,2.600068445013190566e-01,-5.218327427279349090e-03,-3.905840177559863347e-03,-2.039733158964903044e-03,6.703384965658187866e-02
2.534575448520280938e-01,2.435763225266200926e-01,2.062891320325117295e-01,3.509915912921076145e-03,-1.595690986996614515e-03,3.814204641160769300e-03,4.409827291965484619e-02
2.239568395128749834e-01,2.320661039055634811e-01,2.556053381843430006e-01,1.536695603749516775e-02,1.779992751896220405e-03,9.776551404349050414e-03,4.260773956775665283e-02
2.645328505012846665e-01,2.650708807675318246e-01,1.701619742259243562e-01,4.655900426001535405e-03,-1.049012597716360556e-03,-2.685855994644328719e-03,9.511519968509674072e-02
2.670950962525085459e-01,1.765640955796533296e-01,2.676551789834983319e-01,7.151258396491491295e-03,4.814136098130465669e-03,1.784036292331317919e-03,9.208353608846664429e-02
2.357608024643585154e-01,2.496072827326207832e-01,2.029578634619699506e-01,-5.951663662699174448e-03,-3.963270942874269620e-03,-3.503779612171641772e-03,4.372850432991981506e-02
2.624321484473246535e-01,2.628641051725174593e-01,1.781587971726437125e-01,2.493531569240782769e-03,2.359269703158986650e-04,1.156302268733345366e-03,8.462516218423843384e-02
2.282851265301717725e-01,2.470986357055398042e-01,2.231778856421592627e-01,2.833709009954787656e-03,-2.493578151588621630e-03,1.852247801764627354e-03,2.300332859158515930e-02
3.272616896757537530e-01,3.407542342958491677e-01,1.117205699531026719e-01,2.173255671183984758e-02,-5.056606722341690230e-02,-2.923850962963427114e-02,2.473875284194946289e-01
2.478907050290106162e-01,2.474146217595479813e-01,1.961129009897111808e-01,-5.324603356118296112e-03,-3.805019501625870812e-03,-3.813783739867991802e-03,5.318496748805046082e-02
2.279837543027607438e-01,2.558911457392420985e-01,2.083295481602601418e-01,2.234474160679830626e-04,-8.984984584418350198e-03,-5.963147216842113081e-03,4.541613161563873291e-02
2.169986204832679844e-01,2.554021213660112588e-01,2.239366725625355770e-01,7.060903000585529339e-03,-1.742875435699625664e-02,4.488200830528865648e-03,4.876274615526199341e-02
2.268889059454199941e-01,2.438662302067503285e-01,2.275476927044078335e-01,3.521369758028639312e-04,2.038560534602927598e-04,3.952585196653166403e-04,1.668665558099746704e-02
2.537193920827867655e-01,2.425168096379914373e-01,2.074110022430661615e-01,-1.752247709938496028e-04,-1.080304056756790683e-05,4.369361610021250952e-03,4.252713918685913086e-02
2.196639728207090414e-01,2.536263823531877404e-01,2.210630141495079082e-01,9.659219836998516207e-04,-5.491252260691146907e-03,-1.032897627326795180e-03,3.470373153686523438e-02
1.524133313826955549e-01,3.287582796375243532e-01,2.512804976860346096e-01,-2.919454887587885628e-02,-9.726179151283828594e-02,-9.991751563546874201e-03,2.338238060474395752e-01
2.541663562641827134e-01,2.583005638959802730e-01,1.875977648327229741e-01,8.748724521123662709e-04,3.567933677145908051e-03,7.860421127190571041e-04,6.903634965419769287e-02
2.179909493177757951e-01,2.474208185081968048e-01,2.326276803504412349e-01,4.539727366724651859e-03,-7.059810417340240188e-03,5.716923289958633983e-03,3.096762485802173615e-02
2.219104631157650109e-01,2.445931673207566714e-01,2.337497388408755483e-01,1.383242193395365282e-03,-2.039760104275683411e-03,5.034258995906283445e-03,2.191757224500179291e-02
2.195373085207640851e-01,2.435270992031576820e-01,2.417155356834591040e-01,5.030912421141287873e-03,-4.117410118649363938e-03,5.899160131289097296e-03,2.768614329397678375e-02
2.763860636621264799e-01,2.724218072887678033e-01,2.289980229615303231e-01,1.006443183885255555e-01,-1.535008641762711928e-02,1.282067621761844023e-01,2.871917784214019775e-01
2.003400153896457980e-01,2.453983356525704373e-01,2.511947764874981615e-01,1.612213781625282871e-03,-3.700528634251732535e-03,4.759205148922252861e-03,4.941516369581222534e-02
3.144534757122445234e-01,3.544544831160210130e-01,1.700019213440291388e-01,3.143930271064814680e-02,9.894559513039177800e-02,2.813156971399186079e-02,2.509077191352844238e-01
2.379463657900732221e-01,2.366308693809629771e-01,2.357883610481735226e-01,3.178565548141313538e-03,-2.987429122451847052e-03,5.379228203690565070e-03,1.214252784848213196e-02
2.283825465389861809e-01,2.538269864310442325e-01,2.132981778559837061e-01,3.030934622761883180e-03,-2.145778468232518391e-03,-1.510356455642394716e-03,3.615228086709976196e-02
1.976221690587976754e-01,2.584172817727814486e-01,2.494659928516101688e-01,1.158973145462866786e-03,9.584938937808899426e-03,1.060968829988557073e-03,5.928740650415420532e-02
2.511745376045722566e-01,2.237156364549324206e-01,2.268944406288441185e-01,-2.575539558820735299e-03,3.841227290856634793e-03,9.969916477822282283e-03,3.223619982600212097e-02
1.871726727153552594e-01,2.605559803459051027e-01,2.572948473860277030e-01,-4.250098751227522793e-03,1.508565648827476461e-03,5.594325183925684397e-03,7.287893444299697876e-02
2.672888263791624031e-01,1.588986259121499822e-01,2.944842785798471030e-01,8.868672491345206896e-03,8.090281330440813115e-03,2.264775374454604251e-02,1.319349408149719238e-01
2.481882483508411619e-01,2.432114796357363051e-01,2.190546830615317797e-01,-1.831890243528424937e-03,2.958838397017863556e-03,3.032350967201715916e-03,2.815064787864685059e-02
2.512468710609015443e-01,2.240378025615301638e-01,2.348746415594422654e-01,-6.068738049516084762e-04,3.348969160063561181e-03,1.811444880502670936e-03,2.464763447642326355e-02
2.570311827901871626e-01,2.325795523211179328e-01,2.015675942171780144e-01,7.314933440461407824e-03,-3.415393954853368757e-03,2.489452465123753386e-02,6.612600386142730713e-02
2.513816488654210812e-01,2.251841904612058298e-01,2.299184834402705768e-01,3.582705618485997057e-04,1.577089901093438199e-03,3.864162973783767142e-03,2.524551190435886383e-02
2.564565673310112426e-01,1.963409402985661634e-01,2.529544845469279823e-01,-2.230659293941315586e-03,6.495615122270133844e-03,1.162970908714783605e-02,6.295140832662582397e-02
2.383808482125642780e-01,2.441970911005277856e-01,2.195921023570011066e-01,5.224940343717792042e-03,-2.180830456327612771e-03,1.552683180476392309e-03,2.448522299528121948e-02
2.425946601939769076e-01,2.224913376651152241e-01,2.240356678369442578e-01,-3.712896649294103978e-03,-3.517047196189639763e-03,-3.989487322088685478e-03,2.239857241511344910e-02
2.584737846812175666e-01,1.939679765904047948e-01,2.561995334798842783e-01,-1.618708624322289647e-05,3.271910790426397347e-03,3.860902444862439678e-03,6.400238722562789917e-02
2.315086364615292491e-01,2.283178178060051577e-01,2.280560707457526537e-01,-3.171152239150083849e-03,-3.647206310966100151e-03,-2.281847208390414775e-03,9.837706573307514191e-03
2.479195256722653840e-01,2.397582033797717727e-01,2.291407506638125924e-01,2.116049165311430572e-02,-2.043106618018943749e-02,2.434002378904975145e-02,6.810935586690902710e-02
2.062852432954315196e-01,2.937494167856428695e-01,3.231041887539108926e-01,1.171301848408662916e-01,-3.309524927168903952e-02,7.367493111362211078e-02,2.679691910743713379e-01
2.387532371318831503e-01,2.229768801223937502e-01,2.231759475516430224e-01,-2.715190916689919857e-03,-1.157412016347164098e-03,-9.297216093311026081e-04,1.656868308782577515e-02
2.349436210728817198e-01,2.263341485711128920e-01,2.248573765975964978e-01,-1.974615546847272203e-03,-9.917292850227202739e-04,-5.667561880780261005e-04,1.022886298596858978e-02
2.427341155855887722e-01,2.512932997983634009e-01,2.180674339246899407e-01,-4.031481988929130271e-04,3.128622370307288045e-03,1.977075390808955956e-03,3.056812658905982971e-02
2.232787712182978945e-01,2.455824852795202295e-01,2.506026684959607453e-01,-1.950900526631886914e-02,4.335259948056365692e-02,1.446992732441172193e-02,8.968227356672286987e-02
2.390790874808962074e-01,2.237482622596019821e-01,2.232670210308687619e-01,-1.017991253284062769e-03,-1.056227219772257761e-03,-3.874003423788550146e-05,1.578302495181560516e-02
2.167030430439867983e-01,2.546988257205914374e-01,2.228392429164530730e-01,-1.241411418939396836e-03,-4.735460653494436012e-03,8.103191337630858858e-04,3.635999932885169983e-02
2.164256779339181480e-01,2.318831892374123571e-01,2.556119398033584456e-01,-1.162161020681763343e-02,9.380117917367047226e-03,1.215452033380549218e-02,4.776105284690856934e-02
2.433371781544228507e-01,2.482871098376878971e-01,2.180205410188740811e-01,-1.577179344020516018e-03,2.959086132500934364e-03,2.789388759870206104e-03,2.911739423871040344e-02
2.547804038548375782e-01,1.877154254307372705e-01,2.584469601525477001e-01,2.969953977456552333e-03,1.189318285221547091e-03,1.075859973603346571e-02,7.165891677141189575e-02
2.038021308926488140e-01,2.656498942623450876e-01,3.121657232188983500e-01,-1.070288504751755986e-02,1.072933074828312933e-01,4.321220670142045250e-02,2.221415489912033081e-01
2.544435387728583575e-01,2.154461175388835692e-01,2.261563111884545285e-01,-7.104636659408639131e-04,-6.738634186903215851e-04,-2.042988902951377653e-03,3.511744737625122070e-02
2.692622117312518659e-01,2.174068287564623336e-01,2.158562267128511514e-01,-1.052103488036702783e-02,-9.723433311653324751e-03,-2.999055005352386366e-02,7.801155745983123779e-02
2.347475431250822808e-01,2.306411206885013165e-01,2.250240658587688569e-01,-5.918279625186056818e-03,-4.640887028457154825e-03,-5.429409876071227339e-03,1.815508492290973663e-02
2.580846155312068180e-01,2.486925114682190241e-01,1.860204055089014485e-01,-2.585097790551181985e-03,-4.448899373000847306e-03,-7.512005193343091955e-03,6.966594606637954712e-02
2.309319209313871468e-01,2.308211767443932583e-01,2.440322015271588207e-01,3.604540511775503314e-04,1.116190549790280770e-03,-1.883862028512890870e-03,1.370600704103708267e-02
2.566018999269878975e-01,1.940547728573110142e-01,2.518690022289710728e-01,3.777888441017579306e-03,7.270583387413964357e-03,-3.553793828894835551e-03,6.227201595902442932e-02
2.825577371639165225e-01,2.707406067082822609e-01,1.622172075013531001e-01,1.385447167197361362e-03,1.837583558362311867e-02,4.849321456759592142e-03,1.195354685187339783e-01
1.534780254115101494e-01,2.855736895196497316e-01,2.711626878934021989e-01,8.681966107113588127e-03,5.675123087162895624e-02,2.069653863321932810e-02,1.640932261943817139e-01
2.124148479808779799e-01,2.443079110363761131e-01,2.568812794761264895e-01,5.442779750286175222e-03,1.011193662380861389e-03,2.405363626056313334e-03,4.105553030967712402e-02
2.440243122256881836e-01,2.258421170978753834e-01,2.310261061197939336e-01,8.017210607285574133e-04,3.136783565327531942e-03,-4.872311229624320906e-04,1.718628406524658203e-02
2.325299304709939618e-01,2.219379517577515781e-01,1.984963874193916844e-01,-3.086232656927466456e-02,-3.929861959065478194e-02,-4.299973605501052065e-02,1.180996000766754150e-01
2.434795447565825111e-01,1.952183274321733497e-01,2.483442972725998787e-01,1.315705086088863815e-02,7.925351941208674117e-03,-3.221678661765326086e-03,5.767568945884704590e-02
3.196415525980079719e-01,2.051147939855216262e-01,1.898147511497972340e-01,-3.229166513600500998e-02,-3.467080997739240694e-02,-1.049697545123736420e-01,2.342928349971771240e-01
2.464393116283199459e-01,2.025293516811633721e-01,2.369998220144584611e-01,-3.049888948757903135e-03,-6.103238207789365120e-03,-3.895068322410218109e-03,4.228320717811584473e-02
2.830964230654565150e-01,2.409740221309051855e-01,1.340603933672154247e-01,-1.744861604070747918e-02,-3.473190936294837106e-02,-7.015189199758864458e-02,1.923653334379196167e-01
2.233246732460692219e-01,2.520594212885854946e-01,2.233998663101988968e-01,8.300151241513664072e-04,1.131806971692126892e-02,7.024433722564156577e-04,3.480479866266250610e-02
2.255437413349172804e-01,2.420162937224961397e-01,2.419628656217161500e-01,2.482705094728121595e-03,2.079007448364132184e-03,-2.500121406860570956e-03,1.790747977793216705e-02
2.654022670699470732e-01,1.667928947011546037e-01,2.655272921070888636e-01,-2.473411548078648017e-03,4.709460024074384361e-03,-2.114899064292834890e-03,9.916885197162628174e-02
2.547923013312474727e-01,1.376364116798682313e-01,2.976584595637324915e-01,-1.016105606562437980e-01,6.591769058119598471e-03,-2.112662188879637151e-02,2.302791923284530640e-01
3.154127977830043505e-01,2.780804583701443344e-01,1.198825980421857063e-01,-1.395454893778556513e-02,-5.103771477829526643e-02,-1.013669886996921010e-01,2.674896121025085449e-01
2.519836891973004089e-01,2.126201624545369651e-01,2.300352991570474293e-01,1.024882743685971926e-03,3.737756037065826167e-03,-5.986901463924588183e-03,3.632967919111251831e-02
3.710510962505786936e-01,2.509474111706799238e-01,1.892653255717563487e-01,4.782027413350894290e-02,5.634123166010571865e-02,-9.595878729749907077e-02,2.639041841030120850e-01
2.499623902131070385e-01,1.768703471231270474e-01,2.266703999969069960e-01,6.543605176497038767e-02,5.038588949213462787e-02,-6.109498838839114154e-02,1.893202066421508789e-01
2.391670335100038181e-01,2.280220186389145809e-01,2.301537929866949161e-01,4.336466028475939247e-03,4.399820644477180423e-03,-6.004973161151360740e-03,1.810155622661113739e-02
2.338527359689219765e-01,2.527952799299300612e-01,2.218369108784256083e-01,6.745827395104179221e-04,2.003009644555130662e-03,1.120848743252696178e-03,2.734923362731933594e-02
2.267800532253296808e-01,2.536100820323771710e-01,2.052761415934286349e-01,-3.039939054291727980e-03,-6.706378639686642017e-03,-2.116365750414117390e-03,4.399211704730987549e-02
2.438136988647169046e-01,2.287582587922586674e-01,2.253350003210141672e-01,2.625730404365591089e-03,1.159522745976044244e-03,-2.094096305262966532e-03,1.810514368116855621e-02
2.324034046655077401e-01,2.279901739626706558e-01,2.445761957394569919e-01,3.271220364958900804e-03,3.164768050837731689e-03,-1.598023253643130435e-03,1.706416532397270203e-02
3.278037311632795991e-01,1.878504348744129693e-01,2.956785301530716614e-01,9.110955593450144330e-02,5.981347962880728675e-02,-4.527425759740433264e-02,2.406408339738845825e-01
2.243189152577648726e-01,2.521414497781722108e-01,2.343052119213018258e-01,1.462980357027872987e-04,1.995191933969352703e-03,8.073935195761131446e-04,2.469691634178161621e-02
2.518194640155642094e-01,2.245893232006665463e-01,2.195055836890267842e-01,2.176346811481349574e-03,8.825519259711167054e-04,-2.283137255552259229e-03,3.062580898404121399e-02
1.862501051898311777e-01,2.570591494967178758e-01,2.486150665583102548e-01,-4.002372166866779643e-03,-5.361325241834995724e-03,-2.538163858446431092e-03,6.812430918216705322e-02
2.334391270643609295e-01,2.089687372428072065e-01,2.569225221206559717e-01,2.566573166384114937e-02,1.238452659051622780e-02,-1.137011301867152900e-02,6.744682788848876953e-02
2.260422493005435074e-01,2.367451837319783370e-01,2.427541185585661287e-01,2.508731732497132983e-03,1.121390100401215657e-03,-2.097490566758904162e-03,1.583747193217277527e-02
3.488785349911026623e-01,1.498211175915311888e-01,2.503625740834981017e-01,-2.092167806997884821e-02,1.157735221516941956e-02,-1.092037919293470105e-01,2.592500150203704834e-01
2.375810780233853226e-01,2.028959935683312676e-01,2.516950062177172320e-01,-5.374410677479427197e-03,4.646064925084459653e-03,-3.356816923156656792e-04,4.520563408732414246e-02
2.297291313307788796e-01,2.318067006442795785e-01,2.487213608427715772e-01,3.466527692850105043e-03,-1.786780005133490820e-03,3.131332689037572784e-03,2.001517824828624725e-02
2.628842217528500891e-01,1.721137871400789110e-01,2.489530556157621144e-01,-1.948574424341872630e-03,1.823967242755371917e-03,-1.715536563802581502e-02,8.985044062137603760e-02
2.532751429396404852e-01,2.215460407524686981e-01,2.165692006345713294e-01,4.096051600657112882e-04,-8.085170987930007146e-04,-4.729348470776610809e-03,3.548211231827735901e-02
3.549351845695567498e-01,1.447403481243651480e-01,2.555266228724283883e-01,-2.550371956601220694e-02,3.611031687575318519e-03,-9.618799807763026011e-02,2.508298158645629883e-01
2.195798336584445232e-01,2.498823466116698588e-01,2.209874140145784982e-01,-6.461216240893637814e-04,-5.810746399603752745e-04,-1.178814036926742297e-03,2.973221428692340851e-02
2.169380154961765839e-01,1.904310956258492005e-01,2.703629334050525190e-01,-5.213404455539642768e-02,-2.003092280958477731e-02,-1.290311242213032505e-02,1.217786073684692383e-01
2.671064754758802895e-01,1.729555102367048569e-01,2.664839762644988785e-01,-2.649302336590568865e-02,3.374525286557211300e-03,1.608945690124829325e-02,1.082709431648254395e-01
3.600112167470052027e-01,9.316661724536789979e-02,3.408268321483217678e-01,1.285584632326347912e-02,3.150935800307314710e-02,-4.874423887179751141e-02,2.775917351245880127e-01
2.427013837771513638e-01,2.508104739426341712e-01,2.457884701494148227e-01,-2.307006692044467552e-02,3.587782065399500869e-02,4.067398081021338790e-02,1.023313775658607483e-01
2.422431386659161523e-01,2.524998904863355320e-01,2.050912077911942466e-01,-2.405045483056919304e-03,1.042752358150562768e-02,3.391728958252199048e-03,4.737709462642669678e-02
2.262470866589423035e-01,2.502520549355761736e-01,2.293335398411294468e-01,-1.747410617868308663e-05,3.113222336208560249e-03,1.922971589899895740e-03,2.349138818681240082e-02
2.352623328818956860e-01,2.538293551708861173e-01,2.170283742666472282e-01,-6.682000259218554613e-04,6.360128401306341939e-03,3.326427338769946847e-03,3.422937914729118347e-02
2.080807939796596728e-01,2.271095743624565733e-01,2.533317639049830206e-01,-5.646323479843773190e-03,1.645611278838911545e-03,3.143282545128197637e-03,4.101318866014480591e-02
2.677132570469446526e-01,1.566746053693801044e-01,2.641394578764166834e-01,-9.656885327778896508e-03,1.274449501762863228e-03,-1.979386282959772272e-02,1.157823577523231506e-01
2.463995113287057726e-01,1.281620122364829639e-01,3.426365643528855864e-01,-6.224487919639350164e-02,1.206241706116393392e-02,2.091462304827346533e-02,2.190720140933990479e-01
1.750712768053462043e-01,3.284374559372580382e-01,3.136158949227850767e-01,-4.150292434314452328e-02,9.142757485207468615e-02,5.518969613446125799e-02,2.466777861118316650e-01
2.575375094707455514e-01,1.114343992749763090e-01,3.269945133053546171e-01,-6.593633823208722156e-02,-1.083418398513140250e-02,-5.148858281728833225e-02,2.401383817195892334e-01
2.469915801764003827e-01,2.467913622369606597e-01,1.988129493696103034e-01,-5.897260267564396509e-03,-4.467735624994606872e-03,-4.143743873751640563e-03,5.027227103710174561e-02
2.195805425122607513e-01,2.218321468765951932e-01,2.500035982756373398e-01,-6.025497419625614956e-03,-4.128492089009269672e-03,-3.396124318174906925e-03,3.250823915004730225e-02
2.539892020525801319e-01,2.343011187047822907e-01,2.259789806278493240e-01,-1.720636514964082441e-03,4.637477176083425710e-03,1.236820049746343957e-02,3.395648673176765442e-02
2.628693532229063878e-01,1.800040047711941316e-01,2.717465036477909046e-01,-7.988911664766523745e-04,5.842524419036508598e-03,7.247466040150886239e-03,8.912336826324462891e-02
2.345692381319754993e-01,2.525916002204159905e-01,2.126480353354261998e-01,2.232644270996821546e-04,6.766740050769547675e-03,2.264216628502362019e-03,3.678739443421363831e-02
2.610778156101965508e-01,1.364025172507141448e-01,3.293338817429088405e-01,-8.862985439366712070e-02,-8.839463782269936856e-03,-3.736416588321628957e-02,2.381198704242706299e-01
2.970045818885748146e-01,5.423076657776640386e-02,2.944532767796097517e-01,2.907983813864662998e-03,1.054631083935395237e-02,-1.586543506588976304e-02,2.438040673732757568e-01
1.943442170863644292e-01,2.544743140988259267e-01,2.562664058427162050e-01,-6.779154497178026956e-03,2.495390201066006401e-03,5.959239074469191953e-03,6.316398084163665771e-02
2.223419288389849868e-01,2.409093153740393400e-01,3.342501754920015333e-01,-8.017096686027702646e-02,6.913720024156776167e-02,6.353644484551276839e-02,2.377456873655319214e-01
2.439531865804751565e-01,2.343635521912884045e-01,2.277122397654925134e-01,3.872352735219405234e-03,-1.090484745116017786e-03,2.454175922372397057e-03,1.632808707654476166e-02
2.193028121240292172e-01,2.224645944189210245e-01,2.526421363971531053e-01,-1.628981552503868876e-03,-4.367245851933023327e-04,-1.110849657277138711e-04,3.201039880514144897e-02
2.256494142106358347e-01,2.377846571341203918e-01,2.427618156789120296e-01,2.215793794602582707e-03,1.751998334883559522e-03,-2.747452999845118211e-03,1.670384593307971954e-02
2.665768135406719752e-01,2.696465647151616851e-01,1.797970647500901076e-01,7.591015306463924986e-03,1.071275223409539484e-02,3.384840071009496531e-03,9.142249077558517456e-02
2.261225252971495736e-01,2.344487268024026405e-01,2.441932401061039648e-01,-8.723959366093199256e-04,1.034923447386650822e-03,3.061929570786103838e-03,1.670444943010807037e-02
1.699728979595152845e-01,2.623754428610844402e-01,2.593246656971001651e-01,-2.194469678468993767e-03,-4.526728768908428076e-03,4.357479590043265155e-03,9.164345264434814453e-02
2.445253794145924031e-01,2.299628132375276524e-01,2.324275523663872078e-01,1.037490505496630518e-03,-2.697708903404574723e-03,2.072410046768169856e-03,1.483903825283050537e-02
2.346724310793557589e-01,2.304334069609937918e-01,2.408901281650408510e-01,1.583731738867045135e-03,2.858040211475747997e-03,-1.174644191056465866e-03,1.091582421213388443e-02
2.345024554746085177e-01,2.336475377070426351e-01,2.353032376160260064e-01,-3.382052942006680100e-04,8.260461872770544179e-04,1.561811549577188309e-04,2.126057865098118782e-03
2.416698541113708743e-01,2.341670062462423429e-01,2.287947184628143504e-01,3.118508464227873461e-03,-1.221686042013764685e-03,2.697529654121577809e-03,1.345156133174896240e-02
2.606483432241974985e-01,2.683960314799852531e-01,1.700338496437474867e-01,1.447767134960627720e-03,-4.510860467753613837e-03,-3.760248511975746409e-03,9.530381113290786743e-02
2.254191982120718196e-01,2.548543477133266566e-01,2.141194024087009762e-01,-6.506495638135583381e-04,-2.171966762467978946e-03,8.069167890292524138e-05,3.663558885455131531e-02
2.606181152607324747e-01,2.598980008168486067e-01,1.726961046479338624e-01,1.223278919915080695e-03,-4.733238130792003819e-03,-6.123063229981798999e-03,8.860959112644195557e-02
2.366829482515541150e-01,2.339703575974305672e-01,2.387950025609648363e-01,5.534260967911262472e-03,-3.657694851417397919e-03,4.186508795922603242e-03,1.421790942549705505e-02
2.363060222955917222e-01,3.064923760385216966e-01,1.645606216650439824e-01,-4.366127575632865881e-02,-1.063058721331750500e-01,-6.315427026208828010e-02,2.582560777664184570e-01
2.323513647057190434e-01,2.320784326835772793e-01,2.242322713591421435e-01,-2.395533233936012960e-03,-1.090743157188619463e-03,-1.066051175877011023e-03,9.379365481436252594e-03
1.405637573822265951e-01,2.883596735621916096e-01,2.853629091670548124e-01,-9.387043060907972539e-03,-1.759202243016549233e-02,4.415065150072205666e-03,1.505356132984161377e-01
2.395887948396727418e-01,2.769306830156046395e-01,2.200259355050248333e-01,2.980885428430079392e-02,4.958011865703155358e-02,-5.664138459588151375e-03,1.124462187290191650e-01
2.439161519723583305e-01,2.308540895192175424e-01,2.275342203208257086e-01,5.425021595518615680e-03,-4.656734716829473431e-03,6.496427696906992115e-03,2.247136272490024567e-02
2.514564960964463802e-01,2.653353469857015479e-01,1.967575153583518421e-01,3.720558392890757800e-03,1.028299198117792017e-02,1.635993816306584043e-03,6.565468013286590576e-02
2.096512950715553603e-01,1.975945766183606067e-01,2.947475262424731901e-01,8.992441715907865951e-02,-1.686672984885256854e-02,1.407960403691689219e-03,1.831156015396118164e-01
1.604461959252501679e-01,3.114228160145031676e-01,3.160040689536472991e-01,8.509179318984286255e-02,-5.835667793349017668e-03,6.968070834505801781e-02,2.447382211685180664e-01
2.393184303457454587e-01,2.343065055538851582e-01,2.308823282401932242e-01,2.725400701316101331e-03,-1.680827193737327585e-03,1.948463372741559077e-03,9.805845096707344055e-03
2.317789887066323551e-01,2.297844912956020225e-01,2.458290951070512542e-01,4.047831346841864256e-03,3.065028121786375279e-03,-1.697861226833543647e-03,1.775929704308509827e-02
1.806339760626919921e-01,2.835764131721507098e-01,1.558479077904595389e-01,-2.851883785462250992e-02,-1.063954435709806717e-01,-3.368800322455574314e-02,2.314468026161193848e-01
1.854992014988392779e-01,2.562433909002919674e-01,2.502069542371880839e-01,9.191790469542118975e-04,-1.176056636366581282e-02,3.979776996800544857e-03,7.126794010400772095e-02
2.059205106775973404e-01,2.818245098010718208e-01,2.579283711011307600e-01,3.665856671550404150e-02,-3.165786444026520707e-02,3.056671667261687264e-02,1.198324486613273621e-01
2.509487114856976953e-01,2.314663336435553720e-01,1.905685960502255250e-01,-7.195694743468589519e-03,-5.417201921904934298e-03,-1.189664454819570720e-02,5.930376052856445312e-02
1.495563415885877712e-01,3.624886306187435903e-01,2.706139028764165677e-01,4.697623994425156879e-02,-9.364149518943198913e-02,5.098807687405877004e-02,2.737587690353393555e-01
2.165348731830003814e-01,2.552229133682572537e-01,2.274588232488895800e-01,2.214600197048389486e-03,-2.459598099756481627e-03,2.382630230745708729e-03,3.526136651635169983e-02
2.857498268730831459e-01,1.903107821762998197e-01,3.197969839711132245e-01,1.062897322829914060e-01,6.723315521584960486e-02,-2.949073493314627314e-02,2.521502971649169922e-01
3.049353191928981244e-01,2.469429685989577850e-01,2.539841471832335884e-01,9.378195533823956154e-02,9.656123624927823168e-02,-5.680505727941817518e-02,2.589250504970550537e-01
2.540806927271330729e-01,2.209822568873142101e-01,2.164878889647769145e-01,-2.855620372114314742e-03,-1.946709406242355753e-03,-1.113557318273275185e-02,4.089374095201492310e-02
2.453345008464423993e-01,2.467169664815304364e-01,1.933406169654755535e-01,-6.739508957355942742e-03,-1.025166798784480672e-02,-9.535030428626592447e-03,5.917312204837799072e-02
2.529876353419852064e-01,2.161738242627407880e-01,2.287768529979841980e-01,1.317961310391390414e-03,2.352331620748916285e-03,-2.707142868840102350e-03,3.307453542947769165e-02
2.515973938296632295e-01,2.384872075495785559e-01,1.945417276675934781e-01,-6.657223740998515459e-03,-7.776105095925153407e-03,-1.052345798012031472e-02,5.766978859901428223e-02
1.442915653016057509e-01,3.233684656528751367e-01,3.361976801710099272e-01,9.992358142738336224e-02,1.813920565526734065e-03,4.614167342904473140e-02,2.662362456321716309e-01
2.381756385846579283e-01,2.181842499873873908e-01,2.434481272222855930e-01,4.222767221987937247e-03,7.263955521517866110e-03,-3.747979968609290238e-03,2.804980613291263580e-02
2.300755283041024113e-01,2.347955331025722014e-01,2.386302293171673194e-01,1.926730198236992989e-03,-7.780608638251068371e-04,3.071419682427266318e-03,9.815140627324581146e-03
2.599707774952123018e-01,1.781880018982403002e-01,2.787896674033317757e-01,2.063843274418641557e-02,5.848812199023742039e-03,-8.158122147653990019e-03,1.008055508136749268e-01
2.307532702267905966e-01,2.344209628084197583e-01,2.725142668274697644e-01,4.573168254228301283e-02,-1.001256776536130037e-02,2.603959578943918288e-02,1.010611802339553833e-01
2.867050602156247519e-01,8.862356573149698935e-02,2.892656027619170955e-01,2.083727991115711178e-02,1.167489162662283843e-02,-2.277067599121652269e-03,2.036592066287994385e-01
2.331833661589956530e-01,2.402362619510185759e-01,2.233985147159537332e-01,5.647505613250888151e-03,-4.373631433059094013e-03,2.749599024199556995e-03,1.975469477474689484e-02
2.074456764110245155e-01,2.611389343501759885e-01,2.311714262816998433e-01,1.796060437567995396e-02,-2.902602986746811303e-02,1.259036019916465188e-02,7.837599515914916992e-02
2.564468131404525897e-01,2.561558235678241258e-01,1.903034931578161393e-01,4.335883166876358663e-03,-1.310698479836556671e-03,3.051280456264736460e-03,6.667278707027435303e-02
2.473802326500212090e-01,2.328366247587804472e-01,2.152961071230644619e-01,7.233979346560568194e-03,4.830978114850895816e-03,-4.384899169412641295e-03,3.254193067550659180e-02
2.509584611150816325e-01,2.340467242868163045e-01,2.229566141468771190e-01,1.971864246954475788e-03,-7.126328399992823068e-04,1.924581085194506259e-03,2.491687610745429993e-02
2.462735380668915619e-01,2.219254727344274758e-01,2.226084667187326893e-01,3.472945392796692593e-03,4.155709021186017836e-03,-9.140793770669876361e-03,3.025427833199501038e-02
2.585463199719572058e-01,2.080576999922867099e-01,2.343151920814055267e-01,-2.627261957917249955e-03,-2.247049513654758416e-04,-1.080062569842295088e-02,4.778777807950973511e-02
3.305014847408653811e-01,2.873564612459576506e-01,2.279325285413239532e-01,7.218932244269914145e-02,-1.010059799905776642e-02,1.217524880027428813e-01,2.614718079566955566e-01
2.414968880932172879e-01,2.194744139872642497e-01,2.313272628941273612e-01,-5.823052224087068782e-03,-6.011859866047943035e-03,-7.928211567867845741e-03,2.762555144727230072e-02
1.877854421717416455e-01,2.688475070681496382e-01,2.384362549041675328e-01,-1.442569840253118268e-02,-5.762902437724379962e-02,1.864129219171620482e-03,1.250149756669998169e-01
2.406904152300059774e-01,2.500805585458364400e-01,2.146714505454350719e-01,9.219060211112531378e-03,-9.850041066693069822e-03,8.729000246093117019e-03,4.223875701427459717e-02
2.573930264104891674e-01,1.895252327782633306e-01,2.554143764311815334e-01,-2.704633773185512267e-03,5.428318487762521898e-03,3.007436963328939672e-03,6.792013347148895264e-02
2.466897449845692203e-01,2.017511822802003640e-01,2.178498995447401554e-01,-4.904533560648010465e-02,-3.793191877337383916e-02,-5.136859082468443749e-02,1.449283063411712646e-01
2.490454515462756091e-01,2.288347104278010968e-01,2.345064049150226704e-01,1.347159100672125701e-03,-1.964365036632100599e-03,1.660710625161615755e-03,1.874320209026336670e-02
2.574485682810669362e-01,2.778128808670033978e-01,2.776851062832605965e-01,-4.749143083261451320e-02,9.627246187854922310e-02,9.492462351263462883e-02,2.490293979644775391e-01
2.542363464054597788e-01,2.085636211560627507e-01,2.336806435446696084e-01,-2.885059849798683827e-03,-3.193391232617821124e-03,-1.004650163185536252e-02,4.390968382358551025e-02
2.432793864171600429e-01,2.273759043879509112e-01,2.120840273147168720e-01,-5.837731656323214176e-03,-3.273002334244500683e-03,-4.759716874310204737e-03,3.053352236747741699e-02
2.048800840409185364e-01,2.575813734076539130e-01,2.271861336628171191e-01,-6.882303787498274695e-04,2.912760875699238472e-02,2.933882355177523747e-03,6.835147738456726074e-02
3.354449228884893719e-01,3.228667946879123507e-01,1.537155738103670177e-01,3.600494562045196412e-02,-7.573263080713562787e-03,8.717367125448879928e-02,2.403265088796615601e-01
2.641080185660417134e-01,2.147511069356407287e-01,2.080824903565247630e-01,-7.895897006003483112e-03,-8.235359583006973683e-03,-2.305658745913549690e-02,6.924619525671005249e-02
2.536514697351071046e-01,2.485460774526089267e-01,1.989293749832801161e-01,5.412004220174321256e-03,1.558985047542498512e-03,-4.468436931184764822e-03,5.381687730550765991e-02
2.349939398209344721e-01,2.010626613836624388e-01,2.567764485354726567e-01,-4.789971864210255080e-03,-3.807274279676690042e-03,-2.184301242159106607e-03,4.991541430354118347e-02
2.668770174394509698e-01,2.633784122297910812e-01,1.784505079226773872e-01,2.939631985735889023e-03,-7.638918369408778707e-04,-8.900695620852536183e-03,8.824659138917922974e-02
2.305817536396015666e-01,2.275144646960218509e-01,2.271179012963423782e-01,-1.591219477934609043e-03,-2.360638499537388423e-03,-1.865247753001595538e-03,6.747823674231767654e-03
2.386521426193065620e-01,2.226109587605336060e-01,2.253867774908034360e-01,-1.768886450298165405e-03,-3.103155327918510724e-03,-4.389116827177482198e-04,1.610437408089637756e-02
2.305650947901339842e-01,2.710920215602744543e-01,2.105101976127471686e-01,3.103041346107119052e-03,2.323541207504686498e-02,8.067157118745667960e-03,6.856508553028106689e-02
2.523683879253829088e-01,2.630224539508423942e-01,1.992956745157078990e-01,3.889776586061521532e-03,2.283050929823379066e-02,1.530460239631786790e-02,7.620657980442047119e-02
2.634738573436058440e-01,2.239198253719805187e-01,1.766847002887393103e-01,-1.655643584339085150e-02,-1.974939758429864259e-02,-4.156362118756968399e-02,1.133096888661384583e-01
2.620643683723356543e-01,2.526944600481199621e-01,1.814657292032072766e-01,9.543460579462172827e-03,8.891098209784654982e-03,-9.551805574453014688e-03,8.131932467222213745e-02
2.413763974122882516e-01,2.202069159655765662e-01,2.216914706279137504e-01,-1.732935777391188866e-03,-4.030760173242302000e-03,-2.351378136095343217e-03,2.220947667956352234e-02
2.048884415237727796e-01,2.561294112937423928e-01,2.588889478141483402e-01,-8.028252064272413391e-02,5.412992640380882153e-02,6.969702350160832116e-02,2.132455706596374512e-01
2.931769145930053777e-01,2.581829667343596424e-01,8.445468629392371973e-02,1.130233693415691985e-02,2.138011996129514022e-02,-6.383086202084060912e-02,2.268550693988800049e-01
2.588292405388402107e-01,3.400343579926166648e-01,1.767683801120411569e-01,4.271005078555436402e-02,6.464548363035464706e-02,1.869563769535493788e-04,1.949402093887329102e-01
2.529047990038449378e-01,2.252771344903835293e-01,2.364314516803767141e-01,-6.797465475894263164e-03,4.758094951435462572e-03,9.948272730260001098e-03,3.290863707661628723e-02
2.679061827639015458e-01,2.817889462014262492e-01,2.645609799409718299e-01,8.166503113524507806e-02,8.944222081233588195e-02,-9.781367618421406979e-03,2.110560387372970581e-01
2.295082864543210588e-01,2.516512591402950694e-01,2.301247176530096528e-01,3.267540090577252497e-03,5.892133896096582273e-03,-1.799570095481183029e-04,2.476531639695167542e-02
2.442727715873510286e-01,2.583585264543536431e-01,2.078783351453833972e-01,2.801187682981544271e-03,4.225410246680501303e-03,8.541713839915859559e-04,4.598801583051681519e-02
2.022261352075943319e-01,2.599921107812195320e-01,2.502316246392682908e-01,4.459539622653503621e-03,1.214785981824040816e-02,2.111285279794189191e-03,5.817299708724021912e-02
2.296720278811406613e-01,2.297051055536416808e-01,2.505980648464826155e-01,4.713476677717005209e-03,-2.451857198809938776e-04,3.026899258654320180e-03,2.305483072996139526e-02
7.538502419926040865e-02,2.840307033522784796e-01,2.938305941341702310e-01,2.156433995805635828e-02,-3.709098636238683348e-03,1.584966688135191343e-02,2.187778204679489136e-01
2.839144776694217387e-01,3.042507510120133207e-01,2.522224566191629269e-01,7.034318060501777714e-02,1.057119356962670370e-01,-3.713415022562553680e-02,2.335996776819229126e-01
2.430143070024890495e-01,2.235686399102597699e-01,2.215614883377375055e-01,-3.188168505987252436e-03,-3.550840139520646324e-03,-4.474542069448731244e-03,2.344304323196411133e-02
1.721797584649326363e-01,2.645869748278050215e-01,2.522542003446472392e-01,4.430555168103177295e-03,1.909776453539118249e-02,4.994551123553054792e-03,9.369874000549316406e-02
2.608800132550231354e-01,2.446386161436649997e-01,1.998947989262090386e-01,5.309114057653253199e-02,5.809147659172308326e-02,-6.586377745805438444e-02,1.859743893146514893e-01
2.352424366602753336e-01,2.582595738946901198e-01,2.127054891640400291e-01,2.424155157891944197e-03,6.932251265987246502e-03,2.380298816274246422e-03,4.165614023804664612e-02
2.501791230145041789e-01,3.352302642833997481e-01,2.342514364080309774e-01,5.405368330563054685e-02,1.327126199042468202e-01,-2.342679989284995358e-03,2.654464840888977051e-01
2.463017861914721662e-01,2.177916968015791710e-01,2.212297335623392702e-01,-2.130525906134093841e-03,-3.154580838545894324e-03,-3.680132343513212688e-03,2.847328968346118927e-02
2.368362052159886377e-01,2.230163174757393840e-01,2.457138509086800870e-01,4.315626998063524546e-03,-3.511633731958988761e-03,3.868787661762045603e-03,2.302739955484867096e-02
2.380810143009184365e-01,2.539024616318983352e-01,2.098422109198358199e-01,5.828961696637272732e-03,-4.299210104126750115e-03,8.768376203676934077e-04,4.067202284932136536e-02
2.308070530724943836e-01,2.341917006542174606e-01,2.416171318322758998e-01,7.908530644641464762e-04,-5.702949954480219163e-04,9.723632871841208451e-04,9.869846515357494354e-03
3.192376194690791924e-01,1.643547693006652821e-01,3.501768218280923994e-01,1.008606626384423999e-01,2.243373472857368087e-02,5.466736272491654058e-02,2.659546732902526855e-01
3.267837820079846356e-01,1.652153604424551059e-01,2.790629262114416864e-01,8.750279867968671632e-02,6.398503444770710369e-02,-2.733190471775154284e-02,2.411742657423019409e-01
1.741336783115356446e-01,2.491908642043405564e-01,2.297660838805300476e-01,7.775750571692910396e-02,-5.780747291926300463e-02,5.744616328397438021e-02,2.064386606216430664e-01
1.915392279027809397e-01,2.589324742410545332e-01,2.472785355171003563e-01,5.544516596675411538e-03,-5.495498594709875666e-03,6.315975059772140077e-03,6.476703286170959473e-02
2.868440730649645110e-01,1.754555816555030956e-01,2.243146300406934635e-01,6.236172998324195083e-02,5.291673773821951171e-02,-6.328877328356150023e-02,2.035587728023529053e-01
2.274537223734224289e-01,2.178562483222347412e-01,2.440433701498781194e-01,-1.767685114213891342e-03,-4.507517334490875049e-03,-1.232975211739305212e-03,2.452416345477104187e-02
2.073170558275339026e-01,2.344199776727338425e-01,2.474566504569726544e-01,-3.762105532309359748e-03,-2.240148895281130446e-03,-6.544344978585949803e-03,3.799809888005256653e-02
2.422974132950799775e-01,2.206784918586714717e-01,2.457167680487263861e-01,2.724969985837938889e-03,-3.208457478424702695e-03,4.146743970448824208e-03,2.564640156924724579e-02
2.644456411918589822e-01,2.618999960498255009e-01,1.655176011805402636e-01,-3.372186716091875314e-02,-9.917297133401846432e-02,-4.801471879650198726e-02,2.222047895193099976e-01
2.343511074202297428e-01,2.607634353461865118e-01,1.838640621478848658e-01,5.854798369468193486e-03,-3.092997516940265007e-02,5.657332006995838963e-03,8.745785057544708252e-02
1.662231544491469259e-01,2.924305726909641190e-01,1.992799679063152751e-01,-3.869291950952276522e-03,-7.932360250312166239e-02,4.161730663797494172e-03,1.783889681100845337e-01
2.307751420774493967e-01,2.320341819204186362e-01,2.415073310795986528e-01,4.697892241527753046e-04,-5.581201719461919338e-04,2.078199327803915281e-03,1.085385400801897049e-02
2.323431106354215958e-01,2.359624542056820429e-01,2.362877643089889845e-01,7.485250007296929920e-04,-6.167949251623917276e-04,1.944804065882152662e-03,5.343392957001924515e-03
2.113183559780777709e-01,3.017247546383988732e-01,1.429172223483923809e-01,1.708170647674245660e-02,-8.502254932176139812e-02,9.708901341383437827e-03,2.046474367380142212e-01
3.631173054643802578e-01,1.030550711828714106e-01,3.499355019748249807e-01,7.606234538549264991e-04,4.161913442585801065e-02,4.939959110282005073e-02,2.773034274578094482e-01
3.556450414868387311e-01,1.166931969781001277e-01,3.542328782696656519e-01,4.642505526684843203e-02,2.807392966577419713e-02,4.000828265858687172e-02,2.653202116489410400e-01
2.493668777854394225e-01,2.962995349714966919e-01,1.238226207342159740e-01,1.130397818198517791e-02,-6.245591946989215160e-02,7.042565217566597313e-03,1.899750530719757080e-01
2.649066922693609216e-01,1.733784901859650174e-01,2.618146454530034806e-01,2.348314935216822496e-04,3.942531556956145253e-03,9.938108529181469716e-05,9.028171747922897339e-02
2.654401407784335309e-01,1.499735866147294816e-01,2.649911943337509013e-01,-1.781860474449427356e-02,-6.349941467635978991e-03,-2.780670112048372333e-02,1.291278451681137085e-01
3.199271731975357747e-01,1.173463055284205969e-01,3.298556171019129124e-01,-6.167927829398454909e-02,-1.133300884300194765e-03,-4.828332440351108812e-02,2.481120377779006958e-01
2.419168851431875156e-01,2.318063416707966673e-01,2.325205433078453010e-01,1.333292404424543144e-03,-2.051931844389590261e-03,1.294137127143531489e-03,1.088580954819917679e-02
2.272671051501874429e-01,2.663265958685069323e-01,2.206976372353566251e-01,1.686696773325868301e-02,-2.471190775790406066e-02,2.097134023134546860e-02,7.635647803544998169e-02
2.586057490482746579e-01,2.263526602702070067e-01,2.384410534339818644e-01,-2.034566844582172342e-04,5.734530277996671525e-03,1.395881958176728964e-02,3.846852853894233704e-02
2.694657990816731186e-01,1.808753956547926034e-01,2.805321681172889825e-01,2.601314702551994762e-02,2.008243586594379675e-03,1.622412589041721462e-02,1.085491403937339783e-01
2.635182576537280497e-01,1.721013279187123268e-01,2.607591049744468759e-01,-1.633720288210437034e-03,4.011561940340279894e-03,-5.163149816785546006e-03,9.082232415676116943e-02
1.794491461718725478e-01,2.741895019911040898e-01,2.408639403769335663e-01,1.083891309977017686e-02,-2.359755617613115697e-02,9.727586939359765192e-03,9.610364586114883423e-02
1.564237468654083307e-01,2.647242573578587055e-01,2.532786264434465640e-01,-1.661190927882738588e-02,-3.139226649830167970e-02,1.760996131115733204e-04,1.200200766324996948e-01
2.532717167273803582e-01,2.340261858834072894e-01,2.131258927116875812e-01,1.687997123476596244e-03,-1.247994472169118953e-04,6.768701620467211695e-03,3.681698814034461975e-02
1.916042813167080638e-01,2.610360810095851969e-01,2.472886933023610290e-01,4.525746401821735153e-04,-5.491732959265369432e-03,2.737054322027067822e-03,6.456644833087921143e-02
3.400363927383929785e-01,1.413924359701573263e-01,3.368874647784332321e-01,6.443541610899965189e-02,2.194347073922530908e-02,5.314244795216430811e-02,2.474196851253509521e-01
2.488590905928408370e-01,1.226440154090619183e-01,3.261821420293573026e-01,-7.620123091613566213e-02,-1.961541650466460188e-02,-4.512962575418938416e-02,2.373871505260467529e-01
2.628419152437617701e-01,1.531690375003315896e-01,2.792640335127072326e-01,5.517566857354883059e-02,-1.688820959745307914e-03,4.224695071936511448e-02,1.691003292798995972e-01
2.029261919032180894e-01,2.545045462850125673e-01,2.384366096561447435e-01,-1.502475578975821628e-04,-3.460448462578468668e-03,7.248112492955248801e-03,4.778435826301574707e-02
2.470955860017350347e-01,2.351831839508501387e-01,2.195586599056669475e-01,3.784780834581128774e-03,-9.914430866728453882e-04,1.412983425271717615e-03,2.498137019574642181e-02
1.754135236625108396e-01,2.647015590274667263e-01,2.586056371174976776e-01,-5.023234464116576453e-03,6.389880004097777365e-03,5.375939542756469694e-03,8.803472667932510376e-02
2.051930763457434082e-01,2.561913674799308760e-01,2.469172715019594122e-01,9.671878383055436401e-03,2.106684506573392249e-02,1.313209331476040704e-03,6.189601495862007141e-02
2.337325212371965943e-01,2.360381783731352046e-01,2.369903645010470739e-01,1.459922076525454809e-03,-2.175138129065279369e-03,2.379350122262905223e-03,6.781581323593854904e-03
1.869883329336524402e-01,2.867773731254809610e-01,2.305451333755207388e-01,-1.098675418291935463e-02,7.478620767325994123e-02,3.719721099554273991e-02,1.697071343660354614e-01
2.563581872716428345e-01,2.099010094072030763e-01,2.407694958471366664e-01,1.449887495991935074e-02,1.177124915294098031e-02,-1.701329591485828754e-02,5.993134155869483948e-02
2.227364894665999906e-01,2.490772940358933485e-01,2.237039694360440090e-01,-3.560792587319829179e-04,5.321543972285231469e-04,8.386511892368045482e-04,2.593510597944259644e-02
2.277245336176661195e-01,2.360619820098403543e-01,2.372665301619271971e-01,-2.717011956344335399e-03,1.879712840884995278e-03,6.632285360117964011e-03,1.567529514431953430e-02
2.261859433740419367e-01,2.294967939096330123e-01,2.535808784840103414e-01,3.475361875451287146e-03,1.425448350690554724e-04,6.312387743919992047e-04,2.661267481744289398e-02
2.212271619259905953e-01,2.495739480838573554e-01,2.233169561931552805e-01,7.081322436408246266e-04,-3.070608138981061313e-03,2.582952918945792629e-03,2.825727872550487518e-02
2.036613877064373246e-01,2.547335404232135003e-01,2.401518558459199149e-01,1.191552466999903611e-03,-5.005594285791312853e-03,6.301111698045983728e-03,4.769498482346534729e-02
2.435926022537846514e-01,2.178684108670130293e-01,2.178666232547437631e-01,-6.077892888332956343e-03,-5.620419975233542122e-03,-8.906121045446533172e-03,3.324645385146141052e-02
2.510424280356258753e-01,2.403459892170690948e-01,2.101129459071045258e-01,8.121850058104644263e-03,1.252955901186578007e-02,-1.657091388674827165e-02,5.333371460437774658e-02
2.411334615755168775e-01,2.592370878063786077e-01,2.077299430460537721e-01,3.633277482716186328e-03,-1.654637157398127292e-02,5.463602874393285770e-03,5.476096644997596741e-02
2.460577348904942618e-01,2.230308107791916794e-01,2.204051077314087004e-01,-1.038397002136736682e-03,-1.016363098828364274e-03,-1.226739262376142208e-03,2.466665580868721008e-02
1.948570594192407801e-01,2.611526903786586251e-01,2.369745359025296760e-01,1.468179761570843076e-03,-1.251168777923121998e-02,2.618256483997048398e-03,6.223702430725097656e-02
2.317705831361754898e-01,2.352318482358293494e-01,2.395071037214521470e-01,3.035134020602245266e-03,-2.342947058303000620e-03,3.064248023943092186e-03,1.083185710012912750e-02
2.583778059643008218e-01,3.133778956291572992e-01,2.618094721770732880e-01,8.958807457717865574e-02,-5.106882442004313100e-02,1.028245804135641955e-01,2.578155696392059326e-01
2.163420692124355671e-01,2.369777661901678878e-01,2.476201230715819046e-01,6.243637262261648828e-03,-1.802195130095327882e-03,6.115375858212790915e-03,3.158465400338172913e-02
1.788116701530418906e-01,2.542785886614623014e-01,2.554398503897684636e-01,2.326760555588649679e-02,1.766495162479531436e-02,-3.800824501726644128e-03,9.158534556627273560e-02
2.248170180627121206e-01,2.311079672761130466e-01,2.460567207697023084e-01,5.052785732597335835e-03,2.603744609600995401e-03,-4.308175065847583488e-03,2.257641777396202087e-02
2.404031400634015769e-01,1.952906181417423948e-01,3.209506943601523887e-01,7.489966462699700067e-02,1.353067723576876873e-02,-5.621168962617512782e-03,1.721355915069580078e-01
2.547627567814029770e-01,1.853931310202441285e-01,2.583514690359800525e-01,1.559678725261076345e-03,5.212151836782530573e-04,-2.375500082078181932e-03,7.140737771987915039e-02
1.979749020348120780e-01,2.581906969230879367e-01,2.356378233841577574e-01,-6.260890011677635279e-03,-2.212260931383783907e-02,3.886235918462976066e-05,6.604820489883422852e-02
2.497587176666639652e-01,1.726436406977818194e-01,2.626633374993944670e-01,-1.275646775810459176e-02,-4.568278565269637791e-03,-3.144906803926049259e-03,8.768618106842041016e-02
2.550683821036046628e-01,1.774597798756087363e-01,2.635408941309008712e-01,-9.167077208446413814e-03,3.834103642467478687e-03,-9.098718261065881149e-04,8.397088199853897095e-02
2.118797181143730057e-01,2.211969891830672386e-01,2.569323367773390654e-01,-3.056008028110773767e-02,1.787725470950496734e-02,2.051276713187780848e-02,8.197345584630966187e-02
1.728473180726521341e-01,2.622494619163610596e-01,2.624967807978127454e-01,-4.161636930586320158e-04,-1.320893086974568890e-03,3.288443169660560609e-03,8.973912894725799561e-02
2.195217827530401566e-01,2.499992113606979705e-01,2.223412610767427633e-01,1.712111030465594992e-03,-1.709867636109465346e-03,1.360709612160793721e-03,2.956369705498218536e-02
2.373620424680953911e-01,1.967467359898385226e-01,2.633944148765916538e-01,-2.513250838665989292e-02,-7.009729848516038165e-04,-6.874019765823126578e-03,7.363939285278320312e-02
2.530712333907339517e-01,2.362302600138672104e-01,2.206889995595454068e-01,2.313645035747535165e-03,-7.256062092507151217e-04,1.362177998900097539e-02,3.689412027597427368e-02
2.548294748623674000e-01,2.604149518155413068e-01,1.926624906413684224e-01,1.183937992477161793e-03,4.243067365628968614e-03,1.203926837600023669e-02,6.882014125585556030e-02
2.330839545335600116e-01,2.434953293343796177e-01,2.391992183883520917e-01,-5.430462241479014351e-03,1.979888011071198606e-02,1.539089276862603065e-02,4.535659030079841614e-02
3.159680107804792581e-01,2.546848393874388550e-01,1.309637586240581797e-01,-5.812016330212197573e-03,-4.843729054649814625e-02,-6.865544896053329960e-02,2.189180552959442139e-01
2.237072773079018251e-01,2.491031971052419525e-01,2.263800125614929271e-01,2.283109853062364092e-04,-1.136460479249399224e-03,1.632288883972866065e-04,2.425552718341350555e-02
2.316671022309940708e-01,2.329981897469683427e-01,2.387191713995219511e-01,1.483257299685945309e-03,-1.986507056048067866e-03,1.035226359828070536e-03,7.985638454556465149e-03
2.422847979499849758e-01,2.420525052140818090e-01,2.245278388758829291e-01,-2.933924982615910160e-03,2.546237741978251215e-03,2.441820284179776861e-03,1.934941671788692474e-02
2.450040574763706624e-01,2.196603383530036091e-01,2.385726478337231449e-01,-2.866000834576094489e-03,7.112265956953940996e-03,4.124172178597086506e-03,2.735128067433834076e-02
2.491617989434853075e-01,2.666531892818968519e-01,1.701583870031694590e-01,-2.042294141634672100e-02,6.828073595036962540e-02,4.939331098662999575e-02,1.746039241552352905e-01
1.579485279779602735e-01,2.717137709933226675e-01,3.365636350548697475e-01,-8.422971579794739927e-02,4.167650503117293487e-02,4.688962176608005988e-02,2.400340288877487183e-01
1.785697102483866650e-01,3.356628572560574342e-01,2.130651264006013512e-01,5.592996674478434987e-02,-8.519789129761461133e-02,2.279214192111674031e-02,2.305822372436523438e-01
2.883743554012868082e-01,1.871106351507782484e-01,2.797616644038480316e-01,1.047088292457591836e-02,1.480555143200668056e-02,3.624906354383674451e-02,1.199369877576828003e-01
2.911719503246461560e-01,1.429319062414072250e-01,2.919041430811479820e-01,-1.078234629106069806e-02,1.278875035506865480e-02,-3.120745590860367000e-03,1.515019387006759644e-01
1.638237278850248613e-01,3.334362854656118813e-01,2.975623244217044383e-01,-1.966584100091637449e-02,1.054565166948027016e-01,5.671029020589006542e-02,2.610408365726470947e-01
2.777817577918493819e-01,2.766095467673435615e-01,1.468598144364958724e-01,6.993375460884602643e-03,3.773017410197116589e-02,5.631653778706212365e-02,1.758423745632171631e-01
2.541710117317710904e-01,2.356018965604808058e-01,2.010535115930731920e-01,-3.231617561787107282e-03,-2.491910305828197360e-03,-4.700682392690645056e-03,4.791851341724395752e-02
3.685817542356011334e-01,1.885409233339910284e-01,1.710053125386726269e-01,-2.478871408269441370e-03,4.732943316480784160e-03,-1.003728366566574576e-01,2.572723925113677979e-01
2.428608998903024618e-01,2.595709243526302945e-01,2.092567107022323125e-01,3.472991698539493535e-03,4.645263109292519649e-03,6.990484120878527391e-04,4.552339762449264526e-02
2.717040551299081397e-01,3.361995181718231418e-01,1.372668478285114790e-01,-1.254841430391196409e-02,-8.569551593602296735e-02,-3.909570047183675429e-02,2.408165037631988525e-01
2.000173901617993411e-01,2.006991430561151368e-01,2.695019753562545861e-01,-5.069952517682387721e-02,-6.950789150810295211e-04,8.089879945197369336e-05,1.117765456438064575e-01
2.621417351952598507e-01,8.755385177065705404e-02,2.931533831600883211e-01,-5.162405587582234723e-02,5.349610958002328810e-03,-9.051566960502957157e-03,2.125645428895950317e-01
2.302250421683059989e-01,2.435363058776009171e-01,2.318605815997986097e-01,1.307878067799806516e-03,1.285253963657760016e-03,-2.610560827618658118e-03,1.373411715030670166e-02
2.349753131551582108e-01,1.800252141893134705e-01,2.613818298699707166e-01,-2.358221054976419526e-02,-6.446677048500810622e-03,-1.001141285862452469e-02,8.521492779254913330e-02
2.887199359737694926e-01,1.751446963598281004e-01,2.792012102141708807e-01,6.552438178229072832e-03,8.961495914271406724e-03,2.825385118114446398e-02,1.211338862776756287e-01
2.363952392263917179e-01,2.318094691020146370e-01,2.383723151256146033e-01,7.481588213450345026e-03,-6.046733048251160328e-03,5.689129436529200175e-03,2.021669037640094757e-02
2.070099936297948306e-01,3.375645065708576253e-01,2.890997146297938913e-01,-3.690536284749022441e-03,1.189028739587890682e-01,6.785672600275367838e-02,2.633138298988342285e-01
2.536787866849718465e-01,2.209744951664157075e-01,2.157314184629245402e-01,-8.118657167546520430e-05,-4.009099446719352066e-04,-4.031095125804095604e-03,3.630127757787704468e-02
3.228820802816217972e-01,1.044436564306701065e-01,2.926848810041018378e-01,4.891911998880892759e-02,-1.261020543610510448e-02,-1.055515429751532029e-02,2.236548960208892822e-01
1.952924365852197752e-01,2.637881612281820498e-01,2.495651022552976273e-01,-7.192298658069240340e-04,2.269493802572542657e-02,6.532768754217880419e-03,7.479642331600189209e-02
3.095282704334372248e-01,1.125949246488809896e-01,3.248926704714152902e-01,-6.374840662157903182e-02,-8.614699933244525029e-03,-4.919264418764576069e-02,2.484321594238281250e-01
3.153351719085525917e-01,1.351361317474980839e-01,2.595662964402963846e-01,-4.929426181917855726e-02,-1.853553814943866354e-02,-1.001157893850762315e-01,2.528286874294281006e-01
2.728228940619357168e-01,1.823792963295007008e-01,1.983503684542647916e-01,-6.968216050833231368e-02,-6.978976619436694229e-02,-8.808074616801639389e-02,2.438112795352935791e-01
2.399129203748952555e-01,1.917155769743148497e-01,2.566827819239635433e-01,-1.150002589657504910e-02,-3.470050486763522849e-03,-2.974118862791723036e-03,6.222448498010635376e-02
1.846177331960127677e-01,3.092151286483061923e-01,3.408136224034207795e-01,9.552641382709885221e-02,3.328969840819150788e-02,3.078521499073286205e-02,2.323870807886123657e-01
2.166221610722080526e-01,2.552546101208460483e-01,2.697293230760198779e-01,4.141217599443280939e-02,1.844924118829055146e-02,-3.308953415310126461e-03,9.197854995727539062e-02
2.446435244153970789e-01,2.343188612514610636e-01,2.324524774501889601e-01,3.846450618995979863e-03,-2.801004923429951162e-03,2.483404268073692404e-03,1.468932162970304489e-02
1.554175076800519972e-01,2.330278357442564785e-01,2.502295081099243923e-01,7.945042404256150159e-02,5.331606876543519558e-02,-2.470353086461396161e-02,1.922238320112228394e-01
1.512428347150185093e-01,1.896753606584577478e-01,2.870372047788671832e-01,-1.029231834503438053e-01,2.472581201976935261e-02,2.587639527216339594e-02,2.243226617574691772e-01
1.909888829681665456e-01,2.476450228656932873e-01,2.639238080168543332e-01,-5.763206714400476161e-03,6.717422718503375523e-03,7.292000826982747777e-03,6.922242790460586548e-02
2.363536051432946761e-01,2.090435509914740364e-01,2.465324950754428091e-01,-3.484033557149340647e-03,-5.896391349820709685e-03,-2.735153062786207373e-03,3.592486307024955750e-02
2.758187131922932300e-01,2.400855545037908767e-01,3.059191557940129091e-01,1.013808626539235008e-01,6.840239154575263048e-02,-2.477582283525858048e-02,2.235417217016220093e-01
1.649206249279825953e-01,2.746752748332202398e-01,2.833822197186728342e-01,-2.520851761698693003e-02,1.924568862566235217e-02,2.009166050239641343e-02,1.315528154373168945e-01
2.164025203706222145e-01,2.465340569094457424e-01,2.527163829781798876e-01,-1.096444095648099575e-02,1.162095473732414896e-02,1.198016371411429228e-02,4.825747013092041016e-02
2.078321020901053862e-01,2.437853521414443392e-01,2.488845058998805371e-01,-1.579106184057313747e-02,5.781660635073645679e-03,8.918694554765953242e-03,5.088176205754280090e-02
2.269314783532375701e-01,2.505311113557198710e-01,2.237839295000410011e-01,2.404975193531748521e-03,-5.894120897293114248e-04,4.524578007554146348e-04,2.569316700100898743e-02
2.835955698331810160e-01,3.632508965339034668e-01,1.380860266934346714e-01,3.194868129205810647e-02,-8.107313850181130377e-02,1.967903660266457841e-02,2.510998249053955078e-01
2.697889999142996653e-01,3.489066078916842617e-01,1.548984851396810469e-01,5.083493215727929310e-02,-8.597748253723667966e-02,4.170310862148830094e-02,2.523800432682037354e-01
2.064193169953746632e-01,2.415932945642210172e-01,2.473714172322956095e-01,-5.527218847832374160e-03,7.110744735400669619e-03,9.237558245551375988e-03,4.442038759589195251e-02
2.509305946362792583e-01,2.307993195853415835e-01,2.288460456224654938e-01,2.009102747663464583e-03,-4.822109317642036142e-04,5.779436620714368568e-03,2.369426377117633820e-02
2.452127281909821377e-01,2.360716321894773817e-01,2.181510123850983751e-01,5.984059305784221634e-03,-2.177065196462444133e-03,5.662717670631057035e-03,2.804224006831645966e-02
2.499160907613193761e-01,2.282584080909723645e-01,2.294678989230333199e-01,4.528169858437564380e-04,-3.855041073888347233e-05,9.393200985648095247e-04,2.115632034838199615e-02
2.669487450837996767e-01,2.449242559752478898e-01,2.061704616605491980e-01,6.278354977751867197e-03,-2.636263537334249812e-03,2.912348845978669776e-02,7.432430982589721680e-02
2.573370430934243114e-01,2.477791871147916047e-01,1.960960264259622443e-01,7.803521285950108105e-03,-8.287632153522886749e-03,1.794554270036951074e-02,6.790691614151000977e-02
2.499129940019205742e-01,2.311995010962364927e-01,2.299673325949497804e-01,3.848378378896294937e-03,-9.390606944992495840e-04,4.153515718315403671e-03,2.176239527761936188e-02
2.589498935321842277e-01,2.095544147658731093e-01,2.432330702852232018e-01,-1.021786318285233461e-03,3.001435490445208531e-03,3.177403828889811908e-03,4.439636692404747009e-02
2.578794907921109769e-01,2.436367376781300720e-01,2.072309474507406102e-01,3.769048522197230439e-03,8.955725162052006246e-04,4.054853128385479087e-03,4.627207666635513306e-02
2.867652163510434615e-01,1.586181417213047840e-01,2.814305343625261857e-01,2.376581413827995315e-02,1.404846591266564054e-02,-6.970627727587080068e-03,1.349029093980789185e-01
2.685767675649797792e-01,2.009660970054121254e-01,2.571723628098395720e-01,1.062562992945208576e-02,-2.631998049531371602e-03,2.020836647487550541e-02,7.426191866397857666e-02
2.356891937355131694e-01,2.517154620881649763e-01,2.231940794472530853e-01,4.579161515046082168e-03,1.161200946726184159e-02,8.662735519358421687e-04,3.290734067559242249e-02
2.253496817643509675e-01,2.468810231103373276e-01,2.263715163636753069e-01,1.203523024734588472e-03,-3.365377493391013826e-04,1.675994873729803880e-03,2.134838141500949860e-02
2.414553238726644402e-01,2.282664369765617096e-01,2.334745558515301522e-01,-1.541231078173287616e-03,3.869753497183681459e-03,2.369465128325197109e-03,1.418718416243791580e-02
3.558621539688113788e-01,9.764468954381844146e-02,2.884347905449013982e-01,-3.970555979441007209e-03,1.567946767599692759e-02,-1.019712002627782763e-02,2.343257665634155273e-01
2.718507949592671169e-01,2.338596184504602715e-01,1.804063113411737695e-01,-2.017534640938344580e-03,1.622799455958451667e-02,7.868947703181385089e-02,1.603424400091171265e-01
2.324554539974051648e-01,2.287204087194822100e-01,2.470124907953394622e-01,3.025070484325597569e-04,1.918358857402882849e-03,-5.013438663887293282e-04,1.709672249853610992e-02
3.470617242878698550e-01,3.452911932499892478e-01,1.278219856519984821e-01,4.250115986892137598e-02,5.660110877527509826e-02,7.034578505648986235e-02,2.784900665283203125e-01
3.594091360598565266e-01,3.289265207812729908e-01,1.540882316726306656e-01,5.039736599321328891e-02,1.699109624146697556e-02,9.165161555609895039e-02,2.655428051948547363e-01
2.918635735401975406e-01,1.262457515939087727e-01,3.627124715846218872e-01,-7.315222863035021617e-02,2.825988825062180493e-02,9.592143536028024942e-03,2.508152723312377930e-01
2.512083449708346627e-01,1.082894884784397077e-01,2.815947157694695946e-01,-8.385878865993791342e-02,-8.046448917959756267e-03,-2.188235311158620924e-02,2.200444340705871582e-01
3.298081204343263906e-01,2.209564753388199021e-01,2.769399619102633214e-01,-1.808025329376868051e-02,6.728805282432173684e-02,1.040112332586050486e-01,2.364480495452880859e-01
2.838193500909597100e-01,1.607591536046242275e-01,2.771003313967319026e-01,2.020551234350859843e-02,9.595371924525895185e-03,-1.666439528566839717e-02,1.292138546705245972e-01
2.694206400515876121e-01,1.949636244871882362e-01,2.378534103855824977e-01,-2.711063102960927212e-03,-8.301857279795147714e-04,-2.389306418685583841e-02,7.698498666286468506e-02
2.679258286147311319e-01,2.480543058525701006e-01,2.978985202359366036e-01,1.102265551052262482e-01,7.662745844078716617e-02,-3.019629912286972070e-02,2.422586977481842041e-01
2.557815803497872631e-01,2.351441855305495543e-01,1.999644332720251494e-01,1.913514639669622395e-04,-1.118709757123649215e-03,-5.197682016078264931e-03,4.974381998181343079e-02
2.607609733981255395e-01,2.007036579038076196e-01,2.347777777362757279e-01,-1.508591237172214909e-03,9.076623792948028662e-04,-5.363499397627989433e-03,5.307661369442939758e-02
2.885565425329598144e-01,1.194994004321292547e-01,2.707340684182464874e-01,-1.094861732810284947e-02,-1.006838951052587902e-02,-8.496039905238959855e-02,2.195529192686080933e-01
2.963378398151254034e-01,1.131535589976107037e-01,3.365859094870212176e-01,4.141694954303738740e-02,4.197610364278087786e-02,-3.035118872874400728e-02,2.361034899950027466e-01
2.295326871443327532e-01,2.516233569358808375e-01,2.265248038878875103e-01,3.295841793409227949e-03,3.473856796792967536e-03,-1.231818429577692404e-03,2.523557282984256744e-02
2.742986691526028697e-01,3.114948940814669109e-01,2.359677669944417189e-01,7.466303121082441818e-02,1.066521336411466042e-01,-3.447166076964165715e-02,2.422626763582229614e-01
1.675898494189406729e-01,2.637895921447855341e-01,2.993334018777498162e-01,6.571016496458859102e-02,2.624584719542866207e-02,-2.057417092137793502e-02,1.738590151071548462e-01
3.152736033995078291e-01,3.182974929348350579e-01,1.649914781678321063e-01,5.702473242238116635e-02,9.399614570981944250e-02,-4.766866538523131802e-02,2.571507096290588379e-01
2.320833673938788588e-01,2.442944010949807676e-01,2.275271385040286698e-01,2.985585255986114486e-03,2.736608261109497054e-03,-6.477207568462850376e-04,1.661239564418792725e-02
2.543940692750957799e-01,2.133071327821433882e-01,2.250476177108565734e-01,-1.247380337695241101e-03,-2.350448192416618003e-03,-3.183461886240813651e-03,3.735290840268135071e-02
1.714711787606049143e-01,2.376343498594359616e-01,2.608834956450216125e-01,-3.611722403833860645e-02,-1.131796283305962908e-02,-7.617639429821162003e-03,1.045373678207397461e-01
2.580330201781440569e-01,2.556272741291636952e-01,1.821619148520009501e-01,2.014722219245083934e-03,-5.077316425991035753e-04,1.352396963671891050e-03,7.482060790061950684e-02
2.305243601162310085e-01,2.463526352518746465e-01,2.310227988806838884e-01,7.976778882976158025e-04,1.045293960947537562e-03,-3.885183977930626188e-04,1.576492749154567719e-02
2.364624144610096845e-01,2.435226441751736914e-01,2.182506255170656162e-01,6.297369014832961825e-03,5.300036831506865255e-03,-2.741454107623022846e-03,2.712718211114406586e-02
2.358706299774331883e-01,2.481125119905360776e-01,2.167700471462952472e-01,6.039611459203558276e-03,4.312964433185283511e-03,-2.719523301916598659e-03,3.059323690831661224e-02
2.356662644257804251e-01,2.319789432094051251e-01,2.387548391075883236e-01,1.411778785174764867e-03,-2.610265592109642634e-03,7.219277116709535338e-04,7.906171493232250214e-03
2.582196531372246695e-01,2.442395717636873242e-01,1.938458754817308782e-01,9.753872084863014422e-03,5.052984637303989043e-03,-1.060603982870413770e-02,6.433468312025070190e-02
2.359790669375210759e-01,2.379616916938683546e-01,2.301917365199265264e-01,2.761227767982229672e-03,1.569881795475386267e-03,-1.548843846286587734e-03,9.293092414736747742e-03
2.331579722313895098e-01,2.340927626995369937e-01,2.317337331770113473e-01,3.900469562794839536e-03,4.918379866465387787e-03,-2.681667990009564771e-03,1.200083550065755844e-02
2.494837325805459860e-01,2.213397951420278120e-01,2.308779811940628590e-01,8.730643785781423607e-04,1.907926221912760630e-03,-2.438566606710497898e-03,2.540990337729454041e-02
2.274118700824146466e-01,2.588880473985176733e-01,2.101097953839868304e-01,7.980143708120997909e-03,2.577027988110242723e-02,-7.028603748805740091e-03,6.454679369926452637e-02
2.700930953685889979e-01,2.686676566930427668e-01,1.560909968778974033e-01,3.642301662501834340e-03,1.750278866744904658e-03,3.974280733347191306e-03,1.137206330895423889e-01
3.048471467454519357e-01,3.395133640024965427e-01,1.699568323703612438e-01,4.831243327555806086e-03,1.074374110631613755e-01,5.442712125063040723e-02,2.601127326488494873e-01
2.274231512480424100e-01,2.412575635695024534e-01,2.372258718671510502e-01,2.096972287124004592e-03,2.734373748400777127e-03,-3.691588284490463293e-03,1.511208713054656982e-02
1.817051001970890756e-01,2.493590495019658571e-01,2.604853613230896925e-01,-4.232831086540669863e-03,1.061108221509735397e-02,4.052538071702149920e-03,7.677496969699859619e-02
1.589053222329456505e-01,3.135716583037896354e-01,3.273517521776528327e-01,4.343460775989006761e-02,6.867052027357203881e-02,4.209912045448695184e-02,2.266418039798736572e-01
1.247141897943536137e-01,3.067350208843937498e-01,2.671734197070889660e-01,-3.841401910783262541e-02,4.283437122733019936e-02,1.374654241386986074e-02,1.949200630187988281e-01
2.325733897684794105e-01,2.466613904623742581e-01,2.288340191497198195e-01,2.088133228530156867e-03,1.175838917358615733e-04,-1.899166484847489343e-04,1.668428815901279449e-02
2.495816443104217353e-01,2.258261323514935415e-01,2.149638997673853913e-01,-3.809510161801459710e-03,-8.844599384555999972e-04,-1.854397552848669004e-03,3.156818822026252747e-02
1.923280104644333466e-01,2.465050646447457527e-01,2.059415303222385529e-01,-6.791195196384124111e-02,-1.107466083784736932e-01,-6.619072924538739466e-02,2.572102546691894531e-01
2.314423743208409712e-01,2.304299037660208493e-01,2.444787038869469797e-01,1.657544171416342653e-03,-1.898789027683417310e-03,1.225289225062548741e-03,1.441292650997638702e-02
2.234375725827288384e-01,2.363564303978250847e-01,2.422674610777798276e-01,1.421428432743404016e-03,-2.333627027973166762e-03,5.098466063991134722e-03,1.945720426738262177e-02
2.441833335403128247e-01,2.652382597073562609e-01,1.325856897196679984e-01,-2.346242439762980317e-02,-7.392678476791429698e-02,-5.781782780725236437e-02,2.081410437822341919e-01
2.399207404504972441e-01,2.596755109117647731e-01,1.943954109663277308e-01,-3.885383113157754066e-03,-9.410085882529268739e-03,-6.990595744414243411e-03,6.180365756154060364e-02
2.485254523996658360e-01,2.589112260657506215e-01,1.879072339842008110e-01,-3.271158911865056692e-03,-5.599272577395200852e-03,-9.309748720970597094e-03,6.926883012056350708e-02
3.196595610743602767e-01,2.507082213664964532e-01,1.142564409677152976e-01,-2.046047924559579734e-02,-4.126587314460374717e-02,-5.443530092992327624e-02,2.191712260246276855e-01
2.573369112287692828e-01,1.993394646131930736e-01,2.356707040100422257e-01,-2.162889616598969670e-03,-3.679378081188828739e-03,-5.093144680124099370e-03,5.204816907644271851e-02
2.049944223028397905e-01,2.661174439885329868e-01,1.620543232714277138e-01,-3.859228575137701317e-02,-8.887268540766438130e-02,-4.832022329216343476e-02,2.082599103450775146e-01
2.671349295533299029e-01,2.699105841800001904e-01,1.555075347864430801e-01,-8.498126896393984591e-04,-2.058377815299237620e-02,-4.121141568952375704e-03,1.187535747885704041e-01
2.437431100217913038e-01,2.649875314701841122e-01,1.895304403617507627e-01,3.348525384351011503e-04,-9.803986204061398632e-03,-1.072699199030165054e-03,6.952840089797973633e-02
2.518691233043844901e-01,2.471993301957012557e-01,1.937254511899252074e-01,-8.577430937462283619e-03,-7.420807340745218250e-03,-1.002336437237743953e-02,6.179239600896835327e-02
2.362732283520501686e-01,2.537888424084981387e-01,2.137499598461718442e-01,3.568515794237956187e-03,6.046921344347514285e-03,-1.292574268868993369e-03,3.689870238304138184e-02
2.543334605865733011e-01,2.388626444197845811e-01,2.094615657832947231e-01,6.255372188688022167e-03,1.092656474949672699e-03,-4.007168381468876640e-03,4.156646877527236938e-02
3.648393067908791698e-01,1.827387393898484425e-01,2.050595210840637783e-01,1.465896514200060174e-02,1.171012584749437507e-02,-1.121349550033951953e-01,2.614822983741760254e-01
2.394099692211102137e-01,2.289730566390113242e-01,2.350220415326784162e-01,5.053516180190951654e-03,4.461837654423430125e-03,-5.148300408054103279e-03,1.726961694657802582e-02
2.202514218950170632e-01,2.462947020465714454e-01,2.354688013135069480e-01,2.208633694560761113e-03,5.237527917814249583e-03,-3.689960181885520475e-03,2.552033029496669769e-02
2.433328700633582975e-01,2.596756372759377318e-01,2.141233115131782605e-01,2.793847556198537658e-03,9.551504826585595700e-03,1.640646966600637366e-04,4.352976754307746887e-02
2.652445440058505688e-01,2.057408151876045366e-01,2.312476907298246787e-01,9.587407294681658462e-03,1.374547443223799771e-02,-4.346361141042227177e-02,9.582988172769546509e-02
3.379623913498478460e-01,1.331260392570742246e-01,2.681040081161376043e-01,-3.418485350805751388e-02,-5.689074681973957902e-03,-8.516567923324079581e-02,2.406056523323059082e-01
2.297852346965583714e-01,2.508890543060441902e-01,2.270838911228306167e-01,-4.857996017979537839e-04,3.482120873743591374e-03,1.512192987098336756e-03,2.352914772927761078e-02
2.177470171315649683e-01,2.461233205611290942e-01,2.380421990098379459e-01,5.530930583926251844e-03,-8.719774796880602752e-03,6.007468165933266442e-03,3.270095959305763245e-02
2.620761041782557754e-01,2.650373028611097137e-01,1.558410272546968955e-01,4.150613510781705172e-03,-2.152312786970578609e-02,-3.500685314117500582e-03,1.144002899527549744e-01
2.345449493009910680e-01,2.535671705765202288e-01,2.136644320557319898e-01,5.613152412267149831e-04,7.654681242021874749e-03,6.123693781238387498e-04,3.705249354243278503e-02
2.848003038208006266e-01,2.848815148493444860e-01,1.615579615201362396e-01,7.944651508597229059e-03,-7.612625151656990385e-03,-2.126093471991123696e-02,1.300691366195678711e-01
2.520631492033081344e-01,2.564945194006551521e-01,1.940485756961222719e-01,-3.052503062152233260e-03,3.119508677253221562e-02,2.061451496132173100e-02,8.868280798196792603e-02
2.164991992710568747e-01,2.493732640160370440e-01,2.202245615101615928e-01,-1.886057502800129668e-03,-3.073814080560080542e-03,-2.046293610268264552e-03,3.199520707130432129e-02
2.496282399503146066e-01,2.649953617224041214e-01,1.802205984676550909e-01,2.034358108771833120e-03,-5.740552931333477681e-03,-2.305959932985826837e-03,7.904046028852462769e-02
3.038447687354265958e-01,2.828918994292304312e-01,2.408376349816446493e-01,7.897215727669371077e-02,-3.223991037061761655e-02,1.139152392362633021e-01,2.526792883872985840e-01
2.550831774333356394e-01,2.589684144980242131e-01,1.962721036923288642e-01,6.506315381093887712e-03,1.294659358919895802e-02,-2.266882376607509512e-03,6.593624502420425415e-02
2.227953906346696877e-01,2.386458482963630945e-01,2.408121702871651726e-01,2.287194343802239922e-03,-1.993431741543765998e-03,5.717477432356394065e-03,2.039487473666667938e-02
2.587985709393048062e-01,2.607843682196502311e-01,1.581056120332571813e-01,-2.806924273740786860e-02,-7.710598317644093425e-02,-8.869786897241609125e-02,2.326898127794265747e-01
3.726423277098414033e-01,3.148922498983997564e-01,1.036069988026451227e-01,3.555395278857208935e-02,2.163505562740690100e-02,-4.127408694645745557e-02,2.654908597469329834e-01
2.609455809154354045e-01,2.631549385257456186e-01,1.739168414996715151e-01,6.049939541732472087e-03,-3.154756256647957540e-03,6.968796554604277625e-03,8.975809067487716675e-02
3.406750283892352460e-01,3.448587273463725178e-01,1.129307560409735789e-01,3.227711119969028930e-02,1.796732781618199867e-02,4.767681452670931297e-02,2.524894475936889648e-01
2.823201942534004916e-01,1.529195188014323969e-01,2.709515665817102126e-01,-2.372495173232517032e-02,3.932325515962941179e-03,-3.119057562824247010e-02,1.416200548410415649e-01
2.770750855806398127e-01,2.651715848522608332e-01,1.479907788066033569e-01,3.782524200080129330e-03,1.171674569213601233e-02,-2.016701224887472790e-02,1.301644742488861084e-01
2.279251785146275966e-01,2.452850133572850588e-01,2.378070282955812575e-01,-4.152286015746677224e-03,6.279701740833687311e-03,7.145242785887283635e-03,2.346613444387912750e-02
2.325442761245110068e-01,2.665445218117264425e-01,2.377540963181607181e-01,-4.506165806047426198e-03,4.968030279047568748e-02,1.329571933509287110e-02,9.487710893154144287e-02
2.776571087291761497e-01,1.803072160700719129e-01,2.724001992902477243e-01,-1.065303415339803085e-02,1.233024192343423406e-02,3.557296160857757045e-02,1.165579259395599365e-01
2.831221843830838969e-01,1.885465374151318874e-01,2.486147458470178429e-01,-8.826546915972239031e-04,1.189674388900628134e-02,2.052226033360574770e-02,9.253203123807907104e-02
2.638209001621699690e-01,3.120029865162331495e-01,1.593396229259027019e-01,-2.646740942279215622e-02,-9.458258739908570467e-02,-4.995394905904367022e-02,2.338746190071105957e-01
2.488104720647823787e-01,2.539511095228361159e-01,2.045350162148200091e-01,5.298242578185992022e-03,-3.533467650593670722e-03,1.449416985662639861e-03,4.839751124382019043e-02
2.622187250459624974e-01,1.507888478366191387e-01,2.599320283571163182e-01,-3.392876968506026297e-02,3.181447207334484745e-02,6.346792028900581639e-02,1.753326505422592163e-01
2.438011825103680308e-01,2.249575085615877768e-01,2.361316397131997813e-01,-2.794453986504168500e-02,3.665495289528440670e-02,2.074987553734600892e-02,8.907583355903625488e-02
2.938471943147945575e-01,1.538478432263547524e-01,2.100412883174761214e-01,1.590038985761242293e-02,5.088993836224756963e-03,8.956192668758601594e-02,1.994759440422058105e-01
2.813483720587883763e-01,2.076152123196309818e-01,2.928811612012259258e-01,-1.043061985222933086e-02,4.304661217577006316e-02,1.228229013784613022e-01,2.399203032255172729e-01
2.292980391618971436e-01,2.160287081683127386e-01,2.326544675529620410e-01,-1.246883164528993053e-02,-1.261792543323206339e-02,-1.073367614461108455e-02,3.900724649429321289e-02
2.689142786765253978e-01,1.613577108249596437e-01,2.581775219610168981e-01,4.551774750123977441e-03,7.901654497168970198e-03,-2.072274324270880277e-02,1.098482832312583923e-01
3.394073178232956955e-01,3.209828184900245795e-01,1.568435250551418192e-01,3.934485613803601067e-02,2.881655726010561025e-02,8.377177524820721144e-02,2.418547570705413818e-01
3.697978446645732165e-01,2.483702039871612810e-01,1.590526748957009073e-01,5.817881603353143583e-02,1.653920756059735347e-02,8.494659528341456933e-02,2.572754323482513428e-01
1.752045798004616683e-01,2.673331433572477267e-01,2.682334590249240702e-01,-1.461102431613471673e-03,3.227746668152920665e-03,3.512834157207304735e-03,9.298444539308547974e-02
1.757298778834936182e-01,2.647757567817667912e-01,2.675749502909875455e-01,-4.961486216677571046e-03,4.835587215007867111e-03,4.797171384967388943e-03,9.164767712354660034e-02
2.190356634296180272e-01,2.364390078233370995e-01,2.490948830443690254e-01,4.586399521417796644e-03,1.905738507580279593e-03,-1.291478391798720621e-03,2.760989964008331299e-02
1.756442985463437800e-01,2.903538823469250518e-01,2.666776530494789355e-01,1.466583008268350710e-02,1.449310719247628304e-02,3.840978232055118277e-03,1.110073477029800415e-01
1.424939534540138053e-01,3.511990816527519876e-01,2.924885582713972476e-01,2.850408277720340930e-02,-8.156184763634516388e-02,4.267524252456340872e-02,2.502190172672271729e-01
2.187287028930016697e-01,2.451922474162668286e-01,2.356518415988275439e-01,2.980865373601995771e-03,-5.375200742314642163e-03,7.503212770064436252e-03,2.865475974977016449e-02
1.723899017227209784e-01,2.703638362296610920e-01,2.606457677006681628e-01,-3.089009058552916838e-04,-5.445091185379588410e-03,4.776911528256790745e-03,9.433400630950927734e-02
2.030489884602242057e-01,1.884071907579923932e-01,2.760416953089100955e-01,7.558914242525366367e-02,-5.731348141192814209e-03,2.181394856865754087e-02,1.589915305376052856e-01
2.882955360664825051e-01,3.446984274279600302e-01,8.908563323526993982e-02,1.911702011965280695e-02,-1.358405895054894640e-02,3.995039879203078625e-02,2.460486739873886108e-01
1.408437864618153346e-01,2.677659171188204734e-01,2.663359982607194643e-01,-3.049993777610815558e-03,-1.207037479836608855e-02,3.930405946775797181e-03,1.282229125499725342e-01
1.705270539862335788e-01,2.625735032724793028e-01,2.473293756390831377e-01,-1.486483469185728278e-03,-2.736983546458849823e-02,6.243877503054226855e-03,9.834975749254226685e-02
2.363486938657486380e-01,2.637420514417586626e-01,1.845134031806949237e-01,-4.743394762434147670e-03,-2.791299261011076852e-02,-1.141919390321446091e-02,8.748333901166915894e-02
2.298113736214078273e-01,2.038781302396049377e-01,2.872688397012627681e-01,-5.069986378187905929e-02,-1.222218567145645120e-02,-1.601008426025951614e-02,1.199687197804450989e-01
1.814889496211337661e-01,2.623096730776341978e-01,2.659359367644605898e-01,2.077802221245606538e-04,5.118616337411088096e-03,4.035224543118977325e-03,8.346134424209594727e-02
1.858681274155193353e-01,2.616384744701706899e-01,2.658920177116947392e-01,6.736016092040140318e-03,5.419349412615879352e-03,5.458235631176961040e-03,7.996959984302520752e-02
1.808806880158954355e-01,2.645129007373915875e-01,2.662520220938770499e-01,1.913979060176530106e-02,1.331866880574371012e-02,6.646087831802250517e-03,9.437417984008789062e-02
1.733812495389007724e-01,2.729505759872849491e-01,2.662948941994914831e-01,6.520856538508788131e-03,1.513479901624741400e-02,7.440515257954648937e-03,1.013729870319366455e-01
1.765765676821919872e-01,2.614059247496708926e-01,2.626099964354085547e-01,6.536241100721189995e-03,1.052285235074442576e-03,5.873592426848987108e-03,8.680205792188644409e-02
2.698888808186510335e-01,3.131425924503871694e-01,2.494400823982300397e-01,9.686667655238696828e-02,-5.275981325715108083e-02,9.406305380236992808e-02,2.573273181915283203e-01
2.109030432560005108e-01,2.443722706198231120e-01,2.632602498976400196e-01,5.103503780235504363e-03,9.304192548767506454e-03,5.844019188456395231e-03,5.049168318510055542e-02
2.341340588804871614e-01,2.317407880534065878e-01,2.400144625214683247e-01,2.834987546481581525e-03,3.536738946677043388e-03,-2.063233431271426378e-03,1.134848501533269882e-02
2.128643681045298552e-01,2.448397767098206279e-01,2.476614236695739713e-01,2.513099655300151791e-03,-1.984545946872604948e-03,5.589456143420910156e-03,3.528597578406333923e-02
2.258274297731156233e-01,2.372594784709113613e-01,2.514488722559752865e-01,1.175790408867644250e-02,4.059694974403839710e-03,-1.627484734917215847e-03,3.108663484454154968e-02
2.090193830086761462e-01,2.549615884074240557e-01,2.343576281696426733e-01,-2.319978085203992942e-04,-3.157520835094067713e-03,1.787770768310130952e-04,4.023412987589836121e-02
2.245441997186721217e-01,2.270419509256037249e-01,2.348823248243112893e-01,-1.013689039857269738e-03,-1.189692576321249844e-03,-2.546541200969424518e-03,1.068068109452724457e-02
2.253994128844075684e-01,2.263060567698876591e-01,2.347215776423405287e-01,-6.651308341363712994e-04,-9.728873363490393028e-04,-2.023690594170200318e-03,9.783945046365261078e-03
2.231531904323753035e-01,2.234357522957010622e-01,2.390850833180226953e-01,-9.795878369214753439e-04,-1.980259877674384831e-03,-1.037199603912799259e-03,1.634850911796092987e-02
2.170621860546695647e-01,2.452173165596017168e-01,2.597315638479861799e-01,1.249764743773052605e-02,2.952013936879324413e-03,7.257557961957731771e-03,4.543961212038993835e-02
2.576360857866816234e-01,1.640459952121555709e-01,2.960579087759476757e-01,8.990653061361002230e-02,-3.419288474428316960e-02,4.541988880973676229e-02,2.185798585414886475e-01
2.466377540599876128e-01,2.310188619260371001e-01,2.285508873626027893e-01,-1.416599996871759830e-04,1.241664044301006619e-03,1.677207968047592611e-03,1.736986450850963593e-02
2.632308705392595871e-01,2.659416812837668842e-01,3.075043372419840049e-01,1.050517773609625366e-01,-2.815355845085204881e-02,7.624164927889112708e-02,2.340327650308609009e-01
2.259790940194379427e-01,2.234655439790951270e-01,2.389408706704002905e-01,-9.026949093850504448e-04,-6.629690990728840261e-04,-1.040534573394183123e-03,1.462590042501688004e-02
1.763821979708647125e-01,2.599472230252877214e-01,2.546276778274945141e-01,-3.685616186588535487e-03,-9.286263860524644059e-03,-1.789158819131485625e-03,8.292129635810852051e-02
2.178889997339346352e-01,2.500049615899768152e-01,2.164793680267222409e-01,-5.845873719247666328e-03,-8.087516173017176430e-03,-6.419369911753957346e-03,3.874358162283897400e-02
2.128594332862506766e-01,2.442298150676990853e-01,2.480234321216791271e-01,2.616492446100041232e-03,-2.045948110139964114e-03,5.467478007770559811e-03,3.521754220128059387e-02
2.305839377944413626e-01,2.296412141936237938e-01,2.482930150644739320e-01,-1.610227971253229220e-07,6.470207759751667132e-04,7.191406615575245305e-04,1.827573031187057495e-02
2.436511534760868458e-01,3.417001583034016687e-01,1.460404566027638795e-01,5.789619742585341844e-02,-7.421897141876263038e-02,2.721344076609236856e-02,2.398230135440826416e-01
2.195598415436929851e-01,2.442139826297921590e-01,2.403136329089873846e-01,1.664710002193139785e-03,-2.340534833951996452e-03,5.871109435902239874e-03,2.559369988739490509e-02
1.981546651722078944e-01,2.633015024106095114e-01,2.377602926918339632e-01,-6.719886443403485371e-03,-2.182121588099867129e-02,-3.385867853576527038e-03,6.950463354587554932e-02
1.707101176447978486e-01,2.704078390861786030e-01,2.522709036776778491e-01,-2.077102988541085736e-03,-2.700975625201924510e-02,-9.874070691282155361e-05,1.032566055655479431e-01
1.890954013534285050e-01,3.520769118945948351e-01,2.669678691574753904e-01,6.653501026317970579e-02,-7.837678050562889298e-02,6.603827166552421468e-02,2.544169127941131592e-01
2.419867107382455418e-01,2.246455815647595833e-01,2.419181140786715867e-01,2.455920724066394407e-03,-3.200454380790489564e-03,2.322758365002497265e-03,1.909290254116058350e-02
2.308442842514935311e-01,2.581056281453301127e-01,2.077449991670174412e-01,-1.880825705907330364e-02,-3.194123088678572919e-02,-1.648285915396760504e-02,8.272549510002136230e-02
2.451948576798892998e-01,2.139417601278989500e-01,2.453251952691240245e-01,6.137427175145743381e-03,-3.866317949753584129e-03,5.496885035615547803e-03,3.506198897957801819e-02
3.266710669102623754e-01,3.102954492037716117e-01,1.863571810041724230e-01,5.846848839491150529e-02,-2.723066323655347343e-02,9.379952269741452520e-02,2.377681434154510498e-01
1.828756146650925563e-01,2.598366184086544073e-01,2.545569682306711989e-01,3.677736274959191726e-03,-8.767879198096269547e-03,3.878044658468807020e-03,7.655628770589828491e-02
2.480346928332889112e-01,1.921483159030460408e-01,2.654254207577619318e-01,-4.311722940337718753e-03,6.816002533959970681e-03,4.338001114894352896e-03,6.818526983261108398e-02
1.770099010145395613e-01,2.432598418378737193e-01,2.615570766821109228e-01,-3.214270874099193348e-02,-3.666889169348935829e-02,-1.624354146197726223e-02,1.177322193980216980e-01
1.564106496194535845e-01,2.661654803834318517e-01,2.667814602619747455e-01,-1.943589407313810885e-02,-2.922544362476434468e-02,-8.088909846527938055e-03,1.265149861574172974e-01
2.366884018151481917e-01,2.310339991568315932e-01,2.379397906887389391e-01,4.691825280807844153e-03,-3.390527156842811259e-03,5.709725428158576865e-03,1.545780338346958160e-02
2.370530976407857759e-01,2.328762522900694187e-01,2.370186001791596553e-01,7.421068776190673432e-04,-1.557979664168217303e-03,5.422886662391812650e-04,5.207632668316364288e-03
2.042456704130896916e-01,2.521332220445763883e-01,2.528678741165734656e-01,-9.539995688122675233e-02,-8.406307053541470231e-02,-6.378647620936292451e-02,2.510743737220764160e-01
2.030815647767860166e-01,2.387768677592532196e-01,2.855237067907325788e-01,-4.697743051987521984e-02,1.773467940642832821e-02,1.788719839875242343e-02,1.168422549962997437e-01
2.368709879032825927e-01,2.343382658197871171e-01,2.343644075978623675e-01,5.683107475801965711e-04,-2.732077232603067089e-04,3.297643727375852859e-04,2.805039519444108009e-03
3.461888099500733951e-01,2.044535509740084134e-01,2.912142304581283869e-01,2.631653125972487073e-02,3.351225557508168834e-02,1.031574625792510413e-01,2.295441776514053345e-01
2.483256728806069735e-01,1.878401581523861386e-01,2.605892322216847856e-01,-5.521031451479940268e-03,4.272696735983168813e-03,-5.595556067014456928e-04,6.854058802127838135e-02
2.642215445673588570e-01,1.642618680490846583e-01,2.555370073086723481e-01,-2.982827418900882432e-02,-1.696970330028195126e-02,-5.481905560978338893e-02,1.474711149930953979e-01
2.452937408266124275e-01,2.365382371587180232e-01,2.261153217725558884e-01,4.668841299084798557e-03,-8.703421477125177505e-04,1.556264124957013615e-03,1.874797232449054718e-02
2.450576444518098584e-01,2.332967498212194235e-01,2.298546978442632949e-01,3.021134029970407205e-03,-1.856686845729805819e-03,3.319437312371603145e-03,1.616872288286685944e-02
2.279570695553161663e-01,2.459720402206005962e-01,2.324356122175713357e-01,-6.437607892285600580e-04,1.993854355059862353e-03,3.302946930791995743e-03,1.760152541100978851e-02
2.934449586112422570e-01,2.246093331345090927e-01,2.863306355423224647e-01,-3.251297984208419145e-02,6.862434180139444229e-02,9.468473182607575755e-02,2.202135622501373291e-01
2.297336194065322801e-01,2.434964555999495628e-01,2.294311622758384850e-01,3.714783778314438220e-03,-3.080450220226077160e-03,2.972376005006493148e-03,1.703059673309326172e-02
2.466618360668181853e-01,2.342604782203454028e-01,2.271742591984369231e-01,-1.311045925685985162e-03,1.463908246211257638e-03,2.014238987013328933e-03,1.776637323200702667e-02
2.609157262417724499e-01,1.693839024649805847e-01,2.606503562089122483e-01,-5.178493068629816398e-03,6.481441992187404830e-04,-4.761002280273037707e-03,9.221479296684265137e-02
2.923359152485928703e-01,9.397225014323981607e-02,3.152448600184317162e-01,2.189357539929454033e-02,-1.518971739946347113e-02,1.866589326096797230e-02,2.181574702262878418e-01
2.417216445643693423e-01,2.322067748988648483e-01,2.329059076633311076e-01,1.278099353077310650e-03,-1.900561732213276874e-04,1.083182095801580669e-03,9.638370946049690247e-03
2.404447352766330148e-01,2.339857999230510466e-01,2.329126968742425974e-01,1.610876286069977837e-03,-1.337161242616283956e-03,5.681335223903881252e-08,7.934057153761386871e-03
2.750803435625375215e-01,2.008906585812773593e-01,2.630234995292701217e-01,4.185552486111734916e-02,-3.758776626734995630e-02,7.256305737597452954e-02,1.733359545469284058e-01
3.422087026156693246e-01,1.431259929316566759e-01,3.473014380962632375e-01,7.209439779785600799e-02,1.952088851481786208e-02,3.414611872557087729e-02,2.467946708202362061e-01
2.888196253754846121e-01,1.567559300037470460e-01,2.649164238472228594e-01,4.134896603827263248e-04,1.546653384063906593e-03,1.227389876391405711e-02,1.237540841102600098e-01
2.662449917507554442e-01,1.735373888654340724e-01,2.648631498377840843e-01,-1.304684721875633670e-03,3.144515275699051766e-03,-5.734996426808306380e-04,9.221854060888290405e-02
2.621782961059568318e-01,1.889345731322468747e-01,2.394425335451832171e-01,7.818820177983815817e-03,4.969144616465167100e-03,-1.858374015004018998e-02,7.422836869955062866e-02
3.735472224442605294e-01,1.362961477457102222e-01,2.709847116114511012e-01,3.200587533877004287e-02,3.548235749435250247e-02,-8.233532120384312591e-02,2.639346718788146973e-01
3.597031219234407828e-01,2.424610827408058555e-01,1.884920153800893616e-01,5.796696862312530896e-02,4.882247177296475393e-02,-9.721413383660824914e-02,2.618567645549774170e-01
2.710346385453734075e-01,1.316968569890539231e-01,2.379329115756526891e-01,-5.574971678184443419e-02,-3.143281317015741982e-02,-8.119707857490164604e-02,2.190102189779281616e-01
2.601989334751124150e-01,2.291540776774618204e-01,2.259884442210487454e-01,1.519879197359595008e-02,1.655372154930713491e-02,-2.130102961990020666e-02,6.283605098724365234e-02
2.392497140388122889e-01,1.408702092420842100e-01,2.592578978291010805e-01,-7.749693983387095919e-02,-3.184951182648061707e-02,-6.082002790820185967e-02,2.102497965097427368e-01
3.124932186581518834e-01,1.745010821016686475e-01,3.397871833846440870e-01,8.442250939624640349e-02,5.004173352228290933e-02,-1.764264399513909218e-02,2.310431450605392456e-01
2.355315755003560829e-01,2.221438864818999492e-01,2.240338949151344794e-01,-5.838390625813380010e-03,-5.678798537559260652e-03,-6.459103200830574286e-03,2.194689586758613586e-02
3.492369635791267579e-01,8.977096551209909348e-02,3.469340115685256576e-01,-2.358855956760190151e-02,2.345299433228319186e-02,-4.311492480779822306e-02,2.750026285648345947e-01
2.429720168595897734e-01,2.154752928635553511e-01,2.493539590504937342e-01,3.362079744661532546e-03,5.167045701434156736e-03,-1.439972959309277498e-03,3.305310755968093872e-02
2.734454592674541717e-01,1.805936689060803624e-01,2.783871795757953960e-01,2.049686434829622872e-02,1.441421621572549355e-02,2.046633023166626042e-02,1.106571629643440247e-01
2.559807289350473081e-01,1.929276213970561871e-01,2.572889046538304192e-01,2.829994684962438504e-03,6.625197616080372685e-03,-3.291084055235724958e-03,6.517737358808517456e-02
2.715690011713163821e-01,2.046507212715504287e-01,2.073830442259350371e-01,-1.425634498541181053e-04,5.157189101804088988e-03,-4.064442105305667713e-02,9.663558751344680786e-02
2.484356026553238284e-01,2.124371608769082820e-01,2.228759938676339869e-01,9.066547216582756391e-03,8.915975495508078608e-03,-2.153428978395197438e-02,5.390123277902603149e-02
2.930230179351517306e-01,1.217610649379405191e-01,1.949402541012243140e-01,-6.923206890918383663e-03,-9.646041046044032466e-03,-1.091321217399245230e-01,2.414651811122894287e-01
2.726197613390987096e-01,1.507556548981558164e-01,2.465777370488752840e-01,-4.941158690655739205e-02,-3.647123463980195268e-02,-9.535797389503944399e-02,2.257207483053207397e-01
2.780553976729253085e-01,1.546771062450063572e-01,1.908908585891503917e-01,-4.506570376497501945e-02,-3.484535141282493059e-02,-9.776631092384285848e-02,2.246680855751037598e-01
1.702380306152549982e-01,2.627931502322006785e-01,2.399980651695007294e-01,-1.305570812054942208e-03,-2.634344261190249559e-02,5.652425698523262654e-03,9.570349007844924927e-02
3.698066933601383277e-01,1.095858821451992926e-01,3.497689113332170252e-01,2.960056212559178737e-02,4.066662903373489957e-02,-2.393483886604945432e-02,2.687204182147979736e-01
2.520644371602017708e-01,2.197106223938905256e-01,1.843816528868811311e-01,5.209752723347427922e-02,6.991456529023332145e-02,-6.649985994091352215e-02,1.987743079662322998e-01
3.684127746392299452e-01,1.313212636666839239e-01,2.831608450529671805e-01,1.269490727157679757e-02,2.675648236642594324e-02,-7.271796391857772435e-02,2.485210001468658447e-01
2.394928215270163141e-01,2.320314780779524078e-01,2.307424922377831478e-01,3.208009513639786467e-03,3.454956950234173811e-03,-2.852214111704104785e-03,1.257140561938285828e-02
2.400099303171019383e-01,2.567276842827380667e-01,1.898685238462307634e-01,-3.664630490047687643e-03,-1.036531285041059243e-02,-2.618962305194538764e-03,6.336466223001480103e-02
2.474062270876343228e-01,2.244584997421796013e-01,2.267449841005441113e-01,2.537978840317885783e-03,2.574482071472200886e-03,-1.133098144531578463e-03,2.285642549395561218e-02
3.032417822876548041e-01,2.716847186700042105e-01,1.830091932130256671e-01,8.948405397101068248e-02,-2.243665575357001521e-02,8.700330140345760577e-02,2.447420209646224976e-01
2.408431370703816021e-01,2.602493414655833170e-01,1.941343409576796464e-01,4.559805100587056154e-03,-8.219789749079347077e-03,4.495421457684009060e-03,6.156662851572036743e-02
2.866215198333255665e-01,3.507922261907498451e-01,1.285466981650405793e-01,4.040620522013161492e-02,-7.924154536982531971e-02,1.872857693958547565e-02,2.530557811260223389e-01
2.864371147426474917e-01,3.468910626888799253e-01,1.500216429175155464e-01,4.163257221510999889e-02,-8.114202909498469118e-02,2.978677830890425274e-02,2.410899698734283447e-01
2.147357367382004556e-01,2.348880946579809947e-01,2.554209585214965439e-01,8.211268819931149751e-03,1.548663914657859905e-03,-1.307944871716048641e-03,3.815892711281776428e-02
2.441167836369066979e-01,2.319105237702854538e-01,2.298598527294787308e-01,-1.910487963810248400e-03,1.156340713319995578e-03,1.310988461759342045e-03,1.408355031162500381e-02
1.892293128670902991e-01,2.811951556757325554e-01,2.385395771878337512e-01,-9.612265152070486457e-03,-5.456646102931590053e-02,-1.008120238349431014e-02,1.259719580411911011e-01
2.652772445848934901e-01,2.703842168667023871e-01,2.745681111225022342e-01,-3.553378590804188997e-02,8.682509525320324106e-02,9.974924751976027570e-02,2.373150438070297241e-01
2.371374499896320986e-01,2.022573181055817293e-01,2.628181431852861794e-01,-1.740961847334663790e-02,1.052882850913059928e-02,9.750375451151460302e-03,6.556622684001922607e-02
1.920209078897712751e-01,2.507034757330559027e-01,1.969828999765984856e-01,-6.807316476320213194e-02,-1.154858362700079133e-01,-5.033080131675052304e-02,2.543412148952484131e-01
1.743779238353730388e-01,2.651369370607882803e-01,2.592074240614654634e-01,-2.290494410239566887e-04,9.365661938050889521e-03,5.989201415422714010e-03,9.002842009067535400e-02
2.328168807895694137e-01,2.120863120037718985e-01,2.599254361786706991e-01,-1.134179402900228027e-02,3.798898030370980242e-03,4.073000186479292309e-03,4.696357995271682739e-02
2.343088667050998164e-01,2.226937386018699172e-01,2.439769384886920078e-01,-3.150269405728286717e-03,4.768086435555517373e-03,1.315879589299241833e-03,2.106774412095546722e-02
2.508236214029079814e-01,2.345720053687769258e-01,2.224271894853421527e-01,-2.092559249178233352e-04,2.536837009405627438e-04,2.312385171184417471e-03,2.500700391829013824e-02
2.797225963000132820e-01,1.483873631039274721e-01,2.948903593098932130e-01,3.799885900572957595e-03,2.426904801594637062e-02,-4.016227126306431278e-03,1.460470259189605713e-01
2.251997975676184038e-01,1.958680181410685506e-01,2.714347964182872719e-01,-5.677252767790602617e-02,-2.192609820645550090e-03,-4.108543192707752624e-03,1.186954304575920105e-01
2.156838151806464710e-01,2.180225089073971889e-01,2.537184200043830495e-01,-1.121011928468764775e-02,1.996514785413929655e-03,1.862560941997943274e-03,4.198232293128967285e-02
2.103302682981731953e-01,1.808910445227775443e-01,3.166389177000286104e-01,-1.090636056758597927e-01,-2.346063347463024640e-02,-3.727210840727541302e-02,2.383302003145217896e-01
2.484641714313445549e-01,2.191964756418691707e-01,2.332996971199416125e-01,-7.513583161071606467e-03,6.066426521900856496e-03,1.335706908006942251e-02,3.818023577332496643e-02
2.957039122857640367e-01,1.261679237935142139e-01,3.321323845144895093e-01,-6.846968101626996206e-02,2.417726895777628539e-03,-4.173592442116612344e-02,2.356966584920883179e-01
2.537122500082276133e-01,1.731917000329453171e-01,2.606347897700647120e-01,-8.697296682418025060e-03,-1.625484911499741744e-03,-3.868192204544824986e-03,8.584073185920715332e-02
2.533869959929463955e-01,1.819205395250123036e-01,2.499367938520617172e-01,-9.243267957838823337e-03,-7.139526230779394064e-03,-8.174479701487744748e-03,7.404379546642303467e-02
1.720888227153916095e-01,2.590992406465162934e-01,2.580623815325957526e-01,-9.046295594051385891e-02,-7.203766999555905048e-02,-4.043768385455933506e-02,2.291423231363296509e-01
2.405117093648025395e-01,2.650549019267120499e-01,1.798022002674233288e-01,1.465787767680398280e-04,-2.623489295066930641e-02,-4.551973717732067312e-03,8.891036361455917358e-02
2.600882960696919710e-01,2.152518011445281321e-01,2.688993034065537135e-01,-2.017540641782236341e-02,3.189045565926199033e-02,3.572148404827506923e-02,1.028747633099555969e-01
2.374336941014221214e-01,3.216480864206737178e-01,2.762900547739495782e-01,-2.808125225352435875e-02,1.061566742741142655e-01,6.991752455831162782e-02,2.369987070560455322e-01
2.449005677996153874e-01,2.545677037334214687e-01,2.036621985125934842e-01,8.996567845479567019e-03,1.749877597468619400e-02,-5.973002316935399625e-03,5.883179232478141785e-02
2.241997876374093313e-01,2.248444513548739365e-01,2.500035912297783880e-01,-1.985874260936074717e-03,2.396554672334796736e-03,3.016182491522494645e-03,2.657010965049266815e-02
2.305806198590558964e-01,2.608910896411276159e-01,2.075858259487952107e-01,3.065335233490670570e-03,2.301887280515757528e-02,2.562668536166500238e-03,6.149767711758613586e-02
2.298319352320561948e-01,2.284417652274201571e-01,2.472648616116300269e-01,-4.314845420770621783e-03,6.954112727014554601e-03,6.558655545213870619e-03,2.569153159856796265e-02
2.541013007161301296e-01,2.146460320530430843e-01,2.200856996298275747e-01,-4.686033198153502326e-03,1.038152185154052158e-02,2.939360329014940876e-02,6.597606837749481201e-02
2.495854798468035429e-01,2.276859396739921160e-01,2.305897870420613727e-01,1.054886873394648755e-04,5.844303353232038149e-04,9.660565798082377392e-04,2.069509960711002350e-02
2.570615439662186086e-01,2.176608602078086707e-01,2.595712352189059047e-01,-2.756774563977739973e-03,1.585007528219375267e-02,3.910045700613967723e-02,8.378906548023223877e-02
2.380181958078051163e-01,2.783598978485782860e-01,2.318059324890583972e-01,-2.007560831909556572e-04,3.757957038022933377e-02,4.779472003514334544e-03,7.887954264879226685e-02
2.624395436545954308e-01,1.478066231343136416e-01,3.692089119931236674e-01,-8.158409522112239354e-02,3.592856710488775279e-02,2.607195493307548281e-02,2.503186166286468506e-01
2.086450908763378687e-01,2.290188744032979340e-01,2.535158605102502127e-01,-7.030045173948142739e-03,3.013612748554787748e-03,5.299368790376000372e-03,4.211946949362754822e-02
1.725931586371752258e-01,2.523919637864469045e-01,2.541712793374307777e-01,-1.749872053930951951e-02,1.733382966219174787e-02,9.819984105174130173e-03,9.285634011030197144e-02
3.463243489003335340e-01,1.044696782504159760e-01,3.297652858940558485e-01,-1.031788155260223924e-02,3.714174255282071124e-02,9.625737901412333153e-02,2.949870228767395020e-01
3.379649680160400349e-01,1.227068234741336139e-01,3.548220522568263924e-01,-3.125766451989692857e-02,3.118304587242587411e-02,3.725398051399436694e-02,2.454805523157119751e-01
1.838443802316761522e-01,2.817603748966889810e-01,2.829449896434294565e-01,8.924299999175922676e-03,1.026280094369605156e-01,4.807569404316759144e-03,2.039870917797088623e-01
2.869146492209398991e-01,1.224906541420248962e-01,3.290476309540355526e-01,1.492332650668449709e-02,3.216210246981676679e-02,9.943119658750128320e-02,2.630002200603485107e-01
3.401771528394785804e-01,1.635311494786527708e-01,3.193516170078320449e-01,6.286209551890249714e-02,2.128644886958094146e-02,7.731994862329596985e-02,2.431216984987258911e-01
2.881672595701624262e-01,2.023453026133875121e-01,3.457938644132014239e-01,1.006276329073046011e-01,1.733305501963124801e-02,3.506950955386127500e-02,2.249456346035003662e-01
3.548356168920552278e-01,1.058395900947323442e-01,3.426439687292460179e-01,-9.019366849138416714e-04,3.002571300743628324e-02,5.612569649327304143e-03,2.488243579864501953e-01
2.534009510348098626e-01,1.844277788339959701e-01,2.413886435163589139e-01,-9.696985301640913615e-03,-7.657722791604469961e-03,-8.753063591058093257e-03,6.899950653314590454e-02
3.717744167345070627e-01,1.077891244419225403e-01,3.356009790786156910e-01,3.544771662635894799e-02,4.327166674851524314e-02,-3.400175868556203074e-02,2.725853919982910156e-01
2.730979658964339252e-01,2.696174186498386249e-01,2.309612359738522080e-01,4.096758275588187337e-02,1.318225045943431095e-01,-1.256143356716455176e-02,2.434766441583633423e-01
2.442296031202922935e-01,2.264095213754113434e-01,2.297737323983546909e-01,1.073135167918011761e-03,2.709146069878055983e-03,-8.245374087084820667e-04,1.721730455756187439e-02
2.420277839609353276e-01,2.416186003545698902e-01,2.178819253207734397e-01,-4.091774838305735004e-03,2.278753387499353467e-03,1.701855564747627517e-03,2.545201033353805542e-02
2.439625085194739307e-01,2.271699170284693925e-01,2.305804668967202375e-01,6.710130117240226122e-04,2.797481533142104674e-04,-1.656692816544113331e-03,1.568982005119323730e-02
1.999316783382097951e-01,2.368814386167141239e-01,2.549255045104524831e-01,-1.205139242553837295e-02,1.246759029521891720e-03,7.800597700415030922e-03,5.459410697221755981e-02
2.173151069520123935e-01,2.699292982632909843e-01,2.574813405052494564e-01,2.113294513758099194e-02,4.459003539913385106e-02,3.010899841571960597e-03,9.798000007867813110e-02
1.818956309074483968e-01,2.599772411191363930e-01,2.572578871578780069e-01,-1.194744176003018337e-03,2.097098529546033310e-04,7.022411798138953470e-03,7.774418592453002930e-02
2.205738488332380787e-01,2.160078227972387077e-01,2.523722050430035058e-01,-3.735143925398169348e-03,-1.494378567555103808e-03,-7.549783676934467697e-04,3.503483161330223083e-02
1.729758096767732567e-01,2.595141887244172274e-01,2.464651437568969039e-01,9.826386183482426623e-03,2.335685924713193015e-02,-6.054563834677328124e-04,9.196373075246810913e-02
1.882036364802577022e-01,3.286764879024851593e-01,3.067247054530217176e-01,2.063837125124689913e-03,9.467220978739304682e-02,4.112004723085805474e-02,2.215958237648010254e-01
1.118404891984333405e-01,3.380706034112444525e-01,3.073276778465880987e-01,8.647698525444355230e-03,-5.713891551552855580e-02,6.509458756386003742e-02,2.605783045291900635e-01
2.182810631286076497e-01,2.193947173202367429e-01,2.407374754411658602e-01,-9.656125536392079836e-03,-6.062059157770091980e-03,-5.979390433753605308e-03,3.126898407936096191e-02
1.703904343793587461e-01,2.599531187793424625e-01,2.594575163612102831e-01,-4.770762315770215971e-03,-4.077290027253203941e-03,5.204332622665007761e-04,8.997943252325057983e-02
1.818177974925983265e-01,2.605467076643561697e-01,2.602570766534635371e-01,-3.988906303688060338e-03,3.118730777537581308e-03,5.313762156279504614e-03,7.960618287324905396e-02
1.057564587057481520e-01,2.706946780099602212e-01,3.347220512069099541e-01,-2.668339368335775896e-02,-5.697186469132940051e-02,7.668928363904240278e-03,2.321949750185012817e-01
1.221340285614775922e-01,2.424754295663977821e-01,2.921502874208055656e-01,-8.084726677117924643e-02,-2.123105976484484375e-02,-8.155599692941349621e-03,2.099720090627670288e-01
1.552004664357131969e-01,2.530158323511391139e-01,2.703005305139052905e-01,-1.040191488927991598e-01,-8.254353127430438808e-02,-5.764114326203024358e-02,2.728095948696136475e-01
2.243176994760881504e-01,2.252686118139672622e-01,2.408946240281923945e-01,-3.794175492205020123e-03,-3.854457038153320282e-03,-3.656135082194605750e-03,1.969251781702041626e-02
2.162326002674231917e-01,2.189116136966389459e-01,2.499905157947254764e-01,-4.171423195160173236e-03,-1.061768853723970034e-03,-2.724598541392403081e-03,3.367774933576583862e-02
2.241840641490968344e-01,2.201401745748866878e-01,2.430751712185127700e-01,-2.459513950973766724e-03,-3.445723331027880382e-03,-1.439997608314830951e-03,2.257449738681316376e-02
2.232759999352002811e-01,2.205002978919334278e-01,2.462441557801894887e-01,-6.633139387056793870e-04,-2.116950414951973211e-03,-1.122286955664004429e-03,2.485028095543384552e-02
1.984357406592415496e-01,2.574450655887765005e-01,2.524476205431981923e-01,9.898383415873070537e-03,-5.569608343143637834e-03,8.159105359845238506e-03,6.163511797785758972e-02
2.193425913713788478e-01,2.205343484208791560e-01,2.500101716360470516e-01,-5.113010192333096362e-04,-5.599577203933248874e-04,-1.639932633371141753e-03,3.025170229375362396e-02
1.459516683973914319e-01,2.668912735858428587e-01,2.760139134506083280e-01,-5.681518916687788162e-03,1.179242937586748958e-03,4.494523874506786698e-03,1.263903230428695679e-01
1.378246140488122995e-01,3.358697278035883138e-01,3.366976819058852266e-01,6.974661468187913493e-02,-7.364681024225645453e-03,4.375950662977041300e-02,2.447196245193481445e-01
1.976011109554358103e-01,2.513616965835617778e-01,2.626878884119077662e-01,1.218679527225596630e-02,2.871931155788477481e-03,3.968632977161982989e-03,6.438115984201431274e-02
2.413782150531943727e-01,2.311093550435683597e-01,2.298874886305631027e-01,1.729806168863570227e-03,7.719398702163290330e-04,-7.219857384868704712e-04,1.148119196295738220e-02
3.657288225264374026e-01,1.919044636454140251e-01,1.968054631745609628e-01,2.828203108566488318e-03,1.290079418810882424e-03,-1.125096243526266387e-01,2.595982551574707031e-01
2.210626037539740185e-01,2.204710394526698813e-01,2.460886154156437522e-01,-4.107573956635291053e-04,-9.548637023903418751e-04,-1.139264668373164832e-03,2.546744793653488159e-02
2.500417534329336111e-01,2.272774449475181147e-01,2.191234230324023147e-01,1.893981978492220719e-03,4.200168846779129021e-04,-2.043476107091351645e-03,2.818050049245357513e-02
2.206460134024759712e-01,2.314803489553784177e-01,2.233178986680549871e-01,-9.626763415337670493e-03,-6.850788744483130542e-03,-7.792097296211905263e-03,2.639218978583812714e-02
2.757898478995239877e-01,2.489108741830361460e-01,1.941106924112020460e-01,8.001777240813651160e-02,5.294629970352145165e-02,-8.909359283248714789e-02,2.379705458879470825e-01
2.299912394579554098e-01,2.386441975811563199e-01,2.333414987053371581e-01,-1.224556146364882579e-03,2.415004868006856171e-03,3.142454899081805354e-03,1.042730547487735748e-02
2.396141818107614951e-01,2.328429904803491213e-01,2.337228325309425037e-01,-9.725036271147316676e-04,1.190323485500167271e-03,6.308105854772798164e-04,6.996230687946081161e-03
2.258861598022104122e-01,2.349607010101335269e-01,2.228062939739548776e-01,-3.234714008273951048e-03,-2.021714356424321023e-03,-1.226186706245448177e-03,1.295931916683912277e-02
2.541861312052923205e-01,2.094483826595223697e-01,2.214116933675109589e-01,-2.752218287744376789e-03,-2.322390373708526495e-03,-7.829856277488413813e-03,4.280420392751693726e-02
2.264847953398287372e-01,2.336217807265120183e-01,2.253614399476092101e-01,-5.303491469842130067e-03,-4.348539287474986748e-03,-4.927203675615758442e-03,1.655772700905799866e-02
2.419758085927432578e-01,2.309954999990889435e-01,2.348447801551046543e-01,1.427225934532287775e-03,-2.781152768250268366e-03,1.748244464270901815e-03,1.147180330008268356e-02
2.248707356052527251e-01,2.337504443701748369e-01,2.266250354722270932e-01,-2.610528371184063934e-03,-3.569053524984083531e-03,-2.863341849833425136e-03,1.223128382116556168e-02
2.255153274518368334e-01,2.350152880189919635e-01,2.261705880208637054e-01,-7.663735863838683172e-04,-6.028788317291282209e-04,-1.702801672178295977e-03,9.798196144402027130e-03
2.371651184372643162e-01,2.318842801054383784e-01,2.360643416740658973e-01,5.428226236490576225e-04,3.308187016256513690e-03,-2.399937019780363319e-04,7.561415433883666992e-03
2.260778291331322354e-01,2.392448463366236289e-01,2.228771213935403783e-01,-8.001874475210076117e-04,-1.295013493630960350e-03,-1.257262232339153435e-03,1.540950499475002289e-02
2.231115856595516367e-01,2.427139623823243164e-01,2.210199480132727379e-01,-2.001780621241745425e-03,-4.534243545189231301e-04,-3.099262802137415606e-04,2.103700302541255951e-02
1.925160934520465106e-01,2.605236408391782832e-01,3.118424655135436097e-01,7.528453450413774561e-02,6.928885617907252353e-03,1.303391136776071036e-03,1.670362949371337891e-01
1.945993474409799251e-01,2.525382450162164671e-01,2.495356691208744926e-01,-1.625367949202138895e-02,-1.541883053282320018e-02,-6.618846567548975109e-03,6.949216127395629883e-02
2.416756427821840081e-01,2.369984928988449757e-01,2.264280769333306964e-01,3.793020880662879672e-03,-8.845795185633800913e-04,1.031319808260201766e-03,1.522327773272991180e-02
2.164200462565556982e-01,2.334000043361678933e-01,2.530852735934533415e-01,6.857868843616925052e-03,4.578194911690302085e-03,-2.657193728054049308e-03,3.514593094587326050e-02
2.261551683918807398e-01,2.350491704912681667e-01,2.467850711601915770e-01,2.070195013905753653e-03,1.125998902452473660e-03,-2.432789749543820979e-03,1.885815151035785675e-02
2.375251743973103014e-01,2.260547303490856030e-01,2.489958914276003132e-01,7.227673579985941649e-03,5.823887796381657482e-03,-2.215179526427673434e-03,2.584404312074184418e-02
2.305471655091940186e-01,2.307129365048151970e-01,2.518915632007748262e-01,1.248625799259359126e-02,4.877695455726182086e-03,9.171153904091238970e-04,3.152287378907203674e-02
2.493455380342537442e-01,2.115011511332774430e-01,2.397166393986442379e-01,1.195074770549084571e-02,8.819689346971784985e-03,-1.058178595298533108e-02,4.645705595612525940e-02
2.629228586390779943e-01,1.607495843005546377e-01,2.609605460771837748e-01,6.766627957598068434e-03,6.348252833915129199e-03,-2.116378772370120301e-02,1.088334172964096069e-01
2.520746332704965620e-01,1.893797280151003071e-01,2.237566235283677818e-01,7.308587220900392145e-02,5.803824607085570492e-02,-6.392560424871318592e-02,2.033385485410690308e-01
1.780698160535008623e-01,3.279913370613187218e-01,2.071153418611349772e-01,-1.011958894531155527e-02,-1.138057658265206190e-01,-9.733169599493093904e-03,2.416862249374389648e-01
2.438192986983842570e-01,2.306110017326257755e-01,2.241529029105943649e-01,2.996634789300727832e-03,9.727852638307210413e-04,-1.362966650029209456e-03,1.835260353982448578e-02
2.280094864261294207e-01,2.262673973236339064e-01,2.488169281092721119e-01,6.789597108381668737e-03,4.597959120773026549e-03,-2.455280090412766472e-03,2.630660869181156158e-02
2.083543585341385840e-01,2.205213121653740449e-01,2.430577260937676065e-01,-3.571900434076535902e-02,-2.576318856010954145e-02,-1.976627024158008478e-02,8.900004625320434570e-02
1.704298178004769460e-01,2.772798934806360860e-01,2.619165164177276739e-01,2.277801721224812989e-02,-1.852376718921610807e-02,9.813620731355292628e-04,1.122505590319633484e-01
2.423052440980305866e-01,2.180782099912286498e-01,2.488074697818991599e-01,3.141072317675786679e-03,-2.255046511508384827e-03,1.847205882952981763e-03,2.901463396847248077e-02
2.454302609076142450e-01,2.202099665970079778e-01,2.425248571628428051e-01,4.858313209431005912e-03,-3.829460100761910776e-03,2.938140613969290448e-03,2.668204344809055328e-02
1.893887524279519174e-01,2.597637985473408850e-01,2.397503559233845893e-01,2.319798590680090266e-05,-1.250450065492961227e-02,2.007766581518487248e-03,6.652759015560150146e-02
1.379487244776667065e-01,2.763102828969908886e-01,2.789233769630363735e-01,-1.941681976358143862e-03,-1.379197143687915274e-02,-5.636616548462642165e-03,1.420900523662567139e-01
1.645093979235941195e-01,2.904500776927086969e-01,2.892510648448288202e-01,1.698400155573363129e-02,1.104784236204621288e-02,1.125346220058922979e-02,1.316166520118713379e-01
8.949706784275965332e-02,2.921651075050918367e-01,2.928589657319166650e-01,3.938556492855036471e-04,-1.104582552497611683e-02,9.347712562403917916e-03,2.045582383871078491e-01
2.331352756998365527e-01,2.425381351649273376e-01,2.323790111201919917e-01,3.153993869953623363e-03,2.914399452971797033e-03,-2.023174918267140257e-03,1.279455609619617462e-02
1.042093513589178733e-01,3.061594623245532665e-01,3.352646400245460345e-01,-1.509009712746539264e-02,-3.365688947732421027e-02,3.511411614398784325e-02,2.351366579532623291e-01
2.487162803017267110e-01,2.551562182431844072e-01,2.045595344198551380e-01,5.842271108755296011e-03,-3.533581156321956730e-03,1.457705475338588047e-03,4.921267554163932800e-02
1.994830281365372326e-01,2.574586313120204584e-01,2.484484149903546935e-01,1.214467301359007517e-03,1.085244691358109963e-02,1.368901086122161111e-03,5.730056762695312500e-02
2.254001189093635393e-01,2.538938392748829598e-01,2.134195441301001139e-01,-2.311956190493737965e-03,-3.766206918343348656e-03,-7.276950140919924296e-04,3.683713451027870178e-02
9.741577664058793939e-02,2.961664982806644364e-01,2.526690844295516603e-01,-1.596345873656326159e-02,-6.868156039011683034e-02,5.129491755453583282e-03,2.185031622648239136e-01
1.584276850337033304e-01,2.817686081596569858e-01,2.762653039566250190e-01,-5.852907364344977006e-03,-1.711949154424628750e-02,1.261416197372792168e-02,1.265853047370910645e-01
2.383571500248556907e-01,2.324445704542559554e-01,2.308222109291559188e-01,4.468894774818822765e-04,2.834597740998794232e-04,5.860150196990536464e-04,7.003813050687313080e-03
2.380116942747577125e-01,2.324835913750918082e-01,2.341446959640892111e-01,4.521414912990305178e-04,1.733479635713324873e-03,5.348084405922261210e-04,5.884101148694753647e-03
2.346683950266277852e-01,2.374438633754556716e-01,2.309791301921280404e-01,2.386033146226757343e-03,1.607272516450199314e-03,-1.101554236779685083e-03,7.747453637421131134e-03
2.352240535227519136e-01,2.361695587920765727e-01,2.326071519990604297e-01,2.166453010567380780e-03,1.063385672231217981e-03,-8.467677630822976597e-04,5.462638568133115768e-03
2.552331740675489180e-01,2.271420377877413632e-01,2.326534782008584934e-01,1.767091919879715603e-02,-5.229045937883868532e-03,3.733893772923441851e-02,7.659025490283966064e-02
2.386934721449783525e-01,2.374089293417006585e-01,2.235682081629803142e-01,5.275843670409193983e-03,3.650548871902382746e-03,-1.882752516972624555e-03,1.857719011604785919e-02
2.373044896026393624e-01,2.374641784045457005e-01,2.299532109950238323e-01,3.787392622711332688e-03,1.211929231477703586e-03,-4.004534034005656604e-04,1.015682797878980637e-02
2.348118148365388735e-01,2.322986706642867216e-01,2.348433436936084584e-01,8.323039111778745289e-04,1.332951475495188333e-03,-1.541446136142201381e-03,4.575233440846204758e-03
2.414193822981333948e-01,2.326404702693766202e-01,2.292633482027811587e-01,2.633466064790621758e-03,1.197634446137737368e-03,-9.983071995144493765e-04,1.209214515984058380e-02
2.283924192328362635e-01,2.287078860470704300e-01,2.294406958339856584e-01,-5.196609278652136260e-05,-4.347273664801939975e-04,-7.323881475744745541e-05,1.207834226079285145e-03
2.383121948773892218e-01,2.333594522026332108e-01,2.314786953082671184e-01,1.928358282025582383e-03,9.382196542862169045e-04,-4.925005406582969860e-05,7.154407911002635956e-03
2.364617529515315175e-01,2.316926213898156672e-01,2.362107573875175670e-01,-1.094685451504359263e-03,2.308532588447020136e-03,1.359704538129125669e-03,6.836662068963050842e-03
2.437121396709402144e-01,1.506521866540581345e-01,2.439540987680921258e-01,-7.088117695809793839e-02,-3.924643092700283442e-02,-7.051126926056600075e-02,2.080661356449127197e-01
2.293243312387560351e-01,2.337763195168447161e-01,2.453551201046229591e-01,1.532569279041162257e-03,1.547922991153363563e-03,-3.933311574524215627e-03,1.631210744380950928e-02
2.351372228498427308e-01,2.339291974256184070e-01,2.360632319717541339e-01,2.569730193788096677e-04,9.403346877424878774e-04,7.199822086661209278e-05,2.510339720174670219e-03
2.417419237344682337e-01,1.890114380047093756e-01,2.048748026696808056e-01,-6.670340998677978805e-02,-5.660669241618308811e-02,-8.785825488852594400e-02,2.198041677474975586e-01
2.344666800724133082e-01,1.790050623211437986e-01,2.766591730195980814e-01,-4.786773741388394843e-02,-7.198151597524111642e-03,-3.326409800931612315e-02,1.324581503868103027e-01
2.683798789693218612e-01,1.831225696611283316e-01,3.031593415630533528e-01,9.732233102925347268e-02,8.872106392167634914e-02,-1.480062616304695863e-02,2.532390058040618896e-01
2.362370235442078081e-01,1.941890741094827733e-01,2.614866018134729408e-01,-1.696046050289533660e-02,-5.889864084006262747e-03,-5.265002752777926329e-03,6.721211224794387817e-02
2.324780730987264232e-01,2.416654705752922239e-01,2.326409983439380602e-01,9.909995393800291423e-04,5.332077431519002125e-04,-4.285130994139092287e-04,9.342804551124572754e-03
2.390001167180920705e-01,2.405732683769008229e-01,2.180880835658372818e-01,6.231573615102382890e-03,3.777178808288545429e-03,-4.474015745958399674e-03,2.630655653774738312e-02
2.387021922059673618e-01,2.400244686013091600e-01,2.230272126880056272e-01,5.240483564899384855e-03,3.555233113768891100e-03,-1.726016193316267213e-03,1.993550918996334076e-02
1.916679166861134931e-01,2.394301621773224087e-01,2.568305542959737897e-01,-9.731261404922857128e-03,-3.106853004297417155e-03,-3.970128695291543809e-03,6.144447252154350281e-02
2.331090808975302686e-01,2.420372148148128011e-01,2.289164010807838712e-01,5.257138805714840074e-03,5.132905473134205532e-03,-3.876593756827336271e-03,1.848674006760120392e-02
2.317745602156311147e-01,2.392613790926398920e-01,2.332789571766253900e-01,1.268444969151919823e-03,1.132386913383213664e-03,-1.802274350524880799e-03,8.091405965387821198e-03
2.337948792538448173e-01,2.412020200452573149e-01,2.315856341713483091e-01,1.527168928582611817e-03,2.125037060128724133e-04,-3.502616928834634269e-04,9.143901988863945007e-03
1.128584840030663755e-01,2.923016158183407986e-01,2.214598151042526664e-01,2.749744779516948966e-03,-9.308296488404781133e-02,6.628312072564488192e-03,2.250647097826004028e-01
2.786106842460568389e-01,1.832248432427017459e-01,2.446150582102119275e-01,2.426182364978405823e-02,1.583740009363342541e-02,-2.845137071455240349e-02,1.093539148569107056e-01
2.129437419924211372e-01,2.698330579480101576e-01,1.886261919047246827e-01,-3.065771636858074644e-04,-5.063506299732314225e-02,-4.181092403120534318e-03,1.138226762413978577e-01
2.690555734001366384e-01,1.700343328846050106e-01,2.664470922981609924e-01,-7.100077695912068634e-04,3.029126753860167040e-03,-6.132071629818786757e-03,9.846603870391845703e-02
2.163486281452844662e-01,2.584827429541635135e-01,2.158706587854191117e-01,7.679526187225928224e-04,-1.084560984228051007e-02,1.331859818814346095e-03,4.642869159579277039e-02
2.289515885409368068e-01,2.281769053011976078e-01,2.268438238938383089e-01,-2.463778143800688172e-03,-7.659768633024356416e-04,-6.829386335395200118e-04,4.977945704013109207e-03
2.257063934071045497e-01,2.222655934974607783e-01,2.390951263639454483e-01,-1.135581731013482259e-03,-3.272715229645425765e-03,-1.844366384980356682e-03,1.683362387120723724e-02
1.991254612130942681e-01,2.221623854358695804e-01,2.839370433298609164e-01,-5.832082819201851731e-02,-1.628198118080870921e-02,-1.661328100063196381e-02,1.326543390750885010e-01
2.344881627940331448e-01,2.325566010214647761e-01,2.368744916559542002e-01,-5.436563434053914715e-04,1.677815001343655908e-03,9.786378172544421550e-04,5.122490692883729935e-03
2.671575057246527440e-01,1.680675212414067810e-01,2.451426477086562361e-01,-1.664348999734768667e-03,8.271671135054952219e-04,-2.905655667700973374e-02,1.032726466655731201e-01
2.580589145343133439e-01,1.884290095457970826e-01,2.427505017471085214e-01,-3.914842666982085856e-03,-7.643069035691122531e-03,-1.440713104367848801e-02,6.971851736307144165e-02
2.675375737634251294e-01,2.011712680928930408e-01,2.395020408353223385e-01,-3.569747248644968181e-03,-1.445586347685777961e-03,-2.448844666680571880e-02,7.192644476890563965e-02
2.571685720329728309e-01,1.874441794243634496e-01,2.483234623524048501e-01,9.468417628714313056e-03,9.826006435829330934e-03,-1.559853179882633029e-02,7.491030544042587280e-02
2.355344568676531747e-01,2.223447200969680682e-01,2.530658786163311191e-01,3.018588234367613424e-03,2.969939234901732613e-03,2.450464995832859387e-04,2.768631651997566223e-02
2.354851235854704128e-01,2.203362640978016040e-01,2.513126359598209514e-01,4.027952761390886545e-03,1.431139489653846224e-03,1.369748353014634511e-03,2.793229557573795319e-02
6.377087813693710361e-02,3.192254354996097443e-01,2.933108766675915358e-01,1.588012982103428200e-02,-2.788615329698584770e-03,-6.004681621126070276e-03,2.453500330448150635e-01
2.654501535818519220e-01,1.520831358970990976e-01,2.623784346006076684e-01,-1.453370481554142578e-02,-6.607055133559443802e-04,-2.272253208859500995e-02,1.212320923805236816e-01
1.951707117925274293e-01,2.602512178945188825e-01,2.387414825649727124e-01,9.875568734527348166e-03,-2.068450677906978966e-02,3.484229166257072925e-03,7.007726281881332397e-02
2.279950893504857912e-01,2.243403195168578168e-01,2.473271074157127047e-01,-2.416852736182074652e-03,2.518031093375751144e-03,1.441859482481862385e-03,2.237230911850929260e-02
2.202150650971954615e-01,2.312204764845940674e-01,2.501897070069200035e-01,-1.512253120421826235e-03,5.773659442202143171e-04,3.092716724760484395e-03,2.694940567016601562e-02
1.408928129217204561e-01,3.316929470836874616e-01,2.732718944651651438e-01,3.598199040833831991e-02,-8.528202806284908288e-02,6.771239497688263942e-02,2.610154449939727783e-01
2.290876371670218237e-01,2.300347233264301017e-01,2.515067808392270621e-01,4.879777155022466291e-03,5.610843096958335365e-04,1.945182620340755921e-03,2.379105798900127411e-02
1.040668708333212650e-01,2.956929257114360721e-01,2.537009256917837074e-01,-4.201002484268586724e-03,-7.157755059243192663e-02,9.000736433064796330e-03,2.147164046764373779e-01
2.269271669072800146e-01,2.262986566520940046e-01,2.325091249060985132e-01,3.032293797977000916e-04,-5.992165622424582829e-04,-6.033449739974502003e-04,6.124271545559167862e-03
9.220899856162431685e-02,2.846228850376529285e-01,2.788969750967533745e-01,1.109335625444285434e-02,-3.313266357472575280e-02,1.447525859704649684e-02,2.006121873855590820e-01
1.453087180296248615e-01,2.961343274425676242e-01,2.134520905243051658e-01,1.417953409753317136e-02,-8.216119857219095213e-02,2.325461397400702818e-02,1.989749073982238770e-01
2.601987127230255270e-01,2.440871679859224208e-01,2.374848904249306225e-01,4.016637748867319530e-02,4.363879767415628635e-02,-2.809439142203374110e-02,1.154576838016510010e-01
2.533107935002310018e-01,2.526549455849602110e-01,2.094586125761581930e-01,1.077680098334563193e-02,1.314796458423548621e-02,-9.313777615029482718e-03,5.497225001454353333e-02
2.601239465831554076e-01,2.565291364936817531e-01,2.322398081672039927e-01,3.253559162251744297e-02,4.549008516061809476e-02,-2.402631706925470803e-02,1.086542159318923950e-01
2.594766572584844555e-01,2.358859131767391815e-01,1.866244816834659315e-01,9.583798509005416952e-03,1.127735140673063151e-02,-2.926600576517193741e-02,8.585980534553527832e-02
2.513520909878100285e-01,2.449443623076492660e-01,2.079949666271098119e-01,8.133031378428580774e-03,7.920034635911543316e-03,-6.354256785295413733e-03,4.637701809406280518e-02
2.593224817948923122e-01,2.430688104864592858e-01,2.039794544015848532e-01,9.083266209424354157e-03,9.326143258861241750e-03,-1.679716056058805362e-02,6.150111183524131775e-02
2.431327892569982163e-01,2.651793803794006421e-01,2.011986495468120195e-01,-5.607225858512399595e-03,2.558919034092793990e-02,1.386193969067631149e-02,7.618550956249237061e-02
1.620629383145942293e-01,3.369547107114424511e-01,3.394803905763517093e-01,6.822174271100893417e-02,6.034248821965719489e-02,2.054002393113326524e-02,2.391384094953536987e-01
1.728948411332074664e-01,2.632180489153935765e-01,2.632225043678611542e-01,-4.416938826681571532e-04,-1.339470955666909480e-03,4.125953615412829116e-03,9.064062684774398804e-02
2.134483908962525600e-01,2.440231509757927464e-01,2.523662569569567471e-01,3.888916204167744417e-03,2.222665287302566257e-03,-2.771743224392867366e-04,3.633089736104011536e-02
2.269461007266082575e-01,2.284648285950486579e-01,2.322049476316424554e-01,4.549797723084466824e-04,-5.761440136264515347e-04,-1.516123550872832022e-03,5.521592684090137482e-03
2.248187875535002656e-01,2.344242411417140626e-01,2.512010384768823545e-01,1.996786888315879149e-03,2.228945882638798393e-03,-8.062560254932588577e-04,2.374216914176940918e-02
2.633364968673611584e-01,2.478565429849800550e-01,1.804900295568181712e-01,1.752168829388932661e-03,-4.647849659432558159e-04,-7.558566872806045389e-03,7.747232168912887573e-02
1.558177167669751451e-01,3.678719657300381640e-01,2.639813679976387162e-01,3.171000522437219388e-02,8.342992314973948775e-02,6.289271417559612332e-02,2.636181414127349854e-01
2.143354959589772180e-01,2.261988068728657542e-01,2.520629110261952133e-01,2.307547215695053208e-02,1.070640209910760435e-02,-6.753352445097848128e-03,5.652133002877235413e-02
2.286374209889971698e-01,2.441800805176818912e-01,2.300147623210263004e-01,1.115097465730919765e-03,2.813476720647396876e-03,-2.219075684978651097e-03,1.625773496925830841e-02
2.281144531248674168e-01,2.471833232582626438e-01,2.243408785855658671e-01,2.802804560104537723e-03,-1.651984085112552210e-03,1.353748897133080385e-03,2.206970006227493286e-02
1.516890791050078402e-01,2.810617886583457459e-01,2.664551784070556262e-01,-1.466725224266129946e-02,-1.415784597678645951e-02,6.634779200150583978e-03,1.282175183296203613e-01
2.374019237022536866e-01,2.138819951930367724e-01,2.530105071046820919e-01,6.827708948433558293e-03,3.985982378544445683e-03,-6.568417671065333733e-04,3.677960112690925598e-02
2.310552143930177105e-01,2.276436106531223580e-01,2.256029280459241337e-01,-5.501021732554556981e-02,-5.585192345420687127e-02,-5.450607780245284723e-02,1.654454171657562256e-01
2.212325238848902309e-01,2.275666213614995215e-01,2.380966394861414315e-01,-1.630929039688617556e-03,-1.493572679427998540e-03,-5.303062795766567104e-03,1.779718324542045593e-02
2.499991492017049899e-01,2.258367438850290565e-01,2.137090155917057976e-01,-1.207804703448579590e-02,-1.262781571976775812e-02,-2.326460517466197309e-02,5.969662591814994812e-02
2.086942604460373385e-01,3.144481834825729183e-01,1.938054400410005595e-01,-3.453743348008413844e-02,-1.073169674154648978e-01,-4.188014031853661001e-02,2.374263107776641846e-01
2.369018972764419251e-01,2.371921297674303430e-01,2.090734994073903397e-01,-6.646198264603793600e-03,-2.876956189723774409e-03,-2.849042856926703622e-03,3.105282969772815704e-02
2.511080015203124849e-01,1.959831588349905118e-01,2.403939368257742293e-01,-1.257152888712628758e-03,-4.247107668338584961e-03,-8.196881229382342593e-03,5.313520506024360657e-02
2.055732239838717890e-01,2.576780979658185311e-01,2.230338248337627727e-01,-4.558460103889034817e-04,-8.362773293498403093e-03,-3.012774618538088985e-03,4.845275729894638062e-02
2.707023393446432169e-01,3.057069158101948236e-01,1.564617124155349148e-01,1.344899264097353889e-03,4.112200448848697676e-02,4.432364122618227820e-02,1.710187941789627075e-01
2.381147981892798859e-01,2.513827309383254716e-01,2.154758629888456900e-01,7.027837997293745302e-03,-3.237986141247811613e-03,2.931932733607566129e-03,3.455929830670356750e-02
2.359361429239333896e-01,2.359353256057040160e-01,2.328323836627174404e-01,-2.492956756134188847e-03,8.399800192081536675e-04,7.668697339516580141e-04,5.670648533850908279e-03
2.344624210095102301e-01,2.356827939593462151e-01,2.340834129354661119e-01,-1.492436254640289953e-03,1.013052952128818893e-03,6.107323736015120384e-04,3.602137789130210876e-03
2.243922937229627934e-01,2.037105042618990725e-01,2.570766156750539100e-01,-9.430731580186785257e-03,8.347223186935250018e-04,-4.900435780449255213e-04,4.941253364086151123e-02
3.065954303193598740e-01,2.509049692230891360e-01,2.118041963340869527e-01,3.401074617263806499e-02,1.062780193744742446e-01,-1.429676713812860420e-02,2.116040587425231934e-01
2.558082833978536641e-01,2.546196556772106767e-01,1.998894380176057806e-01,8.013350276310659062e-03,1.219901339720395536e-02,-5.462052932047491496e-03,6.156666949391365051e-02
2.524605423541043114e-01,2.576731129308313384e-01,2.003895352958756648e-01,2.284461564104240967e-03,9.811612286037572905e-03,1.113547511896456968e-03,5.760350450873374939e-02
2.287502580425981036e-01,2.279341769810539486e-01,2.302597750021651291e-01,-4.651268770026646682e-04,-9.067070079947956666e-04,-1.161217302497875685e-04,2.707831794396042824e-03
2.361948577847716169e-01,2.435425712169805579e-01,2.258995458031964887e-01,7.988318569045940037e-03,9.913665239003862165e-03,-5.015379761668673810e-03,2.823780104517936707e-02
9.426673960393161522e-02,2.637208140859783612e-01,2.835973996634844618e-01,-5.846933579310616136e-02,2.586832731452580122e-02,2.274234531913472968e-02,2.151582539081573486e-01
1.635608654046976085e-01,2.757638900363039713e-01,1.952067207286328487e-01,1.995140664974133157e-02,8.548600667643843631e-02,-3.877983228534799803e-03,1.822171360254287720e-01
2.227140185974334219e-01,2.136290611000801198e-01,2.466513516324854716e-01,-3.143312055286288931e-02,2.798212740631564679e-02,2.865125394473528805e-02,9.299895912408828735e-02
1.939903290728938745e-01,3.545802723825297043e-01,2.160093936670969827e-01,1.761548100005939227e-03,9.145314707259230569e-02,1.028542081953392889e-01,2.820908427238464355e-01
2.257320657311025214e-01,2.233904800628478127e-01,2.343805675301561531e-01,-1.422640810226141576e-03,-3.104837420285227242e-03,-1.754517138863432180e-03,1.203152444213628769e-02
2.316110367156314354e-01,2.538241053734547892e-01,2.193770017072631806e-01,-6.193661108099502051e-03,1.412462748157169469e-02,8.979540140122841546e-03,4.324746876955032349e-02
2.165229523896679276e-01,2.502722108481278407e-01,2.401523743568784730e-01,-1.355253364730743017e-02,2.821379777907608022e-02,1.830121668807925192e-02,6.959711760282516479e-02
2.468389480210362308e-01,2.713040217218128936e-01,2.303498586551726013e-01,-4.731833933901435744e-03,4.586088241703955432e-02,2.758049956949545911e-02,9.966303408145904541e-02
2.259398594527034232e-01,2.271631891570609629e-01,2.315873121450338079e-01,-6.676305351655308171e-04,-2.060195790550725051e-03,-9.578502974714848354e-04,6.580607965588569641e-03
2.259421765109361491e-01,2.248017346040653008e-01,2.341715306881760605e-01,-3.123148963132764801e-04,-1.699337414371807466e-03,-8.903530237800079969e-04,9.473226964473724365e-03
2.762640135628142701e-01,2.181842927471980553e-01,2.176685512389879562e-01,1.930877633375578314e-02,2.510786894979304823e-02,-5.744444591042346254e-02,1.277214437723159790e-01
2.546857954839842897e-01,2.240462700481837821e-01,2.191999355152115248e-01,1.013636630711103621e-03,2.130747653703374527e-03,-1.341145311619971157e-02,4.082965478301048279e-02
2.373132619018640810e-01,2.367729607165902916e-01,2.313406136662763957e-01,3.256581659406655293e-03,6.812734489612892958e-04,-6.124995835818543548e-05,8.121394552290439606e-03
2.339506476308121918e-01,2.333945082909997804e-01,2.368525375036301672e-01,1.506030500224008829e-07,7.212357096736896891e-04,-6.816571192730609468e-04,3.646727651357650757e-03
2.072148352074905386e-01,2.634201885532618248e-01,2.470161797506958412e-01,7.151597678265168845e-02,6.554806330057900976e-02,-2.692174388697688922e-02,1.814214140176773071e-01
2.668149337084550488e-01,2.413618059974154129e-01,1.773774585986815089e-01,6.331100735690050642e-03,3.548794503678517811e-03,-3.130548329093872650e-02,9.730668365955352783e-02
2.287661627521189456e-01,2.272007761321166719e-01,2.325335854777246247e-01,-1.305202352493871430e-03,-2.084290016906436844e-04,-1.165484591477671580e-03,5.644239019602537155e-03
2.361053249067955329e-01,2.293115230145529315e-01,2.507000308512627451e-01,8.773822316741780938e-03,8.218982644178664948e-03,-6.590573718660536207e-03,3.036801889538764954e-02
2.139555995126040389e-01,2.543530772534725037e-01,2.260070140280774909e-01,-2.348111742067192365e-03,-1.404368656050588270e-02,-1.821442803420124205e-03,4.368655756115913391e-02
2.112960671310940008e-01,2.566197906450842781e-01,2.248800096634069046e-01,-6.102343169929865191e-04,-3.575412425112169026e-03,6.314297249193468560e-04,4.078912362456321716e-02
2.112863992198449337e-01,2.536746726032527710e-01,2.273759215266973333e-01,-1.111709645839403880e-03,-3.999133408631429243e-03,8.501881090491746236e-04,3.778209537267684937e-02
1.570957756133193606e-01,3.646810726768033861e-01,2.521544183234565306e-01,5.126579110373887666e-02,-9.287365940639778772e-02,5.176272813108746818e-02,2.723862230777740479e-01
2.498345389511324732e-01,2.227867165855226261e-01,2.436053697176715493e-01,3.183334036629071467e-02,1.432489832552958330e-02,-2.788873460401412180e-02,8.118459582328796387e-02
1.746090492380790726e-01,2.634066852301881201e-01,2.726461357354484361e-01,-2.459969450750270140e-02,6.521020169461008362e-03,1.697190624112448684e-02,1.076938807964324951e-01
2.189225461363095704e-01,2.526171406584817869e-01,2.226227499005603572e-01,-6.619714134465165198e-04,-1.836013143521210162e-03,-8.972541462777189401e-05,3.218372166156768799e-02
2.682670343514367284e-01,1.822133663085448996e-01,2.478532420167444406e-01,6.964792903166148672e-03,4.023464350626115849e-03,-1.018611628985333258e-02,8.105945587158203125e-02
2.158302258151146569e-01,2.536623934242466238e-01,2.200732695388322169e-01,-3.401618666946641819e-04,-3.462219405950522216e-03,-3.295387164783230969e-05,3.640142828226089478e-02
2.038021410716724380e-01,2.566547225140231592e-01,2.391033951071678543e-01,-1.313024232204255265e-03,-8.557268885142242307e-03,3.127777609807620186e-03,4.927487298846244812e-02
2.302303042077336326e-01,2.366890584674247733e-01,2.359914512719326896e-01,1.125079246455549511e-03,1.027964891288051961e-03,-2.299066695194241366e-03,7.779534440487623215e-03
2.546406234152258086e-01,2.156645990593016038e-01,2.185370572979710435e-01,2.028786082761203143e-03,2.057191479395984162e-03,-9.521948255970601183e-03,4.138201475143432617e-02
2.639989126068586489e-01,1.777379281076667816e-01,2.582980025581329553e-01,6.076240929296233828e-03,8.237111165357998213e-03,-2.454732044491755166e-03,8.552239835262298584e-02
2.276850072198572383e-01,2.577111320650333770e-01,2.042057909282836425e-01,-3.413148448023030530e-03,-6.239233057408886084e-03,-1.156660479663791652e-03,4.809966683387756348e-02
2.334377776465278165e-01,2.315038646281055712e-01,2.387629943568358171e-01,1.195755270969276482e-03,1.918610926690038354e-03,-9.058853476579017527e-04,7.758288178592920303e-03
2.562285097100299169e-01,1.968396962358569258e-01,2.484362734865939726e-01,2.658859601208832246e-03,5.385219435804021459e-03,-3.049398420460461192e-03,5.710591375827789307e-02
2.554253474736383200e-01,2.066575049440416700e-01,2.397165228725047226e-01,7.035682246908931368e-03,5.809528552649579312e-03,-8.077619388853107124e-03,4.800502210855484009e-02
2.315045752914798860e-01,2.442743371759972248e-01,2.310060316711478046e-01,3.338160159421576048e-04,3.676619263647052977e-04,-1.099089002003695963e-03,1.319262944161891937e-02
2.379715855289299686e-01,2.209871081846596641e-01,2.304678274856878373e-01,1.005291462399501325e-02,9.861711731649694390e-03,-1.117044948461272391e-02,3.444723039865493774e-02
2.320976369774180037e-01,2.374804530903776023e-01,2.336484955401348096e-01,1.024472390282619386e-03,1.494093255440840295e-03,-1.986976076134113010e-03,6.687426939606666565e-03
2.346351113674439437e-01,2.314396467588416828e-01,2.369033843080909085e-01,1.543548253198225679e-03,2.886290663838626987e-03,-1.264881482438433855e-03,7.716454099863767624e-03
2.159935121335695152e-01,2.548497826040013181e-01,2.205762452521437544e-01,-8.913281210582869180e-04,-3.175922232423872109e-03,-8.364194327815418616e-04,3.724895790219306946e-02
2.260236615006771810e-01,2.367077075903974703e-01,2.415555871392198184e-01,2.491619679047965899e-03,1.447668185100247620e-04,-2.701974938313045534e-03,1.516690943390130997e-02
2.324293237698543124e-01,2.317428634328442816e-01,2.407210920390360775e-01,1.596150893949452830e-03,2.073946647341396755e-03,-1.830776368576996719e-03,1.027223002165555954e-02
2.386015391556880749e-01,2.490036166759800607e-01,2.082138622918789372e-01,7.696791031164461339e-03,-6.972832858705904982e-03,5.252059389394156570e-03,4.188131541013717651e-02
2.352145961665559337e-01,2.367544606159226461e-01,2.320220712027989129e-01,2.030906737852003312e-03,8.624518655490876710e-04,-6.743816968328601247e-04,5.783514585345983505e-03
2.330199705414325029e-01,2.318318894882356040e-01,2.400295503279188947e-01,1.369037540626618808e-03,1.657493411539302103e-03,-1.986412532337221946e-03,9.196512401103973389e-03
2.334898773349744494e-01,2.360788000735731806e-01,2.333066296295050190e-01,8.774139853147005542e-04,1.934383327085884442e-03,-1.213415516841620523e-03,5.016246344894170761e-03
2.331578087609802175e-01,2.391251938767980922e-01,2.309840106380906255e-01,2.523312885155229706e-03,1.665220707254549655e-03,-1.018296938504383064e-03,9.156307205557823181e-03
2.464461371982955562e-01,2.343450692224652299e-01,2.285994060301064779e-01,-1.809071949744330693e-03,1.539492035462466674e-03,5.763491281973181926e-04,1.633713580667972565e-02
2.346145085703457978e-01,2.674302807893512712e-01,1.825536173288783703e-01,6.129089077712762332e-03,-2.986083690617644115e-02,5.611672603525597394e-03,9.153036773204803467e-02
2.826486338382592778e-01,1.953513884911365905e-01,2.380562335103790228e-01,-2.868031447173551018e-02,-1.757662871400853324e-02,-5.438647677588589330e-02,1.341068893671035767e-01
2.385260366569373069e-01,2.555415934944621492e-01,1.678915666540437557e-01,-1.169387373935211645e-02,-3.931930838395413658e-02,-1.768258325420806951e-02,1.116553992033004761e-01
2.485014696345613505e-01,2.346945413787922541e-01,2.222220610771209470e-01,-2.576905046167475653e-03,1.993852294288700130e-03,7.810088879285612823e-03,2.707841992378234863e-02
2.900836768109868458e-01,1.998694930321673613e-01,1.896258302114153249e-01,-1.033144181709929992e-02,-3.517865440732498988e-02,-1.029743935011255829e-01,2.121595144271850586e-01
2.463984442500779803e-01,2.299012465596504129e-01,2.285312075143325905e-01,-8.035606757393848418e-04,1.178401078943639747e-03,1.366639899766034904e-03,1.755968295037746429e-02
2.493702898271665247e-01,2.335597950975237258e-01,2.256559546993545107e-01,-2.368312075097519804e-03,3.148200804388897375e-03,1.566489473390453909e-03,2.216591872274875641e-02
2.440738604962271463e-01,2.292381642886752446e-01,2.322610323197474569e-01,1.015345254036674797e-05,1.986624301797592328e-03,9.078273462589123242e-04,1.409617159515619278e-02
2.241743469879098616e-01,2.594101294542149327e-01,2.035774519103963343e-01,1.823340807417926472e-03,-2.730379499722794187e-02,-5.427945522724379399e-03,6.874877214431762695e-02
2.033725983287144323e-01,2.601033737455391015e-01,2.355254431418890571e-01,-2.907248258972944081e-03,-5.985088978842451057e-03,2.130742031002778175e-03,5.074022710323333740e-02
2.322382328784509953e-01,2.497904830937308363e-01,2.170433940107357740e-01,6.549487183177051322e-03,-4.547965026539318653e-03,3.098601009532196519e-03,3.201892599463462830e-02
2.384126885633416348e-01,2.546687983909013964e-01,2.111090389763770614e-01,6.480328958593870557e-03,-3.302670460403868413e-03,1.384576311053964046e-03,4.022511094808578491e-02
2.446935368947895650e-01,2.965352709794596975e-01,1.873542204219587615e-01,7.426918915885483141e-03,-5.367860492927975513e-02,3.116173045795299704e-03,1.333668529987335205e-01
2.066522023250563223e-01,3.283271847834272616e-01,1.588903291973906562e-01,7.328808474145079993e-03,-9.811085845095930680e-02,-2.461418067615902747e-02,2.318476885557174683e-01
2.349617225839602808e-01,2.090239584757215552e-01,2.466948610777400519e-01,-3.306413730163956875e-03,-5.293445112454909889e-03,-2.713061325860575187e-03,3.540771827101707458e-02
2.470916850276020926e-01,1.706784644264531803e-01,2.623917939716454151e-01,-3.701417669898141721e-02,-2.836232980264326905e-03,-1.252307595260239437e-02,1.088437736034393311e-01
2.361328545050943306e-01,2.481783056032237922e-01,2.240325093143354651e-01,4.749915851813778754e-03,6.520680510887495555e-04,-1.440108418387499615e-03,2.263730950653553009e-02
2.230456359671917632e-01,2.551464282688353791e-01,2.368813825283233310e-01,9.278798590879804714e-03,1.352500561033441982e-02,1.624653188415290739e-03,3.990907594561576843e-02
1.106560022711324531e-01,3.098505396561616054e-01,3.610490261286569136e-01,-4.540097020899276636e-02,7.662749652803524728e-03,2.804956751340355325e-02,2.474236041307449341e-01
1.782676279811407360e-01,3.551147403430150451e-01,2.797502297275449856e-01,2.970055701132058579e-02,1.230061705106477998e-01,3.077854929588442340e-02,2.729589641094207764e-01
1.874974121187447662e-01,2.647479618459493422e-01,2.575989475443446475e-01,-7.527728650447543289e-04,2.143971747515435993e-03,4.665075804206064020e-03,7.447998970746994019e-02
2.147551279953248127e-01,2.563937393593984648e-01,2.592345965521965501e-01,3.807909504599538142e-02,5.903439384422777807e-04,1.577617279172139828e-02,8.341399580240249634e-02
1.939701087900725929e-01,2.557772232541635771e-01,2.625592976272584922e-01,2.508616709925278257e-03,-1.252121239975331139e-04,4.634512308846648262e-03,6.609582901000976562e-02
2.090490635110001660e-01,2.511685726290986964e-01,2.524016946399496031e-01,3.996729584347015300e-03,4.664424189766593412e-03,-1.072815232118850800e-03,4.409259557723999023e-02
2.638026672617608259e-01,1.923254185232656233e-01,1.942444588289713170e-01,-2.148072956723114796e-02,-1.982763342593660619e-02,-5.487125044911981414e-02,1.287312954664230347e-01
2.273199699136308483e-01,2.320910820865700608e-01,2.259165641635307309e-01,-8.616794733418600260e-04,-1.078421592996540307e-03,-2.173638657443463691e-03,7.163758389651775360e-03
2.284361392869318219e-01,2.329451196991740580e-01,2.265519084585939646e-01,-5.297925398768567199e-04,-4.621096159466381390e-04,-7.223803414654824144e-04,5.951921455562114716e-03
2.279563195828636368e-01,2.306452603591797601e-01,2.286513575633660755e-01,-2.093789487240067446e-04,-5.111836477724090782e-04,-1.203753940413246955e-03,3.332728520035743713e-03
2.317611559442282199e-01,2.263182198531979994e-01,2.264804996846521701e-01,-2.057696172281794217e-03,-8.456489775011140743e-04,-6.227570818666884915e-04,6.691770628094673157e-03
2.557929652842493295e-01,2.095944787955817956e-01,2.207388819176102357e-01,-2.241189524219299248e-03,-1.405136038925960951e-03,-7.733756438949482281e-03,4.409158974885940552e-02
2.319417501372592894e-01,2.266868916258472366e-01,2.285777257445645028e-01,-6.748167766803397916e-04,-1.604223274280817783e-03,-1.261195126514414019e-04,5.512456409633159637e-03
2.355096208713687855e-01,2.226056966329333919e-01,2.298688349525325747e-01,-1.686390546869309020e-03,-4.586836058401337970e-03,-1.452645955477717583e-03,1.426607649773359299e-02
2.241530852822481434e-01,2.234301356863170884e-01,2.355010781397897102e-01,-2.859172707667433869e-03,-3.872042523997931869e-03,-1.359065943940165628e-03,1.457901019603013992e-02
2.300912695869706259e-01,2.215155634402378448e-01,2.336795164851591111e-01,-1.393636178636481005e-03,-4.411468429689753383e-03,-9.532819587902800762e-04,1.356930658221244812e-02
2.450135544037455315e-01,2.114729822136747206e-01,2.232682181818613498e-01,-3.408255665842258031e-02,-2.870380903316226140e-02,-4.389977135072473807e-02,1.122792810201644897e-01
2.327218574725317124e-01,2.266707120382471241e-01,2.262009277516461303e-01,-5.830490933955856251e-04,-8.215073514590376207e-04,1.471906876019249747e-04,6.541348993778228760e-03
2.652055193979962477e-01,2.542696196131322695e-01,1.884362980976238555e-01,1.512338983404300924e-03,-2.446405892932888675e-03,-1.035549835653854292e-02,7.429732382297515869e-02
2.500761955343231979e-01,2.218242733966583613e-01,2.245366642386171785e-01,7.009232698549914316e-04,2.420562566812412778e-03,-3.258505496803641276e-03,2.792494744062423706e-02
3.035857399823237435e-01,1.871074145581400339e-01,1.931831014322924756e-01,-1.956933552824928306e-03,1.482483615124634627e-02,-1.081078240429989012e-01,2.205201834440231323e-01
2.402650401808006098e-01,2.299593928275557309e-01,2.203764463054240230e-01,-6.183435831466979615e-03,-6.432903349261591235e-03,-7.643626064666579970e-03,2.666315995156764984e-02
2.527735024288429999e-01,2.217631721316775661e-01,2.147028224176237010e-01,-2.263526132083979250e-03,-1.498759404129354662e-03,-5.200998764715060452e-03,3.651976957917213440e-02
2.540883365272901262e-01,2.345066325576551369e-01,2.059191375450139805e-01,-3.000747281644575940e-03,-1.447802911430789985e-03,-4.219045972008286620e-03,4.297886416316032410e-02
2.386851062542033608e-01,2.217611568111397535e-01,2.305121741103079436e-01,-1.548477247912411446e-03,-3.450802128447897060e-03,-1.291847806675826228e-03,1.621180586516857147e-02
3.663449407900086774e-01,9.061058741249444770e-02,3.077899157917237671e-01,1.667959101828106819e-02,3.296117514785282254e-02,-5.799627744202753843e-02,2.783830761909484863e-01
2.315312726183033909e-01,2.313678802458467298e-01,2.414211791087327585e-01,1.995845104733546052e-03,-1.899915356932538497e-03,1.327361183350256411e-03,1.129237655550241470e-02
2.355528806960215937e-01,2.645545831088787492e-01,1.884023010736497750e-01,-4.978881055930321244e-03,-1.003881315339198201e-02,-1.942643916490732672e-03,6.942439079284667969e-02
2.574782796008891483e-01,2.514566445443479625e-01,1.975060678886294552e-01,5.007748701925244725e-03,-1.054258151224629365e-03,1.004091396287838667e-02,6.043858453631401062e-02
2.617152319882227740e-01,2.476366223192270621e-01,2.008778884587606450e-01,-2.688095019203792357e-03,-4.927818111757828294e-03,2.787873907035945745e-02,7.395325601100921631e-02
2.414089547483111442e-01,2.429235971195568278e-01,2.196212603477820657e-01,6.077064476776813419e-03,-2.162311301004436314e-03,1.546306213664426325e-03,2.533753030002117157e-02
2.365974967391454020e-01,2.373366744275916262e-01,2.305131579119921448e-01,3.326117227504603660e-03,-4.606075522599336692e-04,7.173941129039106092e-04,8.799578063189983368e-03
2.597316742688440261e-01,2.563603208537314493e-01,1.903903168652665012e-01,6.046149719827260093e-03,-1.887903396837755168e-03,3.017816855262744295e-03,6.880041956901550293e-02
2.681751282369406186e-01,2.711173192572804425e-01,1.665781105893988923e-01,-4.840106217738011050e-03,3.106207956837027297e-03,2.651856587483346350e-02,1.133069172501564026e-01
2.548877459207189444e-01,2.367517039075254515e-01,2.228591263492585295e-01,7.990045999048140529e-03,-2.976069314763123575e-03,1.369008002611687112e-02,3.942365199327468872e-02
2.472370215670308125e-01,2.288002911668745309e-01,2.342042237635138247e-01,8.904932247052780529e-04,-9.377812976073996061e-04,1.730759047578624100e-03,1.683711633086204529e-02
2.440581664362109493e-01,2.339436581708729535e-01,2.277747239988663075e-01,4.001508375385523855e-03,-1.716084685900716097e-03,3.132977488427296335e-03,1.700212992727756500e-02
1.203433764110826976e-01,3.298440830179137917e-01,2.690261252014415350e-01,-2.869718386754407588e-02,4.447162404578377387e-02,3.586928453879698053e-02,2.170519381761550903e-01
2.099172455002860094e-01,1.882035027049422105e-01,3.317885749471277679e-01,-1.099462940210322870e-01,-2.356397405591943717e-02,-2.300222430600404322e-02,2.397666424512863159e-01
2.053235814953188187e-01,2.372821229567911305e-01,2.552230119226964189e-01,-3.694735072590446881e-03,2.316965092976484841e-03,5.401541777214088381e-03,4.540018364787101746e-02
2.135853151201581590e-01,2.261864598543625315e-01,2.515074742413526687e-01,-2.697427615444333154e-03,-1.313698069332208456e-03,-1.313321017496774101e-03,3.392928838729858398e-02
2.144232555301027743e-01,2.249576223582951395e-01,2.464170545866276318e-01,-2.518172074692797031e-03,-1.941379182903357845e-03,-3.904927850398615986e-03,2.955702133476734161e-02
2.272860580234177807e-01,2.169166604764444783e-01,2.410396713061984109e-01,-1.967470355962741557e-02,-1.527668632116258030e-02,-1.841517481177894905e-02,5.760271102190017700e-02
2.728305005369479619e-01,2.442367507975730101e-01,1.411783310198360952e-01,-2.715779776110979760e-02,-4.793949704595185796e-02,-6.828692429301679023e-02,1.936026960611343384e-01
1.019197643120716562e-01,2.485307116842498110e-01,2.989281128087737938e-01,-7.060457330432273748e-02,-1.932429300233437508e-02,-3.534551959205289016e-04,2.179430127143859863e-01
2.126647759627372236e-01,2.278561921385429123e-01,2.494006261470602115e-01,-1.142660051643898216e-02,-4.701110500220228618e-03,-4.775388910643314430e-03,3.935286775231361389e-02
2.144502215691399816e-01,2.127815519973239033e-01,2.527606417707227160e-01,-1.190769272080574245e-02,-3.226165864298372477e-03,-4.160585396824258847e-03,4.519884288311004639e-02
1.959228950274289616e-01,2.387048688580788447e-01,2.505645280820968934e-01,-6.458449237864339991e-03,-3.433651505360816366e-03,-7.649984761363328584e-03,5.305091664195060730e-02
2.174334890133136911e-01,2.412378348611616818e-01,2.272725934612466192e-01,-1.726687242411112377e-02,-2.116420025455229698e-02,-1.393414637710002277e-02,5.700813606381416321e-02
1.527556060422771977e-01,2.381657338411594105e-01,2.796288071726770186e-01,-1.048919775973376073e-01,-3.580751641758369436e-02,-3.360694927131401000e-02,2.297765016555786133e-01
2.290160151161226565e-01,2.183484909909824134e-01,2.531806778055513685e-01,-1.887916590358993361e-03,1.363862714589897211e-03,3.233553408599400963e-04,3.117837198078632355e-02
2.355683318511947455e-01,2.007882289460037051e-01,2.594664458589359124e-01,-5.131204922841563036e-03,4.676585636427732159e-03,1.878237074633593191e-03,5.260358005762100220e-02
2.390024016725803280e-01,1.944924446013139852e-01,2.420344943939504723e-01,-2.323156768613239206e-02,-1.576684537937074124e-02,-1.872053445281588596e-02,7.444166392087936401e-02
2.483498806480694265e-01,1.906667612159028413e-01,2.608513549284824373e-01,-5.002362625644579328e-03,6.290259354626988667e-03,4.910457197675977166e-03,6.686452031135559082e-02
2.920175442905149632e-01,1.979514899375220682e-01,1.554731284024184756e-01,-1.406082884275052999e-02,-2.498370333568036838e-02,-9.600695075876701512e-02,2.115804553031921387e-01
2.798532076107639321e-01,1.220891791573802815e-01,2.329779910893595152e-01,3.585305765697265057e-02,2.627076585549308063e-02,-9.056873295477299579e-02,2.241125255823135376e-01
3.603985793109552027e-01,1.043881665172125550e-01,2.775928507634919939e-01,1.925524699640013271e-02,1.947156498413876377e-02,-5.690232060499736400e-02,2.513211667537689209e-01
2.897262296423690486e-01,1.749050439606899543e-01,2.871372501198848348e-01,3.445112194856123772e-02,1.352229434555158108e-02,1.245220936609321358e-02,1.321654468774795532e-01
2.503436648901535277e-01,1.867382491892685126e-01,2.789718161104566274e-01,2.233214108834334286e-02,7.046901453040672197e-03,1.089592859339268312e-02,9.320643544197082520e-02
1.928749195115018744e-01,2.592380298413404782e-01,2.621157854759525452e-01,2.584653380361448538e-02,-9.350729917516741735e-03,1.435414614981394893e-03,8.292128890752792358e-02
3.035965174221542107e-01,1.772074658511114953e-01,2.401618100914697518e-01,7.932921386351337104e-03,8.995208903145809204e-03,-5.102015604451654723e-02,1.422019898891448975e-01
2.809954425502462216e-01,1.501607130531087964e-01,2.776964950113462449e-01,-3.139648861520093204e-02,8.893443420506979072e-04,-2.942797908292794917e-02,1.491797566413879395e-01
2.490330731739849590e-01,2.039040460191577642e-01,2.352276111411495674e-01,5.257450130651592640e-02,-2.830092014956033311e-02,7.086361868185041268e-02,1.654213070869445801e-01
2.675715603475078974e-01,1.591704212735119417e-01,2.649113170761991931e-01,-7.985309935285376387e-03,9.286420722040939282e-03,1.161953398620023566e-02,1.110160350799560547e-01
2.370547478342339420e-01,2.160486738164531795e-01,2.574903984350565556e-01,7.913561909289502580e-03,3.541452119666252223e-03,3.207555795470778178e-03,3.930022940039634705e-02
1.213485534074389000e-01,2.961842891245453080e-01,2.920439079135824789e-01,-7.152129851817086437e-02,-8.142717835099010093e-02,-2.723304753562526617e-02,2.594662904739379883e-01
1.825690089775113267e-01,2.754279734667274271e-01,2.728149493397033498e-01,-1.042628316610673400e-02,3.535213780726496197e-02,1.614329908822031284e-02,1.150835976004600525e-01
1.927115596709857714e-01,2.401989594766784919e-01,2.509175870177919876e-01,-8.629710625789257725e-03,-6.467379778486665419e-03,-7.634688717064625277e-03,5.833270028233528137e-02
2.323321714583782005e-01,2.355533418021371062e-01,2.347938995593091271e-01,-6.676160789663961384e-04,1.364994137322790308e-03,1.946747283844554605e-03,5.177125800400972366e-03
1.832589124223643617e-01,2.577427909047353416e-01,2.489144656339014050e-01,-4.644155254045078882e-03,-6.912233510727144002e-03,-1.140002953308889063e-03,7.197332382202148438e-02
1.757356864062910862e-01,2.533973650437295611e-01,2.599962553788236486e-01,-1.027717575593663918e-02,-3.796303404614839901e-03,-1.924522863139864395e-03,8.341804891824722290e-02
1.915281779143153118e-01,2.388255309546192806e-01,2.579858976257645153e-01,-9.450700977564405539e-03,-3.284090723931017489e-03,-3.558057013910156767e-03,6.203769892454147339e-02
1.449012903583979106e-01,2.073421094481580629e-01,3.134890483112605652e-01,-1.046480491124271717e-01,-5.447363325723926508e-02,-6.163122451035718541e-02,2.737607061862945557e-01
2.590296272622395479e-01,2.356775214914470506e-01,2.078389256112246342e-01,-2.492170606197938523e-02,-3.372236336310176219e-02,-5.104829371103380975e-02,1.227316185832023621e-01
1.872863366664581919e-01,2.476734704638746398e-01,2.631376967649471932e-01,-6.837047913605308336e-03,-1.687900420080146223e-03,1.590260426449247250e-03,7.054047286510467529e-02
2.575557898276567004e-01,1.796216290260085890e-01,2.683180069733654416e-01,1.853072948112313365e-03,6.576779655131544111e-03,6.632595620867358203e-03,8.544202893972396851e-02
2.277760328092639786e-01,2.292954103215511241e-01,2.516172648849480664e-01,6.079746948641594553e-03,7.035798004184429721e-04,7.428638247882359382e-04,2.546604722738265991e-02
2.293581502577088371e-01,2.293548134190491472e-01,2.489734775212617823e-01,7.237829303023736189e-04,-1.094316760207164922e-03,6.637996135627195846e-04,1.978162303566932678e-02
2.511592648884530266e-01,1.608229374646705234e-01,2.799818315198080443e-01,6.518303534462491222e-02,8.641866581751626690e-04,3.554916189466870990e-02,1.677351146936416626e-01
2.636892209260996989e-01,1.964974582378307133e-01,2.801570406647337919e-01,3.720011479359530693e-02,7.874649631497939936e-03,7.846850151603740678e-05,1.011435538530349731e-01
2.264195108191834338e-01,2.321638013719812266e-01,2.472341342387302521e-01,3.262900397498222707e-03,-1.249632460738079069e-03,3.477145616803923103e-03,2.048355713486671448e-02
2.268082306773678836e-01,2.305566993382063834e-01,2.500357323455901781e-01,1.062668347519597203e-03,-8.492309527518927462e-06,6.656726141717228843e-04,2.170754782855510712e-02
2.306415436962636345e-01,2.274723944464960290e-01,2.489675796350816483e-01,2.447225457185940936e-03,-1.551628499159769066e-03,8.760619945644678103e-04,2.077154070138931274e-02
2.552776007403930181e-01,1.354469046910465879e-01,3.566073544435819365e-01,5.811859676665059177e-02,1.962012478360753917e-02,3.435534079577092642e-02,2.271531671285629272e-01
2.364030693529015625e-01,2.360196880683241571e-01,2.151282198995104200e-01,-7.022918879668652546e-03,-2.792880104645160348e-03,-3.285887358317741286e-03,2.546302601695060730e-02
2.344778729530967720e-01,3.332357413505651622e-01,1.538856368429742938e-01,-1.423374087585690950e-02,-1.110467376034442594e-01,-2.599973776227098091e-02,2.526603043079376221e-01
2.338987793500213186e-01,2.473779863676501267e-01,2.049573058943550130e-01,-6.137612491587659223e-03,-4.515449593291526523e-03,-3.164120857171977795e-03,4.016988724470138550e-02
2.211260973908960592e-01,2.463609465390886877e-01,2.192358405023397683e-01,-1.903333785847892510e-03,-1.074496993739075057e-03,-1.124770851366632555e-03,2.657438628375530243e-02
2.305423926386321876e-01,2.214136091142179519e-01,2.326038453192290079e-01,-9.563139151734843888e-04,-4.523613605252867036e-03,-3.353478035643860924e-04,1.307184249162673950e-02
2.516356106273421878e-01,1.842548164636707564e-01,2.482728179315219219e-01,-7.857735089246649374e-03,-5.711864385276939349e-03,-5.054484673319805874e-03,6.844446063041687012e-02
1.843939413044552722e-01,2.701402784714994065e-01,2.096198487992376458e-01,-5.464683419076121762e-02,-9.476105632998414741e-02,-6.838454174258135065e-02,2.361205071210861206e-01
2.364980191793340514e-01,2.114013983762657312e-01,2.393164103355109318e-01,-1.373196887101319624e-02,-9.064621324600195817e-03,-1.187790023066654863e-02,4.409050196409225464e-02
2.278902843319570715e-01,2.549048925321554804e-01,2.109560006739931159e-01,-1.043006284546521946e-03,-1.370410401075369475e-02,-1.969299837297242266e-03,4.530273005366325378e-02
2.006162662061805324e-01,2.386692485034974109e-01,2.510526785696928775e-01,-1.889383821325928484e-02,-1.194777667188317606e-02,-6.873312701195542947e-03,6.093859300017356873e-02
2.337989652211591440e-01,2.850130569447236195e-01,2.004033035144524577e-01,-1.247460157206500483e-02,-5.488463821288965677e-02,-1.566417318413171333e-02,1.252533346414566040e-01
2.614461702101769092e-01,2.154463485859632876e-01,2.182795774538383304e-01,1.510535586759786291e-03,1.308301968519978188e-03,-9.062105982629665990e-03,4.745553806424140930e-02
2.959812354091628794e-01,2.702578723336171440e-01,1.478275373768199730e-01,-2.751738880442723689e-02,-6.895906121884183559e-02,-9.397540840868033596e-02,2.486604303121566772e-01
2.914537263579490833e-01,2.947212457832052990e-01,1.379898167144616439e-01,1.195706467606273173e-02,-9.316972127986079821e-03,-5.098259135481961538e-03,1.575772911310195923e-01
2.353381562849384545e-01,2.232836713121547356e-01,2.319627843308961213e-01,-6.750967665454151063e-03,-7.708112773050047190e-03,-6.076320337272300871e-03,2.327556908130645752e-02
2.302171659169211515e-01,2.273980342817585321e-01,2.286964883438766805e-01,-6.490024682729683388e-04,-1.778577375518415995e-03,-9.734770391447470587e-04,4.423750564455986023e-03
1.854210961146464665e-01,2.492755306074287969e-01,2.490591422037464475e-01,-9.894554262984078807e-03,-6.102169424608222884e-03,-6.606825491208515033e-03,6.782318651676177979e-02
2.159380604374196710e-01,2.584732020075045655e-01,2.255620415575379512e-01,6.005449983513928228e-04,-1.280822387289688377e-02,8.813674993719208556e-04,4.458773508667945862e-02
2.579341619721925438e-01,2.387540292475906767e-01,2.000552231405104686e-01,4.171283808028976650e-03,-1.109702854528891612e-03,-6.132477867617830772e-03,5.269191786646842957e-02
2.582908885247526265e-01,2.056655492179168543e-01,2.125024139855538619e-01,-5.896326137112621601e-02,-3.953913859171863387e-02,-9.057124085579061623e-02,2.053919583559036255e-01
2.466403612003756907e-01,2.224982230747609702e-01,2.245114319389867052e-01,5.437955759847506922e-04,1.811530096544333723e-03,-3.584059843460479528e-03,2.423966117203235626e-02
2.671049283467749613e-01,2.616558887557259849e-01,1.785500814943987713e-01,1.567521167916347685e-02,3.555535246447538017e-02,-2.435983485803488221e-03,1.092547550797462463e-01
2.292497261541585896e-01,2.496324268938795998e-01,2.282221094489177704e-01,4.414817590197416680e-04,7.313033301315272463e-04,-7.135019224529888293e-06,2.096772193908691406e-02
2.261798928007693332e-01,2.510312134655121041e-01,2.291989963998468105e-01,1.198726272091598874e-04,2.857190913421333266e-03,1.529397411888386293e-03,2.415005862712860107e-02
2.446141591240121593e-01,2.565554885789283479e-01,2.064545990225555572e-01,5.680433585347835664e-03,4.014250086293250780e-03,-1.147803913366640107e-03,4.694166779518127441e-02
2.279160546603658244e-01,2.510686235217823303e-01,2.300526561344543031e-01,5.095337857633246885e-04,8.171914655070419741e-04,7.062591102693308726e-04,2.225797437131404877e-02
2.167247415375756492e-01,2.473268225785467400e-01,2.559624230087094721e-01,3.490203485779843490e-02,5.145886422599618010e-02,-1.569284441939473168e-02,1.166731566190719604e-01
1.771330751292560235e-01,2.824311446561182382e-01,1.964380311087785269e-01,6.866509234651581826e-03,8.568669552951305168e-02,-4.363603740817770596e-03,1.779123097658157349e-01
2.306892782649433149e-01,2.507326089117009049e-01,2.282618532842766446e-01,1.678490161230241327e-03,8.924899794847218452e-04,1.168933459648124830e-04,2.161397226154804230e-02
2.404869732183780862e-01,2.077651254845875595e-01,2.423521521505091758e-01,-1.669922092663086652e-02,-1.134232385357797010e-02,-1.579588015563571091e-02,5.573416128754615784e-02
3.001167129673793510e-01,2.196396923871689333e-01,1.928690681419805153e-01,-4.486826375569237524e-02,-5.051427385923018543e-02,-1.089795559858488389e-01,2.422226816415786743e-01
2.792122651837493086e-01,2.494740919742750029e-01,1.856648976592228384e-01,9.948959534665702611e-03,1.030276188847614391e-02,-3.141419723620653137e-02,1.021248400211334229e-01
2.631097805918166666e-01,2.281004811270681831e-01,2.040633624278642144e-01,1.196107028124444860e-02,6.327284843909462136e-03,-2.221756167130092136e-02,6.837486475706100464e-02
2.948925230597831404e-01,2.191613325853025152e-01,2.071092681236539057e-01,-5.765746048018288543e-03,-7.845548392767609167e-03,-6.788426440480209434e-02,1.445765942335128784e-01
2.228803450096568939e-01,2.338181177799641686e-01,2.304589310443112271e-01,-4.795362279997271958e-03,-7.909446094440658950e-03,-6.828131213514697546e-03,2.215201221406459808e-02
2.581909856376648493e-01,2.128838464807003839e-01,2.281928153187263719e-01,-3.736340536528897152e-03,-7.878500513485984288e-04,-1.371240676166566967e-02,4.691832140088081360e-02
2.272653107140611417e-01,2.336113622592567163e-01,2.469163524944330557e-01,2.333870831195909018e-03,1.154440965553842893e-03,-8.477430148811785152e-04,1.800623163580894470e-02
3.202140396082038265e-01,9.936788012165431727e-02,2.666407037151017900e-01,-6.166908989924188567e-02,1.646429172255324189e-03,-7.924316401304332125e-02,2.647025883197784424e-01
2.311405766829566777e-01,2.314001132387423776e-01,2.417420119396302414e-01,2.270952504691877826e-03,1.245813210164582263e-03,-1.651193567077061976e-03,1.174791343510150909e-02
2.551052578532259085e-01,2.034343983675300227e-01,2.364885324843874481e-01,2.978081159852852787e-03,5.915223415123509187e-03,-4.901304234434640528e-03,4.752013087272644043e-02
2.550632557989608862e-01,2.097484295697696899e-01,2.284483816107380771e-01,3.011820744487015561e-03,5.228961183924189966e-03,-1.081701688612207377e-02,4.489988088607788086e-02
2.567421472055725906e-01,2.244887492222812087e-01,2.248867039380336996e-01,1.949214745718393788e-02,1.372298072631559888e-02,-1.661766278586119389e-02,5.967274680733680725e-02
2.441763051332747625e-01,2.281717807783026075e-01,2.257379512165945956e-01,2.851793933728865096e-03,9.667184177645936263e-04,-2.018250646345410865e-03,1.845108158886432648e-02
2.115493042690606840e-01,2.525353829141310236e-01,2.422086282719234374e-01,2.839273246997077969e-03,4.267400730990869584e-03,-2.152342305073894329e-03,3.815706446766853333e-02
2.070690038095595875e-01,2.479485064404834405e-01,2.510747141551575301e-01,9.645851163573393103e-03,1.484861206600573101e-03,-1.404270170272208223e-03,4.582970961928367615e-02
1.740419256094721812e-01,2.590763281126073903e-01,2.628213840308842864e-01,1.770906839674065911e-02,4.360401860404051685e-03,3.555357164463139596e-03,9.273148328065872192e-02
2.519697728884912613e-01,2.203552995621505806e-01,2.202227251016392606e-01,2.502435601756396177e-02,3.157749906164225573e-02,-4.805219946498301420e-02,1.131406053900718689e-01
2.368878194712413787e-01,2.359237132873885090e-01,2.309188635637481612e-01,-2.912834651192488383e-03,1.338324613844874781e-03,1.177426303877210367e-03,8.111065253615379333e-03
2.645680114878047329e-01,2.398983407856752903e-01,2.026648824651809955e-01,7.542784946862255563e-03,5.776022178102792511e-03,-1.856782305800909819e-02,6.495013833045959473e-02
2.287187878939195285e-01,2.292307452934888856e-01,2.468864480941009021e-01,2.817032925964713021e-03,1.017013517660415823e-03,-1.133753736970215470e-03,1.875609345734119415e-02
2.721790860501034359e-01,1.111961237548202003e-01,2.595602109877571673e-01,3.658010264065319345e-02,2.527376378319165506e-02,-5.470465445596550680e-02,1.973619163036346436e-01
2.399072742493557064e-01,2.504471295550708687e-01,2.256192604588114492e-01,7.282249854402936609e-03,9.208498985210870208e-03,-6.458221004836671095e-03,3.169287368655204773e-02
1.947552026829528216e-01,2.434851572646212492e-01,2.367619881873005427e-01,7.184642113627892623e-02,6.474434146627291997e-02,-2.458398123385248726e-02,1.787918359041213989e-01
2.887399664590631909e-01,2.108161920555973734e-01,2.304385806905481782e-01,2.042193828502332498e-02,1.394071586749682200e-02,-4.396855593000215806e-02,1.120803356170654297e-01
1.982841880720177807e-01,2.450149446098454642e-01,2.518833500197571462e-01,1.608790963713280578e-02,1.604773487499822418e-02,-2.902728478755184621e-03,6.423576921224594116e-02
2.113082477661254177e-01,2.570891704891444252e-01,2.422009181699855407e-01,6.558699184150413967e-04,3.949122820175630759e-03,3.095891327494995453e-03,4.138581827282905579e-02
2.847316550128418666e-01,2.741575352498618612e-01,1.494082224496658395e-01,1.208750761941041613e-02,1.414960699765087718e-02,-1.738348422959178768e-02,1.376184225082397461e-01
2.326156727586063677e-01,2.394771569595565419e-01,2.333122970761399018e-01,-1.224846492217780561e-03,3.691805384679749469e-04,5.257022971201471325e-04,6.965923588722944260e-03
2.647549566639660901e-01,2.620665877427290624e-01,1.715247177137576851e-01,2.370020176915865664e-03,-3.147240285607550564e-03,-3.996735278001141596e-03,9.242811053991317749e-02
2.621112350746936936e-01,2.568742907488802407e-01,1.850019521156351654e-01,2.701363633906559217e-03,-2.834486282470348537e-03,2.201724957592654432e-03,7.503324747085571289e-02
2.963227583149609101e-01,2.944728341724656140e-01,6.004035841319982358e-02,1.514118276946027630e-02,-1.779884402241072939e-03,-1.158984495866330908e-03,2.368480265140533447e-01
2.852552504521777554e-01,2.995081485678159905e-01,1.687199563441207917e-01,3.222843204644137982e-02,1.106138514268016348e-01,5.202693953082536404e-02,2.517683207988739014e-01
2.534516178951110033e-01,2.548443975588266519e-01,2.004054378193876607e-01,7.743311924513721772e-03,-5.505744601090645923e-03,8.919147255388252746e-03,5.830255895853042603e-02
1.835014884893930442e-01,2.864027291136473918e-01,1.852053725909436621e-01,4.151322187778900413e-02,-8.102648961185907051e-02,4.149600277813031424e-02,2.011166512966156006e-01
2.160103404827106999e-01,2.538954628452493867e-01,2.326138912273055803e-01,1.284696804638101909e-03,6.557076872848352847e-03,-9.188445642095625747e-04,3.490562736988067627e-02
2.257565956418692565e-01,2.590424371817517391e-01,2.246243421508772042e-01,3.323309343150291587e-03,1.132943839087054670e-02,-4.766563210951754899e-03,4.041384905576705933e-02
2.259203841327059870e-01,2.506709753105594851e-01,2.307336956692922214e-01,7.207584298377923667e-04,2.815395440271161592e-03,4.764246490071746398e-04,2.329476736485958099e-02
2.259026358196263573e-01,2.515353093293753450e-01,2.235256570169240065e-01,2.800495733558529526e-03,1.081848222425947290e-02,3.541587338460537820e-04,3.314567357301712036e-02
2.443073169613342865e-01,2.310121476886830838e-01,2.304826821164381312e-01,-1.014353252346539020e-03,1.206644317170803065e-03,8.678788635246496679e-04,1.392104662954807281e-02
2.958115704497981668e-01,2.516748641408130260e-01,2.788870067582318035e-01,-2.205111430691845953e-02,8.672962992698737827e-02,1.082218478452232485e-01,2.462686300277709961e-01
2.424296583429445262e-01,2.310118648490506188e-01,2.323733712637783833e-01,-9.139736312788184977e-04,1.015378610963230469e-03,7.775220918063922414e-04,1.113943289965391159e-02
2.391447047352392719e-01,2.325463721917914173e-01,2.335130409277320906e-01,-1.072603590218406582e-03,4.170617157774432135e-04,1.949044720878952814e-04,6.494710221886634827e-03
2.769727793964938400e-01,2.114258716769934487e-01,2.583690020255718367e-01,-3.545102081262115588e-03,1.691971790683053853e-02,4.014262201320545342e-02,9.567602723836898804e-02
2.420657546482813949e-01,2.342681316825487026e-01,2.272333120696089781e-01,-3.062384372487152694e-03,2.981105132828989947e-03,2.268105055644559134e-03,1.534193381667137146e-02
2.455395392954140277e-01,2.422549902435831570e-01,2.205245683650147448e-01,-3.566649881746899314e-03,3.803185947989809641e-03,3.023808216124454929e-03,2.575577609241008759e-02
2.518507084391465312e-01,1.778421414204054973e-01,2.797552236793056646e-01,3.572531185442671259e-02,2.921498416069285816e-04,2.259513935453987682e-02,1.169695407152175903e-01
2.256538599107252852e-01,2.343779752702241370e-01,2.444149846871354892e-01,1.055136489114627193e-02,-6.252533654768925066e-03,7.176908286008603158e-03,2.949942834675312042e-02
2.294515950001515259e-01,2.401627556426204069e-01,2.201929301394576488e-01,1.104103438766377253e-02,-1.387622166900115070e-02,1.066586951367925334e-02,3.980285301804542542e-02
2.195352259693479635e-01,2.445589417563319989e-01,2.384929644402209725e-01,1.660236471830668550e-03,-2.320297533834805599e-03,5.152964043804177628e-03,2.480461075901985168e-02
2.179039583197995289e-01,2.519447338565994898e-01,2.317477916657411374e-01,1.043398540828786771e-03,-2.281792035288109175e-03,4.367904611746914120e-03,3.090781159698963165e-02
2.798802944730978126e-01,2.718152995429042873e-01,1.491309930826563712e-01,3.453856444132220871e-02,-7.829158203055675697e-03,8.056839309970829921e-02,1.983490735292434692e-01
2.278159060395256175e-01,2.484483117135206087e-01,1.800036525427320955e-01,4.841116347735593267e-02,-6.316222647690643288e-02,6.998367317595048653e-02,1.933666318655014038e-01
2.612864771768529937e-01,1.988659319536828229e-01,2.538678907131572959e-01,7.416859978517119367e-03,1.023380394195671063e-03,2.780967563246253965e-03,6.066020578145980835e-02
2.105649558851574732e-01,2.551794179501672422e-01,2.256537956598559103e-01,-1.402379432497977791e-03,-2.699313730006075180e-03,-8.431568856081876574e-04,3.968418389558792114e-02
2.263444882887351850e-01,2.427797331715783047e-01,2.248564120804457389e-01,5.559681284389136717e-03,-7.215021419530229414e-03,4.760132521358409821e-03,2.477226033806800842e-02
2.367905640267162770e-01,2.366415941352359997e-01,2.328721592655183525e-01,-3.439542620895640317e-03,6.869990707982053489e-03,5.765414753514871982e-03,1.707612536847591400e-02
2.543340152659459563e-01,2.447717351959122489e-01,2.029826638595623733e-01,6.312683000058362526e-03,1.134795293066076256e-03,-7.296530376826940167e-03,5.020451918244361877e-02
2.543901333362842410e-01,2.560540558073125528e-01,1.760879091941034424e-01,1.034003140004645209e-02,1.787394186814951491e-02,-1.711158428348563687e-02,9.177089482545852661e-02
2.494444183236624590e-01,2.303830765171838157e-01,2.226769180702869166e-01,4.083870110517218502e-03,1.383815370182466756e-03,-1.770870877961563819e-03,2.519516088068485260e-02
2.590278246275610208e-01,2.495739447105768394e-01,1.907045318349705199e-01,7.646963370035717023e-03,2.606857310150710420e-03,-5.798566355268121135e-03,6.639437377452850342e-02
2.598206953904557692e-01,2.361149005739387741e-01,2.018856386958211013e-01,2.491290392897698488e-03,6.381901861662281177e-04,-5.280336555585943628e-03,5.146383494138717651e-02
2.340662690529028978e-01,2.391049281738040766e-01,2.319527309369628087e-01,1.439366139614797887e-03,3.785500611562424094e-04,-4.156524855866146708e-04,6.904205307364463806e-03
2.325297078375795912e-01,2.416089234741577996e-01,2.311429418063575270e-01,7.965716533090537064e-04,-9.623110898290078891e-06,-6.198035193607499783e-04,1.000011712312698364e-02
2.266656983193408303e-01,2.478842489309691366e-01,2.561977223842505369e-01,2.734237266737338592e-02,1.415587621801271678e-02,-1.171428842361605348e-02,6.286013871431350708e-02
2.451121589447023685e-01,2.113951620108062979e-01,2.516574184176579299e-01,5.644120897967901292e-03,-2.311911025273684014e-03,2.744411457051719374e-03,3.917347639799118042e-02
2.519466592726642418e-01,2.015447763918829516e-01,2.573813021163452452e-01,1.073569898119331768e-02,5.581620466076476703e-03,1.070848479883626005e-03,5.732774734497070312e-02
2.662135932170053843e-01,1.852258301468959201e-01,2.592621180399748426e-01,3.697120677728407169e-03,2.021385842352558908e-03,5.495295298604415367e-03,7.866521179676055908e-02
2.359157842067107214e-01,2.310743611680696197e-01,2.366997769415583042e-01,1.447572975889727153e-03,-3.092827960165534136e-03,1.430524153763912268e-03,8.304939605295658112e-03
2.643173142824805644e-01,1.779126075984423239e-01,2.642320403164867826e-01,6.043923447720247685e-03,5.674953710003077106e-03,-2.105768753017853850e-03,8.762373030185699463e-02
2.627659178042380805e-01,1.794208375745006134e-01,2.571192611663006278e-01,-6.249827172246236054e-04,4.680006965805135095e-03,8.899666686955258824e-03,8.253579586744308472e-02
3.411972768459756722e-01,2.037769122966094359e-01,3.005533164021191306e-01,5.929720001821146835e-02,1.854812382522626549e-02,1.186663808420279353e-01,2.622530758380889893e-01
2.521004887243650794e-01,2.008557380624620414e-01,2.580451957743324365e-01,1.076075516462282958e-02,2.585518840858075200e-03,9.709189357410497045e-03,6.013518571853637695e-02
2.583448308066300103e-01,2.000831247488793485e-01,2.500783612019241708e-01,5.942152218902581632e-04,2.491961347306878138e-03,1.143217457769639921e-02,5.824873596429824829e-02
3.000684403105257081e-01,8.764190940384528061e-02,3.172762050664600930e-01,4.421633196606961774e-02,3.695246527859057800e-02,-4.960118483927732080e-02,2.577189505100250244e-01
2.669328011935758749e-01,1.463576117831860146e-01,2.717792826718914423e-01,6.691164270284604039e-03,5.597383684523647880e-03,5.825996654200520965e-03,1.244040355086326599e-01
2.575820054463641151e-01,1.915910180448439082e-01,2.382633442817713998e-01,-2.824382638716615469e-03,-4.356983684203334650e-03,-1.172978493592949020e-02,6.282363086938858032e-02
2.658466583767489233e-01,1.860053492788479867e-01,2.470344997462370629e-01,-1.290187188621051652e-03,3.461933455754874316e-03,-7.804765194515164359e-03,7.382571697235107422e-02
2.710675798568720207e-01,1.368725418970911378e-01,3.249777445495908301e-01,-8.302394515551266008e-02,-1.478359010864250915e-02,-4.529847589002330976e-02,2.358803451061248779e-01
2.827511403965833892e-01,1.222448406068794569e-01,2.460127008909425983e-01,-2.572485201702966184e-02,-7.769914045290871041e-03,-7.723622643597165272e-02,2.031697779893875122e-01
2.336651445573514341e-01,2.455614035523222272e-01,1.987363092541086229e-01,5.119936384576333904e-02,4.662224226381355557e-02,-5.789337298904257550e-02,1.619167029857635498e-01
2.570907437472996770e-01,1.688358315601315163e-01,2.104733342669790619e-01,-5.214493151115183467e-02,-4.157781879483479076e-02,-8.343415030830092505e-02,2.001876533031463623e-01
2.269937602653754327e-01,2.236041105498383086e-01,2.499918716057773216e-01,-4.763210932176949923e-04,2.016373694791330495e-03,5.249620594529361920e-04,2.514086477458477020e-02
2.240126298975505248e-01,2.211013270920569040e-01,2.525661845642405701e-01,-5.709511593345362006e-03,1.593384460415959904e-03,1.246535731283362645e-03,3.189016878604888916e-02
2.233501677902106908e-01,2.268512381303748049e-01,2.493188408534267875e-01,-1.603485765437519771e-03,2.247014790880600245e-04,3.170339725200343778e-04,2.457392588257789612e-02
2.152103405246204304e-01,2.375168685700529136e-01,2.145753148835345958e-01,-2.217025946315432511e-02,-3.125162599153848142e-02,-2.289811183162488925e-02,8.055850863456726074e-02
2.408538654458300121e-01,2.408124089407995272e-01,2.107284234817919932e-01,-8.365318636897241603e-03,-1.187555809359620851e-02,-1.039130482409603672e-02,4.316543787717819214e-02
2.319914641561983959e-01,2.450632268216348386e-01,2.084456961905922223e-01,-9.540119018593152742e-03,-1.104350749639539282e-02,-6.111690898518427548e-03,4.223784804344177246e-02
2.518443749677680144e-01,2.185614804927609733e-01,2.211986513386495490e-01,8.799808218989318758e-04,1.061940411465354559e-03,-4.122918380801698923e-03,3.291860595345497131e-02
2.802656974563981773e-01,2.418714049733737270e-01,1.754666645094430377e-01,1.779291533387138396e-03,-1.832669408612466050e-02,-4.190329152710302318e-02,1.213179007172584534e-01
2.432140753691817425e-01,2.267007524352573078e-01,2.161062407817665454e-01,-8.960811753723518444e-03,-8.370640396432104530e-03,-1.105080353004495725e-02,3.711248189210891724e-02
2.343645223294438251e-01,2.303458080358097848e-01,2.180648499015191422e-01,-6.199780925776723732e-03,-2.271152150599632397e-03,-3.341412337596292702e-03,1.950915157794952393e-02
2.367502900339698291e-01,2.739818313805944539e-01,1.379506979393669286e-01,-1.889354681033555625e-02,-8.413694510730357345e-02,-5.221856901001902668e-02,2.128716111183166504e-01
2.711195553528875091e-01,2.380262160318749320e-01,1.983439190832413934e-01,3.077000161293378701e-03,-5.157363018752280856e-04,-2.111778040650744148e-02,7.314477115869522095e-02
2.465714043075996897e-01,2.571990563795809592e-01,1.945024109598734730e-01,1.415612961755292887e-02,-2.362090997704001730e-02,7.684238131583778081e-03,7.635228335857391357e-02
2.290425008723002143e-01,2.508771881956617933e-01,2.279268436102148965e-01,-4.213239127920053698e-04,7.044052979379634982e-03,3.237937511150926900e-03,2.613808773458003998e-02
2.900526848599080387e-01,2.787981647194023305e-01,1.691872136862326848e-01,-1.771303003678484714e-02,5.327285308543813075e-02,6.987649891779709743e-02,1.935930401086807251e-01
3.478360372676309042e-01,3.500339037607320125e-01,1.252761041907039796e-01,3.098234085427163664e-02,5.661268489645562146e-02,4.843030404018494606e-02,2.637386918067932129e-01
2.532520343644601990e-01,2.302824459494610121e-01,2.292564091807925142e-01,2.036593830514178433e-03,3.180068211256779952e-04,4.792311655885106263e-03,2.517672814428806305e-02
2.181435239384640068e-01,2.000568529599633660e-01,2.647417888443782674e-01,-3.750011339199048332e-02,1.438262929768794468e-02,2.483329465447831064e-02,1.001537144184112549e-01
2.623985708283047558e-01,2.561296497220463264e-01,1.779756212193277509e-01,4.023108726826056872e-03,-1.098701616636924325e-04,1.920019911573113674e-03,8.183486014604568481e-02
2.475501905360634469e-01,2.693574598128039010e-01,1.929218100020843873e-01,2.668173626084785824e-03,2.930804216188825917e-02,-5.261981198337596123e-03,8.562954515218734741e-02
2.209253770093516089e-01,2.546827684485279963e-01,2.398447490486866618e-01,-6.827387966672196148e-03,1.554948925144021207e-02,1.034797286213674956e-02,4.522473365068435669e-02
2.248311875349880418e-01,2.313112861038522095e-01,2.432144046171195451e-01,-4.375027379740698170e-03,2.771715299077892342e-03,5.089400387558416783e-03,2.046912536025047302e-02
2.536950268487450089e-01,2.342405739678772303e-01,2.125925529210211384e-01,7.547349178020871120e-04,4.918276911689369903e-04,7.035480232812581919e-03,3.767215833067893982e-02
2.501581930688970834e-01,2.619788859097352818e-01,2.012706246803945276e-01,-4.602656412339622277e-02,5.104577814420824949e-02,7.903652973271275972e-02,1.897900849580764771e-01
1.343096337316441180e-01,2.789652670925740763e-01,2.162463789857003438e-01,-3.478486941195146898e-02,-9.118489259846519757e-02,-2.370502803232424349e-02,2.145834863185882568e-01
2.044672233655588367e-01,2.839776138707816311e-01,2.536728078174501078e-01,5.019795995669677074e-02,-6.962250576244576050e-02,9.240749939706514871e-02,2.292369008064270020e-01
1.973351376137650603e-01,2.591703435610774320e-01,2.791814770600377638e-01,3.074657530486724771e-02,1.606006785079964680e-02,1.895235358328182379e-02,1.007414460182189941e-01
2.462843646649202634e-01,2.647746174930886154e-01,1.818807672245109641e-01,-2.241759965054759135e-02,-2.858003624581758814e-02,-2.988107943744170575e-02,1.109832897782325745e-01
2.310286017289452098e-01,2.440918982552232608e-01,2.216055480865857796e-01,2.970498486488354611e-03,-2.207910375327198568e-03,7.542358561379665285e-04,2.062383666634559631e-02
2.126887348687276635e-01,2.608995249554381668e-01,2.970676946945662866e-01,9.458494981366431797e-02,-7.033060447030307569e-03,8.290134489785995486e-02,2.301767617464065552e-01
2.025994482915264294e-01,2.386700429777636190e-01,2.387815816690549431e-01,-6.372578038090568296e-03,-6.343687590553936245e-03,-8.629119584438250598e-03,4.208402335643768311e-02
1.986137896509644896e-01,2.387101463805979262e-01,2.474419272119493529e-01,-6.675536081278318420e-03,-3.354768285100860614e-03,-7.802038298106281702e-03,4.882767051458358765e-02
2.555970311511703841e-01,2.650299028053381134e-01,1.701608838932974765e-01,3.248345753184865743e-03,-3.413539568648154415e-02,-3.071989202700541044e-03,1.083967909216880798e-01
2.013976993822386985e-01,2.570449582025811086e-01,2.343048514461200660e-01,-2.233735413066135697e-03,-5.197343007059027943e-03,-1.610789266713227299e-03,4.951863363385200500e-02
2.043399165886161384e-01,2.742631321480992201e-01,2.380884704561674059e-01,1.491145930474736467e-02,-3.274523640654156825e-02,5.971336607497525206e-03,8.751679956912994385e-02
2.259126608243988421e-01,2.282183626166426060e-01,2.319611465736611533e-01,-1.626471286547878300e-03,-1.517702000350900412e-03,-3.336639521367144954e-03,8.729284629225730896e-03
2.224438186056302280e-01,2.227678664274472253e-01,2.502149463187742784e-01,-1.189321992755705678e-03,1.957739583486696033e-03,4.822931377133673602e-04,2.790664508938789368e-02
2.255791118647519911e-01,2.270914105672635908e-01,2.475862867612367013e-01,-8.177367888533561236e-04,1.255433712575132390e-03,1.907610992274175275e-03,2.170190587639808655e-02
2.204692607172736574e-01,2.243333280879364899e-01,2.498334029098039921e-01,-3.585032023883519443e-03,3.630806057679775004e-04,1.645474081508340293e-03,2.847445197403430939e-02
2.266131390102981980e-01,2.228131383495992046e-01,2.493631522653287913e-01,-1.785669905449626012e-03,3.320018870791181234e-04,3.541567468469474064e-04,2.507440932095050812e-02
2.216138819444507801e-01,2.220087763076850074e-01,2.550010285107306429e-01,-4.715635703852605679e-03,1.149363216795927164e-03,1.025001168266258993e-03,3.428556025028228760e-02
2.228351317710640100e-01,2.232310728955793910e-01,2.474894918778605679e-01,-3.589125252745279434e-03,2.083940788450993568e-03,1.356772081311118441e-03,2.560134604573249817e-02
2.187641458035494424e-01,2.207413293533207199e-01,2.533341610441093295e-01,-6.883148218416406229e-04,3.929321605761434987e-05,1.608791553208693413e-04,3.364739939570426941e-02
2.151482983738440824e-01,2.381239513971477040e-01,2.298025016191286019e-01,-1.994829664963581640e-03,-2.988123032000596698e-03,-6.052323955817779169e-03,2.354894764721393585e-02
2.117496410160606690e-01,2.268085044783501592e-01,2.365280982270401844e-01,-1.450153741754631187e-02,-8.360107276587258607e-03,-1.070173716043315224e-02,4.064166918396949768e-02
2.618334742225792988e-01,2.620581415259568003e-01,1.725829172720149962e-01,1.626169000554274734e-03,-3.737327362835386226e-03,-4.635243084787955999e-03,9.000031650066375732e-02
2.463737435315530577e-01,2.294961814911967712e-01,2.117942112359583184e-01,-5.266083661697740399e-03,-2.480762159484355914e-03,-3.041730753865178050e-03,3.203735128045082092e-02
2.501915759904786984e-01,2.147826826578421167e-01,2.225984810872606856e-01,-4.160391330120003645e-02,-4.298574382843423081e-02,-5.925805595724363550e-02,1.493608355522155762e-01
2.304140460566630466e-01,2.338208508308548816e-01,2.221157705092280665e-01,-4.513008470897634898e-03,-1.994957843574712581e-03,-2.329031518595051520e-03,1.407312229275703430e-02
2.262636440154151829e-01,2.466748981428846521e-01,2.156759429794430083e-01,-4.934093635966226021e-02,-6.275202453354598864e-02,-4.773971931996746909e-02,1.633986085653305054e-01
2.313389981010293417e-01,2.184270960680410045e-01,2.392356067004547115e-01,-7.966262943281596925e-03,-6.991898579105376363e-03,-6.639161614174687864e-03,2.828980796039104462e-02
2.239568723398505934e-01,2.102498817281916454e-01,2.580557920486026280e-01,-5.283370884034980369e-02,-3.575330421981244566e-02,-4.445016228789283597e-02,1.412606090307235718e-01
2.240554055432130431e-01,2.504109604512692044e-01,2.090185177350612211e-01,-9.412210386689628949e-03,-1.479452721497817591e-02,-8.741301691216080832e-03,4.968564212322235107e-02
2.468618828296981205e-01,2.088439705631163490e-01,2.285195730440476025e-01,-2.503622604769485845e-03,-6.121490195223048061e-03,-3.847972638678732148e-03,3.549800813198089600e-02
2.504604094328469754e-01,1.999447900667154221e-01,2.356089472635585769e-01,-2.708560484574362888e-03,-6.501173223499163469e-03,-4.386419670269491727e-03,4.720899835228919983e-02
2.599373118988876352e-01,1.909722677924969303e-01,2.382966438963651234e-01,-8.350918111892079512e-03,-2.428448285283808447e-03,-2.038331925170128178e-02,7.214839756488800049e-02
2.229942132493928086e-01,2.457304540047662300e-01,2.201958489403325336e-01,-9.089697038437987049e-04,-1.439013995456034497e-03,-1.017228538175744866e-03,2.449871413409709930e-02
2.943700920712314373e-01,1.990840591465773135e-01,2.091152413473887917e-01,-9.537468795970567570e-03,-8.286272004902275543e-03,-6.693145271638577254e-02,1.488037556409835815e-01
2.348038677659097795e-01,2.314170875187769594e-01,2.690894844322975210e-01,3.535791056509902247e-02,1.426683667649554857e-02,-6.004299339608378146e-03,7.597644627094268799e-02
2.369775924171837467e-01,2.344425660296988456e-01,2.363216311215582954e-01,-2.156615019880954269e-03,2.699078519491033244e-03,2.555006171760543145e-03,7.783699315041303635e-03
1.804308919526622090e-01,2.563354473527459376e-01,2.921087896205838419e-01,-4.188990550677790942e-02,5.311563116455653329e-03,1.304744818761081546e-02,1.249649226665496826e-01
2.216983982563401345e-01,2.193691685922790624e-01,2.547588813894660076e-01,-3.373539638382817146e-03,1.266933964438159794e-03,1.553085304874865210e-03,3.495168313384056091e-02
1.903886478673519067e-01,1.519467255754466117e-01,2.967697143063798837e-01,-1.013000857334547533e-01,-2.322681057995409307e-03,-9.888976740437899204e-03,2.190408408641815186e-01
2.247160379106365735e-01,2.391682475383763440e-01,2.386262505030866954e-01,-1.921123356646967876e-03,3.003052308037591940e-03,5.558597205222893557e-03,1.822493411600589752e-02
1.998829941751774364e-01,2.392879458385009928e-01,2.456446326653804746e-01,-3.495200498409760381e-02,-3.264589155479956373e-02,-2.732592056329741920e-02,1.046229004859924316e-01
2.267185346547790636e-01,2.138531155136704220e-01,2.384998413099256864e-01,-1.482776667274669780e-02,-1.211323527480654208e-02,-1.154812312115770928e-02,4.422382265329360962e-02
2.180265372768114274e-01,2.210855072313396008e-01,2.525519698409502412e-01,-4.396402341948317527e-03,8.651361252593459377e-04,1.213133366330098988e-03,3.406458720564842224e-02
2.076792419183715321e-01,2.251857879351806813e-01,2.514941326694603574e-01,-8.154580948988467484e-03,-3.987771029705713781e-03,-4.148637489236823954e-03,4.192861169576644897e-02
1.825164505488862110e-01,2.574477814193333325e-01,2.530937715275753397e-01,-2.188345679224389800e-02,-1.832615896820635054e-02,-3.201516631533945102e-03,8.821769058704376221e-02
2.486864219202191695e-01,1.881129372050145410e-01,2.526842457340265358e-01,-4.007584286567310479e-03,-4.372625515843903826e-03,-5.043450634350615108e-03,6.410259753465652466e-02
2.565666119112332000e-01,1.958905785848102377e-01,2.387521935676609197e-01,3.620833646726712932e-03,5.167935352736754105e-03,-9.081315521556757378e-03,5.731397122144699097e-02
2.173502276949659529e-01,2.843385245574711062e-01,3.324607392746748991e-01,1.044208971683476539e-01,-5.686797693604549175e-03,5.740532455232250086e-02,2.296107709407806396e-01
2.422303957485056891e-01,2.099069569430077886e-01,2.588888671532210695e-01,1.549881094700914994e-02,8.860826373597122455e-03,-2.196553015816885956e-03,5.321113765239715576e-02
2.462296960905752119e-01,2.100123972007051087e-01,2.619935850835911073e-01,1.444721587215899196e-02,5.292172372848079169e-03,-1.011229341881578593e-03,5.333266779780387878e-02
2.304830573064746702e-01,2.296167746199615223e-01,2.467728886392667742e-01,8.663334904000409434e-04,1.250526282259246209e-03,-4.624083667530487019e-04,1.696482114493846893e-02
2.433479472950406119e-01,2.092874829489582145e-01,2.570547031244220237e-01,2.879473610559626744e-03,2.873370965080259288e-03,1.013683156797403001e-03,4.321544244885444641e-02
2.609847274188867305e-01,2.136839303398405110e-01,2.265686682060233936e-01,4.521302524102471863e-04,1.379862582863325892e-03,-1.077050153876556345e-02,4.634932428598403931e-02
2.304358736054123169e-01,2.334838609533000098e-01,2.349583391142520683e-01,-3.708179098321455827e-03,3.977321097231169972e-03,3.840691784588499448e-03,1.220328919589519501e-02
2.322791372075056482e-01,2.331223312297350803e-01,2.777492496970965785e-01,3.659106987094703362e-02,7.041978814889939334e-03,9.182115364812068817e-03,8.030145615339279175e-02
1.875315319712440865e-01,2.669244134168854421e-01,2.642147458987140762e-01,3.315121284776970101e-02,-3.212232445983752294e-02,1.787538918403214216e-02,1.159593537449836731e-01
2.632050303919746259e-01,1.922884722229707133e-01,2.730421365669310485e-01,1.942366271328555341e-02,1.087590201164585248e-02,-2.095387852453900121e-02,9.288394451141357422e-02
2.245961739683180192e-01,2.356596808442288915e-01,2.579824692776498951e-01,1.276529051576564926e-02,3.412148839410373505e-03,7.964412378793458329e-04,3.732781112194061279e-02
2.358029566733694793e-01,2.160302231358169900e-01,2.510395808634304227e-01,5.925771258374383336e-03,-2.542954392973782469e-03,2.230582967582220560e-03,3.261987119913101196e-02
2.291536618711086382e-01,2.164325900460165875e-01,2.535284413543607007e-01,8.346924821119754145e-03,1.203404361687909372e-03,1.511733704856956569e-03,3.586423024535179138e-02
2.331754380284000172e-01,2.208648360008900191e-01,2.491271917681129322e-01,4.841455117620915329e-03,-2.796010515156510147e-03,2.070427353031820041e-03,2.662737667560577393e-02
2.242752634474210471e-01,2.261609221987476159e-01,2.352641534605082463e-01,-3.676176641200739822e-03,-3.735506278758730057e-03,-3.895473459717126337e-03,1.521575171500444412e-02
2.313112983863887251e-01,2.154369418777861700e-01,2.494016231841784947e-01,8.336068040965689471e-03,8.458460434877058953e-03,-3.383920391470650064e-03,3.638525679707527161e-02
2.348589358793657378e-01,2.193723290843099805e-01,2.497850000707232676e-01,1.195304265226605246e-02,6.683374783765120251e-03,-5.340922737856128311e-03,3.663305938243865967e-02
2.311392644653256223e-01,2.091063513641186755e-01,2.604600707449544750e-01,7.490673151991673884e-02,-2.340825069256339402e-02,4.991388323623060369e-02,1.671593934297561646e-01
3.562977290329718549e-01,2.843976329759151378e-01,1.229137271817329347e-01,2.625092675308726003e-02,4.685488035955460637e-03,-9.082165505640907299e-02,2.640763223171234131e-01
2.576154090966688015e-01,2.376968096567015909e-01,2.084467589067572346e-01,5.037861301728284100e-03,2.785731319460705343e-03,-8.484980609728028089e-03,4.637178033590316772e-02
2.441932657751235136e-01,2.400625626402219104e-01,2.207876888436766383e-01,5.700942675908886662e-03,1.458424267372581589e-03,-1.555122498572150723e-03,2.406949736177921295e-02
2.586793830802664451e-01,2.357281245043092444e-01,1.994715101009962022e-01,3.059413518186499762e-03,-8.121783433726174374e-04,-4.844379527728797513e-03,5.266783013939857483e-02
2.697236569612933565e-01,1.951711154149780580e-01,2.318376513886374335e-01,4.027767724656953173e-03,4.237282784998961868e-03,-2.373392116228045454e-02,7.720986008644104004e-02
2.442128124723498828e-01,2.485501519909404100e-01,2.136660709165489613e-01,5.825541704431183576e-03,2.653820201923395850e-03,-2.796992815995858438e-03,3.508298844099044800e-02
2.766850584984724692e-01,2.244859636159744487e-01,2.049612572119840492e-01,2.791688792259480398e-02,5.315893393531422734e-02,-6.995570408141113528e-02,1.721110343933105469e-01
2.497687601649618006e-01,2.534360096339511315e-01,1.941789016717185568e-01,1.146164179063046892e-02,1.615130516411273504e-02,-1.472952201005144068e-02,7.165975868701934814e-02
3.170824993294222294e-01,1.441013290717237938e-01,2.383319681157914094e-01,-5.041404045664093364e-03,3.255972407096643234e-02,-1.179954381541310909e-01,2.598599493503570557e-01
2.695431124751279106e-01,1.896005952514427939e-01,2.180781192575492189e-01,1.060558662737419271e-02,1.135610464403453632e-02,-4.588721472233320969e-02,1.093912199139595032e-01
2.579274670879788123e-01,2.012301577503682604e-01,2.346313853948069905e-01,-6.087152058657293186e-04,-1.667853958010402085e-03,-4.772962225852543650e-03,5.014247074723243713e-02
2.804048692123091158e-01,2.166216054994264117e-01,2.244859133528967488e-01,7.548677065382506865e-03,7.848506680720727935e-03,-5.618706224028814644e-02,1.159967407584190369e-01
2.302644001359883674e-01,2.424885839381321906e-01,1.306803501737367479e-01,-5.389909683089819104e-02,-8.779498980962932575e-02,-7.977634728281612908e-02,2.494308799505233765e-01
2.267982829665882716e-01,2.560146056705644990e-01,2.355439297781211083e-01,-5.226672664667234578e-04,1.586805453411773911e-02,5.950989803305122353e-03,3.920474648475646973e-02
2.612386006275110306e-01,2.239803365317196149e-01,2.193480623463938683e-01,1.239621507240365158e-03,8.832169106129335095e-04,-1.324773088508923551e-02,4.599656537175178528e-02
2.486015476036095850e-01,2.192850202553804084e-01,2.497905220526032144e-01,1.470260144595337409e-02,1.004323838068999462e-02,-1.039513620869344200e-02,4.659404605627059937e-02
2.479119229390816248e-01,2.127593082580180872e-01,2.381142673655250452e-01,5.220142306706834941e-03,6.395966720438038544e-03,-3.517413184390236636e-03,3.505536541342735291e-02
2.375841405310785692e-01,2.240723583627535209e-01,2.368711314625983888e-01,3.636044967504211030e-03,5.253989884417142528e-03,-2.747895508460139642e-03,1.784856058657169342e-02
2.710860211325130109e-01,2.162255248056528800e-01,2.032094332533776471e-01,3.590855178622162636e-03,-6.521000518315377267e-04,-2.586283107725015698e-02,7.706996053457260132e-02
2.570880471105694842e-01,2.589609932599636899e-01,1.807117160815528700e-01,-2.746448829291712416e-03,-1.183965018000128835e-02,-9.644607728692499923e-03,8.186645805835723877e-02
2.649839748555261054e-01,2.560896125438317794e-01,1.764334369745935438e-01,1.284006528092145613e-03,-3.019216627351057301e-03,-8.205518311271068135e-03,8.583118021488189697e-02
2.573318238603455876e-01,1.908261928915027106e-01,2.401943910192091691e-01,-2.408848857643007286e-03,-4.034255044115465233e-03,-9.325929686855801565e-03,6.248285248875617981e-02
2.906182087746970177e-01,1.895104494012967433e-01,2.126186669358304526e-01,-3.490509265313631454e-03,-1.499691472953974120e-02,-5.881195176339163583e-02,1.396716088056564331e-01
2.600189638024273941e-01,2.382262219998614872e-01,1.922907346060331035e-01,1.026776823369782588e-03,3.678249704023169812e-04,-1.219000173514723541e-02,6.352487951517105103e-02
2.625341494582663082e-01,2.561134190123953158e-01,1.754413755547829246e-01,2.343532225880921773e-03,-1.447854314029831157e-03,-8.660618247191841784e-03,8.552755415439605713e-02
3.600786040170009805e-01,2.664457746083928602e-01,9.679845103494075231e-02,8.999782012839586606e-03,1.532928715611786216e-02,-5.352205966155073463e-02,2.509455382823944092e-01
2.947737254775722460e-01,3.491780204045007441e-01,8.010750789054274512e-02,2.307633008442720388e-02,-2.925204114056638091e-02,-4.968161474044054809e-02,2.688671946525573730e-01
3.037925434611427056e-01,2.525613003322086936e-01,1.337073145223641735e-01,-8.241604248740382055e-03,-5.026006187850910571e-03,-6.866025172535149268e-02,1.930341720581054688e-01
2.817116097400237384e-01,2.178730955252176638e-01,2.066306978964583263e-01,2.429053703186499075e-02,2.128682488796462477e-02,-3.585643743700545755e-02,1.091145053505897522e-01
2.630360726626456702e-01,2.218971465003125865e-01,1.763463252339740883e-01,-1.411304352250586022e-02,-2.040515870751997973e-02,-4.270371609449549744e-02,1.138361468911170959e-01
2.500415575826663295e-01,2.247250241583664265e-01,2.216537338928914191e-01,1.878226876191021414e-03,4.303793519774233296e-04,-3.808088083864429561e-03,2.797780558466911316e-02
2.842781336716148632e-01,2.418377133585016270e-01,1.802833668223520480e-01,1.681891876076696893e-02,3.254310402613914965e-02,-5.183125974658653323e-02,1.424350589513778687e-01
3.340154682902775063e-01,1.769972606608344323e-01,2.220932221987702571e-01,1.181736743299867257e-03,4.259518414721115420e-02,-9.233347016638382421e-02,2.250136137008666992e-01
2.709961184911301446e-01,2.705616704051683752e-01,1.637551453978198512e-01,9.614148944774353681e-03,-2.770452743744607899e-02,-1.638822810340949052e-02,1.218189820647239685e-01
2.506020357549205158e-01,2.168139078788526575e-01,1.949335012575531267e-01,-5.639727552978463648e-02,-6.239146301955457441e-02,-1.138200180772241249e-01,2.498894184827804565e-01
2.491244397893627449e-01,2.450099679004673348e-01,2.086747450418031669e-01,8.975792903197797601e-03,6.263127770241695355e-03,-4.842824576309863460e-03,4.377683624625205994e-02
2.490155660220400857e-01,2.388427126263522882e-01,2.129583389109625524e-01,7.929573811140788742e-03,5.852044041623808389e-03,-3.476926211413298735e-03,3.693841397762298584e-02
2.599171255789584078e-01,3.236181910055463962e-01,1.536559803071541330e-01,8.199744796689475979e-02,6.798403617176936031e-02,-4.562877940228894647e-02,2.498007118701934814e-01
2.558331069256460921e-01,2.265086244750910416e-01,2.189374408821826157e-01,3.226733761890346244e-03,2.378115531556992523e-03,-1.011013239723995705e-02,3.865378722548484802e-02
2.615286273019087893e-01,1.887283475136358191e-01,2.488953802144722727e-01,4.828363234782162908e-03,6.638734038495696516e-03,-4.855788475223312729e-03,6.937340646982192993e-02
2.523552406656583980e-01,2.195071972176623754e-01,2.266076242812053165e-01,3.280240644004628076e-03,3.777612992196538975e-03,-5.425422163923909226e-03,3.255106136202812195e-02
2.538807583159928272e-01,2.240773278506963395e-01,2.147109216979348756e-01,1.753526717858958951e-03,8.329506381156919588e-04,-5.026508556647611529e-03,3.663643449544906616e-02
2.371530895942725592e-01,2.380438056126230051e-01,2.022776563849934539e-01,-8.953164183078735766e-03,-7.705021000371244100e-03,-6.331411217358408512e-03,4.227283969521522522e-02
2.374130424190432076e-01,2.467438259416230573e-01,2.003600856095852367e-01,-7.557691575860421909e-03,-7.176741232149300154e-03,-3.783323656282475307e-03,4.663187637925148010e-02
2.174883814278033012e-01,2.468523137578294280e-01,2.254551731739416198e-01,-1.442922060714842787e-03,-2.555976218755884669e-03,-4.349044979371717232e-03,2.782735414803028107e-02
2.218646308128952860e-01,2.418110446702074756e-01,2.230292764566962349e-01,-1.450934646194680362e-04,-3.999765876101722380e-04,-2.016572942099386680e-03,1.971619017422199249e-02
2.282773661642657492e-01,2.318372714664440892e-01,2.211860639234835557e-01,-7.630553146280152910e-03,-7.077124986474954416e-03,-7.665952569262101182e-03,2.427833341062068939e-02
2.425553044261512248e-01,2.230041736076859848e-01,2.217802071422480814e-01,-2.075205382143365668e-03,-5.757869397199875949e-04,-4.272657033615400953e-04,2.054595947265625000e-02
2.574290505588637812e-01,2.042637888362765497e-01,2.257695153352730355e-01,-6.416926922127816910e-04,-2.088841637954655384e-03,-7.556483787825529763e-03,4.828364402055740356e-02
2.496305514126508085e-01,2.222697195889068167e-01,2.171539004756017910e-01,-3.347417318049847410e-03,-1.270863582306056352e-03,-3.208136819250521476e-03,3.137032315135002136e-02
2.549100811168870662e-01,1.551685116657195995e-01,2.795956512609166222e-01,-3.890978777312176923e-02,-6.409297681895372197e-03,-2.417267378506292568e-03,1.330511868000030518e-01
2.426315254760682827e-01,2.204965577827550094e-01,2.238447148419271948e-01,-1.445121607760892343e-03,-3.627296086757004698e-03,-2.418655229087714534e-03,2.214367315173149109e-02
2.313886235591383622e-01,2.339622457424177515e-01,2.272817373619341330e-01,-5.026064772384623500e-03,-2.678223294226368071e-03,-4.163592532609189205e-03,1.354137156158685684e-02
2.201637871030828197e-01,2.550248317455956482e-01,2.239915603347762962e-01,1.767907246780104583e-03,-4.256423367773368681e-03,1.555323890720321017e-03,3.416854143142700195e-02
1.987307998055049263e-01,2.588857384448052246e-01,2.167701964134173265e-01,-6.536979266717877005e-03,-2.587948974877895408e-02,-6.818481633337854751e-03,7.166444510221481323e-02
2.379017474401443899e-01,2.353338492099687207e-01,2.337618547946289371e-01,2.586301294729280095e-03,-1.565191011532647298e-03,1.420022181768239734e-03,6.824053823947906494e-03
2.358556874526063218e-01,2.408065681840763361e-01,2.403054437511124575e-01,1.560669532692952194e-02,-7.758273074072601777e-03,1.023770179341406718e-02,3.532693162560462952e-02
2.272590592899055295e-01,2.478414766783457179e-01,2.241637755716979208e-01,2.865695449915175996e-03,-3.849041779205249030e-03,3.319013307470516493e-03,2.447559311985969543e-02
2.271386650045052469e-01,2.505103828877325856e-01,2.207768154201565913e-01,2.759547148178940253e-03,-3.273099909492795112e-03,6.443789519126072538e-04,2.813588827848434448e-02
2.742986712903008328e-01,1.373849444086636673e-01,2.310251982906724177e-01,-4.373509591826534731e-02,-3.342906138297625784e-02,-7.396225900700292843e-02,2.004875540733337402e-01
2.054338532395678096e-01,1.810517339926858982e-01,2.507758607687460839e-01,-9.222901802871909249e-02,-4.983924884293165769e-02,-5.952205729473920848e-02,2.176119834184646606e-01
2.357937741485772176e-01,2.103980439242847111e-01,2.411641014994185261e-01,-2.760233777124445481e-03,-7.120853576680354416e-03,-4.507309508873466077e-03,3.234332799911499023e-02
2.172253469324686159e-01,2.162118240601269836e-01,2.559708590219360591e-01,-1.033269164664710020e-02,-2.991293651896689745e-03,-7.712542762815808098e-04,4.347911104559898376e-02
2.494268277595160788e-01,1.910797626708130859e-01,2.647379176019565294e-01,-4.889677051720315443e-02,-2.164785571729889099e-02,-4.037357167207435149e-02,1.341671049594879150e-01
2.348077089326392752e-01,2.003899870455546628e-01,2.470853781835008478e-01,-3.458684716495511596e-02,-2.351858540501979011e-02,-3.029048574250398779e-02,9.878538548946380615e-02
1.998592703949187421e-01,2.683211941873160367e-01,2.053916504088467709e-01,-7.677047534400469053e-02,-9.366961685875194177e-02,-5.125724789631520145e-02,2.371158152818679810e-01
1.905065719289598114e-01,2.592120876947104913e-01,2.390221905290801085e-01,-4.452507825918689205e-04,-1.247362145705132284e-02,1.258716950067466324e-03,6.490796804428100586e-02
2.278535259135417435e-01,2.309865632919946288e-01,2.529380554346075671e-01,5.857219752156624624e-03,5.079880492950406131e-04,2.200119052865126285e-03,2.605140209197998047e-02
2.631493276721492136e-01,2.620057892942689315e-01,2.258229523469700017e-01,2.842201167229851597e-02,4.468799660156833747e-02,-2.189184968719991298e-02,1.058495342731475830e-01
2.235441861353881787e-01,2.348397240588653845e-01,2.455029683077752378e-01,4.061262970800455160e-03,3.339487750095379397e-03,-4.374580283868091668e-03,2.240736410021781921e-02
2.288302097351760100e-01,2.346021160138852812e-01,2.456833066496486029e-01,1.756237577934433068e-03,9.999660956110146843e-04,-2.362487547898212397e-03,1.578176952898502350e-02
3.171522613338046970e-01,1.708961130139123319e-01,3.250233260033724703e-01,9.235467188318904896e-02,5.411962160808174438e-02,-2.672539599548323305e-02,2.431495487689971924e-01
2.298355146291033990e-01,2.263880605014550740e-01,2.437274247017414408e-01,7.327794846748829360e-03,4.628252669747535443e-03,-3.570542424254911917e-03,2.272355742752552032e-02
2.252810114817162535e-01,2.324640935340843428e-01,2.437600915661562451e-01,1.306648298191904860e-02,1.043912250954024713e-02,-8.595433097779246051e-03,3.634701669216156006e-02
2.491371864673526393e-01,2.171336146423769042e-01,2.336671991057932274e-01,5.884955078630244550e-03,6.381962915081510271e-03,-6.837817194806105649e-03,3.368690982460975647e-02
2.495587811015204383e-01,2.438019495196408482e-01,2.009488618166958007e-01,1.282971640849138797e-02,1.727227066492608917e-02,-2.100574235580894566e-02,6.948919594287872314e-02
2.419009764346345959e-01,2.297690976378079786e-01,1.761423927758342944e-01,-2.397959022079526950e-02,-3.352224389379605124e-02,-3.801671177690235659e-02,1.144801080226898193e-01
2.416703999517335610e-01,2.240498728469213219e-01,2.197827792244541334e-01,-3.650515147233737365e-03,-1.422887307426610711e-03,-1.343695278559351803e-03,2.133890055119991302e-02
2.388224818367240265e-01,2.239109278245436652e-01,2.257145790040679667e-01,-9.107198717770571654e-04,-8.125732092392146328e-04,-4.241458952143800686e-04,1.427309028804302216e-02
2.831551908263031936e-01,1.589658836012939336e-01,2.402588195265952242e-01,-2.776086441835767804e-02,-1.659174595308989669e-02,-5.599179231881030311e-02,1.564573794603347778e-01
2.480537866377846845e-01,2.331205963541194415e-01,1.969488116321330140e-01,-1.932472294037776081e-02,-4.467506173183802970e-02,-4.593049855041789198e-02,1.245323568582534790e-01
2.117718357804755092e-01,2.184859223793289562e-01,2.251930993464455466e-01,-3.799948816823791459e-02,-3.769011223911542668e-02,-3.285056135871416289e-02,1.093896403908729553e-01
2.489506516196684505e-01,2.204381089291860274e-01,2.330865526103549357e-01,2.105074457848955544e-03,-2.514245886605826538e-03,5.531276599523204419e-03,2.713581174612045288e-02
1.710937673021658556e-01,2.380721712427464332e-01,2.450273468900071583e-01,8.040787148225406189e-02,-5.594341738006580744e-02,5.592614060595349490e-02,2.077710330486297607e-01
2.074096904122641472e-01,2.454962051267902956e-01,2.547064839373675560e-01,2.450664342767360903e-03,1.628029808669872623e-03,5.671005584899396074e-03,4.481795430183410645e-02
2.075003228316465442e-01,2.568389720330000459e-01,2.421605851932322195e-01,6.420755324000703215e-03,-6.138361174843443707e-03,7.892059711458936783e-03,4.846768081188201904e-02
2.261030204777610964e-01,2.442233220862908283e-01,2.291381303647488932e-01,8.710380563302006808e-04,-9.227425297478276858e-04,2.821963279335052300e-03,1.764315739274024963e-02
2.370861713649224101e-01,2.209276684011063363e-01,2.508855017298053380e-01,1.241751097100628719e-02,-2.913079931700737670e-03,3.345958521426676581e-03,3.458501771092414856e-02
2.528385866949329208e-01,1.979036288425724543e-01,2.562353867592520040e-01,2.298798330983174362e-02,4.980946730624402326e-04,1.633093065303068206e-02,7.484768331050872803e-02
2.414811140746549178e-01,2.212961486488507490e-01,2.447992573990777909e-01,2.763779423916841796e-03,-4.038120460765979268e-03,4.564524482839535206e-03,2.489495649933815002e-02
2.828320807846402829e-01,2.778939888362648714e-01,2.651455839070710474e-01,1.082955679604641480e-01,-3.522528755732675515e-02,1.141834988400080297e-01,2.797672748565673828e-01
2.921256732191215288e-01,1.821095061915107560e-01,2.623452440207156289e-01,1.035112590787037185e-01,5.947851461859092297e-03,-6.070130229086112897e-03,2.051207274198532104e-01
2.817796592684896906e-01,2.208940949218192173e-01,2.231535837290642976e-01,2.462310614678320242e-02,2.103879493047034616e-02,-4.782877879827773099e-02,1.165510565042495728e-01
3.090043901476167143e-01,1.631796324110618424e-01,2.628051115467943122e-01,3.868586297036031435e-02,-2.065077363540655103e-02,5.292213810089803350e-02,1.755951195955276489e-01
3.003983027865250732e-01,8.116195951949570220e-02,2.716936203805404015e-01,-4.518912669315654045e-03,1.263664433313969361e-02,-5.466335700371491302e-02,2.282542139291763306e-01
2.604468713424043513e-01,1.866855715173837416e-01,2.490149646386765059e-01,2.435881626458115401e-02,1.915022952546258095e-02,-2.158738461368307077e-02,9.490247815847396851e-02
2.574169798619927452e-01,1.979749298051372564e-01,2.659306822756948296e-01,1.228598199141042215e-02,8.574848539352142307e-03,1.512980289059325878e-03,6.922571361064910889e-02
2.531747999362625734e-01,2.114836201130075033e-01,2.454706490542232222e-01,1.096634549291500109e-02,1.359071785233686817e-02,-1.225714947349254048e-02,5.330976843833923340e-02
1.946080093625635055e-01,2.493996003757395497e-01,2.549718093708354671e-01,-5.270889956073893622e-03,1.878710083804792982e-03,5.722162723550836688e-03,5.941921472549438477e-02
2.077683472152377919e-01,2.557282041252785798e-01,2.441242955047736307e-01,-7.924849174557772402e-04,4.169926869556031361e-03,4.103311000545365947e-03,4.452906176447868347e-02
2.124457727608506097e-01,2.600974053957631482e-01,2.446566596675834870e-01,3.164736293517850674e-03,6.486957950567943595e-03,3.732662483950331504e-03,4.440050572156906128e-02
1.711992706132694497e-01,2.674509566331172428e-01,2.632382912674935960e-01,-1.276519681691604905e-03,-1.167100778483836114e-03,3.927923214934737374e-03,9.450882673263549805e-02
1.476442531674393988e-01,2.412711946624184201e-01,2.582082171082745181e-01,-6.634027452755723864e-02,-5.179817797618321146e-02,-2.704382410031848372e-02,1.846211850643157959e-01
2.297851165259272022e-01,2.463998289673844100e-01,2.289817138548648212e-01,-9.484100034599276651e-04,9.370271137712096830e-04,8.886518676870265717e-04,1.725526154041290283e-02
1.320149847368730367e-01,2.835381946594492941e-01,3.653397670549683451e-01,-9.682332149423078516e-02,3.347529452135550310e-02,4.610146327079562428e-02,2.826794981956481934e-01
1.700252284738532627e-01,2.606892948515081576e-01,2.630605685655070802e-01,-3.881127980093284149e-03,-1.761060233225772735e-03,2.747211910407484914e-03,9.229149669408798218e-02
2.395527998920600754e-01,2.257599260880633063e-01,2.367050829874879914e-01,1.606499110672920429e-03,3.532772952921220226e-03,-7.567560960606344121e-04,1.435188762843608856e-02
2.383052206335948831e-01,2.142360799300224716e-01,2.540475544569182897e-01,1.311343934541817774e-02,1.171059669036206112e-02,-7.837832665596091569e-03,4.814192652702331543e-02
2.442688794023183119e-01,2.173449838084007824e-01,2.425202682428528322e-01,2.225695423510155521e-03,7.180279172533554632e-03,-2.832526948306266119e-03,2.957151271402835846e-02
3.384988079879964196e-01,1.287423631949039249e-01,2.652207646990011880e-01,1.247792870757287280e-02,5.000908764064036088e-02,-7.324909870031739989e-02,2.409626692533493042e-01
2.367539395471915109e-01,2.227749289898590113e-01,2.486776448141392315e-01,2.398981982777996687e-03,4.238513051155873117e-03,-3.470754361913805613e-04,2.399564161896705627e-02
2.371410908400640172e-01,2.172843717072970304e-01,2.488814321883653369e-01,5.116931301364654495e-03,5.917784700705034512e-03,-1.664059689544334242e-03,3.093810565769672394e-02
2.585855311706693471e-01,2.428465821761537358e-01,2.436855601796802107e-01,4.170033569837377357e-02,4.335200574566749204e-02,-2.883661515151407159e-02,1.165538877248764038e-01
2.251564655434119822e-01,2.231295500930863818e-01,2.529593679521081606e-01,1.075341320881569550e-02,2.482709600999760636e-04,2.231790821415302953e-03,3.457599133253097534e-02
2.197472554150836921e-01,2.228892018203156855e-01,2.432379883812426369e-01,-2.729172012842940448e-03,-1.593568023930805539e-03,-3.542670162469171297e-03,2.356893755495548248e-02
2.567838418025644720e-01,2.159766114003579263e-01,2.037130840526255038e-01,2.279852065687022842e-03,2.396019602238635797e-03,-2.540734616751967254e-02,6.546358019113540649e-02
2.235889031824412621e-01,2.124378963112101559e-01,2.428006240427749429e-01,-1.884616481416478279e-02,-1.471898340891905979e-02,-1.349546844627401258e-02,5.449337139725685120e-02
2.503410529914905647e-01,2.214330993209961962e-01,2.190666944690163875e-01,-3.582492866323571529e-03,-4.429020204515872645e-03,-6.811759362132623064e-03,3.385600820183753967e-02
2.609691731249865754e-01,2.463780633001140252e-01,1.978391327225171303e-01,5.797071326163249182e-03,4.067493585174174024e-03,-2.117386584113659445e-02,6.908411532640457153e-02
3.022307909916682744e-01,1.901967324094514522e-01,1.249634519698371860e-01,1.743782557813637981e-04,2.538013594008378240e-05,-1.064429808763035223e-01,2.410514056682586670e-01
2.473478324062312328e-01,1.897748929554258501e-01,2.499209463755543981e-01,-5.859788646957866942e-03,-6.803728176410206961e-03,-8.147280355031667060e-03,6.253338605165481567e-02
2.604250572732244029e-01,1.824647658749202761e-01,2.471733569112739559e-01,-4.029358782149786156e-03,-2.091549934389783701e-03,-6.155336523384229153e-03,7.345613092184066772e-02
2.362982045254660990e-01,2.101187699394922725e-01,2.390639757258750109e-01,-3.195081466273497466e-03,-7.251932297449848602e-03,-4.597852726228793610e-03,3.189414739608764648e-02
2.597815510418648444e-01,1.777235013536557495e-01,2.604664424242800203e-01,2.075695159216352573e-02,4.578972996817981186e-03,-8.898060494142634100e-03,9.155967086553573608e-02
2.392099161931182105e-01,2.068839438478917159e-01,2.369755962962508677e-01,-6.200306413626460386e-03,-7.233503778806700188e-03,-3.384902523891676965e-03,3.583865240216255188e-02
2.456404518989711017e-01,1.689352213295534089e-01,2.650802325772717571e-01,-3.475160463704281277e-02,-4.568316276157109550e-03,-6.871021312245994411e-03,1.076103821396827698e-01
2.562330215895531338e-01,2.504276884162808248e-01,1.858531282622328806e-01,1.089578869612840492e-02,1.307142330606057661e-02,-3.056683132336857761e-02,9.083054214715957642e-02
2.241359511611368538e-01,2.211320262726017838e-01,2.388342543241248617e-01,-2.599959354437106612e-03,-3.778030107979777827e-03,-1.698330580276417043e-03,1.846534945070743561e-02
2.564334807550843753e-01,2.360840062474642287e-01,2.017921670679267698e-01,5.789027878097128404e-03,4.461005190067562909e-03,-5.293241204546264220e-03,5.032045021653175354e-02
2.528725958665354878e-01,2.272999181119670364e-01,2.180113750219280777e-01,1.273640333172007272e-03,8.286466376427311991e-04,-1.727158362436362945e-03,3.152217343449592590e-02
2.578433230708041535e-01,2.549014238562847257e-01,1.819015631784769438e-01,8.987486640203689800e-03,5.807272423358485029e-03,-9.353589895510185798e-03,7.847521454095840454e-02
2.516381161994754589e-01,2.488327269059241453e-01,2.023466586898270136e-01,9.234001376691669538e-03,9.349006988758961842e-03,-2.613381858141356276e-03,5.327042192220687866e-02
2.601164053440186419e-01,2.381349892199293716e-01,1.896515333699124450e-01,1.417490755624013863e-03,-1.229299530206630657e-03,-1.173663638963881248e-02,6.575234234333038330e-02
2.357968168777752893e-01,1.995199945139621289e-01,2.666782655719171502e-01,-1.038626287092653429e-02,6.306613332270446376e-03,7.770279894351299343e-03,6.335635483264923096e-02
2.327516727427229870e-01,2.251480377137728417e-01,2.472898401926937328e-01,-7.910492435076342879e-03,6.346663507941851558e-03,6.410695013440375657e-03,2.848816663026809692e-02
2.363336568141319871e-01,2.060523235975418865e-01,2.573742162525932131e-01,-4.573047869478223150e-03,4.344043041197741956e-03,1.824717184530337630e-03,4.611008241772651672e-02
9.148619736658232526e-02,2.461845834315813109e-01,2.809289398628801449e-01,-8.412249688087126975e-02,-4.999643439233541348e-02,-1.857637911151769489e-02,2.455150038003921509e-01
1.553938466625850445e-01,2.867159390127392848e-01,2.804256458616997127e-01,-3.739666700044468051e-02,8.022784568329109633e-02,5.805706423824425963e-03,2.001628726720809937e-01
2.055370153035488978e-01,1.779634245063749232e-01,2.855033299431584681e-01,-7.511986087786412525e-02,4.449781498272125518e-02,4.139753577920408933e-02,1.933139562606811523e-01
2.531710409734854172e-01,1.965913872687685693e-01,2.533685562851036299e-01,-1.707758259581791151e-03,8.935793529277962638e-03,1.030359607588534135e-02,6.147567182779312134e-02
2.236889849789727436e-01,2.260743017526825882e-01,2.353281577741737074e-01,-1.824398856558885097e-03,-1.638899311886010159e-03,-3.911473736130753956e-03,1.331687346100807190e-02
2.554943249363909596e-01,2.449764323939832844e-01,2.084496023063274195e-01,6.189686264003094358e-03,-2.055632388610576823e-03,2.985351190818766320e-02,6.804653257131576538e-02
2.592820254652012935e-01,2.090196557697809043e-01,2.416055427286058488e-01,2.578547603366558583e-03,3.085896269020151940e-03,5.047755529079157345e-03,4.555498436093330383e-02
2.326517019905447459e-01,2.290971179317566886e-01,2.410634958419454466e-01,-1.528832856348003944e-03,2.201974812890500344e-03,1.290063425202536522e-03,1.182559225708246231e-02
2.561133470357245812e-01,1.614292383535279596e-01,2.834767780586381347e-01,-3.214275427657880407e-02,7.456023560266837255e-03,-1.351115442437036962e-02,1.269591301679611206e-01
2.518004757923504311e-01,2.292003396390786540e-01,2.107737823139369526e-01,-5.544056156860961183e-03,1.020088455566012589e-02,2.348234810459055161e-02,5.766621977090835571e-02
2.605849585582017958e-01,2.170462196533735622e-01,2.294871543452921547e-01,-1.493871757729288256e-02,3.186198798863777715e-02,3.679247329764261804e-02,9.635791927576065063e-02
2.564099832482820696e-01,2.397214108488474327e-01,2.052441372644766560e-01,5.932303096303227427e-03,8.540844588385942959e-03,-1.715433541121217514e-02,5.700698122382164001e-02
2.786199723784811288e-01,1.894704361743290988e-01,1.799959449493486741e-01,4.510489088216687592e-02,4.249597778259833064e-02,-8.521670266889252998e-02,2.053990960121154785e-01
2.794419685426569044e-01,2.345533436614180567e-01,1.855526567842134544e-01,6.882356955846267652e-03,1.002728105708280276e-02,-3.010726655361622983e-02,9.888736903667449951e-02
2.641834708973588297e-01,2.399191590826258158e-01,2.014003729632688477e-01,4.745133737997884495e-03,2.455338923631175934e-03,-1.907571671361669996e-02,6.468670070171356201e-02
2.564232592898699203e-01,2.391594261520508524e-01,1.940529631438100977e-01,6.034481625564897152e-03,4.588547846002752340e-03,-1.046192217420821927e-02,6.010081619024276733e-02
2.520430237701506981e-01,2.128903629469715564e-01,2.319336937001754417e-01,4.160300468595389402e-04,4.839602338429465148e-03,-6.831344477336331530e-03,3.688859567046165466e-02
2.449720036944398605e-01,2.228505785284029816e-01,2.275721473406023543e-01,3.084621906122652669e-03,4.729926610493997118e-03,-3.616244741668481633e-03,2.328295074403285980e-02
2.797280331785295115e-01,2.420637891887105764e-01,1.691374738465167837e-01,8.233553233570433186e-03,6.845790583144575198e-03,-4.681270907629004469e-02,1.280695647001266479e-01
2.469452291019733348e-01,2.367110740328773610e-01,2.009716191673527885e-01,-7.864970846459935772e-03,-4.024500344796713182e-03,-7.959909374881330227e-03,4.660529270768165588e-02
2.387076004597644963e-01,2.295965648529046943e-01,2.176274052146614790e-01,-5.700036283294209610e-03,-5.617316335048070687e-03,-5.130978767123875288e-03,2.462596260011196136e-02
2.387314162544885709e-01,2.200981354191985928e-01,2.309773986981753513e-01,-7.306383727555222293e-03,-6.487471402994139658e-03,-8.245922385222067066e-03,2.744518965482711792e-02
2.125944615142801308e-01,2.255700337238597253e-01,2.520027406965395511e-01,-3.000630985107762688e-02,-2.140989664262470810e-02,-1.590971679043913511e-02,7.775395363569259644e-02
2.520454667955158712e-01,2.201381339918468683e-01,2.161031346610744197e-01,-1.526515791710691570e-03,-1.074619701396946564e-03,-3.461094149293914100e-03,3.477783501148223877e-02
2.576061343950005744e-01,2.351595880353497536e-01,2.002605572190192529e-01,-2.131227777872326742e-03,-1.816414793084902574e-03,-4.492682451774835869e-03,5.088447406888008118e-02
2.495436972392955366e-01,2.174005626599007646e-01,2.217191253518302207e-01,-1.295394853212031034e-03,-3.285739323906029363e-03,-2.986079961357244669e-03,3.126005828380584717e-02
2.556499728882151157e-01,2.485338359593280699e-01,1.866449457671621182e-01,-5.272949829255165269e-03,-5.686773309974658790e-03,-5.024013487823654651e-03,6.765675544738769531e-02
2.618589314353479969e-01,2.716568743964205002e-01,1.631919397705439978e-01,4.318307222386907895e-03,-5.516643396519728404e-03,-9.681245461298985228e-05,1.046192124485969543e-01
2.957752044739030417e-01,1.806565458579898753e-01,1.582900917692993681e-01,-2.450327506300735425e-02,-2.592514418686943378e-02,-1.125656856235106029e-01,2.411597669124603271e-01
2.455773172989647035e-01,2.235720163627485935e-01,2.291864689897885610e-01,8.640949769983344644e-03,9.166840664959974988e-03,-1.191841728084366489e-02,3.597839176654815674e-02
2.391414881335200693e-01,2.476725574780476724e-01,2.175396131066334726e-01,5.561654374249176865e-03,3.952864391174895804e-03,-1.751301552262620647e-03,2.953946217894554138e-02
2.352831090375087641e-01,2.498307323658990609e-01,2.224972782540498573e-01,4.246178792609129997e-03,1.963838137541135467e-03,-6.734044384531107921e-04,2.506261691451072693e-02
2.072003662962282888e-01,2.540200426061032246e-01,2.348664239994373848e-01,1.228331761691530723e-02,2.367584942994569591e-02,-5.616134140253129479e-03,6.237849965691566467e-02
2.353163892436047067e-01,2.509669983188499431e-01,2.214982941193081034e-01,1.346853797000426879e-03,2.647530114809607069e-03,-5.694356539733620888e-04,2.606886997818946838e-02
2.271817138075909459e-01,2.514346078277434060e-01,2.307527852779852340e-01,1.459256027294754052e-03,2.885704849858909161e-03,8.937096126586598251e-04,2.341181226074695587e-02
2.202626793013198470e-01,2.458417603243687743e-01,2.350797971735328340e-01,5.694403607540190690e-03,3.486058354964118641e-03,-3.201773649897027459e-03,2.567720226943492889e-02
2.319430554541266343e-01,2.470216753657519804e-01,2.269461997702134082e-01,3.425823945183079956e-03,2.660847717545286682e-03,-1.114653382987191611e-03,1.969404891133308411e-02
1.448842975297290614e-01,2.976588683667105162e-01,2.689366468707841129e-01,5.042057680316461982e-02,5.486644907202379434e-02,6.450209159882154542e-03,1.912054121494293213e-01
2.028410279445244657e-01,2.504937379303299183e-01,2.238478575080725397e-01,6.317212063238918096e-02,7.059193032149745084e-02,-3.127130202352067928e-02,1.776697188615798950e-01
1.324457365313475021e-01,3.246029838507180632e-01,3.526571196572587663e-01,8.059793210662093144e-02,3.508642974789020347e-02,3.559600368120037495e-02,2.647351920604705811e-01
2.287847651637634205e-01,2.275475915543316852e-01,2.276029747635452682e-01,-1.162157128101855329e-03,-2.784649658276783062e-03,-1.397665007866517308e-03,5.885592661798000336e-03
1.957066908041726061e-01,2.582429380132857943e-01,2.519310006097275623e-01,1.416173265622180412e-02,1.685618719746246469e-02,-5.344185846216937662e-04,7.078708708286285400e-02
2.255641223656397465e-01,2.532773320967572350e-01,2.305049996111867838e-01,1.021710957327946192e-03,3.774610140964060161e-03,7.736672363227775542e-04,2.651748619973659515e-02
2.006932602773032204e-01,2.546609419673769859e-01,2.485585991627121127e-01,2.410481629113927528e-03,1.045435231964862363e-02,8.541987166242819658e-04,5.447862669825553894e-02
1.752958938000930278e-01,2.634654512570417384e-01,2.626454950473216532e-01,8.896024016738049737e-04,-5.244794316577183627e-04,3.457694602423897964e-03,8.798474073410034180e-02
2.684959564200875559e-01,1.716826261740519999e-01,2.613205609338342117e-01,-7.401034356294206506e-04,7.498429431571289154e-04,-4.657205387795185052e-03,9.379782527685165405e-02
2.517781381982538425e-01,1.977593243570296422e-01,2.572930850085017873e-01,1.079351795079501637e-02,8.159980990696475214e-03,-2.852150467049660576e-03,6.180629506707191467e-02
2.559366933752364459e-01,1.936539132361797533e-01,2.508623825644100691e-01,2.748181783004441815e-03,7.327402101202005330e-03,-6.200322091303495445e-03,6.235313042998313904e-02
2.845554181781506653e-01,1.024141438527755577e-01,2.815335403640226719e-01,5.184145429888616097e-02,1.698461548876745164e-02,-1.038989513883666060e-02,2.046608328819274902e-01
2.629623234404675491e-01,1.836044836372898725e-01,2.604749293252440756e-01,6.423002663026708761e-03,6.355381911404884947e-03,-7.804479852818473409e-03,8.083394914865493774e-02
2.521468662765133928e-01,1.991211120966774051e-01,2.593614695941056647e-01,2.278976635940094253e-02,6.428205350683424994e-04,3.099721742657697652e-03,6.953075528144836426e-02
2.362386752743514673e-01,2.214369142408431634e-01,2.525088837001836506e-01,1.459767461397122254e-02,-1.435494395505797650e-03,9.916296022231240945e-03,4.080559313297271729e-02
2.716936941474322742e-01,1.350833914552496962e-01,2.260084329628710420e-01,5.825526078966525995e-02,3.546578901659924038e-02,-7.824850456783154218e-02,2.164056748151779175e-01
2.552761154082364148e-01,1.805810031289245554e-01,2.647384447224878645e-01,-8.694971713433183313e-03,2.936344736377599976e-03,1.945444437282527195e-03,8.148443698883056641e-02
2.798325263354707881e-01,1.683398386819515147e-01,2.683892449584069362e-01,2.285958172616487510e-02,-3.944273904786673411e-04,7.416470462498584446e-04,1.133822053670883179e-01
2.896072354201449928e-01,7.910264559003041263e-02,2.786754327254542529e-01,7.786276034617310715e-03,8.589988477572181244e-03,4.068465349509295392e-02,2.179436981678009033e-01
2.262426813604302422e-01,2.378793473121096347e-01,2.417954082459005394e-01,-5.316415245263618992e-03,4.756777174315419965e-03,3.702010589965526455e-03,1.975109241902828217e-02
2.314559348850642184e-01,2.308886295427417246e-01,2.382621521505819129e-01,-3.870701433868926834e-04,5.273543297369297700e-04,1.890977294598426232e-03,7.906883023679256439e-03
2.340109225440245022e-01,2.216145679047295813e-01,2.442111537858742409e-01,-1.782565575534274813e-03,5.118118973923177842e-03,1.257082303952592990e-03,2.184076048433780670e-02
2.370561140358724006e-01,2.238986135878162920e-01,2.392084402719591996e-01,-2.022423697613702238e-03,5.703071856396816838e-03,3.482467588040787879e-03,1.876965537667274475e-02
2.274655002024155437e-01,2.297324848607783243e-01,2.394465112875236723e-01,-6.698808248733176089e-03,3.721428103344048312e-03,4.537639168393513972e-03,1.895950362086296082e-02
2.290024459630043419e-01,2.389506894567018924e-01,2.374723708232920338e-01,-8.025311650161096001e-04,1.087490745664411061e-03,3.994871925443308457e-03,1.182384788990020752e-02
2.314993867618754253e-01,2.338108161479137137e-01,2.386675745153115091e-01,-9.338897686047939895e-04,5.964956075116098662e-04,2.665390952920508247e-04,6.637308280915021896e-03
2.345241867753307119e-01,2.328970325978052813e-01,2.365503684196852974e-01,-5.619597427222485083e-04,1.321842933427818485e-03,6.354558676456591431e-04,4.177387803792953491e-03
2.325654867067317166e-01,2.373953304169243161e-01,2.351701971992994356e-01,-4.995358747137700105e-04,5.351467686279066721e-04,5.508947467710889915e-04,4.477696958929300308e-03
2.341170832664709323e-01,2.271714369845551085e-01,2.418676669871142049e-01,-1.363831106445899648e-03,3.883249658878477027e-03,1.205881320602235091e-03,1.474204193800687790e-02
2.608953559682795076e-01,2.288605921358689288e-01,2.374188636890651183e-01,2.901346753639508919e-02,-2.121285067216734099e-02,3.536954610869729593e-02,9.194357693195343018e-02
2.058990666339109987e-01,2.572210637955490431e-01,2.171236798861026496e-01,1.939404035739806988e-03,-2.288036050940519400e-02,2.599119773947322458e-03,6.153009459376335144e-02
1.964845613953867531e-01,2.607702403927031343e-01,1.972922941626840121e-01,6.045196316525947022e-02,-6.847445379285863054e-02,5.828485056548380477e-02,1.982481181621551514e-01
1.897930241790474759e-01,2.656579419261341224e-01,2.602143336982439825e-01,5.631539446435351870e-02,-7.252867139987657918e-02,7.522325774719491875e-02,2.182733416557312012e-01
2.058776531151396971e-01,2.897884944476364355e-01,2.734687213270214912e-01,1.186136416329609256e-01,-2.302451368618558050e-02,9.163675929389004937e-02,2.737294733524322510e-01
1.719170109981796590e-01,2.900286397210309897e-01,2.588762302824695882e-01,4.022210291730069637e-02,-8.010527457083366221e-02,5.975807159087553888e-02,2.146123647689819336e-01
1.938019873869695209e-01,2.572263562305335816e-01,2.251155915895705628e-01,2.865787839684651086e-03,-2.171582613002280907e-02,5.705214261175383522e-03,6.748455017805099487e-02
2.336383828833182297e-01,2.355440690502851875e-01,2.672058869762524713e-01,4.148425327141484764e-02,-1.765849253716153880e-02,2.588557225058398664e-02,9.578583389520645142e-02
2.536801342984610352e-01,2.458392549509393621e-01,2.123028017706868331e-01,9.002661974384380816e-03,-8.719045051699918572e-03,1.104041961086699337e-02,4.781223833560943604e-02
2.447782843834405697e-01,1.987158346301556855e-01,2.515589086342044367e-01,6.096555002955723890e-02,-1.978170124539630273e-02,6.181789360780086395e-02,1.620763838291168213e-01
2.315663022969403906e-01,2.215261370218422898e-01,2.328214225294109041e-01,-6.085556500033603711e-03,-5.561148946111150494e-03,-6.569375131234574984e-03,2.117387764155864716e-02
2.573841377597246294e-01,1.966225886370503995e-01,2.477377199145596731e-01,-2.327218033434102530e-03,6.298482170171375467e-03,9.665654409855664250e-03,6.012007221579551697e-02
2.420744958960217019e-01,2.270043817120145080e-01,2.351399436347848537e-01,2.108795288120204892e-03,-3.467564411629258259e-03,3.041186697305112933e-03,1.574329659342765808e-02
2.485819070520654539e-01,1.993008411698003191e-01,2.577976445250361737e-01,1.153623611832594112e-02,9.057538263361349616e-04,1.093990465704508790e-03,5.807771161198616028e-02
2.550677241473353063e-01,2.096817333280886486e-01,2.335274711359177358e-01,7.730056686704026014e-03,-2.912305464584052667e-03,2.289568378342831528e-02,5.765056610107421875e-02
2.929827385738366097e-01,1.154625656653056193e-01,2.710792237242585778e-01,-1.855994721501287928e-02,2.220317648420595813e-02,6.340471548658065115e-02,2.065857946872711182e-01
2.273317151057850094e-01,2.321031426740282344e-01,2.283767824194460894e-01,-8.020730006366976611e-04,-7.517929858662233890e-05,-1.503446322284558495e-03,5.253588780760765076e-03
2.286879553994346503e-01,2.327780434800306997e-01,2.267489555164662607e-01,-4.504477572552585858e-04,-8.156941340422044738e-04,-1.052006467392245861e-03,5.860388744622468948e-03
2.260515720719883381e-01,2.351095428296735013e-01,2.246463708844366469e-01,-1.853025400882682416e-03,-3.426847959837832271e-04,-3.827252057996329698e-04,1.038472633808851242e-02
2.358241766250389060e-01,1.995188715733906826e-01,2.565466544183225839e-01,-5.654084479595899299e-02,-3.539540560953984699e-02,-4.061807951615014484e-02,1.442165821790695190e-01
2.213673209976569911e-01,2.321221951937346706e-01,2.300032173604203700e-01,-8.975006784380368599e-03,-9.307818937426515574e-03,-9.874885013004231285e-03,2.985744178295135498e-02
2.347914387209526221e-01,2.233608430866088346e-01,2.258465687326704774e-01,-2.029654955696044965e-03,-2.972753347706124597e-03,-1.056294620229474924e-03,1.227361336350440979e-02
2.343594541376409490e-01,2.301068022270008895e-01,2.220090617085588580e-01,-4.468990723467581791e-03,-6.727518212263384209e-04,-1.383798802903084832e-03,1.360564026981592178e-02
2.023367054462381076e-01,2.390206728292353089e-01,2.420328380953389036e-01,-3.379744278439190952e-02,-2.203412878060662106e-02,-1.621025195896779250e-02,8.448024094104766846e-02
2.297951609627791325e-01,2.184580189628046176e-01,2.298958058856623021e-01,-3.727622475700599451e-03,-6.392317778659636560e-03,-3.404788924664101969e-03,1.813092455267906189e-02
2.307250700326102799e-01,2.241706394095974719e-01,2.308500664470932162e-01,-6.310111262698543666e-03,-5.494780454457574327e-03,-6.186237807128849679e-03,1.919985562562942505e-02
2.210033687284448378e-01,2.387324365415708638e-01,2.241005192082422548e-01,-2.049495408775241223e-03,-3.130053672801776793e-03,-3.715040013660986587e-03,1.877232454717159271e-02
2.431660566366314336e-01,2.534402463228098146e-01,1.788714815276692127e-01,-2.002162438219604740e-02,-4.046615905939301983e-02,-4.649392787718917286e-02,1.322879791259765625e-01
3.272471860718652592e-01,1.467568053775357151e-01,1.916641358474143186e-01,-3.969544202887016066e-02,-4.042196865110952997e-02,-9.554458445456109894e-02,2.519988119602203369e-01
2.579357279059559804e-01,2.510198519437704112e-01,1.403343273043141104e-01,-3.175809779623892104e-02,-6.341307113224962932e-02,-6.202873092813539213e-02,1.992402523756027222e-01
2.491497366493049814e-01,2.427058142033928501e-01,2.063861027697587724e-01,-6.393742321880318408e-03,-1.136537752067751789e-02,-1.577604719604479983e-02,5.339937284588813782e-02
2.523115191895684561e-01,1.975679539622746672e-01,2.016341502801007046e-01,-8.624973894016563225e-02,-6.848210279069003037e-02,-8.710959513741252380e-02,2.488804608583450317e-01
2.430384400865719663e-01,1.726800281105343726e-01,2.494552316240288281e-01,-6.891155806492454960e-02,-3.793967825633512425e-02,-8.622739446713469091e-02,2.152048200368881226e-01
2.694830072185797065e-01,2.111614523325911763e-01,1.548889568449163534e-01,-3.485322749060906083e-02,-5.532403514550310319e-02,-8.752263399045373538e-02,2.136750370264053345e-01
3.167946817554140315e-01,2.595663738928348785e-01,9.310732301537655298e-02,4.962818449930562342e-03,-3.160243918071688890e-02,-1.243303164988352749e-01,2.999233007431030273e-01
2.196266039202704190e-01,2.300020813690645261e-01,2.339422730234761438e-01,-3.914745764416895958e-03,-5.473098101584347730e-03,-4.913108170012514715e-03,1.929541490972042084e-02
2.940324350882920212e-01,9.635721791608961584e-02,2.585593066121895101e-01,-2.115680106516547310e-02,2.436547846517453202e-03,-6.773809697696087095e-02,2.201083004474639893e-01
2.609652814661393982e-01,1.884677380247151424e-01,2.600107611225656035e-01,-4.453372068052119381e-02,-2.150401935737439665e-02,-4.398759367030433826e-02,1.353859454393386841e-01
2.024060343144105656e-01,2.358987951005850070e-01,2.588611479730221210e-01,-4.588354265686150381e-03,4.069248978063444823e-04,1.830390224240744778e-03,4.991807416081428528e-02
2.415411821176781104e-01,2.186891656994142119e-01,2.271770556767824800e-01,-1.637629890156614559e-02,-1.484008526134652367e-02,-1.949271225657684889e-02,5.482175573706626892e-02
2.526067332677803257e-01,2.174345840014833275e-01,2.207818102842559749e-01,-1.505331023951141795e-03,-2.125574258520437129e-03,-2.943696372977860822e-03,3.430602326989173889e-02
2.107530704237232932e-01,1.874017159342637462e-01,1.994628400187757056e-01,-7.932259205781981570e-02,-7.174999597382675232e-02,-8.669383677154825218e-02,2.393261045217514038e-01
2.435445607826013381e-01,1.986320029144164057e-01,1.998260209157324274e-01,-4.939493186698296762e-02,-5.392337251645779733e-02,-8.157844085634649578e-02,1.948661953210830688e-01
1.618684110879092808e-01,2.556741840323867310e-01,2.456078430466105966e-01,-8.118873536490692211e-02,-6.661649090557945907e-02,-5.880540109576021246e-02,2.267573624849319458e-01
2.316104637290333224e-01,2.420028649664877629e-01,1.890108699901072442e-01,-5.226893235385833558e-02,-9.781407603352629265e-02,-8.126924485466227588e-02,2.430605143308639526e-01
2.349654719972073535e-01,1.587956973188390797e-01,2.418962612573677395e-01,-7.119603298402719938e-02,-4.046957697364443607e-02,-6.813288298911326923e-02,2.010573148727416992e-01
2.614105037382560282e-01,9.688469884303003987e-02,2.831009973194179574e-01,-6.763368538836103672e-02,-5.860358206569264705e-03,-2.754010282754535896e-02,2.172768115997314453e-01
2.254387631440368522e-01,2.320887894211231262e-01,2.274875416034158881e-01,-1.469476790833090579e-03,-1.653272497189543777e-03,-2.946633879761836449e-03,8.690332993865013123e-03
2.274155454748640892e-01,2.159177745236417756e-01,2.460753677752472723e-01,-2.609861040782175592e-03,-3.986143241421848810e-03,-1.751770583604265324e-03,2.778924815356731415e-02
2.207795252411621778e-01,2.170325752043902046e-01,2.500263254054917450e-01,-2.881547385651842420e-03,-3.619240677210233334e-03,-1.426458905125484134e-03,3.239309042692184448e-02
1.936584802091954882e-01,1.938371022581895087e-01,2.587375714438148178e-01,-7.169913667606485352e-02,-2.826651224796706760e-02,-3.611302489730550819e-02,1.611068993806838989e-01
2.284156531267561296e-01,2.288093994883349525e-01,2.279075020212158742e-01,-2.656635434802843976e-03,-2.394633803639209177e-03,-2.791795213459390482e-03,7.897572591900825500e-03
2.407098460811623875e-01,1.303541631492474429e-01,2.649013319233728403e-01,-7.286935320771968649e-02,-2.739914551325127803e-02,-5.788389313232541328e-02,2.089662104845046997e-01
2.651183530743900785e-01,1.522805294210827776e-01,2.629179986235858357e-01,-1.434495869765794324e-02,-7.353357316015993357e-04,-2.227399154773152673e-02,1.208150684833526611e-01
2.051319414912437800e-01,2.790064794155687755e-01,2.632694427940804882e-01,-6.361705062322189561e-03,3.363520208579027365e-02,1.833923764844725551e-02,9.522033482789993286e-02
2.490614125472875306e-01,1.722121003603409306e-01,2.602645928399451858e-01,-1.227558678246856542e-02,-3.291933138380653216e-03,-4.071839892541398269e-03,8.617775142192840576e-02
2.599915320619516357e-01,1.762543412587729841e-01,2.592266662153072110e-01,-4.714435788685432394e-03,-1.514604487913516788e-03,-8.447053232205455758e-03,8.506510406732559204e-02
2.549555029121828853e-01,1.735814704759734428e-01,2.700055061919793276e-01,-1.084814502284754331e-02,2.110570057122194976e-03,-3.648490704344287865e-04,9.186797589063644409e-02
2.339985829404532536e-01,1.821820935354927229e-01,2.746387569892246305e-01,-4.599036397433627077e-02,-1.643122969381866777e-03,-2.028095809910379979e-02,1.184474378824234009e-01
2.635990383354562261e-01,1.522146983461564185e-01,2.713338682712467809e-01,-3.661084928500393798e-02,-7.725144692538732719e-03,-2.898399957372175748e-03,1.324882507324218750e-01
2.358351949576835416e-01,1.891281754647499425e-01,2.609528746817187939e-01,-1.383920878259086232e-02,1.344184732613501769e-03,-1.373508540368634885e-03,6.761114299297332764e-02
1.522073311553300834e-01,1.858622430714561846e-01,2.815304615438566360e-01,-1.051130779662701742e-01,-3.558717659532967259e-02,-2.961865775098793466e-02,2.303957045078277588e-01
1.764293914930830653e-01,2.351247038318672322e-01,2.889891638652012373e-01,-3.067069651273669761e-02,2.483940846910175256e-04,7.198724399199604674e-04,1.110492050647735596e-01
2.382416978014501585e-01,1.898196923334800612e-01,2.579019855044068499e-01,-2.882708572395863839e-02,-1.404656766737584841e-02,-1.650615981862884468e-02,8.709470927715301514e-02
1.792940809110037670e-01,2.552252245813239617e-01,2.546904298339189854e-01,-7.560085689441563978e-03,-8.816212517952375788e-03,-2.550483431893178863e-03,7.841794192790985107e-02
1.790814034200073901e-01,2.620247840758925806e-01,2.574761508841582058e-01,-6.900255456123212221e-03,1.546899771659012747e-03,4.134487032616825097e-03,8.200193196535110474e-02
2.015480013956055805e-01,2.352083890067154792e-01,2.579827726710257063e-01,-4.137569129321482138e-03,-1.204521530516396068e-03,-1.306713705120139939e-03,4.979078471660614014e-02
1.159541589475753531e-01,2.463863638062702144e-01,2.821558359644930625e-01,-7.166207392087592387e-02,2.111721059355585461e-02,1.782991434457026694e-02,2.016318291425704956e-01
1.881332541699427263e-01,2.577242022827990198e-01,2.361867239516469985e-01,-3.529061078328759715e-03,-1.213231064928065733e-02,-4.418910122317619427e-03,6.592018902301788330e-02
2.081257588321446805e-01,2.302084903972875241e-01,2.552021242832543391e-01,-5.123035768486853755e-03,2.196651011593519533e-03,5.602391421588364014e-03,4.303056001663208008e-02
2.635117826002048025e-01,1.752836134617396235e-01,2.564500636716235960e-01,-1.294007837104515710e-03,2.892983091463221124e-03,-9.875800409392348697e-03,8.679723739624023438e-02
2.525335947132513192e-01,2.046726483922886586e-01,2.238499160716647951e-01,-1.982106968627171065e-03,-4.922410071940426166e-03,-7.466864744930263448e-03,4.463557526469230652e-02
2.482377858491468525e-01,2.476281979524209975e-01,1.815102364422199743e-01,-1.492402266828877361e-02,-3.494583501549408666e-02,-3.498920450697395879e-02,1.114307343959808350e-01
2.730319296683318964e-01,1.848971688547504932e-01,2.700732908178110625e-01,2.266648631871866215e-02,1.430769235377912091e-02,-3.004990071637059224e-02,1.112661659717559814e-01
2.074930570032312571e-01,2.020663443790928493e-01,2.555565314254997222e-01,-9.869899502311711703e-02,-7.589576057421212885e-02,-5.379728922639503280e-02,2.403909116983413696e-01
1.043711089354471822e-01,2.795753777685049402e-01,2.848747856819993096e-01,-4.361718664641910104e-02,-5.094195222422284036e-02,-9.446110287272393990e-03,2.131042182445526123e-01
2.136766117255463060e-01,2.281121330366620570e-01,2.547566334210414896e-01,-1.173608650002372529e-02,-1.453677038523540918e-03,4.657650700917889642e-04,4.151070117950439453e-02
1.948661611023962126e-01,2.339074235631655729e-01,2.639374654169741596e-01,-1.216310989308752241e-02,7.226651921262101930e-03,6.117711777300644492e-03,6.565981358289718628e-02
2.005525594896474528e-01,2.391558495218536196e-01,1.830519394025348912e-01,-6.633805650895099881e-02,-8.442006985356548254e-02,-7.757137676898787082e-02,2.347476929426193237e-01
2.446673462864117632e-01,2.440821077074176726e-01,1.773319742412350908e-01,-1.639575584224034488e-02,-3.089368268221926589e-02,-3.047443364200470156e-02,1.046459823846817017e-01
2.487718030729622609e-01,1.982412043280878666e-01,2.303098312775771483e-01,-2.865925304454880820e-02,-3.699612608663114394e-02,-5.004651947184863420e-02,1.266706436872482300e-01
2.478583432635588502e-01,2.384853324358281734e-01,1.998509719964078335e-01,-6.337459950047968395e-03,-3.368404045958838921e-03,-6.194885271273366419e-03,4.703451693058013916e-02
1.283324479448779420e-01,2.662842914790945481e-01,2.698733671118673794e-01,-5.041872477104469147e-02,-5.719653718471914838e-02,-2.358840251122821044e-02,1.965920329093933105e-01
1.646393719439294412e-01,2.870463342815107177e-01,2.535565954933833854e-01,3.858254269419102243e-04,-2.371283153964805560e-02,4.549347534006642317e-03,1.172820553183555603e-01
2.363844628975845519e-01,2.397984020214286582e-01,2.084335998269311874e-01,-7.610317543141424321e-03,-3.325229200150898751e-03,-5.192452920599714694e-03,3.429482877254486084e-02
2.215495637853023836e-01,2.221213316491701395e-01,2.347675774924697645e-01,-5.856316234317016610e-03,-5.756870992856031634e-03,-5.308419593388157172e-03,2.131518535315990448e-02
2.044842196845513826e-01,2.185717914743068591e-01,2.462738165374739330e-01,-3.873846070662421287e-02,-3.608731999921312855e-02,-3.107367077066845035e-02,1.125243306159973145e-01
2.339051637424768848e-01,2.517743599029865775e-01,2.009156062213842409e-01,-6.082491420152576558e-03,-4.470376786928445881e-03,-4.040206484440389025e-03,4.708533361554145813e-02
2.419005890423557847e-01,2.473999269901373532e-01,2.003131237257974873e-01,-6.411942678388899211e-03,-6.875437253727189300e-03,-3.304941907672244699e-03,4.781616106629371643e-02
2.077485487399205188e-01,2.485971207761788204e-01,2.440456529457672163e-01,-6.612171591738441254e-03,4.152513379802178460e-03,6.906289654367707073e-03,4.277129471302032471e-02
2.721958161156013967e-01,2.654175653790215583e-01,1.606103352175977383e-01,2.969327902772007227e-03,6.574499483663953647e-02,5.356252716652345341e-02,1.825962960720062256e-01
2.448848847398275297e-01,2.308813582926184382e-01,2.331724125604770770e-01,-1.086811665452869398e-02,1.826135434038473129e-02,1.194088568511514348e-02,4.417916014790534973e-02
2.165261585207324535e-01,2.550311796579345924e-01,2.159913481951735437e-01,1.687927211693541693e-03,-1.045308651771007132e-02,9.795629883720133671e-04,4.292717576026916504e-02
2.071003572974352003e-01,2.453118835658274210e-01,2.416615169971154942e-01,1.368441838534436737e-03,-8.355934377538714458e-03,6.763032317591261867e-03,4.106407612562179565e-02
2.177340004927073580e-01,2.487554641529353128e-01,2.401672745554198074e-01,7.604369203220719478e-03,-9.818124599734615390e-03,7.266590825335777007e-03,3.729270771145820618e-02
2.343730001351829184e-01,2.338000059039065659e-01,2.387050247700456540e-01,2.073151912454330916e-03,3.198272961475908272e-03,-1.897668985885384105e-03,8.715569972991943359e-03
2.386301343542744091e-01,2.341722062425216078e-01,2.283567989829924927e-01,-5.489161891295554069e-03,3.519837493082017977e-03,4.211692983313059836e-03,1.613667607307434082e-02
2.205606909297186391e-01,2.387470777171339653e-01,2.431336944657579435e-01,3.057180620638021932e-03,-2.084046190061314766e-03,6.666483639288897818e-03,2.457963861525058746e-02
2.339394416136522381e-01,2.382620367330018640e-01,2.473007376146339475e-01,1.787393489229675836e-02,-1.008451924856938915e-02,1.369225634274980757e-02,4.433297365903854370e-02
2.327532659769851187e-01,2.761138906429864148e-01,1.665478000995268548e-01,4.488146431828944627e-02,-6.350394376470529234e-02,5.896407798107287240e-02,1.941792815923690796e-01
2.372441616645322993e-01,2.539922520590573995e-01,2.068812704441921335e-01,9.533331181702863616e-03,-2.389102394231771079e-02,1.008998131373919742e-02,6.325617432594299316e-02
1.156810856849853630e-01,3.372874809684381359e-01,2.689199039520361323e-01,8.373996893122837709e-03,-8.780831337726804908e-02,5.608775654422831769e-02,2.672294974327087402e-01
1.894406988055059582e-01,3.029206664675406224e-01,2.025100934050941826e-01,1.048537133707418308e-02,-1.017774418149597349e-01,5.889730998803345552e-02,2.310364693403244019e-01
2.839597118045824042e-01,1.629541622135685652e-01,2.455304506885555016e-01,-1.904870322890907935e-03,-4.179685761837330892e-03,-3.144130908028946320e-02,1.204074770212173462e-01
1.814718141692200915e-01,2.533299445250192794e-01,2.630575598467306819e-01,-6.348619654452576123e-03,2.238554953671841659e-04,3.942941412633643554e-03,7.826194167137145996e-02
2.736471702514893245e-01,2.187523656994180832e-01,2.327831652053033717e-01,-1.959859984471026828e-02,2.448119424457421978e-02,3.993212783466736082e-02,1.008668020367622375e-01
2.095172752725910637e-01,2.241677648618429219e-01,2.552973890013849334e-01,-1.923523033151692055e-02,5.158849271716980586e-03,7.578212940349882132e-03,5.478928610682487488e-02
2.074321989310608239e-01,1.325021688660804609e-01,2.811899455561286398e-01,-9.955723101756309978e-02,-2.166608942732745416e-02,-3.680778100966713984e-02,2.275719791650772095e-01
2.043669003495363068e-01,1.314721484197269585e-01,2.808939421992621699e-01,-1.019123020209713876e-01,-3.098022551207117725e-02,-4.762866226165339556e-02,2.399824857711791992e-01
2.404337652862151009e-01,2.050496553653000653e-01,2.583313989085843643e-01,-8.881908688210328126e-03,4.306750124768189518e-03,5.191243583285103276e-03,5.078197270631790161e-02
2.581964370072758475e-01,2.596977974236667208e-01,2.008436505606902567e-01,3.624840826930814455e-03,1.339249254349504604e-03,1.151870629427237218e-02,6.181055307388305664e-02
2.498043595044655563e-01,1.567468674890972746e-01,2.643987120014126280e-01,-2.724871895482114045e-02,3.747464112471760034e-03,-6.507663784245664189e-04,1.118109300732612610e-01
2.361095164882407449e-01,2.412042318955819331e-01,2.292912759078419571e-01,3.819742501700355841e-03,1.170676491306239450e-03,-3.587008785696372258e-04,1.246797014027833939e-02
2.333755176537815612e-01,2.374830267062271183e-01,2.325958904781139092e-01,7.281982601216011215e-04,4.314334427923506923e-04,-1.374494429101058698e-03,5.338417366147041321e-03
2.335663424318506765e-01,2.351045334957069521e-01,2.375458446173348281e-01,2.338620732335994819e-03,1.710117623807139555e-03,-2.950161490038143500e-03,7.960687391459941864e-03
2.372810848414103335e-01,2.160165139321442163e-01,2.305618713904948602e-01,-2.002790522034011457e-03,-6.146398432176889727e-03,-2.804958914489676883e-03,2.243702672421932220e-02
2.314455558368903598e-01,2.282412335602294617e-01,2.227762082267737975e-01,-3.225861561353513159e-03,-3.024598509979796110e-03,-1.912446237523915838e-03,1.128190476447343826e-02
2.413854714976193250e-01,2.251990034136149565e-01,2.196215208806338026e-01,-3.903837593220989104e-03,-1.780746572987367124e-03,-2.430706893875402442e-03,2.136229909956455231e-02
2.425224382825602043e-01,2.225156900700409890e-01,2.197340593590404179e-01,-3.670221452326308774e-03,-1.319124892620079925e-03,-2.732868396109716484e-03,2.305854298174381256e-02
2.355421000489607286e-01,2.180215375485971552e-01,2.307933334033471784e-01,-2.954246571008774767e-03,-6.050018983401027166e-03,-3.518469286133886313e-03,2.048046886920928955e-02
2.543689432064349942e-01,2.039155695646912847e-01,2.256740363002832372e-01,-1.882039614325685655e-03,-3.026377122010948453e-03,-7.723862980849384094e-03,4.624135419726371765e-02
2.439863569263023280e-01,2.206178701026500488e-01,2.221909064621025720e-01,-1.894525256595602607e-03,-3.373873437834705880e-03,-2.713226506389037913e-03,2.405831776559352875e-02
2.392153444078622127e-01,2.111447450779834756e-01,2.304416831611526273e-01,-5.236646745160404917e-03,-6.184477961598104818e-03,-3.752357024571363608e-03,2.929001487791538239e-02
2.321630975055753443e-01,2.495452201982925056e-01,2.261998623467119662e-01,3.721952088401904446e-03,2.377144576014633432e-03,-1.106879033115867916e-04,2.235844358801841736e-02
2.289386720248978990e-01,2.506862067933069982e-01,2.249840609432129934e-01,1.904394454568914853e-03,4.800135803643183763e-03,1.560311878878749471e-05,2.558519132435321808e-02
2.286750120190803037e-01,2.521674005412830599e-01,2.303913890598356107e-01,1.162974748660590115e-03,5.333534089118427933e-03,3.441747905215077801e-04,2.458188682794570923e-02
2.163093355284455011e-01,2.520924081562230246e-01,2.326698787751353137e-01,1.671727112245453622e-03,6.715584562178187819e-03,-7.636278152960186433e-04,3.328807279467582703e-02
2.286447809284290200e-01,2.510135696649434256e-01,2.250791366791575487e-01,1.149631995495300259e-03,4.343067261343931673e-03,1.910856731384837461e-04,2.556358464062213898e-02
9.286576838808102696e-02,3.137729796155010464e-01,2.979505431273250515e-01,-6.926290052389549867e-02,-4.447987394694902230e-02,1.799071179813289956e-02,2.585603892803192139e-01
2.399076109269479007e-01,1.902376821119314554e-01,2.586258131222365364e-01,-1.115857642944124463e-02,-3.060749056529844369e-03,-3.171205730309715771e-03,6.464534252882003784e-02
1.868183936351184848e-01,2.834405422294800081e-01,2.471101277599182244e-01,-2.002558467891214777e-02,-5.060551264511162911e-02,-9.912665237717379826e-03,1.277733296155929565e-01
2.122752237241712636e-01,2.549789322385546675e-01,2.248654049654241482e-01,-1.104819391310122049e-03,-2.403134440506349626e-03,-1.574304575172799474e-03,3.837830573320388794e-02
2.075494052374402543e-01,2.546899921167583014e-01,2.237117239689195292e-01,1.702206980537950042e-04,-9.148937276077486608e-03,8.217049297312215136e-04,4.443845152854919434e-02
2.351765212550249451e-01,2.266614488175839881e-01,2.438207983302644877e-01,1.184552756421991884e-02,-7.184525942845604307e-03,1.096491364597405871e-02,3.401950001716613770e-02
2.105889657692197325e-01,2.572996144031617360e-01,2.354308837932255205e-01,2.398555881624927274e-03,-8.684368868389096344e-03,5.351556419225972014e-03,4.436276480555534363e-02
1.453715629563491485e-01,2.841837885534229113e-01,3.002208203566634204e-01,-2.722139898067917757e-02,-8.771634000958442035e-03,9.880446164301264628e-03,1.565211266279220581e-01
1.708795365247978426e-01,2.523002372715482666e-01,2.632552368581181357e-01,-1.807630208684155027e-02,1.249489797121525886e-02,6.911393600032436114e-03,9.608972072601318359e-02
2.172796310251252361e-01,2.517299767429281299e-01,2.317232453202350828e-01,7.261933061813612318e-03,-1.552533464153770665e-02,1.224337354188163862e-02,4.721093550324440002e-02
2.335340671818830482e-01,2.298896693976569261e-01,1.744285102045896041e-01,6.013336597885379775e-02,-6.321483446101967829e-02,8.517162546071246898e-02,2.188386917114257812e-01
2.500072539557510187e-01,2.522617766064940703e-01,1.821423389802751536e-01,1.134959715748748432e-02,-1.656642357386438336e-02,1.575996394224535302e-02,8.196731656789779663e-02
2.398341600192043233e-01,2.546067251432622136e-01,1.982228638324157188e-01,5.945817282909808370e-03,-7.952058402888527791e-03,7.569327635100661341e-04,5.349688604474067688e-02
2.384037232558259001e-01,2.498033315072653582e-01,2.154612424351907141e-01,6.706527769419097333e-03,-3.147634352945935781e-03,2.891863905869894013e-03,3.328043967485427856e-02
2.158763331849517519e-01,2.418296439403350429e-01,2.502134217890630841e-01,-1.377624718125422879e-02,1.450648991134073293e-02,6.591450555726026395e-03,4.787964373826980591e-02
2.455766948445294862e-01,2.429706215800306879e-01,2.196780711480684212e-01,6.569704871101809604e-03,-7.987554823754110505e-04,1.878799113472451061e-03,2.742304466664791107e-02
2.556550511314713003e-01,1.773239716938904420e-01,2.570197684942493455e-01,-7.600271504830256875e-02,3.733683815133548994e-02,5.553022912813103396e-02,1.923712491989135742e-01
2.768858599186239666e-01,2.673625803956177771e-01,1.640352458950292691e-01,-1.892768248474940894e-03,4.387629313497966310e-02,7.721213277435950983e-02,1.882087141275405884e-01
2.544981744325053308e-01,1.666805907472711790e-01,2.585128364174489324e-01,-4.434922090129897465e-02,3.986836931197172001e-02,6.467242924651199487e-02,1.769101321697235107e-01
2.917254340642647659e-01,3.409979789221896374e-01,2.258526437125796538e-01,-2.020179143242688963e-03,1.316134679539328056e-01,8.481706809667678704e-02,2.890900969505310059e-01
1.819136269286207308e-01,2.277858785432945177e-01,2.671146696803665677e-01,-3.464910780896974379e-02,9.272336524021285512e-03,9.557954400524856786e-03,9.792237728834152222e-02
2.347763705734515205e-01,2.471613098549271248e-01,2.252974204830222871e-01,-1.629749869987365566e-03,1.988725418114777391e-03,1.157961015209082794e-03,1.960840076208114624e-02
1.129476172860565952e-01,3.091330668081188615e-01,2.919877478929031600e-01,-4.284264544752484222e-02,2.215107261272955541e-02,2.167723748666877323e-02,2.093017548322677612e-01
1.748005601543442811e-01,2.538370142750717151e-01,2.594471341710412604e-01,-1.029310478261021532e-02,-3.537612035996000326e-03,-1.072579565522449770e-03,8.414557576179504395e-02
1.759915003058573624e-01,2.416198545790168573e-01,2.395271319101651697e-01,-3.140451410885609917e-02,-3.331380180002972008e-02,-2.248751117546346490e-02,1.094501763582229614e-01
1.728629906663633198e-01,2.672996143310841788e-01,2.646738863389666019e-01,-1.314834746594144808e-02,1.047867312996419477e-02,-4.827669350035324221e-04,9.760097414255142212e-02
2.496378065497510679e-01,2.678103224185989784e-01,1.897064466426788831e-01,3.755449221444219499e-02,7.302547655916766245e-02,-2.323432238802557517e-02,1.638895720243453979e-01
1.577643512698332917e-01,2.687201937741660052e-01,2.868453999884870154e-01,-1.957634335508511361e-02,1.359816644512105294e-02,1.041270936490919403e-02,1.291531026363372803e-01
2.363321691547106973e-01,2.482377900557230510e-01,2.202447620628290581e-01,-2.386082555217584021e-03,3.735723457636222142e-03,2.408466830793091606e-03,2.585397846996784210e-02
1.574881898873248254e-01,2.694712585654061576e-01,2.793277837014204179e-01,-8.092391466517560861e-02,6.595379013224404730e-02,1.251661421824267970e-02,2.165799289941787720e-01
1.090977833415212872e-01,2.620147751411082693e-01,3.613364840256592103e-01,-5.912729046589648707e-02,7.682180246594053595e-03,2.900468881548751154e-02,2.482445538043975830e-01
1.177043618608588915e-01,2.942474751599489791e-01,3.602675578872900353e-01,-9.112392156685834854e-02,1.770434609185490881e-03,2.953933386437240793e-02,2.733483910560607910e-01
2.023673758481158991e-01,2.358503376373937144e-01,2.534522014277050261e-01,-4.558127425882059144e-03,3.716195433721849496e-03,5.302505983226614601e-03,4.699368402361869812e-02
2.358512628249583021e-01,1.923454583236285098e-01,2.751135029591356695e-01,-5.721490737194571963e-02,-8.772372184981150692e-03,-1.667912477340018421e-02,1.266036927700042725e-01
1.702578647838803305e-01,2.578555061907111812e-01,2.588137997230579024e-01,2.169609110408109165e-02,-1.655978364419032414e-02,1.219998612602403616e-02,1.021742075681686401e-01
1.904364734231248635e-01,2.353743165776035207e-01,2.607434172775570658e-01,-1.223464077717415464e-02,-8.966207166794290095e-04,1.723510728543075406e-03,6.529483944177627563e-02
1.628489715579676811e-01,2.614098214191042935e-01,2.695935977187327026e-01,-4.625278564981177322e-03,2.162364875030103016e-03,3.066749343229968876e-03,1.034129485487937927e-01
1.735386268182001479e-01,2.612688997713249472e-01,2.780664857318720928e-01,-4.828252995502666650e-02,-3.740877083895031985e-02,-1.311823661705789450e-02,1.454666256904602051e-01
9.997380383286827432e-02,3.196536989150483565e-01,3.232674076116771600e-01,-6.244784228415337091e-02,-5.545730870993607203e-02,3.173239427636012980e-03,2.646169364452362061e-01
2.409525408443537464e-01,2.573271491063313099e-01,1.969543099157061716e-01,8.915093571693387745e-03,-9.170901243398572530e-03,1.233521597448941892e-03,5.847857519984245300e-02
2.365346544930600481e-01,2.640939191205391445e-01,1.937136215679402529e-01,4.057166248753948934e-03,-2.145256392459554337e-02,3.126168095764787942e-03,7.233677059412002563e-02
3.088934742101390185e-01,3.614885479056583195e-01,9.061680744013109190e-02,3.025477255487409728e-02,-7.624768585558272527e-02,1.459321755285837748e-03,2.865044474601745605e-01
2.239419438546299268e-01,2.688007890140209355e-01,1.843699777846265486e-01,8.889821723147608643e-03,-4.227255306228095560e-02,1.118422648762077733e-02,1.064267978072166443e-01
2.597433093097025192e-01,2.657120565761561526e-01,1.801220034272809079e-01,7.226705162285879114e-03,-2.862882018788833523e-03,5.217971430136182816e-03,8.434075862169265747e-02
2.484110478038312475e-01,2.641036201246476645e-01,1.831587040067794714e-01,-1.058273274088851641e-03,-6.263902384361173109e-03,-4.082319175539451950e-03,7.549282908439636230e-02
2.062215044182146573e-01,2.976742786184755629e-01,1.334465652519876144e-01,8.045227440677222425e-03,-1.004493314922377950e-01,3.266310103623656664e-03,2.254144251346588135e-01
2.240241956222552289e-01,2.348327903338570666e-01,2.487352219016478461e-01,1.849945876590195805e-03,-3.141466440035468985e-04,3.989727474714587288e-03,2.277467399835586548e-02
2.374112567360511239e-01,2.330650528520845366e-01,2.429088138418692977e-01,8.639181302562718920e-03,-5.423796077906713024e-03,8.731186661628472651e-03,2.477632090449333191e-02
1.966769015250355024e-01,2.594505659543943632e-01,2.770343833779947973e-01,-2.801412225192081995e-02,2.447338560909390753e-02,2.110099985261153915e-02,1.041176915168762207e-01
2.325881154770279013e-01,2.283285367459875759e-01,2.592955475928327425e-01,3.828544422984046097e-02,1.000189008034982688e-02,3.467959220853534955e-04,7.445128262042999268e-02
2.427519773911510637e-01,2.122002675979443032e-01,2.492001359664592075e-01,5.098674085896206902e-03,-2.837770645906286665e-03,5.439628004298386471e-03,3.691754117608070374e-02
2.498080833500910536e-01,1.734502424945775501e-01,2.840348434609778483e-01,3.968746592016841879e-02,2.127988196419124817e-03,1.460717181720093058e-02,1.224518269300460815e-01
2.117498051382405433e-01,1.566983301014006069e-01,2.890976112364684880e-01,-1.082710130071774107e-01,-1.855433210436830543e-02,-6.469226553744476804e-02,2.490529119968414307e-01
1.605803085127945617e-01,2.422900531254245649e-01,2.737242176446757491e-01,-7.963388090751163939e-02,-7.770268647023173547e-02,-4.540888130651189736e-02,2.314233183860778809e-01
2.412392404472006591e-01,1.941530752635529100e-01,2.595444036228644058e-01,-1.125544291831484522e-02,5.413415793001233670e-03,1.608107177795104923e-03,6.236853450536727905e-02
2.213504134261429501e-01,2.123912244298501451e-01,2.552573040926702785e-01,-8.279331869546373290e-03,2.106704780604294353e-03,1.061190985905601999e-03,4.190533980727195740e-02
2.106054471414560425e-01,1.446180513333520379e-01,3.620785568889406392e-01,-8.731578983420584805e-02,1.627226512102597847e-02,2.484577338894055146e-02,2.506236135959625244e-01
2.764119963073582986e-01,7.412321907597285708e-02,2.907297829273788325e-01,-4.583279800010958693e-02,7.345974326964179596e-03,-1.485460693375423649e-02,2.261589765548706055e-01
2.538610313838028931e-01,1.763546337567770683e-01,2.641394852169109964e-01,-5.811426773506664714e-03,3.921380887954619907e-03,-5.848866869101242236e-04,8.401196449995040894e-02
1.919186920585054246e-01,2.536006342341203257e-01,2.655492965318900778e-01,2.817299314796726725e-02,2.017429168820566304e-03,-5.731350337064153137e-03,8.471338450908660889e-02
1.993744484321870458e-01,2.534760365313667441e-01,2.603473102987669541e-01,3.127840391112165445e-03,7.760275536847166186e-03,1.201004892739247418e-03,5.966813117265701294e-02
2.096551057616127534e-01,2.447854298336240575e-01,2.523455700493854037e-01,7.038440842892031320e-03,4.345014914869744539e-03,-4.101971987707288617e-03,4.257488250732421875e-02
1.758096299390252693e-01,2.525064070840971620e-01,2.541301322745405100e-01,1.805198422722078047e-02,1.975410262848660906e-02,-1.251570545652228939e-03,9.034689515829086304e-02
1.785518282637451049e-01,2.620293553604893244e-01,2.625177640002445134e-01,7.691601877988955144e-03,-6.577944453769392786e-04,5.220179751176686964e-03,8.526451885700225830e-02
2.384247574650092405e-01,2.363462197574460466e-01,2.333098760978566666e-01,-3.973479675076291989e-03,5.226457433545095982e-03,7.486716060461931499e-03,1.781338825821876526e-02
1.253953229182491191e-01,2.865842408428486698e-01,2.897867985341819885e-01,-2.066601739034822777e-02,1.026750134569735622e-02,1.299198996895262366e-02,1.691515147686004639e-01
2.301615894011565522e-01,2.310154185453820175e-01,2.469191155455518483e-01,8.850600873161174574e-04,9.909833678412884300e-04,-1.077325601711739099e-03,1.661365851759910583e-02
2.298430931614000583e-01,2.254170510390401394e-01,2.491985961756739976e-01,3.685003959535596008e-03,2.884917993017270272e-03,-3.733292773730803311e-04,2.336702309548854828e-02
2.301422059755034721e-01,2.313961558158694753e-01,2.444833328157855756e-01,2.012598625519754474e-03,1.168678899439049533e-03,-1.985015959076634647e-03,1.474202238023281097e-02
2.260342026153899231e-01,2.336623278309369056e-01,2.515960017822851391e-01,2.090539311093827547e-03,1.684236998512163774e-03,-2.805904488693279327e-04,2.320479415357112885e-02
2.301373028833958445e-01,2.296636483132272755e-01,2.466253890254744008e-01,7.319060721638275891e-04,1.023291719347376762e-03,-2.759236168438052765e-04,1.687802746891975403e-02
2.305966906028889540e-01,2.280392617431046265e-01,2.492120283521989943e-01,7.183493922809609323e-04,1.547539176687744633e-03,2.216486169723846835e-04,2.023755759000778198e-02
2.224146137413346158e-01,2.413487530662081770e-01,2.456088052236019004e-01,3.061405706420461306e-03,3.241020984310553476e-03,-3.814481147021410445e-03,2.367678470909595490e-02
2.282982884079723940e-01,2.321643111739105647e-01,2.616816442385946906e-01,1.510784596810666597e-02,5.578708190348067100e-03,2.233008779269973505e-03,4.234854876995086670e-02
2.475224998286297273e-01,2.412362324973334471e-01,2.105919205982784148e-01,8.640480325540263878e-03,5.608437131910344597e-03,-4.548908558945691759e-03,3.939091786742210388e-02
2.396614358313323145e-01,2.374832020924381171e-01,2.289263169347755533e-01,5.122361754301419691e-03,6.269055079412972666e-03,-2.542619987077096144e-03,1.768099330365657806e-02
2.480129527758555275e-01,2.432137483030283875e-01,2.091273249360082187e-01,7.513696142660338667e-03,8.034959213257860527e-03,-1.332979270982108042e-02,4.737724363803863525e-02
2.264712629315084325e-01,2.608934349465659164e-01,2.372695189044536912e-01,4.947578374300064252e-03,1.445874053915031932e-02,2.621160849434166760e-04,4.038063809275627136e-02
2.536049423041213391e-01,2.388888702846016787e-01,2.018028092927957873e-01,6.325158580468351333e-03,1.365782177546273103e-03,-9.991839859203993299e-03,5.062439665198326111e-02
2.474049827674394686e-01,2.385105458889707764e-01,2.139227028466366698e-01,7.151110282772453475e-03,4.677941744760372861e-03,-3.207831516866145333e-03,3.394559025764465332e-02
2.346977751740983997e-01,2.374759085909659284e-01,2.335897943424473100e-01,2.387794113127123495e-03,2.015132694425736740e-03,-1.712463579785040079e-03,7.078723050653934479e-03
2.284594065288471920e-01,2.406296677416276675e-01,2.306474297266454809e-01,9.180543715509949243e-03,1.207691210166649855e-02,-8.187665621571882726e-03,3.190282359719276428e-02
2.185049230313171331e-01,2.673225733337827315e-01,2.257837684728982997e-01,-8.998013614362330992e-03,3.704183496259851743e-02,1.096979503660120391e-02,8.246819674968719482e-02
2.049806638263293457e-01,2.552498954125752562e-01,2.484263269910265970e-01,1.410068580102167776e-02,1.814865063375874568e-02,4.984246252231565831e-04,6.177293136715888977e-02
2.229129619481945990e-01,2.278478392087961435e-01,2.475497791680575654e-01,-3.874779587948034079e-03,2.041187352866504975e-03,2.570335540188998114e-03,2.423029206693172455e-02
2.405817386837506289e-01,2.486581405686562329e-01,2.534707030602492139e-01,3.194284448124960762e-02,3.955202215548213329e-02,-1.980436630256735345e-02,9.517362713813781738e-02
7.871113497195883490e-02,2.851059037578860256e-01,2.750406718588058741e-01,3.269614493669648764e-02,-4.483012559617637061e-02,1.832508918800415665e-02,2.255359441041946411e-01
2.597518271169878545e-01,1.674835159328935674e-01,2.657055868720699099e-01,1.896674970187069501e-02,8.139168314102888241e-03,3.306728677430514560e-03,1.020244359970092773e-01
1.883401004822530533e-01,2.576456152877895089e-01,2.593672581484794959e-01,2.635530788705587896e-03,-1.670957610409315583e-03,4.971140568373053244e-03,7.091465592384338379e-02
2.299172781145008837e-01,2.291626720911114079e-01,2.492234640652459809e-01,4.211748596117696405e-03,2.879315334885222764e-03,-8.118792843951009447e-04,2.163173817098140717e-02
2.296127458624491191e-01,2.293641313651689218e-01,2.517299211662236136e-01,5.140206567210120481e-03,3.446314773762382093e-03,6.809397124737754867e-04,2.471876516938209534e-02
2.490285586228753734e-01,2.043693094479333561e-01,2.493195095044358489e-01,6.442321369125819305e-03,7.171640648193741696e-03,-3.290807277585279609e-03,4.815415665507316589e-02
2.231754657830875010e-01,2.336033010206559624e-01,2.457456916110807854e-01,5.063085737507306248e-03,1.945033335875448639e-03,-3.477638207256386442e-03,2.252403460443019867e-02
2.407722540302760783e-01,2.382532091426096676e-01,2.274040987276512160e-01,7.755635706982814612e-03,6.878149139117035668e-03,-4.648588467843935840e-03,2.320738695561885834e-02
2.490911760548202569e-01,2.295129644152242021e-01,2.256218133094254896e-01,2.712641776384186552e-03,-1.133933737336143693e-03,3.712447856810900670e-03,2.327893301844596863e-02
2.579235886159354507e-01,2.224040401687310264e-01,2.414721044179909126e-01,2.243247706690164323e-02,-5.642053567614688063e-03,2.131934982671961076e-02,6.258299201726913452e-02
2.493760078673921965e-01,2.352442431351676466e-01,2.220896163199364559e-01,4.251714203877690092e-03,1.371007606358035438e-03,1.842464889446452942e-03,2.507395669817924500e-02
2.488555292459182777e-01,2.441075035268065185e-01,2.082194446126777454e-01,7.863556007589218161e-03,-6.538247808775763878e-03,3.538790524181744009e-03,4.280438646674156189e-02
2.423145899230250977e-01,2.446595663651417452e-01,2.081482596795467266e-01,8.018877333939465266e-03,-6.898753569606674851e-03,5.748791592997545656e-03,4.108269140124320984e-02
2.597041858250525026e-01,2.333690601066097936e-01,2.064064532247608663e-01,1.183060778374286047e-02,-8.575815536720357915e-03,2.217333293969258462e-02,6.516194343566894531e-02
2.492609544194228921e-01,2.445429770565201444e-01,2.075479965718267650e-01,7.461675318509721280e-03,-3.529269260918843631e-03,4.764999174422955043e-03,4.287122562527656555e-02
2.544476496706905566e-01,3.337234553547709925e-01,1.444093968341244039e-01,8.013404697561886392e-02,-7.511810299140522784e-02,2.465681381515718446e-02,2.552114725112915039e-01
2.708896422916312607e-01,2.043188672804280293e-01,2.273106366135915490e-01,5.013287561213060350e-02,-1.804394885455275557e-02,6.963788748629648473e-02,1.627718806266784668e-01
2.991895187527968680e-01,2.629144401875100900e-01,1.644020515937866800e-01,9.138470429426382574e-03,-4.914670008003724916e-02,7.183231768006125006e-02,1.938310861587524414e-01
3.050135611388032353e-01,2.909555467799071482e-01,2.059344669819728191e-01,6.099896898592242767e-02,2.629197650868790939e-03,8.904069996363310480e-02,2.087810784578323364e-01
2.747578851345718887e-01,1.866831850834551332e-01,1.891801367759836094e-01,-5.371595635913418336e-04,1.110748282640809659e-02,8.353748006979888618e-02,1.698528677225112915e-01
2.243897669224708957e-01,2.542197957774011141e-01,2.072766385008535384e-01,9.953526249409349810e-03,-2.093139415546965698e-02,1.065614717867671528e-02,6.037734076380729675e-02
2.300695634591022332e-01,2.434505608934073029e-01,2.191395469394000484e-01,-8.153582501601619112e-03,1.996059324252897477e-02,1.113462416203256540e-02,4.702583327889442444e-02
3.307542931811208731e-01,1.492519135273755460e-01,2.855822169932670240e-01,-1.983400949836993960e-03,8.367866864700471141e-02,8.257338482266275703e-02,2.612624168395996094e-01
2.577486249488314396e-01,2.374194932013758419e-01,2.209364812211079554e-01,4.992907590247890048e-03,6.637888464925405946e-05,1.409675478321774193e-02,4.112182557582855225e-02
2.415979894454444998e-01,2.468274506317402195e-01,2.122559657732189242e-01,8.405286313307872362e-03,-8.941118679529460114e-03,1.149999737297993478e-02,4.347725585103034973e-02
1.558648674076913709e-01,2.815593499211134221e-01,2.837220149792324952e-01,-1.693062712018442856e-02,-4.114054329875914580e-03,3.495131796666923682e-03,1.304721385240554810e-01
1.714735238966622610e-01,2.671105991292185289e-01,2.694659656738577769e-01,-1.381533471360527109e-03,-2.010730262782267803e-03,4.045323760924761543e-03,9.718131273984909058e-02
1.082256946103939965e-01,3.526815672030449988e-01,3.018214388904768009e-01,5.665358318191468512e-03,-6.942158567181998252e-02,3.183384644786801942e-02,2.598209083080291748e-01
2.162962599125834717e-01,2.213218568640443196e-01,2.536598475801343788e-01,-4.488494889265086038e-03,-2.451779728506665759e-04,4.853209056350979694e-04,3.598397970199584961e-02
2.184881216523206215e-01,2.563760096137660538e-01,2.543801706812952035e-01,3.814015643736543698e-02,-1.000518047485355298e-02,1.543048837979326890e-02,8.211262524127960205e-02
1.945903551418007860e-01,2.587627192357621064e-01,2.377195334151234740e-01,5.088879837060762863e-03,-1.208567998894445432e-02,5.091437096406311626e-03,6.167792528867721558e-02
2.486005399922159020e-01,1.960305768435169071e-01,2.418397466115904393e-01,-3.590118819951031333e-03,-7.539431393931773570e-03,-6.833601991015830074e-03,5.294511467218399048e-02
2.444094249553379616e-01,2.017731907581603590e-01,2.399154180939271352e-01,-5.720353920687132505e-03,-1.039218386272329660e-02,-8.690586445164837429e-03,4.790799319744110107e-02
2.440298225101548146e-01,2.091038912066799926e-01,2.354054448240066877e-01,-4.886253470520733611e-03,-7.818502117411592345e-03,-3.544590099929684126e-03,3.585654497146606445e-02
2.430094595032930016e-01,2.117223040180278293e-01,2.387125066237378301e-01,-1.150537129767498744e-02,-1.172412204302787642e-02,-1.373601082273015472e-02,4.731205105781555176e-02
2.408207911362273690e-01,1.944714330924012247e-01,2.364440061487501910e-01,-2.049919192553241107e-02,-1.397526084345756051e-02,-2.151731984252891472e-02,7.211183756589889526e-02
2.612715841958698215e-01,1.684291172560615502e-01,2.487172842828401786e-01,-1.872650876101283196e-02,-1.829635016733286573e-02,-4.458304757017912678e-02,1.250240802764892578e-01
2.350048797556663349e-01,1.938699653835574965e-01,2.540465845507161591e-01,-2.207564414305452152e-02,-5.994928665614502813e-03,-1.399326370762669219e-02,7.067673653364181519e-02
2.197642292318346957e-01,2.306641527966233340e-01,2.219467448762909023e-01,-2.871862392664351407e-02,-2.496961163048550675e-02,-2.732093674396528921e-02,8.175454288721084595e-02
2.188007711692727397e-01,2.536268696152281232e-01,2.161091788389484236e-01,-1.360886971320328376e-03,-3.577280079910658776e-03,-1.057354001748649416e-04,3.684860840439796448e-02
2.375587747505321923e-01,2.789416279623572748e-01,1.780273611960776770e-01,1.418697893397492457e-02,-3.206498434260263847e-02,7.815187250091190294e-03,1.076644882559776306e-01
1.374349040173958314e-01,3.123400509087114196e-01,2.133943667489874296e-01,-5.443422511632784594e-02,-9.704185818267742347e-02,-2.152317272506500123e-02,2.482061833143234253e-01
1.916109314331488900e-01,2.499989325877176038e-01,2.388046943323019478e-01,-6.391517395515384538e-03,-7.323811106807642107e-03,-7.559020459181643725e-03,5.775591731071472168e-02
1.907401658820155887e-01,2.570376355672838176e-01,2.382723575220037915e-01,-3.696077884499924561e-03,-9.970458405455016535e-03,-3.401489043122936373e-03,6.226815655827522278e-02
1.976545937153713073e-01,2.636713788994133889e-01,2.185013147320838400e-01,-4.584687261852662260e-02,-6.917119379620113861e-02,-4.520747250095636521e-02,1.738030016422271729e-01
2.173315835090416093e-01,2.816825236410729350e-01,1.483988081990689212e-01,-2.452194392497573927e-02,-8.530055407499376185e-02,-4.372133066740462731e-02,2.066297531127929688e-01
2.221117512950738782e-01,2.497539085251940794e-01,2.098769928090461478e-01,-1.070803023735966003e-02,-1.616628645444873405e-02,-1.028591364832887392e-02,5.193655192852020264e-02
1.626741098973002730e-01,3.187381778830072898e-01,2.094454657617823290e-01,6.746124290381651928e-03,-9.340126555056332824e-02,-1.581259862538682975e-02,2.151795923709869385e-01
1.807853208305220116e-01,3.223693765662999366e-01,2.383447692776343163e-01,5.202031806688384857e-02,-9.195605807713799762e-02,2.882337585962341589e-02,2.262478470802307129e-01
2.075943586914676675e-01,2.494807142953246737e-01,2.227974034770527356e-01,-1.070007742119843605e-02,-1.828009390435225354e-02,-1.060911329696705846e-02,5.506740882992744446e-02
2.255306469529419211e-01,2.216271237118620507e-01,2.349209724000810295e-01,-3.950305045119960334e-02,-2.642268071174681474e-02,-2.552861594671582135e-02,9.418677538633346558e-02
2.163893708478042133e-01,2.496344954176979436e-01,2.151287228611804547e-01,-4.752653907417147411e-03,-1.019690207383769191e-02,-3.957167554774120022e-03,3.969142213463783264e-02
2.030789480116040879e-01,2.498959088094086511e-01,2.344661708871856598e-01,-3.687493888306498692e-03,-3.847299368006717318e-03,-5.648653407757240306e-03,4.345631226897239685e-02
2.270980492968508735e-01,2.460163571910844449e-01,2.097878820118789234e-01,-6.076502248840082339e-03,-4.575073891203624600e-03,-2.658953971050967858e-03,3.434820100665092468e-02
2.234533083778831308e-01,2.431233151920649260e-01,2.200410250257934242e-01,-3.766763310854816943e-03,-1.928439936269640050e-03,-1.347198680962235790e-03,2.290937490761280060e-02
1.856408033558749338e-01,2.533617051495452022e-01,2.485848753661425437e-01,-2.576336081845258252e-03,-4.288940849460231089e-03,-6.322604365388081668e-03,6.693632155656814575e-02
1.958019690550609204e-01,2.557916134717195811e-01,2.622767164560138031e-01,2.856607723735087208e-03,-9.014295632328033110e-04,4.276255556106303875e-03,6.412199884653091431e-02
1.822537351721592314e-01,2.632374952745803465e-01,2.599618247255379155e-01,8.060981295898450322e-04,-3.353482472037319900e-03,3.217259880321127717e-03,7.981580495834350586e-02
1.891621797352151246e-01,2.494088552693622673e-01,2.512852025012821122e-01,-1.714320144791453213e-02,1.230101520852520600e-02,6.240240782472277273e-03,7.210174202919006348e-02
2.137078291910080308e-01,2.301317340074207074e-01,2.518981310060992018e-01,-4.400647338937766460e-03,8.365524922955789320e-04,4.587702017404209943e-03,3.499067574739456177e-02
2.176787754580516709e-01,2.422260378506575773e-01,2.442107330486922301e-01,-2.461693292972684348e-03,2.674684456070981851e-03,6.808320672586732486e-03,2.887779846787452698e-02
1.990836401139222389e-01,2.388885552129836887e-01,2.552983857338517182e-01,-6.381337358308423677e-03,4.357429246429796177e-03,7.764956797874488642e-03,5.354358255863189697e-02
1.427717804381609668e-01,2.603625710381308744e-01,2.721329188988015346e-01,-5.451223088889067120e-02,-8.362108886572137967e-02,-4.158150407183913710e-02,2.245651185512542725e-01
2.144801941687017599e-01,2.530017745107117078e-01,2.363400586135604997e-01,-7.198416801857918405e-04,5.241636116019827464e-03,2.803512991905856688e-03,3.503208607435226440e-02
2.298525687858187228e-01,2.510270509318470733e-01,2.317095734459175271e-01,1.757827448774501719e-04,5.212080082762872955e-03,2.012582258006186846e-04,2.223055623471736908e-02
2.296492827889282384e-01,2.509917242323624342e-01,2.282258747293446077e-01,3.993374104024738206e-04,9.306501279759591370e-04,2.751300798822103877e-04,2.216322906315326691e-02
2.188629963970311343e-01,2.510930147619030994e-01,2.362002900218012624e-01,1.222947481708213952e-03,1.756594922841642073e-03,3.841830685911966185e-03,2.895854227244853973e-02
2.171724513263469658e-01,2.555727512439181504e-01,2.356091157223834942e-01,5.943807194395645151e-03,2.959879810159745522e-02,-1.232888548719471809e-02,6.554980576038360596e-02
2.271020140859927872e-01,2.490760375288157136e-01,2.287121642056926807e-01,1.156512583986329078e-03,2.577760478614996281e-03,-1.259417005317921756e-03,2.188091166317462921e-02
2.063228675897780529e-01,2.385845686315672676e-01,2.488599517652065052e-01,-7.122360858467015679e-03,5.587734607139223028e-03,8.519351398443262419e-03,4.406237229704856873e-02
2.085432598986056707e-01,2.697813540681479605e-01,1.746641616857194379e-01,-1.545204615049072458e-02,9.263875595255560702e-02,4.343765647113956990e-02,1.977250427007675171e-01
2.238796537520328922e-01,2.598905723886376640e-01,2.389091877380418727e-01,2.930837827870653046e-03,1.889064320574183539e-02,4.537781088693886716e-03,4.625536501407623291e-02
2.202656279609666867e-01,2.453989883537235073e-01,2.355110011186159202e-01,-3.739049808311830161e-03,4.512194562602218038e-03,5.695585431316002416e-03,2.610134147107601166e-02
2.632798724635739829e-01,2.753183552961909197e-01,2.055109461955846595e-01,2.005903619995171028e-02,3.421301335273476546e-02,-1.012069323505380113e-02,9.593536704778671265e-02
2.732615289012121362e-01,2.752761836776065341e-01,1.967153687324505462e-01,1.407313541540814589e-02,9.825312923517419417e-02,-3.247161237205935594e-03,1.886913180351257324e-01
1.933778571904743726e-01,2.759476889472013417e-01,2.162781681670520595e-01,-3.762212102922886381e-02,-7.418974410639848915e-02,-2.541268190428873711e-02,1.677717715501785278e-01
2.371152139868929476e-01,2.283309110740448789e-01,1.734650863937461374e-01,-5.754893581741227226e-02,-7.632189252941078139e-02,-7.735856123710811716e-02,2.212083935737609863e-01
2.035220383185949722e-01,2.044122726802408974e-01,1.968293607168332127e-01,-8.641467809604279349e-02,-8.556308267970631765e-02,-8.591808179085860808e-02,2.579978704452514648e-01
1.927089862410482912e-01,2.018215827040251986e-01,2.345384637618757595e-01,-9.185952097512831149e-02,-6.942366106351885446e-02,-7.868094583243073759e-02,2.445344328880310059e-01
1.615815820733864094e-01,2.965901761094767997e-01,2.565902809639012960e-01,-1.557086601901781948e-03,-2.696282716247254407e-02,1.026216740664710747e-02,1.301198452711105347e-01
2.079945694554969915e-01,2.277325061831247666e-01,2.611692835834402704e-01,-1.373158979227832172e-02,-1.221070328610965577e-03,-6.882000954102257583e-04,5.233680084347724915e-02
2.291865984145093904e-01,2.413087810922679988e-01,2.254421134171365748e-01,-2.799562626600756235e-02,-3.507187807268262458e-02,-2.813665202717050007e-02,9.285875409841537476e-02
1.914841024162259320e-01,2.385829234498119678e-01,2.613844681267096237e-01,-2.184592095203203785e-02,-7.440402305989692391e-03,-3.446767489309685104e-03,7.379422336816787720e-02
2.171738930223132136e-01,2.109712334636802689e-01,2.396700764236878167e-01,-7.109406965006408174e-02,-4.671829334710143888e-02,-4.978055582173961102e-02,1.727115958929061890e-01
2.464425280986450861e-01,2.208401828051418381e-01,2.191622929169815270e-01,-1.866366839578994380e-03,-1.174292296132343431e-03,-9.494788382243967047e-04,2.680568397045135498e-02
2.412239783281053263e-01,2.224049510540621333e-01,2.231797205220337754e-01,-4.627243603184880150e-04,-2.072466318291154089e-03,-6.141658256550935153e-04,1.883706264197826385e-02
2.457890116133351899e-01,2.214411668932838029e-01,2.232237053096433610e-01,-1.167367038767415811e-03,-8.884266681400858953e-04,-1.383155110658112726e-03,2.376530133187770844e-02
2.437063723383967873e-01,2.138055397382025991e-01,2.278097895982057752e-01,-4.312885284098174482e-03,-6.293270782215502554e-03,-5.435053466060772026e-03,3.057250753045082092e-02
2.480326675153725902e-01,2.070925481706094307e-01,2.274525812210632658e-01,-3.206965169621512571e-03,-5.386969281608396456e-03,-7.121251152757808456e-03,3.907852247357368469e-02
2.596360359698536291e-01,2.325507424160272452e-01,1.905212445969320378e-01,-5.334532105181682277e-03,-2.621707789871991195e-03,-1.290667120451535060e-02,6.514760851860046387e-02
2.429200146375073421e-01,2.177234183401503542e-01,2.285064114309673100e-01,-6.861441164116886121e-03,-6.748564497850862397e-03,-1.019481650550210956e-02,3.269735351204872131e-02
2.534396817007363301e-01,2.158686104804988237e-01,2.081550588276173119e-01,-9.985192461931868130e-03,-7.152721877640620673e-03,-2.217063833768602443e-02,6.072971969842910767e-02
2.289697024383878232e-01,2.201217782821432989e-01,2.567934089747173632e-01,-1.231827445273779402e-02,4.671343044871913153e-03,4.619693296968412771e-03,4.102846607565879822e-02
2.489143615459906700e-01,2.031353075254430651e-01,2.579577308289232040e-01,-4.854683589555161029e-03,4.940134136675128351e-03,6.852985300162676638e-03,5.363124236464500427e-02
2.525757998916225988e-01,1.343802099688651830e-01,2.803206599129889898e-01,-8.582729019237707313e-02,-4.391096643180679437e-02,-4.820596376135877908e-02,2.299439758062362671e-01
2.514429657107098981e-01,1.757209897300303914e-01,2.721880666034310337e-01,-4.870874351894084048e-02,-1.707879778621069697e-02,-3.329764123484007382e-02,1.380359232425689697e-01
2.442496360262439437e-01,1.142148836264523792e-01,2.949917566243037692e-01,-6.798015874865338815e-02,-3.898606315009876463e-03,-1.292115448391338399e-02,2.012272626161575317e-01
2.262121868035961159e-01,1.354499007683492573e-01,3.338464771317596336e-01,-8.864146493097307955e-02,1.401666196944749768e-02,-3.575529052912787553e-02,2.399764955043792725e-01
2.512501826822752249e-01,1.186921547996154236e-01,2.785853192790301303e-01,-6.450423904925099705e-02,-2.058030017080716284e-02,-6.210750628134764639e-02,2.174106687307357788e-01
2.176226358323838372e-01,2.502662084790012731e-01,2.281151023008606005e-01,-6.560225151617497460e-03,-9.596150537047969803e-03,-6.263224678868264950e-03,3.682709485292434692e-02
2.144411720748432837e-01,2.495128013659679012e-01,2.254517359553502576e-01,-1.736740522771215494e-03,-1.770479817204596244e-03,-3.535778242690411875e-03,3.195388987660408020e-02
2.103957399015092822e-01,2.468299544339162543e-01,2.274639597605547514e-01,-2.668562689260888139e-03,-5.250748012194823670e-03,-5.637638967867531284e-03,3.458804264664649963e-02
2.456215204256788909e-01,1.841146199871789291e-01,2.249691596316682196e-01,-3.506906478238359937e-02,-2.776047627028653889e-02,-4.287580295457806695e-02,1.202323138713836670e-01
2.264726472529352552e-01,2.388090761903371717e-01,2.243928436373208157e-01,-7.410629701750446989e-04,-1.087427331962227423e-03,-1.096110131544208652e-03,1.381918229162693024e-02
2.269816442248852595e-01,2.495778597035229474e-01,2.064762621634386175e-01,-5.705966952828043712e-03,-5.393744930711930931e-03,-3.398323431088780960e-03,4.017463326454162598e-02
2.190653561200936739e-01,2.405521632614705807e-01,2.189335792901802302e-01,-4.803036032580693462e-03,-9.052624769930042031e-03,-5.564800748117363152e-03,2.953794598579406738e-02
2.297698230058947411e-01,2.300345547948252078e-01,2.442360431104996787e-01,2.479153027116164348e-03,1.527249299529383555e-03,-1.564182185450668609e-03,1.543658040463924408e-02
2.153006567993077380e-01,2.549183552128623242e-01,2.535711701813842534e-01,4.055929436607231403e-02,2.676185215678662105e-02,-1.992879686493545088e-03,9.280990809202194214e-02
2.305421765698735526e-01,2.286825824289867581e-01,2.464243046430492912e-01,3.881604484650622429e-05,6.997559441910400618e-04,-5.806761347263727667e-04,1.696229539811611176e-02
2.465311735983603536e-01,2.063166205751382765e-01,2.426096739501750477e-01,7.489499674777529148e-03,9.400872421582818356e-03,-6.714470986910477113e-03,4.520560055971145630e-02
2.190298224567472085e-01,2.377526253725673056e-01,2.482905523233440437e-01,5.380031263567900540e-03,2.241420616363012756e-03,-2.013660671655443084e-03,2.780218236148357391e-02
2.529523098876903520e-01,2.164760735025171856e-01,2.188876868954701960e-01,1.633937842233522311e-03,1.999584410943714384e-03,-1.010978966577774120e-02,3.968618065118789673e-02
2.593617465540472566e-01,1.951614486512392166e-01,2.408439170478158253e-01,7.532562170714426344e-04,2.774226089118553545e-03,-6.592170244583683662e-03,5.857387930154800415e-02
2.747193866603609980e-01,1.946829608325865157e-01,2.118500439562940874e-01,5.322942729279416668e-02,4.049313729924335775e-02,-6.916663978806551760e-02,1.819280534982681274e-01
2.384388664028684601e-01,2.299481430681708516e-01,2.437161481234710325e-01,5.562524051840327284e-03,6.997850836958008011e-03,-5.313278389746994498e-03,2.166050672531127930e-02
2.154585895038999555e-01,2.278180557154876607e-01,2.533681683871907842e-01,-1.703823669904180015e-03,1.750491701008707315e-03,3.251144873412280516e-03,3.421932086348533630e-02
2.202715600108973992e-01,2.308782468502046104e-01,2.553062047235018506e-01,-9.861453750245855951e-03,3.617286519373012418e-03,5.465241462864243484e-03,3.726838156580924988e-02
2.167001323271977309e-01,2.214605049630699873e-01,2.547387277578861409e-01,-4.207048869070874851e-03,-9.348451383381496498e-04,1.039666967255651134e-04,3.666428849101066589e-02
2.209980254420796097e-01,2.190344181517974997e-01,2.567200238173732996e-01,-9.363857552978976581e-03,5.471113648201038522e-03,4.439746796379826291e-03,4.197665676474571228e-02
2.246023671920379938e-01,2.259181335474042263e-01,2.491794303607771099e-01,-4.558815491036944528e-03,2.516288085063021936e-03,2.558415076386363028e-03,2.596931904554367065e-02
2.253951855595049958e-01,2.179885639161540101e-01,2.520436859785974981e-01,-9.176919272603641878e-04,-2.417279710351796090e-03,-1.596606709945737812e-03,3.146553039550781250e-02
2.199837032064802800e-01,2.420042186102883686e-01,2.462677955624752724e-01,3.283177288732627621e-03,3.295603331220757666e-03,-3.406858920843137441e-03,2.639522962272167206e-02
2.696899929899463366e-01,2.089029938484735227e-01,2.268949782028489015e-01,5.295109411109970819e-03,6.024823311870236564e-03,-3.184169958597724698e-02,7.848428934812545776e-02
2.159523912380160171e-01,2.531840363590831533e-01,2.429476850873618643e-01,4.135022019367622440e-03,4.208007278945359586e-03,-1.625940479942972390e-04,3.484764695167541504e-02
2.201436725458252308e-01,2.501116310416097721e-01,2.332938866125300326e-01,2.481604643953486122e-03,4.624881185385513321e-03,-2.137172368278094335e-03,2.780769206583499908e-02
1.926121381388863629e-01,2.576609456824855426e-01,2.547473944876860741e-01,1.601184528200493007e-02,2.772901014999007083e-02,-7.084984781683061061e-03,8.530378341674804688e-02
2.430891516057789026e-01,2.499890367031704363e-01,2.404186865854134325e-01,2.692834394885899874e-02,2.922898493520565549e-02,-5.938714064745005683e-03,7.012402266263961792e-02
1.549839979597887329e-01,2.913046739109789729e-01,2.336860741541682829e-01,2.143559167223515680e-02,8.494756984852942783e-02,1.003348268312615789e-02,1.933322548866271973e-01
2.423381376286116440e-01,2.658363800398509946e-01,2.105897326853468365e-01,2.389284886655140133e-02,4.340023599464570836e-02,-1.569016496977124545e-02,1.020198538899421692e-01
2.034775659956338800e-01,2.388255227224201638e-01,2.539233211895352005e-01,-6.737929226307932604e-03,1.994416686159989228e-03,7.396600093119487518e-03,4.820123687386512756e-02
1.876635833873959158e-01,1.927627809746376708e-01,3.490811735676853100e-01,-8.774644178641974324e-02,1.077978508234432239e-02,6.973221765745267475e-02,2.515814304351806641e-01
2.288602612180798412e-01,2.465347008603211987e-01,2.317381441378630058e-01,-2.083187700223454810e-04,1.274302749284966915e-03,7.916808818024317559e-04,1.663385331630706787e-02
2.129171660693827128e-01,2.221297378323130456e-01,2.715195325562679285e-01,-2.991565638112267389e-02,6.863573664977785926e-03,5.654695644410741295e-03,7.682006806135177612e-02
2.013776929390319048e-01,1.481410967844710436e-01,3.374863842503265099e-01,-9.363533650382445395e-02,-2.765778561703789024e-02,-1.187122163520595332e-02,2.400542497634887695e-01
2.108835061239713038e-01,2.207421191759199319e-01,2.500047109968145942e-01,-3.006119484430442440e-02,2.116948400009425330e-02,1.861747684072500436e-02,7.960702478885650635e-02
2.650070085228916628e-01,2.751168044019043357e-01,2.055098653424669852e-01,1.750098596885666866e-02,3.498830617886643929e-02,-1.000751616718269579e-02,9.557966142892837524e-02
2.845057024648873223e-01,2.497204619598213937e-01,1.839199505589308448e-01,6.864216785396263024e-03,9.101015637469601904e-03,-2.884987193319899987e-02,1.035151705145835876e-01
2.641332874882214576e-01,2.496098836149347744e-01,1.908179236263137513e-01,3.509555913775213622e-03,3.633004590791241023e-03,-5.769812190938075278e-03,6.853979080915451050e-02
2.876448632184412935e-01,2.692602402351131907e-01,1.261481655642167632e-01,1.276265306696966473e-02,2.711638667229322730e-02,-3.516852868383502778e-02,1.727864295244216919e-01
2.481680836888481845e-01,2.471200465342286989e-01,1.869560902304801542e-01,-7.403939495507433702e-03,-6.374014478165124578e-03,-9.086701175848629908e-03,6.494534015655517578e-02
2.935974365472101555e-01,2.917946304187416517e-01,1.526256215854573661e-01,1.704773860882420958e-02,9.850030077809830698e-03,-6.768321818491339695e-03,1.446462422609329224e-01
2.542206590027372148e-01,2.421795692505681608e-01,1.579023948548069489e-01,-6.240527174132280697e-02,-6.133620303022989384e-02,-8.787638869392022656e-02,2.332355976104736328e-01
2.391649560772850791e-01,2.657969662989668747e-01,1.739281975590500351e-01,-6.281965160239423758e-03,-5.979250351521604723e-02,-3.873917813955517903e-02,1.484872996807098389e-01
2.401940877469918023e-01,2.523650967052201155e-01,1.973683510396566920e-01,-6.706557810716225199e-03,-1.812195988034497052e-02,-1.714472284592839096e-02,6.712216138839721680e-02
3.217638911446826233e-01,2.027465507056435412e-01,1.554997326206946640e-01,-3.606932570098669855e-02,-2.577182847281841993e-02,-9.755469861229403017e-02,2.376276254653930664e-01
2.580550429271669666e-01,2.325479072454902651e-01,1.892292325531278185e-01,-4.055626174806556926e-03,-4.075932301105996899e-03,-1.205488232279609828e-02,6.455386430025100708e-02
2.630644553694586607e-01,2.379046861663065282e-01,1.966188563255821531e-01,-1.955764192863478686e-03,-4.154454295834843734e-03,-2.279385937799795897e-02,7.069801539182662964e-02
2.646514320786632624e-01,2.499036923761066842e-01,1.803446235225867056e-01,-8.884191768625461939e-04,2.108669702890491552e-03,-4.150864429009523855e-03,7.841680198907852173e-02
2.244389719201526912e-01,2.228293554658522524e-01,2.432591112532498934e-01,-4.104763983398516253e-03,-3.233700644661246636e-03,-3.605599032021957265e-03,2.253886498510837555e-02
2.232217331111100433e-01,2.229781277432194009e-01,2.391690192972346918e-01,-1.623445978886856934e-04,-1.029169167807256939e-03,-9.273528694058957942e-04,1.625105179846286774e-02
2.258608895176319464e-01,2.230039890191195806e-01,2.388578813234359666e-01,-2.613145304415110401e-04,-2.171278919871822387e-03,-9.393532229027060348e-04,1.520559657365083694e-02
2.116913983018080814e-01,2.274558409841993534e-01,2.410710895210692317e-01,-4.452110004002586031e-03,-2.776661319218667705e-03,-5.782669668149764512e-03,2.883471176028251648e-02
2.153892248528581632e-01,2.300007078399751714e-01,2.380748412260314528e-01,-3.435297607206727524e-03,-2.067981690851943780e-03,-5.900882718092619744e-03,2.343836240470409393e-02
2.242296905003471064e-01,2.165627398715782304e-01,2.406308426909182507e-01,-4.274103928716056766e-02,-3.238684922472541416e-02,-3.049601275892955404e-02,1.089525595307350159e-01
2.309539063610191734e-01,2.182408867782028861e-01,2.327637582672789363e-01,-3.407029132289855506e-03,-6.017963409232236945e-03,-2.755072942916208991e-03,1.881880871951580048e-02
2.722161107105845468e-01,2.020396306710708911e-01,2.410445826755542864e-01,5.595047081070331219e-02,7.626857442333551118e-02,-8.013729124448738805e-02,2.231969982385635376e-01
2.612291046292782859e-01,1.953450343098707132e-01,2.421077677077511925e-01,4.170713919279703946e-03,5.165122306894208253e-03,-1.051126369708010183e-02,6.253179162740707397e-02
3.107881336493649727e-01,1.697956076153029070e-01,2.987590561286493918e-01,8.262428651258790779e-02,6.692273762780982793e-02,-7.787589104767387617e-03,2.289668023586273193e-01
2.987331471463650634e-01,2.249415772982656658e-01,1.519910645578817776e-01,2.433215868741884017e-02,1.835273048172014754e-02,-9.843372206845485417e-02,2.190988957881927490e-01
2.755156719830723078e-01,1.742381548394457136e-01,2.718240803219779678e-01,1.915522485113029666e-02,1.778706583922664425e-02,-9.377862007574618713e-03,1.105017140507698059e-01
2.758889211258720442e-01,1.839184611997276009e-01,2.677449694105528688e-01,1.791529730236956705e-02,1.895121449980200282e-02,-2.842025925948856932e-02,1.106315478682518005e-01
2.488838640761866783e-01,2.070622601003443697e-01,2.416474395866685942e-01,6.650394284584321830e-03,8.069764274300766232e-03,-5.758120865576085885e-03,4.388949647545814514e-02
2.955875901710813269e-01,1.160782482944567873e-01,2.152358286575444257e-01,-7.673933049961346661e-03,3.737192044491560901e-03,-9.667197432247889854e-02,2.291529923677444458e-01
2.966924891706866907e-01,2.178610267630299024e-01,1.850159666676421399e-01,1.960515633826129950e-02,2.450192879574516688e-02,-5.545944791332980961e-02,1.485388576984405518e-01
3.014612136573777690e-01,2.225583504936126111e-01,1.392411084877275829e-01,3.110763385106556783e-02,5.871871808996573239e-02,-8.058894198423323385e-02,2.290673404932022095e-01
2.673782619069467459e-01,2.019117836403203914e-01,1.883394240672044417e-01,6.027950590544434162e-02,5.999784319689024925e-02,-7.452423756328084570e-02,2.090939283370971680e-01
2.565013035221192506e-01,2.215085873587458176e-01,2.313565315666536171e-01,6.036285003937942595e-03,5.195685500897327322e-03,-1.014642209789189467e-02,3.841888904571533203e-02
2.477161923762944418e-01,1.954296865944969153e-01,2.814237699630658396e-01,7.220404601599571259e-02,2.721435471905134587e-02,-8.023874454610066889e-03,1.539084613323211670e-01
2.434406261656692494e-01,2.237911684493861242e-01,2.322633866016826643e-01,3.344037746139787853e-02,2.912274023386022398e-02,-2.528841341481794999e-02,9.005051851272583008e-02
2.269737774442492917e-01,2.374075185910322072e-01,2.509472820537180793e-01,1.129003911904640986e-02,5.220955126845267143e-03,-2.409905875129956295e-03,3.024981915950775146e-02
2.446287496193368660e-01,2.169837143373491983e-01,2.435056203896042437e-01,2.547107094823322215e-03,6.694431516572224919e-03,-3.316964034482984547e-03,3.035418689250946045e-02
2.489177572912842640e-01,1.871006637457114374e-01,3.055753173623405594e-01,6.783304478374882485e-02,6.294381837835812121e-02,-3.471906917817477178e-02,1.995991468429565430e-01
2.368959035930332524e-01,2.215909997985510138e-01,2.496571199464202861e-01,1.053604425997667522e-02,5.380289384211338864e-03,-1.657799424597391916e-03,3.194542229175567627e-02
1.802478098262725315e-01,2.007228661016725035e-01,2.728204533898045958e-01,7.731915497879475463e-02,2.599481719925042858e-02,-1.172458491623405014e-02,1.657342314720153809e-01
2.758872641778584711e-01,1.915008955194701379e-01,2.402225982455497844e-01,3.604796743762493649e-02,3.535523720057186930e-02,-4.627618608799159011e-02,1.394855529069900513e-01
2.478896021487129175e-01,2.164097690694512521e-01,2.295101502468054333e-01,4.987779844103716088e-03,6.473426251021644449e-03,-5.467892427539836238e-03,3.225283324718475342e-02
2.644007736117544582e-01,2.627374829963017855e-01,1.643275017399752902e-01,6.327547229594028023e-03,1.212656774883053186e-02,-1.247513606428890358e-02,1.043030992150306702e-01
2.358487778856051542e-01,2.353052438651920819e-01,2.341918966594160600e-01,2.052964257056898341e-03,1.290865801894856488e-03,-7.815087731014886286e-04,4.649233538657426834e-03
2.307713242240813090e-01,2.393905107771090723e-01,2.348263377205944968e-01,-6.328496685094242482e-04,1.174410454477315237e-03,2.188376288939517834e-03,8.688428439199924469e-03
2.422334574290959663e-01,2.360407799405528084e-01,2.261654236634010884e-01,-3.604646958753725261e-03,2.266066028459714794e-03,3.182899455706988956e-03,1.678704842925071716e-02
2.232644485870849405e-01,2.399418001864451200e-01,2.384885789695672942e-01,-1.198671390778543533e-03,2.267540838532633267e-03,5.396822797777567002e-03,1.905578002333641052e-02
2.261160860927454441e-01,2.470194024016438838e-01,2.366135202774088675e-01,-9.910788735581211846e-05,1.135472620930547648e-03,4.418417771070145238e-03,1.975292898714542389e-02
2.293282301840084414e-01,2.127404549422068913e-01,2.887810346355421109e-01,-4.634514963240207730e-02,2.672057676356123790e-02,2.116845647327929292e-02,1.213502213358879089e-01
2.367935758473483920e-01,2.374245733821284954e-01,2.325030315441894424e-01,-4.012541847396343744e-03,4.466032026535666014e-03,5.075890350909119907e-03,1.438561920076608658e-02
2.311083122144862445e-01,2.416944480825199970e-01,2.319390593051798011e-01,-1.257681684263087891e-03,5.619310559613476409e-04,9.867101009981469294e-04,1.061015482991933823e-02
2.178515305039401551e-01,2.437227504670118894e-01,2.184588238802905591e-01,-5.797740718585467183e-03,-7.928296117178013427e-03,-6.106020023893441243e-03,3.248450160026550293e-02
1.746035233301458933e-01,2.602138872009548964e-01,2.318489049200561092e-01,-1.543015646354990375e-02,-4.030006026270770841e-02,-1.128001513163274898e-02,1.080446243286132812e-01
1.992877065988540863e-01,2.463284891268739951e-01,2.571374491939046325e-01,2.574493440218330112e-02,6.825884965120930167e-03,2.231791182346243903e-03,7.057801634073257446e-02
2.185218152158009408e-01,2.365181047954734439e-01,2.514008013701606314e-01,4.585597400680491674e-03,2.172089079124809446e-03,-1.655663602943968551e-03,2.997757680714130402e-02
2.208176756048001455e-01,2.215740511717759487e-01,2.491246499630704603e-01,-8.529691656318560966e-03,3.428351295547344465e-03,3.470866832892006634e-03,3.271260857582092285e-02
1.849638660904016074e-01,2.566573471721224076e-01,2.499557774164526680e-01,1.437529516870941120e-03,-1.269869052133504837e-02,6.243998867128321140e-03,7.287894189357757568e-02
2.354983168838748753e-01,2.234423038047839705e-01,2.496603545620712516e-01,1.408094083460869434e-03,3.685560832084147295e-03,-2.579891916335360722e-05,2.373496815562248230e-02
2.044749889008367905e-01,2.478981012801149131e-01,2.479934047765944838e-01,5.065011681496226111e-03,-3.951410665143968368e-03,7.434971889917632928e-03,4.668355733156204224e-02
2.451240068012749684e-01,2.211673154597891267e-01,2.252907564535474305e-01,1.130933374211564452e-02,-8.326233055426559768e-03,1.696517744776488562e-02,4.412794113159179688e-02
2.254685905802691348e-01,2.297912433824727818e-01,2.507322780244325422e-01,3.130956410822800101e-03,-4.721264360301246710e-04,2.267078254229327756e-03,2.435630001127719879e-02
2.144053291561471286e-01,2.475949628555500215e-01,2.515809281710092993e-01,9.933512166404940419e-03,-2.942694619051478520e-03,7.132824825873452373e-03,4.152549058198928833e-02
1.745222875970997845e-01,2.516213404407596221e-01,2.635699861868444072e-01,1.439999368060063296e-02,-2.068607568702128877e-03,5.575277663613459334e-03,8.795698732137680054e-02
2.226488678025868584e-01,2.350529727165204530e-01,2.537483216556439269e-01,2.596188051275612804e-03,9.623489841227778670e-05,1.537943696896943314e-03,2.761559560894966125e-02
2.264814176804042789e-01,2.358782420781499189e-01,2.436101242580342441e-01,1.648490302305162872e-02,-6.569593322343280847e-03,1.117077148628960528e-02,3.924067690968513489e-02
2.555502116384801847e-01,2.347451992135239640e-01,2.075799491502995919e-01,1.324143340995339452e-02,-7.391285043914950711e-03,2.187265971937143658e-02,6.213784962892532349e-02
2.593653417354621071e-01,2.167017132461075135e-01,2.483942219671307905e-01,2.375153572220879260e-03,3.492148379276103620e-03,1.510171814617366354e-02,4.701253026723861694e-02
2.540777632658925977e-01,2.296512439512043147e-01,2.299516603213823118e-01,8.075413221156817287e-04,2.096701376411150806e-03,5.916626895101924355e-03,2.663777768611907959e-02
2.756968155807853482e-01,2.858841011110435648e-01,1.279716764481168001e-01,-1.155729866534827704e-02,-8.323249901224891167e-02,-1.609308026507801428e-02,2.130540758371353149e-01
2.667289372490656008e-01,1.424105366569863307e-01,2.782449225493786593e-01,5.068318262850229211e-02,-3.835043041582723161e-03,6.490167025457203864e-02,1.934075802564620972e-01
2.511891792627949371e-01,2.335478534529082106e-01,2.229294905742532640e-01,-3.924691627019507071e-04,8.289849539907019225e-04,2.535296071415562517e-03,2.516137808561325073e-02
2.501208473038206148e-01,2.470433118725879340e-01,1.982542412214673977e-01,9.331851180680004326e-03,-6.489740552654088210e-03,8.295647376947351548e-03,5.598257482051849365e-02
2.502506307901294913e-01,2.551154627190514446e-01,1.971170509906731150e-01,7.583790232919135343e-03,-6.536615288076425521e-03,3.144628962599980634e-03,5.861501023173332214e-02
2.471464845435284163e-01,2.457873016690087786e-01,2.258630729935105774e-01,-7.927753562192376910e-03,4.175628120662138593e-02,2.783838022820095057e-02,9.038881957530975342e-02
2.420220785922299334e-01,2.326839189267818631e-01,2.310239766803821038e-01,9.678886880642261197e-04,-5.565178640633955658e-04,-1.221815061278415871e-05,1.044975873082876205e-02
2.497830458432461209e-01,2.334740862951819595e-01,2.257631568917358167e-01,4.625493321623135728e-03,-8.990750655060323953e-04,4.221313627334972139e-03,2.390119060873985291e-02
2.569784801963693188e-01,2.129346047032609490e-01,2.369869549151926713e-01,5.657079735372168077e-04,-4.756338745393142754e-04,6.689960286566963739e-03,3.993651643395423889e-02
2.491371873614192656e-01,2.283399649092132111e-01,2.297066463737699460e-01,2.671868980630329963e-04,-4.211449392580681643e-04,9.174498759921495637e-04,2.022969350218772888e-02
2.471414266378686997e-01,2.287302636240715892e-01,2.296825877669371463e-01,8.960772542591026023e-04,-5.318494346329364492e-04,1.014565274398180868e-03,1.812980696558952332e-02
2.446501092967445223e-01,2.219421999009949797e-01,2.356754635270341403e-01,4.252110817441058337e-03,-5.087926117618649623e-03,3.460117245111176982e-03,2.366891503334045410e-02
2.623219047124210057e-01,2.647992975406638361e-01,2.049384155462818380e-01,2.437560163472522398e-02,-1.696564401665907884e-02,4.779565095629829952e-02,1.137560829520225525e-01
2.509346862515449694e-01,2.296512060615864548e-01,2.247693127290201209e-01,2.205093416842127639e-03,-6.214355509194361988e-04,3.433363763896008121e-03,2.513628639280796051e-02
2.416959242926244311e-01,2.342583447889010351e-01,2.310688224000373991e-01,1.799991707401806321e-03,-5.993247585127663059e-04,3.115790894049430093e-04,1.001507323235273361e-02
2.216637273481639747e-01,2.209768946555967783e-01,2.547538912279354584e-01,-6.253557659954203131e-03,1.199545440329952400e-03,1.254830278346656669e-03,3.527775034308433533e-02
1.011636038953794559e-01,2.424695887070214273e-01,2.721185908815909604e-01,-8.707924972062813795e-02,-6.096879158794406284e-02,-2.522372434264513047e-02,2.466671913862228394e-01
1.497137785750592420e-01,2.843378922070590176e-01,2.704085429087853543e-01,-2.861448588840523333e-02,-5.288783731452385665e-03,8.767461302468018344e-03,1.386121809482574463e-01
1.235419323338554920e-01,3.556219112797652793e-01,2.992726726616520283e-01,3.310859442534125861e-03,-8.381243577751712470e-02,2.949131700952301732e-02,2.601432204246520996e-01
1.731481186751038237e-01,2.400849796394940172e-01,2.761875586079514666e-01,-5.090892938146793223e-02,-3.735483605594478590e-02,-6.172611650281321569e-03,1.423943340778350830e-01
1.484407804198186465e-01,2.677793330056842946e-01,2.640320759058293332e-01,8.005353611895655447e-03,-1.251056337387116725e-02,7.434865319023101909e-03,1.209800466895103455e-01
9.820177905735313906e-02,2.965218841177176268e-01,3.112083027908745803e-01,-5.088299777415577346e-02,1.930404352592534137e-02,-8.053560079513723269e-03,2.270218580961227417e-01
1.143173192699731555e-01,3.096829277791848245e-01,2.499617924883535958e-01,-1.510365745416335486e-03,-8.749908329055366973e-02,-1.649391086187639022e-02,2.320735603570938110e-01
1.513504971712928693e-01,2.729302709385416081e-01,2.665596395659124984e-01,1.826438649838942746e-03,-9.403615977472612117e-03,3.366718592091768724e-03,1.198206245899200439e-01
2.348046730424853401e-01,2.348965780508667778e-01,2.351374716557171896e-01,7.371381406029700099e-08,5.563652217761189166e-04,5.192869720134294775e-04,1.351376762613654137e-03
2.347989335972422154e-01,2.339053415542314551e-01,2.356841551416151148e-01,-5.277749455303854930e-04,-3.526592147311032968e-08,2.618532023127697695e-04,1.847834209911525249e-03
2.325842395917394889e-01,2.375637802576415769e-01,2.336395384476392112e-01,-1.537496255991109616e-04,2.185766478927832150e-05,1.075369956757864839e-03,4.918962251394987106e-03
2.327259427301754946e-01,2.371878650835064772e-01,2.335945938232037444e-01,-1.243252184133805021e-03,4.119062087784395470e-04,7.778321079447925385e-04,4.873248282819986343e-03
2.332236899054890844e-01,2.317987773417910513e-01,2.386329468485476890e-01,-9.868608991957569104e-04,1.144589871428315414e-04,6.176018892697508929e-04,6.565320771187543869e-03
2.296476055208867550e-01,2.312910483239795645e-01,2.417889977767105347e-01,-6.230028210480222095e-04,6.235058046879956000e-04,1.833765745268141258e-03,1.194066088646650314e-02
1.924717732934137782e-01,2.580134301654076201e-01,2.366916977039537073e-01,4.468955988376193539e-03,-1.899956733941875198e-02,9.198283935567735936e-03,6.891700625419616699e-02
2.258654721036500168e-01,2.068004567720844178e-01,2.537715464446285707e-01,-1.053933782265718128e-02,-3.602301659501964785e-03,-2.417474829581401589e-03,4.543070122599601746e-02
1.833110024817417860e-01,2.658159077892214284e-01,2.575566581541955391e-01,5.651891965297984807e-03,-8.380064967227244047e-03,2.408465381870965663e-03,8.073262125253677368e-02
1.805715618502164999e-01,2.599018833956506236e-01,2.497433984772760573e-01,9.504708855913333865e-03,-3.548067735333527376e-03,5.367901892267267459e-03,7.736825197935104370e-02
1.998753670084783551e-01,2.545249967510162525e-01,2.442312610963625619e-01,1.505337518821461959e-03,-1.246332970816466015e-03,8.842333532598636164e-03,5.268788337707519531e-02
2.180537348047265622e-01,2.474958243520415935e-01,2.463916196237493361e-01,9.024449196728389147e-03,-8.245201684377484116e-03,1.019507270404214003e-02,3.994541987776756287e-02
2.285226579467559416e-01,2.277632637552962080e-01,2.509022143378384917e-01,3.537691914783328874e-03,-1.343953622334308597e-03,2.057056310259972477e-03,2.395986206829547882e-02
2.279707838268821007e-01,2.251584086094599035e-01,2.512868821463062341e-01,4.986347126917527184e-03,1.715541706363747176e-04,5.048406001959039342e-04,2.631667442619800568e-02
1.638168766048979097e-01,2.912599623837612839e-01,2.898541675162745745e-01,1.743131236496994405e-02,4.828289661190109973e-03,7.463082927624164337e-03,1.311988532543182373e-01
2.131698353980864824e-01,2.306072289869037506e-01,2.545875736066865458e-01,9.671142332614309986e-03,8.856025183426837529e-04,1.215742818502304904e-03,3.980771452188491821e-02
2.528440876859310849e-01,2.176561789747927245e-01,2.762914431453615260e-01,3.888039383735326232e-02,1.970481654105941949e-02,-7.975864377680361855e-03,9.221588075160980225e-02
1.927402868324496477e-01,2.288456611314849676e-01,2.624263515870898233e-01,-3.123123743284304810e-02,1.817118891336268541e-02,1.162306874184238989e-02,8.925098180770874023e-02
2.228276380601296458e-01,2.218471079210479480e-01,2.518283337465683780e-01,-5.076726812097138823e-03,1.978140885424529028e-03,-1.439855636919224965e-04,3.097674250602722168e-02
1.951042584109739242e-01,2.572852489434283019e-01,2.727321487331259564e-01,-3.662884450997214159e-02,3.638596385710407555e-02,2.490409802271431258e-02,1.221599802374839783e-01
2.189636009425431906e-01,2.440719103700998149e-01,2.401525382374036788e-01,-3.113934039543793213e-03,4.717969168354839427e-03,8.068943589687108467e-03,2.895808778703212738e-02
2.426363092416665423e-01,2.512219162636589176e-01,2.099184353773416445e-01,-2.520633273478877986e-03,8.347382529206952978e-03,3.604078805602955148e-03,4.113563150167465210e-02
2.273052711557793926e-01,2.234674923523599088e-01,2.638104729304440177e-01,-1.932558063677855195e-02,1.218668209523616867e-02,1.580026221295172117e-02,6.166345626115798950e-02
2.147365396574257013e-01,2.396080854660638249e-01,2.438666793066156246e-01,2.636121349964143726e-02,-2.249024938191192952e-02,2.430891785724141607e-02,7.821504026651382446e-02
2.288170671034419346e-01,2.447913491714981959e-01,2.273291992747702162e-01,4.196040735527174596e-03,-3.529148973993388293e-03,5.058237945268231894e-03,2.116840332746505737e-02
2.323063594463132264e-01,2.395150500591013143e-01,2.338781953193606322e-01,4.154425963632619664e-03,-2.916290205785914986e-03,3.877875460281768674e-03,1.286509912461042404e-02
2.222902234193936677e-01,2.470983583220617841e-01,2.286779297274046108e-01,3.055190862013475953e-03,-2.518171723937115154e-03,6.103594253780545570e-03,2.562356367707252502e-02
2.514940645808596553e-01,2.254413542450732777e-01,2.248276232200266123e-01,-5.751356159632746911e-04,4.093754803994341385e-03,1.114540327304184945e-02,3.345203399658203125e-02
2.336087381296513554e-01,2.341989222874494569e-01,2.368013919797496980e-01,6.863593399602491802e-04,-1.593309168279699204e-03,9.659126546036032879e-04,4.526061471551656723e-03
2.294838177146013014e-01,2.410057288890857519e-01,2.625754730391334224e-01,4.539958703453613603e-02,-2.201894120447153366e-02,2.976614841596063321e-02,1.055579110980033875e-01
2.192400324898446939e-01,2.426757254171430234e-01,2.417801476911124736e-01,1.213760218514538074e-02,-4.810860345689855350e-03,5.565491785429432098e-03,3.366551175713539124e-02
2.065411763634791564e-01,2.474623316134642592e-01,2.420541946008743228e-01,3.776088495705519528e-03,-6.157198212866928956e-03,7.908664842344485107e-03,4.273911938071250916e-02
2.146030032174286173e-01,2.471405944704957169e-01,2.379127294692085781e-01,3.454137047293076492e-03,-2.746263814124459343e-03,6.348160042342144808e-03,3.198299929499626160e-02
2.387321484684482020e-01,2.320736769248078479e-01,2.324888085930010562e-01,8.437341214018294084e-04,-1.660305526095629675e-03,1.504334446730130285e-03,7.677109446376562119e-03
2.392580443635425325e-01,2.353891552686213917e-01,2.325285166357032585e-01,2.250044338771909486e-03,-1.649318036456171943e-03,1.635796273849411155e-03,8.099097758531570435e-03
2.441112314888530810e-01,2.302347346580450316e-01,2.310198249755907041e-01,1.309700055269712648e-03,-1.911678115352099822e-03,1.247466618574767823e-03,1.424981467425823212e-02
2.444963836643281041e-01,2.295746547344732491e-01,2.344498243212189414e-01,7.573052034904878072e-04,-2.500494757058014175e-03,1.356911246900438170e-03,1.413084939122200012e-02
2.434991403021559420e-01,2.323107618938378138e-01,2.290732508061089079e-01,2.015044453111580931e-03,-7.494655419225109295e-04,8.090548021899416666e-04,1.370086893439292908e-02
2.389719506499506929e-01,2.379879869207082721e-01,2.231565206488453912e-01,5.939176035089275239e-03,-3.355154507088055089e-03,3.835741030430305128e-03,2.047597430646419525e-02
2.413737577509796339e-01,2.379560052809022164e-01,2.214382593572942759e-01,5.431236317147274464e-03,-2.408500835582687294e-03,3.079487897878323884e-03,2.180178649723529816e-02
2.442781960649917095e-01,2.369883294394271589e-01,2.229443632953136967e-01,5.361199428335270550e-03,-3.705022831657627837e-03,1.816005628974337333e-03,2.213721722364425659e-02
2.248315361263038825e-01,2.044440809411900428e-01,2.564417059608274374e-01,-8.444815650160166637e-03,1.153377454870039339e-03,-8.348983660588334610e-04,4.774231836199760437e-02
2.405405702445195526e-01,2.379120733392631193e-01,2.218203269129751243e-01,5.534438303444425000e-03,-1.985928313071218775e-03,3.370456243906987462e-03,2.111757732927799225e-02
2.442062749168781022e-01,2.283210083073614061e-01,2.348391046557310458e-01,1.642945665419568661e-03,-2.640093629268262538e-03,1.605719053129259482e-03,1.510061789304018021e-02
2.773469613826461400e-01,2.734305963899071323e-01,1.418424854732533991e-01,1.675538598027763448e-02,-7.400816658846795515e-02,5.241361507570222594e-02,2.082343250513076782e-01
2.429871142695740338e-01,2.794178381836553426e-01,2.399147901651213499e-01,6.940556536484260297e-02,-3.382503489194309959e-02,1.152776808646416851e-01,2.433088421821594238e-01
2.107522954603389398e-01,2.954360127560204941e-01,1.375697787549556017e-01,1.526961232957037284e-02,-8.692202042372976223e-02,3.974461564916348388e-03,2.052743732929229736e-01
1.789728618052787712e-01,2.820982223851502546e-01,1.694357688922664140e-01,-9.748901610419443212e-03,-9.479395499580647866e-02,-1.650098837888952855e-02,1.994215697050094604e-01
2.542538534254846772e-01,2.329641225825052064e-01,2.188097239030427077e-01,-1.325331845841664193e-03,3.131111833183855466e-03,5.811316719130792639e-03,3.302935510873794556e-02
2.448260668357931935e-01,2.138480948753158362e-01,2.453204232565602272e-01,5.903518934512070986e-03,-3.632279862804336200e-03,5.748501509312546609e-03,3.490650653839111328e-02
2.413354081651469529e-01,2.315638015038621322e-01,2.318807111678684307e-01,1.639754343726954229e-03,-2.294800733075483181e-03,9.570034672611977232e-04,1.091330777853727341e-02
2.401506543807362948e-01,2.360116734441287112e-01,2.102301222748425846e-01,-6.396189946396472516e-03,-3.851094250818197159e-03,-2.722372116930629922e-03,3.127282112836837769e-02
2.729650173948217629e-01,1.554786904324330643e-01,2.370448503531359108e-01,-3.629045435715259893e-02,-9.143813786831158155e-03,-4.710670698170774801e-02,1.474181562662124634e-01
2.496510457045271469e-01,2.183004319336528665e-01,2.043175278958761776e-01,-1.174180585638558670e-02,-1.134077164294430146e-02,-2.247106998757953875e-02,6.269809603691101074e-02
2.421714599238709575e-01,2.312485532261965848e-01,2.330756393227666201e-01,9.713044412208007850e-03,1.289012709803681080e-02,-1.348253187304828023e-02,3.780903294682502747e-02
3.281298096881176130e-01,3.001238471930361418e-01,6.929238475582966128e-02,-1.258677025707554504e-03,2.200461304048040995e-02,-1.108183688265538093e-03,2.489843368530273438e-01
2.034986943457949560e-01,2.344130480911274239e-01,2.502702037781595057e-01,-3.346948415503548432e-03,-2.975177312375845966e-03,-6.101002926466933020e-03,4.323410987854003906e-02
2.179519384187623421e-01,2.021370090276771725e-01,2.587162373761145995e-01,-2.380735072142651371e-02,-1.080575846721686974e-02,-1.244087976428418126e-02,7.121456414461135864e-02
1.922711377577165925e-01,2.513442544417501812e-01,2.611955406528876367e-01,-4.339127664468543644e-02,-3.315543990269208263e-02,-1.979546442272689735e-02,1.195427402853965759e-01
2.225643038448223143e-01,2.189210300523851682e-01,2.515728007437168512e-01,-2.541723334047272555e-03,1.735084687848314784e-03,1.681572738269777444e-03,3.158081695437431335e-02
2.189293204855444486e-01,1.978157265886070215e-01,2.700277457965526984e-01,-2.612566984053528787e-02,1.867314518360407242e-03,-1.940120377801517974e-03,7.877251505851745605e-02
1.950363205037519143e-01,2.411192587542961285e-01,2.630545112873762248e-01,-9.070724845131076727e-03,2.559854288664315403e-03,2.900913585510919452e-03,6.250897794961929321e-02
1.986945285749220635e-01,2.197198676798575168e-01,2.700649847441335405e-01,-4.071424560715659891e-02,-6.122990693998331055e-03,-6.765009586386206515e-04,9.550923854112625122e-02
1.469285795597012334e-01,2.292118928064128258e-01,2.800696840352415173e-01,-7.805167178569705211e-02,-3.593038151604360103e-02,-2.657396493044274222e-02,1.944466531276702881e-01
2.398698138406971658e-01,2.054834421054361482e-01,2.507576192288056283e-01,-1.828794869232002601e-02,-8.362883636877609453e-03,-1.433605717577743702e-02,5.920377746224403381e-02
2.237569214503345449e-01,2.423391090173723228e-01,2.440531089682290433e-01,1.314561163977717370e-02,1.078018102540398426e-02,-6.948810301336633306e-03,3.730953484773635864e-02
2.358773770140230319e-01,2.336176393178672761e-01,2.500204631793463972e-01,2.458824845385008603e-02,1.904049940964340840e-02,-9.353094177360937733e-03,5.831725150346755981e-02
1.919094099487345939e-01,2.116899509779351096e-01,2.738204079442251859e-01,7.319021479247918294e-02,3.816049190866945690e-02,-1.648384654946791900e-02,1.635074317455291748e-01
2.531445859203215742e-01,2.186368720425814760e-01,2.218782757672236317e-01,1.138627174605783736e-03,6.151407834955673840e-04,-4.687463711252582224e-03,3.406430780887603760e-02
2.519879253646961637e-01,2.178387650193075453e-01,2.265887861352184063e-01,2.084248601724721615e-03,3.835808842193375381e-03,-5.438140232545196802e-03,3.301234170794487000e-02
2.544200020565373088e-01,2.240912422814722582e-01,2.205874235191184196e-01,6.708420870244821829e-04,2.619144297228769708e-03,-7.687047963708105308e-03,3.517923876643180847e-02
2.539046396154253649e-01,2.198013169316145321e-01,2.182668832643381018e-01,-1.083226940917306159e-03,-1.496309021724778797e-03,-6.482815689662105481e-03,3.679725527763366699e-02
1.569120091908740577e-01,2.655386779117602791e-01,2.567186855746462770e-01,3.680091229801818464e-02,6.538831070871253814e-02,-2.473361291078637197e-02,1.721758693456649780e-01
1.761142190346131620e-01,2.855554343246710647e-01,2.547304848914716535e-01,2.224356022735977934e-02,3.131726279749823955e-02,-4.055879726778613067e-03,1.184484213590621948e-01
2.332908682116661414e-01,2.547334827173354799e-01,2.107243623931816801e-01,6.999969579361443352e-03,2.759920921018727685e-02,-7.164530236829164470e-03,6.355357915163040161e-02
1.840445967005878980e-01,2.588556489007916017e-01,2.602999257055168547e-01,9.153817028420857538e-03,8.560830481330817393e-03,1.512790623281169483e-03,7.864435017108917236e-02
1.995814589743979961e-01,2.603912970123761217e-01,2.440884971900224298e-01,6.825871004732591771e-03,7.198475825294708627e-03,2.145389127947400221e-03,5.728251859545707703e-02
1.830294552506438466e-01,2.809939165195418642e-01,2.664497460953407226e-01,-5.180276079992884863e-03,3.389987108907773633e-02,1.531503272880617786e-02,1.123188212513923645e-01
2.443129645155384111e-01,2.444506751172001724e-01,2.172109517498507225e-01,6.684518141119923443e-03,-2.592606426657418934e-03,2.465153701263272153e-03,3.017804585397243500e-02
2.486596471670856900e-01,2.479500566351621471e-01,2.057227326202101525e-01,7.655354199888929692e-03,-3.286506088273413121e-03,5.645675710771250189e-03,4.601578041911125183e-02
2.471903181995799836e-01,2.532017243138103280e-01,2.430686559870360031e-01,3.740022303780202173e-02,-2.235997989581759923e-02,3.653916297980556310e-02,9.889119863510131836e-02
2.452208309706314093e-01,2.283324409719198200e-01,2.271045180507648698e-01,4.421617852415119475e-03,-3.000427634091798121e-03,6.708616966169430630e-03,2.298128791153430939e-02
2.468946535877828696e-01,2.467503863521633700e-01,2.076989437869456445e-01,1.145213009145359430e-02,-1.729114537151836550e-02,1.569100858441647636e-02,5.966320633888244629e-02
2.601616620359624155e-01,2.620537060882538460e-01,1.780254137447466745e-01,4.226070471530616809e-03,-7.986993747604623564e-03,-1.203816414294879350e-03,8.458517491817474365e-02
2.451829522830457631e-01,2.668152691216830741e-01,2.083669085215644201e-01,2.125776140454820398e-02,2.660484629937923118e-02,-1.224427196007793657e-02,8.092398941516876221e-02
2.220649020194641332e-01,2.487149641947069001e-01,2.190416858133781286e-01,-3.660655316376835826e-03,-5.719756266187768327e-03,-3.790999305990305768e-03,3.132726624608039856e-02
2.299642590575305123e-01,2.607942597874250978e-01,1.685036880438333662e-01,-9.661907306480302035e-03,-4.171304614139240141e-02,-1.389642177970403826e-02,1.127033457159996033e-01
2.200356862305416772e-01,2.453552488764251249e-01,2.214529062737767562e-01,-2.027789428292179827e-03,-2.822883477217603531e-03,-3.507149218529198847e-03,2.608347125351428986e-02
1.887182922547682717e-01,2.749745452383032807e-01,1.565200473871630749e-01,-4.207980397989316557e-02,-1.031056287878196892e-01,-4.378437096363133746e-02,2.328300327062606812e-01
2.582892096307985441e-01,2.725269167495278921e-01,1.546122821834239880e-01,-2.750592074966859771e-02,-1.033780604324846947e-01,-3.965410799550302123e-02,2.268829643726348877e-01
2.306178346646018951e-01,2.351409550380358093e-01,1.344503871015478302e-01,-5.413366094804283185e-02,-8.904387032613736430e-02,-7.717030822172700477e-02,2.452492117881774902e-01
1.950923887395449030e-01,1.388291719398489776e-01,2.954162568801986799e-01,-1.031166403457500630e-01,1.105107018940807741e-02,8.740567039710831279e-03,2.266487777233123779e-01
2.510594156665286181e-01,1.371875590472269035e-01,2.826713264289594796e-01,-5.545639745662609560e-02,2.265230100389559534e-02,3.183186122046026412e-02,1.771192699670791626e-01
2.405809107372772759e-01,2.026651923732406824e-01,2.573818240400650437e-01,-1.952496764684712866e-02,5.786535365416434727e-03,4.742470286881271709e-03,6.056805327534675598e-02
2.495807310057536199e-01,2.263553590445064601e-01,2.314176412600945643e-01,-4.623701711053354460e-04,2.523455326918384260e-03,2.355582288097316131e-03,2.199687249958515167e-02
2.542220631155410748e-01,2.189749348049630506e-01,2.462505752944149640e-01,1.033867835012329886e-02,-3.094054475817270295e-03,1.554067103647773299e-02,4.581325501203536987e-02
2.281914152529589679e-01,2.169219215470469808e-01,2.547279662121842980e-01,-2.357285955368851500e-03,2.149054414632711914e-03,1.006283321029280160e-03,3.411461785435676575e-02
2.423318707905901537e-01,1.981409025805975221e-01,2.573656138209511335e-01,-7.721573597955472268e-03,5.636706288850445307e-03,2.787003647399347375e-03,5.604193359613418579e-02
2.221283716272081099e-01,1.817922930442555651e-01,2.958251499663817063e-01,-1.011643117571473516e-01,5.712787368792028586e-02,1.804171021605758748e-02,2.269378751516342163e-01
2.341324641825524577e-01,1.655950176765509374e-01,2.474408314052901070e-01,-6.625274490311675035e-02,5.046278092706456275e-02,6.703258081857625672e-02,2.001860886812210083e-01
1.680611001712029595e-01,2.486515250292115897e-01,2.398216381868996661e-01,8.666299592786486095e-02,-5.608669111619231373e-02,4.344267886159786096e-02,2.085462808609008789e-01
1.841146058475471026e-01,3.340144193191174060e-01,2.576503028534740114e-01,4.992022166437720676e-02,-6.896670560241512093e-02,7.902061753147375522e-02,2.394421547651290894e-01
2.064040149420499071e-01,2.403425115078032803e-01,2.238993632229627218e-01,6.911122747836428992e-02,-5.312112849726974978e-02,5.807616175066957626e-02,1.837860494852066040e-01
2.149416014197895186e-01,2.538277548865080502e-01,2.789453059303890203e-01,3.965762496812445109e-02,5.706299234550133402e-03,1.390642740837916627e-02,9.228099882602691650e-02
1.479278196881944341e-01,2.506936195460669481e-01,3.464656260816793565e-01,5.902643347756868913e-02,-1.232434834458515267e-02,6.060247073039017052e-02,2.269387096166610718e-01
1.865628540247056821e-01,2.618487269559438557e-01,2.591606829991217054e-01,1.887102823222681219e-02,-2.253820652802800487e-02,2.832823287176486089e-03,8.993970602750778198e-02
1.944002804002231688e-01,2.818677669366558280e-01,2.225690338139196256e-01,3.616461993643759615e-02,-4.745361606091998835e-02,3.480755707971303764e-02,1.424572318792343140e-01
1.818616903442537291e-01,2.745137882041295829e-01,2.549998411952410504e-01,9.247514705331250084e-02,-7.104903479836538471e-02,3.115645870295554593e-02,2.255398631095886230e-01
2.521079123534931687e-01,1.776771809038831251e-01,2.795150590743206154e-01,7.432722654399656625e-02,-1.552498632665885725e-02,4.619330154126067428e-02,1.789669543504714966e-01
2.421661965787359483e-01,2.047832276609813651e-01,2.893592160738703289e-01,-4.612689919885953199e-02,2.032518517165285768e-02,1.644983899077329809e-02,1.175716221332550049e-01
2.390165690046971714e-01,2.051728543282612671e-01,2.466625489536035942e-01,-8.812272156998894254e-03,9.017622520732616193e-03,6.277215048438589129e-03,4.536251351237297058e-02
2.346776132353773636e-01,2.237683381324577225e-01,2.416265385789623799e-01,-2.992317143591243477e-03,4.781373768479579671e-03,2.246088706372106891e-03,1.880661584436893463e-02
2.345847186197708989e-01,2.356048469538831180e-01,2.348428418077006252e-01,-1.452411014779839268e-03,2.045454364378051539e-03,1.924691138312295720e-03,5.553145427256822586e-03
2.248231634973548443e-01,2.071790122086027142e-01,2.546626033639586284e-01,-8.762694778519632133e-03,1.373820852396757768e-03,2.133783155974721356e-04,4.432102292776107788e-02
2.218033976961986120e-01,2.258073240763938117e-01,2.501609041744301543e-01,-1.818812928779883677e-03,7.167991582558578059e-04,2.821238857010957210e-03,2.723934687674045563e-02
2.246700680915310611e-01,2.243851857234400726e-01,2.491687370061199391e-01,-2.450863875218786941e-03,2.500222680120541344e-03,1.787630286977682625e-03,2.556571178138256073e-02
2.277202506452451203e-01,2.268386579403868786e-01,2.441354260393198694e-01,-7.066399450809183721e-04,6.710273593623910116e-04,2.332081157774848045e-03,1.743190549314022064e-02
2.148464929415976887e-01,2.613206498571848946e-01,2.634625961254508653e-01,5.440529674423068285e-02,-2.064328458061730556e-02,3.561303176468086362e-02,1.273855865001678467e-01
2.261695045156718320e-01,2.449950158770821951e-01,2.218589225640829332e-01,2.330912734947241174e-02,-2.386462977891389697e-02,2.222057448471984401e-02,7.262162119150161743e-02
2.096157230976611052e-01,2.398736098378183301e-01,2.590338890935486305e-01,2.224877171809167692e-02,-5.320616014492247914e-03,1.409386913568490274e-02,6.346863508224487305e-02
2.179141381311685277e-01,2.555228058246629130e-01,2.394087114886163381e-01,9.113666752942447408e-03,2.564974282285784751e-02,-1.483458080001929559e-03,5.742432177066802979e-02
1.986358019994783619e-01,2.470785695717750141e-01,2.528402883747657981e-01,7.267039271249302844e-03,-4.874509500416665531e-03,8.123836056810100625e-03,5.555821210145950317e-02
2.056567072500748716e-01,2.471060830490649507e-01,2.383916393723223559e-01,1.003460658506181991e-02,-3.517093294084885566e-03,6.802916256594887696e-03,4.371284693479537964e-02
2.300596774617570950e-01,2.290758243810934458e-01,2.541735230217593289e-01,1.114105925256387783e-02,6.537139964477313957e-04,6.711585142769866189e-03,3.339098393917083740e-02
2.254670042664535523e-01,2.289773053406433667e-01,2.503511977842262093e-01,7.089829775193103902e-03,-2.390007255297310184e-03,5.065770910389392166e-03,2.809116989374160767e-02
2.411022541185804113e-01,2.065382889269204436e-01,2.552754908826901925e-01,2.243480209168611031e-02,-4.931208540493840949e-03,1.761425034249724728e-02,6.632592529058456421e-02
1.841439163380861055e-01,2.503975693225297117e-01,2.109747908853710496e-01,-5.887728807127217551e-02,-8.604786994312332848e-02,-4.658410524214697673e-02,2.060445249080657959e-01
2.165024129779362372e-01,2.541087636935869254e-01,1.972929055462072090e-01,-1.017851503395111705e-02,-2.462782788008642185e-02,-9.810224917901920472e-03,7.017663121223449707e-02
1.613071059176622302e-01,2.717267925165638420e-01,2.492939311588953100e-01,-5.863846402305754324e-02,-1.013775443124195486e-01,-8.442850897217635264e-03,2.271127104759216309e-01
1.591193994553635471e-01,2.354966578247296716e-01,2.421110259207038817e-01,-6.605832125161822943e-02,-7.049734402478344264e-02,-4.753911444521830010e-02,2.028868049383163452e-01
2.223988592885180748e-01,2.399338469462973245e-01,2.226727646257112003e-01,-5.450334242604164443e-03,-7.002383264027987886e-03,-6.961963159201525059e-03,2.616052888333797455e-02
2.044064232730485042e-01,2.544380267817729635e-01,2.152198913715637485e-01,-1.171057149372222578e-02,-2.607655988993989871e-02,-1.041157035754478044e-02,6.968251615762710571e-02
2.396923441815891898e-01,2.407912075773853966e-01,2.292945376853624539e-01,5.993281087819617506e-03,6.238293213549126956e-03,-5.433690262668007705e-03,2.082858048379421234e-02
2.013235501731675259e-01,2.492100308360117589e-01,2.352859779862971346e-01,-5.333807814319575617e-03,-4.290291952087021098e-03,-6.304219780508048612e-03,4.560721665620803833e-02
2.415267753861742583e-01,2.503118864636139085e-01,1.973608471826633348e-01,-6.438402003608578901e-03,-2.160564886133205936e-02,-1.348599208140052567e-02,6.697908043861389160e-02
2.166841712041722989e-01,2.543446312554617506e-01,2.257362658561533619e-01,1.067480981617229549e-03,-1.324582087188103455e-02,4.301390668549346296e-04,4.110563918948173523e-02
1.925888516682906781e-01,2.596401187424710044e-01,2.418632985135470703e-01,-7.667527975601946821e-03,-2.544908598444588915e-02,-1.911019253897320181e-03,7.583024352788925171e-02
2.285667109152577092e-01,2.585362588447592258e-01,2.142041561177674136e-01,4.752606953642537265e-04,-1.226803608039436430e-02,1.380512167494205543e-03,4.464084655046463013e-02
2.478392827881894245e-01,2.268129616300762763e-01,2.141900648422773168e-01,8.807059963195518898e-03,8.157932711286359356e-03,-1.672523919132436546e-02,4.624290391802787781e-02
2.441518448974410727e-01,2.406624397084372313e-01,2.159811252388995906e-01,6.812114308112252048e-03,2.290012267154791469e-03,-4.478371329597760631e-03,3.037401661276817322e-02
1.112899716751865470e-01,2.810851531746934029e-01,2.670042573717688605e-01,-9.735961830444912063e-03,4.106760759835156871e-02,1.640996171161210326e-02,1.810792088508605957e-01
1.188591964855293670e-01,2.594186122966621877e-01,2.913192740141951620e-01,-5.185291429495648280e-02,1.703592386217323007e-02,1.137214210593239308e-02,1.859660148620605469e-01
2.241743051929268038e-01,2.526381533747293351e-01,2.217987699094863818e-01,-2.038274022044689879e-04,1.096458221842283587e-02,2.217965361793325894e-03,3.548238426446914673e-02
1.986487832383462826e-01,2.486879734127543096e-01,2.595435344082764884e-01,-2.518272748511964088e-02,2.922424942959087751e-02,7.724533962945813806e-03,8.836657553911209106e-02
1.844376873578821296e-01,1.803477413059622336e-01,2.799863282669733389e-01,-9.120824162627826082e-02,3.774271927614705063e-02,3.881228111367070188e-02,2.080543339252471924e-01
2.030654316276183646e-01,2.392416286756051114e-01,2.489704951393946486e-01,-7.172735184889115698e-03,8.891445635370136269e-03,8.364430928593853676e-03,4.854616895318031311e-02
2.005567082900868436e-01,2.491148096244086285e-01,2.490287152557169592e-01,-4.433591018417952674e-03,8.683297188220952256e-03,9.042716206738840579e-03,5.370472371578216553e-02
2.315328174543734852e-01,2.408893951845438586e-01,2.328130988045405969e-01,-1.738325976309044009e-03,3.422559069465411219e-03,3.564097685967057474e-03,1.263016462326049805e-02
2.030893698850456675e-01,1.939007951172374289e-01,2.576359749186430403e-01,-7.486599137391908299e-02,5.632845229723135172e-02,5.961835878912957742e-02,2.013887912034988403e-01
2.383873161252897666e-01,2.317300088391580082e-01,2.331329303426556143e-01,-3.872572063912194454e-03,5.463204243830262555e-03,5.008874909183860108e-03,1.570811867713928223e-02
2.399245014399995490e-01,2.438662623759371983e-01,2.244879625460716177e-01,6.063167473386530879e-03,9.547288316471046546e-03,-3.802769635910285481e-03,2.723587118089199066e-02
2.551131263242525371e-01,2.570928146972200068e-01,1.986185486375129650e-01,6.870186698059572300e-03,1.335982605233317598e-02,-1.897825286484608725e-03,6.320804357528686523e-02
2.111731324312875191e-01,2.543244358289247220e-01,2.428809554373466129e-01,1.586988646561687984e-03,4.066195959233034896e-03,-6.752996965413210137e-04,3.946786746382713318e-02
2.490265641390756735e-01,2.413128509864149174e-01,2.029030426932572351e-01,9.508892250520241396e-03,8.710502204260390027e-03,-1.524572038030797341e-02,5.502061918377876282e-02
2.500105710745110787e-01,2.515837907582386679e-01,2.141630092204594993e-01,1.333465750007585549e-02,1.730283811259259591e-02,-9.531956586302065340e-03,5.520957708358764648e-02
2.598161533599207540e-01,2.014127133286172655e-01,2.444233121576473988e-01,1.537569108179666008e-02,1.054751507741424031e-02,-1.986765421749548538e-02,7.054121792316436768e-02
2.386001510367858347e-01,2.136211653062520255e-01,2.422303526967592990e-01,1.319561692871736719e-02,1.052007689418322373e-02,-1.048506425770656149e-02,4.372648522257804871e-02
2.442487542163729042e-01,2.446274766125946243e-01,2.146824796646595590e-01,6.757200316972691682e-03,2.197982372368719427e-03,-4.271912959413731725e-03,3.304127603769302368e-02
1.386843189488473627e-01,2.538107212533882717e-01,2.595272044438897141e-01,-6.638245837281078754e-02,-7.146044891170014179e-02,-2.944296808689306558e-02,2.123328298330307007e-01
1.206293016397712303e-01,2.582532170974972674e-01,2.898748020907832013e-01,-6.627021179497488701e-02,-8.237255924819544828e-02,-4.218928106385191890e-02,2.513222992420196533e-01
2.511885611543301366e-01,2.360002240108981519e-01,1.675521927143223955e-01,-2.701237586254825324e-02,-5.056857517811536029e-02,-4.799319486274589847e-02,1.507515162229537964e-01
2.594935644990646884e-01,2.550053061151982825e-01,1.763230497446936496e-01,-1.183054500738384357e-03,-4.044494167174905036e-03,-1.020380713732771741e-02,8.324550092220306396e-02
2.211622274342559813e-01,2.580869282323196012e-01,2.044995937823428367e-01,-4.015827705850381901e-02,-4.819797028899176078e-02,-4.474437951859657620e-02,1.416676193475723267e-01
2.423201425818228838e-01,2.290458279599117963e-01,1.897590158577535657e-01,-2.843538381193744247e-02,-3.654941567645270811e-02,-4.880775063586474671e-02,1.257817447185516357e-01
2.075649815197462000e-01,2.748741459150191302e-01,1.656911254422168134e-01,-3.721124695063734306e-02,-8.418201963068550064e-02,-4.226011551430003399e-02,1.996849030256271362e-01
2.537635504594709657e-01,2.443746818020280376e-01,1.876815523463661595e-01,-7.322294619942619487e-02,-9.137820968593117488e-02,-5.989529115869666326e-02,2.360754460096359253e-01
2.018423326950775643e-01,3.133110788355406573e-01,1.572292563209736760e-01,-3.179394603321299140e-02,-9.333218883067538607e-02,-5.040880707960564144e-02,2.370168119668960571e-01
2.264453013898372891e-01,2.510964698511783944e-01,2.137272567051195782e-01,-4.806034491832911898e-03,-1.134480898532383257e-02,-3.844275591035197642e-03,3.978299722075462341e-02
2.528287480908003038e-01,2.513281441400687655e-01,2.102875744104663880e-01,-1.947955290558954413e-04,9.717382558866649242e-03,3.767728173640484506e-03,4.554283246397972107e-02
2.351557644061667007e-01,2.532261474278223456e-01,2.109145118659926377e-01,3.604167748989322087e-03,7.529946886455390898e-03,-5.310075994305814588e-04,3.952394425868988037e-02
2.523683869366906141e-01,2.566713760815792500e-01,2.058456295476503994e-01,6.824340632929589735e-04,8.184858202517531975e-03,4.671574232507625518e-03,5.148702114820480347e-02
2.542168952899927503e-01,2.606532841411700052e-01,1.921182423258090410e-01,9.950121846797450008e-04,3.609641910901034527e-03,6.868451748239308430e-03,6.693987548351287842e-02
3.364879233528647040e-01,3.273269513914714990e-01,1.165222306407233954e-01,5.679499015652270111e-02,4.728626159722594535e-02,8.351880672690328855e-02,2.894216477870941162e-01
2.499785390478069247e-01,2.559981487613499640e-01,2.020123517049574879e-01,3.240788319982826782e-03,1.057462658770165140e-02,-5.810978798215515016e-03,5.562380328774452209e-02
2.642143625128674511e-01,1.538378064906733567e-01,2.934323039812223310e-01,-1.303170387623512130e-02,6.406875342744157951e-03,1.419787381498883311e-02,1.322838068008422852e-01
2.241062784792660911e-01,2.378372353988789656e-01,2.453689430094967150e-01,1.947219550979261207e-02,-1.013928900056587645e-02,9.295218261121703310e-03,4.531888663768768311e-02
2.494223939282604607e-01,2.343862673585413170e-01,2.184048134951953879e-01,-2.367613319784649464e-03,4.586647537685400663e-03,6.542068425067253806e-03,3.049780242145061493e-02
2.258598586398949393e-01,1.972452677579487890e-01,2.605496005800624348e-01,3.128425789685075620e-02,1.172906181809687740e-02,-5.203056401607533861e-03,8.027981221675872803e-02
2.518579632288998060e-01,2.142721305992816849e-01,2.425626845252651098e-01,3.074232183039239674e-03,-1.889546623393307222e-03,4.305177642938220334e-03,3.527596592903137207e-02
2.522281292294481503e-01,2.736897294395410074e-01,2.102167231044180240e-01,2.210143372829264860e-02,-2.697004396036174409e-02,4.035914936956800508e-02,1.079877018928527832e-01
2.518482656815997367e-01,2.166719858962999345e-01,2.346167373326252248e-01,2.457520929775130515e-03,-3.368835468437947431e-03,6.129182155230627344e-03,3.306087106466293335e-02
2.072469151424461697e-01,2.279956054899224538e-01,2.763115581614950522e-01,2.587555513387856942e-02,1.233536078597591464e-03,6.300975979718366655e-03,7.680974155664443970e-02
2.467165112255087223e-01,2.199180152176754000e-01,2.473713382008841388e-01,1.384235262993366126e-02,-7.655677694745347678e-03,1.442747279571659873e-02,4.594837129116058350e-02
2.752312576204852812e-01,2.461598345196019944e-01,2.060249518923408796e-01,1.025318277787183943e-02,-2.228091474393146046e-03,2.866730465590777016e-02,8.011525869369506836e-02
2.766640932820546572e-01,2.382668228037093661e-01,2.122749487912483080e-01,6.293544845585964838e-03,1.567893637071375926e-02,5.238181450388310068e-02,1.106156483292579651e-01
2.474002313169939571e-01,2.284202343890757436e-01,2.299807707181120708e-01,1.327297022874905381e-03,-1.304368815095138931e-03,2.307639901084973782e-03,1.895841397345066071e-02
2.450080893940583537e-01,2.295479592105589550e-01,2.298686844541217300e-01,1.459839623865114401e-03,-1.804042364876960302e-03,2.456945791732827178e-03,1.638373918831348419e-02
2.519566557271550877e-01,2.603760236891239366e-01,2.117779510527873499e-01,2.657125661583218876e-02,-2.451845234024518233e-02,3.820193604546084226e-02,1.016032248735427856e-01
3.123557384897636124e-01,3.411202577399294888e-01,1.085118296465696630e-01,4.826944515268156294e-02,2.645763399195849921e-02,4.473301938237710801e-02,2.516667842864990234e-01
2.937896189680925252e-01,2.890952952868569015e-01,1.118887172726585610e-01,7.853488792591699352e-03,-1.318972401505352776e-02,-1.562532195476815100e-02,1.835632473230361938e-01
2.424187321528344652e-01,2.315008827651355849e-01,2.308633111999533749e-01,-1.561720425049497934e-03,1.653416706647003066e-03,1.289077324451606875e-03,1.212725322693586349e-02
2.701916128199552958e-01,2.631124728028227944e-01,1.744951529850447547e-01,4.248386554161010312e-03,4.318231576358151809e-03,7.875841241282766406e-05,9.295473992824554443e-02
2.336624304701356847e-01,2.369658186963124469e-01,2.324117629980393673e-01,-2.101115782203092416e-03,1.452950276992695435e-03,1.246183935520762953e-03,6.390943657606840134e-03
2.513506915999074165e-01,2.525640485395772017e-01,2.038651926243968404e-01,-1.035616370426989050e-03,4.423885340388887880e-03,3.532994844125365332e-03,4.912573471665382385e-02
2.096404175058464436e-01,2.279440089568131877e-01,2.577018841116041625e-01,2.502406671699711899e-02,-1.715496738214603110e-03,9.154317948675211661e-03,6.248258799314498901e-02
2.449178272780019872e-01,2.807660081270096364e-01,1.861471350483723808e-01,7.378044850867102739e-03,-5.422034770978783474e-02,7.004932726863792418e-03,1.263960450887680054e-01
2.615079483012331396e-01,2.683649741178227854e-01,2.210922810027866336e-01,2.628911789952947595e-02,-2.310675168217276448e-02,4.012069084551746212e-02,1.022824719548225403e-01
2.452451032458022873e-01,2.678058074950149248e-01,2.010568449497532606e-01,7.964190809659414672e-02,-7.897322465770488520e-02,5.289116816331657089e-02,2.226875424385070801e-01
2.358125916778482101e-01,2.458227739203574791e-01,1.602674078724626583e-01,5.355138421480305083e-02,-6.324726468302437066e-02,7.943963246944668599e-02,2.147076278924942017e-01
2.543749478414057408e-01,3.043680566622943284e-01,1.663507198292272227e-01,1.965651446501117186e-02,-6.233928183944441315e-02,5.888984086942262997e-02,1.946019381284713745e-01
1.475094712478165204e-01,2.698667224694765165e-01,2.448642913176390934e-01,6.542521775731705014e-02,-6.225572893616924952e-02,4.369335777419355860e-02,2.067201584577560425e-01
2.339278468448841020e-01,3.086937618037636222e-01,1.279795057272475056e-01,-2.055312040535671805e-02,-1.067549402987949675e-01,-1.536387887453677771e-03,2.453579902648925781e-01
2.681319333674401229e-01,3.214637441892703729e-01,1.384449151546647272e-01,5.760917554912771410e-02,-8.326972668720002135e-02,1.972579405170906894e-02,2.418775707483291626e-01
8.265976440975192352e-02,3.018118363871527543e-01,3.181972515168691729e-01,1.114653129162626079e-02,9.729014024107954586e-03,-6.242760925782163579e-03,2.294790297746658325e-01
1.912185304696909227e-01,2.525101598239579137e-01,2.294902036486343444e-01,3.501069723472460815e-02,-4.408639137556792653e-02,2.871544998386452857e-02,1.218911781907081604e-01
1.640793257855051590e-01,3.368097103901632194e-01,3.294546772573698767e-01,6.869052228942357230e-02,6.586080311005992893e-02,2.210452620147297306e-02,2.392767667770385742e-01
2.291020824601494310e-01,2.305481412394199681e-01,2.472431174599086234e-01,6.957510189899850268e-04,-3.200124858810597227e-04,1.427583260031038215e-03,1.768696308135986328e-02
1.774363868610399075e-01,2.811411075957241379e-01,2.722159080598092196e-01,-5.506882853163370083e-03,1.573155251609259161e-02,1.089877266778867607e-02,1.053494885563850403e-01
1.728001108948556963e-01,2.656014939352251969e-01,2.720858415162904498e-01,4.137236215704747332e-03,1.715496016751029071e-02,9.652231200204079709e-03,1.023211851716041565e-01
1.773797001150065611e-01,2.735552431088139613e-01,2.477122659724240172e-01,2.830563016156222023e-02,2.578266066164783613e-02,5.148701585316549020e-03,1.091307550668716431e-01
2.055851787597866021e-01,2.629940932113295493e-01,2.482787210727714911e-01,-1.746059099198162164e-03,3.373580581400247719e-02,-3.134201635345704087e-03,7.823337614536285400e-02
2.733345198072192339e-01,2.519347459813956469e-01,2.360340938805547129e-01,-3.924189955690792625e-02,1.163365302561685521e-01,4.394148101635152182e-02,2.281796634197235107e-01
2.591244534724941317e-01,2.498526740280301028e-01,2.787364488056887080e-01,-1.505567831577285000e-02,9.337587976400450740e-02,1.067742173723514182e-01,2.483783811330795288e-01
2.510344953924384392e-01,1.646942661482582448e-01,2.610632836804461787e-01,-4.778497185547462417e-02,3.487999020053690613e-02,5.936363746851347489e-02,1.717360615730285645e-01
2.678182758279698539e-01,2.203105624976783306e-01,2.543859871482536117e-01,-1.524942961566076380e-02,2.877490027344374590e-02,3.899265206490003938e-02,9.768404811620712280e-02
3.478311759742344078e-01,2.014637622791992655e-01,3.083212597820622625e-01,8.239913109777882716e-03,5.234719202782607550e-02,1.069829008839423834e-01,2.448711693286895752e-01
2.874375765166997665e-01,2.582068467701258419e-01,1.604374792651854786e-01,1.494576782152946121e-02,4.647031162160749490e-03,-2.107157771063425389e-02,1.238470897078514099e-01
2.342578621166663821e-01,2.349046112852301027e-01,2.346777512723702275e-01,2.743884851714476435e-04,-5.899942250812109830e-04,1.990853829348917452e-04,1.308464794419705868e-03
2.334597639424337012e-01,2.353757910808851883e-01,2.371044268083452866e-01,3.173809069353703102e-04,-3.666532910834933968e-04,5.741057665203257209e-04,3.415514947846531868e-03
2.330000213976499146e-01,2.334546706792529069e-01,2.383595538847320394e-01,5.432730565247116021e-04,-1.153023337375378050e-03,3.912984727925585145e-04,5.641609430313110352e-03
2.235987932638931197e-01,2.468393597672066397e-01,2.231024692124588260e-01,1.294221615195946832e-03,-2.713214878024048683e-03,1.807507738617950520e-03,2.426553145051002502e-02
2.359053344539467634e-01,2.276842827433492311e-01,2.387077411362255319e-01,3.388051779945375642e-03,-4.143682999920738318e-03,2.253814501235644387e-03,1.413024961948394775e-02
2.281695379365942800e-01,2.413405852775293015e-01,2.285569982350895424e-01,2.319832658302728272e-03,-2.504066476465126572e-03,9.890700253173000025e-04,1.436711661517620087e-02
2.336315655193793028e-01,2.330764655363864457e-01,2.384141315595758315e-01,7.599293707365386988e-04,-1.761237600369442878e-03,6.775164025510119160e-04,6.184764672070741653e-03
2.374078864053784099e-01,2.342227260712206605e-01,2.327034545279478839e-01,8.428771848588558846e-04,-1.793145117377977513e-04,-1.069348203239715687e-04,4.422063939273357391e-03
2.449122077497508654e-01,2.280820431528763903e-01,2.392228550588489377e-01,-4.405836521846757427e-03,7.001508373472569748e-03,6.840799274031029477e-03,2.378145419061183929e-02
1.783546692844560633e-01,2.564897754839293165e-01,2.313658921268436641e-01,-3.815567890154903524e-02,8.466349080027804619e-02,5.307470183000797398e-02,1.977253258228302002e-01
2.287002467060205158e-01,2.534921820270092940e-01,2.087359643157872258e-01,1.246673335487186694e-02,2.279480520359727577e-02,-1.141728383759898525e-02,6.264420598745346069e-02
2.279594819042922438e-01,2.496907320685371467e-01,2.299750412366517449e-01,7.062941689028433149e-04,8.057282527211441633e-04,1.345167589687257009e-04,2.088079228997230530e-02
2.266479560877418531e-01,2.462567582052302417e-01,2.244578110418098682e-01,5.160902113261403058e-03,8.835449578354795039e-03,-3.606402596551016790e-03,2.802439406514167786e-02
2.179417280949440261e-01,2.573357933039382428e-01,2.345861698541744922e-01,-8.019496979123094758e-04,1.323100125275516667e-02,1.000844003408964383e-03,4.127166420221328735e-02
2.108831709890743034e-01,2.323347566563170041e-01,2.861957032962560987e-01,-5.099677469023111698e-02,2.112168960487676578e-02,2.282999230020795953e-02,1.233717575669288635e-01
2.820697301990042205e-01,3.363475913445450050e-01,2.055740732920498248e-01,3.781302698306258231e-02,1.054335154815334435e-01,1.586580104923238435e-02,2.265899777412414551e-01
2.837989570189045629e-01,2.727899131630852070e-01,1.276567739055419759e-01,1.295152613928061448e-02,2.344797198751595244e-02,-3.916556872742560369e-02,1.718635410070419312e-01
2.626764082470832151e-01,3.438062212802434070e-01,1.216046058961199883e-01,-2.360451126650387615e-03,5.952521054240429016e-02,3.654960643627881006e-02,2.293087840080261230e-01
2.582725968213241408e-01,2.349044955919930011e-01,2.139484668513300381e-01,3.957859801248948470e-03,2.572586276670715388e-03,7.734030814122981948e-03,4.148758947849273682e-02
2.239207285267503234e-01,2.508079732332684775e-01,2.490231837993946429e-01,-1.790534653023044542e-02,2.783039613926206052e-02,3.963255349533802152e-02,9.314363449811935425e-02
1.498290824053902237e-01,2.476354610476851625e-01,2.733663443852430985e-01,-5.843765616148106218e-02,4.055795409377910971e-02,2.805380851674891401e-02,1.740275323390960693e-01
2.291146379143061129e-01,2.320830635576599521e-01,2.465608387396522883e-01,8.713220676199723421e-04,-2.399273030447716991e-04,1.012179841763268450e-03,1.633761078119277954e-02
1.689492582055752146e-01,2.679226428098122614e-01,2.852443987369251421e-01,-3.100396713237415364e-02,1.033782501639640694e-02,8.019225603235334565e-03,1.233184486627578735e-01
2.187434993612191736e-01,2.540790946961524743e-01,2.511461648901599508e-01,-8.117351322795380783e-03,1.634407138741361329e-02,1.123028899568843247e-02,5.030892416834831238e-02
2.147513850221203502e-01,2.528263895537671280e-01,2.363378050814562981e-01,-3.502588846606731064e-04,6.347913242799219265e-03,2.778627304410703769e-03,3.518799319863319397e-02
1.651351973359548586e-01,2.716490585372561828e-01,2.659658203243145946e-01,1.540996771650327609e-03,-3.716750659053977626e-03,5.192410590357212502e-03,1.044107675552368164e-01
1.771408773261151093e-01,2.600547559018656085e-01,2.631273570884288260e-01,-4.081149648312828830e-03,6.166586983192446671e-03,7.014259005163447913e-03,8.631663024425506592e-02
1.807111967728825819e-01,2.538365400357131541e-01,2.633579167661748710e-01,-9.647130592510926028e-03,7.674018881705456374e-03,7.072787757774963088e-03,8.209855109453201294e-02
2.046077462250724954e-01,2.486771680323040523e-01,2.478553974423786388e-01,-3.598891331857859664e-03,6.947171203681308180e-03,7.372665702361254694e-03,4.746881499886512756e-02
2.156420022903966227e-01,2.521325444721849718e-01,2.363561041397554408e-01,-1.762921256369901195e-03,5.026792474444654983e-03,3.217189893582430779e-03,3.348052129149436951e-02
1.980283987141783220e-01,2.568374147084293568e-01,2.484904532068105965e-01,2.347264267870027756e-03,9.849280234705553791e-03,2.663976728211607525e-03,5.801844224333763123e-02
2.367335561314360959e-01,2.252931761574938629e-01,2.437862382778266668e-01,1.311067742825147492e-03,4.522076605781749289e-03,-1.082635866193698776e-03,1.820243149995803833e-02
2.489291978944694894e-01,2.070241681769691977e-01,2.410901965852152995e-01,6.383831701251936261e-03,7.822049103146710980e-03,-6.044262223499949349e-03,4.363943636417388916e-02
2.374530148442238198e-01,2.259809492188064040e-01,2.438031192025328919e-01,7.235292338446041097e-03,5.919664524076946599e-03,-3.238398324023720153e-03,2.320384047925472260e-02
2.358971158057830142e-01,2.323733727808581784e-01,2.312438091225760273e-01,3.395492125969617071e-03,2.788022836804676576e-03,-3.325260329753919938e-03,1.042843982577323914e-02
2.313382679251280993e-01,2.283736546282161273e-01,2.397073315880548783e-01,5.851488095515891379e-03,5.420064912922974674e-03,-3.906471272975439030e-03,1.844651252031326294e-02
2.890546728547408462e-01,1.609099034292295061e-01,2.622097350464357435e-01,-9.500493402902975351e-03,4.972550135577571799e-03,-4.496616734758836914e-02,1.418186128139495850e-01
3.169453162416089320e-01,1.375144410385211458e-01,2.461102783291191365e-01,-4.713132018941185858e-02,-6.282197032961734685e-03,-7.726782960827861813e-02,2.218028008937835693e-01
2.200184659921921027e-01,2.387655474268614575e-01,2.472306727394532611e-01,1.090576203677946776e-02,-9.752446091654395563e-03,1.020494218022639787e-02,3.919652849435806274e-02
2.215387883629439947e-01,2.316921387690643597e-01,2.482041311429227792e-01,9.104716818088654656e-03,-5.394921881358659237e-03,5.802520016416982604e-03,3.131132945418357849e-02
2.239173365425357054e-01,2.280392706388547075e-01,2.475796418080819516e-01,-2.230195054850488655e-03,1.557737947958258776e-03,2.508928965357871878e-03,2.281327918171882629e-02
2.176051676699427284e-01,2.200510725247125376e-01,2.628028910272852681e-01,-3.143529832502882371e-02,5.638890610684687416e-03,2.935729699286754573e-03,7.088051736354827881e-02
2.450708122258679345e-01,2.270164502614082369e-01,2.443537680204949381e-01,1.353242702074655690e-02,-4.620351625636212080e-03,1.156684864750120480e-02,3.644622117280960083e-02
2.510932917525476316e-01,2.470862109954751751e-01,2.051474741759351794e-01,-3.681376546558677749e-03,1.057925093728721323e-02,1.801422325590608386e-02,5.738398805260658264e-02
2.342647874197978375e-01,2.265069788994634181e-01,2.439668332711075194e-01,-1.442757171559333603e-03,2.833928117791131764e-03,8.929719964359042732e-04,1.619599387049674988e-02
2.313770690191543911e-01,2.224264105399172409e-01,2.472964969674024127e-01,-1.887965638661345293e-03,4.117398527442309858e-03,1.531980494816176592e-03,2.333720028400421143e-02
2.331780776760480622e-01,2.395638264552475138e-01,2.319567445169401498e-01,-1.726386134355153415e-03,1.105459925832829281e-03,1.287993663612516148e-03,8.225126191973686218e-03
2.332180369137911713e-01,2.331442733030001657e-01,2.368710768874926209e-01,-2.141356185540349056e-04,1.023076531668964863e-03,6.646399344437364364e-04,4.268777556717395782e-03
2.397680058827136862e-01,2.290832082906157918e-01,2.253654973598004374e-01,-9.159773090035822074e-03,1.206960121814857137e-02,1.576011327582199986e-02,4.001978039741516113e-02
2.185039098817017911e-01,2.903945044341164072e-01,1.817178754692429510e-01,-1.222091068080044182e-02,9.041228637106145383e-02,2.793713817348962222e-02,1.909939497709274292e-01
2.862498712441156057e-01,9.262876538335970689e-02,2.843125518698170762e-01,2.295730350758982616e-02,9.984301642133519214e-03,9.865029384230413964e-03,1.982168257236480713e-01
2.584349884486272786e-01,1.983205474938661839e-01,2.468474770681885755e-01,4.944675148344089175e-05,3.533773083381025644e-03,1.264628123404986162e-02,5.973855406045913696e-02
2.639010029780311517e-01,1.762950965288526683e-01,2.676529171302183818e-01,8.177091281994791280e-03,4.985351147872573406e-03,1.797895082409157064e-03,9.111758321523666382e-02
2.556273165931089997e-01,1.890422594741544005e-01,2.618313359632061244e-01,1.510296264365455256e-03,2.295810213966807505e-03,2.300214720322010450e-03,7.016895711421966553e-02
2.645542505680599232e-01,1.520292774929760116e-01,2.680830123535299370e-01,5.097249954889760022e-03,4.447802792949780322e-03,3.689464464839025716e-03,1.151065900921821594e-01
2.532984071716066765e-01,2.234545736883309652e-01,2.196293818463662950e-01,1.670267691930899532e-03,-2.207162745126174501e-04,-1.091550893878419576e-03,3.211751580238342285e-02
2.525571323189387818e-01,2.202966802342458674e-01,2.195746702027373265e-01,-2.398375454136606475e-04,-4.387738564604555432e-05,-3.286127548264730180e-04,3.263514488935470581e-02
2.538689341371310748e-01,2.174613522939350119e-01,2.211465502984694687e-01,7.416290433000697442e-04,5.398279233233555918e-04,-1.816501240685923762e-03,3.489049896597862244e-02
2.314167660104186341e-01,2.323979381907845809e-01,2.446173042932067720e-01,4.490935429479743154e-03,-1.858402221766563330e-03,3.793551309110070914e-03,1.662240922451019287e-02
2.600948180946595634e-01,2.254639554346711261e-01,2.231318836101473246e-01,1.419675158369498522e-02,1.159267390071465169e-02,-2.183976131483336344e-02,6.102651730179786682e-02
2.417813144466067210e-01,2.308668133071139494e-01,2.198872562081897464e-01,1.002619621651344370e-02,1.066199204484703962e-02,-1.187688797332355287e-02,3.775318339467048645e-02
2.543506899813450239e-01,2.347665088867875172e-01,2.121400458811270595e-01,3.453945023700642943e-03,-8.185295921563946883e-04,7.371353497399571811e-03,3.923553973436355591e-02
2.176993917401460477e-01,2.552851035668523560e-01,2.349946235172378495e-01,-7.541432509424872768e-03,1.256858867498589043e-02,1.237329721494636985e-02,4.653579741716384888e-02
2.423841229644430328e-01,2.459737950817537655e-01,2.201675321766808080e-01,-3.327382460229184012e-03,2.986772735021812029e-03,3.419827228629336233e-03,2.610125392675399780e-02
2.519238292769259147e-01,2.338171915341636931e-01,2.230861042592019450e-01,-6.504953371385300068e-03,7.419079803533320042e-03,1.316581415058523663e-02,3.807095810770988464e-02
2.509928517254308433e-01,2.354170117372511029e-01,2.231174017423471767e-01,3.352379124360889591e-03,-1.260202966082783467e-04,2.040000010878186953e-03,2.513387612998485565e-02
2.363122110768575146e-01,2.342746168054651024e-01,2.352681772595009158e-01,-6.079303908128755665e-03,5.133598115686551985e-03,3.305556968458776574e-03,1.502763759344816208e-02
2.327413115739850047e-01,2.395276822097652247e-01,2.323865272278111682e-01,-1.599377280688674043e-03,5.917590215153464405e-04,1.399893999546499099e-03,7.949343882501125336e-03
2.309738743357627744e-01,2.413428617845938262e-01,2.336538738712508334e-01,-1.216156889027377678e-03,3.155014748760980123e-03,4.747492525475268191e-03,1.374135911464691162e-02
2.338335009390722641e-01,2.371532308533247091e-01,2.357322116311111326e-01,-3.846447574818464762e-03,5.271512686122633434e-03,6.065405783665014233e-03,1.569847017526626587e-02
2.333383683931523067e-01,2.356885675326031160e-01,2.350552695369030887e-01,-1.992550138835411967e-04,2.133800271582256671e-04,1.091514753328772869e-03,2.875072183087468147e-03
2.321022617606737781e-01,2.357696268786268756e-01,2.360496366469994056e-01,-8.353313814708626314e-04,1.247385920158755124e-03,2.499015122495954182e-03,6.328613497316837311e-03
2.408332220310576977e-01,2.346565642492218495e-01,2.235834557605959338e-01,4.957025085932394333e-03,2.254787835488292983e-03,-3.247270741645861495e-03,1.870193704962730408e-02
2.441566017149129908e-01,2.221797500456010876e-01,2.330065234552291253e-01,1.468920408067764553e-03,5.285784888303381342e-03,-2.719255782335369947e-03,2.178847044706344604e-02
2.438638144461363344e-01,2.316144718261924640e-01,2.277892767108597727e-01,2.215102124375554603e-03,7.509986205887095529e-04,4.912529484368680695e-04,1.512186042964458466e-02
2.463962269890890289e-01,2.256061409017723896e-01,2.263745320588478882e-01,9.826172231657782571e-04,1.671012121505647272e-03,-7.175931221540713485e-04,2.072827704250812531e-02
2.439979351086493664e-01,2.284805260199057331e-01,2.263798591239790936e-01,7.492193258186824424e-04,2.782000811031624206e-04,6.750485722919092072e-04,1.676552742719650269e-02
2.499033694632992741e-01,2.275232766092703807e-01,2.233343550720841564e-01,2.276704039735356119e-03,4.523475974649562772e-04,-7.006375118290716865e-04,2.509583160281181335e-02
2.391123682598150502e-01,2.277499821752779763e-01,2.340359969374299631e-01,4.155838623635666786e-03,4.499105256800770523e-03,-6.112872320009213670e-03,1.793973520398139954e-02
2.495646191085338361e-01,2.234506293122635601e-01,2.232716993397013128e-01,1.209970720217322133e-04,5.336139357757776688e-04,3.569640370191098163e-04,2.622833289206027985e-02
2.518165460850837478e-01,2.234501653122108189e-01,2.208450248554864326e-01,1.603134918148587306e-03,6.195676270909994746e-04,-1.125134400216632261e-03,2.996658533811569214e-02
2.338357699079661456e-01,2.361108261610892212e-01,2.344291201407001923e-01,1.678840821126285042e-03,5.959766422838463484e-04,-1.572436794226280419e-03,4.595301579684019089e-03
2.549771010991567777e-01,1.781913646719751054e-01,2.656588017244349009e-01,2.301762703584557968e-03,-4.950815658903526262e-03,3.213951268822257124e-02,1.000930592417716980e-01
2.478189962760784515e-01,2.123333374444213717e-01,2.310097093730651696e-01,-4.738350757253561620e-03,7.408611932076257164e-03,9.397818978607161075e-03,3.797724470496177673e-02
2.303891266118313352e-01,2.024424034411392015e-01,2.620111436831343288e-01,-1.817028780359283835e-02,1.286439092255856065e-02,9.918751079830952569e-03,6.668435782194137573e-02
2.469011059954900333e-01,2.274514719967422050e-01,2.323256983850722213e-01,-1.274000787175629543e-03,2.565974539182550116e-03,1.184241996447613380e-03,1.833231002092361450e-02
2.469801734064033527e-01,1.941803409544264059e-01,2.457243356631151621e-01,-2.135841781082147353e-02,1.157762146555324327e-02,1.955619407545611255e-02,7.510722428560256958e-02
2.417592471156822798e-01,2.110615059011337613e-01,2.514925550065502113e-01,-1.100326323786620514e-02,9.274028720749028301e-03,9.122331513549871915e-03,4.697624966502189636e-02
2.294326131561512105e-01,1.825102154733806714e-01,2.739547751350614457e-01,-3.544487321459684898e-02,2.881441878544438798e-03,6.353844020681292601e-03,1.009359210729598999e-01
2.627663298643522216e-01,1.143034821970980025e-01,2.806325159902329780e-01,-4.862224407460898762e-02,1.428035668764110998e-02,3.747305900728133132e-02,1.921710819005966187e-01
2.253335720700113121e-01,2.321512819602356836e-01,2.502270052559669722e-01,3.536730460192519156e-03,-7.151854470627363493e-04,3.644949618514264737e-03,2.398676238954067230e-02
2.614468355927168641e-01,2.616663741634987494e-01,2.283300061355105770e-01,1.048653816765338920e-01,-3.916130268456598229e-02,6.498109426489385998e-02,2.266334891319274902e-01
1.961467934057055662e-01,2.532479494135639886e-01,2.319348040439933034e-01,1.032694956350413765e-02,-2.122407111596776724e-02,1.033882168658479227e-02,6.700583547353744507e-02
2.787355094049708271e-01,1.967222287195594110e-01,2.605314290806506339e-01,2.909911450607704370e-02,2.315273451098965110e-03,1.997001624899135200e-02,9.652642905712127686e-02
2.516643353749817291e-01,2.051630056482636466e-01,2.599314664487602511e-01,2.410553279253312142e-02,4.369219710251139727e-03,1.639255961499797368e-02,7.226202636957168579e-02
2.470803987114108813e-01,2.252871878471332800e-01,2.599064370138683411e-01,4.771268728979428941e-02,-1.305212934712117641e-02,3.010618583793162745e-02,1.047792658209800720e-01
2.459149236304817576e-01,2.194283807326663505e-01,2.420518286868435509e-01,1.438319032992411463e-02,-4.991799073650909045e-03,1.262121335325381774e-02,4.227774962782859802e-02
2.695998518523305409e-01,1.989847039649034754e-01,2.389451942499207504e-01,2.041810382287533379e-02,-1.214758715841911946e-02,3.089484455867472223e-02,9.120518714189529419e-02
2.310520900978989267e-01,2.343341562514684728e-01,2.382964990192999732e-01,-7.167874870947248589e-05,7.181540504009821437e-04,2.300028872521226245e-03,7.543860934674739838e-03
2.213617517599448803e-01,2.230914035283532437e-01,2.467779891310330209e-01,-9.446480347579885167e-03,3.192938425401084350e-03,4.013193287706253755e-03,3.084842488169670105e-02
2.337720803892352484e-01,2.369753789530896770e-01,2.348622353730230317e-01,-2.046379340613628962e-03,2.117208941181426395e-03,2.157119393041004134e-03,6.922982633113861084e-03
2.299683753430611655e-01,2.369312190369999571e-01,2.325210938281278006e-01,-4.041826542561783794e-03,5.074325391500512754e-03,4.023826052827568153e-03,1.456201635301113129e-02
2.359339090393704486e-01,2.370115751353615852e-01,2.315612487347980253e-01,-2.779908370158297448e-03,1.106924494115035578e-03,9.458916582877634118e-04,7.384947035461664200e-03
2.360015609196255693e-01,2.360558912830041378e-01,2.282030467750373603e-01,-4.051876189311558012e-03,3.166313891779105882e-03,2.785405211856305848e-03,1.280033774673938751e-02
2.309392765572976236e-01,2.387975275417185683e-01,2.332635512368864961e-01,-1.009143487123350010e-03,1.652222174667404521e-03,3.141432350471974784e-03,9.473122656345367432e-03
2.229070006991660802e-01,2.355013425150863093e-01,2.488763268297481956e-01,-6.291702915643442723e-03,5.824251372765795569e-03,7.103013827969139465e-03,2.962832152843475342e-02
2.354867084982389669e-01,2.263433472546227676e-01,2.416227889085162117e-01,-5.847144092067214395e-03,4.617851024148383020e-03,3.599565609082686947e-03,1.956447027623653412e-02
2.448266199149026490e-01,2.210879298325381104e-01,2.411288590573205382e-01,4.247099871532902977e-03,-4.244104154819607934e-03,3.115106142283721995e-03,2.503360435366630554e-02
2.604395961849950147e-01,1.648310355834084473e-01,2.479024172175248453e-01,-5.636237739725211138e-02,-5.624241094424067139e-02,-7.975463579246609702e-02,2.149458080530166626e-01
2.796692006311675138e-01,1.349355669730546436e-01,2.038686285352383221e-01,-4.786970994791309858e-02,-3.063178333289056504e-02,-1.022581009852923245e-01,2.382902950048446655e-01
2.320611807836319429e-01,2.340282337109555744e-01,2.420341111391412503e-01,3.053231932865668827e-03,-3.187538669975581267e-03,3.871592498240754299e-03,1.367943454533815384e-02
2.534695678794727791e-01,2.494464371856983664e-01,2.014472632101902416e-01,1.145088790011248789e-02,1.050245265542852462e-02,-3.078552840970417027e-03,5.714821815490722656e-02
3.097568580434114094e-01,1.158025844943054439e-01,2.802648191321405191e-01,-6.202407743453501598e-02,-5.509851387885260007e-03,-5.784747046513374902e-02,2.333215773105621338e-01
2.545515971591325588e-01,1.824226692064790933e-01,2.431178075603811495e-01,-1.756161556643745167e-02,-4.386947584007473873e-03,-1.866899347208954285e-02,8.085275441408157349e-02
2.757180357356851519e-01,1.513785907021254762e-01,2.440216671964045292e-01,-3.846797526200298328e-02,-1.435009874047824159e-02,-3.874839818288006860e-02,1.486112177371978760e-01
2.646318518896024208e-01,2.011065618633241514e-01,2.360798094320973317e-01,-3.481431619734078747e-02,-2.518882699090624344e-02,-5.376408274641911178e-02,1.313323080539703369e-01
2.420867506704121042e-01,2.327043944045339707e-01,2.284114293704231635e-01,5.718579609049758219e-03,-5.556144806865908996e-03,5.069724649431255580e-03,2.036077901721000671e-02
2.551570790009285439e-01,2.116403460625589372e-01,2.429461252310288477e-01,6.671609552810776542e-03,5.349888037817218667e-05,3.557058721371107041e-03,4.102353379130363464e-02
2.569956964620777051e-01,2.538063732493983093e-01,1.883276940704168290e-01,6.939917987176785069e-03,1.683093765601850669e-03,-9.264868885858847103e-03,7.012104243040084839e-02
2.580095279182328394e-01,2.366753812290834647e-01,2.210860916953616417e-01,9.226031120077070671e-03,-2.119141473705551081e-03,1.500894817807659626e-02,4.444539174437522888e-02
2.528117340204444341e-01,2.110960822457559338e-01,2.452190803954255593e-01,2.427786108911177739e-03,-1.166934090793826130e-03,8.171824184162006233e-03,4.127002879977226257e-02
2.456503368013135957e-01,2.264342228321300221e-01,2.435698346299224881e-01,1.097825263375315497e-02,-4.542550687286755519e-03,1.425125743546175675e-02,3.696449473500251770e-02
2.455164661228614598e-01,2.363285947959330169e-01,2.239048419801222267e-01,-3.047268382957684773e-03,4.050995510773459062e-03,5.836166409718950010e-03,2.306916192173957825e-02
2.619516095722492777e-01,2.406434842097400773e-01,1.852882622100924526e-01,-1.339016309513491390e-02,6.895424778202138838e-02,7.499264251461026931e-02,1.907128691673278809e-01
2.441546161694028716e-01,2.491297047589901559e-01,2.096583933753588536e-01,7.854427713361065294e-03,4.043456438071748975e-03,-1.838869740862730893e-03,4.038108140230178833e-02
2.366837615047165666e-01,2.301000259614560117e-01,2.334829145835789210e-01,-4.605162244847612121e-03,4.417834120270450540e-03,6.016029490799800102e-03,1.622558571398258209e-02
2.293735735591983516e-01,2.391516638289442331e-01,2.389975377523470557e-01,-4.153698002637216773e-03,4.877164448626158597e-03,5.365914271832526380e-03,1.742488704621791840e-02
2.421755095195442797e-01,2.457038892929496732e-01,2.086231943552492862e-01,-4.152618770918344200e-03,9.524240348937404801e-03,4.791253251561717295e-03,4.061190783977508545e-02
2.377995356667332028e-01,2.290803976089378080e-01,2.373748030894836103e-01,-1.379342955263210746e-03,4.158399683969835753e-03,1.091253470386920532e-03,1.156103797256946564e-02
2.441099228174253288e-01,2.301443752886895844e-01,2.320037265481328659e-01,1.954327749274564275e-04,1.397374612017807582e-03,2.703548088580957844e-04,1.336857024580240250e-02
2.390917167762697249e-01,2.311878501092351212e-01,2.342149175751019052e-01,2.919458843108164114e-04,1.943018364295362021e-03,3.327007745315599375e-04,7.721556350588798523e-03
2.414227291647612073e-01,2.307868791417827525e-01,2.342414345814626542e-01,-4.456986615050542526e-04,1.035208626511464804e-03,1.108390080474699717e-03,9.788239374756813049e-03
2.303968055441511786e-01,2.187871316061032190e-01,2.523486175082402250e-01,-8.273857117594991817e-03,1.590409197727376015e-03,5.690774471626301387e-03,3.437488898634910583e-02
2.410733747261012971e-01,2.289843070377659273e-01,2.406089199403926571e-01,-1.909708980029185474e-02,1.806767310991272760e-02,2.232781256365855976e-02,6.090779229998588562e-02
2.455683875680691464e-01,2.342562973641898749e-01,2.280246255749162065e-01,-1.824953829242729857e-03,1.346085535230929359e-03,1.501014266576255161e-03,1.610828004777431488e-02
2.584406987617899887e-01,2.522537392651530430e-01,1.919342492460196503e-01,7.333118758893619402e-03,2.703895487519816787e-02,-3.004592789762080413e-02,9.546112269163131714e-02
1.595683286163901704e-01,3.170145154054014314e-01,2.821225068528269153e-01,3.174051918670948297e-02,7.425027782343726623e-02,-1.090663425608660343e-02,2.010763436555862427e-01
1.983253050218790614e-01,2.635107718825110967e-01,2.496444622192931506e-01,1.113141220103895613e-03,9.473237603225954234e-03,7.498390648352908430e-03,6.308057904243469238e-02
2.183782309663787058e-01,2.496469046227289545e-01,2.358026069131189395e-01,2.038239956794214453e-03,5.213611899012224847e-03,-2.669785641894646851e-03,2.918721362948417664e-02
1.480416568614899564e-01,2.608530350865313485e-01,2.760335269348902498e-01,-2.623803767142827634e-02,-1.187363352681242330e-02,5.889398103524403141e-03,1.313837766647338867e-01
1.897458544793360624e-01,2.479037138486107628e-01,2.517541051452717449e-01,-4.717798976503525220e-03,-6.072371044312866763e-03,-4.819836237376281911e-03,6.219468638300895691e-02
1.983872795767910591e-01,2.469722831695718157e-01,2.379193110954410939e-01,-3.540028380912602426e-03,-8.154099236035852044e-03,-7.347813185214798273e-03,4.900667816400527954e-02
1.769420326664848941e-01,2.593339610793491956e-01,2.586043399265742226e-01,-3.661998157276323551e-03,-9.787963540918804758e-03,-5.444365664832955237e-04,8.400821685791015625e-02
1.823890228311740580e-01,2.653185281595172862e-01,2.489589935660181386e-01,-2.560598150845083253e-03,-5.827821792139688435e-03,3.175052382904106139e-04,7.687725126743316650e-02
1.897191156568321102e-01,2.653496341735033792e-01,2.400553836361744575e-01,-1.336899676064404012e-03,-1.214413452375904742e-02,7.896798222102180409e-04,6.997449696063995361e-02
2.457906965689685419e-01,2.226840513426497359e-01,2.169361856093103280e-01,-1.360764482466947367e-02,-2.327485239155678218e-02,-2.594762930476076160e-02,7.000190764665603638e-02
2.569063953129659961e-01,2.112742477979783207e-01,2.258786667197152931e-01,6.508542879623549320e-03,4.090269319243913966e-03,-1.709995878006830006e-02,5.180396884679794312e-02
2.574668145243225181e-01,2.284875611765682102e-01,2.125633906617652169e-01,-3.421889833680017822e-03,-4.354050179411440499e-03,-1.385819921067824208e-02,4.714867100119590759e-02
2.653221988116052366e-01,2.196707232304012103e-01,2.245852440204618994e-01,6.799940302126455775e-03,6.295608022543654723e-03,-2.338350287036359415e-02,6.149667501449584961e-02
2.560582782143913105e-01,1.985450968659749904e-01,2.408956095267798803e-01,2.731618545910109112e-03,8.246797892578866876e-03,-8.101791857798286076e-03,5.557832866907119751e-02
2.491215311410130973e-01,2.164086217838848414e-01,2.269802969576602825e-01,-6.561257105658323263e-03,-5.674803707169888585e-03,-1.162754233845729630e-02,3.830697387456893921e-02
2.607480312594186445e-01,1.903628692734533612e-01,2.388517139395003874e-01,-9.081503734002754728e-04,1.875560481761204788e-03,-1.249986494000374787e-02,6.613706052303314209e-02
1.423307602861865473e-01,2.966578817378417443e-01,2.485223534915732835e-01,-7.670532864757875768e-02,-7.067667823723551568e-02,-2.444051569358801981e-02,2.305081039667129517e-01
1.688757875763827465e-01,2.725997850132801936e-01,2.442882580911947266e-01,-9.034284269553679789e-03,-4.126863711837007453e-02,-1.218294356492039508e-02,1.200960204005241394e-01
1.797871408251038583e-01,2.834971017964629247e-01,2.426274764263445516e-01,-2.025530630858853737e-02,-4.530489800139523432e-02,-9.726268186938514734e-03,1.259354203939437866e-01
1.540940155735302519e-01,2.621386471643751825e-01,2.625622830884906111e-01,-2.795176063016751103e-02,-3.169175440391062276e-02,-1.543240524311566275e-02,1.333831846714019775e-01
1.751940769620950189e-01,2.571854410781548861e-01,2.683294997312027919e-01,-3.309976118463454908e-02,-3.341038284664813590e-02,-1.577203198627265572e-03,1.200145706534385681e-01
1.699202748989743494e-01,2.646711489517828420e-01,2.609166546244735541e-01,-2.267777870155850486e-03,-4.102519256028181079e-03,2.036776989789163949e-03,9.335120767354965210e-02
1.448068933435918693e-01,2.980884893168235239e-01,2.808972582697829568e-01,-1.628954710494827374e-02,-1.991680440817279046e-02,1.269539392881608927e-02,1.537052094936370850e-01
1.079833359239921742e-01,2.687679830029621186e-01,3.366542404956045509e-01,-3.384149811148349368e-02,-2.776746183498548723e-02,-9.455867662359843800e-03,2.176979333162307739e-01
1.058137264104219433e-01,2.821928306809933229e-01,2.961367094523423837e-01,-3.740265893795618329e-02,-2.185509161471253445e-02,6.400873683495745745e-03,1.987867057323455811e-01
2.650418199692001764e-01,2.541771674065680386e-01,1.733887056272890581e-01,5.543229764028569789e-03,8.564718533484656435e-03,-2.050653315588264053e-02,9.537480771541595459e-02
2.425480369948995740e-01,2.560594435229192056e-01,2.194223219052005291e-01,2.978625383660183528e-04,4.899845343543911963e-03,7.002804387095495041e-03,3.534440696239471436e-02
2.419149815578087448e-01,2.317852597326003350e-01,2.257480312225308150e-01,-7.044952009284641790e-03,1.195911811274240864e-02,1.239454431073894192e-02,3.520006686449050903e-02
